 B Cr Fe 
 1.0000000000000000
    20.0899999999999999    0.0000000000000000    0.0000000000000000
     0.0000000000000000   20.0899999999999999    0.0000000000000000
     0.0000000000000000    0.0000000000000000   20.0899999999999999
 B   Cr  Fe 
  27 206 480
Direct
  0.4438557804769874  0.6021334698182533  0.4952762001314092
  0.2377505475716346  0.9805460245007361  0.3669730871571543
  0.4902101143092518  0.9823515585080648  0.4728236402975480
  0.3050817528689521  0.6674085470513000  0.5581623911064194
  0.5714498569726663  0.9132346902565386  0.5722625084440720
  0.3714751039374291  0.0056339938680426  0.7555199045456714
  0.4840005828551865  0.7403450027316980  0.3550710198710676
  0.5455629342474279  0.0595770066113359  0.7884719293653349
  0.2364001260673951  0.7287169141436903  0.4256106596797558
  0.3632807841016629  0.7994606975702573  0.6919225686496099
  0.3346469879169405  0.9699970876677074  0.3610626327068029
  0.6247516350257925  0.7296206917103916  0.5037394132916388
  0.4344708687922090  0.9511061050512399  0.7368928759631692
  0.5459528524612204  0.0564948403711788  0.6429092921446991
  0.4967321149232954  0.7137466923160271  0.6064911320362438
  0.4146174738159693  0.0059597255851194  0.5082533512915661
  0.3995459479879706  0.9939512991083924  0.9122436326827257
  0.4891490711869512  0.1254429981857210  0.6445222855311160
  0.4190590432519575  0.7654965695090826  0.5005009856584258
  0.1052613632529998  0.8372170083065531  0.4208896372632144
  0.5142918313744218  0.8514117679397192  0.5719788369809210
  0.2908211927841970  0.7968984673968178  0.3076505398405684
  0.4477455215409319  0.8454313026219218  0.5105096694868402
  0.2902610888489139  0.6645195984916961  0.3995059615070854
  0.2913443875908687  0.9365561853410935  0.6468625768158985
  0.4869907806451660  0.1226197352435839  0.7863786215160674
  0.2896449710424113  0.8077929717610940  0.3979320827247931
  0.5007327970725693  0.2185639278238901  0.3550345347536337
  0.4302249493327185  0.2872586771105893  0.0016233056881111
  0.5023283454703584  0.3584578554807582  0.3547287742226656
  0.5021749378844313  0.2156468941534227  0.2117042129611898
  0.4325974926671246  0.7955280570369299  0.6037629211900127
  0.5001366722824760  0.2181875775233760  0.9305092912491135
  0.5721594936622033  0.2855053647510588  0.1406435712011957
  0.7163738141663683  0.1432132750579569  0.5701406324732858
  0.3569700771038255  0.5014563638102139  0.0719038250382254
  0.5020016461472450  0.3624754180274264  0.4985402613974084
  0.4216243701115551  0.9987664509190682  0.2870098863052893
  0.0009125374285120  0.2860133010601468  0.9995488762412638
  0.3362835965675319  0.9062104409297803  0.7418151113910615
  0.5726338082252497  0.4297071308594435  0.4269250573184256
  0.3574193971327910  0.0926791092811061  0.6494476414778517
  0.4296126756376304  0.2898221957404277  0.8583795286777925
  0.6455879914440050  0.9298125856426976  0.2131056740238981
  0.2831360953723777  0.5715567931901941  0.1412177831570388
  0.4494439617356360  0.0337256863767133  0.8324778685671940
  0.1409753896931848  0.2878268135093724  0.1411269629740451
  0.6479157092181488  0.7837486094852332  0.7904578557237414
  0.2117362477623840  0.3614177803164930  0.7867963965535290
  0.4300750269741571  0.1456766464803443  0.1423658800656618
  0.1327595010731480  0.7191104167503820  0.4331087339031258
  0.0697746762405213  0.7858655049289648  0.2108342135065962
  0.5787283672608621  0.8585210815713878  0.2756756521902684
  0.6389451212103805  0.9200458318456656  0.3624040605463604
  0.9995578570953744  0.1451424754784610  0.4293097515690414
  0.0014004868321147  0.8595849899661565  0.1406245895463339
  0.8585293733466176  0.1428581279740659  0.8566867797954772
  0.1421453300808834  0.7146018028960216  0.8579852177836176
  0.8581204174728071  0.0005556228738986  0.1433664391254860
  0.0011890625153147  0.0007299057949156  0.2851902109563099
  0.8582901966501323  0.7126322587156390  0.7159109663036901
  0.4424376067031824  0.8399175152222674  0.8642616599241385
  0.5752038196721383  0.4271795634040958  0.7176179235401696
  0.7884419058733124  0.0750203824371844  0.7869551144802135
  0.2100479101860082  0.0854018366195815  0.5014587124215139
  0.7861953976199201  0.6428480227956496  0.3562137337195752
  0.7187710542192891  0.7107372896075251  0.2814847794873632
  0.7868140860613279  0.3560829615498766  0.0702540157230221
  0.8577039229158395  0.1434794677798799  0.4281383227205091
  0.4318892279854464  0.7091288210050419  0.8567391837604590
  0.7160204368970369  0.7123909228103408  0.1399997669693809
  0.4350545407991474  0.7166337726339760  0.7037385833042099
  0.7151136883312208  0.7186544555934831  0.5722107301464401
  0.5019371025911701  0.6411182613477924  0.7854291106351566
  0.5109481504667213  0.9393392276195459  0.6590399781670471
  0.6460822483724866  0.6440618515844653  0.2134401597548845
  0.6524128305107145  0.9295929247599077  0.4995356420271522
  0.2872277551892861  0.5723940536502654  0.8576854845486634
  0.2115951729948216  0.2176964897952853  0.0703277874261989
  0.3602209379969774  0.7818515621012512  0.7928102453046491
  0.2103201098218082  0.2182885266036118  0.9293151979050825
  0.2874036327965585  0.7140989571342229  0.8590632000686943
  0.6443682009483672  0.4975381489557016  0.4985418115481352
  0.2829242859171309  0.8515522616328477  0.0025138282612140
  0.3573482291221736  0.6424868475115112  0.9274313725811689
  0.4675150561368796  0.0476758563888104  0.7151031398407706
  0.2851559355990426  0.4293136365923721  0.2833684095001681
  0.9291778989850654  0.0752121824507843  0.4983314193184421
  0.7175614055954899  0.8620931076044466  0.2824002567638174
  0.0815094018325478  0.9244355887163217  0.4926636763344553
  0.2122302907302185  0.9305087064996923  0.2064603029094105
  0.2144940120252382  0.7839905931111935  0.9273381048167351
  0.3565221653262379  0.5013613548658755  0.7876675130430241
  0.5789071499034486  0.0057912221645588  0.4231128400927159
  0.1389694724168429  0.7140567972230817  0.2789359752488567
  0.2870670769423614  0.4292451604095012  0.4241866739029786
  0.2107746651636066  0.6408716804633808  0.2115808930131529
  0.1416544174811983  0.4300981847015657  0.0002016140218605
  0.3575542579598347  0.3601965603980519  0.3534843283402094
  0.3859360238445979  0.9807334801023968  0.6479319623356895
  0.5745822498909540  0.4297357963311441  0.5691643091959725
  0.3300299151508727  0.7281331119905227  0.4694199902844839
  0.3583011235593287  0.3619522252917826  0.4965945028489703
  0.2153826281812351  0.0720629698093862  0.0683878542183347
  0.7866829823279516  0.0747060565279329  0.4973311869307808
  0.1382479717714620  0.1505968430438760  0.5711075690863237
  0.2220406361987065  0.6494090677148605  0.6339921197886276
  0.2530580954216553  0.8933780704741255  0.3065448536910274
  0.2862751626575218  0.1516109413580242  0.4302673653874356
  0.2630986032190484  0.8408831745737891  0.6980478982143081
  0.2796012157076406  0.1551865628770605  0.7144816261321584
  0.2902608761744073  0.7158254630476427  0.7193207492419494
  0.5055681802939187  0.6342406893163600  0.3441120277115092
  0.0730195375020504  0.9319327525221540  0.7848475490267045
  0.3581840506847360  0.0898344225450148  0.5099783645971352
  0.8582167009946795  0.5704292326680290  0.1407410672547948
  0.2185600444905191  0.7891139887757608  0.2221523620032608
  0.4997594944527687  0.0740423468532425  0.0746993469803672
  0.5006292263574283  0.2153201456570683  0.0723748758460244
  0.9302110978003956  0.6430594942999127  0.9288207487510495
  0.5066032214253589  0.7791888091395248  0.9306764096513288
  0.1523261829289085  0.9933165142423073  0.2922817805398001
  0.6474092603033306  0.6409573175098777  0.0694083677921818
  0.4297837793124205  0.5691353717786360  0.1402206359211300
  0.2006764439186692  0.8268337784490939  0.4691345380601876
  0.9276552525464679  0.2140895977957420  0.4990316829755242
  0.5200655895560281  0.7645499368681690  0.5085236628372297
  0.7875983651349843  0.9304734018785318  0.2111853591764575
  0.9284963814095648  0.4989933919846887  0.4999807018033733
  0.3567978880241370  0.7857630418893465  0.2229859210356143
  0.6439106797513017  0.3575077054082719  0.9302030646637695
  0.9303894570858392  0.7870884636521523  0.9282506553146314
  0.0704365692254396  0.3605766573677845  0.7853711296910285
  0.0661686925830161  0.9280108052844150  0.3548717430222491
  0.1445511650379836  0.0116926782566697  0.4291698346269490
  0.9992312241101567  0.5709469776706385  0.2835095394107126
  0.4314515863156391  0.4276638980439907  0.2829907066590683
  0.0726548417720069  0.3568762568991816  0.0696691552104812
  0.0700794485778286  0.2169659364760794  0.7881927740580199
  0.5772181161662956  0.5691328563534072  0.2800366475114444
  0.1993806311899400  0.6467844686735480  0.3568076850378802
  0.0738452663886631  0.9301538915519961  0.9271393857876028
  0.7161441629543592  0.4253377296305657  0.9983939671131090
  0.1464107108145081  0.1438146918077955  0.9999324691061615
  0.1410947809424118  0.1493558380496678  0.4292609035273068
  0.9292057316773795  0.9290909675308402  0.7869930812097398
  0.8595040165081761  0.2848282675135927  0.7118609312221552
  0.5033329769198930  0.3574234024152569  0.2114761610023585
  0.7867653734382003  0.2143623081114693  0.6429604271342581
  0.2854445050595316  0.5640957622916493  0.5698387212288510
  0.9277758641751197  0.2142530448163427  0.6434965731050106
  0.6414188547316569  0.2126621336513841  0.0713785363435929
  0.9294315193196664  0.3586093779673044  0.6431310187911891
  0.2113098481050510  0.2199498016559861  0.7872845944237506
  0.7157702776381520  0.1442665238233001  0.4265564449589211
  0.5746802649880537  0.4275425486946858  0.1411652412042503
  0.6464616334148710  0.0750417261006709  0.4963273921929054
  0.3568086643030918  0.4965477644514417  0.3491911840308088
  0.8578954344880895  0.1442670928560839  0.5707269114080643
  0.8603642658942571  0.8582649457133373  0.8583093625712217
  0.7149948298556087  0.2839490834926532  0.7144386127022659
  0.7864535591676183  0.2132755346916525  0.3574181327834292
  0.5070152225095543  0.7798861709502453  0.2021484418365287
  0.7881830594884338  0.4971629166840026  0.9308260644863887
  0.7144664185948857  0.1446050507620264  0.0019317400936508
  0.7885454800441529  0.0747511258084136  0.6416301541565057
  0.5704192860739959  0.2868310194729944  0.2836242699616598
  0.5314167066890186  0.6474800663479664  0.5174355979938812
  0.5705126887057494  0.1436447016703413  0.1423316483433901
  0.4297004204429281  0.4304924828474808  0.5685678120001367
  0.7154565035554105  0.0005769411361628  0.1446707996209433
  0.6457720986271073  0.9290602009489664  0.9324248029128379
  0.5392332781386413  0.8909112952236740  0.4700467527703832
  0.5773575946629841  0.7092720374169715  0.8576194739002977
  0.1918130897315679  0.9410070611297215  0.6433399532276342
  0.9995412316251268  0.7126774479821253  0.7161496647343337
  0.7900562755847259  0.9298150615036791  0.6429806160359867
  0.5694661289683350  0.7182151847224258  0.2843643690924375
  0.7160467348369035  0.0001006299908466  0.4269435247837805
  0.6431966831805556  0.3580406006428691  0.0708011763531737
  0.2195220167833329  0.6372790058789054  0.4904970778934302
  0.6454945854551600  0.4964119121980871  0.7880101409197943
  0.3470793076476922  0.0835767539800222  0.3504919704921995
  0.0717023923880512  0.6442797329271200  0.0699943438486612
  0.5075465983583706  0.4959691135173019  0.3493721319241167
  0.5649875613905010  0.1420614755064171  0.8574162644410276
  0.5684939277664515  0.1450602650229396  0.0020267593739384
  0.5024844583472073  0.2267146897473567  0.7881477901606347
  0.5667135702631209  0.1386047079505083  0.7155074591141806
  0.4928895695585525  0.9333399396380442  0.9252842384707313
  0.5668797020185758  0.1398630376477704  0.5705841831161289
  0.4299996771699500  0.2927953650307862  0.4250413947493527
  0.2732969459808373  0.0235000802604546  0.5833810426819338
  0.9986445363401070  0.1461656858330641  0.5693765279457585
  0.1380958606068494  0.0093162838537952  0.7168491903647498
  0.7260464350921134  0.8596346840553492  0.4244777399515023
  0.8597871543373031  0.7152694007041750  0.9989801031618349
  0.8570209988298979  0.1429918548717003  0.7133599694699039
  0.7187750670779474  0.5674133700279599  0.5726283453883204
  0.7869865564094042  0.6422114558825684  0.6421527377689480
  0.7161688852424345  0.4275180514207741  0.2836249620272150
  0.5776076255268537  0.5675116662650215  0.7204784952171548
  0.0015893337931834  0.4267535349708034  0.1411764407490197
  0.0698179827909624  0.2169389991222215  0.4989769700133793
  0.6477756356610990  0.6386903325605348  0.7894434328540818
  0.1433492454256479  0.0001091651743148  0.8567752258261899
  0.5738032211347160  0.4266339020945069  0.9993552386412030
  0.9999511301348638  0.4290276072223349  0.7145138459803387
  0.9987184335613223  0.4291117368207886  0.5714562628474715
  0.7866498375396690  0.9304543054637069  0.3554202660181140
  0.9292747116581417  0.0755556080023060  0.7864648157990908
  0.2092376126992607  0.4961281224992383  0.3514307191792317
  0.1411430754351372  0.4298977693971391  0.7151346131681064
  0.4016709581734173  0.9211624088988091  0.4412343765575417
  0.1426584443663525  0.1478088221455279  0.8575764687510976
  0.0703569153266414  0.3573970318962082  0.2115418091605180
  0.9282545673101942  0.3570068098663369  0.3557501047056339
  0.2148299902544575  0.6433224705273125  0.0704413404067366
  0.0677159389054149  0.0782244273232568  0.6432375392865544
  0.9967409676574356  0.7130256825148075  0.4277941729507703
  0.0676489252258439  0.7831563519678901  0.6443973370683909
  0.0738295177396544  0.9286385387914962  0.0719002511243964
  0.1426180003749344  0.2864186261590065  0.0000010687435972
  0.9995916600475474  0.5719448478274394  0.8572061396284163
  0.1418891086443335  0.2886819397353987  0.8551692338919936
  0.7859868736438642  0.0701829689870765  0.2130933435437820
  0.0700889922875887  0.4989541202083327  0.6432728918219335
  0.1440067539426456  0.7144220310745248  0.0012429440388777
  0.9301508366462676  0.0717047996599921  0.0711605353049144
  0.7877177380979005  0.3559795652983254  0.9304390230524879
  0.1405347179555881  0.5705443042545296  0.4251548305186614
  0.2540477382366392  0.8618628213626741  0.5765396129316619
  0.0697509311083480  0.0784054826489058  0.4972479795322288
  0.1435005477120076  0.5725360031724666  0.5698985987219359
  0.6433118139800882  0.2144030626787335  0.4999432614766800
  0.7880386656811075  0.4973513579105914  0.6438588818089642
  0.0712563776141564  0.5012991340184448  0.7855271398605704
  0.0680399982281168  0.6439007466449144  0.3554439302191635
  0.8581123725910754  0.4274943475146383  0.2841077405973602
  0.7873646106037521  0.4990567591722628  0.2116307680432002
  0.7868637487084019  0.4990291808661375  0.4992677379764637
  0.7161539892429689  0.4273230546388734  0.5711039861933556
  0.0004258481472600  0.4288267267807507  0.8573285352644457
  0.7875322155595366  0.4979583328315055  0.0700386795537974
  0.8583152333279720  0.5707507470747093  0.7150850585595862
  0.9297967319801692  0.3567469243364504  0.9285936781222340
  0.7175129779343374  0.5702547866833355  0.2825569008062841
  0.7891653494465020  0.6421735217451511  0.9295690551029058
  0.1440636441489312  0.7155115406656051  0.1431655115861208
  0.7892161404597278  0.7860425699099099  0.9296478283967307
  0.7878043498847437  0.7860060823707364  0.0707601828114941
  0.7163653418505945  0.8582987729482967  0.1416966342195720
  0.7178720178071238  0.5680293063312039  0.8592097331042678
  0.7898432046756928  0.6409220015482204  0.7888687422837862
  0.7209346669062627  0.5661534349369466  0.7201366430461095
  0.7163228204858937  0.5710049672950861  0.1408444105023580
  0.7894351062474415  0.4968835234424565  0.7882336067735485
  0.9295545829317488  0.6431442761759633  0.7859606661604246
  0.6554018384967837  0.6314452036646174  0.6510919665583619
  0.0695238473171471  0.6419077159273129  0.2110527298254569
  0.0725228498541257  0.7865097824650629  0.0704117040645198
  0.0001388283132476  0.5714053106107644  0.1402839124560056
  0.9294342445111891  0.7854298471535065  0.4998778219298439
  0.7170458982249217  0.5696511349536800  0.4260547635508217
  0.7879305302205052  0.6415644466219578  0.2105528581819850
  0.8588570497152681  0.5701139725156787  0.9995796597609298
  0.8570755277864109  0.5709619228279750  0.2842966085102742
  0.6463251967609859  0.7845169767003556  0.9298036562234900
  0.7204850164309407  0.7094604792624111  0.7199444397370420
  0.7874938085760557  0.7844828132955326  0.3537934712039344
  0.7849217036151889  0.6427276663655210  0.5007630531713754
  0.0684213301840489  0.6400726527359261  0.6437808107055757
  0.8581493352786240  0.2854797032523722  0.8577315009720530
  0.9304400182223320  0.2137532574159751  0.0706468913312626
  0.7153893423092388  0.0014360571768325  0.0015179738773026
  0.7875729807901743  0.3540878496286850  0.7860355866228810
  0.5754823911264733  0.8565490761044319  0.8619097464954844
  0.6521559003747003  0.9318454177593403  0.7942313899885227
  0.5805270381323289  0.7036316796375632  0.7192776568414259
  0.5338327694255599  0.7945916959606433  0.6556965219148667
  0.4964307795819768  0.9306050690661345  0.3569151566402011
  0.6115092071860655  0.8234464874562568  0.5626302487502676
  0.6430041522840968  0.0713966620457999  0.2143410482770506
  0.5743549484793773  0.8576477259657861  0.1403990126304602
  0.7144658464897955  0.9989287498778026  0.2858931904986613
  0.4275105044936784  0.9991504840030864  0.1456774542004230
  0.6443928296356267  0.9304736040626391  0.0720087046077459
  0.7185936947072781  0.0033556805898480  0.8613310433423197
  0.6457729614852004  0.7858215801106320  0.0705243139935286
  0.5018956783075770  0.6402409248627045  0.0705970328034476
  0.9974818411877610  0.7124383881622306  0.2808830854866136
  0.7105188432206538  0.7165202975526505  0.4313617524821424
  0.7156110208649501  0.1430001687040446  0.2841531928159546
  0.5848991635824332  0.8635357000047958  0.7291883494188087
  0.6563258016971331  0.7820256959696166  0.3422674178029559
  0.6472916135694262  0.6401714459369312  0.3513969333924509
  0.4336791487602387  0.5651971400553291  0.2762586204664546
  0.0707291339694226  0.7853851809156119  0.7860590203602223
  0.5773983665963300  0.7108890655389126  0.1388076813695569
  0.5757479597298110  0.7110560684647880  0.0005810334887246
  0.9284335625184648  0.7865929370290515  0.2111533304640797
  0.8573055290834123  0.1423966213548858  0.2850786996215534
  0.5723800527839260  0.9981696590662611  0.2860866933106960
  0.9301047281099465  0.0721968283716523  0.3564759068474244
  0.7151611880287623  0.2851070718897751  0.5712785121997855
  0.7157960470124293  0.4277675968373545  0.4272558022133433
  0.7149748851029635  0.2854606349232073  0.4273611532953439
  0.7860807693361386  0.3565021308688998  0.3554163040149084
  0.0700549990270817  0.6409290520467745  0.7876889015269100
  0.7857749921635400  0.2137538057515118  0.2131897402520835
  0.0719832552610925  0.6434203393581278  0.9285723309617440
  0.6467064799096761  0.6401811354637383  0.9289346276170058
  0.9983605416959271  0.8568735783714130  0.4259997200615833
  0.2141940991985891  0.6436727843292313  0.9282642130625656
  0.7868688696127099  0.2142487423582343  0.9293533468605075
  0.7867934460927537  0.2147328564695384  0.7850824007011946
  0.7150601705283983  0.1436408210549145  0.7133908090528085
  0.9984290213111895  0.5697319837102817  0.5717034314664539
  0.7865671777943526  0.3555963030031384  0.6433162935670400
  0.5675591533951145  0.0068708757821361  0.5535690465175674
  0.9987769850818921  0.5706224457233612  0.7149946242028888
  0.0000750846614492  0.7149820086495066  0.8575665595164779
  0.0004846164013498  0.7146269647978631  0.1402618400845078
  0.7142303998184367  0.1419942917500606  0.1429094648551840
  0.7134056591728060  0.2854824850209093  0.0000213045983561
  0.6503215424248330  0.0751690957780779  0.7906395822468780
  0.7162240797147937  0.1454382895625139  0.8592555227881981
  0.9997234268651062  0.2874524384560471  0.7146889115225313
  0.8592458876183034  0.0032342768957259  0.7154344287647162
  0.8593595641732529  0.0030773065000174  0.5705267931209069
  0.8589779550260410  0.0021741401604266  0.4271894142451019
  0.6476366675037328  0.7837622034161141  0.2108365153171658
  0.7862021386120956  0.2143481402760174  0.4990966634297176
  0.7167979818686750  0.8578617692462950  0.0007332568557587
  0.8596457619165679  0.0009382979669837  0.0003155959419652
  0.1386344337209326  0.7085434482364911  0.7170843708684578
  0.8601662814937281  0.7147431127510981  0.8580649620030901
  0.9296601715975971  0.7859161426721677  0.7862051050878504
  0.8573886003378947  0.7136834220566698  0.5722039511359309
  0.9291454918438654  0.7850940423842278  0.6447361224284808
  0.1298940232183321  0.7078184584201165  0.5697568073915572
  0.9274766174626401  0.6418024912517104  0.4994477105996114
  0.8564917952988396  0.7134187525014228  0.4274003069073982
  0.9283328870077839  0.7849204190116084  0.3541824473133949
  0.8577829851594245  0.7133647808834888  0.2829932773133040
  0.1412824269054102  0.4287868664529071  0.1412781934709649
  0.8584277626341185  0.7150823800100335  0.1406573764933843
  0.9304596320957854  0.7871745886287849  0.0700439989160591
  0.0012826448654410  0.7157199799272954  0.9991482470041565
  0.8575662473815573  0.2850215237221033  0.2851517729898114
  0.7890252692195252  0.7848555535188468  0.6461413625255115
  0.0017362032489431  0.8593125387484446  0.8570097078667739
  0.0701129820369221  0.5004053244625081  0.4991563757269797
  0.4294741015731056  0.4289935541237968  0.1413559800476916
  0.4321031251958745  0.4306897899927186  0.4236205243295990
  0.9978745935447469  0.2869218685872127  0.5712204988502779
  0.0706273266068289  0.2158570197756921  0.3560079015616495
  0.2171748344484733  0.0720822844862408  0.9251324605935969
  0.0709472276319251  0.4996692716578885  0.0702667155173984
  0.0715719840427696  0.2145135280648039  0.2127339169070493
  0.1409693889208130  0.2891318030971214  0.4266026223632736
  0.2048986836008204  0.0859415795512205  0.6466515177873180
  0.7182319242155953  0.8570923283108765  0.8604637251361291
  0.8576645811482502  0.5701555994049001  0.5715796458479717
  0.9286108834186785  0.6420510995795364  0.3555103246650979
  0.5069281425596495  0.6373663856470166  0.2071027892945760
  0.8571098309107155  0.5705482320924938  0.4276638074605710
  0.2855598603800534  0.7139649757143682  0.1459448123368076
  0.4307714142665515  0.2882197150496899  0.2830017276137891
  0.0710291690359779  0.0749370665142560  0.7881548899764654
  0.1380898556178942  0.1510634348287786  0.7176993939090286
  0.2836885850085530  0.2928297025139975  0.5699452539493760
  0.5031337847811397  0.3609348976036419  0.6420014444052254
  0.3536511922739513  0.2253598778170292  0.7882656432550422
  0.5018869076312638  0.2197919173815908  0.4959915895637182
  0.5022481809917855  0.3599533734028886  0.7875719272184010
  0.4289608224339734  0.4299220764777759  0.0009147165471262
  0.2096103581178839  0.2224557774856886  0.6434150210141816
  0.5016810133282276  0.3580599159454335  0.0706640405858760
  0.0697106486687979  0.4999764270569600  0.2118353426583584
  0.9284954508638640  0.3574317993738285  0.4995895781981627
  0.1395622767329728  0.2899393325157152  0.7158437953830517
  0.8584913082390154  0.4272037992889627  0.7150512017701882
  0.0720231923006246  0.2153709350834531  0.9292602662765946
  0.9306180354924996  0.9295954677919928  0.9284393196254827
  0.3555735581567199  0.9230705187274012  0.2184061651308758
  0.0003954950244972  0.8588496635376076  0.7154042242607845
  0.7900885413171099  0.9314680343611116  0.7886165998128619
  0.8601614409834983  0.8586720731679244  0.5720077675022264
  0.8598537732515860  0.8593377093385324  0.7157067757146819
  0.9309077098637822  0.9305623877384104  0.4983908621401892
  0.0003970998775766  0.1444863943882141  0.8574879944585407
  0.9296520304258142  0.9304932816156918  0.2123323232225281
  0.8579146982048148  0.8585038800547168  0.2831394765038536
  0.1430802475546052  0.8562025251054964  0.1426546352256035
  0.9292315474554838  0.9304880603460843  0.3548740682653878
  0.0690757554518892  0.2185089181159646  0.6428217312952388
  0.9287326141788460  0.4990580764752450  0.6432229125604213
  0.0010138674847525  0.2858136647905243  0.1416605834924548
  0.0723558052198267  0.2144839855206401  0.0695768741162907
  0.8586249630510713  0.1432972052113469  0.0005660708230357
  0.9305891426227142  0.0728126203290522  0.9289705702273182
  0.8599414787863633  0.0027969088179871  0.8573889979463137
  0.9991742218419112  0.1459863764295266  0.7151414531629147
  0.1399831924257310  0.5709221394607882  0.2830596547019680
  0.7198018727780170  0.0021205313090018  0.5699890598872255
  0.9993078121121165  0.4276708366326908  0.2836421433920359
  0.0689623415224442  0.5000064044476356  0.3546091718909639
  0.9295975703298027  0.0736632882838884  0.6421643855926557
  0.9295866602911698  0.4994197275501451  0.7866102019649296
  0.9284207840148897  0.4994434514256364  0.3549337046156487
  0.8585337714391283  0.8586536054991591  0.1412523566116843
  0.8579584813861731  0.1422314260739037  0.1426823037594196
  0.7246448794499468  0.8574046977062032  0.5718758209934031
  0.7900925116620708  0.9307509654622621  0.4989045597090295
  0.6312412510201721  0.8139953831776122  0.4516577761586160
  0.8602504280514206  0.8579821018890922  0.4265148603345368
  0.7864054304766559  0.0721802878066194  0.3563444040949811
  0.9988354340101614  0.8580817759987556  0.2818691870612923
  0.9299628679008969  0.9295860967257766  0.0718269262673175
  0.8573537023021731  0.0012492289111787  0.2843928310066892
  0.9291894525749690  0.4993874628042119  0.2118275022469353
  0.0018267342380155  0.1423663983751801  0.1419974186808496
  0.8578480205595724  0.4276011598694797  0.4276051806130979
  0.8579517890450495  0.4273496865686168  0.5711169125992470
  0.0698797707309994  0.3579790625392347  0.3554252449627736
  0.9986395417375526  0.2868177915439679  0.4275678294556105
  0.7863534701751810  0.3564063809260395  0.2125092997907882
  0.9977897184182298  0.5698100282251335  0.4270673058639375
  0.9294808610979585  0.3565851554603658  0.0704689476985986
  0.9293655417146200  0.4987770620731009  0.0703625798729684
  0.8583073560151955  0.4268748449680997  0.8584550027067346
  0.0008052539487003  0.4282006064815523  0.9995103542522161
  0.0695204840751262  0.3592509045970702  0.4993939460130946
  0.1398410273204193  0.2902785446877200  0.5711225810110646
  0.4293142565170955  0.7113968363224519  0.0003541653600331
  0.7889667974348852  0.9301678106946890  0.9300798437761894
  0.7171967010551802  0.7134465291075001  0.9995441686228507
  0.5722434759252798  0.8588715782962741  0.9988341243556504
  0.7896455050998360  0.7860850272160144  0.7875610039824256
  0.8582536922504851  0.2856663298018062  0.5713840908814214
  0.7175718863791118  0.4259359220782771  0.7169225293113574
  0.0711530387543716  0.5009072070783354  0.9284370956719170
  0.9286784557042844  0.2144027003223065  0.3566262093180115
  0.8576675529942576  0.2854570092516434  0.4276354149199059
  0.9985396918091406  0.4286314556516512  0.4274111775394743
  0.7156646278678592  0.2850259831226820  0.2842253501958497
  0.8581770285425395  0.4272388462673689  0.1412922918945033
  0.5028116003244159  0.4986660541133779  0.7873019755217008
  0.8581304999401194  0.2850572986709607  0.0001617147253654
  0.9299868835737303  0.2144617489036996  0.9284658164898753
  0.0004500632070721  0.2867921135030036  0.8571216056372022
  0.7875897734969792  0.0736303440557340  0.9306404308423124
  0.2122461545157713  0.3600118565695360  0.9299507640746896
  0.9280867212891347  0.2152211770287708  0.7859180211068776
  0.4282224911985154  0.1629962395841092  0.5703675058029828
  0.7875210658567943  0.9302540284926917  0.0717606612110074
  0.9289842251580136  0.3566784682740688  0.7856482966518453
  0.5741196413779780  0.5694204240964621  0.8579255488507163
  0.0711833325745185  0.9318387502785040  0.2129537709670729
  0.0731321324703554  0.7862600976780599  0.9282983775353608
  0.3572305899900160  0.7827733309387769  0.0727837371908409
  0.2871050590547798  0.8570156788224359  0.8529422108496633
  0.3582559765163403  0.0827120981683480  0.9263417614826476
  0.2132493185779145  0.5005182299189921  0.0705983348213795
  0.3544664576360831  0.4977738954006191  0.6460858140152010
  0.4154111622725564  0.6832843179717295  0.5585615778680295
  0.9280602855897474  0.6421351746645575  0.6438800127886363
  0.1398896248843420  0.4281637344595243  0.2819628732913721
  0.2805249468216565  0.6989810092758214  0.2845782254007791
  0.8590840373345822  0.5701389323350190  0.8586765805194337
  0.6443289621260125  0.3575669317530515  0.4985052787563281
  0.9991156058155151  0.0036470248012112  0.7159503298103296
  0.7148979729568826  0.2852044928421150  0.8591158409843054
  0.1409551693396582  0.4307198342358732  0.5706217176693824
  0.3599241639728701  0.6427696744676828  0.7858533244929231
  0.2126018257480432  0.5008798262549895  0.6424462146788630
  0.2829137160084479  0.5712731004350261  0.7163329428414127
  0.0664433659764206  0.7877541159754986  0.5014142346096920
  0.2133878665368721  0.3586548225792477  0.3540240849375667
  0.2828928350434265  0.1492079008473125  0.2805329498585736
  0.2122322495288777  0.4994407811696069  0.2116681116778882
  0.4454189898062324  0.6874108023548255  0.4354348099428771
  0.3564915318129679  0.6411204304037655  0.0719818625124139
  0.4355186203444398  0.7024978696455580  0.2713271582074738
  0.2855870302647555  0.5722806074835972  0.0001852957393797
  0.0691927391702484  0.3596717543356057  0.6432085226404257