 B Cr Fe 
 1.0000000000000000
    20.0899999999999999    0.0000000000000000    0.0000000000000000
     0.0000000000000000   20.0899999999999999    0.0000000000000000
     0.0000000000000000    0.0000000000000000   20.0899999999999999
 B   Cr  Fe 
  27 206 480
Direct
  0.3616857692745805  0.8565554378651792  0.2159990446204329
  0.4282463512303214  0.9257115013720727  0.4578039808762094
  0.4280847428050230  0.7138066987108229  0.7777668924750067
  0.2953977171755083  0.6602044739125974  0.5502559450023385
  0.6027450060138613  0.0027601096719518  0.5106952394500666
  0.3949330988208005  0.5391015702780522  0.5854603959500514
  0.3586838584904899  0.8769213742845282  0.4770584119378817
  0.4897701916419407  0.8569423029812903  0.8522027056419108
  0.2274613416588005  0.7270587359046893  0.4304809055138729
  0.3569786579213320  0.4276744617209005  0.8566138447821101
  0.2252933285901443  0.8618841562102436  0.7172838014140024
  0.2133962574627372  0.2830985420171985  0.0031839055351074
  0.6357485180376795  0.5671174831501974  0.4268305994905452
  0.2144404430808013  0.2804380530270357  0.8577019373067233
  0.2378368601017651  0.1053910362036864  0.4949386602878250
  0.5565650530572133  0.6389474794301824  0.6422415655791238
  0.3856659520023132  0.8099535390236128  0.6144260794919094
  0.5757621835659880  0.6252801544428781  0.4235598221328534
  0.2002824990789682  0.9261973783988819  0.5348305270324266
  0.0059448001253546  0.9311743373434953  0.5002664668321133
  0.6002700920157329  0.9434510453274481  0.5701402135374936
  0.2116976273372831  0.9937090207401332  0.3745182410775580
  0.2825404605328006  0.7282786848338354  0.3633870587923859
  0.3519825284054448  0.9930627664872532  0.3374181114516128
  0.1263768076402057  0.0635353718939837  0.2960030725391924
  0.4919060900952795  0.1058889775160348  0.6271722573541039
  0.1034876522269925  0.8324725959810981  0.4193034918968692
  0.5028054275561461  0.2196921528460383  0.3537732501111805
  0.4357744689725061  0.2835482497941547  0.0006888933626541
  0.5015795777813424  0.3593947773826323  0.3554907162188035
  0.5037423128527068  0.2166565164530410  0.2121200267795241
  0.4282703499516232  0.0193451248157618  0.4200355192415381
  0.5049861637724899  0.2140357769427528  0.9297965833310524
  0.5028484359319272  0.2146346016286643  0.0700665242813514
  0.5028129065939668  0.2175112015684284  0.6418717726607178
  0.5037971993238939  0.3568815965713528  0.0690414824095647
  0.4328168010491342  0.2916366258460335  0.4257160095458424
  0.4340508465812367  0.1533287100177966  0.2801469557832961
  0.1424104241929866  0.8565310493080971  0.1409172474933150
  0.4436675180460011  0.0159792967378481  0.5682200459916151
  0.4986578895116655  0.3623182079386634  0.5005050921495148
  0.3628612357228767  0.2140529085449968  0.7845466718634417
  0.5795692920020481  0.4271471182350501  0.8566700989525733
  0.5747784975580890  0.1486586366979845  0.2825216105464154
  0.4284314413439805  0.8572024580667605  0.0023390106718843
  0.4322982616978767  0.1432292852430749  0.0017016516918805
  0.9275651316307608  0.4995411164945549  0.2129025622979643
  0.6458274404243306  0.6449307851601427  0.9286952300879469
  0.4242115400705136  0.4260692417434520  0.5759590161811849
  0.4317355514736969  0.1463334122802762  0.1427078086629967
  0.1921439101166042  0.7883053489083928  0.3537802388136921
  0.3614236960934658  0.2129102907602453  0.0725463592074067
  0.4284548459322103  0.7122481639237347  0.0017854901781022
  0.4747065083798099  0.6738040091534327  0.6926004106505642
  0.5078937052817107  0.7777437219325057  0.5054563120394293
  0.4291098125082703  0.5684678994932804  0.1389830356586886
  0.5055405106197732  0.3556190698928698  0.7852805963570076
  0.5799968649556398  0.5657834618755980  0.5710466571501717
  0.6466176922956794  0.4987235048718632  0.2109128600350315
  0.4996490625058358  0.0714503969237335  0.0724832429335817
  0.2857905710594745  0.5720812678466153  0.8582036945159967
  0.2892634601346101  0.8490984079797282  0.1416683629645762
  0.4983044910655962  0.7873235375643458  0.9300229537333763
  0.5036195959181968  0.9295434516980186  0.2142484232550022
  0.2039633520759543  0.0815696169272545  0.2162334346766025
  0.2122832070685542  0.0719875770022876  0.7897449635108781
  0.2923187387082259  0.8613274109452020  0.5618556726958146
  0.3612147076624637  0.0794342121186311  0.2150886758497722
  0.2876761315627726  0.1455559743749336  0.1455902393171831
  0.3587297109417978  0.0714796734559230  0.9327820026680448
  0.1415699802662329  0.0026138549007229  0.8613669318687914
  0.2162426716679317  0.7879171123865206  0.7881262445797952
  0.4370098271358337  0.8764806742150777  0.5565804222778894
  0.0676085366078083  0.9290528860653534  0.6493953443505237
  0.2919743856097226  0.1547619471986195  0.4177066630598371
  0.1414052744570085  0.8584124844693209  0.0008380200795274
  0.4446371088281585  0.8300296145897048  0.4301922234271345
  0.9283768534491968  0.0703318334379677  0.0715049424741138
  0.9281946022921589  0.0725162176202994  0.2153799937795258
  0.9262182732597073  0.0731077109688536  0.6418392319556921
  0.3597930781614848  0.7822381716912595  0.0702398957763167
  0.9250735426297332  0.9283624178239304  0.6438307967242322
  0.3653557361934472  0.2125686917897573  0.9313280319736456
  0.3579245417767360  0.2182482439200457  0.2126026531668325
  0.2851441897808891  0.2918192278189335  0.4256213033244732
  0.3136434651041461  0.9009640891063849  0.7629110998544081
  0.3589798229398112  0.6396526155486428  0.0687536513722018
  0.2791775642407479  0.7102191516351346  0.7218218102323130
  0.7148667918565837  0.9998213275471723  0.2855815516603811
  0.3695219451336211  0.7738436567665791  0.5080849756393603
  0.2908833051820858  0.8168023191407767  0.4226625943505739
  0.2870900456021372  0.7132660442978348  0.0009096572960622
  0.3568600404664097  0.6404048102238163  0.7833002576579443
  0.5212728220312234  0.9378184270390717  0.4983447967304030
  0.2829327315047491  0.5723819375215389  0.7144968785119985
  0.2823381946087232  0.4261369035259286  0.5723025172064664
  0.4380527409674799  0.7037704781816447  0.2782060796028541
  0.2066715406302979  0.3533828107794774  0.9290757283661141
  0.3592911097264027  0.3594661452333840  0.3579428542801492
  0.4976707155717864  0.9267883126922649  0.9306075829543856
  0.5710404652401792  0.4324988213107031  0.5663509673231485
  0.3563764616885327  0.6320582546375986  0.6403626430623834
  0.4297853313107554  0.0012751717976334  0.0032985402127187
  0.3560643332494952  0.6404096332388642  0.9307604015912528
  0.8534533355230026  0.0011652834659172  0.4255374939413746
  0.7158888863944557  0.8561571798438107  0.1436825026026925
  0.7150425263745398  0.7138855379610595  0.9999803926201724
  0.7153471282918927  0.7127453727407639  0.8585208253602615
  0.7876125946441049  0.9292193642147152  0.7870473428192549
  0.5816906515464576  0.7118067260343156  0.7147961060762800
  0.7864483579947318  0.7856733564935737  0.2108694922584894
  0.7906218400127064  0.4961937703112816  0.4991702028907651
  0.8589533573964081  0.5695345598123438  0.2833369990592171
  0.7879314665855521  0.5012970437187966  0.9273558111909725
  0.8572554313176136  0.1462814939172974  0.4289695279365217
  0.7861909600405586  0.6423928206002461  0.0687297612916104
  0.5034391184039000  0.6408607020722636  0.7975694656391514
  0.7858169680184114  0.0720142502449143  0.9286052450760045
  0.7841371504504874  0.9303553509826119  0.3557351081586697
  0.8565499443608349  0.5705700469126210  0.8567198898286799
  0.8576351445709226  0.8575689648509423  0.0004171695437454
  0.9978496718593917  0.8578236840482593  0.1407917020720839
  0.8560374571184589  0.5710300074475970  0.9992858792943723
  0.9305473277392298  0.6423384391904516  0.5010600576806292
  0.1429355136099801  0.7154890007881665  0.8562818871971249
  0.9284842545054997  0.2138789090631588  0.3571035142207397
  0.7153302484225257  0.4279193471428601  0.7155841168674737
  0.7829015659139698  0.9309727229375001  0.2120939497478931
  0.8593756802936134  0.4269142320247439  0.4290222440077294
  0.5016933355897045  0.9273446150764086  0.3672446305410511
  0.7857214695554688  0.2152111255559948  0.7864267838168165
  0.8577735850714281  0.2872602122193382  0.5714388026534186
  0.8562098897236369  0.4280357966421325  0.1414555151760320
  0.9277639183262830  0.2147527642206450  0.7830379578781467
  0.9296538089254412  0.3572766194240325  0.5010762731960609
  0.7194068050520563  0.4270004217831679  0.4263120578536437
  0.6452534837789137  0.4983547128168561  0.9278538104071283
  0.6451688075887710  0.4993246513622569  0.7843660034071424
  0.6562139556638521  0.6401324943017953  0.6421535173228072
  0.6462447347896939  0.7841207312160079  0.3527633975314962
  0.5727547551189924  0.5727957652882371  0.7164764439826617
  0.8559671103523462  0.2834581933330836  0.7151113724469920
  0.5768689238958725  0.5684775463711813  0.1393745940346905
  0.4345807737931948  0.4318141031998214  0.4279045843510584
  0.6452006003698081  0.3544484402701454  0.9287797738650120
  0.5744471829814500  0.2842498730391163  0.0005135026576003
  0.5720726905216093  0.1424569781881365  0.8574108504765905
  0.5644680902827726  0.1324686711220091  0.7073622214309317
  0.6461138929296106  0.3571264222550972  0.7849588291550353
  0.5717064865124992  0.1541186623148515  0.5709099828026558
  0.5022496021162416  0.2209085496554417  0.4973645957202894
  0.4995282371964464  0.0704415964819164  0.7925450977990121
  0.0026398469968549  0.2849315916946725  0.5716919187420212
  0.0715612713819000  0.6419369048153167  0.7868498558852510
  0.6461366144471211  0.0909278596198957  0.5010281035864600
  0.6446043219108575  0.6435922385734516  0.7870689919893302
  0.6461043646080434  0.7837264163564844  0.9297460347615307
  0.3874670743015785  0.6178634507136053  0.5140128689951691
  0.7174969288310195  0.1485324884627189  0.5718381207978755
  0.7164709581505010  0.1436917222871538  0.8575011822105923
  0.7149016745970320  0.2882378345183609  0.5730030264369401
  0.7888827084536070  0.3580411108592649  0.3582580500679021
  0.5721132179305426  0.8574087498797116  0.1432936765807736
  0.7866508235642741  0.3575708151547110  0.0686785674593085
  0.7165568268935110  0.2858144998442741  0.9987678752371647
  0.7872909376525078  0.2178097705188825  0.6413672427477450
  0.7883806980210711  0.3590608431774903  0.2122666354057572
  0.5738782822258344  0.7106706815329731  0.5736921115328296
  0.6449346881873702  0.0706510005074154  0.0715958364037271
  0.2148223485827953  0.3575766372851616  0.5007448225983948
  0.7147195376542711  0.0006744516988385  0.1418328289238465
  0.5721164686056921  0.8568418477278552  0.9980246201417663
  0.5111680636486585  0.9273351770649807  0.6379203192753229
  0.5745461856205837  0.7147332667046222  0.8607321461549085
  0.0659130740462086  0.7849402566287733  0.6462174083957534
  0.2363924496593867  0.7503987143044953  0.5326600676349069
  0.7018609336399234  0.9996388532400960  0.5670670456151155
  0.6436729036989257  0.7867912620661908  0.2100572807122541
  0.7175715503493260  0.8532383579469448  0.4214705880003786
  0.7875300697753250  0.2141644947005099  0.2128778613666547
  0.1376143846767019  0.8551131300276438  0.5848998377419227
  0.9998797601475516  0.8580869914508474  0.8594529446023912
  0.1438421959799922  0.9983872186138719  0.1458578584695620
  0.2126914265901851  0.7852268839334260  0.0714367852209749
  0.1379813677572880  0.2848830428747693  0.7131796975382407
  0.1418552590100311  0.5714609310799827  0.2842582998991731
  0.2105544553572711  0.6382613698658469  0.2086970010505813
  0.1411671042598880  0.4295127001635985  0.1393865074024870
  0.4289686226909752  0.5701904754174850  0.9983631860020415
  0.2072668444126980  0.3524822195519017  0.7860017038068251
  0.1360226548650844  0.1626841007294130  0.2808106620493240
  0.1433714023625714  0.1445482519096209  0.4342812618009586
  0.9965628282412268  0.8587644259188858  0.7144210485986026
  0.9995774553257464  0.2843710469868792  0.7124982397946902
  0.2128793550726083  0.3596144507389215  0.2086172237081415
  0.0619327764266979  0.9118023103619129  0.3517051858440137
  0.9990937529025543  0.7142763826704032  0.0000085865966506
  0.0688121858406526  0.4995442602656330  0.0702245707291058
  0.0668448634294779  0.3562347097083062  0.7838312443432999
  0.0003187312208323  0.5725827617011315  0.7147937811080231
  0.2136783747052090  0.4970699306781632  0.0697980004482985
  0.1811549521454033  0.0208689343945785  0.4744521946152099
  0.9958336197620238  0.2891245123925914  0.1401999415395254
  0.1263230754056884  0.7205613028713779  0.4317528633286413
  0.2849152530110374  0.4279521045057124  0.1396701270962729
  0.1408138732003148  0.0014577463166721  0.7173394776210440
  0.0694275183511946  0.9305844441319031  0.9293730799618161
  0.9999263458625492  0.5701709888177535  0.5708418913975311
  0.0685308839856353  0.6410714121586547  0.6430677743881008
  0.0705521831532692  0.4995337630623460  0.5003460132692295
  0.9981497215759803  0.0009929439751651  0.8582727412246622
  0.9965356105792231  0.7112449376992299  0.2808694069280031
  0.9962216432852088  0.1400039361450967  0.1428432575660324
  0.0706495150145758  0.2134175294740461  0.6422459276302062
  0.0700302320792866  0.3551879866118230  0.6427114804375680
  0.9280839302477260  0.9295632378613803  0.2128708070241540
  0.1413683537001620  0.7109354687235441  0.1392099871365826
  0.2128810925951330  0.3580426219504749  0.3560440861347091
  0.0725132932181235  0.2138194181836469  0.5012537256971301
  0.2640571376951312  0.0159129105593798  0.5578025111799578
  0.9951024771545972  0.8551199483306753  0.4281315408070577
  0.0003512733845583  0.9988346141265193  0.0025902531961551
  0.1179853515579562  0.2854544293235204  0.9994948672908539
  0.1387101423967562  0.5704217722885669  0.8582272126966072
  0.1190331660304604  0.2850076114878481  0.8577495873614762
  0.8577905125811507  0.1451431034717943  0.2837389122686229
  0.0010885420274864  0.4277973249302062  0.4298205727908074
  0.9993928232779690  0.7123333518641753  0.8557291619634678
  0.0723388083500682  0.9280826344023478  0.0732970743340520
  0.9262498193390735  0.3573906333504161  0.9271624501124002
  0.1419310429994563  0.5758678886445688  0.7118825182601201
  0.9975262967655817  0.7138919574645262  0.5731366527145004
  0.0509792612811113  0.0983692662435272  0.3586728913705063
  0.9994330784404386  0.5703762062166877  0.4284806355231847
  0.6458440710243452  0.2216053257959205  0.4997823433106300
  0.7197241952475844  0.5683460193192246  0.5698444960577549
  0.0706281980566068  0.5018695063214578  0.7833953537495425
  0.0691599272033715  0.6429228245002214  0.3555377676009881
  0.7178574819086876  0.4279633954941083  0.2838792764112963
  0.7880060085259665  0.4989263545770944  0.2124612593330341
  0.7908668384202528  0.4973414383173486  0.3550920887973954
  0.7179882227424621  0.4278246265266278  0.5721376281177883
  0.9970638161022592  0.4295509691484510  0.8548144014834869
  0.7869813995201271  0.4994868888450872  0.0693740221824344
  0.7877164435847224  0.4984525387375817  0.6436537612160271
  0.7855514933651727  0.3560613188481184  0.9271649405280263
  0.7163031886180711  0.7134518383788133  0.2814868061095827
  0.7868200643947795  0.6425470583250266  0.9284709556300801
  0.0694665439932572  0.6405204015760310  0.2105453864328864
  0.7870051425374052  0.7847840239487617  0.9296232640273467
  0.7863999650258929  0.7862672775954399  0.0701407025638278
  0.7157658373966621  0.7146205699317011  0.1407553622306793
  0.7151942364765260  0.5706399800010227  0.8575684638103102
  0.7872266480396316  0.6419742164576239  0.7872110026484848
  0.7165039919264174  0.5700822963265845  0.7161446614112356
  0.7171286084015723  0.4277462455990737  0.1403970829256611
  0.7867852796932074  0.4991805094828056  0.7860610954824472
  0.9986912325509409  0.5711024166988661  0.9988166446127859
  0.7892413629417090  0.6413940214047966  0.6432787408348968
  0.0697467800303704  0.6422195119808060  0.0689569349979538
  0.0705780410117291  0.7858933956502003  0.0705343730183151
  0.9986743490742174  0.5697049802486923  0.1406242433575039
  0.7862889759136192  0.7860224230044903  0.4988913797963938
  0.7310211048115146  0.5688816366764667  0.4275960472613310
  0.7872757200169210  0.6411123343910704  0.2116856995240226
  0.7162056721106344  0.5709015509624317  0.9977149947332882
  0.7896499915841203  0.6419651092801829  0.3539490481638967
  0.6480986116429929  0.7834180821589461  0.7875780680631402
  0.7173643269688605  0.7131616061943040  0.5703921814076710
  0.7873922050960346  0.7840443488306789  0.3527272423928864
  0.7893726877743960  0.6427780981419460  0.5000166912131979
  0.1849263142532068  0.8330854501798293  0.4790231057345585
  0.8568744675563624  0.2850923625245999  0.8564456114061245
  0.7150159326820085  0.1421222833925015  0.0001561899061242
  0.7150494447312468  0.0006803968078366  0.0005122632365503
  0.7861930602678779  0.3565728069643808  0.7852219395723558
  0.5841355582660612  0.8550123908337895  0.8583656326394900
  0.6471765018483953  0.9282891701098800  0.7882459078526803
  0.6465774556336092  0.9262633644284893  0.6538202707435731
  0.5764501245038037  0.8476637005250303  0.5697237234326668
  0.6472254444507763  0.9159378869051491  0.4844080507888852
  0.5737670826915801  0.8483628401986386  0.4225764210230222
  0.6442362228284756  0.9268475593593587  0.3547330592510949
  0.5723068747880158  0.8569830551216101  0.2845128285929860
  0.6441225636846554  0.9288063143756544  0.2130234712195364
  0.5725635103672588  0.0009797775321995  0.1427586950818606
  0.6433614325333220  0.9277874052393114  0.0725441442149409
  0.6451395019468176  0.9291392084392638  0.9307086311945857
  0.6435892371325255  0.7869993520878137  0.0707044716531515
  0.7168428895008171  0.5702020274468085  0.1398312246848180
  0.9973174102792899  0.7147081349318546  0.4295237103270670
  0.7182103487266187  0.7128421606998554  0.4257434194943474
  0.9995269172740674  0.7134489800826611  0.7154247432727486
  0.6473398037839526  0.7841190997568859  0.6442331807117628
  0.5757779749727476  0.7215370159477079  0.4251998015845377
  0.6486257701165297  0.6405090918557177  0.3546510553978577
  0.5772789528280612  0.7099185093799347  0.2804657164405029
  0.0691262817969757  0.7845767421603924  0.7883419517359062
  0.5744096010865384  0.7128081632932227  0.1393283776859784
  0.5726383318304962  0.7152131045881681  0.9993745807915507
  0.0685382866742158  0.7832740865588862  0.2090176371870301
  0.7856390726638065  0.0713667087137941  0.2143084312921617
  0.5728557846968702  0.0004642482695244  0.2859383849829502
  0.7858863782905019  0.0738753324786618  0.3558069764724970
  0.7871245928955326  0.3568260953976476  0.6436524568763192
  0.7875662389773003  0.3569466108535555  0.5003469941384135
  0.7169493276690670  0.2882255319482852  0.4271507114876529
  0.7180973244570344  0.2878358016786255  0.2833234932978487
  0.1413493523493156  0.7122575790475939  0.7157160711869514
  0.7172177860376503  0.2865400921576119  0.1415046352571482
  0.9987967128999422  0.5715524612160827  0.8564453782471604
  0.7186947473762445  0.7131540288333186  0.7156564144521075
  0.0656564443518886  0.7895785623214071  0.5061121301442676
  0.0702392415436052  0.6439581196189399  0.9277087673456974
  0.7852703461953107  0.2139698322060910  0.9279973204645587
  0.7143741835599109  0.2845618276755181  0.8555673988201149
  0.7189526610265304  0.1477969878850690  0.7162203705917387
  0.0710962311893167  0.5006214002814235  0.6437345731715906
  0.7149783465774702  0.2862540167445802  0.7146784254014961
  0.7170903842868789  0.1487353250935095  0.4264390405453596
  0.7885212524978924  0.2161596744006172  0.3558543491329575
  0.7171471321459423  0.1460662602517863  0.2831414931543670
  0.9983423603763288  0.7126764616834598  0.1396190083915844
  0.7155298300436616  0.1429657846194736  0.1420280194940396
  0.7861317651442326  0.2141934193361780  0.0705267283191146
  0.7862915942528970  0.0728256194542942  0.7866617040172300
  0.7162034275683802  0.0008441644776891  0.8586719767371537
  0.8564993521760934  0.1436817846541565  0.7134633784638909
  0.7172588465524804  0.0020339612175188  0.7166165439388850
  0.7829392300309723  0.9306163152805877  0.6422699401177965
  0.7830453216157142  0.0728971459236715  0.4991464983132598
  0.7107756118671867  0.0036796135054270  0.4276346514595356
  0.7868652611839015  0.2179879506587382  0.5000857827491468
  0.7152947677820811  0.8570299674126911  0.0003264279161832
  0.8567764380411835  0.0002851889913850  0.0008170998624104
  0.9996341220224180  0.4277411295086765  0.7132244230689393
  0.8580904244891693  0.7140862893532524  0.8578943920500786
  0.9291328513745344  0.7864096854063416  0.7869156887994885
  0.8585836277350851  0.7145247625277062  0.7149548476177551
  0.9284516097399923  0.7864728039718946  0.6434798234706790
  0.3163899537061783  0.6891298154130148  0.4506558598993881
  0.9269789381349985  0.7863932355812550  0.5014818335091988
  0.8588457341625229  0.7137442181255007  0.4274217283566517
  0.9269279404762969  0.7844691561579519  0.3541786003403568
  0.8573788667595102  0.7133384153595904  0.2820155722914335
  0.0657720937504981  0.3603509127801745  0.0711907420854527
  0.8563846126934896  0.7132377772581971  0.1399308713914454
  0.9281028120784134  0.7862340179272779  0.0698641193538446
  0.8571051516872282  0.7136654341516067  0.9997832751068462
  0.9279722657019883  0.6426399273281856  0.9280702039634391
  0.9285181316825073  0.6425660812762756  0.7859690769504719
  0.8577400493356435  0.8578298830764008  0.8583045254849314
  0.9293337023423223  0.6421015599662814  0.6433706360282195
  0.0701694588536851  0.0710227323816074  0.2133400387244082
  0.0030101022282135  0.0013441143490043  0.2889251386585097
  0.9938843543434918  0.9979025292418927  0.4262703091910345
  0.9979792873511533  0.9993366794976587  0.5725770024998293
  0.5003481373086912  0.4929190425275061  0.6453444549105725
  0.3612721033381625  0.2231195795893944  0.3534948235257817
  0.4298243749408256  0.5684433327746944  0.8591947352208948
  0.4494001129005418  0.4275949581252799  0.8565118881806902
  0.5054308449148085  0.5007131384244478  0.9298193181654418
  0.3562406214336077  0.4983300261202259  0.2098843289485632
  0.1396586339876467  0.2883060985742473  0.1389992127179060
  0.4310371227074264  0.4278551175994006  0.1400878128190670
  0.9981278733328542  0.0001061353342052  0.1432995423115782
  0.4315979452496869  0.2868857567495308  0.1409920531361530
  0.2131056307254447  0.5009857459679685  0.3554236110491681
  0.5002331840464922  0.7918168902018786  0.6421617908069729
  0.7174972237269684  0.5691393937244997  0.2836290789956815
  0.9275900668757323  0.6407713717697560  0.2110421224682184
  0.8568120896898026  0.5704544169896898  0.1405292188563450
  0.9278437160911511  0.6420033396581801  0.0692302727799510
  0.9981479071412442  0.2872190912134655  0.2850156561130368
  0.9268201468723424  0.5012237052641523  0.9272734236721026
  0.9932403691363266  0.2859173105328832  0.9992446939441419
  0.8565971770474166  0.4279818143959748  0.8568088963405825
  0.8563270794646315  0.8587162322441998  0.1427041814449735
  0.9941953042441418  0.1491044677290602  0.4381056062604903
  0.2132238735956842  0.2141764437756186  0.9307427619649986
  0.1423147601968431  0.0003116127624035  0.0024698864973233
  0.0669507361195774  0.2119548048580058  0.7836855687197292
  0.8581670656271417  0.4276491396478557  0.7141293536898058
  0.0633655661548543  0.2091083110808755  0.9295035367946624
  0.9289072016621625  0.9288289269594141  0.9295353928409016
  0.3667819790199019  0.7631121324313653  0.2084162673804915
  0.9287653724824851  0.9292128893106029  0.7871721106103711
  0.8564879881676289  0.0009385022897239  0.7139533336672081
  0.8540809317887128  0.8573528317958032  0.5725597041288137
  0.8568651768004357  0.8586234322168642  0.7152100792154265
  0.9116614244880743  0.9293626821196787  0.4989531835985614
  0.9963012320548392  0.1416111494192798  0.8562635653055267
  0.9254109500513334  0.9281812919773144  0.3544716431866373
  0.8552090231742866  0.8582625939828057  0.2819414853241139
  0.9282867481281740  0.9285959537486594  0.0709864031838115
  0.9257512469209346  0.0754552264795842  0.3565136852200436
  0.9971450862650547  0.1419715801463489  0.7125144785609434
  0.9297565008965817  0.4994149181716480  0.6430911698522972
  0.9973330338572453  0.4306711560246706  0.1420562707861061
  0.9265036047050951  0.2138696727969399  0.0719948548702316
  0.8561399779108105  0.1421411667733295  0.0001709711870703
  0.9277917855791591  0.0697321986576992  0.9295332239539396
  0.8565317244405186  0.0006073806170048  0.8577672031061058
  0.9272119485017662  0.0709914186506403  0.7856273426460593
  0.9988586082207888  0.5700663164151036  0.2836388529924985
  0.8520278172342176  0.0015953423986670  0.5721250545108917
  0.9992344103867682  0.4286966083394025  0.2842751171267014
  0.0703488222363948  0.4994529091972049  0.3561820417765942
  0.9248039457634376  0.0707425495511515  0.4998771389935480
  0.9282275376214605  0.5000671822462791  0.7849281919119546
  0.0007643587845350  0.4279426905837409  0.5717936497135149
  0.8573467099196858  0.0003969831810523  0.1430794461338261
  0.8571577221966351  0.1416534625703071  0.1428452969536814
  0.0703113827044716  0.3580023020750737  0.3571032417669127
  0.9989581053442153  0.2861473517939725  0.4309068781816323
  0.8586697403701204  0.4274240845093377  0.2838988333551841
  0.9293982158133213  0.4986380513089564  0.3566721160557857
  0.9264015161452125  0.3587131457039935  0.0703664475013747
  0.9262220071670552  0.4999056495341784  0.0696629501098581
  0.8559354062759003  0.4284890913580851  0.9975547594870084
  0.9959831039116979  0.4300671241732041  0.9991154749189891
  0.0713203859338121  0.3576504513527275  0.5008499726510726
  0.1426078412693101  0.2848687709760787  0.5712596977104242
  0.5035787452571303  0.6396326861469591  0.9320926455508270
  0.7871316290774095  0.9286094571252510  0.9301387771900550
  0.7176825274501281  0.8569986110167832  0.8588193712988902
  0.7179717455881341  0.8557507653615359  0.7172111775188981
  0.7878105369572475  0.7848451583679220  0.7879462102768949
  0.7840422759575753  0.0725797593968415  0.6414337186788620
  0.7126218136161069  0.8584499066420950  0.5711253592562762
  0.7808233133994830  0.9301332293610360  0.4968487067467686
  0.6476831820971070  0.7822202915438308  0.4981415469341375
  0.8546630943020421  0.8561436844519805  0.4250690447904964
  0.7157556813308049  0.8567190793447542  0.2824333120367095
  0.9926118182736793  0.8545427995565270  0.2787770732934804
  0.9261215654042499  0.2176396345282905  0.2102704888136021
  0.8565559341068700  0.0009101600236867  0.2843270301633410
  0.0713464443897954  0.5001087254224525  0.2128124269800070
  0.9947241125037338  0.1498816137348790  0.2770803235153203
  0.8594305389352557  0.4276299492547431  0.5714687802361401
  0.9306021700914082  0.4984293579411137  0.4999786929122887
  0.9289234237004864  0.3554727407913825  0.6427470159253651
  0.0682521238776688  0.5001564715680830  0.9274871469071446
  0.9257391064100844  0.2176738876205884  0.5038269094837647
  0.8591104935273890  0.2869433709869662  0.4279216860412957
  0.9294459180845311  0.3577726670799089  0.3575714993938293
  0.8576047400944592  0.2868408005425243  0.2849706978223808
  0.9278313747185813  0.3576342355815339  0.2125110412741916
  0.8553546527135601  0.2874299989537548  0.1409777535637782
  0.8564454451575165  0.2858998601638871  0.9990423097937130
  0.9261378505734911  0.2127554341626118  0.9286895670166863
  0.9933628316952948  0.2845914984842977  0.8559652070924940
  0.8567148732576426  0.1431551634967177  0.8564808190959138
  0.0636862114902252  0.3606789202550782  0.9279630195622344
  0.9278614941760732  0.2150640301736921  0.6417099815290289
  0.8558368043932997  0.1436666080474593  0.5712303108368426
  0.7855128242819579  0.9285279932509382  0.0718826110056365
  0.9271445895149869  0.3561843953540954  0.7838031189633663
  0.5779183838404937  0.5697649468552060  0.8595630766899341
  0.0678137038939083  0.9266770596619361  0.2112600339555933
  0.0695566248712804  0.7848232822764100  0.9291921166957353
  0.2850603206558552  0.8561084998305203  0.0033496771893922
  0.2840016702192851  0.7122155785564620  0.8608809696609665
  0.3542664524483992  0.7831730435168114  0.7973278054502055
  0.1410515790885413  0.5685330198814049  0.1388133331676650
  0.3125456286951199  0.7386256117004587  0.6103763319165358
  0.4728181401487592  0.6026311093450041  0.6045071186776252
  0.8583402061792611  0.7141176308772230  0.5717554004608542
  0.1425909589408788  0.4285698542674202  0.2836503756019240
  0.3581034323963738  0.6410009559683645  0.3482665182235585
  0.8576297807773231  0.5707232203805286  0.7143956788941327
  0.9969879951494865  0.0009860950521905  0.7138450597236193
  0.0689564149840751  0.2199114076498426  0.3597632846797673
  0.6447462962270365  0.2134319629921652  0.9283445172528083
  0.1415944379303384  0.4277554905628025  0.5721562888773526
  0.2785252169121210  0.4238172838082274  0.7205339066556972
  0.2119796182960618  0.4988096539677512  0.6455019518224980
  0.2852711958565745  0.5610921564335035  0.5720035727889227
  0.0682421792444115  0.6413764336970896  0.5014503180484132
  0.2880520316779375  0.5690688553501120  0.4297832276597344
  0.3668885079168064  0.0920045423194511  0.3458130902726503
  0.2840103548184114  0.4275120212531547  0.2832737932095848
  0.4381796055375087  0.7022847110919427  0.4286407389165173
  0.2836284580811613  0.5704257425019024  0.2816683573935321
  0.3594781989468110  0.6365758943366083  0.2075250767899583
  0.2844096140843441  0.5690985583510761  0.1383675000465016
  0.1401121225238206  0.4266260929817681  0.7152189632469204