 B Cr Fe 
 1.0000000000000000
    20.0899999999999999    0.0000000000000000    0.0000000000000000
     0.0000000000000000   20.0899999999999999    0.0000000000000000
     0.0000000000000000    0.0000000000000000   20.0899999999999999
 B   Cr  Fe 
  27 206 480
Direct
  0.4225804798865029  0.5258174218254121  0.4306957733553619
  0.3918376652571168  0.7143409806157097  0.3526557496751663
  0.2228464548236374  0.6591622939352034  0.2907345774076766
  0.2397617509006058  0.7173107040464138  0.4300269081039045
  0.4810534729661013  0.5929988661925132  0.4333252781389381
  0.2185469732008759  0.9207685151032933  0.3155569186286484
  0.3058427588238063  0.9235172419195261  0.5081668932707137
  0.1117488678551919  0.8346368519218561  0.4512512285507609
  0.3664775942268546  0.6449026698519145  0.2930731870239493
  0.5251197771154169  0.0814918818015641  0.6716106693796055
  0.3097911565314062  0.6582484112090762  0.5566530119435356
  0.4076800169283136  0.7613006539735961  0.5059774973523041
  0.5000283937801214  0.7221973308470107  0.6223287093860472
  0.4339419442784711  0.8412766059170333  0.5130437470463842
  0.2906796606263836  0.0505072663933173  0.5588124927230032
  0.2895001458551306  0.7877069334076882  0.1709120470786800
  0.4816828570305707  0.9863625442999068  0.5043418378193923
  0.2223344975156100  0.8430342825935778  0.3513202581715091
  0.5681492307481741  0.9037468416126558  0.5766346212031008
  0.5261134007417815  0.7863903167456548  0.4205432399547350
  0.2150634452241013  0.9830864223598763  0.3792776314046255
  0.3866580125647631  0.7894361053894081  0.3042369470401884
  0.5478156901952409  0.8507500550257032  0.3688201655486490
  0.3642958719409706  0.7953216871320148  0.6810518205902641
  0.3643913585685094  0.9796379125479930  0.3703578887668366
  0.2178548555679611  0.0045316836669631  0.5631931248930087
  0.6270063879369688  0.7334896421145154  0.5030550145872896
  0.7160369847437582  0.2854855096619751  0.2833642044706250
  0.9274383409948963  0.0737505796614950  0.6428394594025418
  0.7905404095635521  0.9309587116306468  0.9315136840833856
  0.7167252370058803  0.4271838497763965  0.5725612926273782
  0.8576996245259100  0.1435741641913422  0.5709012630124820
  0.5745099697286608  0.0007230872727324  0.2846152376717815
  0.5750345196088482  0.4269722919854669  0.8580597710840732
  0.9296202034627388  0.9310632495071772  0.9305307883750906
  0.4350228048846272  0.5597636925207947  0.5894636547344099
  0.4599063395614271  0.8623150252799229  0.2702205740495033
  0.7873528181620526  0.2154660729983324  0.2152996970821247
  0.3549374773969960  0.0852431285144913  0.3564505176612859
  0.7162484676316845  0.8578514773722091  0.1418809016332123
  0.5754994311168573  0.8582946442287469  0.8613855552599687
  0.5294848494414672  0.8894602385679193  0.4708826031914705
  0.7209234883638076  0.8605991615753990  0.8606015786029375
  0.2853717687321808  0.4241092449872213  0.5732907894776634
  0.6406913089224263  0.7800825620077508  0.3398942463709666
  0.1403001642891274  0.8582695689196723  0.7172215035170263
  0.5744095691837829  0.2831535041517946  0.0013157761283436
  0.7905072379730093  0.9315039366590984  0.7883892409142235
  0.3565223927009213  0.4925392825152670  0.3539517779468966
  0.4379140632566868  0.8625414193525969  0.7145965767550364
  0.5022920114383111  0.0898997154669560  0.4961512957592848
  0.1448586599412912  0.5747947793095325  0.2818488111899289
  0.7151672626524853  0.2855763871524341  0.4296145396602253
  0.5779387988124336  0.7055591385851491  0.2702973675791624
  0.9966757392430979  0.1464340860851833  0.5717506063090065
  0.2157247537232924  0.0707561571303874  0.9242903346261211
  0.8597702359857350  0.0005334293708686  0.0005587711133661
  0.2144479045009562  0.3590228309116461  0.6453517839632885
  0.0561572271330996  0.9338439379992136  0.3536501384433479
  0.2140569725163426  0.0722436998619182  0.6400697671428257
  0.9304949219027344  0.4991206578550663  0.2129479898500475
  0.5061834993824367  0.6382874923569148  0.3371144818284528
  0.0735694180702689  0.3563386110892902  0.0696435669695146
  0.9996491504798625  0.2849604506054100  0.7131875925193184
  0.5753313082082110  0.4265210222086353  0.9984844279653623
  0.6458974064075794  0.2139901265111087  0.0710172534085120
  0.5725467553276320  0.4291211454292250  0.2840678794425874
  0.3644945823415425  0.9330218690521496  0.7848046621854081
  0.1434830432296099  0.2859120326737197  0.9972945953119943
  0.1415069241925080  0.2878095617027840  0.4293854034306089
  0.8590311520415553  0.0030865992147352  0.7147628566791939
  0.8611743183917671  0.2861673686236581  0.8572032918783179
  0.5716121614240238  0.2860502328785308  0.2843890245532899
  0.7172935062768497  0.2854945168030291  0.8590062356060706
  0.5027705187360368  0.3589451630542564  0.4987524129943858
  0.9284788246305563  0.2148283832134853  0.6425023564298167
  0.7122722154830532  0.9986066385040847  0.4281996877464403
  0.9301401674618397  0.3562310473014791  0.6436597482819998
  0.5725598187713331  0.7194111525039673  0.7166204718718081
  0.0715865543766916  0.2148975916723972  0.2141564859740893
  0.9277341368738690  0.3572959760863139  0.3566431253327961
  0.8585419045719612  0.2858251120763186  0.2854829297264068
  0.1414627481224161  0.4256249201999137  0.9974311513267220
  0.9266607380002100  0.6416954642424622  0.3555494817785555
  0.9270242897007620  0.0722251776991993  0.7867129833340051
  0.1423624633376565  0.4280967882678395  0.7146030458679908
  0.0737147550622967  0.5000107810582568  0.7855329229424544
  0.7822432624139301  0.9293959024203585  0.3566276634234118
  0.0018252012408721  0.1431120855683406  0.0002909327001886
  0.8604700889180749  0.8584753410302217  0.9985374256040714
  0.9956071106128901  0.8552882657708676  0.4273456287218956
  0.0693629842749456  0.6401159941432177  0.6452801376399457
  0.0720224264015420  0.9300225759857930  0.0712361056688230
  0.6454734791870514  0.0724014174039789  0.2154225359388332
  0.0683814038500438  0.4970751373934554  0.5034772001735385
  0.0668701896972470  0.6379291871490989  0.2088164087674833
  0.9272045126692859  0.0733926569026583  0.2125284500332580
  0.9315228417255018  0.4989566605539662  0.9283004638972367
  0.2152238679562413  0.9338192080285018  0.2092272679424101
  0.2323753273129154  0.7423770606467627  0.5340682645860485
  0.1413234541793678  0.1485950604141041  0.5723975089316916
  0.1429422029467283  0.5697043440129173  0.9974501452483709
  0.1433879149334329  0.0000150654255553  0.8555041725050604
  0.4008122864100275  0.9218018183526594  0.4539124894671846
  0.1439296608525138  0.5712778394070243  0.8541712520613961
  0.2876761593952877  0.0013577005331516  0.8554389162049869
  0.6496357278201601  0.6361056658390108  0.6511829357243547
  0.1391536624912437  0.0016897525640570  0.7142459958297203
  0.4286377073741979  0.4224278258168566  0.4287264781558127
  0.5847477026589846  0.0044993453549699  0.7276676393428062
  0.6477827012829426  0.0745088621180971  0.9314322936386501
  0.2138501171580468  0.2138372947892705  0.9273877845412483
  0.5054123427845326  0.2180959751768181  0.6468287852052240
  0.5033416919990404  0.0757077011067341  0.0700604281395616
  0.7083833790548857  0.7171439126606747  0.4302235807471961
  0.9987832503580617  0.2855751156134596  0.5718038294513881
  0.4315479292014234  0.2883878187503381  0.4272060706580948
  0.7872083450309676  0.3569169971083471  0.6433927439400116
  0.0701901167411278  0.2173680349635071  0.5005427855605178
  0.7148797557085703  0.7199174529296669  0.5709328050671363
  0.7200146492482249  0.8577283961646232  0.4266270218386380
  0.5751772403691997  0.7152321929996351  0.9964681183192392
  0.0024469897206020  0.4284337206133719  0.1404008846721346
  0.8593134833821726  0.1424831862643825  0.7132063735527194
  0.7891241136854049  0.6416291610461941  0.7883602567888697
  0.2140597989468292  0.9309472244089549  0.7832659067174504
  0.7849323106184724  0.2147971861398128  0.4997587074852104
  0.9306129784468600  0.7857528492530068  0.9289438674073576
  0.6445450777156347  0.4960214198367021  0.9276923976252194
  0.7875885039261709  0.6415770256204012  0.2118980967857117
  0.8573711679524300  0.4273516125733250  0.4277155851188970
  0.0721710984562111  0.9309134083187787  0.7858083488572238
  0.1338616224366185  0.5629666644584301  0.4372675175807224
  0.2894089898957506  0.9961204895397270  0.2965187631349489
  0.6333839099554754  0.9242880719543221  0.3644257992357856
  0.1387818887578159  0.1486789510431410  0.4286362951262763
  0.9993151705222698  0.7136344421659389  0.1414751936802892
  0.0730360247378789  0.3560710804712047  0.9280264436295959
  0.2890246634071537  0.7211915207183826  0.7156773075170231
  0.8597829311386869  0.1421049964971715  0.8578272700994520
  0.9951127743223070  0.0050193334742571  0.4282743775857041
  0.7208657018481717  0.8622692178789152  0.7208595328860273
  0.2084904806120991  0.0824711424369988  0.4978622335608863
  0.8593549852194795  0.9993800946897632  0.8586410431836735
  0.5661408247635514  0.0065527250804622  0.4323354556187937
  0.0678554629946506  0.7841837593980373  0.2113500813745610
  0.5057719089864460  0.4939491584724365  0.6496457726630762
  0.7178409668903694  0.7135058055684664  0.2795380032235803
  0.7172414692440122  0.1445213724727020  0.0011195612161137
  0.9267793479971996  0.0726750457548255  0.3573263329415293
  0.2175086314617402  0.7890375067064728  0.7828674169805475
  0.8548597650906726  0.8575762714516538  0.2851428385805649
  0.5219109390807144  0.6423942726048545  0.5211579717939359
  0.5769606225788374  0.5680724000690629  0.7193625798707122
  0.5761124255216872  0.0048824003624201  0.9996049702198964
  0.4325865363691124  0.8596690347188233  0.8571649473047745
  0.3041077429573981  0.7233452732639393  0.2577670154362310
  0.4280074345866138  0.8159138052338867  0.4090465232927817
  0.5029141995035211  0.2197360561166906  0.3540528926467801
  0.4308363836309572  0.1446321010246026  0.8589685996710362
  0.4310559134331725  0.2869955160824711  0.2844087159789990
  0.5016941651659385  0.2167562602079246  0.2128864392079218
  0.1917526437157777  0.9283598804959609  0.6421370744954470
  0.5027179143818038  0.2152087937950809  0.9293014085874470
  0.8582190807245051  0.1438834218737244  0.1446200562183063
  0.5391624239856619  0.8199827387031517  0.6396135670631136
  0.2849054721285516  0.5658535627358838  0.1339997150397726
  0.5016582341988424  0.3601893464896216  0.3541070681346251
  0.4282891870419808  0.0059787118121344  0.2863597606954120
  0.6511924616315351  0.9307510447385694  0.7942536370407165
  0.3582104392312921  0.0736067011464441  0.9253431147431325
  0.5716780801912245  0.4294101041112802  0.4286900636153829
  0.2829165715536177  0.1562859761829840  0.5727937407009754
  0.4300951894780605  0.2829929467940344  0.9980085781006430
  0.4320971185225995  0.1458671009226117  0.1414521067471692
  0.9986321040721747  0.5706410094464871  0.2847054120185343
  0.8577814795192730  0.5703514112462734  0.7161555617068800
  0.2118957040223369  0.2188783431679717  0.4985067018584556
  0.6465395404913045  0.9324333787232876  0.2121747792926008
  0.2136713278707332  0.3565281258311963  0.9283979055195245
  0.5778489108451167  0.1465356576111298  0.8618053566783619
  0.4314586567726542  0.5695873117428016  0.9944306456684253
  0.6466975270030836  0.7868961119269668  0.0683456666208145
  0.2876973889138896  0.8616851354832067  0.9984183158249600
  0.3596807114303481  0.8720900587684181  0.5934731439833992
  0.3639967293598924  0.0996931628244492  0.5016159688726961
  0.2160710848930705  0.0714537473854735  0.2191382017070057
  0.0686374030347914  0.2161650838704991  0.6423623069879899
  0.1330946411628469  0.7197768353054486  0.4421123141188439
  0.2856011790889089  0.9071349773715423  0.4015357595556900
  0.2860799220119407  0.1532746475632824  0.4291105220061091
  0.0013585343829981  0.7149176585892955  0.8578057711160140
  0.2125311609938432  0.2156114451375374  0.6435585793188491
  0.2250921415471835  0.6507969824046934  0.6361163729248855
  0.7154727791190711  0.5724562320606372  0.4277625266880691
  0.5758666470013898  0.6951762852593100  0.4176578216505916
  0.0003960384708240  0.5691235850112252  0.9978901873636038
  0.2885567369483956  0.7128754558677083  0.9969919939106536
  0.4291678705449437  0.4287007516261432  0.2845919564909920
  0.6450571691437694  0.6444782244048988  0.9276052096652678
  0.7156813102701227  0.0029608321032775  0.1431135440370259
  0.5008040844895557  0.2159742804432654  0.0701307432351823
  0.9277224727389733  0.2153761988377580  0.5012152229339827
  0.5031462721371733  0.7886177091124593  0.9277574515373107
  0.1471684936566084  0.9982168522025925  0.2918302147916265
  0.7856809818865451  0.7877296471694762  0.2129136508754096
  0.5765076775466904  0.5669613271023917  0.1353251078828035
  0.7879242888778167  0.0729907533519314  0.6446805391043406
  0.6442221759956474  0.3562224503755989  0.0690830721855222
  0.7817576178216198  0.6442701500457582  0.4991853267599843
  0.5034609243056573  0.7904773494108699  0.7871716627653913
  0.3590237772686871  0.6438686811614930  0.9261317418672997
  0.2888466161341149  0.8663919541081693  0.7016280761339626
  0.5118757615147538  0.0793389891036171  0.7940996469207466
  0.9269864089843691  0.0735828617680100  0.5003612298151192
  0.9250639696917530  0.7851260838087029  0.4992915221709346
  0.3588836230923205  0.2136252749597934  0.9265246950737128
  0.2861108838251130  0.1435955262253845  0.8585325406291234
  0.3556519873111639  0.4877044065492913  0.5037476980179458
  0.3574284379659520  0.3553125710256144  0.4999937825891706
  0.2855679395403331  0.4288707806142498  0.2845547965149045
  0.7122406357513501  0.9980479907613730  0.2867145370819658
  0.2855853106384231  0.4255588474158168  0.7159377788567146
  0.2982181195233558  0.0167653365652071  0.4435346194739526
  0.1348854096581448  0.8472705925073589  0.5616017524276578
  0.3575859624732136  0.2175720478032394  0.6446437408552472
  0.3588565223181943  0.3572782158947336  0.3548217152501902
  0.0716364154872128  0.4987242180432253  0.0671689489567329
  0.5157360005759518  0.7667288350196482  0.5178478661431696
  0.2873537451081075  0.4261928648408654  0.4279168855948028
  0.2833156848378980  0.8491315079238542  0.2673014027520819
  0.6468305521712596  0.9285702884444543  0.5010277084991781
  0.1260070596090948  0.7040450445464375  0.2776596979337496
  0.4305386850377148  0.1473965000581905  0.2837090443808628
  0.2964538131453896  0.6693874962606771  0.3616692964717884
  0.3307211117115317  0.8236746898728800  0.4863610245095057
  0.2152961700303690  0.6432231855258861  0.9265296819627235
  0.4316676287687650  0.0053924581949636  0.9970204328298269
  0.4319579614729581  0.4259583631367934  0.5730687660630951
  0.1406656601395428  0.5676126284848555  0.1376104202348425
  0.2053985217270656  0.7502566460003603  0.3373608705062429
  0.2135365006438366  0.4991041060676201  0.9262086331351792
  0.2881535766200338  0.8611412593689104  0.8534183171617237
  0.3555236987201427  0.6341514613551655  0.6499671499206420
  0.0014998065486717  0.0009372248445813  0.0005962445783379
  0.3582534387404777  0.7885898093537848  0.9271538625327301
  0.2162223348260869  0.6446127953748499  0.7841277585631272
  0.1428965486277320  0.0025727523307224  0.1436863729373139
  0.0739571865995530  0.7886116703542422  0.3588973351415197
  0.5100635938088206  0.7809409305088740  0.2002843025453007
  0.1229915453536183  0.0038271859478277  0.5680757654795189
  0.3787903779193168  0.9934714781218308  0.5404771573860554
  0.5075582966881055  0.6348933561901435  0.2002775508526971
  0.0732077806018169  0.4999848327659899  0.9270887592083186
  0.1453115063741965  0.5733100043265816  0.7123653779045247
  0.2876096236864124  0.0051361352709539  0.1423928596339562
  0.3936861765931214  0.6079734764016135  0.3797185876310680
  0.2852928846085381  0.2873739476027174  0.2839396634067237
  0.2135941490421565  0.9333069711946961  0.0682727138200601
  0.2184877444024728  0.7867013119767658  0.0743852660252229
  0.2140822329399206  0.3582429164366879  0.3564470397093396
  0.2141145895385621  0.3562167761282186  0.0688216802939901
  0.1907470502609403  0.6327026813146422  0.3790559402438253
  0.4302130252467897  0.2860323227779643  0.1414232432059001
  0.7176861140510939  0.4266003541934339  0.8586124877212746
  0.1373430231095760  0.7094627472318454  0.1363213140945692
  0.2890915245165630  0.8758673734323099  0.1367874406846609
  0.9302526368376323  0.3570426683576851  0.2133711880372161
  0.1428191241168535  0.2856443667260135  0.7140785706429069
  0.2145632469189349  0.2143918202056149  0.0700804494953898
  0.3590259339792788  0.2235891640105085  0.5005112207123387
  0.3534795968205428  0.0745364526143093  0.6406690477095437
  0.4299273901402263  0.2843306487447815  0.8572375688710535
  0.4320159665664868  0.1567317488189840  0.5775500625350631
  0.6491757111732684  0.2162538043304604  0.7892416175684286
  0.2850116327924785  0.1469157353631038  0.2842057499508494
  0.3593012796424385  0.2125188353263776  0.7853079379050913
  0.2858759450588869  0.2840418479494506  0.9974056670592365
  0.3580242579470886  0.3553437739344072  0.0688847573981702
  0.1430062927692449  0.2857344001854503  0.1419745422262340
  0.2141930273672313  0.3581308143433497  0.2128017778338821
  0.1422740142386801  0.7119825635666711  0.7143722364472851
  0.2140089723280175  0.3576822801678104  0.5000461024754035
  0.0658543002552579  0.6399811950942802  0.5020428349309128
  0.3578747794382819  0.3566248732454337  0.6444303997906209
  0.2853339097796113  0.4266791959492701  0.8569164915971134
  0.2855182304556020  0.2844087825649531  0.8566201834207611
  0.2865963968382086  0.5698418232488897  0.9951560148004452
  0.6459664131453474  0.4973460947280303  0.0676436018025316
  0.6438267713806635  0.0706783741889117  0.6452370899886101
  0.0543236352396046  0.7786653332907181  0.5062371587724459
  0.2845234721992648  0.5697232717426284  0.7157568433922598
  0.2160063823168854  0.0818068471131452  0.3614169239175092
  0.5038327135393345  0.9321550707689444  0.9283301972300209
  0.2854386290102462  0.2851142250266324  0.7150792567466278
  0.3578841779773785  0.3575168363907227  0.2128189923853132
  0.3619252867462142  0.9356940963508029  0.0667880000288698
  0.4323787691014448  0.1551745141567864  0.4217609495127997
  0.4347256208173513  0.1418828311605595  0.7100798778130413
  0.1423682977726895  0.2870976420529044  0.2848082746229048
  0.3586777072517346  0.2160453746491748  0.2127552161823775
  0.2010046268522313  0.7731395551005551  0.2089421259828024
  0.0017302233500649  0.2851882409167617  0.8569848213979375
  0.4954270869931253  0.9387153316493425  0.3609606818618082
  0.2149318199505810  0.0727895137029142  0.0704933285734904
  0.4317696966512772  0.0047542530703134  0.8580365743510308
  0.1450358387907588  0.8583610572545184  0.9997000064348734
  0.2128657908586754  0.6387935244753711  0.0647186685510439
  0.4322752707653459  0.7073542113760226  0.2557159615003156
  0.3618081532997526  0.6375990122798563  0.0626151258939395
  0.4969423957946235  0.5061680765699499  0.3588701548044150
  0.2149153270457889  0.4982876165708843  0.6438182896195973
  0.3598391607661295  0.6451897401266119  0.7838126552402493
  0.1427846344533689  0.4272425321241355  0.5729763713478353
  0.8588189042110965  0.2856748391072198  0.1430018771730437
  0.4316090797768505  0.2884253118734617  0.5731831062502446
  0.5739414540315939  0.2852845005495889  0.1409807985931271
  0.0017026965508464  0.5701406832154753  0.8568329541261763
  0.3593912180417900  0.6308229920924082  0.1939286043727582
  0.0709609590877448  0.3566918688733745  0.6437654449934367
  0.2129540763860164  0.8168762524638153  0.4498905523637859
  0.5784401861674525  0.0033826522664482  0.8620051391629304
  0.5030403107827186  0.2147755573714626  0.7879403489416341
  0.2134818659696816  0.0724631751277008  0.7853822544418348
  0.2909547077711325  0.9637974741931995  0.6093368283414200
  0.0003548758208457  0.5696102106974762  0.7157415751871941
  0.0655540269450217  0.9271845665324596  0.6416549982650867
  0.4301539679545127  0.1443158058561627  0.9984650429749780
  0.2872156354073702  0.0034963788217546  0.9969700140115118
  0.1435522479123308  0.2850955415567102  0.8566768590602390
  0.2137262209075313  0.4987342276514460  0.7852322645307098
  0.3576917049725699  0.3549918584549388  0.7862266074370008
  0.2862173814815919  0.1434103399582811  0.1428555974085433
  0.4319429486199372  0.0287296414090553  0.4262904486728868
  0.4351640790071392  0.7954491281299682  0.6064400569120718
  0.5056476887727160  0.9319864728118180  0.7933998874684717
  0.3907960034682432  0.9554967724338843  0.6619372287291883
  0.2127873922181950  0.2180052127674632  0.3571241225388586
  0.4681728135595054  0.9143319009199428  0.5709646539129473
  0.1429895018456265  0.1432390016636517  0.8562331829913614
  0.2883048165893539  0.7169446014881787  0.8550982306039928
  0.4313542095765922  0.8598322797297202  0.9976725092566525
  0.3583259132150663  0.3550069134310777  0.9273291517835208
  0.3576620434508124  0.4979818627006234  0.7867235965831955
  0.5066269096258970  0.9354028011318636  0.0664303407465399
  0.5025816991271091  0.0749034622091353  0.2141506457477004
  0.4646590325175973  0.0422288216775030  0.6048165829360111
  0.3583542243300671  0.4985625793654362  0.9263581794889599
  0.5683576572751982  0.1399903340504113  0.5807157933674142
  0.2513332867085553  0.8540426580953765  0.5665783256465136
  0.1437636221766506  0.8539875563871777  0.2778461844710834
  0.7895053340501447  0.2143746944356376  0.7873130770623019
  0.2144622518310315  0.4967124148438675  0.5013898883072215
  0.5759390966164416  0.5659960184101915  0.2783845509716959
  0.3584562541752347  0.4968942424255539  0.0658630033115883
  0.0000300219967342  0.2866162352654166  0.2853101043027240
  0.2849711762641043  0.4270625349035058  0.1392737898418021
  0.2150158092006420  0.5008241942573620  0.2119779916315561
  0.2888057850212993  0.7008657139241169  0.1308591893717392
  0.4994332839763018  0.5056745346294291  0.4982670710500717
  0.0711364957376667  0.0724077591596964  0.7857256750057457
  0.1420664037982071  0.1434486693131502  0.7130724704574860
  0.2841806040633244  0.2882762368217663  0.5739019229053688
  0.5035237390020901  0.3569424240857553  0.6448591597672271
  0.4306129245296475  0.2852286357704792  0.7157214313637518
  0.4301805515975697  0.4262190361004002  0.8572643320344968
  0.5030542873799472  0.2186200424360902  0.5008013581120053
  0.4302417023150336  0.4258991737456032  0.9971212225380077
  0.0681640876367954  0.0751536587156908  0.6436006872634557
  0.5021233180268969  0.3552576988403787  0.0689252002465097
  0.9992458461238128  0.4282739318644816  0.4280952816464241
  0.4332280644936417  0.5644863189734910  0.1337757856624527
  0.4300457601658400  0.4260549342346591  0.1392877285766974
  0.4547400331044560  0.6979114074992562  0.4347448207089638
  0.0721122032151882  0.4987810257964063  0.6442140998652365
  0.0671759788126327  0.0762160974651337  0.3546308295379757
  0.6448210016015450  0.3581416417615075  0.4994574921272876
  0.5755333508954279  0.4257182051210636  0.7177339544958315
  0.3573039784951634  0.2199617496634988  0.3541858341411937
  0.5028293731390864  0.3553229733342302  0.7879427562626782
  0.4310083208685723  0.5718310635019153  0.8565614330163838
  0.6472045961853571  0.3559101679733146  0.7883282397783780
  0.2022270451199957  0.9372488242971663  0.4934351217345095
  0.2880180282571821  0.5673680080730895  0.4318043413960391
  0.4305808707481469  0.4255934453921949  0.7165448843113519
  0.3587442331051562  0.2145197887869901  0.0700234842343198
  0.1438512000761387  0.1425888104472891  0.1439963739802309
  0.4303174633443320  0.5674897269561971  0.7193690655094005
  0.4326874744712800  0.7113060472601088  0.1328063635377021
  0.2160757329893937  0.9304054088510796  0.9268206592337371
  0.4308456615895749  0.7171160294089667  0.8558349495632447
  0.2846246256459120  0.0015453379473474  0.7196020123666369
  0.3940829372041496  0.5999168216479018  0.4952608991366382
  0.6483349023141063  0.6375956480990014  0.2066260984560728
  0.5805727553728939  0.5711542798181454  0.4260533979930811
  0.3207116239730933  0.7498525271927526  0.6017976348893342
  0.7884356985566080  0.7858212581056215  0.6470364813672549
  0.7263945130921713  0.8585070580906553  0.5744094429533502
  0.5070962452124277  0.6294509995040667  0.6509934794088456
  0.0684626402365533  0.7854292015693908  0.6437739708095903
  0.3598825806598839  0.9310853214620144  0.9264999216894395
  0.1303735117013518  0.0140321426740975  0.4295202213191949
  0.4400302461258073  0.8671513472251474  0.1332574447801387
  0.5048981102043928  0.7866200304619541  0.0662772398650811
  0.5063989116040564  0.9413819770364688  0.2066338199739218
  0.1515331769962156  0.9025781536398110  0.3917431082914414
  0.0012844554965502  0.1431972298756795  0.1440351663082672
  0.3133972970289101  0.7878827096142740  0.3744371107056568
  0.2041337624022609  0.7849936727204515  0.6478965317086924
  0.6577746490723372  0.7888099343340568  0.6612403013967868
  0.5026725442840263  0.6437737608215220  0.9270379299551916
  0.2141434930851707  0.2155207870724576  0.2138363729385337
  0.5024526187736863  0.6443863788975355  0.7849108790496380
  0.5052954919064812  0.0781219829856173  0.3514967015818659
  0.6432701376753394  0.0736924295594488  0.5002784852733542
  0.5727564701707424  0.4292568877061743  0.5708627236469666
  0.7147361935669707  0.1431426734628020  0.5725651190387302
  0.7176220250425382  0.0005472077251273  0.7161950268512502
  0.5745941301625350  0.1450917118312025  0.0011492009162279
  0.7167336846763654  0.4261879247910544  0.1404705678495264
  0.8603135484439511  0.2851641713351434  0.0002927098545097
  0.6454768137329497  0.2167548022431545  0.3557486223548687
  0.5736120675133828  0.1451460177409828  0.1418512849790722
  0.3580056817451199  0.0740756808495512  0.2156905181032602
  0.7855316222840563  0.2161493358681048  0.3564104638628372
  0.7884479630134462  0.7852733636233014  0.4989222668004338
  0.2865007462147899  0.1435966543906659  0.9976177385083804
  0.6462990515561204  0.2154598343291960  0.6442743376232477
  0.9272779979768928  0.9297837665463015  0.4979250679399375
  0.4497761367921684  0.0203699454367094  0.7273850806665934
  0.6185430856746562  0.8148550704920363  0.4435953191869855
  0.0011156430067089  0.8584883227178093  0.9996565566909619
  0.2857103512772505  0.2886712981299806  0.4277488904015622
  0.5730935404469099  0.2877570297625742  0.4274315868442160
  0.7164540931919643  0.4272334739488313  0.2840955188770932
  0.5038395692989567  0.4952022803614208  0.2083190636571544
  0.8579548646080759  0.0013386124907576  0.1435837151957672
  0.0721126389191381  0.0728051027917305  0.0714977217043472
  0.5047429905155620  0.0749736199544432  0.9292448227178687
  0.3590689348080672  0.0751012053155047  0.0699864302754216
  0.6425471366772032  0.0714383906905283  0.3571838139133657
  0.5791879193447810  0.5621135990861809  0.5795989403959494
  0.7169722776915184  0.4263995254175478  0.9986426216736166
  0.6437654887758786  0.3567355273410715  0.2137706220787214
  0.7186781704003713  0.7136071562653877  0.8592925303400291
  0.2862068595315787  0.2856919176527464  0.1409482736678253
  0.6483944827376713  0.4955270344618773  0.6476948832895140
  0.5742127771543238  0.2869617083889129  0.5721242288177357
  0.7857831799259666  0.3572710024802795  0.4993676965606128
  0.7183716917145868  0.2857368446721302  0.7149016948363660
  0.6476192600231327  0.2155207442867634  0.9304208379508422
  0.5755517471925590  0.2859446385354616  0.7169009394378258
  0.6454624406984359  0.3550458162378394  0.9289709364760210
  0.9992206964217299  0.0022307933228833  0.7146077244592131
  0.5745432606826544  0.4254557968531766  0.1389824071400716
  0.3557248486458638  0.4970573842141708  0.2092940920041805
  0.6461376251277292  0.4967831678026860  0.2097880416533535
  0.5746069071369564  0.2851129364245222  0.8586554618859784
  0.6448992085007628  0.4983713389701384  0.3548742765565959
  0.2153959007899477  0.6349967252530104  0.5022307190409481
  0.7180632920746364  0.7137314059841192  0.1392477553142852
  0.5770113081840180  0.0067758733808002  0.1399184140337327
  0.4211983099153999  0.6850872120308582  0.5680072104175815
  0.6458785978058944  0.3572401745802292  0.6435935322787539
  0.9997716136514483  0.7132480595233435  0.7158251808209188
  0.5032810242678801  0.3552585157496338  0.9289453456912992
  0.8604884573852841  0.4272181068091586  0.9991059770827776
  0.5037496138085470  0.4960703956344548  0.0657551582350270
  0.7165803030109150  0.5698010964075986  0.9973086590135283
  0.3347129939585973  0.7010683374743579  0.4695396549092520
  0.1421098285411294  0.4285364572109658  0.4291272974796592
  0.5746978635574161  0.1464928729564561  0.2830401303941668
  0.9947707077691473  0.7118017987091025  0.4267004840110143
  0.0008557339213195  0.8587681683668804  0.8582390221996614
  0.6475115418867127  0.6342056241469743  0.5058939435724766
  0.9982550665471626  0.7134505616322505  0.2857414629673218
  0.0716138232197655  0.7865843246690430  0.0700818463717685
  0.7893845844578171  0.3550277117830778  0.7871786595491866
  0.7877440907007812  0.4974787596289604  0.6445513454587932
  0.9975041017023050  0.5694081710749749  0.5733873237119184
  0.7175855615806127  0.1436421225127028  0.7155783361700977
  0.7877722944042024  0.2142104570307828  0.6429623786523944
  0.0010751125387349  0.7150076375265310  0.9987255811197939
  0.6453041821623460  0.2161426995007113  0.2136582478766680
  0.1453989802575108  0.7159288847978837  0.8553594404337155
  0.7862251526423453  0.3558106673236180  0.3568443964503162
  0.5794094714520065  0.1471614012640208  0.7196104320991981