 B Cr Fe 
 1.0000000000000000
    20.0899999999999999    0.0000000000000000    0.0000000000000000
     0.0000000000000000   20.0899999999999999    0.0000000000000000
     0.0000000000000000    0.0000000000000000   20.0899999999999999
 B   Cr  Fe 
  27 206 480
Direct
  0.4220511241841182  0.5173969344081035  0.4271419651735942
  0.3920521852265373  0.7099274407743987  0.3477412857635179
  0.4908749340723185  0.8648396644983306  0.4439711370014173
  0.2356803060690409  0.7089032639117379  0.4220402151458146
  0.2250970823183635  0.8500427358016702  0.1622671027998253
  0.2122148370910835  0.9174878059055196  0.3061812219378375
  0.3194451386806981  0.9350367602793785  0.4906279595679048
  0.1462479138940828  0.8571967409180620  0.4854766457379864
  0.3617132293987407  0.6461015269981005  0.2871876534401250
  0.4920372348898022  0.7172639879291323  0.6003065279424377
  0.4677861675468662  0.8402282331213129  0.2846705919880934
  0.4065783214706154  0.7570854339398865  0.4987252614968166
  0.4841983682452597  0.8648320948367049  0.5689196025706709
  0.3892168287472112  0.9916155229587129  0.5009055687662871
  0.5358932419495639  0.8055870851749404  0.3989450492687621
  0.2924903018960546  0.7881878978461835  0.1670233017860917
  0.2874175694041797  0.9093012995297828  0.5649243718348040
  0.2265698862763701  0.8401567621328838  0.3454464539368964
  0.4311173774130266  0.8411197712330977  0.5032520338325788
  0.0974043056143285  0.8374735342988177  0.4174752991015760
  0.2223170464415022  0.9828355399336046  0.3692129243794520
  0.3939502756231104  0.7872781230476561  0.3022663790810276
  0.4819785817999547  0.5837673988917845  0.4301757708468763
  0.3559186199415802  0.7798610572366830  0.6898769376275109
  0.3736555893953826  0.9771289933343236  0.3596088773822507
  0.1651995961464272  0.8622575708112606  0.2237163596130755
  0.3585387927651855  0.7260780331089880  0.1637872541461579
  0.7879139108587963  0.3559388801978445  0.3579055636962453
  0.9302746743872078  0.0744711471489655  0.6423575418257603
  0.7892968996445128  0.9296382044210256  0.9258236398708215
  0.7164281779387904  0.4266961739089363  0.4285152109755555
  0.8599354490432252  0.1443824741924993  0.5715145913757371
  0.5728259310553806  0.9996021061773848  0.2881004669796604
  0.5737465762921370  0.4261697318699167  0.8576305774170878
  0.9289405514340656  0.9284261500245566  0.9282339946204922
  0.5170361307829276  0.6391609395313027  0.5177105680692514
  0.5768491283990030  0.7061520550546108  0.4249400814057298
  0.5744730659712464  0.2863221331302362  0.1412555404128505
  0.3608767182920934  0.0866674235905565  0.3523935956373975
  0.9291037453267120  0.9289687436876312  0.0710852697424572
  0.5738616730487133  0.8600698469954110  0.8555554570837750
  0.4998131858890274  0.9489795450290498  0.5043079061605353
  0.8604356916468052  0.8581892217656927  0.8576500961683016
  0.2046082465487680  0.6295914364648868  0.4902910267026518
  0.4348803108790555  0.7025324186134340  0.2457863346357883
  0.1433758888657709  0.8585870705207229  0.7180129909320061
  0.5752473712122537  0.4276162396998844  0.9981876473812583
  0.7180250189393212  0.0032360804503020  0.7151390735118578
  0.3946326341264021  0.6021145498944992  0.3723754352973454
  0.6495557162882505  0.9354570188185060  0.6450512813065928
  0.5046047156292052  0.0819750022850810  0.5036240718273234
  0.1434901379143109  0.0030502154007854  0.5721229559661252
  0.5751903276832983  0.2861066600703032  0.7166666912381772
  0.6470790540622859  0.6397008060145462  0.6455374661463356
  0.7885932869836435  0.2163391072600719  0.5009369446574656
  0.4972890331185797  0.5035788276984388  0.3555619544513522
  0.0717923054671771  0.2155102705953884  0.5014430508310186
  0.5763383552013566  0.1471930210582852  0.8577365769287983
  0.5048059969030858  0.7868740940204634  0.9245086853583737
  0.5746200734028529  0.1465413896298249  0.5736914811241617
  0.7174266165731925  0.5700966712636866  0.9978356522875391
  0.7166344679916958  0.8622877815771403  0.5713976510513817
  0.5751028926001066  0.7144068164382115  0.7119865247134467
  0.2878711277312466  0.0041917916218327  0.9969498872087866
  0.6482257099391430  0.4970912830784015  0.0665378619038832
  0.7882996922748824  0.0718132984827555  0.9270885335810852
  0.5076945705903368  0.0798535142563416  0.6497452000102752
  0.1275030182484111  0.8306072110220976  0.3101559242268740
  0.2152787950751384  0.2138495197763044  0.9289518050848848
  0.7882154900074752  0.4983660428875178  0.2137854550697277
  0.5048816468626861  0.0758168833871480  0.0696955060683763
  0.0016749270997029  0.2850493578590481  0.0000876585239413
  0.4298377481503936  0.2876286477386012  0.4294906335324016
  0.6478920770120291  0.6405042749099937  0.3558420267778483
  0.9994449154369166  0.1453165835521315  0.5710902815365159
  0.2155412543592891  0.0733112646597436  0.9309476022620352
  0.7170487760702919  0.0040886060195235  0.4272620996012674
  0.2865447341924281  0.4276792500548844  0.7152801616153101
  0.2135715215031188  0.3565175102236116  0.2128185046923280
  0.2140193553832508  0.3558169788084784  0.9279660342189034
  0.1440440431660953  0.0010131674616218  0.9990998057704944
  0.9254772827797914  0.6402534411223921  0.5028662450379898
  0.9297235309694005  0.0731918503012061  0.7858971684921859
  0.1449846239733394  0.4285933180251558  0.5709871064569118
  0.7854993834591717  0.9309584545688606  0.3591393735130902
  0.8586693612142572  0.8594075717748524  0.9972918249027705
  0.1441212193563334  0.5708368401733823  0.5718031389595771
  0.0018634613045977  0.2855651519643068  0.2858545626524929
  0.1445832982185882  0.1447506050644025  0.9981769046066704
  0.4991089055996273  0.9362736638090821  0.6453501376691563
  0.9896689153163626  0.7076155514486181  0.4359743028386443
  0.0709446288404652  0.6410590161099131  0.6425731856862823
  0.9992863257972977  0.8579626298027992  0.9982821015376511
  0.6463392214840847  0.0728095787856664  0.3563686314582014
  0.0705217206109298  0.4966697674091329  0.5039001240077673
  0.0665761440784240  0.6369846522136284  0.2116750348267524
  0.7873722519533441  0.9294640449308702  0.2145558276637564
  0.9284210463865523  0.6426325990679239  0.0701691498355290
  0.1485903123433774  0.0013204730134448  0.2933596014867119
  0.2416200697516298  0.7262581479197641  0.5288931758859852
  0.0718886501595840  0.9288205188872439  0.4906024773672735
  0.9970439412254521  0.7111836708067848  0.9968803285036154
  0.8590426859056530  0.2852354580755865  0.1422268790590303
  0.0733406094140438  0.2153530117395014  0.2136903344146285
  0.2852377063362301  0.7080625616405687  0.7227337840665481
  0.9302772111598775  0.4995411249302107  0.7861335761810823
  0.5030316790101608  0.3559134748350438  0.5007812147326371
  0.9306036124148070  0.2135533172945325  0.6440763612331568
  0.6466859331774165  0.2143747827202902  0.9285014721237793
  0.9306631852637206  0.3558384347791576  0.6437924362186476
  0.3579371423427885  0.2151175579111973  0.7892474380043244
  0.7866332996263428  0.3566005710794100  0.6431812162916716
  0.0712532951219554  0.3562448928011716  0.3569569692017848
  0.3586934330001372  0.3570318796577567  0.0701585484239337
  0.8597866356460011  0.2847141089457952  0.8568201821995050
  0.8595335291177141  0.2855188409566357  0.5732777083356320
  0.8598228924322422  0.1423152729018343  0.7139106896567740
  0.3586021359755761  0.0757779426356852  0.7877322136076672
  0.5726210302075403  0.4292195453696831  0.2853413363204771
  0.7174824821267141  0.7130488644691957  0.5744887298845620
  0.6425719159436349  0.7853879950123464  0.3628912499875256
  0.2146421170101713  0.5000033889837764  0.9277743491612350
  0.9997421928884538  0.4271010273754123  0.1422494896025087
  0.0005836257728370  0.2862390322103715  0.7132812495135568
  0.8597755071141142  0.0039288399261435  0.5730098001198899
  0.3541330247442278  0.9460237885031796  0.6592698179180516
  0.0615798097135452  0.6369595495213632  0.3601026288275335
  0.9292012317754971  0.7880351895160709  0.9299252036391276
  0.5054846954267898  0.4976704895668413  0.9267620819747565
  0.5070365836817110  0.4963194023393431  0.2087099791428230
  0.8585143955315581  0.2845061784041794  0.4294786289714644
  0.3587209268676746  0.6421036723315482  0.0700247230830386
  0.1436961679525646  0.1433812670544598  0.1446138026197846
  0.3645946646995261  0.9417171749940944  0.2069197685029420
  0.0620001689391685  0.7866668532345882  0.5015102306516015
  0.3320773200078764  0.6901133909830428  0.4642105559753698
  0.3667732627580710  0.0932310872259069  0.5033192318736660
  0.2866107583297280  0.1451098084065379  0.9980431995328800
  0.2873762034406998  0.1500302961950552  0.5720511023318198
  0.1424422008070552  0.0170835591161114  0.4318488405162309
  0.7165078656586231  0.5697204850002353  0.4289321107422971
  0.3245450271378439  0.8264318421267480  0.4912213605592445
  0.2196722753741245  0.0778450890493557  0.5025263237623929
  0.0001159690416725  0.1421141517340962  0.7143559738600980
  0.2194112451333328  0.0844586147644126  0.3597009011677247
  0.2914155165922755  0.9053286016423594  0.3883174073955388
  0.1447962398202418  0.2857941403078288  0.8585261671177130
  0.9291327357582184  0.7876721993405545  0.7860855451975429
  0.9295407363410724  0.6423706801236289  0.9266336986818564
  0.2950853646488407  0.5880799614798295  0.5618840552337866
  0.7170549400741786  0.8610712679706175  0.7157898492116245
  0.2127783835620921  0.9310692606011225  0.7875737531319092
  0.1315446845902081  0.7151550095746502  0.4288522382990058
  0.2934669233703801  0.9960144925978281  0.2915451344674868
  0.5749873948273243  0.0026177347467079  0.7143911302680477
  0.2994968417277440  0.0124503652482274  0.5665604528302617
  0.2911278545707219  0.5645693209873766  0.2878440781797083
  0.4225165797579248  0.8008865821097545  0.4054901976678567
  0.5089193474272784  0.0803218164414660  0.3522388335491362
  0.4291400545878318  0.1452104550860098  0.8568101586086331
  0.4309086302841349  0.2879546136619606  0.2824537926981563
  0.5045312180503881  0.2183973098347023  0.2122399579482274
  0.1248273743175037  0.8642942124849819  0.5862359782126121
  0.5020274288371596  0.2152511550237992  0.9266052442858741
  0.8591972678676625  0.1430253068114803  0.2855833733302398
  0.7177120107152005  0.0063111213315382  0.5738409103092593
  0.3561271727007148  0.4978288383780025  0.2089027439422179
  0.5734606717914360  0.2875522021820333  0.4288397982192266
  0.5000297162307886  0.9310964793265692  0.3596717092794246
  0.6487655979248643  0.9343171515432737  0.7864031288051255
  0.3579144524370339  0.0760537348472673  0.9277889613793183
  0.4980426239712847  0.5022847144915176  0.5009804992772253
  0.2887968573637033  0.2865804987633949  0.4283374879373947
  0.3576343584508379  0.3581575698886560  0.7863937937769184
  0.3589803307791136  0.2177181180049597  0.2125203425658466
  0.9968451883466072  0.5687498591183272  0.2852215023557987
  0.7877196130522301  0.6433433724777088  0.7854951656992931
  0.2171451964606368  0.2180222772889799  0.5014955129335912
  0.6427971171268957  0.9301572292675649  0.2171620811414345
  0.1431216385454592  0.2862829346077868  0.1430828096037374
  0.6464020972940001  0.2154882266340014  0.7863447994100662
  0.6458592401593996  0.9343468594552792  0.3590869566202868
  0.5044261189700973  0.9319171035241730  0.9240579513551489
  0.4324573377479632  0.0078711780643969  0.7181206482161608
  0.7161848613191912  0.8605989995299139  0.4288288846487620
  0.3554190659606978  0.4891851924444792  0.5071840555432452
  0.7184333116966907  0.4259616897274155  0.7155252273078213
  0.4330381787504398  0.5663298141776703  0.2666636836411443
  0.5737938047584101  0.0081405558656010  0.4280492786717984
  0.5114814203689944  0.6352127603990069  0.3406898080179051
  0.5056066707723020  0.4928606053651409  0.6475828965537649
  0.2179157932147647  0.7872699087259435  0.0741119255543646
  0.7166846012085990  0.1429636675175440  0.1425304409813807
  0.7183151217715343  0.0023150042674561  0.8584809691007683
  0.2182742719567148  0.6437411034857112  0.6388065578756181
  0.1353501392364211  0.7058663767958457  0.1395179870378142
  0.0697238621330329  0.6422718458362486  0.9279041017464912
  0.3609265456316674  0.6408754086113634  0.7870337118799771
  0.0691530301453143  0.7853982895876989  0.2123963220000600
  0.5742069954363727  0.5708375855931878  0.8569138855347738
  0.9978849156385486  0.0040131006283691  0.4299375962152664
  0.7161304512235737  0.7150643916731488  0.2869664281732482
  0.9282642747651160  0.2159910973979925  0.5018780778850560
  0.4250440495855167  0.8591511504747370  0.7120207989539769
  0.9296009239065284  0.0725403096218159  0.2150270436861276
  0.8552554042107250  0.5692014374367353  0.2850643697008678
  0.8593179326918073  0.0014144215825353  0.8588193026642298
  0.7890240123148137  0.0734939685946675  0.6429797561632139
  0.7892002574109693  0.3552228694095439  0.0707110078969960
  0.5096659169243183  0.6385427130840399  0.0648635011711961
  0.9233566535245972  0.7831152682168193  0.3585150223742313
  0.9290808292619134  0.0735628696437302  0.5013604052561640
  0.3674506519781917  0.9413279372817902  0.0588903836102878
  0.9898873189949261  0.8559089819004037  0.4292371569993553
  0.3563133881428673  0.4965982410436336  0.6450234069997728
  0.2867208284787078  0.1439580334067108  0.8579414751993644
  0.3584193727519583  0.3553951223016660  0.5017860363954443
  0.5221837618234839  0.8029692995747700  0.6465215999655329
  0.4121375402158107  0.6775227754319645  0.5619730100207716
  0.4151595772818883  0.7920062372237524  0.5984408327644053
  0.2166406367782377  0.4974840653158838  0.5017435942713084
  0.7156221360874105  0.9992095498829247  0.2857738496259868
  0.4316270308837329  0.4251048992417358  0.5728994400464044
  0.3043687648831893  0.0191437936091938  0.4301473588120662
  0.2151235738515196  0.9409400416507460  0.4953726451009209
  0.3581364851239534  0.2171823025770999  0.6450090750874093
  0.3604575840213189  0.3563050390843113  0.3549491571530072
  0.0000564431696042  0.5716909279255107  0.8573394612352533
  0.5148902232684908  0.7782171385838347  0.5079403895598238
  0.2881293225159561  0.4256551304771887  0.4288914487436449
  0.2805007942845192  0.8531155198491325  0.2581283832867232
  0.6530404967903772  0.9426455176347383  0.5034856636244088
  0.1213573376501918  0.7036720967268330  0.2852864991791604
  0.4338046631272950  0.1489983463342180  0.2818391169862433
  0.2969478633351055  0.6660982375850745  0.3568797363989041
  0.3139279747642691  0.8385729707223730  0.6232855377289663
  0.2139409567906622  0.6416642130132488  0.9285709076727106
  0.4350597867988205  0.0075172575898706  0.9937661756936637
  0.3580560920583874  0.4978228224160048  0.7870639018987682
  0.1412263770579507  0.5690449892666353  0.1428900223729748
  0.2148366737234856  0.7432881655002218  0.3261518266285633
  0.2862977791092283  0.4273688113244538  0.9987697719169929
  0.2873012188548313  0.8586674283189260  0.8596253952681915
  0.4346536729473521  0.7166297091752032  0.7045060543267350
  0.9996290718667044  0.0014896442547292  0.9989685396023698
  0.5072122117567769  0.7881548649433892  0.0652411575288286
  0.1392145432897836  0.5680637584445053  0.9965537781375264
  0.1408216084994663  0.0035962234347754  0.1404010344908782
  0.0490542728169666  0.7692467430925384  0.3629046470178114
  0.5799040057867526  0.7137192033901578  0.1369518240416547
  0.1454751272248655  0.0012101250812191  0.7145810938095166
  0.4004184438778365  0.9148051053826649  0.4350627365250469
  0.5159724484368318  0.6347141606127485  0.2041099393323169
  0.0703643878165636  0.4986001930853672  0.9270521969528307
  0.1442285186318943  0.5716156791026559  0.7131273328688372
  0.2937963114605243  0.0088323894100062  0.1349937099658311
  0.3095705921457199  0.7288814123642192  0.2543175303069371
  0.2869949963495705  0.2873813490621672  0.2837029612960743
  0.2158657752806437  0.9308947835827099  0.0705326052823495
  0.3602410106760139  0.7855276447795053  0.9295124526373153
  0.2153830606376343  0.3573463083209802  0.3576110939548477
  0.2138419735051114  0.3558682211206740  0.0703980189437832
  0.0679922398649272  0.6408949551850547  0.5005465743684823
  0.4306694707464239  0.2868686430573421  0.1413680950854663
  0.7179432261587728  0.4264107190985836  0.8573510323403140
  0.9976048613213451  0.7125466736859331  0.1418582921026564
  0.3106904323566280  0.8798159583745444  0.1305620700007892
  0.9297426942501351  0.3556261823431965  0.2134360041840755
  0.1437815661055198  0.2859379835471738  0.7145810085173916
  0.2141598861411040  0.2143287438279783  0.0711435257991855
  0.4336180384542449  0.1508450875872618  0.5799270267444665
  0.3562975411917523  0.0810701373727960  0.6492577566300760
  0.4306404822459223  0.2860353569956836  0.9990464806501506
  0.2147252962636396  0.2160880927537119  0.6440696299045354
  0.6464450839621031  0.0737435754222420  0.9268078213844338
  0.2873871200497282  0.1486556890486415  0.2831505099663106
  0.4305849161691963  0.1476464938451775  0.7175580272567804
  0.2863542813052966  0.2864520603319516  0.9994926445990288
  0.4312431275107343  0.4278424846950213  0.1402161413703749
  0.0713296352054974  0.3558440429651821  0.0712919195596306
  0.5746763104973565  0.2874903457841708  0.2840076515458181
  0.2128500836593014  0.7840911731812609  0.7898336594396577
  0.2154486189780986  0.3569955599442365  0.5003133556509425
  0.1329208059800302  0.5603967212163738  0.4314982052640592
  0.3586128004336206  0.3567587427576459  0.6451494057232962
  0.2860164611097009  0.4273665393914693  0.8582145038746950
  0.2863795031177274  0.2865361799595773  0.8577770047893105
  0.2869220103670280  0.5698039741945001  0.9988454512410445
  0.5745979969232377  0.2849835455014970  0.9979740348100805
  0.4351598283632296  0.0217902925931409  0.5861461808769977
  0.9248483679909375  0.7860326697801298  0.5019515275651684
  0.2834393395404127  0.5684715838460667  0.7180226158473697
  0.5012884750070870  0.9314655700661154  0.7847402871581673
  0.6462578955077420  0.6427544048671506  0.9259662081778601
  0.2870876907442354  0.2861028190207703  0.7163738103363254
  0.3587096650732126  0.3575371319147294  0.2119850390329807
  0.2862140395960433  0.0029468565543385  0.8579692068180881
  0.4351808112095584  0.1521955778225219  0.4243035204569707
  0.5044197251390740  0.0761021406593457  0.7873065985929926
  0.1432486957993778  0.2867111194371311  0.2850087845344271
  0.4325358492580547  0.1464104205308154  0.1420322447253231
  0.1974370703371807  0.7663775953425400  0.2104706796835897
  0.0014961786480761  0.2851931204486901  0.8563679822360560
  0.4331847457012186  0.0103179597741136  0.2850400397150378
  0.2143847096858757  0.0742805459372129  0.0696052853587148
  0.4315373113532577  0.0046198606175403  0.8570296434585525
  0.1427644815238768  0.8572041897446315  0.0008053364926267
  0.2686190489829686  0.6959193005375902  0.1351814108289066
  0.5880695853677221  0.8749513143139027  0.4414163515153455
  0.3605850303562635  0.7821388457741573  0.0745138805896637
  0.4301402925854009  0.4193340828707068  0.4310128503350241
  0.2180263278838820  0.5023711151579366  0.6399936239867323
  0.3593439975613266  0.6279535455923804  0.6569400570280115
  0.1443558142300584  0.4295101888428641  0.7137153062128332
  0.8586816519112679  0.2855963826804275  0.2860594349937745
  0.4313751856400121  0.2863628122556636  0.5735204643820206
  0.7177147076549800  0.2859953215260534  0.1415477673423929
  0.1423259858061229  0.5702600232985047  0.8575889539372739
  0.4376443042112779  0.5673174267362046  0.1355634658846207
  0.0729505104543638  0.3573632947263150  0.6432088413999357
  0.2205648560689174  0.8339040002498382  0.5515943334993423
  0.2157179133073805  0.2185050265869377  0.3565071818978480
  0.5032697349123468  0.2160702065660482  0.7874950844267169
  0.2131918310312512  0.0744362336688902  0.7882536232351205
  0.2887799252073269  0.1519735711284314  0.4300707518804771
  0.0004300972802817  0.5703482219808298  0.7143575568754178
  0.0686430349350437  0.9363662540056019  0.6484355038321228
  0.4329583266212271  0.1458371099272706  0.9979064492464371
  0.2907753684717862  0.8594132798681053  0.0006620186674378
  0.0720851105230299  0.3558007098395224  0.9282605115544904
  0.2142495717260218  0.4986281810624196  0.7868242258389555
  0.3584277838125052  0.3566230223886142  0.9283876732508450
  0.2878322817687342  0.1451715568720256  0.1416685397802206
  0.4396342048897735  0.0262737622055239  0.4197745596280943
  0.4324607008153011  0.8586010656816110  0.8560304301229130
  0.2194956973825920  0.9293682967611112  0.6429196795644637
  0.3596142594932250  0.9329219098688334  0.7892038059618270
  0.1443642014992415  0.1487091897611207  0.4307484138544522
  0.3920935202298976  0.9114127435171989  0.5610510683361966
  0.1436716680121277  0.1438565593844949  0.8582359847090485
  0.2869087737125874  0.7126485961209114  0.8594109837642069
  0.4332639643354599  0.8581447084853855  0.9954088462373158
  0.3580879277837077  0.2153800060834122  0.9283313191322858
  0.4298103550451031  0.2862106213896379  0.8573309376365202
  0.5078397839138512  0.9363381232209161  0.0630773410116048
  0.5053142889229870  0.0750192584956416  0.2133033817892962
  0.5746734675564851  0.0024354901741663  0.8553807832368406
  0.3591000347361769  0.4990156572189848  0.9282947982374838
  0.5051830814982535  0.2182428679586474  0.6473348177926089
  0.5762323925529367  0.0045188721109517  0.9960892595945349
  0.0584254044462862  0.9317028530392532  0.3587799915301697
  0.7895095786750111  0.2144072465619595  0.7857345568401525
  0.2143722852241806  0.4978281410553389  0.3576421339795897
  0.0746554452934673  0.0713500026078007  0.2167834791487612
  0.9994923788212876  0.0018857740620499  0.2851651189534984
  0.9292146439386643  0.9315545908475730  0.6440047514793846
  0.1446550625997119  0.1451822375090382  0.5714682251408776
  0.3610061355949051  0.2195087217655133  0.3544320664051729
  0.4323467515073979  0.5696213979784104  0.8573676923280107
  0.4305110459991118  0.4273333143056700  0.8573546653603155
  0.5800076345381977  0.5651622009182121  0.2803098481348517
  0.3585351838808217  0.4995121627599627  0.0699486308960804
  0.9294043554967449  0.3552041823754336  0.3575867409891955
  0.2767850060093025  0.5662890378444253  0.1377483303879843
  0.5760214859524428  0.1471119545870199  0.2833133291679011
  0.1448813373783091  0.1454070828600627  0.2858952209128502
  0.2142454382871544  0.2159387844204251  0.7873510048393821
  0.2132494147291508  0.6407584215482514  0.7881079705425982
  0.7860162928819215  0.6413643940368223  0.3571882230063421
  0.0685428585218505  0.4966302835721809  0.2132435817294327
  0.0701510627860069  0.4981120657245231  0.0707250497076389
  0.8586329673997258  0.7146110304442828  0.9984906066753150
  0.9298076970242645  0.2147959076294272  0.2146759515456293
  0.8598982716731595  0.4276849120195169  0.8562220892107453
  0.1438724760851429  0.2853477591777996  0.9993756420881613
  0.9282429539021821  0.4979563286582934  0.2136668550862987
  0.8595254114587852  0.7156953616053990  0.8564134412351792
  0.0011912002985572  0.1441861160110424  0.2852563666845582
  0.1437793742870485  0.0015531778773855  0.8581723009385666
  0.2855442926630501  0.4244994150358491  0.5740311833254168
  0.0017184009847933  0.0000863275359224  0.1449647603649669
  0.5745624926071017  0.2867624422572677  0.5726920041902396
  0.2149820084112554  0.8056994467533948  0.4365986414824597
  0.3596640658540149  0.4887022056030915  0.3511659156787892
  0.4296540493629394  0.4263719260969711  0.7162036553309665
  0.5035451693577317  0.2164189394535323  0.0705213695895031
  0.2173075703429437  0.0741471641634722  0.2141372821612902
  0.4338809617340338  0.5644624970699169  0.7203651356054233
  0.4487259729167492  0.7081108677949541  0.1300633027561755
  0.2152378654155242  0.9301995573128461  0.9300802967934981
  0.4329598907524861  0.7136307316870288  0.8563522657148173
  0.2830058161929410  0.0068271852365462  0.7207582501059460
  0.4337402492153755  0.5586402569350384  0.5882651460007644
  0.3974825820368483  0.5937011923296271  0.4866683849108306
  0.5810224718860664  0.5698290702291655  0.4277554491609883
  0.3160015110987389  0.7226338763383420  0.6078036834757340
  0.7858797213325696  0.7887308526734100  0.6437379978010385
  0.6497010216194723  0.7926746020311807  0.6447378643109739
  0.5061857695092211  0.6313264899593602  0.6475897564505932
  0.0684734869083756  0.7838325448320582  0.6460382582486884
  0.3608013158120090  0.9320371251778884  0.9265194350972729
  0.2230807438296946  0.9466673217115247  0.2021177430538959
  0.4396603901514560  0.8698445118844419  0.1243430682502136
  0.5758643765920080  0.8598324554730336  0.9952729415625675
  0.3888344827937731  0.8154217166874408  0.2071074353232409
  0.1640985705082052  0.9075098451355263  0.3955135433326700
  0.0020283425754018  0.1430551455999923  0.1443441601166153
  0.3151810347926544  0.7856553967548537  0.3673142963467418
  0.2096013986437398  0.7816106217909552  0.6539611548826600
  0.6473516738817416  0.7858661935726896  0.5030984265724557
  0.4333466266670333  0.7135781661699058  0.9987904096097143
  0.2143886218305227  0.2160240367115391  0.2117980017825530
  0.5030795475721318  0.6430798468081067  0.7835066896560152
  0.0723835485455850  0.9305234033127482  0.7862571981687023
  0.7152284815797411  0.7137197630625183  0.4298238874574832
  0.0690121379554492  0.9322700751654379  0.0680685552928146
  0.3624382108680385  0.2195260268376479  0.5011223000004194
  0.6449898288029453  0.3568792450082600  0.5000256132022498
  0.7176766246562450  0.4270763738360406  0.2853128191963441
  0.6481857537875966  0.4957628123795828  0.2112238182238957
  0.8583898477629266  0.0006134316637306  0.1436896167273792
  0.0727385732875188  0.0734149054682924  0.0703857796008556
  0.5048685523641949  0.0764249185191206  0.9248431481951288
  0.3620188722500642  0.0772306633817534  0.0669967097802511
  0.6455461042696997  0.0719751452582991  0.2146172227275321
  0.5745395553120681  0.1471929754830763  0.4279340491588982
  0.6455690702557492  0.0775802529327843  0.5008221076549993
  0.5731112422603922  0.4273158288247524  0.5710790090423197
  0.6467888153906971  0.0758327928371367  0.6455836100851119
  0.7889237984243835  0.9315258838031614  0.7862258633150878
  0.5749315097244342  0.1452134630140503  0.9985423137870236
  0.7183443695405932  0.4264940071865629  0.1404877784603134
  0.8594631181946949  0.2848319999753942  0.9998903231261140
  0.6458042230078349  0.2167261650615996  0.3566861782300246
  0.5747139059857571  0.1451277278831470  0.1420573950048091
  0.3600325400965486  0.0761701712341533  0.2131134647304558
  0.7881804657963132  0.2145089078582177  0.3568104455239272
  0.7852573026265506  0.7871280203292517  0.5017936574157865
  0.3589031682233090  0.2155977357835827  0.0698001755659171
  0.6467179328890307  0.2158100338155489  0.6443416144599291
  0.9276991187437472  0.9319561957201434  0.5002832509668387
  0.5789596841528667  0.5625414614152778  0.5767356829085808
  0.7179901070557765  0.4264536212879674  0.9987458920516534
  0.6456654945450067  0.3571563593286167  0.2133122851543922
  0.7170246310327274  0.7158741438719199  0.8553302355155984
  0.2868902385276588  0.2869834264237122  0.1414564482531671
  0.6483558634373665  0.4946359475262390  0.6461557636774330
  0.5021653215940379  0.3577069910337772  0.3551685649897496
  0.7879162211067986  0.3560447740403016  0.5009060803261246
  0.7176902228233747  0.2855114312314094  0.7151086327774431
  0.6463321793672382  0.3564188375750130  0.9280432127208937
  0.6468362581650120  0.3560267358263289  0.7867795315506672
  0.6461786658186786  0.3559073630353903  0.0692539348564116
  0.9993575383717993  0.0033207267724099  0.7163332481858755
  0.5765792884767098  0.4270748776259814  0.1392150793761621
  0.2850269394921359  0.4271858131968497  0.1405830080963431
  0.6502179148934905  0.6392271176644402  0.2090839140331947
  0.5750422514316796  0.2851623266681413  0.8579107201196682
  0.6458847465846318  0.4974504820895545  0.3566675820457146
  0.1412112088119062  0.7108332397861326  0.7164786848676823
  0.7180272063225515  0.7150371235414130  0.1408180194655206
  0.5733076208738845  0.0007492264835610  0.1444784756022214
  0.7876557012295692  0.6424514467502400  0.0693249284032318
  0.6461867006235786  0.3566010693830809  0.6439844851931414
  0.9991494495180897  0.7134972948476490  0.7157877273369405
  0.5028168940267529  0.3567147389435544  0.9282971719790706
  0.8591765953470859  0.4270581942532980  0.9989902431753270
  0.5054781050346614  0.4966197670674906  0.0668687952618569
  0.7171319248207273  0.5710018230892571  0.8560109622160832
  0.2887205231507111  0.5647475237973973  0.4279132886395909
  0.1431654826781303  0.4274204689667529  0.4298071341789713
  0.0011909520770139  0.0011845005447615  0.8568973448871261
  0.7171523341188990  0.2862210789811238  0.4287130821366132
  0.0001875530320682  0.8576899020956236  0.8572326682468759
  0.6483049212853859  0.6396292573118874  0.5017488783549062
  0.9921331912720253  0.7087984000340565  0.2808815235591151
  0.0666547082036651  0.7817130713966450  0.0681717506102389
  0.7172397850052287  0.2843709799591814  0.8574351707133346
  0.7869575879883185  0.4973323122829066  0.6441552883146945
  0.9994376123842255  0.5696817444301215  0.5729327533184799
  0.7178493073628560  0.1448010874688198  0.7157227657921242
  0.7888769076859272  0.2146368311456111  0.6435965394113433
  0.0703448899469761  0.7858016572725949  0.9291509587982841
  0.6465534463358787  0.2158066606836715  0.2126651967367205
  0.1414719236276593  0.7133851161102724  0.8587054463920621
  0.7170698299017575  0.2862103118035945  0.2854999544652448
  0.5765893691037728  0.1468250690833652  0.7178638864330787