 B Cr Fe 
 1.0000000000000000
    20.0899999999999999    0.0000000000000000    0.0000000000000000
     0.0000000000000000   20.0899999999999999    0.0000000000000000
     0.0000000000000000    0.0000000000000000   20.0899999999999999
 B   Cr  Fe 
  27 206 480
Direct
  0.4372116445820883  0.9249887014989325  0.4388053142310470
  0.0929739827276609  0.7955581824766488  0.4256952376055191
  0.0804813943218856  0.0047203789845588  0.2767003345582099
  0.4113791769549991  0.9166873196321590  0.3539629193231312
  0.2812998673809635  0.7276971126800731  0.3660344601472645
  0.2783680172041212  0.7971264044750552  0.3040476646026599
  0.4594980083015651  0.9298151981918037  0.5765947021363630
  0.0847076965507513  0.8596646758676171  0.4818501609818586
  0.2085046813041611  0.9125580019503045  0.5644537060978311
  0.1439047148107126  0.0606455697748826  0.2811372288164981
  0.2227198778424085  0.7328506010308472  0.6445557147313427
  0.5589562391933547  0.6501600452227256  0.6335534468530237
  0.4204921310153065  0.6820979861783771  0.4870809384850406
  0.4807310564003803  0.1123593098331856  0.6449402027899042
  0.4813631596853798  0.1114144514195006  0.7901196148128428
  0.2231292201686575  0.8657114067459395  0.3097903451081041
  0.4460093722333864  0.8713035326928203  0.5086984638627386
  0.3021343165824799  0.6565926863165844  0.5617416886272265
  0.5438309009200614  0.0533428014267453  0.6458983466164563
  0.4290420864181120  0.5189016403921296  0.5720552842392868
  0.1459438169236661  0.9205180954688125  0.4954795077339501
  0.5420694876533740  0.0508414497267501  0.7906550403166699
  0.2276375457569036  0.7226777372892417  0.4358775078130542
  0.3519432591452866  0.8373458085936607  0.6922211023346020
  0.3470354390224860  0.9784505905834715  0.3506631092009743
  0.6351927456579675  0.8429565782019787  0.5677530109237302
  0.5021544245886421  0.6987701600506544  0.5946387057196268
  0.5735073289824026  0.4289286904449674  0.2846283278294593
  0.7864741297301586  0.0717954689766780  0.6424075920485991
  0.7152696438973476  0.1460154109116086  0.9985345826542699
  0.7127155498280904  0.4253253147142115  0.9955330085108365
  0.7163063989967253  0.1428131916602177  0.5701552846973608
  0.7852565478331794  0.3583548210235966  0.3573278244568616
  0.7853406862102297  0.3571285016145835  0.6429873731416590
  0.6466929470880890  0.9260436305654842  0.9314309508174984
  0.5940806883708412  0.7331929327770865  0.5704626119955353
  0.5739584259762082  0.8572614930734214  0.1386650891554368
  0.5719881715315634  0.1446211339352514  0.1403618983965500
  0.1091456244326157  0.8735792983560302  0.5827652152922197
  0.7164641802497443  0.0018683418491593  0.1393313914644445
  0.5716092728301185  0.8559635798062122  0.9970449431523252
  0.5072066476443665  0.7872228639230783  0.6517791162312330
  0.5768425928648663  0.5686909926915400  0.8577128764787556
  0.7183126957711675  0.0005931209965006  0.5696864793552170
  0.6474642012414163  0.7882515348742380  0.2079068350894435
  0.7163646954198386  0.0029044862391499  0.4280399521643215
  0.6436399328337107  0.3572263980216426  0.0696493169278361
  0.9954767243563918  0.8616868372516021  0.5661304003926699
  0.4284272041810116  0.4169674369331784  0.5688599875895708
  0.2843591869858960  0.2862648700716478  0.5695578731553281
  0.6506145330739445  0.7878586756091835  0.6539787458204951
  0.5737133380815586  0.5691517447877221  0.1385202810976719
  0.6463711901469014  0.0725844687255173  0.5010694618712920
  0.2134983646090414  0.9306465970075241  0.9292654047537238
  0.0005058958325920  0.8571149246310020  0.8590664782368290
  0.0719530713844520  0.3551334341147069  0.7858327045122698
  0.1477397285729544  0.8845034352744461  0.3928905631010522
  0.1410215841801716  0.0015617935906285  0.5667722825486305
  0.1427741702577323  0.5655466873873835  0.1401504445338200
  0.2849397322185547  0.4289957382989573  0.1421574156240315
  0.2160547573227071  0.4996605417859524  0.0714975527536742
  0.1413704554002361  0.2877278570812954  0.7137363730557731
  0.2158715630053651  0.6422000723955559  0.3600460262794019
  0.2164259555071987  0.4999647799689210  0.2107303175577849
  0.7136105699957448  0.4275844770778310  0.1411332516892153
  0.2131510626606926  0.3564661873204499  0.7845416768154154
  0.1433286433033602  0.1456179012339906  0.1395543226477167
  0.1430564671812286  0.1459310014047823  0.4267995151127644
  0.9988270180069212  0.8584848174415567  0.7144491349215604
  0.8561043530061347  0.2854935542257529  0.7119563678459605
  0.2158174955882528  0.3582829533019014  0.2113643972957309
  0.7860249895864618  0.2143012730886251  0.6423698022853185
  0.1416902036050890  0.5671660862013547  0.5709496768140955
  0.9264736034836737  0.2144782506988623  0.7826500692648000
  0.0718836168066312  0.3574080659352034  0.0699701613195303
  0.7136675649441410  0.4271178075724089  0.4267955223951855
  0.4287504747932963  0.9982933537356251  0.2823483724060096
  0.6426823503222943  0.4996091115606823  0.7840649576205942
  0.6459869358245697  0.6397860419987123  0.7865454101166995
  0.0697225047385095  0.4990699163537107  0.5005887585008926
  0.2822677149615929  0.0037993768710051  0.5800822315597193
  0.2123836480217091  0.7864114911840577  0.0701694959645727
  0.0009322800732751  0.7145121047122007  0.4249846241208561
  0.9989770152460773  0.1454368826566441  0.7141433071229342
  0.0714843395068093  0.3561310964797834  0.6413507620735993
  0.9219550560085118  0.0788071639462070  0.3533490551920173
  0.2151634013615049  0.2164424356869250  0.4980552210344358
  0.1437384541800572  0.7148071074478544  0.1393318686694916
  0.9991249507036957  0.8548740256905961  0.4216474965262546
  0.2151632057422867  0.3582202712901419  0.3574806912924244
  0.9990949689605311  0.0023301351467009  0.0019484999154090
  0.2152750873763778  0.6421717456972444  0.9296456206563364
  0.1439446798708146  0.2883636151346857  0.8561860505805441
  0.8577454033074251  0.1472425402507763  0.2824683592982287
  0.0017790805151377  0.4285612777275569  0.4278197344258339
  0.9282272375293572  0.6410585213002254  0.9280903502150341
  0.9286473528684167  0.9292334707806875  0.0690341057576152
  0.7852369480516519  0.3567713451212718  0.9256350361430393
  0.2184351450270738  0.6315400808947221  0.6389143929072904
  0.1791884148461473  0.8140494134422500  0.4885480294333295
  0.0687275264729591  0.0765882485980543  0.4976907300755122
  0.1435620793600961  0.2873883021301191  0.0000557785659970
  0.9268572203409835  0.2166463560108787  0.2120009381817074
  0.9994581230018030  0.0030052048939218  0.8564076783037702
  0.9988971099962755  0.5677887169508012  0.5721109428301546
  0.1312305130467338  0.8568295334021030  0.7184896531572802
  0.3588689162018961  0.4887688234458312  0.4982683819409398
  0.6428550709069389  0.3557747003483277  0.9253392536130041
  0.5725456804468804  0.2895056262996156  0.9992057751978576
  0.5712074442272284  0.2862990189346772  0.8566231982831698
  0.5600574291820304  0.1333858906468028  0.7162402691646913
  0.5676741892494735  0.1390883291649383  0.8534140747565729
  0.5642044277019265  0.1370053124857194  0.5747104669832516
  0.5020082879937480  0.2155669531774318  0.4966412394120518
  0.3908728965260481  0.9569442656460284  0.6581000192387085
  0.0710370577583599  0.6377675827591557  0.6434489252291091
  0.9987328148010914  0.1446417786903445  0.5689163916878942
  0.6479748170469849  0.7872876026609590  0.3513080356326827
  0.6442486207735730  0.4983469691049541  0.9276294695077790
  0.0022793277038391  0.5689122677520981  0.7146677549613185
  0.8565795220858028  0.1446483129884108  0.7108455949889935
  0.7175939032166786  0.5698014416561706  0.5698849374553692
  0.0008277246994856  0.4273000917935296  0.1411411132266167
  0.9287314444964581  0.3592025885232573  0.2120981935963628
  0.5693023153238655  0.5737787090516883  0.7103368157157897
  0.0669133698105763  0.9296689571002773  0.7897647939931030
  0.0002321844475002  0.2875130605756079  0.5707139863942572
  0.8585810460611133  0.7109046387488480  0.9979743030283735
  0.7149196231195245  0.2863582524069788  0.8556133763360441
  0.3758762902697035  0.7865187685231879  0.4881948197854953
  0.8562781321464290  0.4271880225474790  0.4268442804614040
  0.1430003389258769  0.8588151230379435  0.9996591730193294
  0.7166170762790439  0.8573342362632699  0.2801261011345181
  0.9284344968894856  0.0742067883982296  0.0679558291972876
  0.9968327886228530  0.8577232523980874  0.1389438339455235
  0.8576156154450266  0.1456873045412246  0.8560417072729767
  0.1395206031513350  0.7098152217232994  0.8624221299995632
  0.8588103634718418  0.8589689309590499  0.9994727561163477
  0.0692509676076211  0.0783901366711880  0.2096611606444445
  0.7911474192190486  0.7859016999662876  0.4954007380674354
  0.5000349298465427  0.7853232359245224  0.9263606857682019
  0.7148655190313939  0.4270487567325606  0.7142788476782412
  0.3015285439900143  0.0255422879209111  0.4378026213449944
  0.9268174951354405  0.7846655108482611  0.2087473573857415
  0.6444245108774904  0.4980849385690340  0.3564226277586292
  0.7876150568802766  0.6406849042006625  0.3536992273563656
  0.8564189955294784  0.4266835368172975  0.8558088002521475
  0.8561984101641995  0.1459266746409169  0.4274615773477082
  0.4278259102696684  0.7132501591593522  0.8572000935727504
  0.7172488977538777  0.8567227614966517  0.1398058299925446
  0.4923352093268602  0.7686537160054228  0.5127487026903857
  0.7161635337120547  0.7109472393598931  0.8581151330632053
  0.5038838027936765  0.4989638382507224  0.7871310954408940
  0.5774142060723330  0.8550419099977967  0.7232607830952326
  0.5034271817151941  0.7869142482596919  0.0677734956246964
  0.8585341896719474  0.0030543543884363  0.7130865562588833
  0.1823491736353599  0.7732243089095067  0.3521554481936341
  0.5139976287557703  0.9350213958003283  0.3545885938564571
  0.5008764855428258  0.2153116501881001  0.3534966144185801
  0.4290354114162076  0.2873200407943872  0.9993053212112780
  0.5028316427669617  0.3582409792923552  0.3555670685608669
  0.5027129170035672  0.2150847626934123  0.2103020329497219
  0.5151388700646312  0.9548090230923404  0.4891815125579255
  0.5019293571086989  0.3562856118267895  0.9275959179903284
  0.5719591387634139  0.2885598651157356  0.1410339700300620
  0.5015158888715008  0.2196134049660279  0.6432963388900925
  0.5009950647811278  0.3558459493829249  0.0698850885852624
  0.4320863701501930  0.2861085378303039  0.4244532276809639
  0.4326295464509596  0.1472159918444939  0.2809770876056323
  0.1442902349000740  0.8581190864876396  0.1410226730677550
  0.4139391074714441  0.8407914842880245  0.6031835854424068
  0.6435875318908936  0.3570311294885021  0.4985736497646164
  0.3631123215659977  0.0768547753070871  0.6447750374580755
  0.5736051969122932  0.4284474610190024  0.8571817761728734
  0.5723745212455199  0.1464412138535337  0.2830592678431736
  0.4315090349534386  0.7155030260764831  0.9999070462697180
  0.4280191686071618  0.1463823533741554  0.9997015235456354
  0.0712996262227483  0.4977395192653303  0.2114814044842550
  0.6451237584460199  0.6416140235717483  0.9278867048769535
  0.2850853457977924  0.4274505797429846  0.7146930099847303
  0.5767086898759941  0.8551091435987138  0.4219652962410852
  0.6442346932902180  0.4971092597089019  0.2104049729254912
  0.4312037625452158  0.1456433117987251  0.1394079613131609
  0.3585715047729947  0.6448848090641365  0.9289951103695890
  0.2153556640225405  0.2156953609684456  0.0701951601072525
  0.1356422534088705  0.0085027151285742  0.7217721644036252
  0.2457106466960529  0.8219369312958545  0.7123262884183859
  0.3624160698791792  0.0764890960929361  0.2077429076118382
  0.2888544801941891  0.1445673767141894  0.1391050292919666
  0.2872134954659425  0.0011881289370232  0.9980122785555897
  0.2144456346886892  0.0738113558464384  0.7860523168426914
  0.2055618476484656  0.7786031506160126  0.8029941676429950
  0.4042245347490925  0.7112178315499056  0.5826157465459088
  0.0621632928546555  0.9434812664227031  0.6530436203762485
  0.5028594987133540  0.0752459270498504  0.3488310519901995
  0.2878300699684151  0.5727343357643078  0.8583197504208042
  0.8562006389967891  0.5684730696315595  0.7149428891984732
  0.3588333923825955  0.9315987908745776  0.0663342589400288
  0.5016913796323073  0.0753261173926351  0.0705131412667390
  0.7139404392242926  0.5700134565157602  0.9965833173361963
  0.4722075755779003  0.6744423175650552  0.6973420047592571
  0.2288135365629622  0.9200780956027398  0.2076834349989737
  0.9257331024468576  0.2167913459594786  0.3564485815469449
  0.4317576556608607  0.5705978185677021  0.1388069613134694
  0.3716945983279037  0.7816661338425076  0.3507623296911974
  0.7837835899936414  0.9300869427167395  0.2100194672817305
  0.5135682452093341  0.6441814309524223  0.5023947410383208
  0.7856129655501327  0.0725619315357948  0.4991239929897035
  0.8565702881603884  0.5684902200760249  0.1395616217251706
  0.3585804694094828  0.7839006856957309  0.0669992299402904
  0.2856068158506814  0.7104946212867302  0.8609320085972476
  0.4509986021118326  0.0230324476604166  0.8545229461543203
  0.3248089328309386  0.6850442186697864  0.4528894455739867
  0.9284973709169971  0.0756274025687309  0.6433581894677242
  0.9966122041343132  0.0055715558666780  0.5718534139686550
  0.3573965899535682  0.2178051408845775  0.9307953259228537
  0.2154667763047851  0.0731699695581708  0.0703664821326499
  0.2854431275013877  0.2871729156756138  0.4246556202664073
  0.7162266594542690  0.0017193376990304  0.2813121673071250
  0.3495846711564757  0.7860424628660092  0.7950388579814018
  0.2691277150546028  0.8239351471083047  0.4121460536830266
  0.2857942831458533  0.7143847220475128  0.0002217407982112
  0.2855000550552247  0.5696472463184069  0.1394614875916534
  0.3633744921270061  0.6440115231389650  0.7853861130984645
  0.2977330483710268  0.8570890615579818  0.5321419762593578
  0.5120091937359375  0.9298840313104160  0.6592137314126297
  0.3579394070206696  0.3568785283142814  0.3571705727006389
  0.2129810060079787  0.3566031793758478  0.9294117400125830
  0.5745571681103627  0.4268722115591159  0.5690749495990892
  0.2859810109784447  0.4270181572395654  0.4255498833762566
  0.2130514405241871  0.4961492637719858  0.4974668488367047
  0.5826649139068784  0.0078431097620723  0.4189853268266967
  0.4349610698450277  0.7129754666093949  0.2750922804466375
  0.1439382692976535  0.5696731211939980  0.2830481668976129
  0.1458337434748558  0.7169638653659474  0.7121241482893319
  0.2115019720229226  0.7841233192268008  0.9326967188145542
  0.1403518488119328  0.5696585860718405  0.4282128740484171
  0.0690938587298187  0.9314724175884098  0.9301093697615792
  0.4309858625153063  0.0018820889105048  0.9976874791401932
  0.2473193260191455  0.9504132027922603  0.3656865713022334
  0.2146899977857266  0.0757559180886857  0.2101612246213811
  0.3589919040229252  0.5004763945647447  0.6425486018520102
  0.2155007080036737  0.4998303776079526  0.9286663556700895
  0.2791687468262395  0.5576194865381791  0.5695393875239473
  0.2852466411207866  0.4260367346297014  0.5702270216369908
  0.2874986635991676  0.0033505393908117  0.1384023850186349
  0.3597812740594674  0.5006759839994962  0.3552233246667084
  0.1454865936406337  0.9987270225406313  0.1439358442857807
  0.1288350602183021  0.8545057229208111  0.2717354779813779
  0.3242432385157653  0.8870819672556131  0.3014757025816660
  0.1430250856789964  0.0059021865138583  0.4250885985907563
  0.2387909136652309  0.9409656441990498  0.4771828055250228
  0.2156362711344595  0.7889697832374958  0.2152981402411051
  0.1422779854485525  0.7125711717599168  0.0007686491380573
  0.1420748224776768  0.5687636151804716  0.8587461309800180
  0.2151008968247495  0.9296341880939674  0.0691955836999730
  0.2867986845970719  0.2887830676997688  0.2833956621400449
  0.2102712876106005  0.6391418156083547  0.7899414197219573
  0.1387751531798277  0.8587953429876355  0.8616580371439280
  0.1376773126974489  0.7054540972858113  0.2722519592519423
  0.7147090449765535  0.2873352903586035  0.1407759292187365
  0.2893854482262647  0.8546976724885285  0.1324105054878646
  0.2122118844326472  0.6375126240057396  0.2062025348445811
  0.4304066715404675  0.2872692241167041  0.1413131832592982
  0.2149653450646987  0.3577483865846215  0.0702223376448338
  0.4264016205897185  0.1517998803266577  0.8627244582642767
  0.7139059632173620  0.4278339794476311  0.8555753256769708
  0.2127872773608706  0.6347818078856979  0.4989095847444543
  0.2839938939931455  0.2870116855281186  0.7142091273891319
  0.2854324876418431  0.1488200361230720  0.2794169716223000
  0.3567326041349772  0.2179987856710258  0.4968722872751974
  0.2862413486939833  0.1445853380399447  0.5719017839748904
  0.3541081874231158  0.2198726985846413  0.7876380745704770
  0.3549466141664985  0.2192489527718628  0.6406390465237864
  0.6411516803248444  0.2132115282128489  0.7849440301732484
  0.4314182788308281  0.4274512621279224  0.4269274888047573
  0.2863014441768761  0.1453692205930203  0.8579496912633076
  0.2863403637913859  0.2869696474989318  0.9998954216309983
  0.3580791666431472  0.3585160761290151  0.0705628082956352
  0.2877199067162076  0.2875714873029560  0.1405490939779893
  0.3584577278549458  0.3585324775268761  0.2126688624571038
  0.3832284845170109  0.5998004287490702  0.5320306278389477
  0.2146342380552350  0.3567271671468552  0.4981504657268400
  0.0660462747510098  0.6377407346817369  0.5057754620544775
  0.3560199243161289  0.3567243321072441  0.6424990801407625
  0.2847937212474310  0.4272665755332329  0.8580710331162880
  0.2845556321561477  0.2880122589169101  0.8587170855621832
  0.2862693182918277  0.4284248756724971  0.9995747826399568
  0.3580523989099267  0.4998128259061622  0.0702688461245313
  0.7850889659451796  0.3579679147018967  0.2124051003218325
  0.1436251340685404  0.5694250370382617  0.9998787590594153
  0.2862650948799902  0.4285347284158213  0.2846044044985922
  0.1946206618505220  0.9382764966003359  0.6601307484349199
  0.5050831368127622  0.0780183529963204  0.9372194638931407
  0.2134267950083341  0.3567697303769490  0.6425463074914484
  0.5020125491185587  0.3585951085858015  0.2129306079036290
  0.4320598381872048  0.0033925229405516  0.1380708762311424
  0.4282919872105290  0.1452658383910302  0.4242857783856967
  0.4308056674125007  0.1541202393755242  0.5681053377987410
  0.1438903557331628  0.2891416350724273  0.2836484495110089
  0.3592224070365902  0.2169692726503657  0.2109792124381295
  0.4423078187842791  0.8567681971604841  0.2773149681493555
  0.1435613552822483  0.4278737494604697  0.9997276511372720
  0.3623369522002126  0.9296508552528743  0.2003544978327702
  0.3612456002185592  0.9329647461785273  0.9232597647589322
  0.3949091500455300  0.9652922856584896  0.7844837383143560
  0.2144140952392012  0.6416238979025547  0.0708837316603263
  0.3590837908092580  0.6426914767561707  0.0704904266009000
  0.3607093818689525  0.6398535439470935  0.2066924651002605
  0.2857318027431334  0.5706123300061505  0.2821949894885666
  0.4488788749885472  0.7152306634738170  0.4048920789624453
  0.2878687283689340  0.1469471663113626  0.4270944780109158
  0.2912714207571667  0.5669606217906078  0.4312676827840319
  0.1296943906872962  0.7025348470207448  0.4347770027936569
  0.2839090653410699  0.5673848861711414  0.7195371396354359
  0.2129713391689199  0.4947000596535134  0.6449718555231960
  0.4292604346464247  0.4270495818074317  0.7152940041698297
  0.1422964259842828  0.4273538188415962  0.5699912178412836
  0.3565240424659125  0.4976376295517084  0.7880575868158279
  0.1414453217037634  0.4261658577877530  0.7149447855942064
  0.3675456178442021  0.0774999549848701  0.5111333766568338
  0.2170385542154221  0.0751381910022560  0.3523857895228285
  0.4258015032847952  0.1567542631634204  0.7168227816769939
  0.2858869977310873  0.1456854716189275  0.7138765894487117
  0.2852112402896944  0.0051552930500069  0.7142835776918710
  0.1433307931792662  0.5691701771307107  0.7136026134698529
  0.1411812889556029  0.0025069878924181  0.8586857349051110
  0.3584774616367885  0.0725661986258695  0.9270386230127006
  0.2871531795577330  0.1443254250504465  0.9990937228605390
  0.1432180534156393  0.4269580465016038  0.8573896742379504
  0.2136242589225820  0.4980285219741394  0.7873707434504453
  0.3566380004673665  0.3579415399581278  0.7861380621659220
  0.2920150950222465  0.0076574528195597  0.2694518568928699
  0.3431304644996998  0.9054676576279990  0.4259745230780184
  0.2843625658847692  0.7036735828582169  0.2697236091814389
  0.5023556627997007  0.9299563583921329  0.9269894534562505
  0.4621097942473962  0.0307881199123028  0.5869057399192221
  0.1417996417943127  0.1449047327222461  0.5696088277509656
  0.2978442345595543  0.8978923415935686  0.6329700141424650
  0.2052653177817106  0.9281366919241395  0.7874833050501509
  0.3583682365055931  0.7863258663268583  0.9287785782252626
  0.4302634908348393  0.8594281409395385  0.8544931172527923
  0.3575232173324821  0.3580951124918407  0.9289450506214989
  0.2130444494235230  0.2167231428574069  0.7860071175755520
  0.5029323321528418  0.9292905938104395  0.0683065496957262
  0.5023513298858161  0.0738726479327772  0.2114198459449420
  0.5037060598021603  0.0766546969023646  0.4872925628441341
  0.3579461119468713  0.4995550208467062  0.9290856370820985
  0.5749154175401435  0.1460233360651557  0.4240899902906565
  0.4657310423892423  0.0345836663384420  0.7179820929533004
  0.2131516745440219  0.0762527639451203  0.4994486590017888
  0.1427809800426417  0.4285942735295760  0.4268155873964127
  0.2003001825033072  0.8200656389648512  0.6100158125119477
  0.5018437586765516  0.4996232333990480  0.9277723693957430
  0.3581964044683320  0.4996404168432564  0.2112438513361675
  0.1432268418892073  0.2883871195181200  0.1406387911047597
  0.4302189573145156  0.4281357423183401  0.1409652452868420
  0.0712646931732888  0.3581152763446455  0.2121811392971609
  0.2857103683026206  0.7154443834135482  0.1401328821515564
  0.4306785005051496  0.2876939809516186  0.2835820229438096
  0.1432917637636654  0.1444772240279865  0.8579180991481170
  0.1415945070641233  0.1453986831455997  0.7148182850010129
  0.4304510494623283  0.2853825312940830  0.5692726163277855
  0.5022583737401886  0.3563436864178774  0.6423383884780165
  0.4285979267417604  0.2878702198516152  0.7147828355034895
  0.4298629100013138  0.4281253775180738  0.8575371477402625
  0.5025226971079905  0.3561486495714369  0.4978191704021906
  0.4306094522925400  0.4283423461653816  0.9989960303705000
  0.2128980193920932  0.2157290903901310  0.6420517807118024
  0.5014185488214801  0.4990718340705828  0.0691342005597843
  0.9284799537907890  0.3573778363745372  0.4988520705650251
  0.5033766027308407  0.6409028214942968  0.2077221110017934
  0.4300519550487900  0.4283772444610276  0.2848077650623081
  0.5016988490587192  0.5013879031067205  0.3562429607868846
  0.0707574264848979  0.2155214335103068  0.4988272799384675
  0.0702986416327239  0.2172617913446608  0.3562144482869142
  0.5716712877593969  0.4296926713983771  0.4282737664909526
  0.5013427043553735  0.4903734239781881  0.6410616211838110
  0.3585503510141364  0.2173626833314294  0.3536860288067908
  0.4289045658302852  0.2872507506071974  0.8584803746938060
  0.4293709319311428  0.5701033571225876  0.8587836592866793
  0.5015612059969271  0.3576462313128708  0.7860146960553617
  0.3152460775322198  0.7707168040110567  0.6244076543667094
  0.4292861546459221  0.5828060376237014  0.4231999733126268
  0.4309154555945423  0.5635305615563967  0.7225541979676972
  0.6418619478006935  0.2152609698522918  0.9258184264305661
  0.1441792314185301  0.1438643562033498  0.9994155299998304
  0.5059692056506886  0.6380968574059561  0.7962799526259092
  0.4302304154964996  0.7164416921825982  0.1390845441757987
  0.2159975099156750  0.0717365161406060  0.9277319021504173
  0.2796761061061583  0.8570696698828790  0.8646488317774725
  0.3604620447671920  0.0801575749333669  0.7850036486748880
  0.3579929291416985  0.6454797786804310  0.3446259371952424
  0.5178752624840740  0.7809907271366764  0.3375394603814449
  0.5759528658262588  0.5713384169136732  0.4269795038477379
  0.3973365588482167  0.7478655846148958  0.7042054970085531
  0.7210264093782814  0.8580496466783738  0.7174592599417272
  0.5102126986791058  0.6396380941468612  0.3466672542031707
  0.5009960393618769  0.7776038364268910  0.7849537568882091
  0.2104817929710348  0.0744063761578462  0.6440538769050955
  0.4300067536507922  0.8582313712169612  0.9974658960452787
  0.0698610486044951  0.0762791758378961  0.3528062697994174
  0.4314997157228421  0.8562360471292420  0.1377361209969649
  0.5070149825947907  0.7850118766786117  0.2071040873573839
  0.5048872898511073  0.9316709856338130  0.2082242353601338
  0.0571880685826391  0.9373792097106307  0.3472360655302115
  0.9240954097645279  0.0765156197434814  0.2106778055838273
  0.1689423795381105  0.9665904202006244  0.2894988743128445
  0.3794592380214770  0.9572162817955800  0.5267096650327692
  0.5133227659314766  0.9362632535025921  0.7901095565105256
  0.2869829381375978  0.5717668581302885  0.9995497901104661
  0.2158444548511229  0.2170934013334833  0.3557543420811090
  0.4299638006652724  0.5712059554821294  0.9987735807869222
  0.6493590007742475  0.0719621300356574  0.7875506121766697
  0.6459035410639251  0.0757482808870877  0.9303074241103937
  0.5743396010881873  0.1470018347125534  0.0009916103353862
  0.6431162113797473  0.2169882628571491  0.0701162830370163
  0.6448515938940541  0.0743796081182102  0.2106064319961022
  0.6432240305028571  0.2166817477914454  0.2112400249027331
  0.3567210080559267  0.0838015995524115  0.3442443491134388
  0.6447088666908700  0.2162923595749515  0.3544563995524803
  0.7906260613820754  0.7852936383257780  0.6445594535336177
  0.2876843123383304  0.9987373405852290  0.8509929043010296
  0.6408448878222540  0.2112181901417833  0.6429618857235099
  0.0651463560836911  0.7803845850798049  0.6443230999607648
  0.5892960321549950  0.9970901011318349  0.7166501953318769
  0.6482298205333565  0.6442663004662765  0.4986437561737826
  0.9998814571754767  0.8585197896626018  0.9998902639321231
  0.3565135661047428  0.3540570615230570  0.4962474831508472
  0.5730626249030168  0.2854649265980418  0.4262787284980787
  0.6428983836793384  0.3583674310544694  0.3558278789271885
  0.5718571146870570  0.2869932534284880  0.2840951162452872
  0.7858247744019502  0.0741362847140488  0.0690688354629153
  0.0725196162829473  0.0725767378190715  0.0720151765868975
  0.6450344691125334  0.0739700368601280  0.0700836740852716
  0.3590785855763124  0.0739017122958453  0.0680917640391967
  0.6475193260312402  0.0756163902122939  0.3509138410937014
  0.4231034550509829  0.0156302545987550  0.4157092683793284
  0.5829946058844028  0.9986024402209353  0.5715095252720686
  0.4997458754468088  0.5063477585404436  0.5009089912556092
  0.6496783428786012  0.0731034744671255  0.6419312374961785
  0.5825815535740023  0.5669187207614071  0.5717714644831018
  0.5019063031767380  0.4990592235135490  0.2114456107799194
  0.6430846606571670  0.3580695634620018  0.2125204368901982
  0.6456122143629014  0.7848037180198193  0.9288153299833297
  0.2157001969351098  0.2177817380677906  0.2094252091816685
  0.6460804347578097  0.4980435770635452  0.4981442039103083
  0.5727681820662928  0.2848872623680493  0.5698335542371158
  0.6432764184155946  0.3568668454667225  0.6422623867702728
  0.6439749396353711  0.3563072066356675  0.7850999834308754
  0.5728648738203449  0.2852333149551517  0.7141298120119174
  0.5006658328502834  0.2202836289004942  0.7881878237451785
  0.5723093541652581  0.4273287499997337  0.9983754522377661
  0.0514992272345637  0.9501921579517767  0.4901214692183399
  0.6446969840105331  0.4979195987094843  0.0681081145730908
  0.5726784603425161  0.4281587808651289  0.1398778382199905
  0.5768793514994477  0.5682753146462245  0.2804017758754076
  0.5819857280977245  0.9986708605054044  0.8661203763153809
  0.7860108042221093  0.4979526356835208  0.3561004410873829
  0.0615008433353144  0.7798248352244120  0.3363428104778298
  0.7869672783523960  0.7853103144137167  0.2097969543896076
  0.5746104089141797  0.0005941367846665  0.9994982668966725
  0.6459060840101634  0.4976669248632466  0.6440712712061925
  0.5731924626387410  0.4275044315740397  0.7148798218919912
  0.9923294647441466  0.7055835234031048  0.5780287834341596
  0.5024794468028555  0.2170485786580626  0.9299094252809195
  0.7846203614796103  0.3577974958353503  0.0687994393363391
  0.5726063951941667  0.5705491223375111  0.9983422701118045
  0.6448448217243333  0.6412261043252532  0.0678193259553962
  0.6470962618688162  0.6400506763506105  0.2081598476481656
  0.3599378249898760  0.2155808603886765  0.0704173154975193
  0.5013732734193700  0.2167944620386479  0.0697550436397510
  0.9288247374242924  0.6406431395377338  0.3545534653471064
  0.8573164398331449  0.5690965000571743  0.8568570217481097
  0.7140289963237941  0.2846981571156997  0.7126753714319795
  0.0709249700663077  0.4980179893688247  0.6425584136745208
  0.7151988487574359  0.1442875655429893  0.7136223839232919
  0.7861948629254608  0.2153744640556185  0.7842947450602603
  0.7854426324664577  0.2156794874834312  0.9265377800636546
  0.0708116669001142  0.6402285478513778  0.9299077114647494
  0.0598519768355844  0.7700753297909718  0.5163000640607758
  0.7195109256351742  0.7127743996440296  0.7175322140959534
  0.0000127184260705  0.5695543798607772  0.8566578052227452
  0.7856871832865630  0.2168958395503530  0.2119450337483708
  0.0726218980068779  0.6416714239427145  0.7848431354519287
  0.7144564062713349  0.2879605165823306  0.2842173665849568
  0.7147579380115003  0.1446658807894541  0.4277575246957398