 B Cr Fe 
 1.0000000000000000
    20.0899999999999999    0.0000000000000000    0.0000000000000000
     0.0000000000000000   20.0899999999999999    0.0000000000000000
     0.0000000000000000    0.0000000000000000   20.0899999999999999
 B   Cr  Fe 
  27 206 480
Direct
  0.4447868246865596  0.5869933531400791  0.4864666856823272
  0.5494018697311188  0.0579123881473888  0.6470762862262581
  0.4802662727462689  0.9854935778774850  0.4975752415305038
  0.3001342574892774  0.6622169351305324  0.5665304592403545
  0.2140135749623238  0.9779454738616510  0.3774578751173116
  0.5013758466977154  0.5970151458875455  0.4220216113475958
  0.6263013173788211  0.7291489537685096  0.4964943657827891
  0.4008343457054475  0.0955246229667074  0.6691481402709215
  0.5420915547006766  0.8512293495987696  0.3695696825102693
  0.3641032837027616  0.7991804093076605  0.6796188199844529
  0.3613446027753315  0.9818029779209053  0.3678284774613970
  0.2915354863296565  0.5187244772337577  0.4980214282296088
  0.4268117233019001  0.9687660071673090  0.7548817517589650
  0.5649944990758928  0.9034291568864975  0.5737515021874235
  0.4948477229688476  0.7267776041671838  0.6132216158499785
  0.4139185787957394  0.7630202769037140  0.4987822415569144
  0.1491687280711612  0.6538730869445870  0.5157846091107772
  0.4879837555925854  0.1245064373725621  0.6509856701271094
  0.3845911818442160  0.6264915039701788  0.3144811036453770
  0.1201737833610849  0.8322955539510634  0.4556692516934320
  0.3040482337952235  0.9228879318069716  0.5026175757541557
  0.2160167872928893  0.9178020146694534  0.3128310100174276
  0.4304262487668972  0.4894679615939781  0.3439176491670856
  0.2412199409359538  0.7220673581741588  0.4249877295101631
  0.3586822121472871  0.8030416125740428  0.3025145091536259
  0.4458730103402550  0.8413869478419039  0.5051921206627195
  0.4668954378385077  0.7160128662949508  0.2518436072614694
  0.5022492680291776  0.2208042200442634  0.3534513719935338
  0.4310333446155720  0.1439533139962069  0.9975037611473506
  0.4317681003012729  0.2867745989869716  0.2811076788127196
  0.5009378477679952  0.2152922380813115  0.2107933329267520
  0.1983943554608272  0.9265506861093608  0.6462446202756178
  0.5013624603135776  0.2152744526668207  0.9315473968740425
  0.5741836909952489  0.2835391992646571  0.1399287097649267
  0.7144079202412786  0.1440096605694576  0.5707823882245251
  0.4299465744130985  0.5668259942684083  0.1385876437341273
  0.5033920153883386  0.3600977154474504  0.4967673227058226
  0.4289778881572380  0.0009114682061884  0.1425043364599633
  0.5351534079415730  0.8219474357716660  0.6324966831786882
  0.3637670145303292  0.0655828511962536  0.7767139002659739
  0.5232334171006474  0.5073288216586752  0.3555125881798815
  0.2803022211407906  0.1597612781821715  0.5668798443805809
  0.4298962706955040  0.2841992395732682  0.9983354061866618
  0.4301453241886147  0.1449964278518863  0.1424024115638215
  0.2140472750806535  0.5025478949799366  0.2117496887033390
  0.8594272587620699  0.4267939545102849  0.7148759144724630
  0.2855323030469392  0.2842416661271978  0.1387700467480003
  0.6444051776101696  0.9318738219183657  0.2113357177580471
  0.2125890125036518  0.3571032516060343  0.7843741331398120
  0.6464260336844856  0.7862228741341671  0.0676736598385023
  0.1987273315214690  0.9356788342227444  0.4905878963668743
  0.2875624016901098  0.9944721263273639  0.2956309778811259
  0.5734615940725779  0.0020993551322930  0.1417351747547464
  0.3588882697358717  0.0966932793635507  0.4958916135558329
  0.2154401922817555  0.2135248844541353  0.0690685842504807
  0.0709222435655812  0.2155153406651316  0.6422381002456558
  0.2365321572505399  0.6264983951919887  0.4849065900846806
  0.2843447481716173  0.9010306716316301  0.3960680795295388
  0.2843103021370011  0.1520805472494270  0.4276236264391439
  0.0721641943780518  0.7880862806381309  0.9284174025539648
  0.2928723212333999  0.1390702148679464  0.7123703716849781
  0.2108885719917970  0.4965757302699053  0.6449857909722121
  0.7196522482793558  0.5719303088805320  0.4271808503756534
  0.0711734421576883  0.9331485711685426  0.7849575622859634
  0.2144331538855902  0.0789579972767003  0.5037208585094162
  0.6334824729170148  0.9199989109346504  0.3642402144253236
  0.9989129111440301  0.1446616838959766  0.4306425295981446
  0.0000296768645189  0.7155923632002252  0.1411671022013504
  0.0015289920726547  0.2848754426599423  0.8548663068080895
  0.1380402673897893  0.7129262183948947  0.7160505357093638
  0.8604764410695479  0.1450394164833370  0.8558429989855018
  0.9963881563488790  0.0032584167095766  0.4295368704735917
  0.7255233666707190  0.8591257148729881  0.5747701950466568
  0.4335573832669465  0.8606955857499009  0.8515510699577785
  0.1380244219871024  0.5768784347301568  0.4317106558318661
  0.8597780606843033  0.9998661218194731  0.8577023748130609
  0.5782003301000139  0.1499669799616108  0.8639275675426876
  0.0686979195626736  0.7861658688388392  0.2084533632025440
  0.3615712944305943  0.7918392036585375  0.7863099488055159
  0.9260081167026243  0.0753686961948416  0.4988070335076096
  0.2889808015460439  0.8578134948176735  0.9967597717255160
  0.9260242052513843  0.9298528304506989  0.4993529095955533
  0.3566502048426182  0.2129714362998187  0.9297376701538824
  0.2864740788087815  0.1430474295759220  0.9981833626276815
  0.3597503259461591  0.3615278203254815  0.4970145812569348
  0.5026883406578266  0.7892369571229264  0.7822921656883521
  0.3575631292429860  0.5004149299205927  0.7868392315536804
  0.2824643977972433  0.8579786250656174  0.7074264444008707
  0.3215844012249651  0.6598716326000008  0.3878846747739835
  0.7844640240948678  0.6432949053199748  0.4999299073548918
  0.2774304561366080  0.4199803487792735  0.2750076110442248
  0.7128204187238057  0.8606746688356220  0.2834923096847878
  0.2944555021942560  0.0136090385428292  0.4411727634506575
  0.5694566007689513  0.0040075751758992  0.5569448743578821
  0.1362518300858018  0.7189695235039314  0.4357319361296860
  0.2856208182926102  0.4293089635576755  0.4301231379566430
  0.1410792715031615  0.7143855379083203  0.1398763995967590
  0.0713602394737965  0.6430235852227456  0.9288797850005467
  0.3584176509237200  0.3574637111613629  0.3522953970878360
  0.4600212783996965  0.0427771612283876  0.5905900235739155
  0.5161845259436089  0.7594641877665310  0.5049798582931891
  0.9937564557423105  0.8610980964914692  0.5720775765188297
  0.5715510980945047  0.1417117894131086  0.7172039574085305
  0.3580792130371327  0.6437373780685861  0.9246804213100417
  0.7873610091111102  0.0742639043962627  0.6415544878275155
  0.5038936858722451  0.7866811572725324  0.9255780731499406
  0.4329660136140117  0.7225956996780714  0.7030639269510520
  0.5771309207856301  0.5664985778440662  0.1348876059646200
  0.5039931760235057  0.6440474869255017  0.9256801787083572
  0.4393883215999295  0.6855509101932820  0.4323490756279534
  0.5745153276018183  0.6833880344757979  0.4152065011606216
  0.4999234825532305  0.2135185395563691  0.0699954045899959
  0.2877642955589141  0.5730550864304945  0.8554064062622821
  0.1443067408927065  0.9963327930711510  0.2932500802721794
  0.7172861447116988  0.0014317058309292  0.1449294424264584
  0.7891504177497810  0.4977222992242198  0.2105829265400181
  0.3474183449298480  0.8871186028659982  0.6119207678457816
  0.7193428361545582  0.7123214325904321  0.2777372072729304
  0.5746416737491357  0.1499009349537278  0.4238023379297788
  0.0027056838191878  0.7166654490694573  0.9973199583042093
  0.8572248074274764  0.1437537239229020  0.4281662476979795
  0.5079375298184506  0.4968648236005461  0.6482692802214097
  0.6452387284239632  0.6441773311963842  0.9273620301478321
  0.8547167381405910  0.8589569315336142  0.2840143004134123
  0.8590993940039928  0.2852589799546362  0.9993040373267005
  0.9275623512372433  0.2139919514945334  0.4996597866096761
  0.5764282914446213  0.5692047127680626  0.7192294208000509
  0.7845395945068697  0.9277550236039641  0.2126842531479950
  0.8587326459364900  0.4270896756641801  0.4266320714277951
  0.4367811022341597  0.8178689714670917  0.4037865392676923
  0.6461139522995907  0.3573355746171142  0.9300756520650451
  0.6426250660025017  0.6444357379893315  0.7846449257515722
  0.1399521676246684  0.0035884051937697  0.7143129545602552
  0.4315121664355479  0.4267558740500479  0.4222454378085709
  0.5132252644528748  0.0816707494418478  0.8064592831876639
  0.5725614645909557  0.1450267647742759  0.0022189379072919
  0.3534473532350294  0.2159293515580322  0.7878193606513498
  0.5094596089516479  0.2189921524023941  0.7926000320202439
  0.5029958497379269  0.0745882799980409  0.9326170146788527
  0.6224758316940490  0.8217215589102218  0.5480669467605592
  0.4305485051753822  0.2908315544170826  0.4254688645250423
  0.2645839593480681  0.9887451534531116  0.5747484652339531
  0.6452118602209277  0.3567255930752855  0.0699627180905972
  0.9294522733029932  0.9294431444017105  0.9281740133574362
  0.1425922628973013  0.2859104374397320  0.7141952479004731
  0.0581163046059485  0.9345258234513775  0.3529670225222751
  0.0671410081328680  0.0768827168641756  0.5017640391722252
  0.9322846628474420  0.4987933420445564  0.2110451864038249
  0.4356328039537209  0.4218437569177457  0.2733208528074517
  0.0731705757122744  0.3563320965456193  0.0673980331051710
  0.9296859253713222  0.2144674030439871  0.7855051001837854
  0.5797121689606811  0.5687383955652069  0.2764276673300566
  0.2873934035534953  0.5785208872991996  0.2818670596872506
  0.2169681452942354  0.0739453854183896  0.9259847942282474
  0.7139307130413758  0.1458922378467381  0.4267015353278661
  0.9982144789934468  0.1451271461386611  0.5712110010190490
  0.5019381105945249  0.0911612867633835  0.4892056168269991
  0.3347676776136425  0.4852377770941077  0.3362823824414750
  0.8584568370771657  0.1422967910501345  0.5715468913457069
  0.8592972966682906  0.8615321427161124  0.8580635016466938
  0.6478674194092804  0.3562350304906111  0.7864646476455844
  0.5730160208340106  0.0002914077884740  0.2862607587903767
  0.4589859199683722  0.8344531446503165  0.2795945785804753
  0.7910943289222142  0.4971312948681678  0.7865924695519172
  0.7907648753205699  0.9291067822521586  0.9297067051426194
  0.9290025023602860  0.0727149803587338  0.6423579438126197
  0.7151654822486038  0.2856069289649975  0.2829231689355911
  0.5822612428533138  0.5631064852703318  0.5800814984125384
  0.6455783463068238  0.2155043872311367  0.2130062788571759
  0.4360139276570947  0.8671950873236994  0.7110574573133972
  0.7159069634996978  0.8585553075847822  0.1406113576558545
  0.5151775649893684  0.9336560061115221  0.7911896845718666
  0.5308231379340407  0.8934684711650576  0.4690729714420667
  0.5729892557851988  0.7146994584960278  0.8563016906715021
  0.3523164003904469  0.0867407365330058  0.3546756377377432
  0.8602684492921684  0.7152171191223229  0.9992262344010265
  0.2878038849150403  0.4319608194396241  0.5680466261775956
  0.6464894886984552  0.7792802007481218  0.3377185912532946
  0.1361471004368256  0.8601336099751016  0.7177529370368613
  0.5751767121596416  0.4261854204627932  0.9978636831604949
  0.7897640922510475  0.9316523993516292  0.7883661972707700
  0.5086899872931200  0.4974722657831745  0.2051190493123424
  0.7115923474330282  0.9989347295299192  0.4251201210834401
  0.1430336547987845  0.4289637474998571  0.9984624591373901
  0.7897875268337704  0.2141378568140730  0.7849296080992486
  0.6444343961821583  0.2131764025861223  0.5000243261904432
  0.9283239403156546  0.2141674819665237  0.6421313397776949
  0.0690595621366315  0.2165346704736893  0.5007324106612797
  0.9286782968391317  0.3562045545207081  0.6444432942334213
  0.5743125457939849  0.7134047811450174  0.9953384807620116
  0.7186717232876503  0.4261912504497988  0.5730646145899959
  0.8572057210608736  0.5701422902643741  0.7169698360301110
  0.7156127694243232  0.8544445727876565  0.4277243961817824
  0.5713518765520127  0.7191685400425335  0.7109700228624503
  0.8596560802535150  0.1431828959734708  0.7141004519854949
  0.1447606149016857  0.2839456453583439  0.9989159187387073
  0.8604369346618974  0.8596401692425065  0.9994518442323619
  0.9281236590341150  0.9317048141623029  0.7870327031383355
  0.2893882171172488  0.1406754247035274  0.8533038677284637
  0.7132137408679008  0.7189755643832397  0.5697448580230872
  0.5044836219087927  0.3550732915959420  0.2086895947582719
  0.1399586461514972  0.2873117319498099  0.4274054626045715
  0.0027317563179356  0.4272981389468386  0.1406271305697379
  0.4363323076230033  0.5617360805126711  0.5862706733080307
  0.8604768548261295  0.2837300033158154  0.7145940942297407
  0.2166879828219284  0.0738303150397431  0.7815932921185613
  0.6440115487819604  0.2139506496995648  0.0710782849461099
  0.0007625056211860  0.5679249838249851  0.7173242859412545
  0.9986336966956303  0.2849891937734806  0.5724170128485850
  0.8600100830576652  0.2861237391354947  0.2847984124333228
  0.1453355087485550  0.1423442386882320  0.8551301602089070
  0.9274092755653157  0.6432459048528096  0.3545608453313974
  0.0705730666559193  0.3568184809108129  0.2111759127982968
  0.9288351597633568  0.0728834340667714  0.7865992866387223
  0.1411026526625333  0.4298777059746780  0.7146616502883786
  0.7811583752431431  0.9271411408595678  0.3569710701931504
  0.9302236336358077  0.7853104456519028  0.0678580255637567
  0.9285193859605444  0.3566357096099387  0.3553906619790626
  0.0722460925912215  0.4998188140445460  0.7857774088804098
  0.4008913155103311  0.9221686916979683  0.4488239509062165
  0.0030840774263444  0.2858058641239495  0.0002372642942758
  0.9976245729427553  0.0026432115755015  0.7152314661466628
  0.0027033239975496  0.5716950561052268  0.9979989207585271
  0.9963139101245864  0.5686602297901739  0.5726834010619457
  0.1423896942094104  0.8580428875213004  0.9982486460190987
  0.7848762792140695  0.0715227708522263  0.2149965753379299
  0.0681642967145996  0.5000277493115504  0.6443772434092893
  0.0701270628960364  0.6445621664761060  0.2099829241305491
  0.0013967158535203  0.1429611310394368  0.1423529303555430
  0.8596611516721966  0.4273227246958415  0.8571778061508937
  0.2887173043388333  0.8551742925131236  0.1417565193616430
  0.2193802905667123  0.7373864674641288  0.5366660543963011
  0.1396887701492885  0.1467473130711424  0.5702606329231291
  0.7883286819080729  0.4981643634933994  0.4992916121482366
  0.1434430820386524  0.4281982525695968  0.8561432118452276
  0.7160938984054607  0.2853107277343352  0.4279987662307613
  0.7188753782604501  0.4262090380468007  0.7172699480395009
  0.8599943863714077  0.4276964874305806  0.2827233824627791
  0.7897447276545616  0.4970923740517040  0.6456851392632186
  0.1396900883423475  0.5725217955200064  0.5735690129741974
  0.7202401724809857  0.5681151402403366  0.1372825891767099
  0.0023016542164150  0.4278680839284357  0.8566194771108767
  0.7902423494558363  0.4982081672613822  0.0683624438029818
  0.7214859620849893  0.5671788191322419  0.5754831219588150
  0.0697978648244668  0.6456701970918673  0.3573235703142816
  0.5891942381525318  0.7105803443175764  0.5885969227567649
  0.9296803716021261  0.6418442969902483  0.7874031830208577
  0.7895888730834032  0.6429447675201256  0.9279635495290265
  0.2137814010767720  0.6454242638029740  0.2125125095585838
  0.7899148377320228  0.7870045050213430  0.9293849437058865
  0.7890726882408553  0.7872198215567601  0.0690484016510567
  0.6450765552939298  0.0724028803416286  0.0727372556809265
  0.7167684152770512  0.5712740187633063  0.8567655018986161
  0.7887771925278140  0.6421956260734024  0.7878248004274008
  0.7194528134430437  0.5685829245258680  0.7189002715454708
  0.1451916307697241  0.1429496868350291  0.9984626081848109
  0.7218821138844242  0.5677038768462015  0.2787672599244890
  0.7892344576818278  0.4986960426617500  0.9273364661400525
  0.8611925363953493  0.5703388003788653  0.1401592352909669
  0.0710993425226006  0.6441384521063047  0.0690062818223890
  0.1329617299546878  0.8502551978077267  0.5648254634967299
  0.7900631380836294  0.6419081504085733  0.2091767150923875
  0.9235741369677337  0.7865552013823892  0.5000569933819531
  0.7891550071380989  0.4984816294122821  0.3551192598986627
  0.8591544877538312  0.5702849535935680  0.2824956971010036
  0.6479168784270559  0.7845035087071909  0.7888620738241213
  0.0010938184781233  0.5718809500635843  0.1406903778958763
  0.5038235484581018  0.6389287946540915  0.0663148907598685
  0.7189862844367434  0.7125768595194376  0.7184643130853885
  0.7832721908529340  0.7849463808156094  0.3539581976366832
  0.5022974423543900  0.4993948585441173  0.9270615373549221
  0.0638403005148746  0.6384955439785349  0.6477150345758302
  0.7896924407810877  0.0735668148559622  0.9293554116834797
  0.9314963294726486  0.2143663548154426  0.0705476749381992
  0.7176283913273477  0.1445162526300140  0.0019181860161783
  0.6479944056314382  0.6399963022559410  0.0657984539267094
  0.6480260879641302  0.9296859395347079  0.9315672946217282
  0.6525508984967747  0.9304051115120421  0.7936624274255732
  0.6513696253623764  0.6366270817443773  0.6494059224995726
  0.5190726076174084  0.9470571629504220  0.6619251105871250
  0.3794555797166682  0.8975293728957059  0.3258110390738870
  0.6468961353654626  0.9293807126360115  0.4984104898896883
  0.6435507244107654  0.0715708903961798  0.2139441084331900
  0.5764325405329757  0.8617587050959192  0.1370094728907743
  0.7122721837910758  0.9983525157785159  0.2865364932673625
  0.4254089058887227  0.0077890814159695  0.2860694562998953
  0.6470521667902028  0.9317742363171543  0.0706135721528011
  0.7198111335196892  0.0025128236058761  0.8609766369204992
  0.6463514142101783  0.7851216792773807  0.9284435240768927
  0.8607452670821953  0.5707435327887754  0.9982579676095810
  0.2157086744649796  0.6442267354739041  0.9265569709026885
  0.7898903546259468  0.2154417098698621  0.9295980986071195
  0.7147315320703306  0.1434148425575280  0.2844429376675941
  0.5824214932566104  0.8614017836451801  0.7272821392399319
  0.5179043554321690  0.7561064498495452  0.3510656333702917
  0.6545270158769213  0.6386367053663082  0.3447344965572437
  0.4315232188716577  0.5534051921161046  0.2693377292250693
  0.1419102383544860  0.8591574262353537  0.8564496959772440
  0.5801223979449168  0.7090904864662035  0.1330314782824694
  0.5746975059066974  0.5704889649410146  0.9955277871977719
  0.9276681769750417  0.7869863233192723  0.2121325870577732
  0.8563974487862208  0.1431381678395244  0.2851097971029043
  0.5761684267459086  0.8577253998158153  0.2732934698212470
  0.9267491867702974  0.0728655493809761  0.3567204531156257
  0.7166130557901079  0.2843926489811035  0.5712633050677687
  0.7182681797695547  0.4272473174254987  0.4270313827885985
  0.6466994803611991  0.3569619605608926  0.3540397884010041
  0.7883595215509986  0.3558520835470875  0.3548197880539293
  0.1423750838640904  0.7153190095975867  0.8571489531841348
  0.7872027052389470  0.2152625943140628  0.2142087946398584
  0.1437666664934627  0.5729045463473020  0.9981729098154816
  0.7876681570060939  0.2139435766911175  0.6424620718777532
  0.7170873368066648  0.1438007691394009  0.7140732849675785
  0.9907780773843911  0.7131879809978474  0.5769106275775135
  0.7887483915936281  0.3554801589631765  0.6440286602531320
  0.7900684529944072  0.3558933914465159  0.7863722758800880
  0.0717543151192234  0.7859365994269715  0.0690257957153873
  0.0003211089851751  0.7167468051663954  0.2839382635319695
  0.6517981782956448  0.6331465362322987  0.5091855084392709
  0.5921593322878010  0.0055488178824428  0.7281023127081057
  0.0005332522550260  0.4278980521032447  0.7150782112120647
  0.0013714192137202  0.7152907220880478  0.8583279159673096
  0.9994364283134753  0.8580296763602225  0.1403889198210074
  0.7155947772333128  0.1436234883502275  0.1433795831206836
  0.7167294679467769  0.2863341652755552  0.0007565849885233
  0.6510797643464620  0.0785382158828057  0.7933345462596966
  0.7198304075233789  0.1465815979140182  0.8601193226189111
  0.0001685336221569  0.2848577625985293  0.7138887328745847
  0.8578364867017487  0.0032348343893540  0.7151539909670225
  0.8571390844532636  0.0024941479666507  0.5702276533857856
  0.8554907961009097  0.0013826884549007  0.4273257246593761
  0.6471530490854073  0.7849447813893854  0.2062740902616103
  0.7866500943859638  0.2135668356292703  0.4992264231730137
  0.7180801523596003  0.8577152370541852  0.9995719237723536
  0.8594297504936167  0.0009644096772584  0.9998534861878777
  0.0707878634398084  0.6418700027576586  0.7863142349712424
  0.8579117418279238  0.7144459836927136  0.7166549436438958
  0.9290724189360795  0.7875286466496991  0.7878515936498192
  0.8551805198472251  0.7139438349711097  0.5725444252925681
  0.9258501144216364  0.7880618017198832  0.6453939614342130
  0.1186366865620817  0.7177747066727679  0.5821281723169345
  0.9248236453628919  0.6418784370802751  0.5001534733437256
  0.8547202176760142  0.7141626676415920  0.4266735255057898
  0.9256510720410090  0.7872944957487987  0.3542858813461319
  0.8578891805557036  0.7143931873973739  0.2829536972811837
  0.1425475473990823  0.4290285348218784  0.1401015611417286
  0.8595490038155331  0.7150186690660553  0.1398073205925430
  0.9319533755162765  0.6438144827509805  0.0683045029598769
  0.9311818736246166  0.6434058285040999  0.9285037987961466
  0.8582352690656134  0.2855336931942106  0.4274271244855395
  0.9262979615541796  0.6400272191515596  0.6462859605601377
  0.3616116436353842  0.9266779881091036  0.2103893165456359
  0.0674823118272743  0.5005530344624987  0.5007028909159972
  0.7859397338306907  0.6436346337184242  0.3555451612184080
  0.9999862202391669  0.5725901393501308  0.2832778079757319
  0.1431316852277692  0.7155508274703503  0.9978205080157486
  0.7900211864575681  0.6426392889060655  0.0682374250924587
  0.5031586418368812  0.2205101251441979  0.4984259599301005
  0.5031305863417433  0.3568561035474770  0.7889710461154339
  0.4298614234055787  0.4280566950240099  0.9981234148662433
  0.2082709704214394  0.0761763970805909  0.6405358199584740
  0.5018507235880295  0.3558869626097872  0.0686149299283452
  0.9987991602388868  0.4280166885633787  0.4271774898123283
  0.5058143208858705  0.6340251410757204  0.2016733797486090
  0.4305856957621552  0.4269825596334438  0.1386699378283778
  0.4265583649273589  0.7998250272707521  0.5970378526935881
  0.4084592093103204  0.5672711166531460  0.3948112267229347
  0.0672178555519434  0.0743387367487300  0.3548040231511845
  0.6471564432836122  0.3571358711926609  0.5000258639934788
  0.5766807810083167  0.4264627329849379  0.7180201803403773
  0.3564834436163843  0.2210962463059244  0.3524121408307450
  0.4303210941350619  0.5731710128134090  0.8557464398760813
  0.4297805725473547  0.4279396254370831  0.8574569137420937
  0.5796385706458609  0.7038851367289625  0.2692770563569203
  0.3576437577361097  0.4990343958469656  0.0684656707950511
  0.0000059367952367  0.2859887200895683  0.2841277007910989
  0.2832963835977537  0.4265461942927722  0.1380186330899123
  0.5743072683807762  0.1474646924817650  0.2818773196244280
  0.2156158863323182  0.2125947372236532  0.9262596853052459
  0.9983430751936690  0.4277551314096281  0.5727904248795734
  0.3828341371218482  0.4919618113309264  0.4996301614700291
  0.0719703460859821  0.3562197245280233  0.7854875408214181
  0.9303712420524695  0.3563446966561476  0.7861235971931030
  0.0733584008105138  0.2145225091238465  0.9270859632996223
  0.9298127178551342  0.7876080127891596  0.9286036385200134
  0.8598710860286062  0.5703664070607031  0.8573693005303535
  0.9967692685224306  0.8618054120716155  0.7178708689726081
  0.7878296867353202  0.9324835428018915  0.6439240474952244
  0.8569385802461933  0.8601824664396425  0.5717735304277921
  0.8580290198696751  0.8605518291319463  0.7163472571527300
  0.9928963769847110  0.8584604027538260  0.4273103782631499
  0.0013496632832342  0.1435962568376426  0.8558693957160988
  0.9271859610706552  0.9295133980784316  0.2134833460049724
  0.7867282510466607  0.7876952750193573  0.2112423384490351
  0.1419701138443200  0.8580307725348717  0.1394722609453571
  0.9245325006641530  0.9304956630232006  0.3552072261097232
  0.2133438125151578  0.2172175061458178  0.6445182222791056
  0.9278779605705204  0.4989429574790971  0.6453181130148431
  0.0022673252454414  0.2854405091563876  0.1409614714845330
  0.0723574106343294  0.2136237420026473  0.0694497970913644
  0.8601423973222060  0.1435009101321066  0.0001815300392605
  0.9304988229610806  0.0731018924307869  0.9279026246211109
  0.7888051319085129  0.0738264024383659  0.7871283123239585
  0.9995888605269762  0.1439362562678593  0.7138473762558455
  0.1405896204829549  0.5739888113436818  0.2826969053903275
  0.7154128691988741  0.0013235362884910  0.5696168473363874
  0.9999871907260446  0.4283980871094519  0.2828637288533744
  0.2051231965918685  0.4956071581166812  0.3486217406202710
  0.7837398125208811  0.0728057324633709  0.4976913252532243
  0.9294556015130271  0.4980006148947766  0.7863035359207630
  0.9282929922132351  0.4991954966745296  0.3549377585380550
  0.8584086240995702  0.8579180004518800  0.1405870520764782
  0.8578648403432767  0.1429595217515743  0.1430514426643149
  0.0695429651132509  0.3575622784654335  0.5001030629306017
  0.1411668996163721  0.2879473730673043  0.5720987682624452
  0.4320641890482278  0.7139592951911397  0.9951740719864565
  0.7185032089960312  0.0020339433195625  0.0008671188334594
  0.7175000855978074  0.7146317301952737  0.9980442611350012
  0.5752384613349334  0.8584374394910252  0.9981885025432203
  0.7885139166229082  0.7870084490876548  0.7880989570269573
  0.8578864625391476  0.2853811405035858  0.5712563107622408
  0.7865203257093697  0.6428614157696063  0.6440945741813825
  0.7848657088180331  0.9305516028258894  0.4976986057304004
  0.6068161623624194  0.8073067716343116  0.4351374676638404
  0.8550197058621206  0.8579135883206063  0.4268032956825081
  0.7839834683692424  0.0725054133746133  0.3573925586476562
  0.9983684323936329  0.8575859296400624  0.2831187726827826
  0.9296870098397564  0.9300702430826636  0.0707531083978194
  0.8537776489755307  0.0002954677686560  0.2851123119797415
  0.9299223904938926  0.6435820475472640  0.2116517644097708
  0.9299290380310322  0.0724629876043631  0.0711433629927120
  0.8571533594658192  0.5716662460634764  0.4268747305991009
  0.8586561816911723  0.4265963268630508  0.5721970619765229
  0.0698151093512090  0.3566605609479300  0.3553516813666854
  0.9986148142399015  0.2861245895132927  0.4277048555283376
  0.7890869153844092  0.3553570003162683  0.2121411086574098
  0.9964486181728832  0.5709231495110206  0.4259192794462118
  0.9318539684342901  0.3560143318866180  0.0695951951841697
  0.9322168061117129  0.4991602958928902  0.0692658094059810
  0.7897389905117678  0.3558943793155943  0.9281185060750500
  0.0026959345376127  0.4275886694599386  0.9984301935744700
  0.6469956622031073  0.4984599316016049  0.7877032264862868
  0.2144243910820057  0.5009263873047747  0.0692598379713608
  0.9279110939791417  0.2145037616113986  0.3566228345611259
  0.9283417459525873  0.3566323796944418  0.4995795721603894
  0.0702402485703191  0.5011550229582959  0.3554652290193425
  0.5740673593750263  0.2868080532954407  0.2813597701271707
  0.8607025588582694  0.4276116884106908  0.1409257972538642
  0.5033807077551793  0.4989764600304295  0.7879858777295853
  0.7897037070204962  0.3558703179649447  0.0699513999314219
  0.9318264659729696  0.2154268758860877  0.9282316906329108
  0.8599272885549960  0.2848563928902842  0.8567040547774729
  0.7877373661802166  0.0721894291696183  0.0720807181466089
  0.2137950169980434  0.3563106234131014  0.9281425122145697
  0.0727707679798023  0.2147950765554683  0.7853341510680634
  0.5660839578773941  0.0069191952253030  0.4283183397793990
  0.7874734851164055  0.9297144795321954  0.0713391238988048
  0.9316222447071304  0.3554094998590846  0.9278954519066378
  0.5741987847421333  0.5726549432459943  0.8565452916713898
  0.0692337505678231  0.9316829774976260  0.2126614260105650
  0.2147199912459223  0.7872954392822569  0.9273684387441277
  0.3607905491582502  0.7862927214303806  0.0680964161423845
  0.2126903871731762  0.7872764288806350  0.7844872513788739
  0.3588609353163193  0.0717593964350287  0.9268730155985236
  0.2856844157126933  0.4280748024066819  0.9977226762817689
  0.3596435977384061  0.4963653381390673  0.6478894283324508
  0.6514357570390712  0.4965555378114807  0.5030975514516546
  0.0699349046955755  0.7869236679641982  0.7866328178795436
  0.1392312821098189  0.4266756705176767  0.2800264712082615
  0.2854314223856789  0.7197976947727133  0.2812448971109393
  0.0006151606764423  0.8600752844897008  0.8574589065813870
  0.9294833112521752  0.2143475609448976  0.2131057437988496
  0.5048328496466165  0.3571290138766989  0.6456601425544125
  0.3582845079457731  0.2135612697736811  0.0696565214345905
  0.0014699833621425  0.5709444148617436  0.8574394494848846
  0.7163487852306391  0.2850177865596019  0.1404816047351767
  0.4309843215841876  0.2907046126783461  0.5705777854831940
  0.8598306035259813  0.2851173074254430  0.1415133501076066
  0.1389728582492221  0.4283153329591591  0.5734198583517452
  0.3604864739351447  0.6453904868135981  0.7836071684660554
  0.2166324570509735  0.6520109424445407  0.6381568059087089
  0.2835130774120295  0.5698127014352561  0.7164814096939783
  0.5784606715837131  0.4281737190193888  0.4274002088325408
  0.3601467386666108  0.6428570208787123  0.0685562488891142
  0.4038821829106459  0.7227395234475773  0.3242475973591152
  0.2154060959415838  0.6443707140794610  0.0695280824093940
  0.0702771229859480  0.3567754253503585  0.6443843155469764