 B Cr Fe 
 1.0000000000000000
    20.0899999999999999    0.0000000000000000    0.0000000000000000
     0.0000000000000000   20.0899999999999999    0.0000000000000000
     0.0000000000000000    0.0000000000000000   20.0899999999999999
 B   Cr  Fe 
  27 206 480
Direct
  0.4188192200664748  0.5247185610729561  0.4300518400115165
  0.2180072798069601  0.5914940793585356  0.3681973571500147
  0.3749202405901072  0.9793211747944580  0.3633751165003801
  0.3546109735640193  0.7862476968962163  0.6902902677269949
  0.3666095839514343  0.7302526443203896  0.1730894080354837
  0.3792863564656520  0.7891618579946182  0.3125670074894609
  0.3003043386319728  0.7862965539856323  0.1760937825413165
  0.5802941092886956  0.9789917154088142  0.6088028982425111
  0.2199099974051596  0.9866556080573636  0.3752830659737109
  0.2227103547155217  0.8484882331391431  0.3501273281308285
  0.4299291110810431  0.9952981724773684  0.6263408441428535
  0.5793759852262450  0.0384884923816433  0.5479343330245654
  0.4327328284112797  0.7816821379709181  0.1391030448709396
  0.5635913404246968  0.8549674134850415  0.3642264198274341
  0.4921324871090514  0.8648560026384444  0.5658998089413189
  0.4383805152129386  0.8446154799778854  0.5025113295326831
  0.2155179166414102  0.6535998720576687  0.3013827175436679
  0.2354079777967035  0.7273554082974149  0.4313111516662308
  0.4780519126902097  0.5889498974419513  0.4336779055009143
  0.2201461823884783  0.9248205682857377  0.3125814811158024
  0.3802781881879963  0.7129530503833695  0.3593791890867288
  0.1032753898860268  0.8453960355338572  0.4491163337595245
  0.3194869571246299  0.9323818561301050  0.5027073486631913
  0.4957923362311595  0.7180932852425128  0.6157459809074387
  0.3051708433947468  0.6542785408764996  0.5542255967875830
  0.3611884485124470  0.6486336188264785  0.2967175543274897
  0.4102747593799302  0.7627105019894480  0.5043406634311616
  0.2139744788026754  0.9308614996855369  0.6549081717928521
  0.6416920084057315  0.0667196177826120  0.6375245774263222
  0.8567377701525118  0.1436997340952252  0.2843660148142263
  0.5029506372608119  0.2141545133235902  0.9282445325721537
  0.5025221083222470  0.3576419720338419  0.3560676010833116
  0.5031984140368806  0.2176430040247097  0.2109014177705935
  0.4316459765928199  0.2890202259303972  0.2825763698178361
  0.4316436229304352  0.1429499635173166  0.8579527561889463
  0.5757683473337911  0.1492580493756002  0.4249995271147534
  0.2840482269928513  0.5657149219173987  0.1377852837674899
  0.4977668027320731  0.9384938576476968  0.3578963017592567
  0.5046620963648157  0.9291018980208913  0.9268286953157587
  0.3579538525111892  0.0739064615333233  0.9269006719491107
  0.4973696974844042  0.5042135620930176  0.4999525363867818
  0.2848920918404929  0.1476410048387463  0.5743646962192244
  0.4305578183835844  0.2847812120805838  0.9984183588441592
  0.6482806156753528  0.9327728314231375  0.7896832407203608
  0.3343815672097310  0.7049300028495848  0.4681305348275507
  0.4320046527310878  0.1463298611444305  0.1405871186915683
  0.9960545226285789  0.5678596218168076  0.2824284247865017
  0.8589507456562587  0.5701938877765604  0.7154458753795832
  0.2158368963486837  0.2177865544632596  0.5013764408438699
  0.5747723750487540  0.2832423277296183  0.7142764768784765
  0.3014934517734294  0.7250813300243484  0.2630479848388414
  0.3596532645861594  0.7873467521044284  0.9304648260430399
  0.5748708995028209  0.0004636478681859  0.8584064315192238
  0.1450845737244026  0.7123858618646403  0.7146652815228363
  0.8562556753164113  0.8599100030508978  0.4276749871603661
  0.5138307266461541  0.6330201179491591  0.5257411167760153
  0.7194062262992071  0.4253796682542922  0.7156868770284649
  0.4314316095761370  0.5689789314009858  0.2724337325039759
  0.5696959624912700  0.0074812639949393  0.4311603651577939
  0.5829946471587788  0.6997859060305082  0.4464787615823133
  0.5073670346050085  0.4928301356372637  0.6487569785465963
  0.2161339747626511  0.7874283420369244  0.0727480004684395
  0.6465669655467341  0.0714565223059048  0.0714589120963727
  0.7167210382985971  0.0037819353030084  0.1428390895438630
  0.2173126088014599  0.0813610018341384  0.5005292345220388
  0.2163412111986514  0.0733196587882129  0.2167173935268482
  0.5781647158635840  0.5687510494090475  0.1397036408718129
  0.1370240424376909  0.7435329492441102  0.4618147985970880
  0.2884469046340126  0.5699157518480786  0.2896799267533673
  0.2822323618328245  0.1561525846229272  0.4242394000446477
  0.3601111080627436  0.2159860132902479  0.0692189114482004
  0.2139908956070722  0.2149147470298673  0.6442198616863516
  0.1485666439009452  0.0013503996166659  0.2897817392799754
  0.6454838070251984  0.4981277276102106  0.3573540503942016
  0.3174715091297771  0.8560446875017492  0.6202923219442025
  0.2835680404791781  0.0036808522671053  0.5756611977707630
  0.6484040729270375  0.9347640322571739  0.2096624430995081
  0.0718456072193581  0.2135935899328832  0.6428074889666479
  0.0011157502403574  0.1427503834122054  0.8553813727093087
  0.9241460333689215  0.7874805096043491  0.4998410552852303
  0.3588562794988938  0.6401465151412782  0.9275583887247999
  0.3584891263702187  0.3544326167068471  0.9292749345439992
  0.2853747122329675  0.1442013995570779  0.8592345168975007
  0.3584798863502927  0.3539193442872484  0.4995265999233289
  0.5026648654433767  0.7891547835093405  0.7851533657318955
  0.4266901640349735  0.8567876854350330  0.7190172628053813
  0.2127607144019901  0.8293633073799068  0.4530333055211700
  0.7860431976427156  0.6423860624634076  0.5015722173943742
  0.3545705914063574  0.4910036338060326  0.6473108859632392
  0.3577173873808611  0.9378043473924070  0.0655938303234053
  0.3566342909834745  0.4838814128290274  0.5051665395641302
  0.2154539127180914  0.4890189880993127  0.3560891086227832
  0.7136874370548786  0.0002947367406827  0.2861485640365163
  0.3580048999767148  0.2136298311659304  0.6447254334506830
  0.3603793134598307  0.3556750770795436  0.3547473151229949
  0.0707448083376466  0.4974605645683373  0.0694985981381181
  0.5136536746338145  0.7702580478806513  0.5172779656389646
  0.2867741880618634  0.4221405393353881  0.4266077842765906
  0.2828397735032936  0.8519685100399484  0.2679836684485203
  0.6398157801574069  0.9435299722912380  0.5059808965595779
  0.1263989846658390  0.7067751728011725  0.2707742701458163
  0.3063344567248913  0.0180145622946155  0.4349665164213550
  0.9286034454499640  0.0730619975355303  0.5005247514634787
  0.5069654541331099  0.0738178997580077  0.7899930172626949
  0.7905830584683798  0.0739050079985005  0.6420822323938641
  0.9961335157481652  0.0050236458177532  0.4267339110347367
  0.7209812094203158  0.8588479639927026  0.7194000757329552
  0.4317892091154387  0.8586823338125659  0.8588852220374399
  0.0747948682405461  0.6417997017287110  0.4951451877962130
  0.8594726607874684  0.9998189685140705  0.8571357067799374
  0.6381631187368261  0.9305552733859670  0.3637754005994979
  0.0683672173115945  0.7863771315530923  0.2089920125649117
  0.9994612912951565  0.7135398198889589  0.1415151292001545
  0.7137444909690270  0.7150435623711596  0.2850608969871319
  0.3523070874444727  0.6275333659491539  0.6509456328192098
  0.7884409792980143  0.3562280549310937  0.0706592954139137
  0.9273968207543336  0.0741829680214530  0.3556596027443706
  0.2940987036039968  0.9093434555517184  0.3940147653816715
  0.2929733414109101  0.9989059681533530  0.2944682536340129
  0.7869202371597771  0.6439446820488066  0.2142807118871031
  0.9304265312682060  0.7872208072268624  0.7856196431962305
  0.2131813187698220  0.2189201637528555  0.3537399231281360
  0.0721295806377169  0.6416755967438049  0.9283796132186483
  0.2880979604354584  0.5550990213865414  0.5698120515911321
  0.0720210348756946  0.3546272533671909  0.9287757161756940
  0.6464280790722864  0.6422004443592885  0.9256168095231566
  0.0728211082355234  0.9305301301017382  0.7857035510026920
  0.9286414948334724  0.2152467921989929  0.5012322553054223
  0.8587982469369041  0.2853923216054996  0.4286564483099113
  0.1434332922586884  0.2851528845667058  0.9984933266911085
  0.5043053789899002  0.4956734636994210  0.9263286215437945
  0.2142265554389830  0.3575604951512139  0.2109946982157832
  0.8595875907789676  0.4252434235223351  0.7134984694982970
  0.5029173325401463  0.3563877010264867  0.4991684814354855
  0.9293438841826160  0.2138989578761064  0.6425909008633826
  0.6457382941063424  0.2159361648775478  0.0699514025745909
  0.9302646672622986  0.3559465731626312  0.6431116416613177
  0.3604156564830622  0.9332466526000081  0.7920726924560931
  0.7886186961105149  0.3557547035168553  0.6427359669650382
  0.0707041056789801  0.3563407899815674  0.3551499382327001
  0.4317120838147245  0.4271602002538664  0.1403165904946070
  0.7174445907305448  0.2840420206114290  0.8568761338915956
  0.5747412526675516  0.4274641829008788  0.9974609382206472
  0.7880048979510156  0.2159286914552142  0.5003965876241767
  0.4304044380927495  0.4210944249767771  0.4290512010999571
  0.0717214830172365  0.2147915622491123  0.5003583806647212
  0.5752266568338457  0.1442797066302104  0.8579400224392537
  0.5753406436550915  0.8591672972605418  0.9974937392734511
  0.5051081962043191  0.2144204279430066  0.6435656217159684
  0.7887167679224120  0.4987072228475073  0.9271668473228877
  0.6514385512399075  0.7900001030896621  0.6485945682005476
  0.5732730878412776  0.7140912620005738  0.7121650880908793
  0.2868802074027884  0.0027816974288230  0.8581924676065390
  0.6490377485493146  0.6383714996768277  0.6482142282521267
  0.5739723896110163  0.2899885733359150  0.4276025042303964
  0.8606690981382706  0.1417086101893814  0.7129283427565877
  0.5026999438518214  0.0888620281062625  0.4955288125782170
  0.5752240399588795  0.2832951610943600  0.9985950790383239
  0.4799138783413737  0.8278854887830706  0.3006887290948442
  0.9298623884256421  0.0735814322413696  0.6413523013624209
  0.7908930140296343  0.9298763356764318  0.9285835271520305
  0.7179356046964853  0.4264666468917547  0.5721939867232874
  0.4147717890632259  0.6796261153958898  0.5681211031751090
  0.5753650915674001  0.0046153935731280  0.1421040581373235
  0.5741936909030647  0.4259163524071021  0.8567600575313711
  0.9286351983498916  0.9303722207827565  0.9284192742005334
  0.8598659288283298  0.1438751362117993  0.5703507652178325
  0.7170388352104294  0.2868721886926898  0.2838634039137559
  0.7880231868559109  0.2160822050793493  0.2137214216994250
  0.7145398873591335  0.0008486475062542  0.4282208942161295
  0.8580586387382724  0.8583048890328067  0.1434232360343848
  0.5753293172210105  0.8583706876868434  0.8569794509540611
  0.5394062829307279  0.8746603061300209  0.4595555239756792
  0.8605244833000256  0.8588441353445528  0.8579161040616881
  0.5012340595680901  0.9261178878189343  0.6558644090349370
  0.3576492046679837  0.4897113815722237  0.3522267112878277
  0.3595586364488472  0.0872535767225623  0.3537944354813398
  0.6457583354446089  0.6431767502360827  0.2133112198200594
  0.2176082271177358  0.6351548605866074  0.4925143152083743
  0.4517166223321237  0.6898396156131311  0.4432703542056943
  0.1437113617928427  0.8610110061206274  0.7184776254971297
  0.1435770104029166  0.0018424392857552  0.7162623075286548
  0.7202673612611070  0.0040872680287931  0.7170454247804071
  0.9260009315027536  0.6422415911117206  0.3557527704651061
  0.0004680351697579  0.2867017791834717  0.9990691395209265
  0.0008719229794365  0.2838845485603805  0.7124023257796350
  0.5736201558851645  0.7162274764701072  0.2761495659591184
  0.1450262741102854  0.5709571997326992  0.2890021255350466
  0.2155314400873328  0.0718713049116304  0.9284815819235115
  0.5732079046536008  0.4300416981045762  0.2870222179951848
  0.2130063625396831  0.3546539256339092  0.6441155835001316
  0.2884003184198786  0.2840542438840373  0.9986759117600867
  0.2142973711982530  0.0744276476955176  0.6426951827676233
  0.8592492029066319  0.0034652368644185  0.5717237948954832
  0.6436895495044559  0.6475924541428926  0.3547598906986920
  0.5045195664120257  0.0625879535479223  0.6292198207483503
  0.2138396163904145  0.9322704206937090  0.7903652120503999
  0.2156061146273851  0.2154250342408998  0.9297554891178237
  0.8593989276274894  0.0004123771303204  0.9989767505671382
  0.9292221944659503  0.7874895433401115  0.9288633718574244
  0.5033595249016959  0.0754485177591516  0.0701690844624918
  0.0585795537610813  0.9341155214081840  0.3545093608593563
  0.7181405481968808  0.7152950312444776  0.5741902821280217
  0.4310477479509422  0.2879346026300182  0.4272147529956541
  0.9284926262366596  0.4986498670697438  0.2124723574043524
  0.0006085616487196  0.4285063633056376  0.1416789413985352
  0.9993187852204755  0.1458559428995560  0.5717218043292073
  0.2138727065837130  0.6422634436162773  0.7862673525596804
  0.8597802085909392  0.2855999416024183  0.5717680336920170
  0.2876069328841251  0.4262036874817977  0.9978974283762456
  0.0708662970049849  0.2156639811851455  0.2127625581837390
  0.9306584073101366  0.0722284206526706  0.7863739922093844
  0.8577022537414920  0.2858477423333569  0.1420705756029452
  0.1429439104445534  0.4250107688255730  0.5714176063552243
  0.7836738199844749  0.9306425673592171  0.3575562775180668
  0.8599975751396682  0.8585624418188110  0.9971189007612752
  0.0008291598469804  0.2860082924701072  0.2845717063679101
  0.3985236902443204  0.0158975202612789  0.5322719100859244
  0.1410230322665497  0.5680443046465987  0.9970920328410963
  0.1419110236691026  0.0028877226053724  0.9988424344501883
  0.0727648021766428  0.4991842927623142  0.7845092709672773
  0.0009865255017235  0.1421598021841773  0.0008666714295515
  0.0713234303231665  0.9315601400184327  0.0701518230549317
  0.9256115275603655  0.9297545816942265  0.3575456819488095
  0.1439744561778189  0.5720502565281924  0.5668385018369938
  0.2385063240414326  0.7492626419374528  0.5377418603549502
  0.2146497632190081  0.9352573490449615  0.2070476834198429
  0.8591030823122547  0.5707515295814042  0.9985061753383472
  0.1439669114683586  0.1456490471408644  0.5704182402571570
  0.0662109396623592  0.6365339242909677  0.2099865012928696
  0.0725507925578841  0.4961561843100465  0.5020580859194681
  0.6448534500160792  0.0738653168604770  0.3567653750188930
  0.7864593024656293  0.0711618459957524  0.2149758797614730
  0.8584038622716114  0.4282740818545972  0.2846892828062799
  0.0017977941754224  0.4270937842139873  0.8561133743934114
  0.7192960078648279  0.5673527833798624  0.5753701697418850
  0.7882522789457522  0.4996532673909498  0.0695656162107136
  0.7174676332434499  0.5713309114918740  0.1418435667100800
  0.0714841978567245  0.6393587852060894  0.6441676389660274
  0.0573939763027168  0.6357175962394722  0.3513081035100349
  0.7890114276496537  0.6426716449318411  0.7858978197417615
  0.7191306562539175  0.5687288137239686  0.7167043590674548
  0.7187996550220914  0.1468471425881330  0.4254670894337876
  0.1429380219895044  0.4261430889831830  0.8572055600368682
  0.7880384909686000  0.4980457193897595  0.5004979712297576
  0.7903758273197521  0.4978003590065544  0.7845338975696274
  0.5907246340983504  0.7113317971682873  0.5831445108837663
  0.7892680332872340  0.6424424129499949  0.9274086939307958
  0.2115593848968466  0.6367192792778652  0.2041167023019256
  0.7885016056503209  0.7868568893064809  0.9276450741390753
  0.7885400075923209  0.7872475354097116  0.0697438689116825
  0.7167889024887123  0.1435915965393090  0.0004648452805324
  0.7179983243522399  0.5702013192995969  0.8558275889961435
  0.9304859025462293  0.6419398395773558  0.7857422686322785
  0.5777138954700241  0.5668545922112084  0.7176725574869945
  0.7888941888318326  0.3543604196162530  0.7854854106904475
  0.1439233512001407  0.1440709967641704  0.9990310852793999
  0.8581262372532290  0.5711323901291746  0.1421753867032494
  0.7154805266934673  0.5722898168504190  0.2857590257150848
  0.0004717434729656  0.5695240021987741  0.9985146625604271
  0.6475925455414766  0.6405770952632360  0.0677615922084462
  0.9300939408552069  0.4985720899497240  0.9272343741489010
  0.0014230623727086  0.0016950732011782  0.5707431032791751
  0.7873257634137362  0.4994854155352764  0.3571532197356714
  0.5736652234940059  0.7147548642741913  0.8554605454592925
  0.9983403911480200  0.5680945086213407  0.1405853052488164
  0.5103106432024482  0.6341718378985769  0.0613500591094323
  0.8574985355098634  0.7143097556218210  0.1422249846435166
  0.7180476987577682  0.7141993034641452  0.7157731115859299
  0.7835855623433253  0.7875768417053866  0.3583465971342696
  0.6466505706149291  0.4967010624220051  0.9256902015053147
  0.9962100242415380  0.7088112795730855  0.5750049651579718
  0.7891142958252303  0.0723726646818143  0.9283628161479560
  0.9300188985756680  0.2145629939953941  0.0710043482835522
  0.7173017786060137  0.2859899957032956  0.1411012654434198
  0.6512275728999971  0.6352960580292357  0.5081142508609288
  0.6465020222317160  0.9302054803062549  0.9283239125894790
  0.5841603084279824  0.8641149659586974  0.7246963601262963
  0.6458531964388784  0.6426027099057584  0.7853342639761981
  0.5235011710371025  0.8029689092032000  0.6519791446858234
  0.3869556445594419  0.8929481667247899  0.3177046373669953
  0.5100910338913605  0.9658900769972746  0.5351002966987071
  0.9278124753081507  0.0732772959086905  0.2135844821179391
  0.5764261410352526  0.8636411424948152  0.1374683658335709
  0.7136157978092164  0.8593148790405536  0.2864273542560843
  0.4328518167220047  0.0071130038960636  0.1399821755464943
  0.6474994601366314  0.9324423253326999  0.0684207926921136
  0.7189500639465487  0.0016738982739877  0.8579117595334722
  0.6460959044282580  0.7868118535293946  0.9267962162920450
  0.8566108734019240  0.5712577245652467  0.2849718463973897
  0.9955859395082374  0.8638899018865592  0.5752824016207534
  0.2866503411926628  0.5700751863164233  0.8567890571123301
  0.7165817087232462  0.1442741201519644  0.2834807892961143
  0.2856980015012661  0.8579111336885105  0.7302179685661228
  0.5847269701863279  0.8630337015774594  0.2700979624316723
  0.5111386042456733  0.6400744826083639  0.3472261378999608
  0.4329644943050794  0.4284394346315837  0.2831308097624280
  0.1427660923872358  0.8587689623634964  0.8589706092647619
  0.5776342421652417  0.7100985049710237  0.1366382495278706
  0.5777131753545628  0.5671571086812189  0.9938151374739114
  0.9277130916448373  0.7867176863134029  0.2127226247668563
  0.8572519270923449  0.1435215027841245  0.1432372205721191
  0.6418726676714740  0.7881335906763920  0.3626385852959141
  0.8585439544029967  0.1445728240708329  0.4282754718472010
  0.7174554411683851  0.2856117176169019  0.5716366865910942
  0.7167926876745121  0.4280701580010114  0.4281264876867812
  0.6446737964604262  0.3585027416302186  0.3562488882926768
  0.7878003431608401  0.3572471225087737  0.3565383156083194
  0.1430405835615731  0.7133210535742959  0.8584283051539482
  0.6470843487783093  0.2170089394245897  0.2123594900992884
  0.0005072435566911  0.7145581780437386  0.9988995031165581
  0.7886144003199717  0.2136769269102005  0.9281428202930525
  0.7888961657508169  0.2137331372005782  0.6427437100110104
  0.7159127826670881  0.1411471618445237  0.7122970590867925
  0.0020995285559676  0.5700623132564111  0.5698329221551378
  0.7896645866133892  0.4971825654578826  0.6445382533594013
  0.8599402168959900  0.2841502694688358  0.8560274176779905
  0.0709354653039093  0.7864362516430385  0.0704092674189441
  0.9978659968587832  0.7158023263681645  0.2839946242858901
  0.5731914172014412  0.1392529498728189  0.7104168578706073
  0.0017217765373245  0.4273812969171478  0.7138902726782067
  0.0719881683465015  0.7864487811682347  0.9288486444710669
  0.0003758010841552  0.8592825697810840  0.1414792834369570
  0.7165100798677868  0.1438522187758705  0.1424677305946834
  0.7173546877900364  0.2850947158693521  0.9997058964956391
  0.6459248444779163  0.0729221432507740  0.7866038862001580
  0.7176332441360901  0.1429681092386431  0.8567122134456473
  0.9307440660121271  0.2134883629599499  0.7846132463791222
  0.9308239451506300  0.9305150555251168  0.7865025963149228
  0.8598822132770879  0.0027771399872748  0.7151216901542220
  0.8571849033896582  0.0023180226191018  0.4268884201471599
  0.6476181129792860  0.7851839647521311  0.2080378027309082
  0.6461019266735371  0.2167733517653123  0.4982884657811082
  0.7178630744010137  0.8586347127360470  0.9981312141011435
  0.7183040948716173  0.8588491465089735  0.8575485735990905
  0.0731836829552708  0.6422885244879749  0.7852936605407017
  0.8592060166258964  0.7149152986881510  0.7152731561101432
  0.0012157868236073  0.7149904449812471  0.8571528050516658
  0.8575939342950936  0.7141261413079681  0.5716053019365197
  0.9287784720404163  0.7865991508076559  0.6439891593068908
  0.1344371238425232  0.7119351834065433  0.5766796370734857
  0.9287118426558451  0.6417411072662124  0.4993010399935676
  0.8561930539096229  0.7147068715690420  0.4291441046842244
  0.9273141968262971  0.7866789758386763  0.3569476259003022
  0.8566642358378097  0.7153500654693595  0.2856754419051077
  0.1423687134568805  0.4278012953988349  0.1411980614249204
  0.7858738116566145  0.7870753141765766  0.2137864533700088
  0.9291444537439630  0.6423862047055767  0.0701225022380999
  0.9300478457725578  0.6425792714032736  0.9281103980941636
  0.8588918781067854  0.4279884501769644  0.4285109003172278
  0.9284105945368627  0.6404163590475428  0.6444044943536626
  0.0008744169370392  0.8582436776846042  0.8573465423265566
  0.0010759553308605  0.4268146441055989  0.5719565596374599
  0.9992699156101835  0.1454014920578717  0.4289321825982784
  0.6473045457914818  0.7849375908800102  0.7870983115352084
  0.8584931959699551  0.5702475407194483  0.5715315697110195
  0.9969854961563085  0.7129928097667809  0.4265895698940534
  0.2838909930504858  0.4203906332020022  0.5745489613394701
  0.2858105864561381  0.7140582854716651  0.7214051532904957
  0.7849854253166406  0.6441612290667652  0.3569272800557904
  0.0712900427395094  0.4988836309216539  0.2139299058307012
  0.1431170096038352  0.7142789376975323  0.9998671695396896
  0.8594031890247625  0.7153287784652324  0.9987568249319611
  0.9284137279657833  0.2157194655010992  0.2129740529645550
  0.8597670208306264  0.4269777918138545  0.8559144437740140
  0.0707306332351028  0.2159362258867090  0.3552822227263267
  0.0713426555353562  0.3560698152933178  0.0698788435124133
  0.8604351578809309  0.7151532879225554  0.8569815268598049
  0.9989335422590923  0.1455092857692717  0.2835382616531189
  0.1424480514932624  0.0017712901097051  0.8582788837335015
  0.0006129037761443  0.0013938908785508  0.1430010153643842
  0.1434160975251268  0.1453434280204275  0.2843526498055558
  0.0728467152433177  0.0723361374487447  0.2150101155618406
  0.9972332744323369  0.0034242332444628  0.2840736599041431
  0.9291172799607255  0.9320003554838181  0.6444111120166189
  0.0692323606191543  0.0764113144451848  0.5028548601799553
  0.0013969834990260  0.0012223249729423  0.8569350650172751
  0.0710745759305052  0.0736633425177085  0.9289044581043395
  0.0696903119566768  0.6396932292096331  0.0686617107973236
  0.7869022029019372  0.4995984130358926  0.2133952331571015
  0.0704509151777539  0.3572245021068656  0.2121874337725122
  0.0716360061888765  0.3551110023153777  0.7851672562358524
  0.9956295271837786  0.8587618230659850  0.4276612659730246
  0.0706344776650452  0.2141100967168482  0.9295699415822828
  0.9286035579815324  0.9295903994959971  0.0706067017353530
  0.3598977365499925  0.9398843069261761  0.2076296391955908
  0.0012227051047092  0.8595070927747137  0.7157749593803959
  0.7889879568959371  0.9315116216204965  0.6445366696681304
  0.8577152095272275  0.8593644614994269  0.5717475881276278
  0.8601780807425178  0.8589382970601285  0.7160335700288600
  0.0726103674876167  0.9328470351819725  0.4948424414405240
  0.8601950590924823  0.1429913547378338  0.8567279656974114
  0.9280208556202738  0.9293876725540935  0.2142566384697032
  0.7863130172509635  0.9298544529739662  0.2140668654554119
  0.1418496065647461  0.8615897075935611  0.1396621526074807
  0.2868915064918595  0.1436123641823459  0.7153428085143857
  0.9300220177060750  0.4983033143267799  0.7844105914486950
  0.9299966993132445  0.4986019813738359  0.6432496612234211
  0.0007738144374690  0.2855911064851320  0.1419238082040219
  0.0714505469466586  0.2148900694712382  0.0695677360755541
  0.8592653760717939  0.1431509909971466  0.0001889313358138
  0.9308225203509396  0.0722268529951433  0.9283160956431736
  0.7892817747654490  0.0731594622569437  0.7863222671943048
  0.0012186826744121  0.1423818215746806  0.7134960871311758
  0.2856644226407981  0.4254130591733276  0.2815846580039609
  0.7210045015671914  0.0039054312328782  0.5714626515132040
  0.9995024125341092  0.4272978357364324  0.2838372817531363
  0.3576643323605870  0.6310349485711434  0.1982298218604570
  0.7875859840762527  0.0737514076422312  0.4985695211803138
  0.9307618701241678  0.3551845629302808  0.7845855497296377
  0.9284673137115413  0.4986305093093626  0.3566499429009123
  0.7174272841984326  0.8592992023936672  0.1403615331152630
  0.7882188299759041  0.2145971602651013  0.0712862639504582
  0.8567824136383748  0.0010718151562079  0.2866002642355924
  0.9283335240809950  0.6426099463383472  0.2131986511852580
  0.9293207747057695  0.0719469312809713  0.0712271568249932
  0.8573603139704061  0.5714681127626945  0.4282185326299790
  0.8593107151456627  0.4266957830095842  0.5724298206492199
  0.1419728097832954  0.2857422377629688  0.4279107759885074
  0.0006601727816900  0.2853942501766524  0.4284783584634787
  0.7878678381042534  0.3567015109176279  0.2134071248065883
  0.9994620220750434  0.5678176839885642  0.4295467415228012
  0.9300204208694873  0.3565304811423786  0.0710800149881730
  0.9288908806637879  0.4985426203492059  0.0698001380529112
  0.7882346768282218  0.3553704112378637  0.9272309322076520
  0.0010372149187628  0.4271749770964485  0.9987888535300533
  0.0713010900572860  0.3558045863662648  0.5003884838700952
  0.1422259386017024  0.2849469612109110  0.5720136047068828
  0.4313992310461275  0.7123544590847407  0.9989011682232456
  0.7181675225976909  0.0020169638632248  0.9986603526165612
  0.7175008632666094  0.7142255363176243  0.9978595713922925
  0.6460484465970215  0.7868791482762790  0.0684455746996764
  0.7893740251104723  0.7865265294265454  0.7871608052233593
  0.0009021867537371  0.2851335718770974  0.5717473506825613
  0.7882181321681385  0.6417062991983274  0.6445990238345501
  0.7875138098548981  0.9316486533447031  0.4997083150298435
  0.5887967520019641  0.8690527117542404  0.5788400528103607
  0.8561935385232200  0.8588411684163514  0.2865394199847731
  0.7858960804917132  0.0727052968509788  0.3560677820313797
  0.9995803623992685  0.8566253301784087  0.2850026200663889
  0.9292185174787742  0.7870165888718996  0.0711000079052353
  0.6472156759900257  0.4964004752052311  0.7871212303375938
  0.9303296789255706  0.3556159626058923  0.9276524717225858
  0.2138022689589229  0.4965496370311025  0.0677729871576475
  0.9296953190566755  0.3567359331355269  0.4996965788754836
  0.0694061853002151  0.4968016179776008  0.3541593633830292
  0.5039051522833667  0.3586693020904788  0.2119119638108844
  0.8583944940074408  0.4280186721477108  0.1414477584511536
  0.5040259384322234  0.4959441811927691  0.7868977402629677
  0.6453846226055264  0.3565546285248455  0.0687640031482591
  0.9310477380659798  0.2134792950548586  0.9283661756649264
  0.8595316178676526  0.2849673320731808  0.7133439300148492
  0.7882500888457065  0.0721693558848219  0.0708935384503551
  0.2140572940051606  0.3546120329789901  0.7869847109839074
  0.0714273682053181  0.2136079048886324  0.7855570883692026
  0.5051122401258029  0.2200725291903651  0.3530513930756289
  0.9288645389771801  0.2154209258298247  0.3557337343418938
  0.7886403918104891  0.9300967660167464  0.0700976110658425
  0.5749097804336473  0.5694669542266324  0.8560155657060126
  0.0715401521561730  0.9313307694010841  0.2145617820354622
  0.2155544952316467  0.7864517249291504  0.9298214043818149
  0.3553642350283807  0.7848890053420425  0.0744696195207663
  0.3606193200340781  0.7844432792561080  0.7929941759523182
  0.3597360476739932  0.0746311943372945  0.7883216680443190
  0.1420522113032074  0.4262699670118489  0.9983032059703605
  0.2841823527385293  0.4242661612078172  0.7158733563714977
  0.6473191483816597  0.4968915763586246  0.5003958812813588
  0.0731273639740297  0.7860192115132897  0.7859866154612044
  0.1425646492711581  0.4265796454370591  0.2832873197346049
  0.3863442093944205  0.8208140847331586  0.2175390135948716
  0.8597075878839887  0.5704569902224048  0.8560749062626413
  0.9289076421932290  0.4981095893027441  0.5002565780592758
  0.5773082621608964  0.1480930258968537  0.2810558134571874
  0.7883057752611978  0.2131421654720580  0.7844270952491132
  0.5750124274173145  0.2862002566282912  0.1406635350202836
  0.4317944790406006  0.2862618467102890  0.5729361025985716
  0.8586300643118608  0.2862523389283614  0.2847948514525164
  0.1427378218613436  0.4265472428588700  0.7144412144762055
  0.3599870668807414  0.6420369103400048  0.7854363014340510
  0.2128089492416016  0.4965019570281112  0.6418740394340630
  0.2821761212025840  0.5670646844248135  0.7164784646096232
  0.0487585916460263  0.7858317979284908  0.5094656412617846
  0.4964091633524050  0.5068737451910181  0.3602307171907831
  0.3591086839732145  0.6380036372117286  0.0683366086686600
  0.4354886544541541  0.7118414599099863  0.2675112509931991
  0.2095845271398182  0.6352573586497603  0.0650849584392417
  0.0719335969033354  0.3557935190640186  0.6432347574447046