 B Cr Fe 
 1.0000000000000000
    20.0899999999999999    0.0000000000000000    0.0000000000000000
     0.0000000000000000   20.0899999999999999    0.0000000000000000
     0.0000000000000000    0.0000000000000000   20.0899999999999999
 B   Cr  Fe 
  27 206 480
Direct
  0.4262851265307012  0.5200252026328304  0.4278410850672579
  0.3562962190551259  0.7271952583828297  0.1621158454980800
  0.3709235538009589  0.9778571597116932  0.3589885606165306
  0.3537943631856745  0.7846189296696046  0.6920057563357165
  0.4847109683629115  0.5861857155716063  0.4314399131512097
  0.3808826834363905  0.7895402222118589  0.3045967465182117
  0.2200183788788617  0.9805889892510726  0.3726296766150609
  0.1075102069645267  0.8146049942496227  0.4211415851353587
  0.4321094068793138  0.8435338669064483  0.5000599275414043
  0.2216784235109967  0.8412000672505857  0.3433461276807997
  0.2860235314026339  0.9107998095857257  0.5634916305104184
  0.2906592542005184  0.7878008257130962  0.1669997997440269
  0.3069077551997143  0.6465675994966371  0.5570125584861736
  0.0779909884488962  0.8580014736155146  0.3511179761749955
  0.4815570606820381  0.8634714017082856  0.5686979077932565
  0.3830119658783195  0.7139747713862961  0.3559916543064096
  0.3006947852275152  0.5814146360477107  0.5002172092256828
  0.2348424814646380  0.7091642942568006  0.4203811335564191
  0.3870986367303555  0.9928879330432310  0.4996893193961582
  0.2186851006272290  0.9209401258008082  0.3085147401828551
  0.2225515640853759  0.8485394813864220  0.1720311087459918
  0.1436605218956421  0.8581375296311017  0.4857455508286621
  0.3637849935681606  0.6497909638026251  0.2863243612087292
  0.4952020402100074  0.7195488090125454  0.6058894226882663
  0.4650753385114110  0.8305316130736735  0.2911236752735453
  0.4067268066417823  0.7613384920345156  0.4936139422417594
  0.3178491742211315  0.9357292466952852  0.4899862650898085
  0.1264111470115555  0.8682456837168688  0.5874111933593716
  0.7149222700080292  0.0037373300936349  0.5710793341669510
  0.8575294327180886  0.1432813874820729  0.2852768952029170
  0.5032641523670272  0.2153815987816449  0.9271323095913403
  0.5748455179297189  0.2870126531597292  0.4282995842817068
  0.6455753623424807  0.2159330459276380  0.3570419914545965
  0.4322593612653436  0.2885177697556034  0.2830565121286115
  0.4315401297688010  0.0051435695243522  0.8572853503792489
  0.5084736027881406  0.0787403443326042  0.3520946355846164
  0.3601812695206685  0.4977539725877543  0.2073178576716457
  0.4997266675887479  0.9238233417032933  0.3575789416874844
  0.2876575284309910  0.1457389742346704  0.1413904349758741
  0.3583721786173681  0.0749982706425661  0.9285154975015104
  0.5743966283104529  0.4274271339357104  0.5720119469941494
  0.2878478751720140  0.2882895874253470  0.4282756250085216
  0.4281194918298029  0.2847083373957159  0.7157509621873137
  0.7878219024115876  0.6440686809335024  0.7856153188357273
  0.4251490158748470  0.8083626672919025  0.4005839662723796
  0.6434728512628616  0.9298399239591473  0.2174264103534040
  0.9976845165040487  0.5672407780133029  0.2841875215557513
  0.7885600134111036  0.2143379110176059  0.7851502790011414
  0.2188141048543805  0.2181158358446067  0.4994951160208835
  0.6461200239052624  0.9335729271978884  0.7853325806672470
  0.2118509048346109  0.4970365753398821  0.3548860082111860
  0.7174173609776721  0.0020429181328764  0.8576017988542166
  0.5741652717918821  0.0050548700510289  0.7125109295496772
  0.7156849970298134  0.1440255633348707  0.1428873378113440
  0.9273495362715047  0.0754510862329198  0.2129353764227049
  0.2182035670187140  0.6474394398724505  0.6371111944021125
  0.7174806304478247  0.8599619955578565  0.4274118327757916
  0.2849414477007389  0.4247759559952878  0.5724986343811429
  0.7182806170295721  0.4263906580097797  0.7145747692057259
  0.4359000448416629  0.5678750079899301  0.2682617151991190
  0.5721382607740407  0.0028355123911146  0.4271497347527818
  0.5180415233950862  0.6427581837435359  0.3465372694986792
  0.5058997322143638  0.4924794627267070  0.6462643931519232
  0.2162630123350792  0.7897776204504093  0.0768669609938401
  0.2185499684933612  0.0791714064479808  0.5016485136601471
  0.3240606701314092  0.8270241543915843  0.4913963137795349
  0.3620975385863117  0.6441267473076193  0.0698625881591640
  0.1435284908937639  0.1452405816364291  0.1435338160427552
  0.3918063150417457  0.8160749630370187  0.2062020040674599
  0.1357986821626603  0.7115758403942987  0.5749028796910338
  0.3326027156931151  0.6914332484625745  0.4589600589235625
  0.2876379889179989  0.1501237271951193  0.4282821909315565
  0.2136912612239002  0.2139686889375772  0.0731104282602295
  0.2871228329873317  0.1493975713518199  0.5724259911860714
  0.1399633189167640  0.0181354726521761  0.4300873082620957
  0.7180422340051352  0.5708118958846270  0.4285506424239599
  0.5040028375592117  0.9318907001847109  0.9239267170611709
  0.2971788122614249  0.0129894082246099  0.5661426330475724
  0.1443590838600974  0.2853355362081806  0.8590681031819831
  0.4361991074983476  0.0058697470819631  0.1394210342382513
  0.4315158084515665  0.7153307464669633  0.7009040434952656
  0.3586577108609078  0.7847527901272325  0.0737945703400389
  0.4330514209010223  0.0090936378872100  0.7181742693270438
  0.9276524852132051  0.0750336984973609  0.5018912600629445
  0.8595260672632085  0.8607567403554421  0.5714961606062156
  0.2819261402367907  0.5666685024774888  0.7188365991338767
  0.4136029554480801  0.6815614610427370  0.5617233973197749
  0.2872628836426441  0.1439997983758270  0.8589202118841407
  0.2195531734355775  0.4981642592385003  0.4986124216068081
  0.3578596258508124  0.3554380668039196  0.5010697656816553
  0.7154506439440028  0.9995003334590468  0.2852259199244118
  0.3017900425727226  0.0180798174693601  0.4297270937640486
  0.2119388460966930  0.9409406338197271  0.4930492367309807
  0.3588737277286585  0.2175527019364227  0.6437936335544213
  0.3624699008033322  0.4880074290145881  0.3509599289743391
  0.9979813664743775  0.5710744155752117  0.9984661868662443
  0.5120252182708478  0.7766705998852824  0.5106198784211404
  0.2873721538275671  0.4275358102322143  0.4262558888831892
  0.2844285924282918  0.8502628707665444  0.2607728426599948
  0.6480539121199045  0.9338756998388273  0.4986788575804710
  0.1232620337693165  0.6948960534915045  0.2764268163976423
  0.4303194579241711  0.4249981593120353  0.5736498070974405
  0.9998028074516714  0.8558036896851285  0.4241471734643729
  0.4119716958290573  0.7921053930585354  0.5974765946526525
  0.6468720764432749  0.0746497678538398  0.6425104501333027
  0.2868475022634767  0.7134096268439895  0.8611449011734744
  0.9300014074046341  0.6423972471791577  0.9278859742267870
  0.9970502805622334  0.0078978022771366  0.4317857692942532
  0.7179256284246236  0.8611775952732829  0.7153591273960596
  0.4243518648577709  0.8611822968789916  0.7114893181555999
  0.1319226623539525  0.7091928507385122  0.4332687541419967
  0.8583036676323071  0.0015048284870963  0.8591928846690533
  0.6449651848216931  0.9293100153560488  0.3571282022243858
  0.0664047531863242  0.7794626907818754  0.2091092504590646
  0.1345760442156256  0.7035641017420289  0.1362057337660930
  0.7877988196744142  0.3558813350582679  0.0704011268547402
  0.7176106372927357  0.8607195991326745  0.2847696826071249
  0.0003812924861279  0.1444065366730596  0.7132064861382624
  0.2160104528540322  0.9322781738004980  0.6418253782851445
  0.8559009975788384  0.5690821935039055  0.2845803853942788
  0.2894997021548893  0.9036565192085446  0.3891272832585627
  0.2922664607886805  0.9980743671935104  0.2919905998434535
  0.0675652267832430  0.6389038892015975  0.0653066342506878
  0.9294568219442954  0.7886439172108370  0.7860057610209227
  0.2175984337401620  0.0833596227514615  0.3575382181847130
  0.5740362049448131  0.5715154122803985  0.8559605470088757
  0.3558828882677510  0.4895934077835594  0.5052403769025121
  0.9276349293432328  0.2164576711846443  0.5013484421799850
  0.8576703034147307  0.2849873810116256  0.4295860930313604
  0.1437040183191720  0.2859839832996507  0.1420694694787850
  0.5056974637224720  0.4980717481783881  0.9259621354091533
  0.8604075311462944  0.0027902315905077  0.5709851836114880
  0.8587914466415080  0.2849999354254182  0.8564672435595547
  0.2145506721295430  0.3563994770122759  0.2122242110589125
  0.9292600234886353  0.4986923845014363  0.7855918464440385
  0.5035503973337772  0.2182494955752079  0.5005271576726121
  0.9296148160782187  0.2138676454358423  0.6436277308366861
  0.5730879401350774  0.0020011125927629  0.8551025724185599
  0.9295967566617409  0.3553472898493817  0.6436744162387569
  0.3581978342727908  0.2164970248704076  0.7879187313656358
  0.7868422108625924  0.3555990436265729  0.6429614863312294
  0.0714010707764644  0.3566027752899037  0.3566732111484242
  0.6471835741392575  0.4984918658512001  0.0669432777763217
  0.8583528939642364  0.1438902780228523  0.7134508239779225
  0.6486442094289047  0.6399280240312272  0.6447538990571671
  0.7879620015013966  0.2159466784245311  0.5003507004255325
  0.5002270992287198  0.5064601457984296  0.3559341655818203
  0.0719138356383398  0.2157457571163860  0.5012223520294860
  0.5743509466397709  0.1458602301338904  0.8557778200782652
  0.5034830589962414  0.7872539215989158  0.9244174155829089
  0.5740062962302959  0.1452371436628568  0.5716239702727387
  0.7167589357108973  0.5707653624951471  0.9972805949619622
  0.7191795005983923  0.8612986052599088  0.5722637331541122
  0.5783525900980918  0.8669860876303942  0.7160679172786660
  0.5759205365338215  0.2851915623826507  0.7153723022189528
  0.3594756311581332  0.3566790934914388  0.0701079989233513
  0.5035806338325514  0.0783160645257833  0.5021095395855748
  0.5754527762625795  0.4284090515110860  0.9979150135657023
  0.5827265731175082  0.7097872539604729  0.4351980938128082
  0.9296528508547917  0.0748606529305656  0.6431767334741024
  0.7882449815689373  0.9304406714951426  0.9251266875207301
  0.7167071144631744  0.4268610345828202  0.4278811126065250
  0.5170374304328994  0.6409263876226120  0.5201300964044185
  0.5721053287882466  0.9988488853947765  0.2871657578569974
  0.5736386756682678  0.4268407006355702  0.8567202015246181
  0.9294244513760060  0.9301401501974048  0.9267078569923746
  0.8595523733185814  0.1449220567879212  0.5703324017179501
  0.7888862095317282  0.3556355403824623  0.3574007347948476
  0.5758059719734725  0.2862071995623851  0.1416980106507311
  0.3599721754690017  0.0863618423511055  0.3534674278253149
  0.9294592661108404  0.9297500361748439  0.0704704126189846
  0.5727257380643509  0.8595977733686855  0.8561730025249326
  0.4999842251083563  0.9378747214125491  0.4977076513614817
  0.8603692690503810  0.8585576892942813  0.8583118016436092
  0.2095476265674674  0.6275518403611986  0.4951590816540334
  0.4418840679352231  0.7129279215636566  0.2706424717237615
  0.1426738924621150  0.8608283794034608  0.7176231849676011
  0.5079428661101585  0.4966777065605957  0.2096635689462311
  0.7882494984175396  0.0730598692856936  0.6419661718103092
  0.5848447208305614  0.8668672882787053  0.5698262395182170
  0.7153590672451099  0.0013903652545883  0.4264212995999882
  0.2868758328722191  0.0049487055863285  0.9982904578737228
  0.6483915933926653  0.9342101763010751  0.6435793426374050
  0.1431671255340497  0.0016610865493234  0.9999825136819173
  0.8571570464482575  0.4270902443838375  0.2851799797889639
  0.5762414286896937  0.8568246313610919  0.2877940256649669
  0.0010668628336763  0.2852935573866984  0.9997530509399067
  0.0001096071962670  0.2867904637280033  0.7124054882766367
  0.6489889839148313  0.6431291158138828  0.3573369873966861
  0.0701471742281137  0.6413493453887740  0.5029282519818320
  0.2146485439284033  0.0729032610063732  0.9308046707578093
  0.5738156130727881  0.4296442933978966  0.2859724667247956
  0.2858283281355742  0.4255410504699786  0.7184999074582193
  0.2134435833542516  0.4972636650290826  0.0688313172702101
  0.3574699618062707  0.0757175098803912  0.7872407956895725
  0.1455910157932614  0.0049283819252525  0.5709611089242979
  0.3542056021417195  0.9479724624067802  0.6584873697257424
  0.5064732244219607  0.0803894749638893  0.6471557226451637
  0.9989083420265891  0.1460175881877500  0.5712225068733140
  0.9298300770427348  0.7880961574966308  0.9295960930134339
  0.2146544655045614  0.2144301671366814  0.9282119170249928
  0.7866487855789339  0.0727015374031892  0.0712966872927003
  0.6514546335408973  0.7948782885594921  0.6451220449321234
  0.5047672802066175  0.0753982899423130  0.0697674839879087
  0.1454982357103944  0.8516841207035646  0.2691118846494581
  0.9989350217251038  0.4268169138301284  0.1410344396591561
  0.4317529126655528  0.2872940493635097  0.4300948288352977
  0.2843091128343291  0.7089651671361756  0.7225505346802914
  0.8590104507661499  0.2854027307167343  0.5726804769847229
  0.4990602332071351  0.9364430579108252  0.6434800350590653
  0.7879361444698743  0.7871218141064031  0.0690946878120811
  0.0729603855121151  0.2158287247376466  0.2123473331854450
  0.8571584044419963  0.2872963970986273  0.2861870810550151
  0.8567659822866583  0.4271114782821078  0.1413313095563604
  0.2142525237957938  0.3564105622227088  0.9285605609613848
  0.9290256169079704  0.6428065188967383  0.5005227177127173
  0.9991739085253544  0.0040061388331588  0.7160030994750485
  0.0726259661677668  0.3553399288675336  0.6437640821556453
  0.1457332717602439  0.1457800073068352  0.9991590509613897
  0.7852828799153191  0.9301006282098897  0.3574903366220356
  0.9988509248004436  0.7113958512142128  0.4325595294970204
  0.0721038970285210  0.6414127585051258  0.6435333337579169
  0.1414379600624057  0.5686154886850939  0.5737540969152034
  0.9978804238746657  0.8595904269129473  0.9989353159857054
  0.9973324279349571  0.7124413401365541  0.9983442160927172
  0.2393144744500190  0.7299182965804146  0.5268944626875451
  0.1478075282849622  0.0018270350588352  0.2919228120911856
  0.9279062000603866  0.6412523697229354  0.0678579448590576
  0.0718647376872856  0.9344551914495008  0.4953675758483810
  0.0641015787099450  0.6337442169205888  0.2060465018376358
  0.0698410249821768  0.4959484837235781  0.5039507609188419
  0.6454950046163356  0.0703955177161962  0.3564474218682558
  0.7867508601703090  0.9303080570167021  0.2146947623192499
  0.1354811293100239  0.5635146934273985  0.2814832050750255
  0.7184464563487093  0.5692623340451036  0.5736406649613917
  0.7871405060722119  0.4988629430823349  0.0685709461199462
  0.0000488722667575  0.4272917053500677  0.8564363220140310
  0.7878436243953560  0.4982307876807562  0.5005489746930620
  0.7178618341241155  0.5694028079556370  0.1398635402809993
  0.7884176198460601  0.6432500336866553  0.6440841558369418
  0.7875674616446391  0.4986042933635362  0.2137506496435757
  0.1427931275498228  0.4266805663245545  0.8580386932151665
  0.7178363020904853  0.5709911800575763  0.7158580030679642
  0.7161243928007308  0.1443211644716019  0.4281435626207605
  0.0713347195105525  0.4974904703111466  0.6441697595491331
  0.7882184848008449  0.3555384324256441  0.7855891666793806
  0.0008824359895582  0.1438563685843599  0.9999591211578835
  0.7875664559297583  0.6433822950246810  0.9266849715904393
  0.2164089447726989  0.6370415594839499  0.2232180869686644
  0.7880507342057317  0.7878114685081556  0.9268129361235242
  0.8583177714998084  0.8596867461433847  0.9987789977973007
  0.7164172571867449  0.1431136041040394  0.9986091444807254
  0.7870217786328384  0.4993580840247778  0.9267777698407088
  0.9292754547322538  0.6429057923385016  0.7862331208282020
  0.5769409929467748  0.5676752869813293  0.7160479139291474
  0.7169292748135357  0.5700419460357167  0.2852901448505146
  0.8569477549825535  0.5688395192132770  0.1398315852082619
  0.5914825154288207  0.7175777338476235  0.5794147564351747
  0.7877741552242733  0.4987493273216481  0.7854195354333741
  0.9994672494903644  0.5706350157448775  0.8565886307696168
  0.7167221301216276  0.2848106012762510  0.8565511075675371
  0.5035988306907015  0.6426302424025111  0.9259080058655470
  0.0005506242683455  0.0036165759062050  0.5707646502668459
  0.7872522127988799  0.4992264139629528  0.3569405439037505
  0.9288433265018569  0.4991017222090156  0.9275647413460618
  0.7878149672492241  0.6415657146157416  0.2124467085109946
  0.6457877840361704  0.7879474796699713  0.9250941071578767
  0.9963588697727029  0.5677245728575866  0.1380616629474905
  0.7175503451063389  0.7162215628106022  0.7141405041581986
  0.7879183367640499  0.7871753152989245  0.3570250679406382
  0.6454857491908580  0.4990002985983720  0.9259210778907452
  0.9983426695165266  0.7130168347304670  0.5736183296201910
  0.8581433433813717  0.0008022028897836  0.9988329972173610
  0.9294682283829186  0.2150922089478662  0.0710226109023344
  0.7875989693961384  0.2151072271806095  0.2141430978874639
  0.7880367501291126  0.4981636609417152  0.6441095602233607
  0.6454898119492133  0.9312140785508912  0.9254858633584746
  0.5729655490030008  0.7156245779262237  0.7102105072901651
  0.6448622240221178  0.6441550061723038  0.7842576571687496
  0.5006750567720630  0.7894831945961762  0.7807679739731288
  0.3876971876185485  0.8916846000189935  0.3115673519463448
  0.5735351998605165  0.0057144112932217  0.5717308728701497
  0.9281185581657007  0.0752429053672988  0.3572034126918721
  0.5753067943842206  0.8619018016380243  0.1394302847427321
  0.7182950925632309  0.7149769805482856  0.2846025550940054
  0.3656379402694671  0.9409692553255151  0.0609515889456798
  0.6461087222222877  0.9315893646229432  0.0690868397518109
  0.7172474674428688  0.0016294796474989  0.9980433661136773
  0.5757091665271843  0.7155890845450451  0.9955751644063153
  0.8578694345889988  0.7143012841979595  0.1395160767052225
  0.0678709111399098  0.7838858688194121  0.0692092671097123
  0.9926098360620396  0.7058193130505980  0.2784437746363317
  0.8581789780741886  0.4270606276928595  0.4287581205883463
  0.2840187711416643  0.8598038446328330  0.7307197965874425
  0.6483713925180472  0.7860861366712643  0.3582982964814553
  0.4553336619293489  0.6937698902733713  0.4337487089880596
  0.4347506649177705  0.4282756731370211  0.2803779279456804
  0.1423500592162490  0.8587902105271316  0.8596782401230707
  0.5788855040081192  0.5685606814747014  0.1376239489419593
  0.5762605944930954  0.5697815497370075  0.9959044565843678
  0.9282276405848057  0.7855651497214922  0.2121062780818682
  0.8576300485786084  0.1439601416396376  0.1423805256741527
  0.5822667358888873  0.7129581955711470  0.2777306907327975
  0.8573124697454989  0.1450950014251459  0.4292010247162903
  0.7167730871078835  0.2858761197275519  0.5713135579095441
  0.7175832272867309  0.4264780724730178  0.5717152233637488
  0.6433153720483012  0.3580501912464404  0.3571365620477118
  0.7160643343826401  0.2867526634813438  0.2858598813967895
  0.1417760164802395  0.7141391895240725  0.8592656331847101
  0.5044542631007225  0.2176109532136489  0.2124986471579612
  0.0703641706071042  0.7868213376298108  0.9298782165627102
  0.6510827128952690  0.6406414900415406  0.5040661069563169
  0.6481387987885781  0.6424496375736272  0.0668297766585089
  0.9300287214216427  0.7835908447679535  0.3554660543968943
  0.2874803277942614  0.5700732544092020  0.8574824152195535
  0.7879406532605935  0.2143605935180937  0.9278269356544310
  0.7879683859084022  0.2138892770853478  0.6425601178821838
  0.7164382764787213  0.1443055173539602  0.7144283619578838
  0.9999375956014531  0.5696561154434076  0.5731168586456210
  0.5763389256745394  0.1461651140535315  0.7159148656896228
  0.7154392872299873  0.1437589170590211  0.2851896205536796
  0.9999554883958893  0.4266949943021682  0.7144919821689631
  0.9987111945019141  0.8580976449666040  0.1415141907870156
  0.6460962071950141  0.2150236734421505  0.0708272747994842
  0.7169273208787964  0.2853973903791244  0.9989768364566023
  0.6461395594485912  0.0732559112473447  0.7860513180225183
  0.7167842023492486  0.1437863705920104  0.8562245009382354
  0.9298995937587677  0.2143524475758698  0.7845636631654951
  0.9290666821168373  0.9316614990958315  0.7863402667883520
  0.8585941883573251  0.0033275187227229  0.7147917360040512
  0.8578939712195505  0.0030889636729624  0.4282580760927845
  0.6482815305900743  0.7886316633566708  0.2117242610552883
  0.6451664424794730  0.2155050395116049  0.4996426032987988
  0.7172157385004352  0.8596492625843888  0.9973939205321466
  0.7169183145808676  0.8596692401669686  0.8554943767244518
  0.1422772662130713  0.7155368211980651  0.0001734517426442
  0.8590353305056839  0.7156915520509556  0.7155519193891767
  0.9992905246893685  0.7157109443636032  0.8575049223200527
  0.8596309662507176  0.7154997526778714  0.5724451876522619
  0.9302361477964050  0.7885177423670364  0.6437559864102170
  0.0639686216012686  0.7920813037521810  0.5103170534853603
  0.9283409088026414  0.6398165830027021  0.3577970807407496
  0.7879453986108762  0.6427605526165372  0.5009252592075737
  0.8591276575719601  0.7144737200144520  0.4290918730745388
  0.8579161122257838  0.7133476418293971  0.2843241075561668
  0.1436528132726601  0.4274501305343111  0.1411799963116832
  0.7876697823186318  0.7875171651045156  0.2128205598727206
  0.9299132000104754  0.2146326388611440  0.9278506549850987
  0.8587234304965570  0.5715600578079107  0.8562230351213125
  0.0708315597584293  0.6420676692316256  0.7870460110083872
  0.9293564581591330  0.6425197526580304  0.6443715772946348
  0.8581218918514654  0.5711618634678709  0.9974669588165481
  0.0002090617108223  0.4255482920270635  0.5733723766549066
  0.1442554446831064  0.1466328936216399  0.2846772664249960
  0.0739381859456478  0.0740149491857291  0.2155689131550189
  0.9949576405238942  0.0080792476363986  0.2805264594434086
  0.9291246485292532  0.9331914524930207  0.6444158389867970
  0.5754111521100453  0.4254677193004091  0.7161152493432077
  0.3606530281369938  0.2202320473339028  0.3554902349465067
  0.4321847206797710  0.5699225594148161  0.8564826231072972
  0.4311279691414643  0.4272721745558051  0.8570422420770216
  0.5795475359706163  0.5682455871483283  0.2809995702818591
  0.3598740648777696  0.4989289147854348  0.0692450962814600
  0.9283668929219714  0.3556472232919474  0.3572174400976006
  0.2818810224143003  0.5673338985398261  0.1374999962816962
  0.9994618430563456  0.0031834773752182  0.1420294631285920
  0.5763993025868617  0.1465051116405229  0.2835781822572337
  0.2786055147590120  0.5552070512052106  0.5897908037590714
  0.2131133251778812  0.6407353922026959  0.7888469744819361
  0.7882568572944910  0.6419705808415672  0.3568913926795430
  0.0677886452235026  0.4956034315681039  0.2105939289442440
  0.0699626992823416  0.4975621724768953  0.0698018240185091
  0.8583445441728784  0.7150827338862998  0.9979032624499878
  0.9272790218232487  0.2161905318433595  0.2138111407431504
  0.8588790666553178  0.4277801112288946  0.8559941909969312
  0.1444384504864255  0.2854201441981760  0.9996280725760099
  0.9274899516964913  0.4975059874313791  0.2126950553689350
  0.8597481998305053  0.7158365134521717  0.8568438970252782
  0.9995310577052554  0.1461946121137142  0.2840704322566187
  0.2146340704330923  0.2158525295395368  0.7878164561933052
  0.1429650445795023  0.0028406101530464  0.8588607503689245
  0.0712857373136368  0.3549309674896911  0.7867463078500244
  0.9285902629745022  0.9321819173916589  0.3566801458707215
  0.0724472473079410  0.2152587487891900  0.9289662194751545
  0.8579061720363289  0.8588361193654899  0.1411808111350681
  0.0000348358530340  0.8584912593565230  0.8574226117251470
  0.0005779561124938  0.8598973561498248  0.7158888578914809
  0.7882195462538635  0.9330037938713246  0.6428844748860159
  0.9978027647885762  0.8629143731523679  0.5743064027227006
  0.8592547616784643  0.8600255791625505  0.7153695888873736
  0.0707128161863047  0.0771375425456561  0.5024940680929725
  0.8581637908250380  0.1433291320692075  0.8567035647414349
  0.9288892761883587  0.9302322055395420  0.2135687885484345
  0.7862713240461683  0.0732224423495850  0.2141294365610585
  0.1301557380735731  0.8572533292293453  0.1411133844084425
  0.2165231668699571  0.0743759452729484  0.6425372826179522
  0.8590547724018642  0.4264263910971531  0.7144785681367598
  0.9295672988717306  0.4984182419414739  0.6438067333252775
  0.0006590313324909  0.2851634411816556  0.1421043605871813
  0.0728536255819335  0.2150460324074242  0.0709947925551025
  0.8582081905223700  0.1430734482979894  0.9992792445947467
  0.9296684604685097  0.0728371591337437  0.9280275200972727
  0.7875933283595773  0.0724540323609650  0.7854981027506943
  0.0714399435833145  0.2149312653999884  0.6432699567143599
  0.2860259305859772  0.4269090480884580  0.2824111653153923
  0.7167972948827553  0.1446232953809121  0.5705986742127926
  0.9988886502964585  0.4258782843384231  0.2848390362670995
  0.3630683308412879  0.6323863285783706  0.1922383035719390
  0.7867393338283293  0.0726786417354851  0.4999610430210712
  0.9294348050507281  0.3552448253224761  0.7856186157069521
  0.9279875106755867  0.4980823339484189  0.3566521883464731
  0.7171946963931102  0.8598767914883465  0.1416218996015285
  0.7869621079346455  0.2144279184427509  0.0713050959414673
  0.7161341505087374  0.0006172230377114  0.1432917862157398
  0.7178856566265881  0.7160004728887085  0.9969925713616213
  0.6470929056167060  0.7881822687075735  0.0679930088152313
  0.7883367208616194  0.7884192708044148  0.7856738683476616
  0.0007911246807896  0.2861381099315235  0.5721820160004247
  0.8586895677413920  0.5707618167247571  0.7153360827637040
  0.7883622533444412  0.9321863875363067  0.5000306083706025
  0.5768241884664115  0.8575095906557432  0.4304427246062391
  0.8587623193458856  0.8586614539839486  0.2851234773995229
  0.7868942442695424  0.0731408221629091  0.3566564517684265
  0.0008846933031534  0.8578085470214407  0.2837957192924100
  0.9284618594863998  0.7866524228758565  0.0688801420286999
  0.8570237743636518  0.0021406182636877  0.2847930095018961
  0.9252230205055376  0.6379961098840641  0.2103817357672423
  0.9291462265867800  0.0732857734210996  0.0707155654988151
  0.8585814292363115  0.5700840245563136  0.4293920030485668
  0.8586123371487615  0.4266213187750140  0.5728394051018610
  0.1432195926558600  0.2865562034374434  0.4286812229965338
  0.0005892307990840  0.2857860662084483  0.4292228525097069
  0.7875762672442274  0.3559549085969167  0.2135268465768306
  0.9976200009957767  0.5677025523655019  0.4317394984364108
  0.9292163931612800  0.3557428193834227  0.0703790198244775
  0.9277175112148263  0.4977133104459262  0.0688271730219142
  0.7879829431968977  0.3559902055705185  0.9271368599951885
  0.9998377198971388  0.4270457560485240  0.9987620948617446
  0.0720132648663447  0.3561557979999970  0.5005096768751636
  0.1436546524149870  0.2860492640963124  0.5711440117231829
  0.3596928598838162  0.6432982281289408  0.9280860609452126
  0.6463604697787673  0.4976553531851107  0.7868999311984042
  0.9295802891767584  0.3556367775638015  0.9278272809524903
  0.2152064923489864  0.4984114514259947  0.9281908976029157
  0.9288280014832655  0.3559549063649118  0.5002659523471735
  0.0677734485140306  0.4960938712994824  0.3556036896667789
  0.5054990779024500  0.3570141567560430  0.2117397972881433
  0.8574036584912162  0.2858978591497468  0.1406916558788409
  0.5044847460173932  0.4969320679587648  0.7872800361837240
  0.6456341386253516  0.0728970054330812  0.0711985800702441
  0.0011999896916837  0.1438152312882664  0.8571904994905872
  0.8585222269041928  0.2858582023468041  0.7135901328428123
  0.7872741818754150  0.0719032012314177  0.9265236545226746
  0.2146230764344723  0.3555146085160293  0.7875923092485225
  0.0715343550715876  0.2148751054877093  0.7854591173495784
  0.5045828898323720  0.2195590694238264  0.3553272280248759
  0.9279410112854024  0.2156991276129248  0.3566101532497375
  0.7874092853715825  0.9304457285419961  0.0701704768512507
  0.5730487390121130  0.7165706389163079  0.8534851371902037
  0.0698924312915675  0.9338574725090503  0.2139999824601873
  0.2152329699281938  0.7868116898773814  0.9315982851510738
  0.2854551522072165  0.7135746585829102  0.0024438883754976
  0.3593696243381766  0.7838076539625659  0.7923421906823852
  0.2862006816733024  0.1470013084632471  0.7168812028327839
  0.1428063463076879  0.4264164683466539  0.9990691643652847
  0.2145006815782271  0.3560212477188086  0.6446643826453329
  0.6470945298577289  0.4973964944170385  0.5002289831761608
  0.0717974300601049  0.7870594571715811  0.7862565478157713
  0.1421384344502023  0.4262371514091470  0.2837964766671638
  0.5130861763496067  0.7884218222608764  0.2072821274543591
  0.4929119531324838  0.9214552686104750  0.2209085315933862
  0.1447410272988235  0.1467070803143714  0.5712058142155814
  0.0702242819475777  0.0792509051417260  0.3552825507368261
  0.1432749371812539  0.4272513133192458  0.4285083727497265
  0.3558165205574834  0.6257776300945059  0.6524889582748609
  0.2083882848993646  0.4916445925072421  0.6493999242311927
  0.3583939778553416  0.4972104831429967  0.7870281405964149
  0.9307871921826721  0.7882376895545967  0.5008868781845187
  0.2151277025899326  0.3572580272389431  0.3563527847722642
  0.2873586265582809  0.1481265012675042  0.2829813884697970
  0.4386136246601508  0.5663331152952045  0.1347394932201544
  0.1422015647457192  0.5700390104187497  0.8577602307930896
  0.4304630179131873  0.4207413435289363  0.4296627434482699
  0.4482550513567574  0.7134506047251347  0.1367603049867560
  0.5211310326267345  0.7730031278709976  0.3586833075168382
  0.2695301423713126  0.6947322990455554  0.1331419588639836
  0.1433359879773964  0.4266148649705144  0.5707959397248742