Cr Fe 
 1.0000000000000000
    20.0899999999999999    0.0000000000000000    0.0000000000000000
     0.0000000000000000   20.0899999999999999    0.0000000000000000
     0.0000000000000000    0.0000000000000000   20.0899999999999999
 Cr  Fe 
 206 480
Direct
  0.5721751798367684  0.8563594287227901  0.8578968367711820
  0.8588332017441621  0.5719238234912957  0.2852424660611612
  0.0005416342721274  0.5721853225283580  0.1419309117291079
  0.1423683951806255  0.2861052346567760  0.1425571809264035
  0.2134451033729677  0.3579869314401298  0.0701459296563913
  0.0005044227494286  0.4286894780137953  0.8574623166654427
  0.0702405132654086  0.0699508934066128  0.0703296820797471
  0.2856904918181781  0.4288490936554437  0.1421448685530716
  0.1422241408527741  0.9998500450666644  0.7151682452312591
  0.2857077764925570  0.8562884860762551  0.1434637746107126
  0.6420814654505452  0.9271331527994756  0.9278768231868096
  0.6427703733625203  0.9269829039294241  0.7847912387964653
  0.7869965100585326  0.9287147956236949  0.0705476128731296
  0.6427441385260247  0.3575606890198625  0.7848804822812392
  0.2140712313823661  0.3577399506878348  0.4992241463958458
  0.3569076943068177  0.2142632715496035  0.7852351101763997
  0.7145047335580982  0.2849765154728635  0.4289968221637226
  0.5001545341338586  0.9277651411441624  0.0706121292255448
  0.0710878220711023  0.6439080404740645  0.5006729860833997
  0.3567983779927611  0.9277839165519802  0.0711728532449870
  0.7865659059647235  0.0714254445352682  0.4990116559275667
  0.6427887571129061  0.7858986577098438  0.7860745417195486
  0.6440375599215876  0.0712824384871211  0.0706674308919099
  0.4288599282912046  0.0004211349438636  0.2861975368929139
  0.4288173653302966  0.2861574502628719  0.7135055490023233
  0.2140701048775443  0.6448557951598226  0.6427841868384089
  0.4999030901662115  0.9274565882978699  0.9275770990372033
  0.4991237453953899  0.5000609799045901  0.5002062321340693
  0.4287917402980764  0.7142760779380568  0.4278816409052656
  0.2145601906155356  0.7852852581676240  0.6431559109095203
  0.9300366008496588  0.3567149778270568  0.3567016481353871
  0.7146976112807423  0.7149110015221155  0.1417276314740877
  0.7869815657597574  0.0708315755276945  0.0710071040858708
  0.0708746820783076  0.5011872711899379  0.2140690020926109
  0.7170879040666743  0.8575375295993816  0.7142293192470585
  0.6433979347421367  0.2139313923329514  0.6433578073119824
  0.7142563550398544  0.5715919346732370  0.8570784455557613
  0.4295218751907562  0.4314650493668981  0.8565797098335198
  0.5713438513277606  0.8566803882722948  0.1427279332347411
  0.0714404809970123  0.6428926676117086  0.0701566510674094
  0.3572295739401872  0.6443760786649424  0.7856981808182467
  0.7148354203292130  0.8570267812655559  0.5725235834058157
  0.6426284549923698  0.7856682211338345  0.0702817649910600
  0.8580893582842186  0.2840839434136870  0.2859997167159173
  0.6431735530140575  0.2136340221008960  0.2141733246022947
  0.2854027828845931  0.2867020420523731  0.1427750723679320
  0.4280830351055567  0.9988112021486174  0.9996583867327888
  0.5713722675294425  0.5715430296535213  0.1415813938743961
  0.8578984820138369  0.4282115550366697  0.4284348148175984
  0.4275306642019375  0.5719807576338931  0.1416691237314540
  0.2140244890469633  0.2138967732411759  0.6424801328757072
  0.2851429925945092  0.0010359672354732  0.4281094023764894
  0.9290598123533182  0.7856843666642502  0.0700460818301414
  0.1436485179921833  0.4288799808054848  0.4273154239918249
  0.2855236814960734  0.7140206081393562  0.1413435118695749
  0.8572415760293745  0.0005804602479389  0.9985110637991729
  0.2132022821164322  0.2145376579969382  0.0703047338593011
  0.2155099464961283  0.0707759911530354  0.4981423410391689
  0.8574144191035993  0.4270631202559149  0.9991801521963155
  0.2861472297593182  0.4297017699843188  0.7144840636298883
  0.0004247810932851  0.8565661098890740  0.9992872570614175
  0.8571529993288506  0.4282634506000153  0.8573155745196470
  0.7858213871687100  0.2145902576340805  0.9290652147483790
  0.4284623733000758  0.1426242929615463  0.5724265936652222
  0.6429337246469161  0.7862950096827432  0.6445415109671464
  0.2852994263565478  0.9993311926076216  0.2863100753319152
  0.8582245223017611  0.4284991458966385  0.1430789168112857
  0.9997515521670284  0.9992919855516125  0.5715506461428175
  0.7166235393138473  0.1431169998530141  0.7153705790398118
  0.0000869784756062  0.1419449095690715  0.2856418042017181
  0.4988391338908007  0.5004355119070368  0.2139066018695770
  0.8586662835533723  0.7141401709278398  0.2850868397260704
  0.5000237605963443  0.9258824171966037  0.2152806129553172
  0.5724810943954103  0.0013000421670850  0.7137227126149130
  0.2858888863737285  0.2861622724707398  0.7141240151085673
  0.0006825702010750  0.8560164842716554  0.2862751718755407
  0.3575229126921535  0.3583363445123942  0.9271873876419923
  0.7876511063127714  0.7857580955336847  0.0697765854821028
  0.3565380616124945  0.7851480283103464  0.0704497797354889
  0.4992390611763174  0.5006268033842329  0.0705470165054719
  0.2858620391260616  0.5723485505616163  0.4282177159874278
  0.7863800137104167  0.7859669134341618  0.2135497474145200
  0.8571495942595667  0.2846545294151928  0.7148568704918271
  0.2845562428141246  0.1426041163904744  0.9995801140733985
  0.4997314470259670  0.0703259673152519  0.9279605648991657
  0.9998522094856771  0.5712039641692562  0.8577254595294426
  0.3570385523833373  0.3568185017510463  0.3594960756766233
  0.9982028458142536  0.7149564352649548  0.5728610475293906
  0.1432847611776737  0.5711101938978962  0.0007699208385352
  0.1420369049061620  0.2871806150830535  0.9978509641400449
  0.9280576198822134  0.9275076655199979  0.9290171475146420
  0.3563615171713618  0.6433210043552751  0.3563842775088173
  0.0727105113528340  0.2132162170436439  0.9291347560755367
  0.3559119513684641  0.9275932650285323  0.9277772804258848
  0.2868078912121209  0.8567301630378811  0.9994038504449712
  0.0706365773941682  0.2145733428102576  0.7865923601366800
  0.0714281011431800  0.7856893537198278  0.2158769489037652
  0.5000518450380224  0.9285182089771329  0.5006249332081654
  0.2851124705376097  0.7142608329859339  0.4286009482306343
  0.8580146249307570  0.8572346265565488  0.1422222924212476
  0.7149807660579760  0.1418448706303089  0.1424175890387771
  0.2850448637275429  0.8566975470571594  0.5714382668833217
  0.7861881930430451  0.6429557066264655  0.6439535721872264
  0.4275778939633267  0.5721712925411185  0.2853483229811548
  0.2149388814311989  0.7860636086124526  0.7858187296563311
  0.9293267519959890  0.4991093107491276  0.0702197032533021
  0.3571663488244462  0.2139110885054585  0.4997079137254515
  0.0710829225903264  0.2137000759412053  0.2144566218827497
  0.7870307401688952  0.9280986036257767  0.2141851480920259
  0.2849505531912863  0.2865062479804017  0.9990316239703247
  0.5708830238844309  0.7148732723060319  0.1417260914637794
  0.0698792579302018  0.7851591617620343  0.7864498953630246
  0.2849101969621562  0.5726384432210191  0.8565020382933012
  0.6437915724652417  0.9279907192207347  0.3563581661868856
  0.7144185522229501  0.8562550017654590  0.2842763829692529
  0.5725445028174607  0.5697606095434744  0.7152447614219587
  0.5709425894307462  0.7142784565878503  0.8571920478888767
  0.7853016922808268  0.9258693440530803  0.7867349301167620
  0.1423870543337705  0.7148892874899371  0.4287988676534140
  0.0709628470321027  0.0708881704118258  0.6434977011440349
  0.2842699643267091  0.8580042246589789  0.7134284914124515
  0.4991435168557969  0.6437674559141314  0.2134246907325660
  0.4276764962993776  0.9987376902822107  0.8569440930549430
  0.8569130482551690  0.9984900721087354  0.7160882093480532
  0.5725861774543355  0.8568981095848537  0.9994353544828908
  0.5718886516329329  0.1420422862254865  0.1427455616795662
  0.2141162538618046  0.9275974578936359  0.9286870236083674
  0.2137835679547996  0.6437253971978750  0.4995851671083178
  0.3577362054358183  0.3582350249334100  0.7860992743692158
  0.3566288142159864  0.6435856807076623  0.9278416842321762
  0.8566138707724049  0.8563297623722623  0.5738517480160555
  0.4988117983250289  0.3579419991827230  0.3586070193277542
  0.0000168691754471  0.5726307891109872  0.2867510128230665
  0.6430405701930147  0.7871677289560083  0.2135903301461708
  0.5705821698076285  0.8556850454878984  0.7141852458876325
  0.1431861023620205  0.2858383016703915  0.2866419388103412
  0.1421447158578194  0.7160135732803964  0.8564721262212870
  0.8585107198909040  0.7142770230421689  0.1419437263557013
  0.7155573587785259  0.9998464810477149  0.2850721080304181
  0.0009213357534907  0.7142807804867612  0.1427138014884214
  0.5715213696592085  0.2863269909300517  0.9993295846866856
  0.1421150625469441  0.7154607473470769  0.0003262469472254
  0.3557663616369525  0.6432923226951044  0.2132205263396058
  0.0001155949956617  0.4286010948984902  0.5718994633992629
  0.1418640873425653  0.1421143135741555  0.1428686711897310
  0.3571067434570883  0.2142097656856100  0.2150244737410342
  0.2850017563105444  0.5719095421339551  0.2861882873776315
  0.2851158735160821  0.7140407076178441  0.2853667652907987
  0.5713289726712334  0.9992912575693093  0.1432822963267344
  0.5009708164317800  0.7860270025800979  0.0693182627877128
  0.7151137492304854  0.9994914710947723  0.1426819843918580
  0.4281804691866568  0.7135983277769889  0.2845175406948520
  0.2851347528609883  0.0003835984126015  0.5716263101714433
  0.6435290448757015  0.9279628042101278  0.0709764139910978
  0.1428893324595580  0.9998253925572694  0.0000422578844447
  0.7142958578321109  0.9990262315548181  0.9994307312970470
  0.6426180763794519  0.6435348613910726  0.5005044128446856
  0.3556867392801631  0.3574675679662287  0.0689274188991462
  0.0006569623648369  0.2851012475998243  0.2856340910094869
  0.2847090928902498  0.2860268187953598  0.8570957938391309
  0.2842229843435359  0.9997439313536378  0.8573168005466087
  0.9291746595458297  0.2148067289583658  0.6429963364449752
  0.7859496380778015  0.7867357918501490  0.3569889093406463
  0.7860198971184362  0.3582844494910162  0.0706258923588755
  0.1421345023787637  0.2867741809065360  0.8576537785569114
  0.4998069382602672  0.0715788353406884  0.5005074453688594
  0.8572313593857962  0.8571721609700214  0.8555506883565636
  0.2858201497307511  0.5729609671908660  0.5721047342483507
  0.0715152692113025  0.0705827356923476  0.9293658475517785
  0.9301120112856908  0.6424765973883834  0.3576728023695293
  0.5710972333202836  0.1422702085225792  0.4289584917065595
  0.7861973729429308  0.0711839078663041  0.6435893336305003
  0.6432015687340372  0.9281988478110843  0.6444454531630083
  0.6434684934462245  0.9276400754335105  0.2143410794952229
  0.5707084994543463  0.7154316913611725  0.7150996354225080
  0.2143396362850051  0.2138157351675625  0.4988879493848084
  0.8573147191729549  0.7149860289851389  0.9988826744101094
  0.9291213913939229  0.7858686008760535  0.3571544287783872
  0.4286824431671614  0.7144493033149384  0.1412806044184210
  0.5717667260709897  0.9993680705624283  0.9997054071078003
  0.0000185593142862  0.1421648486022568  0.4267627709485489
  0.8576253651443603  0.5731084863459764  0.7143055538135029
  0.5722968399019890  0.4295242554510195  0.7154235300701873
  0.9312050281333624  0.6412887240928744  0.2130269705064616
  0.8580567165907388  0.5716765230986330  0.9999186585965567
  0.7146542336695447  0.8563983811157390  0.9991722407573251
  0.0715163556875976  0.6444226058585325  0.6432220190204597
  0.7870286376704247  0.3586801794975954  0.9293112658193866
  0.2857890679568061  0.4291154861268636  0.9999440149752069
  0.5725735921763335  0.8562683909598993  0.2847813531177190
  0.2139138366562105  0.5013570895429116  0.4989613342021755
  0.0001336556986379  0.1423501280956219  0.8580581430509649
  0.7141659994666065  0.5719047181480734  0.5726113947886490
  0.9287631523359918  0.3578255454333301  0.9280286771313646
  0.5710209217037829  0.5712439072615185  0.9994767184762881
  0.0712714748952833  0.5017052752639958  0.9285825841857313
  0.4993699031880747  0.7858255031748603  0.2144192787162148
  0.2142552933035053  0.3582397872414457  0.9289497391601166
  0.7151536593223767  0.8572190028539300  0.1418118683693475
  0.6423382449180675  0.5001015066118957  0.3571340266708242
  0.2138594276729766  0.3580780337833980  0.7861870317585220
  0.3571305798552897  0.3570241933475408  0.6424483683496005
  0.3556251987977030  0.5020407951256244  0.3574976015720475
  0.7146125967518193  0.5711706838940968  0.9994345510409102
  0.4285052828714065  0.5721184779134812  0.8572935067502212
  0.4281594007363225  0.8564090798934485  0.9989917131564303
  0.8575334537759746  0.1422614533745945  0.8574714148508218
  0.5708757619388740  0.9997687719811387  0.2851018984401504
  0.1421002364325653  0.8562315047972319  0.9996711943839826
  0.2139691207733095  0.7848403364758382  0.2141123342117156
  0.2143088765541178  0.3579380466737521  0.2144630077375569
  0.2133206747546295  0.9278899286126523  0.2152014992159466
  0.1423593147875873  0.9986812277506606  0.1430171926684776
  0.8574354486073639  0.1420746590226847  0.2858560100825490
  0.0716356397040397  0.7850070145740826  0.0703168566624495
  0.6417585135229479  0.5002460569513856  0.6439212012545537
  0.3559858693362620  0.7859046714909038  0.9278116089426137
  0.0714986412355368  0.3575476540562724  0.4991571545789829
  0.5720780752918684  0.9988088050629067  0.8567744912602827
  0.5727693985160510  0.0008481307962977  0.5724012232177377
  0.1428329552763766  0.4290428366246983  0.2859935125274047
  0.3569114475869748  0.3571872449000576  0.5001886022037778
  0.8578797663792596  0.4286126761172779  0.5721856325870127
  0.2142602467423524  0.6419081496790889  0.3575811989468502
  0.2861546648442995  0.4293689551693123  0.5716996757981120
  0.3564635044084875  0.5012059611043346  0.9282073271910064
  0.0715190916317885  0.3574915979454398  0.3572854637284187
  0.5000625962892169  0.0705195807239142  0.3588473567337851
  0.4300828845856359  0.7164019636226793  0.7150789194274801
  0.1423306125660294  0.8566409402448991  0.8571193974248115
  0.1426720886458622  0.0000837017610712  0.8571822747158647
  0.4989038263903269  0.5014237373274675  0.9280333378671182
  0.1421498410454737  0.7150883805329198  0.1425455117587036
  0.2126037526160188  0.2138808219603677  0.9283341286786544
  0.0712146576286476  0.0711249381647377  0.4990060789987334
  0.8571137086602777  0.9994688558184390  0.5721117874015571
  0.7861555756315143  0.2136704420830581  0.6424664350802525
  0.5707631564168300  0.1417259675342914  0.2863120706448255
  0.4280899107217165  0.1425435348948555  0.9996128422448732
  0.0715212831071264  0.2138653204488064  0.4991235341888903
  0.0715572031927781  0.0709116498683604  0.3569089116915726
  0.7867075287485999  0.6427152511827399  0.0700270540673104
  0.2136908029099632  0.9275537596407122  0.3582707869197490
  0.4997027692604130  0.6435875542648132  0.5008049230106268
  0.2138168564554916  0.5009970249162351  0.9280351725569878
  0.1415482128323484  0.1416656455836561  0.8561099273103348
  0.2849797316129348  0.7139793844872081  0.9995086112913772
  0.0688530179242987  0.5026246135643744  0.7862920059344197
  0.2140173633051200  0.9279794757539344  0.6427389664445063
  0.0722184468600161  0.6424850692615391  0.9278144076514125
  0.8574358787742700  0.5734689383768879  0.8579410678712343
  0.4999949284649149  0.7858198111780297  0.5002591624823584
  0.4997668487681457  0.2140164242789547  0.0713976280763228
  0.2138182011486984  0.9274766648848335  0.0709035849615226
  0.1413772682858669  0.1417482566146749  0.9996206760412827
  0.4997839830387685  0.0708476156466800  0.0716785166566184
  0.9292711635855638  0.0701246885473611  0.2124319027279336
  0.9995512854104147  0.1417490010994327  0.0002653628322625
  0.0706475340860982  0.3571711669986679  0.6437295172555035
  0.6448149492138543  0.0711856274483124  0.6455053167677807
  0.7860930747463465  0.9279956501035417  0.5001846655877196
  0.2861005297705381  0.2855545279309100  0.5712064238201610
  0.9280912849994856  0.0715009437309479  0.4984890798180350
  0.5713940500485402  0.1427666154725696  0.7132699016531500
  0.0710637352617415  0.3573044738346827  0.2141529148880106
  0.3571354617958723  0.7851949832862117  0.3565359049913073
  0.3570097308419898  0.6441876355131252  0.5006008422669070
  0.2131661210002027  0.0708107380616122  0.0713372937046883
  0.4272329898138686  0.5727110701648879  0.0007035602762259
  0.9282483850994964  0.6412456185157853  0.6440703590855215
  0.4271105458939853  0.2865496227452708  0.1428095646774506
  0.8577905327758927  0.1417347244733750  0.1434896887723799
  0.4999949320186047  0.6422553170766105  0.0697331078098861
  0.4278533613505858  0.8567737496924309  0.8573963428956235
  0.2855773912304875  0.1425169130549753  0.7134920758511787
  0.2133895197247853  0.2140011825476657  0.7859845767059670
  0.6412914419434849  0.5016259735319316  0.7859423127817045
  0.2139459097768476  0.3577116878764514  0.6430342745142503
  0.2851055477040420  0.1427299670442240  0.1430013361207972
  0.7147820362866213  0.5711425354816055  0.1415718859804830
  0.4296946874784093  0.1418033705185003  0.4275401267469642
  0.5008768984196782  0.0696909438644522  0.6433967836913078
  0.0691227315671956  0.3571229054260947  0.7855580638390973
  0.5711958793476928  0.2859934296026813  0.7142279886490573
  0.1422768213270874  0.4293888609748162  0.1425153706573688
  0.3563663747715340  0.2144683118291658  0.9278508850823872
  0.2853910375626979  0.1420546138051702  0.4287243979519402
  0.4263302399245861  0.4289182635318656  0.2862775313752342
  0.2140749750353731  0.7856523851245215  0.5001220969914348
  0.5000895907617280  0.7854633145438137  0.9282775505614961
  0.3574538659988878  0.6453971561589270  0.6439723404873239
  0.0711480630440773  0.9280945357417700  0.4997679760534409
  0.0000609723067889  0.8569804298257753  0.5724639801320260
  0.5000489752309918  0.9275701144981099  0.3561036450917599
  0.0718669383431509  0.7858264273682414  0.3572728869311578
  0.2136303709536496  0.7856278692693915  0.3577768749323713
  0.2851364875029955  0.4296774826769906  0.8572106380106731
  0.9294573167819551  0.3577853274633214  0.0711295087966934
  0.1416915752087526  0.8567571483201114  0.7146878152146938
  0.2144341998183717  0.5016283718631891  0.7872957807467836
  0.9996022977383205  0.8566319609067948  0.7147390261902755
  0.2118990343650948  0.6429370193300009  0.9279110145968728
  0.1425470505914078  0.7146382170032677  0.7150954778626404
  0.1427157451796215  0.2855103418147368  0.5711691305909781
  0.4992452260920334  0.0723913091795987  0.2131510973546870
  0.2136596589918393  0.0713618081603277  0.7856819793978945
  0.0721303800573459  0.5002142867847584  0.3582002762391993
  0.1431254070166815  0.1419565750758352  0.5710938374289356
  0.0007196449151564  0.9996927633940439  0.1423181794592179
  0.4995760190085958  0.7860611976795158  0.3555373231295901
  0.2848680628718803  0.5726441016560094  0.7154868346242972
  0.0716504138967875  0.6429031719397014  0.2140475572571081
  0.2854575376463277  0.2864498948481223  0.2872389684077035
  0.1425636029680766  0.7163109366560637  0.5700948188759657
  0.2849317872692638  0.7154198296095752  0.5702458089775094
  0.7864752804519239  0.6432104077606994  0.9283903359368461
  0.4993610755282665  0.3578357976612758  0.0706200119102525
  0.0000588695841616  0.8570116312389691  0.4285180567908132
  0.4284552756410088  0.8568903304585763  0.4282953227954116
  0.0707078963750960  0.9286552724734385  0.2152485736390745
  0.5717617158489393  0.7150502908920496  0.5723912362700956
  0.4993291618803148  0.6432045766735678  0.7852957051321744
  0.2141617008330637  0.5015151823893097  0.3577870721116907
  0.2848854379927099  0.9998009578175490  0.7145606283936842
  0.3565018880981079  0.0711546468393468  0.4995602250454014
  0.1419876502949499  0.8567854748960885  0.5717646628888913
  0.5710529362807354  0.2857153639113360  0.1423818110086783
  0.0714210609137980  0.2141075222174819  0.0705710311422740
  0.3562607310488558  0.3577665220309841  0.2145504783855941
  0.9292160929428563  0.7853263780565649  0.7864200115993227
  0.6432434662128822  0.0706118477621828  0.2142698376003573
  0.2134304288181630  0.0707807874153841  0.2148064813132688
  0.1422756630784248  0.7146788281994408  0.2862126360372796
  0.7148810876732111  0.1418122465274540  0.4275506046292952
  0.9293032311697923  0.7863640309941754  0.6436048229863031
  0.6429852453379947  0.3574969128830459  0.2136174799685597
  0.0004874667461061  0.7146842414909812  0.4285747519622659
  0.7859576252474022  0.7864067368352297  0.5007230297186982
  0.3573122566019156  0.5016234774036272  0.7860707041477555
  0.9992091564438934  0.0008796266746377  0.2869932833509675
  0.2137864280645300  0.0704600431294607  0.3575261646324595
  0.0002490994551472  0.1420623242072888  0.1420518751924712
  0.6428133641808784  0.2135318969533670  0.3575638186754963
  0.2846374099933274  0.9995006420140096  0.9992481314804454
  0.4990829097065723  0.2135953301108317  0.2144971699627841
  0.3560587441881296  0.9280580729343919  0.3575700357067398
  0.8580790429960673  0.5724890830448237  0.5715869730833777
  0.4290336885458423  0.9988711678866977  0.1437907664904048
  0.4288769019763196  0.1421022955968183  0.2873221392970705
  0.7862402939588826  0.2132437180227673  0.4998345918082927
  0.4998975151796269  0.0704617549773025  0.7851612063122454
  0.0003124554781717  0.2850295048695983  0.4281124949147772
  0.8574932218185496  0.7145883813376007  0.5730441417217066
  0.2863142568337104  0.1422933058442152  0.5712393923985138
  0.3566511435180162  0.2143794224405216  0.0712465435264661
  0.0009891184271677  0.4290394869706653  0.7167867166189347
  0.4282281493335006  0.0000873896099893  0.4285008844524888
  0.2855860858642500  0.4291927786085082  0.4280447127063732
  0.4273657965293162  0.2856932608116883  0.2866253493044575
  0.6422801505436736  0.3571077969184555  0.3575897302814616
  0.4282414168329050  0.5720184975082493  0.5723845241644587
  0.2857417093645120  0.4288660376380217  0.2865326825891563
  0.1427640062297256  0.5723540706651636  0.7153957300071194
  0.5699990334294439  0.5706592111793559  0.8570775076970301
  0.4278819633762004  0.2866055441230879  0.9991954252020727
  0.2849907260436879  0.5726457792553959  0.9995225537835011
  0.0708891839899931  0.0698038805683922  0.2144789128883138
  0.4992573803715247  0.3581684962162701  0.9273082564119863
  0.4267737353997113  0.4290510945115545  0.1421223571601265
  0.9286404117974261  0.9280781144111725  0.6441994050171819
  0.4281800567991220  0.2854983338551539  0.4294534308947151
  0.7868157702516364  0.5008821075790567  0.6439588046109502
  0.1432331470576431  0.2854974919847369  0.4277955761367139
  0.7144474389885681  0.7151708547381284  0.5719537997187916
  0.7136738766185619  0.4282930110112581  0.8570279976413490
  0.2843230388931924  0.7133203761222665  0.7163287465251368
  0.0717136877355082  0.6433281264362025  0.3567446460444850
  0.2851126872725840  0.8563984624154481  0.2856651411096408
  0.3558462837970440  0.0720052698368923  0.3591722653860991
  0.6431350908285338  0.6433175707943742  0.0700287888829648
  0.2856166930252500  0.8552742333754769  0.4290149444803786
  0.2135980353775270  0.3583611239089400  0.3580336492597460
  0.3555021849519803  0.5014399271133051  0.2135473429112155
  0.7149893439675009  0.2875924267424345  0.9982139106177894
  0.8581507253254047  0.1423852383696302  0.0001166143457861
  0.6409250987665458  0.7851527068595785  0.9288156584351145
  0.8564907893066022  0.1441105643111691  0.4258515761300740
  0.7143069749692005  0.5720719150406829  0.4287043577844071
  0.7146357510548087  0.4284045069599832  0.2852338820860122
  0.3572606534279915  0.0711087021885756  0.2148866797320521
  0.7857859226687379  0.0714925158798042  0.7858115687671580
  0.2111830538032450  0.0717117828237049  0.9296729380803179
  0.1411151185206495  0.8549166103727377  0.4297756482932376
  0.7148495551899265  0.9987755882578269  0.8566388603602118
  0.7869048083959077  0.6428776848548304  0.2131102076295105
  0.0709382928905712  0.7848926225248243  0.5019811145234426
  0.4274855683395495  0.8575056850072372  0.2842385305528056
  0.5716255199711752  0.7155655273468279  0.2851508128707660
  0.9998981222217832  0.5719457184923821  0.5719822714154807
  0.2141255437585699  0.0705771815163990  0.6426369888823380
  0.7869252139673341  0.4985054098877810  0.0700408091183313
  0.6425651830311679  0.4999278189324535  0.4999726137982299
  0.1422922817301249  0.5719462352435388  0.1421110358020575
  0.9995765693328610  0.0003746868013063  0.9988255142317352
  0.0005455643280013  0.5720634297470437  0.9996279522249503
  0.2843237635909165  0.1420452194526137  0.8568450027299311
  0.7144771815472098  0.4284730532166459  0.4287416940031397
  0.4288006462874497  0.8560530307116646  0.1425278948456996
  0.3563993481805296  0.7848093246607758  0.6442014883207989
  0.0714928634554794  0.2134794508367248  0.3571912419887333
  0.3569467502539411  0.9272942642146279  0.7858633170558371
  0.1426480293134020  0.9992589371628283  0.5711462997205621
  0.7855998212663424  0.7860767792178095  0.6438253748478520
  0.7863647779877974  0.5003755233675585  0.5005884420432932
  0.6423415473628010  0.3570746093924784  0.5007161450852314
  0.5717934115651051  0.9996854911471312  0.4287193061943980
  0.7856434361021246  0.2126737431609090  0.3583756243839469
  0.4283796475745885  0.8568837534160899  0.5727478053097516
  0.9999465062271889  0.9992553204699800  0.7156773025201858
  0.4996650633100286  0.3584673106860095  0.7857618845183741
  0.4989444394450930  0.4998749590789911  0.3576455085337499
  0.0001141242859649  0.1424785938567036  0.5712743096243708
  0.9307709252787951  0.9260918088559916  0.7864801906982666
  0.7145333286346850  0.2870144309047934  0.8574143086212093
  0.9290909959339976  0.6412731523380064  0.9284076257779610
  0.5004761218051168  0.5020216452719788  0.7845502771583931
  0.2147989359958531  0.2127137580578131  0.3589387986402357
  0.4994239846858052  0.6431822410139767  0.9283287341484286
  0.2140329724661588  0.5011713760126268  0.2138281476656071
  0.5723219637514840  0.8569395949111419  0.4282819480036362
  0.6430783100995029  0.2135636316431923  0.5005098026429975
  0.9302005012095464  0.2127790409554452  0.3572194869899168
  0.9292307137204144  0.6426924954833023  0.0701156275111156
  0.3561325582844814  0.9285781464521814  0.5003372982643811
  0.6434719076380567  0.0705024187495860  0.3573327333288508
  0.5006667179141907  0.9283652577596486  0.6441253340745853
  0.9283466942212532  0.9282258398630736  0.5005229213766064
  0.6435200128933621  0.0708400037537051  0.9281311857552721
  0.2140817324662841  0.5014649844419915  0.6434620613638133
  0.4998023934813919  0.2144799751508375  0.9279427714316894
  0.6426296520263490  0.3571167229170683  0.6433242558326572
  0.8583376992855670  0.4284960899049944  0.2851427752967545
  0.2137723590609177  0.2141713156371731  0.2146221646357732
  0.7133427730896700  0.8564377646275183  0.4291686656438576
  0.9298014293500734  0.2134225363224944  0.2140838967106058
  0.0715595509751762  0.9286101618622089  0.9288210322421621
  0.9291109660628241  0.2153567222648584  0.7871201759233692
  0.3570480869262367  0.9278251166670138  0.2147741650001500
  0.6427699936660030  0.6434007759624818  0.2132294442781084
  0.4990008091222245  0.6438641174294994  0.3563933262702353
  0.7140827780241092  0.8565034988644937  0.8581964482849400
  0.6439692801040533  0.0713766555892493  0.4988342197505555
  0.1427467200645377  0.5718267970563913  0.2860331241811805
  0.5722042611166686  0.8571858253705456  0.5722816301349880
  0.5707606197586114  0.5723189032455526  0.2852810809935953
  0.0715142263534432  0.7837550776916099  0.9270304288822371
  0.7141401350591302  0.1418519137919502  0.5717955027585836
  0.6429716225316912  0.5005253362827944  0.9278040927204397
  0.5708552222636031  0.4288007665787415  0.5722321960533908
  0.8585983578473161  0.5710679593661602  0.1418534518331726
  0.8564738239541742  0.0006385571297192  0.2846244708219652
  0.7154485642397441  0.1415773412005667  0.2860785023870875
  0.2857625725086609  0.1427611909144796  0.2868868350141626
  0.3555919441974144  0.6431905195721975  0.0712171094976584
  0.6440095376113760  0.7886027774800148  0.3556292499373872
  0.4281178528947800  0.5724149269482158  0.4281044999641492
  0.2129893706184665  0.6436198897379622  0.7875984583807888
  0.8570658568027082  0.1428219519942263  0.5715114907964166
  0.9293713792538193  0.6423934943295153  0.7862001737160669
  0.7146949952713233  0.2849781028310113  0.5723689293328297
  0.5704316537846404  0.7141606953430862  0.0001050320482265
  0.2142675501977299  0.7859867142587288  0.9284982964084763
  0.7859742888841712  0.2137160560369822  0.0704223051314220
  0.6438511246834469  0.3577208087967441  0.0705819920948604
  0.0707723301087300  0.9285831803632260  0.0708701817174021
  0.8581551229723432  0.7141268986044778  0.8574522584091817
  0.3565296492742528  0.0707711999222897  0.9279834065299908
  0.0717094887495973  0.5004117749069865  0.4993501663780497
  0.7867058609968648  0.3573008039124591  0.7866976799131884
  0.7874250747235874  0.5001613669377957  0.9282705798592252
  0.0005349495122213  0.2854185733251591  0.1425627469566462
  0.9992145230898158  0.7145070192354174  0.7140012727656471
  0.5720945232195714  0.1416979442594910  0.5723401738219549
  0.0010996882509720  0.2854239772563623  0.5704882206475952
  0.7141760520133607  0.4287218765684379  0.5725368535935892
  0.7144218008065155  0.0000980615952635  0.5720585634673151
  0.7862073560541114  0.3563586562837551  0.5005750383289405