Cr Fe 
 1.0000000000000000
    20.0899999999999999    0.0000000000000000    0.0000000000000000
     0.0000000000000000   20.0899999999999999    0.0000000000000000
     0.0000000000000000    0.0000000000000000   20.0899999999999999
 Cr  Fe 
 206 480
Direct
  0.9284112637284834  0.7868839567934417  0.9292223886443429
  0.2132135450932751  0.2145203583703130  0.5009851383113129
  0.7866668465774843  0.3566260745279373  0.9290522781443690
  0.5704930491101445  0.1443236015454151  0.7146768951350395
  0.9991355407502650  0.7153207540027021  0.8575816876369481
  0.1425641394415399  0.9998127578393743  0.2864186481815615
  0.3544378404251743  0.0729083728825617  0.0705580448085513
  0.9303891759778979  0.0715551037896902  0.0723992144425913
  0.3572433126819304  0.0718096971142603  0.4999544778607293
  0.7146141129386269  0.5723199620366527  0.2856372840057746
  0.5004669946498769  0.7856700746930276  0.3574740523923139
  0.7144819328718497  0.0006265869633429  0.7145748154736913
  0.8565683471191187  0.4278265479954744  0.4283825910973141
  0.2869267668697053  0.1426545955222961  0.7153895058444233
  0.8570070215308079  0.0002795588088466  0.1414399092789773
  0.1421713678524654  0.5714028274295955  0.2848328155861442
  0.0001544333938604  0.7149657650692777  0.4279701063189282
  0.9288731393313551  0.7867291047164197  0.4980713551292127
  0.5684521344668908  0.8568732625207985  0.0007893171906519
  0.6427974767600716  0.6410636395023441  0.0709315189457430
  0.9990998245024947  0.2854863463032336  0.7138264292875204
  0.0707813201780127  0.5016896720191728  0.9303037692735776
  0.8590062236692039  0.1407534001223976  0.8577047027140586
  0.6431476488708872  0.9282365590569018  0.0713156841268884
  0.6432258859418895  0.4995655901248415  0.6428557045234717
  0.7140733861730094  0.5709574381566306  0.0002633116872185
  0.7147992123553601  0.8581391956536185  0.5706359377084295
  0.7853463474498362  0.5001816006718992  0.2141706269803214
  0.5710381345936035  0.1433794848736765  0.0004634689017830
  0.1408912683862721  0.1417461148416070  0.5710594512387527
  0.2881928370040230  0.8568913051044876  0.8578707822330007
  0.9287144267488342  0.0709078029114383  0.4999785973588703
  0.3561827864579903  0.3570744692368409  0.7863655679282502
  0.1427977744522340  0.8580023100847997  0.0003313582382922
  0.5008932337840282  0.3569210889794120  0.6425856942507097
  0.2849439421453974  0.4292376156600640  0.9990360287854380
  0.9279805078885942  0.0716235412957367  0.3564351762933541
  0.9991264303277382  0.8574253266975619  0.8575585835756184
  0.8573558803647030  0.0001735232834593  0.8578311191164868
  0.9279903528069223  0.6427183427769370  0.7865319548537449
  0.6429028934009602  0.5004687043832617  0.2139804908920538
  0.2147053575323442  0.7866339164221801  0.9278796898480238
  0.4291405896057828  0.0011865861774327  0.1423097663901195
  0.5720956306979579  0.4269281038266056  0.0005252318385296
  0.2144976576912344  0.4987449488239744  0.7856634294452570
  0.6428556578161911  0.6428584237797229  0.3577385873343533
  0.7856993944420395  0.9279678836615345  0.0714398688146979
  0.6438658588713632  0.9291367399298648  0.3563476501511552
  0.7863293830368667  0.0715818767818639  0.9274654160208280
  0.6433151243470324  0.7855549358524812  0.3567561933452050
  0.9981891720577939  0.0003209915160269  0.0019907723799965
  0.8560219412586688  0.7143939492984123  0.4285485222015998
  0.8570170378326355  0.0013632845173494  0.0003850624050130
  0.7139577894995371  0.2865000695572996  0.9998776980679278
  0.0709080418944363  0.6425987101957373  0.6429587445788941
  0.2856877416957420  0.2850564552086316  0.4289091461916036
  0.2852919132161100  0.1438379893973779  0.2870479082539302
  0.9277070252631633  0.4985480858817450  0.5003832150421402
  0.5714206010128299  0.7138955222218567  0.5707429670518086
  0.5011844784345754  0.7846390180286229  0.2142949224403288
  0.4286182460080389  0.5705193020218874  0.8573156877049463
  0.6438823587728340  0.0707207965780919  0.2149196870387377
  0.7139563023035695  0.0015933391537427  0.2851912609387380
  0.4280081982035575  0.2853357743633624  0.8561414316187289
  0.5002610404154914  0.7854639156337696  0.9304451677155514
  0.0715811080102760  0.0717638321481654  0.3565860239252674
  0.9274173303795710  0.9285139014493697  0.0702161374994645
  0.4283557309693446  0.8580931137288594  0.5714278596586067
  0.2143616258334558  0.0732134807651209  0.6427043917820370
  0.9282424707099675  0.6424541557954953  0.0708787924039981
  0.4281613603476958  0.2856496134221778  0.4289573898362808
  0.6433728867007960  0.3572865309304205  0.2148649724107472
  0.4998478367152601  0.7846938765590066  0.7849340226552296
  0.5719247961896461  0.5705948755267338  0.5705268462819670
  0.9284054939507052  0.6441127766028794  0.3564745315608829
  0.6431618578263154  0.9294289852614910  0.4994073758238729
  0.1432626778802724  0.4269820703502484  0.5715134140530633
  0.2859647334409123  0.7149835578855017  0.4290711691453448
  0.2858678567970083  0.2858574274022993  0.5709681877581667
  0.7143670035522118  0.7134253990422166  0.2859162580488595
  0.7860941164178222  0.3560804121355674  0.6415265161550960
  0.0718449942302084  0.0718207975678395  0.2147701588019479
  0.9993014048421256  0.7150771582565685  0.5709785869212309
  0.2861225412444792  0.0000379842524085  0.5714172544764978
  0.5713033757303992  0.4282417327222911  0.7141391842286814
  0.2862849550682667  0.2858442733132754  0.7133572768407085
  0.2865142778222383  0.1431874420860673  0.5701390516346647
  0.9299922735158105  0.0710560106330991  0.9293459913532106
  0.6431184350311123  0.3569978891103955  0.7858237072417409
  0.2864687439562716  0.8602331739833387  0.4290792835746927
  0.7149053670680271  0.4283698798557585  0.7149014748793604
  0.8567278066289619  0.8570112744661917  0.2849840208134028
  0.7865837789382460  0.2135944567036823  0.7861924234525232
  0.7859786004187159  0.2142605699706070  0.0713531880003346
  0.5723329092158874  0.1409991102518094  0.2848302882647419
  0.8563943964267956  0.4277548619951755  0.7144198232879817
  0.5005219629264887  0.9276856248727303  0.0717473662519754
  0.4286173553696881  0.1433278542675667  0.2862413983963751
  0.9994323423293565  0.5709039370336518  0.7144654979849772
  0.9995820822649304  0.2857895695323165  0.5716155321548119
  0.2860767556718978  0.5703847066736329  0.5721684206223689
  0.2140974631210345  0.2130948227807923  0.6426000500002841
  0.8570658798049459  0.2860325846178656  0.8558222877982936
  0.2855249509018771  0.2856897014097303  0.9998883288242767
  0.0718137471720059  0.9297736959741548  0.3569685549496538
  0.7133334261943050  0.4279030862711752  0.9995764038864979
  0.5001306012646184  0.2124225336217947  0.6421588497152142
  0.4996834604667005  0.9305123230106781  0.7851635622081947
  0.2159303454197253  0.3558758641624326  0.2151223521112599
  0.2142071388839766  0.0723983175225202  0.5003255329665256
  0.4276915544220934  0.1436861006545591  0.8570821709991343
  0.6428238157253658  0.7859371613895764  0.6417851644598633
  0.7150642816445005  0.0000254267050899  0.9999959104262767
  0.4288406587922301  0.1427914525504956  0.5712930856753965
  0.5718525679412574  0.5714992565990028  0.1425066569044691
  0.8578703081284129  0.8580439910973550  0.4284162461449839
  0.0712369325762783  0.7867047504483456  0.7865183829184266
  0.4999890859571217  0.2142175555571043  0.2146091153304097
  0.4295178082425110  0.5715372436263511  0.4288537219605826
  0.4287337873335614  0.2860147783754426  0.5720340657258935
  0.9280971615130869  0.7861993223085371  0.6424942678377007
  0.0712669908507298  0.5004878024071081  0.0706619037864293
  0.4287220090681599  0.4278607991201289  0.7130395929753555
  0.9994836144567582  0.9993702241320861  0.2857898395314614
  0.4996235001192997  0.3581265436462808  0.9279299849519889
  0.0002355125183729  0.4279166036283680  0.8582236070894801
  0.8576924423022918  0.8568222845646770  0.0025327495518996
  0.1427097785560889  0.1432819369295447  0.0005980236774056
  0.7137077743668486  0.7141543921766853  0.8580992732627666
  0.4996677328527763  0.5001560848365202  0.2138134949897749
  0.0000485166610434  0.2850810497675937  0.0004671731249917
  0.9275695768806982  0.4991723383471748  0.6422178997610333
  0.2149577461870384  0.4988513708445176  0.3569861124551452
  0.7138102167000610  0.2847343701930213  0.5708439444724189
  0.0712112201149998  0.4994925529335437  0.3565616921770067
  0.0707953383358548  0.6430264691752819  0.7866846448969997
  0.9995653234252551  0.4284508475035478  0.1429759304506698
  0.7146969374675003  0.5730907617967509  0.4279309645634455
  0.8571315881352297  0.2853267733211297  0.1431842049804697
  0.7860924757152954  0.7866403791259048  0.9291578728320535
  0.1430272225345949  0.1432733781646135  0.4281692766594521
  0.1430325415035824  0.5703606924405288  0.9993703369801520
  0.7861637502407310  0.3556683954150600  0.7859973006489915
  0.5712049596526102  0.0006829325455027  0.1431452765704468
  0.9279362222240557  0.2139011519410328  0.3566540404433427
  0.5728158648025230  0.7118787999778312  0.2862492044534867
  0.1429078330488330  0.5706205413490545  0.4283260912000987
  0.4287236178288631  0.9999042677637473  0.4282423838269740
  0.2861903121528483  0.1418866347179921  0.1435158349493181
  0.6418696162250198  0.0726825949203708  0.4979255757094809
  0.2863367316216184  0.8573408509885596  0.1421975764084461
  0.1430328960128383  0.7146880652088763  0.9999543170723578
  0.5716506210811544  0.2856584730122537  0.8563535122806797
  0.8576077406958650  0.1426753440342879  0.7148630115781462
  0.7871477399444774  0.2143379548540580  0.9280315593135288
  0.6426350733451630  0.3592403995127121  0.9284537489573306
  0.4995178879096494  0.3573421406389825  0.7859086262579430
  0.5005323964187584  0.9289801567839856  0.9288871437486210
  0.7145084251839141  0.2851354730966590  0.7145920224350698
  0.5001037672982999  0.0726109106573388  0.2150625744802769
  0.4994280236485500  0.2163249387520321  0.0718391629135051
  0.7854105568885500  0.3569788357899825  0.3571869241569269
  0.4290818770285992  0.8574340760566279  0.2860433616246759
  0.6418263935073713  0.4992198021569456  0.7862299631571424
  0.1425414416847864  0.0005867848643149  0.4284253740001654
  0.7154150961804300  0.4279971289463834  0.4286655077643512
  0.9284937202893567  0.0708208055200877  0.7869467032417442
  0.3564356440646690  0.2135456240991702  0.6425816683520683
  0.1431026602772222  0.7145553583337387  0.8573593755646215
  0.3546524435887348  0.2154126467409834  0.7840874170451995
  0.0708004551493845  0.0715394546039999  0.5002235358322525
  0.8566409742751273  0.8571920565738851  0.1425939742633352
  0.9289802706280507  0.9287736221153711  0.7883235345903337
  0.7159510286979688  0.1423740186764899  0.4295231544916738
  0.9997360004276139  0.7126502745208162  0.1423390692403805
  0.3573551653981398  0.3577245901487452  0.0710155301672633
  0.0714999901836283  0.2144143308819204  0.3574000210200191
  0.4296722486404654  0.7163500908471434  0.9993128449727664
  0.7860547620213560  0.0703401606114299  0.0731673307566478
  0.4279034299224533  0.4285384092492014  0.8562166776058856
  0.4289818091106294  0.4289979066990920  0.9995319162664936
  0.1426070488127013  0.2849986855853637  0.1432163217079060
  0.2849734526440273  0.1434942594765422  0.4278962860255457
  0.4998119578100195  0.3572675764195731  0.3578853286767972
  0.5730963604175306  0.4282628418975813  0.8564277574135275
  0.2127745303723635  0.0716532707916470  0.3561020077910860
  0.5005578693901915  0.2136784877680914  0.3577854491119333
  0.2150477452183426  0.9283302404593221  0.7857227405044148
  0.4279726104560760  0.9984621125608985  0.5695976948532366
  0.2139033516053503  0.2169256843936687  0.3578375217728089
  0.6434945910007168  0.7853967207439789  0.2145822199443254
  0.4281945013729672  0.4276836578686787  0.5726514496876944
  0.7865807033905479  0.4997954794252649  0.6421667012442418
  0.3558744769168561  0.3551603916657118  0.6438884043776113
  0.0003201536126686  0.1432310344017274  0.2853513859977941
  0.1440643586917230  0.1445629367627215  0.2868062942131430
  0.9994824575411220  0.9997542775152644  0.4278159950407711
  0.2873030872602183  0.7141404523346659  0.8566290230373591
  0.0717513255648132  0.2136465767645039  0.2151482999997369
  0.2857694040504767  0.4272691404199346  0.2844165702561835
  0.2867802412903816  0.5703978273082323  0.9990436045457978
  0.2140589175308267  0.7857066144463531  0.0710651563847936
  0.0715514729294508  0.3568219748799245  0.2142491800593726
  0.5705079270869885  0.8579254052103222  0.7147993785077368
  0.9996669886849859  0.5721368631898121  0.2843005792519596
  0.3573806693370655  0.0716012456937159  0.6424402587783199
  0.3575816428300966  0.7848127779411853  0.0711155660333133
  0.2874156610809888  0.2840048383561727  0.8575725086590351
  0.2856642123918651  0.8575847184126248  0.2863310182853269
  0.2146843718081557  0.6425941490664093  0.7858286092775808
  0.8568915969295443  0.7153425647905458  0.1422300959139218
  0.5717034127442914  0.2853604708156840  0.2858470884060148
  0.6425515638284015  0.0708968520447595  0.9283156301404023
  0.2151490363810690  0.7874024637232038  0.7856249934777451
  0.8564247687522807  0.5705387829331366  0.7158562555360115
  0.3571208585851612  0.3571400704496267  0.3574194817647766
  0.4998910648660204  0.6410395042384269  0.7852129140720461
  0.2140838775077047  0.3562895962358594  0.6433240971523292
  0.2142379709646579  0.0718571054497290  0.7856703985906219
  0.3581532298377202  0.6415680334549035  0.7852627741617765
  0.1416262864395264  0.8577851453064849  0.8571705315549881
  0.1420071689913129  0.7150990944069421  0.2861238430328291
  0.3585054052031356  0.4997279001651306  0.2138959520458578
  0.1427676735510530  0.4277891405795511  0.2854370883502004
  0.2157491173592172  0.9298578487252587  0.6433818899008239
  0.3578206808449970  0.6423312417965141  0.6427825293046795
  0.8567307924613727  0.7148308235982654  0.5701977710265151
  0.1411403094647222  0.1422110790438512  0.7138667870518356
  0.7138960423720784  0.8563026040292455  0.0007514712440792
  0.3573827035523742  0.2139328433955712  0.4998062325594945
  0.5696393839888239  0.8573568710014322  0.8574630445184028
  0.9997770759584946  0.4281381514146868  0.2851117921267596
  0.2148180615035287  0.4987717486049871  0.5001873511801154
  0.1432092154489520  0.5707517054832822  0.7144146888813903
  0.4286077626775279  0.2860326290883548  0.9998456199283311
  0.2150055076026905  0.4986812681842557  0.9291650071868737
  0.7851568507841434  0.6419418015131332  0.5005770798158307
  0.0711816553410336  0.4994122152087133  0.2135561805371893
  0.7147470383645547  0.1428946961440291  0.8569132613585694
  0.2144534477706092  0.6425409381859695  0.9285652047545140
  0.4286126491844471  0.8596927018726201  0.4296076969578013
  0.3573971915379152  0.0715804250316465  0.7858505462114878
  0.0711746518459193  0.7867942754154025  0.6428002614883582
  0.2144445786180110  0.4996171135004541  0.0709920956498602
  0.3577549840262680  0.7853170390084866  0.2144841656932305
  0.4290026203021118  0.1429107968874597  0.1422982524558684
  0.1421707273920069  0.8577950590788422  0.4283161568216465
  0.3574408980316530  0.9283997872132999  0.7852005352994995
  0.5711014057655113  0.0009966308866539  0.7141256859904344
  0.2859008921974536  0.0006885453051241  0.4281501152194729
  0.2859518467923956  0.0008092879175861  0.2862439549827636
  0.4277741855025453  0.1423041610540118  0.4277906243402880
  0.4293082254443509  0.8577454440877810  0.7145534246570764
  0.4292273872815540  0.8568692480232316  0.1419910761510954
  0.4995559244418196  0.0715203800160741  0.9285342562464964
  0.8574482405786092  0.2836589352278043  0.0012062027981563
  0.4281682950194798  0.2858494482572544  0.1433161514527436
  0.7141606589816845  0.9998626153205985  0.1433486589506891
  0.3574540647825297  0.2162002012077910  0.3586243296821727
  0.7854925097803701  0.6429136807598738  0.9291942472620720
  0.6431315565084127  0.2139010134949790  0.4996539901410662
  0.2135191051017133  0.3548998985405880  0.4993227640729602
  0.6420370919403269  0.7860814451840519  0.9293222572789139
  0.5723978558297852  0.4295546438685777  0.4293450468566205
  0.4999278294147319  0.2137647240044984  0.7854767703367131
  0.3573844878306796  0.7864920186799365  0.3586843938781485
  0.4997496926060230  0.6416538056802066  0.9294229759132253
  0.1427574203329220  0.0004606219355620  0.5721258790827086
  0.3576345470968396  0.9290062042984526  0.0711577072750572
  0.8565200994770602  0.4283933837408900  0.2850700338198680
  0.5726938122174874  0.7137743150133729  0.1417522831556337
  0.2141893625973338  0.9292427599275374  0.3572267837050664
  0.2145751876680617  0.7866821908539754  0.6434067217722158
  0.6422865780698207  0.4990118024481963  0.9290443677476232
  0.3578439212264611  0.5001758326528815  0.6434399841259512
  0.7861253007818918  0.4996421914031304  0.4997239628583294
  0.3575851595399800  0.9284275382622956  0.4992377150385222
  0.3565231319319049  0.2145977264532633  0.2141285150854327
  0.0703775670430568  0.9293067344918255  0.6421505629826004
  0.9273816381767689  0.3571994120859607  0.2144999512817201
  0.1424265348839150  0.4282709656040121  0.8585063132527135
  0.1431322152445710  0.4282144362839788  0.1429401870230105
  0.2137532207249970  0.2153215448837214  0.9285837225595797
  0.3562854178736734  0.3566514287706544  0.2152297973887308
  0.9287180111074995  0.0712469898719237  0.6430252221319807
  0.2148929767289590  0.3562632159756315  0.7865547989388280
  0.2143669338941044  0.6422060756161136  0.0709252706909327
  0.2146345046596033  0.6428115283798509  0.3575475312075075
  0.7846906113207728  0.7877243408674816  0.0709685369250761
  0.2150558978236899  0.3568579331379415  0.3568962012115915
  0.2858398137621201  0.2855247301200924  0.2858296372393643
  0.1430386642115818  0.5702852473424582  0.5715931932762039
  0.2144612447442430  0.2145884970873874  0.7851489179307127
  0.3571823186301717  0.6423090924297156  0.3580537044655032
  0.0693188258569993  0.9288451613324907  0.0705704778573947
  0.1427151025282101  0.4271502174314471  0.4287724917828266
  0.7856678601868247  0.9289529817746383  0.3565872590217505
  0.0710122499872548  0.6431520670490298  0.3566962125154672
  0.9996557083613407  0.8572536599353117  0.2858065767029979
  0.2863521906460176  0.7142032765820151  0.1421419608589950
  0.6435616803749989  0.5000387986044752  0.3575922629530173
  0.4283081102362517  0.4284385081371444  0.2858914969281252
  0.3573346019522614  0.4992074610018679  0.5000042092281090
  0.3577499531104620  0.7856888555202566  0.9273846336860423
  0.5716064687299879  0.8572157535058993  0.1423084807073437
  0.4997287963080177  0.2134241176194706  0.4991314045952248
  0.3569566741107503  0.6427969836180510  0.4994854700942313
  0.2144107786106510  0.9295066870201203  0.4999628124002838
  0.8568643088205172  0.5718770240506710  0.1431151187358495
  0.2861430521254539  0.5695056017843356  0.4293095753122720
  0.3575463254154587  0.9292568417546964  0.2142398441269930
  0.0001473879358602  0.1444951633327484  0.1420932964195641
  0.2149591438349081  0.2145668291690199  0.2141343028241483
  0.1426793936398256  0.0000880852978712  0.1421919560720201
  0.5006400113159677  0.9290221248376471  0.2145270532212019
  0.0713257715995904  0.9285935368489495  0.2143779429510664
  0.7144519361475443  0.8578153487174646  0.7145325326914905
  0.2862478051878445  0.9995554634354631  0.0011279401588985
  0.1420208907172086  0.7130084943672287  0.1423417221251626
  0.3582608837914726  0.6423297888727145  0.9286833573632238
  0.3573655592682631  0.9279949183691295  0.3582330864438080
  0.2859520115383914  0.7143625241033272  0.2862627837434564
  0.3561575955500061  0.2148540251867104  0.0721403582023772
  0.4997582188265189  0.3579269471699045  0.0716963929232748
  0.7859395313267803  0.0712680539876958  0.2144663531554833
  0.9281801793480446  0.6431636467358878  0.4992759303539268
  0.9992263539081796  0.1430112638061316  0.8572755659364856
  0.0000997536307708  0.2852471519088589  0.1429823504881259
  0.6417959421135729  0.9293441395202604  0.7863210624190462
  0.2860408145833348  0.1440014169718203  0.8574224807270250
  0.8573649973718847  0.8576914411816862  0.5708018331127079
  0.0000938769719744  0.5722629475295044  0.1433211570004297
  0.2145759336674931  0.3568656174539712  0.0710591148317817
  0.7861882633800070  0.0713670436716784  0.3568066322567540
  0.6431955350908257  0.7883448397227435  0.0707623123563946
  0.0710400962704633  0.0719425740300137  0.0717222118090628
  0.8566933273363414  0.2859847441937863  0.2859992119274999
  0.2860799118403318  0.5709011086584224  0.1422571341328291
  0.9996407007402583  0.5711473218688849  0.8583696533076024
  0.8580969630418361  0.0001538678091512  0.4281859404638236
  0.1420396437020240  0.2874870625089679  0.5712123958347604
  0.2858546778263774  0.0004616470327711  0.1426415405243668
  0.0713358034030864  0.4990892994477553  0.7856721946264111
  0.5702367209533856  0.9992045013066326  0.8574725738655513
  0.7144735640945178  0.2859965245546052  0.8568899330804144
  0.3570768208760146  0.0725246402932908  0.2145974091816348
  0.5007032145461141  0.4983029777233245  0.9285997858103976
  0.4282159692374291  0.1433135989910016  0.0008831102143835
  0.3573336124577280  0.0720715533441304  0.3574503838277520
  0.7144458740165188  0.1421688115831324  0.5705057224130368
  0.7132123780045642  0.7147145045226571  0.1419288254960204
  0.0699584241730624  0.9289241450416846  0.9293857531831929
  0.6429410696183407  0.6424781934731811  0.2142999535213160
  0.0011306315350928  0.4254517099278565  0.5719471069041449
  0.8563239021417296  0.4285430933060829  0.8575016683289169
  0.2860285091275540  0.5709401441954544  0.2858190265221620
  0.2864647592607790  0.1437660554818327  0.9996921869941934
  0.4996776460883982  0.2151909135108732  0.9284597594265159
  0.7854944243994891  0.3570791603478575  0.2145804313731548
  0.0710135552617052  0.6428766714150992  0.9291737666464975
  0.4291518342271082  0.9995628386735754  0.8577668848340745
  0.3580519895832373  0.4967870580289528  0.9284516409900579
  0.6433724421527776  0.3568314014125986  0.4993234816021201
  0.7138783880614585  0.1429218778869461  0.2855101129460702
  0.9275543388906775  0.3567278390802535  0.3570972081101003
  0.7860343309073192  0.3563131367931808  0.5003986188109200
  0.2129336647655401  0.4981852304013647  0.6432089894700698
  0.1422620618145956  0.1433079374962671  0.8571748447702504
  0.0708823173987238  0.7868878387651275  0.4991758427764401
  0.9271559932406273  0.3572624143447071  0.6404730825158108
  0.5000810260471729  0.7866360471011982  0.4998313861668081
  0.5706538112501087  0.9999530254374968  0.0009170932842623
  0.5001993827191513  0.6423066922863588  0.0708947174859832
  0.2144628234313102  0.3561751527763781  0.9278858757553076
  0.9994495042881962  0.8581760789464101  0.5712716142985388
  0.0715845975859577  0.6428079999179427  0.0705184876370015
  0.0708003289806938  0.9293076250214612  0.5001843768793711
  0.5008146008069171  0.5014099971527198  0.6442901186226271
  0.5712781291376048  0.4287381236055578  0.5713751389849120
  0.2863695085067411  0.8581379043674860  0.5720405278348852
  0.9285112855940906  0.7850716391985553  0.2141480695045348
  0.3572715707846949  0.4993564689802457  0.3572277939002095
  0.5719135950405163  0.1425117335279732  0.5716922866899619
  0.0711789763111817  0.4982605206382339  0.6430520237654315
  0.1433202394820992  0.8584734686995159  0.5718004228116530
  0.0713307304771340  0.2144490330552926  0.9290162370921474
  0.9991342417780925  0.8584805574206098  0.7145974772750237
  0.3578275171262478  0.7866443929053563  0.6431726913415553
  0.5709629764096281  0.7140248222175150  0.7143773168110631
  0.7140949373242490  0.1427701042843813  0.7141786450308977
  0.0003548074356868  0.4280859745028612  0.0000193712633831
  0.5708393177984856  0.8582132319683478  0.5709948909277892
  0.2157647859281155  0.9294144779262918  0.0710185229750033
  0.0688419732082224  0.7847266293224139  0.3576552059707943
  0.7153632259726709  0.7139223663540112  0.4279792884383968
  0.2147828012759031  0.7865300313481793  0.3580275885351760
  0.7866413476837857  0.7861575288200036  0.3564570488942047
  0.5720017885201908  0.5717821028016370  0.2860881332732904
  0.3572043472639521  0.7869788840867679  0.4993023001077413
  0.7145303045519330  0.0011939177733201  0.4283854357292969
  0.4287026754746391  0.7144601694818172  0.5714303985216291
  0.2150991864443773  0.2144553669148000  0.0719803959910003
  0.4285781510109161  0.1438193779534463  0.7146025922829855
  0.2864233910931111  0.8577164736021551  0.7105864582034577
  0.5713757905609768  0.1428514056479387  0.1433749824955352
  0.6424885842800585  0.4997602096345412  0.0710800776643715
  0.5001508345904739  0.4990118631405370  0.4998808523998390
  0.2870800498516718  0.8570269060620120  0.0000721705378631
  0.8572361850885601  0.7147339674297385  0.8579515108450462
  0.6436373552616701  0.9283173224457244  0.2144309375383440
  0.7855329899033943  0.2161165184222943  0.5004979611706329
  0.5004352951979845  0.7843669286248297  0.0707060921625744
  0.1429153545192370  0.2855182687711051  0.7139868049624415
  0.9284043820725494  0.2140192517127021  0.6429284257805403
  0.1417245915186561  0.8569829121624084  0.2862154010313006
  0.2860834389172558  0.4283750158499037  0.7134595508334101
  0.5721306711911798  0.5700387751177391  0.7140443641397207
  0.0707636490162911  0.7853345120669168  0.2132978335430551
  0.4291049457255798  0.0001481974894525  0.0008968217540591
  0.6432982732083674  0.3565327515607175  0.6425449600017272
  0.2141937791947115  0.0717791070197590  0.9292952771093482
  0.6423006727061208  0.0732606172922787  0.6446428934377791
  0.5718927015234030  0.8576524748472645  0.2855451996367288
  0.7869941394815152  0.5009076469886861  0.7847862341874718
  0.9284454373232032  0.9286240600603100  0.4980828949930927
  0.1423588198806293  0.8578129873998421  0.1420620386057042
  0.4990279042437638  0.0709979955223060  0.6425746036007359
  0.7852353262048457  0.2142112087304605  0.6426392315128788
  0.6421502738142236  0.9293719959494129  0.6424859385852577
  0.6431835601775707  0.2147408595730267  0.2160217634733700
  0.9978595617294228  0.0007049808273145  0.8569501228664791
  0.1429701682744742  0.5703503672476281  0.8578105871188620
  0.6427730364357133  0.2148160436814052  0.0718008856853188
  0.5716307416658262  0.7140460631078487  0.0007183390446995
  0.5710249020658381  0.5707124710534387  0.8573597652193382
  0.7848785503198701  0.5000677260624733  0.0712175312356584
  0.8566672953824883  0.1433219199622275  0.4292372211799951
  0.2866774656349300  0.7147397921593166  0.7140206570904549
  0.5001054533389050  0.4992603011872129  0.7856658009911414
  0.5709647524767600  0.2851815371164640  0.5718903612891331
  0.4288379241330589  0.2853542316649322  0.7133612375805102
  0.0001107021945990  0.4271633070057736  0.4284235124950534
  0.2856828762817128  0.4270721435929265  0.4291935265402537
  0.7138849338304147  0.8577927428784953  0.8578163788792371
  0.0704355417932239  0.0713669330258244  0.9296811359350380
  0.8564218646161229  0.5703690438782103  0.8580824347407067
  0.0709436266601378  0.2129888285822345  0.0707448745633161
  0.1417399333726032  0.2873088753883604  0.4285729289484908
  0.6431579437828735  0.0726193850181243  0.3575381544733864
  0.6428396889206661  0.0711319936052004  0.0716220068419823
  0.2147633328017116  0.6426674384347951  0.6426789825541595
  0.9284679864096659  0.9297893331471013  0.6423915796800064
  0.7857578206812376  0.7866012018310415  0.4995038316382927
  0.7864626691396878  0.6426665590409025  0.3564635959642103
  0.9276591276074079  0.3563252465020184  0.9291977345830825
  0.7865363853220175  0.0712517806132211  0.4987693368449810
  0.5710990366661708  0.1434886612634245  0.8567182614294433
  0.7857034135373892  0.9291254182152519  0.6424563850863723
  0.9279647545996855  0.4999440004257303  0.2139515539214305
  0.7145990841662061  0.5698801569261839  0.8574612114043724
  0.9286060078551465  0.7852690250005568  0.3566880361668378
  0.8572434768717523  0.7146944702266508  0.7144406764419587
  0.9278732053666343  0.4998763189839335  0.3570731188387261
  0.4285724623546990  0.2853447286475563  0.2863763902706639
  0.7852203103249141  0.6433286164628326  0.2138249935403384
  0.6424053010620747  0.6417631921904874  0.9291404020234785
  0.7151221259190571  0.1426742881029443  0.0002287335004253
  0.7142635582220305  0.5706770155772151  0.5706036227514630
  0.0711074589698123  0.6430826610599530  0.4993748217071675
  0.4301720241701383  0.5714267739809162  0.1406349415888770
  0.9995109457822117  0.7144627910680260  0.0004372067147328
  0.6431514461999007  0.3571694118256056  0.3577858090444324
  0.4297810038018238  0.5715314670191398  0.2870072741303096
  0.4279745481810058  0.5698121946276062  0.7133640868413870
  0.9996209577920262  0.2853650812024986  0.8576582027202686
  0.0707780474887218  0.9289655961138371  0.7862799656298400
  0.4282982050700256  0.7141831893965738  0.7148523667312364
  0.9272906489336076  0.2145991456405401  0.7873627464754013
  0.9995135271441693  0.5706427458096099  0.5712650358323642
  0.8579658967167344  0.8585183955337345  0.8557347209294275
  0.7858997427140477  0.6419820815940623  0.6420749871886834
  0.8567089162431655  0.4287396223241178  0.1429852024109167
  0.7860276651878613  0.4984940761066742  0.9312437141967341
  0.7858655274835726  0.7858114534533502  0.6424142020005666
  0.7851024807305832  0.6428023223705874  0.0717739501157852
  0.8563936087038289  0.7139732890556243  0.2851282683332065
  0.0714515986839951  0.3568199843858995  0.0713496241857365