Cr Fe 
 1.0000000000000000
    20.0899999999999999    0.0000000000000000    0.0000000000000000
     0.0000000000000000   20.0899999999999999    0.0000000000000000
     0.0000000000000000    0.0000000000000000   20.0899999999999999
 Cr  Fe 
 206 480
Direct
  0.5727676517540977  0.1428622913955478  0.7166379387859912
  0.9997874805614614  0.7144279260310302  0.7146607593028946
  0.2134215664230650  0.9280735468516279  0.2131282012144371
  0.1421582665606329  0.5717475032225022  0.4280925652992010
  0.8570180966913775  0.4287644552365747  0.2853089845885327
  0.7139658134228810  0.2863323807759198  0.7143666031965832
  0.2859038420433354  0.7135623570264283  0.2848689051342317
  0.7852692156275520  0.4994278563676965  0.3570064614855759
  0.5006680722127620  0.0715309789436326  0.6443666780664111
  0.5715699768392207  0.7133648440451501  0.8572813549213439
  0.8568966767821712  0.0005543402862151  0.5726163638130131
  0.3560187079744134  0.7857812118245984  0.7856778650364423
  0.7862492735405732  0.6418672796648360  0.6426493771611844
  0.6437151660801315  0.2145690959319012  0.9281857673080508
  0.7847999614236622  0.3579982772103627  0.3579610848170623
  0.3577420403156644  0.6423541103984440  0.2147681445051732
  0.6440273127759022  0.6424519241342773  0.7860010317217674
  0.2136918165705986  0.3567921250450238  0.7859318258980654
  0.9264368284119088  0.2123263319297163  0.0697330086994649
  0.7150855777456481  0.8576321862412040  0.8562574941611603
  0.1409601131538346  0.0016490963328362  0.8574572102067733
  0.5007948278705526  0.9288410087329954  0.7849158069343485
  0.2135174844453601  0.4990073116056277  0.0705647127910884
  0.7158796640908827  0.7141995607450491  0.7139954733335426
  0.9995300191219868  0.2859780308596555  0.8568899876599034
  0.2134344848292398  0.7848796945202425  0.3567162711065905
  0.0710513989920371  0.9291028794855444  0.7862526911933034
  0.7151921959258857  0.8572836673525962  0.2858368821447306
  0.2839105366312433  0.7140007034625261  0.9989987574835038
  0.2853519446743748  0.8565848949816340  0.2852712929332684
  0.0707773333954909  0.7852193138069703  0.2137688938254609
  0.2128962076225337  0.9282797134488169  0.5000179010004254
  0.5723000968816453  0.8569463724092187  0.4292866249753453
  0.7149562909408593  0.7138292116533648  0.4288638052281841
  0.9991764803590943  0.0002976383598106  0.4270977429343708
  0.5720908491077457  0.4280974605819678  0.1432372095393368
  0.9275886749198743  0.3576553115130942  0.5008781327861238
  0.1427678490112742  0.1430521359942603  0.9991390787173247
  0.2858641917813919  0.5716338852791073  0.7146977740227386
  0.8586186367800860  0.7140867541351754  0.9991945908613973
  0.6425602871742444  0.9312513047217461  0.6438056864254990
  0.9284582448041825  0.3568132559406308  0.9280651641028483
  0.5724182871906075  0.8570267259184189  0.5722654847192264
  0.7135253831837388  0.4301864112755425  0.4310642298818795
  0.5715281406940034  0.2861556299572812  0.2857886346218725
  0.8553243392284825  0.4289839882712255  0.5731712731768709
  0.7148767322721403  0.8578957121258685  0.5725961789408898
  0.7149288161616668  0.5712483515729552  0.9993510078720685
  0.5720285037348710  0.7145754694419209  0.5709146469200339
  0.2834381175335174  0.4283261668944544  0.1445319643172775
  0.7148334912229397  0.0011308228105572  0.4319046784366030
  0.0002929229567866  0.1427211184008183  0.8568113053160196
  0.5692676274794646  0.2863508034124422  0.4303810629721301
  0.7844260660355612  0.6424592533785072  0.3564588981133918
  0.4997784708274950  0.7846555638073957  0.3582289205709431
  0.9284719372269347  0.6436537960909736  0.6442315424480802
  0.9996100529184686  0.1428660883167500  0.4290741606645476
  0.3585211139013274  0.2138495780934800  0.2131314906440020
  0.0701598049052995  0.3558326967401569  0.2133265060796637
  0.2138568529461141  0.5005218578413717  0.3559662086793731
  0.0704379110938466  0.3550793464113633  0.3554392528143032
  0.6432520769107702  0.2160756829952869  0.7838678336409896
  0.5718156586754503  0.5709117347911477  0.5710308610877927
  0.6445495251812633  0.0717410059895072  0.3583740683533834
  0.0711463139519302  0.0712618935344900  0.6415150865271743
  0.0704802782112742  0.2135900066075120  0.0706219310792349
  0.8579760741895829  0.4287494960908981  0.8569066532515441
  0.9280075779063695  0.3563220318731613  0.0709551379303520
  0.5006382898824778  0.2145264212867725  0.5008595199134228
  0.4981975653590205  0.6418606053868592  0.9274195874672457
  0.9285835115968284  0.0716138359423196  0.0705591018642577
  0.7859702294352553  0.9291724793815700  0.7848971590714747
  0.1426973500887362  0.2851002212690241  0.1427668507883453
  0.2131363547809295  0.0718343221403598  0.5007714651120675
  0.9986522840960403  0.4292202537925259  0.7154126585383114
  0.2136674546090322  0.6438292756032669  0.2148708251989780
  0.8556034547956142  0.1423178929272431  0.2865643115861503
  0.0003328704035711  0.8555622147415237  0.9992493234962334
  0.9286710178577530  0.3567528766188008  0.3572865049920139
  0.6438319975365013  0.7857718811742334  0.6430055752843754
  0.8550803258378278  0.1424946476234373  0.9991546814820678
  0.7128483327381230  0.4290488563514537  0.2858291784889724
  0.7152711210517950  0.4285441162261596  0.8581939576789032
  0.0700298077030692  0.0710779974365817  0.3568569152376340
  0.9998536876721641  0.7151901755635138  0.4276681701166101
  0.7863937512455547  0.9293030291211936  0.5007558863410514
  0.8575767211577288  0.4292657563946917  0.4285606127340042
  0.9986814489887565  0.5700237144501418  0.8573781319633186
  0.8570150898764883  0.1429335411398210  0.4293218502513259
  0.0004721511879669  0.4279585856879293  0.4281965596608215
  0.7156693194264256  0.0025520032149742  0.0004475896253595
  0.7146057811509223  0.2871437244865006  0.5729028492311568
  0.4999407592417390  0.4991887268242052  0.6424940700409960
  0.9287331775516144  0.2136771424946668  0.3564431144708436
  0.3576805419981721  0.3569303102516467  0.3567938181554930
  0.0705538359336419  0.0716026798570950  0.2136094605546255
  0.9299116348241748  0.9296928771743527  0.9283699048291452
  0.8572621386458328  0.2857814985910215  0.4293675845165109
  0.9305122863125286  0.6417085063369447  0.9265170952717795
  0.6432483577885757  0.0717266865972036  0.2150513925823477
  0.9995143624229524  0.7145133937405530  0.2857902970336093
  0.2847947498115435  0.1436624472524620  0.7143828680770948
  0.7142949744973377  0.0011025070614279  0.1431006092749425
  0.6441100318967172  0.6419924632846381  0.6422311507935099
  0.6430794904505183  0.9290213926270746  0.2142395221414641
  0.5727897729889733  0.5706814383708785  0.2863078884409006
  0.6431285935311537  0.2151257784686669  0.5014029252099209
  0.9277676173298552  0.3577928909035152  0.7838104622125442
  0.9297840555418569  0.7856332892791886  0.0716789126649853
  0.7144266265452099  0.1426245883770159  0.4307987967469805
  0.7142305274910604  0.4298520931124539  0.1421515541393035
  0.9989273502291793  0.5720323802581302  0.5721778858314756
  0.9995794848787433  0.0008284505445843  0.7138194460066470
  0.8573431527922978  0.2852651982255396  0.1416502413269301
  0.2854119393802366  0.5717270874012161  0.5718743825700157
  0.7859881023379806  0.0724399561687437  0.4993451767937002
  0.0703182621045305  0.6441946167371114  0.2144340669665743
  0.2136492811483494  0.2142652819075444  0.3570323684497925
  0.2142462027865698  0.3571388385556528  0.2129499207337707
  0.6433887455327082  0.9294111790706927  0.9281705006314397
  0.7863895561593868  0.9295363243420924  0.9281155784146911
  0.7146661519352560  0.4280698830466559  0.5722056358465699
  0.9288391403539658  0.6429328716763648  0.7862222746559721
  0.6433649541724681  0.6417457099685653  0.4994325667010309
  0.0696455510870735  0.0709159174395395  0.9297431568121024
  0.6443323944016818  0.3554920304933131  0.6444889660878250
  0.8574752562520990  0.0002569684819240  0.4291633338250957
  0.8569130517883332  0.5717159214522981  0.4284834549802354
  0.6436928028278568  0.7858163410310260  0.7857105134165857
  0.4999283151425876  0.2144790185223325  0.0716986316571084
  0.4286258180895735  0.5711251509589238  0.1432554542302286
  0.9999323697403841  0.1424163791485843  0.7139951510935337
  0.4286039200245521  0.8572827378795551  0.7148746702389396
  0.8573084724407299  0.5711650518553115  0.1434169659793415
  0.6434489203475091  0.0706518564211250  0.7835673131949015
  0.8568717013005122  0.2855959370419855  0.2854874603612256
  0.4995151965598998  0.5000187227044430  0.9275908540787080
  0.7854835454245614  0.2145498643792625  0.5013959007664289
  0.5721115018722269  0.0007726677240740  0.1424325724300004
  0.9266416747325162  0.2134645179993140  0.4999996646380545
  0.9282960046082451  0.7856750502734993  0.5004846918394102
  0.9284126835565838  0.6429962199406056  0.3568004965969316
  0.2139089578293532  0.2140882571006933  0.0714371846668975
  0.2135867763380492  0.6424607227165094  0.9294730663519900
  0.2857223422507090  0.2858591192970634  0.4292073313579892
  0.1416108638003125  0.7136293416043018  0.1424619828749045
  0.4292207641281423  0.0002701197331482  0.2868032167806183
  0.9994067064685014  0.4285195712225237  0.1420704064875388
  0.0000741003392418  0.2852180234887814  0.4298442863692376
  0.9272866777029891  0.2147379557776592  0.6433969394617933
  0.7147929054700843  0.1426500989041944  0.5717749006813561
  0.0712517672915255  0.2140952440971517  0.9291556548917218
  0.9279366989257178  0.2135140943936424  0.9283178271497000
  0.5002843598749610  0.2145641991728462  0.9283691119370892
  0.7149226012951165  0.5705928050116286  0.4286709262108008
  0.8575431334143679  0.1423061772820306  0.5727677330303703
  0.6428647841421716  0.3574402193747975  0.3579470842227684
  0.2843336520256883  0.7140731045556931  0.8576503594402644
  0.4297136495395891  0.9997511619816908  0.9992744366784350
  0.9285374548759450  0.5007931556138984  0.7848104267727890
  0.3580576353031332  0.6427883861588579  0.3566616421583373
  0.6453266741475145  0.6441644445938223  0.9275860132508107
  0.1414722959059532  0.8566756961924578  0.2850478239553829
  0.4285740817738156  0.1431179393832716  0.5718156636391314
  0.7853071115064705  0.2142568188268228  0.3577657603916038
  0.6443197682834206  0.3576448126422091  0.7857243799062530
  0.7146848218054390  0.1433803131345016  0.8568223539866191
  0.9989886022571655  0.2856805509009544  0.9998080326641130
  0.9276770066805241  0.2132725125181269  0.2142311489209120
  0.1418901931576554  0.4262271886921147  0.9987657612140028
  0.4999517861555892  0.7861307956659804  0.6426595840201367
  0.4300908037979749  0.1447591709681376  0.1428871294702863
  0.7857580826564369  0.3576442913067104  0.5007377967168664
  0.1416720885504857  0.7143511572932589  0.4284369621331798
  0.4292138976023951  0.4273631556072017  0.4292857287965723
  0.2848353488412840  0.8567072940252279  0.7147173949525949
  0.3558750992356495  0.3558093109119141  0.7852529053666991
  0.6442163984428051  0.0718250701349191  0.5001496723974080
  0.9995316141284788  0.4284853313394862  0.8566276638378845
  0.5714123066799023  0.8576264489960823  0.8562453348261673
  0.2851106849861145  0.2860435764318173  0.0000557396631064
  0.1411563757051843  0.1432892613359197  0.5717264825317507
  0.9994658895956683  0.5715885110831191  0.4284650427346551
  0.0696379837402371  0.0707488939635426  0.5004982005370168
  0.1415554761989531  0.9998025139252666  0.5714585003881523
  0.0704941216879257  0.6431588569675020  0.7865582083645998
  0.6430699338393229  0.7855445049080279  0.4998483522494251
  0.8573408277681366  0.5717573580849709  0.7145955633644144
  0.1418560302653758  0.7136305898579349  0.2847440367747186
  0.7151682582268378  0.7141432482026825  0.1437345340838277
  0.1409201305510763  0.8554593028510539  0.4284972748867014
  0.2141861341177005  0.2138064769361263  0.5009478100117197
  0.5017495045629211  0.3581443760793245  0.5001613761705997
  0.9280647079574940  0.7860709094195366  0.6436836425532129
  0.2142631804556425  0.7868187040696160  0.9295234189249223
  0.5002303602173728  0.9290208977762675  0.2139490041495532
  0.8569056091824927  0.2855559504296848  0.9993562358469147
  0.7140450911652454  0.2862344978120461  0.4297472741856896
  0.0707896696869509  0.6437528278205488  0.5003179798061108
  0.8574628959450390  0.2853078936572290  0.5724939910959683
  0.3567465476204765  0.0719462541481512  0.5010611202916414
  0.6424389417866249  0.3570583085962303  0.5004599797828275
  0.4278952376931920  0.7141835915358474  0.8569849423734186
  0.5002515850939653  0.6429030245222260  0.3582610616382230
  0.3574748008148809  0.9285423749652808  0.6436467452914431
  0.2136099303663926  0.7859282287842019  0.0718248618828136
  0.2138122365667027  0.0720813033948999  0.6429735648849676
  0.1421531590307732  0.8568780824722143  0.0001938707978257
  0.5716001377671576  0.0005549749236112  0.9997669049415066
  0.1407143200255826  0.8561431355421653  0.1430918896298782
  0.4291508452745639  0.2864829556809849  0.4301764385678590
  0.9995280251506402  0.7153352694464973  0.8576039139532092
  0.8586697614210219  0.8567724300847839  0.2869513245515687
  0.2146085487360021  0.2132218534501384  0.6399701623134769
  0.7859581988813710  0.6420567545473642  0.5003592277349519
  0.0707944170818132  0.4992379531391377  0.6446070837674813
  0.0709754828496316  0.5011513280851093  0.3566585953551621
  0.9293264502855301  0.7854562979664261  0.2140391420978041
  0.9291659439861994  0.9288690285761145  0.5003322431099058
  0.9280960918764118  0.2142759789568031  0.7862625770724512
  0.1417507485567797  0.0001345944822740  0.7145639843633163
  0.2153199372703531  0.7859871386499412  0.7859674533924301
  0.8574725830874155  0.0009521490654073  0.9997106623361863
  0.0003696193201186  0.8575871244441445  0.1435768804573298
  0.0709543348873931  0.6438683549818213  0.6427249651441223
  0.4297517889593876  0.4284721540085233  0.2865791492288460
  0.1421697517940948  0.7152628513546333  0.5715389513402266
  0.1416016904351102  0.1433361034160973  0.2848356709852739
  0.7864237178147983  0.3580399760420735  0.9282285874980195
  0.8579555384717823  0.5717013772687810  0.5715466968040932
  0.4299648699023686  0.4275536034807426  0.1426099050812249
  0.3576102877338308  0.9283738833194215  0.3570752437693166
  0.5726443388733945  0.1428022740616323  0.1419677116684520
  0.2136866101413568  0.6432870088565183  0.7858303956491294
  0.5718754037891596  0.7140973278880770  0.2859318829940389
  0.8559996709252132  0.8588918842188616  0.7128391551850368
  0.7154284013610026  0.0009571104432778  0.5723741289973968
  0.5721925246504838  0.1430841770380910  0.5721604430462588
  0.6451924281680047  0.4982561539172387  0.2150812956470606
  0.7859166937015954  0.4992403077392538  0.7857974282253020
  0.6446181088811531  0.2155106672849664  0.0732563507160258
  0.6443048207988338  0.4989786618636227  0.7859716219860625
  0.5715085499124761  0.4282222456736826  0.7147407750469199
  0.5714132260321374  0.2854383848634204  0.7157833339170204
  0.2846535536592409  0.5714277775409671  0.1432599897173125
  0.2128148896532128  0.2141549199352412  0.9296807921333762
  0.5006314026924847  0.6427003361333961  0.2152921288416284
  0.2854023595653105  0.1445992497658811  0.1440787019757009
  0.9284081467108067  0.3561662703845785  0.2137411027491567
  0.5720998497295747  0.1432673149998167  0.2858654498740067
  0.2144516751208017  0.5000496915890207  0.6426914544259018
  0.4280917025298118  0.5707916008511433  0.9996986209686085
  0.4999688884649754  0.4997360732063403  0.4995743114609198
  0.9297220355038215  0.7864384524246029  0.9278799059854616
  0.5007651129936905  0.9286562882266461  0.5007554742473014
  0.2128098978054067  0.9277116548943677  0.3566653865271382
  0.2132998287066553  0.9284773212574339  0.0718174991301366
  0.0709881137674347  0.4996228655147956  0.7860737168188638
  0.0714680052103037  0.9275305112018598  0.2123214535648592
  0.7858529296188069  0.9298474974563226  0.3574370611664111
  0.2135651865315647  0.6430975381541724  0.0708751874431742
  0.7879737534267068  0.2137003432778697  0.9290283259302616
  0.4288734480990662  0.2857312371472910  0.2857072541010405
  0.2141041368804534  0.6436407758074724  0.6422358161997519
  0.0692190602799559  0.7851582798011785  0.4993254537289963
  0.9994727249656993  0.8569762858348714  0.2860193686111393
  0.2136957248795759  0.9292430498051442  0.9280933363781966
  0.2857786101456558  0.1433743291453138  0.2847992994731602
  0.0706092693170749  0.3575082256625465  0.6437919553361697
  0.9995612481485862  0.4281559029164880  0.9991897593061141
  0.0708066521419695  0.7857790880100645  0.3576935842985859
  0.3560726901154333  0.6425379322014032  0.9281757549046030
  0.7866447858791367  0.7860345075384711  0.5007063017454217
  0.3563200706575133  0.7855746282396362  0.9283395445859224
  0.9289002510252525  0.6427688086491087  0.0711860564235308
  0.2843179319372451  0.7152045004873478  0.7153895157027992
  0.0711873203724017  0.0705118841653558  0.7872875885547235
  0.9997991781688774  0.4287001620537578  0.5722290802092955
  0.3570626288112003  0.6424840651487697  0.4999614417062621
  0.1425900900306272  0.7151579651109371  0.7147782665440944
  0.0002777103831824  0.2856227373670738  0.2856655466403625
  0.1427453220266808  0.5714978805005655  0.8576747585229200
  0.0695130832372447  0.9281594470205319  0.4993098903469037
  0.4291359071413140  0.4268499039364946  0.5707236427198203
  0.2851771473285388  0.5709569000517389  0.9996787703310879
  0.3574292173349623  0.0712366197791888  0.7855376466728834
  0.2846421823873561  0.8557690280899118  0.8567193049982513
  0.2135490420677928  0.0714249341833330  0.9282997398849017
  0.8581695195040365  0.8572763266219642  0.8566795398170258
  0.5007396100450067  0.0718316765730591  0.3575149457899974
  0.0004929800957484  0.8572036506965817  0.7144342798214630
  0.7148429967763609  0.5713255861303659  0.8573784528244658
  0.2141430382611396  0.6434615651595096  0.5006390375875451
  0.4290792807991375  0.2856067869682473  0.1425568944133405
  0.7140452789296807  0.2856708948739698  0.2854578353032791
  0.9280214295204500  0.4996638594156347  0.3572101640725137
  0.1429145295147702  0.4286192479642674  0.7141247325954230
  0.2135936353491838  0.9289459135732138  0.7869544086094339
  0.1416314850705501  0.2855322399698473  0.4287635554989473
  0.1420704145674366  0.4282581944099439  0.2849095920612316
  0.0000435152598425  0.5713071516724966  0.7141692708095932
  0.4292173786075554  0.5712759599223924  0.2861181324973841
  0.2854004022418711  0.8568532043987017  0.5717892528117893
  0.5009508322432591  0.9296417670537351  0.6435680370358834
  0.8572609934395957  0.4281811303972778  0.1422267628913038
  0.2855358299289317  0.2854326430914910  0.1433319777759390
  0.1415876028793106  0.0001914370479189  0.1430096694548612
  0.5002792678507253  0.9287273114291218  0.9278443643824913
  0.2855459765509786  0.4282433256148993  0.4285920623985807
  0.8575329525191450  0.0007286888153519  0.7132826765373581
  0.7860346820927577  0.0725505681915501  0.0713201883033256
  0.7132947386382682  0.1401549935333656  0.1421016876866882
  0.3579331029912645  0.7851592125442789  0.3572044227841049
  0.0700041876405600  0.2141508815150861  0.3563985510358548
  0.1419718121713705  0.2852437481691380  0.5712829656188815
  0.8584837657296165  0.5706141962891934  0.8569424418347442
  0.8578957773686882  0.2857351002403728  0.7146046633836615
  0.9283568253599815  0.0718615338821811  0.3568832806025410
  0.0002749334339069  0.0015950943684357  0.8561747881328228
  0.9283380163040524  0.0720102920112410  0.7859169177257125
  0.9274950825806252  0.5001281686612788  0.2135769407524536
  0.0716789716327091  0.3573376578680726  0.7856536864844934
  0.7149071008281431  0.4281762590503428  0.9993796228545400
  0.8577351097686757  0.4283788047358406  0.9993658296321768
  0.7863425500862565  0.0730755361524924  0.2142405010607971
  0.4278129398700000  0.5711727995029376  0.7145853954866249
  0.4998885112766646  0.3571229892525591  0.9284118159057339
  0.7852972456236650  0.3564344596024469  0.0715003353960893
  0.6430654518967189  0.2146239184741930  0.2134758909015743
  0.7146985992789003  0.4281755780556288  0.7122246420921349
  0.7863566868961184  0.7855040923246800  0.9276040046969576
  0.2135783951243354  0.4997002384099526  0.7857245310001661
  0.3565262988164312  0.4990295390058172  0.6420505224413671
  0.5720593624400028  0.1433944247940389  0.4298017861356455
  0.1418391924068177  0.5712059971081066  0.5719676285787416
  0.8569775791333581  0.7140907073935691  0.2857292313685047
  0.4292015606061030  0.2861878403283127  0.5713601990718762
  0.0710702197634609  0.5000110192698244  0.2135343174825664
  0.6430013995247570  0.7862381745644712  0.0715043642090394
  0.4292279201815393  0.8571462030081112  0.5721123642511996
  0.3566408712746382  0.3571731556375229  0.6423242687341668
  0.4290583850271525  0.2860157141207140  0.8558965135836922
  0.0712666459425418  0.5001588941403843  0.9289211657829974
  0.5734750916179889  0.7149909932467658  0.4288502307283997
  0.8562083283778057  0.1417257740648399  0.1420327380542377
  0.2143917505046336  0.3577089946180249  0.0709294418675909
  0.7149344939293960  0.8578097683386657  0.1435134843587733
  0.7151192425669943  0.0018450998186381  0.2840509715329019
  0.6424535724992264  0.4985661410496876  0.4993540094787273
  0.0002422242742367  0.5716241868859472  0.1426291630832330
  0.9991061722219927  0.1435811084255272  0.9993248227585771
  0.9278381002134597  0.4996234397212460  0.5004418583646355
  0.7149347133904588  0.8576103551946552  0.9998450823696046
  0.4284525412916159  0.4282856036408615  0.9998228359376354
  0.5714315632989820  0.0007063739285101  0.8560813780414358
  0.3572783852227601  0.7855672173821144  0.2142141540658382
  0.0014349325908611  0.7130625831465875  0.1417736347654210
  0.2855794680327830  0.0002472916467946  0.2851740952877329
  0.7152764682913514  0.7138978992880612  0.9996448563137057
  0.1421726839974645  0.2851647014076761  0.2843350927609913
  0.3571364778925378  0.3570683367294453  0.9287740233254892
  0.2132899418766596  0.4994063655896097  0.9296036205739453
  0.1430842702015534  0.7153014130955169  0.8576343853904601
  0.0705645947031631  0.0716995683279880  0.0710138805783505
  0.2143310076897715  0.4998959224888966  0.5002421403318074
  0.2131727335368377  0.2147329210443661  0.7866016296343608
  0.5717350528980584  0.4286340182633565  0.2864652832300661
  0.4280488165219156  0.4283353327189297  0.8556735688542340
  0.4286285428274672  0.8576083755936218  0.9998645685242896
  0.2139229348894775  0.0718771108224516  0.0717192387689137
  0.1421925703980372  0.1427690945584663  0.8574478104760167
  0.2865882421013517  0.8567577565539056  0.1424976233629793
  0.5704935116765182  0.4290528483568193  0.4277433606159079
  0.7850669588154252  0.0714135564453632  0.3576759547628940
  0.9988458441616110  0.5718002533190522  0.9994836606069539
  0.0708170131023664  0.9294762156098746  0.9284227345720518
  0.1430137775673794  0.2849268965821520  0.7139291966142501
  0.3564657646921530  0.7853916672983177  0.6432352148060483
  0.2851992116014477  0.7136665252739766  0.1434289764868332
  0.3578971298829112  0.0718864389305475  0.6443245026750540
  0.4292667283722923  0.7138839095836579  0.2845892840252164
  0.4282273421565212  0.7143594648206320  0.7143849005148099
  0.1424566220059351  0.5723093503310770  0.1430756175849598
  0.8568990229541220  0.5718085986924678  0.2855002294267349
  0.9279884716057601  0.3576407873870512  0.6434735764096677
  0.2849380810054958  0.2856702958377580  0.8573630826368713
  0.4287438973034656  0.5694334805407825  0.4282355502772243
  0.4284197749646281  0.7136660253100088  0.9995112168531616
  0.2138405482085044  0.0714276712728816  0.7861240469501878
  0.3566459669624780  0.9285442919482133  0.9280703958610097
  0.5003209093446482  0.7858487292143969  0.2145766704808229
  0.5722351673928798  0.5713566301086007  0.9985838192201448
  0.4286998239214266  0.0008295188156049  0.4295449091549051
  0.5004659056739662  0.2144905095164838  0.2138060916466986
  0.3574392317895331  0.9283429327949703  0.5001316655035547
  0.7147157216536635  0.1430086804254673  0.9998534152251703
  0.5000305328907271  0.2150426335652901  0.3574643443811609
  0.7861636773851578  0.4985030213523333  0.4998133497070870
  0.3567671537201292  0.4992350844545749  0.2139711170304683
  0.9292335206161991  0.9285510310609572  0.3578228416025960
  0.2862677943756599  0.4288822561492104  0.8570632585157660
  0.3577575246430300  0.9289320355380659  0.2138751852292679
  0.7856871934433199  0.2135787685015077  0.2133076594265979
  0.6440244787142939  0.0712963685704218  0.9281415652100161
  0.3581325099413740  0.0718455275573377  0.0720242237104111
  0.1413160742326938  0.0001154252716211  0.4283385247809463
  0.5713871800230035  0.8579507229364131  0.9998433763246541
  0.2848777397993584  0.1437051690606606  0.8570938624230915
  0.4282032721174671  0.8578689569537297  0.8563783543464364
  0.4287767412469820  0.7144495600618302  0.5711542144013155
  0.0002676971325074  0.7143327355952171  0.9993984007861697
  0.3574843801231520  0.7856073885195253  0.4997500006364616
  0.3566835871669702  0.2145417119744904  0.5013444745508876
  0.2856796237745486  0.1428582491460450  0.4291583729345926
  0.5709129954518923  0.8576344173767190  0.1429019690529068
  0.1426650961797008  0.8560613702043348  0.7146761107174537
  0.2855633366985345  0.7141385758306775  0.4283692632157090
  0.2854572317662295  0.2853510015321558  0.5718191044313116
  0.3570102497229237  0.5007384013803178  0.7852862429341906
  0.1425102974658203  0.4284558800663202  0.1428844673831996
  0.7166674398124115  0.7128702608038829  0.2842805023627434
  0.3575901209773608  0.2146202977607142  0.3572800839667121
  0.9288315336150095  0.0720570331611655  0.9283988566456199
  0.5008711510178526  0.0714858407644865  0.5016873814616855
  0.5727424471357559  0.1434766549957404  0.9998410771329905
  0.3577168180431972  0.3572577393923869  0.2137069258403229
  0.7855274302745511  0.3576557048552241  0.7853702485047529
  0.3573273544083463  0.0715902115697593  0.9284847757706240
  0.2849963698136220  0.0000912183259266  0.7146832072587552
  0.4281885170854999  0.5710865398476412  0.5714459394564236
  0.5716796045385919  0.2856442989236472  0.8564116895096535
  0.5004504869320537  0.9287229707712030  0.3574028325383046
  0.3562388845790734  0.6424909175808452  0.0710848826025654
  0.2853140550008784  0.4280644798014119  0.2849997331894114
  0.5719179477126588  0.5708145543401042  0.7147379039999744
  0.7153509063224079  0.5708303140882021  0.7145087816707691
  0.4287670064941378  0.4282996897421827  0.7155399542447185
  0.5006136397095468  0.6421606961713388  0.4985096942064943
  0.2850674966720962  0.4274375799483139  0.5711573065064539
  0.2849340149116034  0.5721045724162513  0.2834772791732366
  0.3561261347342526  0.4985912924877217  0.0721542448116641
  0.7152848487395371  0.2854451302761783  0.9993371344316780
  0.8573548956202361  0.7134950763761325  0.7141462479834864
  0.1422897886696419  0.7144309323212757  0.9998048903919026
  0.4289398237184486  0.2862235021517343  0.7145155175425177
  0.5715583144023439  0.4288717686461607  0.8567228385352385
  0.7883973454952984  0.7861608847394597  0.6435324575543773
  0.8577036813530103  0.7137287019648472  0.5719047235432414
  0.7140142026758500  0.5716969095243114  0.2847841712253439
  0.7855718577031007  0.6415028937448819  0.2150067431776888
  0.9981156465224684  0.2843965004218885  0.1407340100838158
  0.2140203814521877  0.3582229194920311  0.9291777365716088
  0.2858487783551828  0.5713477441129768  0.4285071141989533
  0.3571582487288019  0.2144326810934563  0.6426298115166492
  0.9294674872062973  0.5013413571064076  0.9276404998709983
  0.0714998397392323  0.2146542860706419  0.7863307482014629
  0.2856072546438628  0.0002214382436546  0.9998407699717804
  0.7859120451698481  0.2149982963790700  0.7854350927867773
  0.4268481987470964  0.5700320988356296  0.8555633409530133
  0.4293744005591242  0.1432228026289640  0.0002653689622735
  0.7863274938588805  0.4998988603279800  0.0715783636774655
  0.0709040582237784  0.7859260265574929  0.9286345603367017
  0.5722900117115423  0.0004855465121259  0.2855760352907150
  0.5007126017031374  0.5010576399049187  0.3591233694626222
  0.5002167406552823  0.3566005166770728  0.0715938415883085
  0.1423843282522256  0.4279722605902739  0.8578088242500174
  0.7851249120382973  0.3573278670825902  0.2137654299461788
  0.7863333914324533  0.7857736241375775  0.3570454593884885
  0.5718347397727604  0.8568612829516323  0.2859493273767011
  0.9286389933616388  0.9286427601702392  0.2145846071534133
  0.4287000178844573  0.0005511250921840  0.5721723352351625
  0.0696943104059441  0.7873006228304315  0.0727319650323385
  0.5720899238106659  0.0001754587144454  0.7162599200510761
  0.6442124411479859  0.4988809715336265  0.3581149949851465
  0.8578223932719975  0.8575894944752834  0.4287451382607504
  0.6441902572803671  0.9297319656643652  0.3574297722959774
  0.5004389171853701  0.0716658344865746  0.9282016501955549
  0.5726148148909337  0.1428964373569002  0.8556739937179475
  0.0707021294305507  0.6422085247359299  0.0696458848028148
  0.4287268839922948  0.7142604316474157  0.1432851594223031
  0.7858996834109918  0.0720010879459312  0.7852519275763187
  0.7871469068141017  0.0720911232959864  0.9282499017898815
  0.7869510642537867  0.6424199081849672  0.0715288250812268
  0.5719802315981174  0.2853226084355455  0.0002429862842077
  0.3572276789845293  0.5000123585651112  0.3566352172963454
  0.7868738001247643  0.6425574055292778  0.9276627382377969
  0.6434023736824276  0.4993954901196097  0.0714316378905884