Cr Fe 
 1.0000000000000000
    20.0899999999999999    0.0000000000000000    0.0000000000000000
     0.0000000000000000   20.0899999999999999    0.0000000000000000
     0.0000000000000000    0.0000000000000000   20.0899999999999999
 Cr  Fe 
 206 480
Direct
  0.9288878804946742  0.7857686242274893  0.4989063114463881
  0.3571263696901488  0.3562455266074149  0.7857778143025210
  0.9285162843334356  0.0712096070415515  0.0708749080235006
  0.7878743614132158  0.3564355790865787  0.2131462592899495
  0.9273530862282293  0.2145730052604501  0.2136149897072470
  0.0711215304880422  0.9285341478064640  0.7867443435438006
  0.1426921226646514  0.8585173470288299  0.8585929901485092
  0.5722392362744527  0.2834697455530483  0.2836813052513882
  0.0711466057785951  0.2141904267457921  0.0706969564752589
  0.9284138898944786  0.0719136063862844  0.6428398336042339
  0.0707270964445699  0.3558113872634407  0.4998309472069185
  0.1420785279872788  0.8572102958988510  0.5720328451350655
  0.6431492292468202  0.0713185275504540  0.2129917294927293
  0.4997624549459428  0.3571404219718832  0.7858752529243240
  0.4994293687549107  0.9294046919181321  0.7859839724119039
  0.9288336211956951  0.5000563381200460  0.2133279883456392
  0.7145189579465022  0.2853547702372913  0.1430802947156695
  0.8559425175477868  0.4291622236035881  0.1432882085898720
  0.1428683182135467  0.2854833585681607  0.1429502584291338
  0.9998215538731292  0.2853386041544529  0.1426222115231003
  0.7866359027211817  0.7865123074734720  0.3567972771588696
  0.5715166666548439  0.1416480780582185  0.0000831857439791
  0.5704967154511577  0.8572291794398258  0.7137213176097427
  0.6431069584741820  0.7863346461879310  0.5003309869718585
  0.2855486215658555  0.8570167135203168  0.1420018353613668
  0.1429894204934757  0.2856458290751742  0.5717898227091088
  0.7866461555356472  0.7864078572206684  0.2134602855008092
  0.8573116553564754  0.0000351718569416  0.7147044293164087
  0.8579637301018241  0.0000841076697855  0.0001737834995518
  0.0000219175027750  0.8575073310471228  0.1423855732820585
  0.9282080820511107  0.2152046460084709  0.3565569253171546
  0.0008251811029023  0.7141458344172448  0.0001036922410839
  0.8578340816267399  0.7142332013589099  0.7156594269620303
  0.7137661090099645  0.0000170834051146  0.7143965796983666
  0.0005937204960798  0.7142279837633003  0.2849911598183146
  0.7139841337730629  0.0000683105958456  0.8582682388239635
  0.9292701880280504  0.4996498839269813  0.5001286994648214
  0.8574297187528364  0.8569115732178878  0.4278325733994344
  0.4274094282817630  0.8577023842937733  0.8577867653766593
  0.7137857797205651  0.2851216977126154  0.4283106796580568
  0.2143883394868378  0.7858915820937652  0.6438595133963587
  0.2135332782660828  0.5000458561554599  0.2136816117908311
  0.5715540630050712  0.8579896663027212  0.2844308714644863
  0.7146628001989500  0.5716423388209129  0.8576601290760100
  0.9286177107659970  0.7853690904508991  0.9298916050370596
  0.7164033181797409  0.9991741038160523  0.1439421468494085
  0.0017575050706596  0.5703960022423924  0.4275306089093748
  0.2857186680524165  0.5707352131398765  0.7148764904225425
  0.8572314846346902  0.4295006651362764  0.9999813324816074
  0.2856352442927949  0.2854866439009938  0.0001161482105546
  0.7847160428061976  0.2145222198103830  0.9291145278563553
  0.4282358681997048  0.7142367337766971  0.0003280498692994
  0.4994213112185573  0.2132777272324155  0.9286712083972131
  0.5002471546269746  0.4989066150090689  0.7858881852290660
  0.4977564278632067  0.0729626824597613  0.6446823723540178
  0.6425753293499821  0.4996025449623155  0.2140375402932655
  0.1421272572114267  0.2846276166220089  0.9994149881463364
  0.1440539742900968  0.1435817425866250  0.5716387936921444
  0.9294971677958362  0.7834935461820139  0.6434262091649103
  0.7857983048193744  0.9292119807792750  0.5000423832333853
  0.4996233230544505  0.9289064816845128  0.9296021783536742
  0.6435780832573226  0.6434682108181740  0.6425468003250590
  0.0005057660142537  0.5722295765736174  0.0000232218542570
  0.7855671091422557  0.5013898989879546  0.9288664331961773
  0.2863276255498825  0.5708249539477531  0.0011321076254084
  0.9293614030767900  0.6436033817990670  0.6436024108235343
  0.2145104385733130  0.0714246851333622  0.0718283783663753
  0.4998406445050770  0.7862072975875182  0.2128212764416554
  0.9989776965724555  0.1431833797436616  0.9986719317298496
  0.1435598866740950  0.1435514551566820  0.4278508556306139
  0.7858332115949531  0.5008536272257411  0.0716108057408575
  0.5707270201858253  0.5712328299606515  0.8577272461313047
  0.2144474751919178  0.0715447215189210  0.9287643629950777
  0.4280959876780021  0.0000335627711920  0.0005482405520522
  0.1422753581248562  0.7137472501295427  0.2844758800804577
  0.9291980563154845  0.9281049354959381  0.7867762384690307
  0.2858072931950663  0.4274090207213369  0.7148235074601323
  0.2144956280337713  0.2127840365739540  0.3546373781877667
  0.9999859980282816  0.5713385087948434  0.7150967958581793
  0.0709973232507106  0.4991589961240491  0.6427090346922913
  0.4278901543197974  0.7140463653124846  0.7141418492974941
  0.4280037287738646  0.8576829354910207  0.1414124676801852
  0.2139926715020415  0.4992918409664259  0.0709723395044764
  0.4286027009626266  0.5714505338189710  0.1423118100035716
  0.7865629054007421  0.9280858877261109  0.2141467158714863
  0.2860387822197116  0.4280625281706755  0.2850622472096224
  0.3571719446180412  0.0719422260003547  0.9289195223372354
  0.6421265312564947  0.9293364002641641  0.0711561554057732
  0.9276606233595345  0.2137296154685812  0.0718608506679333
  0.0717141145411806  0.9283445229843783  0.0714868132271649
  0.0718038286274479  0.7866257309641149  0.7885305120874451
  0.9283032645983954  0.7851585873578816  0.0705151861912352
  0.8571245550421364  0.7139669170804221  0.9996409168485576
  0.2142730155848315  0.7855642918590713  0.2129595222840613
  0.9998278175712603  0.2849546568839791  0.2855760627797422
  0.3570736429946267  0.7863302846640954  0.0713366343180332
  0.0024994666562668  0.5726824471734427  0.8584502324015543
  0.3578967531390090  0.2136709674533240  0.4996512815572575
  0.0702044147374124  0.7859088321521078  0.4998746583186480
  0.1430206473348891  0.5716781827188752  0.1423130129439993
  0.9995650998599059  0.1422895368753574  0.1429244373881343
  0.7146554515926609  0.4290250764667843  0.8569343387159255
  0.2137184047038972  0.9290369597172099  0.7856618854217982
  0.0717157783356021  0.2146347743311717  0.6430172436512056
  0.7140672779318105  0.5724417688850379  0.1426270403846417
  0.5716051713526354  0.8580342577449858  0.5720047778877388
  0.3563164062843675  0.4997434459666482  0.0710729021299176
  0.7859548695850820  0.9283166169586478  0.7860802961438034
  0.1432863207371067  0.8577230516000276  0.0001180436628105
  0.2861719425048597  0.8577362355559387  0.4285209020130287
  0.3566934241423801  0.0722106800887756  0.0710423888601305
  0.0734771296137617  0.9285980458917096  0.2123822720459897
  0.7143656415654850  0.4290290367509558  0.9999072975675313
  0.7147961674847262  0.8574016861825368  0.8585591423059125
  0.3575237640505570  0.0714836519947585  0.6427981652230872
  0.8579335591447614  0.8567831306509966  0.5715864147227829
  0.4999180989539249  0.3572806034239984  0.0723310962531738
  0.5733118878839673  0.7131964665035780  0.1419751315697712
  0.9993420165666189  0.7161851858612295  0.5720856962144061
  0.1423080662751829  0.1432572817078644  0.2858389111580887
  0.1417644229000471  0.5704836803455559  0.5713482743174065
  0.3581928172609934  0.2126774060862059  0.6423977480817578
  0.9292391569257215  0.6428912986754340  0.7875667261469487
  0.6428028512546496  0.2136283728303464  0.7857843205276421
  0.8556001897201166  0.2852297660786303  0.1433738293360290
  0.9291633203348830  0.3567727058105256  0.6428608426693991
  0.3568036921192794  0.7865262508101615  0.9299876451684179
  0.5712458443481243  0.0006889864682092  0.4287102592251841
  0.6423987944848776  0.7868113011746615  0.9299181976008920
  0.9287477364280553  0.3567803614037028  0.3563757407065513
  0.2869737025873345  0.4299192327189595  0.9992942343749743
  0.5005715265212598  0.3561648793164808  0.6427000179816630
  0.9994689159960105  0.8562612193876591  0.7145877211349704
  0.4988602158327223  0.9283765585911926  0.2135134344158309
  0.5709522927222140  0.8568104353396746  0.0017607284565386
  0.2851340690307827  0.4272171233047445  0.5717021731560974
  0.5722345767812234  0.7143287274624371  0.4288520658758905
  0.2142574771716589  0.0717233519700193  0.5002973552249181
  0.9998830491272003  0.9995652283442417  0.5712265182679455
  0.1424132418859284  0.4309516288382667  0.9981379140403482
  0.4284864244340504  0.1421940702619062  0.4281094060961840
  0.0000348952535125  0.2853161447358400  0.9997020029504196
  0.0714446537649814  0.2138316004464637  0.2140160905781913
  0.7147337004267539  0.8578412365515461  0.4287106806713233
  0.7859614988685287  0.7855409912092237  0.6429547512349829
  0.4282546309860640  0.4289959258519902  0.8570889080765440
  0.4994541487067033  0.7869439677703126  0.9301365118143264
  0.0007269203370096  0.4254951043891647  0.5707952625957367
  0.4298086380610006  0.1416327087852444  0.0010539513594978
  0.0712025087339758  0.6432903634547512  0.7866871015693737
  0.5705423184612171  0.0006982023058193  0.8578497752669323
  0.0720441277413339  0.3580201630835317  0.0712175942419693
  0.4290476796750281  0.4277395464953989  0.5712089494449752
  0.3571280448026088  0.3566390549939829  0.9285229142777300
  0.4288348546168317  0.5709007245207871  0.4284447801689380
  0.6426041369464717  0.9290073987397037  0.3569768773180625
  0.2865116375240741  0.0011227429829227  0.5718873624697013
  0.7867909908498025  0.6433810805226177  0.3572774163863805
  0.8573597931158102  0.1434443467911068  0.8587051041759328
  0.4987855973509913  0.2160378650855678  0.2146153805278290
  0.0720418707799000  0.0721635114552887  0.3563884811852945
  0.4288013365289035  0.1422458646717640  0.1436134658597748
  0.6430589286150873  0.0721268336014283  0.5002487820753290
  0.2127145876376316  0.7856353186011937  0.0725843860749830
  0.6430815196439407  0.3562867103166002  0.6427141138712231
  0.7866971896828060  0.7861625015773606  0.0710586099069794
  0.0700779506892985  0.9273754923014002  0.9270747891904406
  0.1430914904646153  0.2848326361513719  0.4281446072327741
  0.9995994190412891  0.9996203080448356  0.2844764298064359
  0.9290690775693067  0.6433463006966913  0.4997354589437221
  0.9277572665635575  0.9284655758769378  0.3575552482396784
  0.8582793732532904  0.7146288150676990  0.5712988553268668
  0.5712731770634391  0.5712892500104840  0.7141206723206919
  0.5706538939747462  0.5717949317119485  0.0007151688092422
  0.4285416207717070  0.2856198972595451  0.8569400352121176
  0.8577586132142822  0.4283915060902621  0.4283594227387087
  0.7850276596954484  0.2141289738670297  0.6435965155398151
  0.7144790813112343  0.5721439169455854  0.2851270562604227
  0.2151586891944466  0.2128706395863078  0.2142251759544138
  0.9998286546469852  0.1429671584937403  0.2853323095786329
  0.4997910463251489  0.9295846462786366  0.4996135822368687
  0.4293251850455853  0.2840277572217714  0.4288926320619698
  0.7147819744604000  0.1414267072847586  0.9997090896378431
  0.1409438343581974  0.7131846198902497  0.8574581114111529
  0.1425859638032860  0.1426419053160260  0.1429898500299012
  0.2143146002298464  0.3569713598817936  0.9287837982011982
  0.9288355810788120  0.5007822536707746  0.7869100913044998
  0.2151585755284235  0.4989587782549901  0.9312125236705310
  0.7138522602715138  0.8574965604738919  0.5716324785459657
  0.2144257560549573  0.2133779968443310  0.5014126814369301
  0.2863506836848294  0.1420067421925146  0.1434726392855465
  0.9303822069529103  0.0714039790327362  0.9290791320307851
  0.6436066437118224  0.4998897439221564  0.4999424455987758
  0.7852404689795145  0.2139965070920131  0.3563936599655770
  0.7132447253248122  0.1429242400940572  0.7148883583305716
  0.4289404234316170  0.4279931271760919  0.2851970957491672
  0.2150306304758765  0.0717543738533959  0.2146762970164837
  0.3570034222568201  0.9290655311551792  0.9295115829748443
  0.4280149634776609  0.5704633450233900  0.8576014319382703
  0.9994608470193375  0.2851152475904443  0.8566795889774338
  0.8581010719954681  0.5718978152939105  0.4285974054931079
  0.0719442096131666  0.7853574614409667  0.0711648874824574
  0.2852136109485965  0.5713003092850603  0.2844728940480896
  0.4999697674972671  0.0708929606677427  0.0714102868175115
  0.4271160874428572  0.8583889166551465  0.0007195443885362
  0.9994099513097580  0.9994852303030418  0.8592360879687095
  0.0000326792327705  0.4287967070430445  0.9999518233173441
  0.3563865614410144  0.6426866989940533  0.7861455700512748
  0.0703610780270221  0.4998306180410692  0.2116880824787457
  0.2144444038992054  0.2139659400076045  0.6431989511556024
  0.2144294038594122  0.9295928631047168  0.5003833168831632
  0.4293991218369220  0.5718047714549536  0.2841019821212544
  0.2854977847795406  0.7144604840047007  0.4283533242081107
  0.2146942857944358  0.2145823987163538  0.9287122265268193
  0.3582423656758189  0.3568790236995933  0.3575916648874499
  0.3562655145509659  0.7857287599424765  0.7858033090509705
  0.3579154209519610  0.2139548050338808  0.7861505531515002
  0.1436089961331443  0.8575164319643077  0.1415879886999132
  0.1425915923289494  0.4272856974267196  0.7145651399608681
  0.3572144704373710  0.7862468209033169  0.4990277303846986
  0.9998293304857173  0.8562850406024745  0.8580648308351678
  0.0714995554798725  0.7855770183781969  0.9289039538224554
  0.6430951528642452  0.6431589809096356  0.7863114909247214
  0.6441974578967068  0.6432438260879063  0.5002161864564451
  0.4995869690555338  0.0720094610729677  0.4995373783918081
  0.1415510358696878  0.4283154020246131  0.2855834631070313
  0.0008165682944839  0.4287141865132052  0.1433772125644943
  0.2859431317745736  0.0007060813778865  0.7140477344291968
  0.4275523605686660  0.7147954135068515  0.5727780268674939
  0.2132212405589520  0.4991340537950216  0.4998344879494266
  0.1424767903959460  0.2849331325435599  0.2853641946979527
  0.1423649558061764  0.8573662104727331  0.4282247411092718
  0.1434970040980356  0.1431622348597253  0.7140930041653437
  0.2142247624836473  0.3564158668100394  0.4996416646888199
  0.2139558585228616  0.6425511627546557  0.9291830258049913
  0.4286083044108441  0.4289449240117390  0.0004925484440147
  0.5712413302019851  0.2852308605236722  0.0005030125627397
  0.0717578428655219  0.9289980769344273  0.6435191353304892
  0.9285939974949330  0.0721842897026290  0.2137780530928438
  0.2121373282026443  0.9295466980497085  0.0734703511501197
  0.1427152325620420  0.5709703869834598  0.8588061529378599
  0.5711318838294145  0.2854418265543899  0.7144417410587491
  0.0001986991276055  0.1436607362179175  0.5712898098145437
  0.9996871174602161  0.7143033316298095  0.4278956960732735
  0.3571231543561983  0.2133942307214995  0.0714982350344145
  0.8563647496655276  0.2852125566534079  0.2849931482257806
  0.8574920553526142  0.4275975692644653  0.5725118252515068
  0.2844473525973783  0.1422024826809401  0.9985964300582725
  0.6432630516397266  0.6429360627390632  0.9297056192895650
  0.2132606003988448  0.7857953873020478  0.9287010761676348
  0.9282922341482224  0.3573813454855642  0.0726841859765355
  0.2132356395608834  0.4996758000648035  0.3562669095065457
  0.5710267208155950  0.1423103570400308  0.5717201113927820
  0.4286693984242646  0.7145460708933707  0.4285233377407365
  0.0712547942130499  0.6429475784452265  0.0711791035140354
  0.2858487332272018  0.8578683945684648  0.7151000643521651
  0.6437904814615223  0.2130370569058135  0.2135346812056273
  0.4289163119673652  0.9994517696883319  0.7131330387502923
  0.6410590909173858  0.0706495488315482  0.9295538097044133
  0.5708894235487993  0.1427602822301442  0.1431020886838706
  0.0714269734704997  0.4995718329087107  0.0718179021309567
  0.5719238399575992  0.2850471643873226  0.1433491890198754
  0.2137235372168091  0.3580105412758129  0.0702599737024177
  0.0000247796225733  0.1434847915923091  0.4274837470476930
  0.1433105502080916  0.4295441806260722  0.1435594860362655
  0.2152247870981238  0.3558087623323194  0.7860399432589182
  0.4281248964560431  0.0010147939124642  0.2846307216424155
  0.2143823818312371  0.9283571575607084  0.9276874158389169
  0.7131180608071620  0.7158183217868019  0.0011996670612855
  0.4994374895029173  0.7862334348592869  0.7862728811582702
  0.9992795465021728  0.1443587570454505  0.8578348741927007
  0.2861391586112725  0.1430478043369779  0.7137837197963162
  0.2860120382465621  0.7146346587776976  0.5720925053985549
  0.5715673811407179  0.5723294478782208  0.1428031514440069
  0.2855108241731807  0.5711417173432241  0.5720614121751306
  0.4281507408916377  0.7143021830591747  0.1425756819413589
  0.6429455662317212  0.7862198949183841  0.2134690694542801
  0.1426652642257127  0.2854901140010057  0.8570954506070536
  0.3580631597232983  0.7873089700576255  0.2132582406461854
  0.8571929415038334  0.2855066648577661  0.4283555445458361
  0.2142558463271287  0.3566339784256543  0.3567349662344729
  0.5007187878413907  0.2140219373486555  0.4996612942239255
  0.5008506395564150  0.3567722079200476  0.3566521531197241
  0.1421257896385957  0.4266903880027102  0.5716715199152921
  0.5003582629124800  0.6426446169045058  0.3562824737614846
  0.2139710536529522  0.7858875672678752  0.5004734540569639
  0.6432957436320884  0.7867867352324818  0.0706320871532355
  0.6425379649999975  0.9294445748941009  0.5003379672262649
  0.0706949780275478  0.6433894436279289  0.6431324718939827
  0.5737232625252990  0.2843404500497647  0.5706224061902285
  0.7149366870458506  0.4289805632671559  0.7134443289263224
  0.9294803832817051  0.3568431362908658  0.4988650853784764
  0.1424714798033967  0.5710591272254228  0.9997668682957024
  0.0719690901222833  0.2143541975700466  0.4996832121359535
  0.5005818645573671  0.3572829536060478  0.2138170217513176
  0.4278809501852325  0.9994822519011707  0.8581722351729130
  0.2854563154807718  0.7143873818551006  0.8584863253224875
  0.2858050779068875  0.2844187848894570  0.8562724668203564
  0.2855946841191681  0.5706310526104904  0.8582986870723432
  0.3576458960842762  0.6422546671401180  0.0704883064774772
  0.3575557642597065  0.9290232571786392  0.2138824561676631
  0.9292178273602338  0.2138559419648934  0.9306012089997332
  0.5701881985087268  0.0014526661323688  0.9992082556474270
  0.7123947352826879  0.1443809536689001  0.4282097284844665
  0.2861210202498175  0.0011810157499250  0.4285254956956848
  0.3576616545800425  0.9295032013574553  0.3565787731503447
  0.7861175229676465  0.5003218176802332  0.7859146295820877
  0.0704354255126248  0.7848708765283843  0.6432484256083294
  0.2863312010237189  0.7142839852029339  0.7136925722334647
  0.3569423357679566  0.5004974255315745  0.9314135887813380
  0.7148829635566629  0.4280171970913363  0.2851816003116054
  0.1444418053505780  0.7120213280488724  0.1419920010596576
  0.4275321859779897  0.1431321845604714  0.8573355341241696
  0.0709227419224692  0.5012798211561511  0.3562364194180453
  0.9990817280373131  0.8566438644386416  0.5725405782445936
  0.4284132666100556  0.2855997175851909  0.0002805166165168
  0.2132864819596376  0.6423242091715921  0.5001377893288086
  0.4283618062465129  0.8578322414826628  0.4288875851165190
  0.5710872604322330  0.9993451080539644  0.1433368127160002
  0.1429485610785333  0.1432210880290584  0.8568867484353094
  0.5001982709908029  0.7865326630875458  0.5001341786222754
  0.8571518617919622  0.7142747673926377  0.8582915891037673
  0.1422382223974595  0.8571924774429108  0.7149733024068194
  0.4997208499073710  0.9290944481942182  0.0716513825596497
  0.6423131134362654  0.3573523570309931  0.9281269872166090
  0.7148562908921607  0.8563417713984294  0.7138209638067731
  0.3574909205462392  0.2137557240939269  0.2136708255993323
  0.9284403721522665  0.6445464473723347  0.0707305189276336
  0.2854407755821213  0.2842162215005836  0.4282107327963571
  0.4278140792353465  0.7141946632863854  0.8582101946751279
  0.3572228569109804  0.5001466108863162  0.2140871994573010
  0.5709760878769067  0.1427590324308433  0.2844660841406728
  0.1428929931983040  0.0009461848489116  0.4280625070625410
  0.5004875235149991  0.4990599049464812  0.4997826043482341
  0.2858111659199205  0.1430927426480836  0.4282856294290384
  0.5003071231738673  0.2138228556990389  0.6425062676998382
  0.5696421061402344  0.4286982887622716  0.8559397282263709
  0.2851852604266726  0.5721883184548526  0.1421395308464366
  0.4999392758133999  0.7861759864394163  0.6432641683969592
  0.4285066567105306  0.4292080678917573  0.1429554265413139
  0.9280095765288275  0.3568868875860290  0.2136207800872534
  0.2850295185454987  0.7143343732902693  0.0012682141865335
  0.2850321663980252  0.9990815328565842  0.0007597524195376
  0.5722773277196251  0.4281170121639831  0.5715521042195832
  0.0717248073730064  0.2147222806276136  0.7857003391602121
  0.6426093778701649  0.9285716657861193  0.6432354546109623
  0.0705137109199366  0.3554989430857893  0.3562753152345347
  0.9282809804014649  0.9285369464598289  0.4992482087814810
  0.2860506152962037  0.4286213367789544  0.1425143530044223
  0.0721762106645186  0.2142720172081548  0.9291905466777081
  0.0014804780533982  0.4281031377577778  0.4282926686101446
  0.7118563916390183  0.1453207425888517  0.5719184215177207
  0.1424303313280836  0.9999358905169224  0.1427017116246046
  0.1411384237277903  0.4280241417839494  0.4282287562280090
  0.4290855880331443  0.1410954896958760  0.5707066397774280
  0.5722477271632515  0.5718919123427537  0.5718129994714229
  0.2857232565030238  0.2845462503729061  0.5717515855686784
  0.4998445589206922  0.2136165999034029  0.0718996836891047
  0.2145910231668551  0.9293300999285534  0.2134078238477493
  0.6422961200841344  0.9284483863961561  0.9299936222998426
  0.0720059219552660  0.0715025411157583  0.6428076142259634
  0.5001595775971029  0.6429735930522521  0.0717704104326503
  0.4995060815217112  0.3569649386070557  0.9286612904702374
  0.4998636560404299  0.4990151279255881  0.0728406800916643
  0.1426185254397348  0.2869518983006924  0.7138685013295005
  0.7857958758536887  0.3566340064299897  0.5002668266959787
  0.8574334978372439  0.0002133313181286  0.8583287946239345
  0.5709527911740643  0.4283648108829293  0.2847677777103162
  0.0708928083299972  0.6434189849554165  0.9289378489010025
  0.1426777536535550  0.9997060428518371  0.8575940446305516
  0.3580087481722845  0.3564237368798274  0.6434272429043687
  0.0713788826802485  0.6425224807149719  0.2125138686668202
  0.3577830873961749  0.3564544739231015  0.4990505726593084
  0.2858491355307688  0.7145358884962635  0.2845943221098076
  0.3574426327642675  0.6427927017706930  0.2136848163339647
  0.0000814246662647  0.9994214140506219  0.7147393402355153
  0.7861338271452927  0.9282146094390240  0.0712223413894843
  0.3576542444715997  0.7864019329257557  0.3564719633558825
  0.3576107175612979  0.4992951937893195  0.3565718681552775
  0.5719048255218746  0.8581782922238217  0.4291445617697106
  0.4284311890742232  0.5714212680324371  0.7147588748407282
  0.3580489706802016  0.9304026322821649  0.7858378041419541
  0.3563722821950857  0.7861657506029553  0.6447693576609814
  0.4276224509872114  0.1441923107722452  0.7139774214913767
  0.0706968281294682  0.9284301364085860  0.4998225757349651
  0.2149859298432507  0.0722099099064289  0.3559701182291246
  0.6422109881020613  0.4996373545274320  0.6426662322742789
  0.8575913974094380  0.5711083429512245  0.5720179566424476
  0.2149568481613528  0.2161326051956939  0.7845968230425084
  0.3571449179425550  0.9298730779005570  0.5003030807657370
  0.2860282300485077  0.2855258229509848  0.1426275679593259
  0.0707605202061976  0.9285444838205691  0.3565810268300786
  0.7138759729207697  0.2863607649684249  0.7134442378803594
  0.7861596121911028  0.6433418895964979  0.4998298640004128
  0.1424093316831794  0.0004400133808965  0.2849249312651794
  0.4994908027778486  0.9292554411267795  0.3567378537593038
  0.4293143415315506  0.0008639361049134  0.5717799514945079
  0.7878271716867576  0.5013141783379171  0.6425693104857508
  0.8581938726800008  0.5720778877289637  0.2851405651690228
  0.3572145159317874  0.4987617476302375  0.7851309909897808
  0.4290412059895968  0.2848173568381353  0.5713570811586505
  0.4280432558123597  0.8576875821615441  0.7146906605094150
  0.9281829262394918  0.0717964400308089  0.4996484316879310
  0.3572375649317943  0.3570826252503854  0.0716829824648108
  0.9289581252875078  0.9273339479746003  0.9272334957616882
  0.0709728402429962  0.6422467914619621  0.3570573738115913
  0.7149413836309954  0.7151664436053440  0.2850148848297346
  0.2851495513967007  0.7136209996090568  0.1417968877610631
  0.3574988762618392  0.4991475724884678  0.6434946473287181
  0.9286825041477034  0.3571527456138651  0.9288767110204552
  0.4287127563960469  0.7147817676918679  0.2841943038631975
  0.2861050436825540  0.8569678092263840  0.5719838623290040
  0.3570477109740395  0.9293982646813131  0.6428260151927560
  0.7148615794811938  0.7148711864055189  0.8586477186415419
  0.1413704669169785  0.5703406317511667  0.4282461948992973
  0.2856412851964016  0.9996050588085522  0.1422095814830828
  0.2142311922072018  0.4993581595611944  0.7864572563328185
  0.1422715670316797  0.7142799117766789  0.5719700535644414
  0.3569196395774421  0.6422308201870617  0.9297325598904661
  0.4995922971843166  0.0716087717687260  0.3566862987246922
  0.8574015353295137  0.2861173205058096  0.5716919631207114
  0.4998088473157563  0.9282994926202714  0.6437328443854893
  0.7145076723088276  0.2852820186331491  0.8570611355922190
  0.7143095296461132  0.9998932084927329  0.2846752734877808
  0.4978532170540135  0.0724294211301297  0.9276647773766504
  0.5716745881208841  0.8577319149383440  0.1422765176103616
  0.0000144377370287  0.8577373252062360  0.2847107372032176
  0.7860109595986623  0.7857014276909945  0.9323504278552059
  0.6430924975780176  0.2128263818914147  0.5004340631007975
  0.7147225512936710  0.4283722084518383  0.1428931162043192
  0.4297357474671185  0.4287549931435684  0.7166204504967810
  0.5002890506970585  0.0695767702739186  0.2124985728855343
  0.2139814628985776  0.6429059096682535  0.7861608774563663
  0.6425982316991335  0.0716772717575491  0.6429717832236245
  0.4278924717875264  0.0006173481195052  0.1423962389771194
  0.2136015341002983  0.7858478831620761  0.7867642878243308
  0.6424073143131267  0.3568839592436534  0.5001175588418674
  0.8572979869395458  0.2850119925082605  0.9999984098179767
  0.6430346173092856  0.2132675472563594  0.0714247541623250
  0.3569004070897323  0.6426978501304556  0.5003610606430942
  0.5711014686362014  0.7142104169517850  0.0005807663736459
  0.9289721533458163  0.5013334958058780  0.9284465839146611
  0.7142574473210177  0.5722067167423199  0.4292844878148265
  0.2857458524974845  0.1433372957001901  0.8561588908383029
  0.2144957444886205  0.2136635000683146  0.0711569870037481
  0.7139915683131269  0.1443565107186891  0.2835731970753024
  0.7153317515661375  0.4282724295655144  0.5725362870203614
  0.7859848207797150  0.0699430546342951  0.9282961807038241
  0.4983440618724139  0.0716500478044075  0.7864127759212867
  0.4996621901833840  0.4998806927471636  0.9285252895994660
  0.9290141158113936  0.6431828515973075  0.9289788320118264
  0.7859865505827761  0.3571592063592899  0.0717233834170093
  0.4292047298518913  0.4287094602948240  0.4277165303042295
  0.9287210794636993  0.6431085136117064  0.2136111981975988
  0.4999334084373932  0.2132190697128293  0.7863216554068831
  0.0722174897813813  0.3568531547534619  0.9291025467946750
  0.9990209093835284  0.9989366016388262  0.1429692825793960
  0.0731965589250628  0.3564329376290191  0.7866131316892038
  0.7841767575209206  0.0726257541301952  0.5003533204473001
  0.2860537536877711  0.8574368532845833  0.2844445245661271
  0.4281396892305682  0.8571453399159240  0.2850915249325177
  0.1434221487482112  0.0007380362864060  0.7146313107210021
  0.6429455511890130  0.7865609071461361  0.7860656852969184
  0.4287415956027655  0.5717914438892389  0.5724599179562063
  0.9289133492027468  0.7862910616818384  0.3565279169647683
  0.6419336335928161  0.0713347560582231  0.7860459555904619
  0.0720963063572839  0.0719420079490588  0.5002676100231299
  0.5004613438952094  0.4996068005933126  0.2139413590331763
  0.6426111521265834  0.4994628500510707  0.3569870451340051
  0.5005514161043786  0.4990725568725777  0.3566127147179232
  0.2132075188045025  0.6420640865853340  0.3563263416174881
  0.6426809096504111  0.3572567218682082  0.0718222018007503
  0.4295518161924926  0.2864954996999360  0.2833241402730803
  0.0712708649509753  0.4998607342095658  0.7866713319433888
  0.1420418960805425  0.7137869555267486  0.4282653166882272
  0.7144227353740176  0.8581307912990540  0.1426923766112818
  0.5000779147848868  0.7865163174495167  0.3565655026976765
  0.6422023844923733  0.3566559635933516  0.3561048904707241
  0.7863337498878010  0.5005961595909585  0.2138948685078409
  0.7145753905640675  0.8572883331409552  0.0012256840552478
  0.8577808313437302  0.4283065855535017  0.2849582001123658
  0.0713335723506081  0.0712727182265988  0.7861254274744477
  0.5731120285400344  0.4274700693354456  0.4299076724336258
  0.6432268657927493  0.7872235107178837  0.6439845608198436
  0.8575927349990214  0.1425723177286106  0.2850840723557667
  0.9282507222043495  0.2148782002342279  0.6429189146292125
  0.2146119601171230  0.9296374124307862  0.3565637908464773