Cr Ni 
 1.0000000000000000
    21.1200000000000010    0.0000000000000000    0.0000000000000000
     0.0000000000000000   21.1200000000000010    0.0000000000000000
     0.0000000000000000    0.0000000000000000   21.1200000000000010
 Cr  Ni 
 259 605
Direct
  0.9166931117230845  0.8330926151786139  0.5824983929382574
  0.5009592358158945  0.5841766717533543  0.0836340485524851
  0.9996985484474474  0.9162131171767526  0.9165255867612068
  0.8335104515797844  0.0003441153907746  0.9994968053981163
  0.5005388594446056  0.7495557366719189  0.7509378005578252
  0.0839709008694776  0.2505796160389653  0.3332776295413100
  0.2488308865694876  0.5009083296294088  0.0857648378759437
  0.9989070544404761  0.7505747041770068  0.0836652036582983
  0.0832572287238625  0.5020146023613161  0.9168536400800444
  0.1651857638692978  0.9994463768498669  0.8329486136113007
  0.2486435870995483  0.5832502150198187  0.5003271797725284
  0.7507314442244010  0.9171882656417778  0.3334585562775286
  0.2494953111260229  0.5004763231732887  0.2495509593325609
  0.9166464268279197  0.7489211026921251  0.8335119645240200
  0.1654381888505601  0.1671857976606589  0.6649585814771543
  0.2498220039650706  0.7490046105255774  0.5001243515672410
  0.3329263192523622  0.2505136015169337  0.4157884681684502
  0.8330944981848012  0.5834460584662039  0.2494390507966280
  0.2477512869833248  0.1661964407816518  0.7494894772346583
  0.2492686819576655  0.5006787140741648  0.9155930092352869
  0.0005402659712586  0.5000090323155635  0.6663967531203617
  0.3333149661932831  0.5834529631740104  0.2502547415935243
  0.2497664495434840  0.0834416114347633  0.5009921988318755
  0.1667232685349526  0.3346219696122148  0.0023969012952363
  0.2509354589515950  0.1679638265433727  0.2512803059646175
  0.8335341176777923  0.9128637432297916  0.7494280121047785
  0.7512012410828496  0.5834174151617296  0.3332695266986104
  0.6669794754615633  0.7506333971937929  0.5832653146319667
  0.2504478336767816  0.8314129703169109  0.5844251928240392
  0.1659571224541855  0.9992200272913928  0.1664772888525018
  0.3337170975605356  0.2509022536673505  0.9185902856290397
  0.3330906970126972  0.5007567336091490  0.6649682352908795
  0.3326573758219523  0.2500972370490008  0.5830224181434918
  0.0001976094282360  0.3337261568260632  0.0004971935809915
  0.7506482327450438  0.4175738357374515  0.8309286027267713
  0.0009338952434201  0.0834303642523057  0.4162020016293563
  0.4996614610290605  0.4169116588453636  0.7494864449765031
  0.0819654881942761  0.1666923043586085  0.5821551068630184
  0.3324792558565071  0.2493480352217036  0.2488517281177007
  0.6662845130354577  0.4162818663774283  0.2492724641931515
  0.0005839713031152  0.9160411361343863  0.2506032318382171
  0.5836409610848194  0.9171739148126279  0.4991011459081775
  0.2488344204026930  0.7483131274912109  0.8330202245760270
  0.6677942637348043  0.1679216779350935  0.0016448539765996
  0.0842353713352411  0.3338909671110844  0.4172088219479479
  0.8335656627571484  0.9995759912681799  0.3322240996545727
  0.3333663390928159  0.5830204930682115  0.7498619080757220
  0.4144692415613903  0.8336683115372798  0.2476903211025487
  0.9150713517612120  0.2502065691701025  0.0010632225553238
  0.9156553033444824  0.0827978396408284  0.6666772186648047
  0.9152927799899138  0.0839752831008963  0.8337806655340260
  0.0834602989462750  0.4170714520672014  0.4994114136146472
  0.7509860058254958  0.1661550467520924  0.4163487389137975
  0.1672501516662050  0.3345845758269788  0.1666736324205143
  0.4164162978170919  0.9998537117650022  0.2506139917799168
  0.7512855806325813  0.1659692220172249  0.5835413336733040
  0.1672745217156289  0.4995191776062374  0.6666377153814299
  0.4169104515957959  0.9998054377501773  0.4167328771210863
  0.3340885241444279  0.6661474874373805  0.8333783679535666
  0.9174636553716699  0.5831008322127410  0.5000745696741576
  0.4977095742264734  0.9183019931810797  0.5827814806623403
  0.0830468380474485  0.7498045479244849  0.6659260603487241
  0.7498097882721136  0.2498007318531024  0.1671773146754096
  0.8328889872098207  0.5000936654015424  0.5001148180350912
  0.3347780973929373  0.3331189258179590  0.8342626687633461
  0.2492772799278418  0.4176825272637417  0.0014033770908315
  0.8324308570107203  0.0817776429238434  0.7493768838441455
  0.1673470133359391  0.6675580423447581  0.1668711330531581
  0.1650843662619526  0.4180498307139315  0.0844462453056601
  0.0843797461540723  0.6658550716947641  0.4172831500394575
  0.4170084147313401  0.6658707684393411  0.4179890867942861
  0.3322453414718485  0.7493884325958483  0.0827807953376029
  0.6667640929845077  0.0819681130847539  0.0838303998530919
  0.5015088548449860  0.0834003686834079  0.7505461474390065
  0.3334630265299197  0.1654118858727695  0.0020853859598759
  0.1674323888941420  0.9157665265739768  0.4166391929634188
  0.6682670195754107  0.6665592624757498  0.0003871370088074
  0.4159640465171219  0.4162182221643148  0.1665220091820838
  0.4172237867766508  0.5837415147237910  0.1661841201612071
  0.1663227914242609  0.9174435111692550  0.2491792014641279
  0.4176072048532455  0.0832431344724559  0.8341220327032066
  0.4999868888357628  0.0001142148815549  0.6679269058693568
  0.3318388574916163  0.9992724435373905  0.6677863842085923
  0.2489292891174791  0.3349874679725851  0.2498587682072649
  0.6668381650272661  0.3334508311540766  0.8336574405612203
  0.4997253791462803  0.3330309448533672  0.1672812449641061
  0.8325651138024056  0.3346339564522064  0.0021340859905108
  0.2506813511061937  0.1673853909475238  0.9176482770137512
  0.7506045244553410  0.9167725285770004  0.4990874207590936
  0.6668016374300518  0.5009352437632055  0.6648016110515179
  0.5832773410871795  0.6672767649936263  0.2503238619028621
  0.2493565754381175  0.0831711859534117  0.6652313564126550
  0.4989795894293381  0.4995488668695738  0.6650831629742057
  0.4173299804857771  0.5833656834265194  0.5010421964242634
  0.7502582788377353  0.4166236055400790  0.1674623087455459
  0.7498686628228788  0.5004192540988989  0.2497387787193653
  0.7497038037877328  0.3344984747946821  0.4145455845067306
  0.3341750923522075  0.7482938694662535  0.2514404751472892
  0.3328738240584581  0.3337343302326072  0.1665155436425937
  0.1665445103900677  0.2507877476889264  0.7483832428295806
  0.0832603072307013  0.5013969628708812  0.0836166172619368
  0.4162221795695067  0.8334659020833948  0.9173400343528603
  0.7492837849392404  0.5835835186239815  0.4987768992331766
  0.0825051285202922  0.1674014017680197  0.0856923303564647
  0.4998212035960227  0.7507357474805577  0.5833026420515636
  0.4999672297485936  0.2504578343946381  0.9166929954590002
  0.4166753881065539  0.8332144975103190  0.4175410920412108
  0.0824264641664677  0.7491988821187147  0.8341156937030257
  0.7512380105801590  0.8338408359509856  0.2508145102119518
  0.9182767141423210  0.4997434716917143  0.7496924139721366
  0.3332569568611793  0.0827188927741634  0.4169661942344785
  0.1665342239963122  0.8333058664109853  0.0004925416701630
  0.4176103139201153  0.8320222561740214  0.7494646106135844
  0.3330312882032184  0.5000198192884412  0.8325664110002586
  0.8333156049738649  0.1667604113753240  0.3332241185638634
  0.1670805011262124  0.5004297680045964  0.3332728060859492
  0.2495011344295122  0.9154783949272165  0.8347826042482200
  0.6677413727206942  0.8338491027452472  0.9999681893288354
  0.3332163422681647  0.9993677027460490  0.5002193916334340
  0.9993850661566139  0.6667830674830859  0.6660036167908183
  0.1667089817935495  0.8313821788740980  0.8340766382402534
  0.9163517291630047  0.0830307298084666  0.4995749424749661
  0.6668637021857938  0.8336863965140584  0.4995060577210445
  0.6666401801157266  0.4152415515446518  0.5839469937336956
  0.5840869316858096  0.9993147532790629  0.4154862909060599
  0.9169979119711621  0.2499798495281001  0.6666022908554130
  0.0004256288625528  0.0842357738200822  0.2500503969389472
  0.6675778123922791  0.9993851805972892  0.8323069249543040
  0.2500757314153928  0.9998167248422778  0.2501289537541202
  0.8329523420075033  0.1659614122539182  0.0009318871953535
  0.6676494229154765  0.1673798997644988  0.8336272808400295
  0.6660186798761893  0.7492283439160514  0.7499128480889672
  0.5836313345805217  0.5825198705616449  0.0012864127347946
  0.8341084093345493  0.0821220951471030  0.0836389749916754
  0.5847397170342357  0.7514445833868973  0.1664341954967429
  0.6667313078001789  0.5827372157502503  0.7493314412823882
  0.9150496312780381  0.5832482354538848  0.8324042825462913
  0.8331643630287983  0.3334629581886804  0.6663662597588669
  0.4168725667532648  0.0840970417523860  0.3326781521698882
  0.6669573276683665  0.0007544219069126  0.0000226749446777
  0.4992276358525652  0.3314646073320993  0.4997235460400007
  0.0003154945193770  0.3337371496924686  0.1668735212097620
  0.7493295875676301  0.6679524196949829  0.5833267953196877
  0.0004516810044057  0.1668144515277352  0.1662445040017686
  0.4165885114663525  0.4170208521201035  0.0014017471976225
  0.1662763473121665  0.5840427295985855  0.9164552231552645
  0.8340466521658692  0.5011310530263585  0.6663914959744820
  0.3334723611656820  0.4171515667744673  0.4177365904322695
  0.0835096718773357  0.0830521423497411  0.3331649649171527
  0.7502048551226888  0.3325402726804392  0.5834402610361626
  0.7498527661220942  0.7502135818450119  0.5002394186726606
  0.8340256351879166  0.0829292601897456  0.2503453037821267
  0.9180813450740344  0.1693126656173609  0.9174189080884034
  0.2507694389841066  0.4166264136426200  0.8330389415830789
  0.9171140417470091  0.2515472497586596  0.8339218128258411
  0.7494301066679804  0.4991765498773512  0.9172972330263217
  0.1670705478026597  0.6674855724348454  0.6664435890070831
  0.5009644957578800  0.0825756080250497  0.0833970278468518
  0.5000606646352055  0.4179945132355810  0.0844515061712809
  0.6670085400583047  0.4999834203767170  0.1673861140565383
  0.3337685797606594  0.5016511874885207  0.3337556326663075
  0.6675958242826704  0.4997146210507299  0.0018677165107255
  0.9998965717610125  0.9156199217974619  0.7494011005487962
  0.1660742380181368  0.9976036629661381  0.6670378680600099
  0.7501810875390943  0.6676679575572110  0.2499675844124137
  0.6667942987534122  0.4171227278492652  0.4178896795738954
  0.5844027378982468  0.7501842120565335  0.5003300008169675
  0.4160813408407476  0.5831698606085627  0.0021312527888069
  0.4995635677111623  0.3322180597318206  0.8327547266435440
  0.5004105966981933  0.6668762131608018  0.3334299756005917
  0.0014019860415550  0.4158845379046591  0.7484373302357147
  0.0832291156536297  0.3344955129827846  0.2503378702485881
  0.3331256461404598  0.4161673361299227  0.5827754551306372
  0.8324922209822433  0.8325828075365279  0.5004932427549184
  0.9170529878508743  0.4171367011923254  0.4992876703462238
  0.6664400594221296  0.4165815788428428  0.7494389138162328
  0.7497585570725445  0.6676108215964042  0.0838051750213146
  0.9989842662923761  0.9162892319243805  0.0828827870823516
  0.7506506957363221  0.1667818151611435  0.9176255416335927
  0.0006435086917310  0.2511495857571626  0.9169300633737614
  0.0008211112063937  0.2521306905878801  0.7489431376411467
  0.5837214104009513  0.2497886118297238  0.6664150983049217
  0.4160731467651795  0.2489968960496027  0.3324921025119962
  0.2497494268893833  0.2510564189338493  0.3335431900542104
  0.7499722666523242  0.3333636918054437  0.2497078809446397
  0.5832906991889646  0.0832162832471391  0.4996800561725910
  0.9990253187080277  0.6655513883494033  0.8331952285931419
  0.0001923312738035  0.7491075738210987  0.4176157898579399
  0.9168495400150264  0.8326240379165345  0.2502561354086583
  0.1674402640845984  0.2515113149645036  0.9187821683429964
  0.9987427640912737  0.6667962068790572  0.0004958362017839
  0.6669745449306349  0.0005958016785385  0.4999345023323183
  0.0006959919606848  0.9152525060802068  0.4156786271631053
  0.5832144970634355  0.0836430438962432  0.6659422598353392
  0.7505452713539533  0.8326979915761384  0.4163282716249323
  0.0836282361007697  0.3343277375606012  0.9172666578591658
  0.4166110172194056  0.1664748441289645  0.0828635634901674
  0.9167297043322726  0.2502392089433443  0.4984971478909807
  0.5003954120739200  0.4174758272312443  0.9176353878759798
  0.9176404095565098  0.9152393496940658  0.4994224555990551
  0.4162863323807948  0.2496314966891187  0.6665076403071291
  0.7500109093812025  0.1665547624357453  0.7496906003968042
  0.1670723183813949  0.1666306707444594  0.5001388831218248
  0.6666594319816589  0.3335107390933514  0.0010466318110866
  0.4958563435588216  0.8326724211409838  0.3332421280198365
  0.8331427907623078  0.7509692045957915  0.0829272673193113
  0.1671132789409638  0.8323701532623669  0.6660748517708263
  0.1665669699121852  0.6667441583721012  0.0002346187039357
  0.0002019060935619  0.2504322931134359  0.2507555270832379
  0.5837640851170967  0.5841255156197190  0.5013523018765722
  0.6666792457359803  0.8329549531832713  0.8332975864457111
  0.0838881695663551  0.0845825379689387  0.8326072449293809
  0.2496473415300359  0.6669652063279600  0.9158710841071364
  0.8332577119984487  0.9161065716598122  0.9166976396807146
  0.3327567513991584  0.9146872826791772  0.7504467207671407
  0.1669987368456421  0.4164436301284129  0.5831146317571411
  0.0831041006228784  0.8325505419227441  0.5832953997068566
  0.2502445951641296  0.7493583596369529  0.3338988858756206
  0.3328735912268225  0.2503829607893107  0.0840173690351325
  0.7509267113256892  0.7500157630261147  0.3330338351817597
  0.7495613932112276  0.7492704328048662  0.8320990237949969
  0.5003442554991384  0.5822625162379759  0.9181699549322644
  0.2504021936181594  0.3347590326059336  0.4161760588327483
  0.6666593735360408  0.0006346166171306  0.6666219449690551
  0.5835021933297092  0.5003702690443783  0.2495287879074237
  0.1671648753324971  0.9976978429400115  0.0014823397342512
  0.0004182412193963  0.4171547361164323  0.5823445972325156
  0.5003808655368692  0.9161371934896578  0.7492897370871210
  0.9172526103120469  0.3340814112323392  0.2502031386635649
  0.0830092380307679  0.2487374828063146  0.1675110503442910
  0.7499964016246987  0.5003840161687921  0.0842440823624244
  0.5003346364827519  0.5819000735909965  0.7485805631147464
  0.2493151834769737  0.9167118428253394  0.1672730858015119
  0.5001398047273490  0.0836344817142665  0.9156631402840582
  0.7504520345779864  0.5818140117635350  0.8338587878530171
  0.0829084861263953  0.7477991936010073  0.3342459946125973
  0.3325520469542384  0.2503747132135988  0.7505438196204630
  0.4162998525528168  0.9158834030159928  0.6675767431993334
  0.4981628815384645  0.8321598152844908  0.0004542984200361
  0.8340814157472299  0.9172548178723623  0.0825294760102026
  0.5832956349299094  0.9162670737896963  0.1672095267671263
  0.5835154749331892  0.2510699729620858  0.0005627986997642
  0.9990937381620255  0.9984380570705468  0.4982671308613992
  0.9157690447866876  0.8342715782812486  0.0833014631523292
  0.5825342498075290  0.3328616723513855  0.2501600404459303
  0.5008336590725889  0.7501717347910047  0.0829090268796652
  0.9169996940399544  0.2501936245324551  0.1669030388886631
  0.9999708355214308  0.5010345832349959  0.3338730750450644
  0.5830665607691328  0.9997218470653867  0.2500624290236083
  0.5844288760493523  0.1674343115548230  0.2497291663492341
  0.2493727845427549  0.9985019769808514  0.5824731011950851
  0.9167100169466049  0.5004355649674720  0.0838986445859639
  0.9170349558055344  0.4990394863247856  0.9175147972156749
  0.5002021763380203  0.1668458845817677  0.1663702762973108
  0.5850035477119001  0.2484495744560395  0.5001820020515412
  0.5827052030327635  0.8332848830192928  0.2498624638466707
  0.9990736782026414  0.3351916423140227  0.8334935267890432
  0.1669809355183597  0.3330275431591427  0.6645898503989665
  0.2505920686414955  0.1656153686462991  0.0837090558033286
  0.4996822517162504  0.3332343725965590  0.6653145229925020
  0.5006764580390547  0.9155474661771233  0.9167827181385051
  0.5838886672747781  0.9184845340112429  0.0002782612902272
  0.5001117349309753  0.5000751774552853  0.5002061483892927
  0.6667091446060701  0.0001428162210971  0.3331924413214106
  0.6661674230176833  0.6682191965812538  0.3326471928300702
  0.5834868468257327  0.0831383583967909  0.1667661081382914
  0.4167842923174805  0.9170565962273033  0.5017906465919757
  0.5844429473657221  0.8343089507009714  0.0830346660077287
  0.6661820249200363  0.5002096172780138  0.5011602727980029
  0.5829488283837270  0.3342354631339397  0.0840422761611124
  0.9156998635901225  0.5832581953736011  0.3331966883048432
  0.6692673874831542  0.2467596459119325  0.5836267351996870
  0.7498556731478463  0.3339470137079669  0.9179496539378692
  0.6664288853190847  0.4173490689672097  0.9166138966192006
  0.6674039950965289  0.2504384305937962  0.7494101672118516
  0.2479364546570985  0.5008735382317898  0.7509013990424610
  0.4163786510650093  0.9170028719135092  0.1658622717035952
  0.5826086310046648  0.8337868171804251  0.5829780168350481
  0.3334397538786021  0.5828378018904996  0.9165542056602133
  0.4999793982943851  0.8337208441843063  0.5006097715532768
  0.5838723284788273  0.7495849781588482  0.8332052979677269
  0.4167232436076960  0.4999197280549066  0.7492062564182589
  0.4161689224196264  0.4997962362409801  0.5827011186825685
  0.4997860242711705  0.7503441301723678  0.2482991462414130
  0.3331265196863493  0.9998588369168342  0.8328697746035159
  0.5829473641575014  0.5834104969059177  0.6650482932453473
  0.5834633228283174  0.0828076712019971  0.0000603410532865
  0.4990709926014448  0.9160344482024412  0.2495565071374779
  0.4175604382550789  0.9983261289379372  0.9156219725506033
  0.5823947479989190  0.8342943299043167  0.4166249826324918
  0.3329833731988547  0.0843852172300501  0.2502837366219476
  0.5829803937533125  0.3335704586421460  0.9164836456328733
  0.2496886479143921  0.0832061971741231  0.3336564782742147
  0.5009172523882943  0.9999856389971002  0.1670858035139210
  0.6665394368967631  0.0839078223809567  0.7494840326063213
  0.5844051291662063  0.0847184176931563  0.8337012241432478
  0.5835574790478202  0.1676542420859499  0.9174013102313321
  0.1657775889038722  0.1667739776276290  0.0003266074791130
  0.4172700188198971  0.0825390405021308  0.9997352971451767
  0.7513609904545329  0.0844413402349394  0.5003155020830176
  0.5844235695396595  0.1655915496512695  0.0829385417679638
  0.6658505891216632  0.2491225147798908  0.2494413830088802
  0.5831558600813047  0.0823810428781434  0.3327854528030053
  0.4992533688037121  0.0820719237849117  0.5837034071216981
  0.4164448709340404  0.4166336318391772  0.6648060376750327
  0.3320176375980432  0.1662813524707204  0.3331605617237556
  0.5007257649162664  0.8331140092882908  0.6665361758011333
  0.3336648003094946  0.0817857866385655  0.9156298138474681
  0.5833633464915486  0.9156913526037053  0.8334561171593203
  0.5000634296049087  0.2485717605645154  0.2507492340140919
  0.6670173482159928  0.0827750326958554  0.4162299446972655
  0.4998611012374689  0.8324260840584800  0.1660956588042139
  0.7501426472195897  0.9990487325862895  0.7496633808776817
  0.4166631295096006  0.3330568912657817  0.2508117588431942
  0.6673658637791602  0.6682229867599500  0.1679927731549552
  0.2490142147155006  0.2514354505474665  0.1660203177088113
  0.4164287355435636  0.4178343857415627  0.3332230914601509
  0.4162166443752742  0.4146290997705027  0.4999859916759736
  0.3332065562004187  0.5007559870427468  0.0014204116037931
  0.4166886742503887  0.6665998203383126  0.0834449203629572
  0.3335135362981694  0.9164445605838933  0.4170564917595663
  0.2499789448369590  0.9996019517038716  0.4170369436843516
  0.4160111425568354  0.2494564189157412  0.4997092928132111
  0.5011177362842947  0.1674461962907498  0.3325669077184812
  0.5002719664139311  0.0830043698734169  0.4156815586608177
  0.4998872634397982  0.1657346098463525  0.6667408487141214
  0.3326864743204136  0.1679189107992674  0.8351152446876966
  0.4991569245146935  0.9163231503993492  0.4175841826018983
  0.5828470075461926  0.0001300011478564  0.5826537807972272
  0.5014454836069607  0.0004441110288945  0.8328474204618398
  0.5842429053375616  0.0001477359763620  0.9164786114957321
  0.4174532345818397  0.6650606598277058  0.7501810862928100
  0.3329896034102914  0.9166978999753762  0.2497550318857638
  0.4171621497775229  0.5006061981484564  0.9174624301092237
  0.8338119725082213  0.2496533868945243  0.5832377225101054
  0.8330308410352165  0.4170404720483519  0.7482828349067717
  0.9153661734171906  0.4173413967770808  0.8322738380412126
  0.8331627472293464  0.5844232997595469  0.7487832913023053
  0.7508567187141210  0.2506585498378727  0.0014984851744132
  0.0006372835484568  0.4170562396981840  0.9174134479246069
  0.8320230421872233  0.6672627208567462  0.0008137050315817
  0.8331840661405975  0.5009092868386522  0.1667215644693507
  0.7501694413589598  0.3333823907933314  0.0848829252824171
  0.9983946549151390  0.5847563803742222  0.9161183329039646
  0.6667242261897297  0.5835239804817487  0.4150221150127645
  0.5843939690791543  0.2507543165575668  0.3345574934861891
  0.9162178999410441  0.5835773534318822  0.0001338159452934
  0.5008950032975015  0.8324414333076797  0.8333828276480099
  0.4993673285477533  0.9159646460267490  0.0832671933048420
  0.7489267391325717  0.4168009340650257  0.0011940225758777
  0.9999941842325640  0.0826635478763467  0.0832678743564612
  0.8338765933068194  0.0825149906341931  0.5835852613209659
  0.5008945420234500  0.6645458679660808  0.8337710641368404
  0.2512579738277673  0.4186784778353438  0.1669360000013694
  0.4999434431685302  0.3340676930542963  0.3329578659046846
  0.1658869558996228  0.5017291854677637  0.1666376762228093
  0.5819549440896322  0.3333559338348063  0.5818509958710691
  0.4167748370115625  0.3331070316425160  0.5830313447868610
  0.5003428425988989  0.2495964600935031  0.5828215984588064
  0.4164629030300478  0.1671240074977486  0.7495636684619457
  0.4167013768651377  0.1657176750261514  0.5835067878831061
  0.4159437041525501  0.0005310781867367  0.5835428111362866
  0.3325127564278993  0.3343015119169647  0.0013687887315470
  0.3335696637201385  0.4175723036850830  0.0833040491464083
  0.1655390887895966  0.9153921239190490  0.9170420146287110
  0.5001076076669591  0.3340367605245912  0.0007628672920841
  0.5839732185410563  0.1664340879213593  0.5832012726251308
  0.4173664974469742  0.3337157064713172  0.0839248088661837
  0.4996960681069602  0.5002238615597321  0.1661306571157135
  0.4993917816720451  0.1684794629782867  0.8329110284408032
  0.9156103440123242  0.3340025214887172  0.9186166146131557
  0.9998407505623870  0.7493140597946956  0.7499032711592831
  0.0831081074883997  0.1669355551413001  0.4158172784279658
  0.8331359586106923  0.4172898389010041  0.0844216046731298
  0.8342428942024076  0.1663876772673286  0.4990436985699413
  0.8339488408665794  0.5835446702688447  0.5834616868690709
  0.8334259089896546  0.6674472048375559  0.5007532978090584
  0.9999614082210829  0.5832173505927123  0.5835570106510227
  0.8320071943018997  0.7496303106121073  0.9169597357661224
  0.8342046732405632  0.8337259900198284  0.9997279392140985
  0.9160473738595684  0.9987207829384113  0.0852551024972510
  0.8330197390650731  0.8335890228252806  0.1665818431052432
  0.9999101653857655  0.0000229216481779  0.1668382016568116
  0.8331676413141310  0.3329494597422660  0.1666486963594571
  0.0019472420404100  0.8309732346144871  0.3315567183398952
  0.8334645811962442  0.4178084824018440  0.2503254062479224
  0.0833591375820619  0.4193062029749657  0.0005153228089691
  0.8341218528319823  0.4167747749382005  0.4154464076894605
  0.9995152925788416  0.5008794531748079  0.1659553793999157
  0.0004697943756590  0.4174812691557515  0.4151535406232633
  0.9171883890286415  0.9167744662740409  0.3333242488216722
  0.9164896039062114  0.9147383821371075  0.6672479519245521
  0.9159871971052604  0.9151763941598822  0.8331298887801160
  0.8337664278406689  0.9990475442365094  0.8332602457247397
  0.7497569241144862  0.8329075747806141  0.9168122029858597
  0.8325106074754977  0.8320488801536345  0.8330824498708358
  0.9156111810677978  0.7504847130474336  0.6665718696525942
  0.9162542728015961  0.6664608313219662  0.7488688284763437
  0.8337357412203757  0.4170801108839828  0.5835359052973571
  0.6668751282240566  0.5824403536638814  0.9173679478008796
  0.9171364433510595  0.4165807901055924  0.0012894620458757
  0.9178886071643355  0.7498951342392978  0.3337938459505320
  0.9171202418834016  0.9162827700310017  0.1669041432506889
  0.9169690680021926  0.8331449668274757  0.4163910666076431
  0.9163445432574955  0.3336729198887525  0.0844384461626810
  0.8335588107911375  0.9165727291980668  0.5824987313232204
  0.8337029271964688  0.9164449238778526  0.4162673947738568
  0.4993480877234548  0.2507547207313038  0.0834503038845042
  0.6669266155939303  0.9163399118674436  0.9162578918129756
  0.4169806451152692  0.7485656157718399  0.6670760013579169
  0.0830242560275243  0.2502863540384269  0.0008659804926008
  0.9995688816687447  0.5842923404527265  0.4161659807150416
  0.0830630978968751  0.7490392639418532  0.4987993254151504
  0.9996606823919272  0.5832266818910645  0.0840345224978547
  0.9156439166093603  0.6666028980112771  0.2496805819604328
  0.0830209822207060  0.9163368795370821  0.5003413974074389
  0.9178469431747190  0.5827761510624656  0.6660891909655695
  0.1663707410001927  0.6676442849866892  0.8321595449285722
  0.2498435087512278  0.7506006509960582  0.9992582870497841
  0.9992752980719851  0.8327176799789245  0.8342954517661675
  0.1665231821568988  0.4180173007033370  0.2492747249384114
  0.2506151586516728  0.7497385301397810  0.1673670343788921
  0.0826194091267175  0.7496006792790567  0.1672082776773931
  0.2512469191784570  0.1656970363773976  0.5825731206333241
  0.4997493197882464  0.2502287792330912  0.7498590114556332
  0.1652328128149488  0.4997015750338146  0.9991655829582707
  0.1668074870213878  0.2504113140477940  0.5820583913172581
  0.8328009350031526  0.9977958762825886  0.6667642448301000
  0.3329191763697308  0.6658176175503528  0.0000441530618652
  0.9172139132370093  0.5004458704701948  0.2498737762876911
  0.5821455431074972  0.7517231970585851  0.3331972473734255
  0.9169592787049736  0.9168218368946068  0.9995259231995092
  0.6666683764301388  0.9167184629439403  0.2505532903849935
  0.6674406097268284  0.7513612118776430  0.2505666070358201
  0.8343645161950777  0.9165661566319562  0.2504123957702556
  0.6665919177171679  0.8331556933484284  0.3332329985163532
  0.7506366842239121  0.0000606920005126  0.4164158410849001
  0.9168129440515679  0.7500493448283627  0.4989923525769742
  0.7509506281165182  0.9995651113751326  0.2503821391825144
  0.6659855742397571  0.9167817728350426  0.5819250656699817
  0.8336273110457005  0.1668028314138311  0.1659215443114473
  0.3332025944654064  0.9160140313022460  0.5836202099002563
  0.8343779908430571  0.9990531386221122  0.4987297982369318
  0.7495117768804694  0.8333503150962892  0.5833427377234172
  0.7489457611220077  0.8325205935487857  0.7497629586302680
  0.7499339462091846  0.9154224962474139  0.6670969506246325
  0.9167289408564758  0.5831252699061275  0.1666801072708529
  0.8328592387978572  0.7504697930274746  0.5836860529359779
  0.4987033711695965  0.5003998802114747  0.3332398417676529
  0.5842332096259550  0.9997078620036596  0.7498682607943562
  0.4172059386103011  0.5000360511928232  0.4172455081788073
  0.3323191225208894  0.0845356825519133  0.7516865894926875
  0.0820764596972500  0.0002414978757368  0.9140948497502152
  0.1656893590489869  0.0827817966395632  0.9175136978717318
  0.2488005934618954  0.9990973586869779  0.9167985766126727
  0.4165292193083361  0.2509026372681833  0.8332977622003576
  0.9993679029845343  0.1662833378862425  0.0015157978119502
  0.1671397003795737  0.1668630800401825  0.1675152408799316
  0.2495532690219660  0.0833013653643174  0.1672625856015079
  0.2497103991480857  0.2496233009266073  0.6653614986556649
  0.7499406565508958  0.7519347457967432  0.1665908604821744
  0.9996157782931905  0.7493928833876391  0.9169201783015126
  0.8323599101312845  0.6683001478956887  0.1665335075943132
  0.9169002801283084  0.5002862153748106  0.5831455721459460
  0.9995339437307894  0.5838845734994662  0.2499845608170606
  0.3329089654129068  0.0820471911330449  0.0833235557700538
  0.3336853051196138  0.6657096071975671  0.3344651760072060
  0.5831048726341609  0.2494737606038906  0.1665264992950777
  0.0824620749981947  0.8323708711959976  0.7494753834020600
  0.3329758496924066  0.8321613769322579  0.8343804458854177
  0.1671864791564783  0.6663488626221089  0.5007294048263233
  0.0001099995547003  0.6657733433065509  0.4993174303635011
  0.3334698576419532  0.6669773607099915  0.6668922258192049
  0.1670799649823554  0.8320838621881135  0.5001102315265902
  0.1671933526420104  0.7497658000062706  0.5836127975926672
  0.1660107106363344  0.7504414245129569  0.7494597120057808
  0.4153944064523495  0.8329449214472163  0.0829966134063382
  0.4167429308885819  0.0837395010560253  0.4994497023728535
  0.4163803402765029  0.9168878358970401  0.0003017226336764
  0.1673965977454674  0.5833815090954322  0.5840037550422053
  0.3331309805937628  0.5004463856782623  0.5007371277191107
  0.5836225414067577  0.8328203254157216  0.9174002714088048
  0.8324277620745663  0.7503126661313224  0.7485030529171608
  0.7497530054325322  0.9159212775636172  0.8330290523501936
  0.8335617638983104  0.7503304356285913  0.2499094040548094
  0.8334212196589497  0.6669385233402279  0.6656293134537346
  0.1663369723245296  0.7497695596769292  0.0835727782174987