Cr Ni 
 1.0000000000000000
    21.1200000000000010    0.0000000000000000    0.0000000000000000
     0.0000000000000000   21.1200000000000010    0.0000000000000000
     0.0000000000000000    0.0000000000000000   21.1200000000000010
 Cr  Ni 
 259 605
Direct
  0.6665451688579201  0.2494485568740001  0.4170644101334375
  0.3335417295744529  0.2518161173706275  0.5832734581760041
  0.7508758804079141  0.9991651632195244  0.2496848316088170
  0.7496510756381367  0.1668377347880423  0.2498571893451574
  0.2520705669513985  0.1673512558639081  0.9171793153542348
  0.4177705912215714  0.1662528160611736  0.0840795234699845
  0.8324790983237814  0.9994597980706289  0.8329699521516090
  0.5019068787861597  0.1657245093062847  0.1656569559838173
  0.5828351355092902  0.0001011374405095  0.9148572273655454
  0.7497237002406377  0.0833644375531581  0.6678705322222074
  0.1677186113805281  0.7492250680070786  0.9161035668985286
  0.2518037605477764  0.6673315614971711  0.0826955030968796
  0.8324119971655464  0.0833993027377817  0.4169427988660970
  0.1663838240519994  0.1668981234598249  0.3333678016025185
  0.7508484145566294  0.5836618575378980  0.3331399195195517
  0.7501202441813114  0.6662235936361336  0.5839052900355828
  0.1663451389479759  0.9177889838563139  0.2495302386181741
  0.6660926032171008  0.3327735651445854  0.8343600427663874
  0.3343009795687715  0.2517948704217087  0.0825105139176996
  0.2502514623803669  0.1675174802567661  0.7503061784471275
  0.0002157373955016  0.0824250558831671  0.5852832586993312
  0.4980001198483359  0.0849034268649557  0.5830515872680843
  0.7490665790276150  0.6666606100880349  0.7501431328066152
  0.4151139705705812  0.8330026538473871  0.4177128554436781
  0.2490443829053986  0.8334643227603956  0.7487853461697542
  0.6663152464789823  0.0842933232719459  0.4169129869375591
  0.1683943587748479  0.2490766016282355  0.0819182028247890
  0.4179810357625504  0.0846017629912959  0.3333315813771183
  0.4998230893419021  0.8325740947473259  0.4993741257560154
  0.6660353295111306  0.1665114443296640  0.8331195666578186
  0.3347729492155939  0.8333777597581278  0.1679134407519279
  0.9166854991428776  0.8340495836873714  0.2486417882623765
  0.3341907154784549  0.4997765297868335  0.3335044286901351
  0.0003820764523683  0.8332400845963981  0.9977977146533652
  0.1668785239564576  0.5845749934497568  0.0838663864784799
  0.3335686671837826  0.9987476965485363  0.8316721983438685
  0.5833441023121484  0.7494728672725397  0.8330163359539743
  0.4989637543703903  0.0835791237065883  0.7502172731690767
  0.1669725821696283  0.5835474925499041  0.5832758963333765
  0.4985312884219116  0.7496513115863827  0.5822877412752466
  0.1666971237374239  0.8352573532662881  0.5006692981845488
  0.3341604432567484  0.9995760284532187  0.6674848424855699
  0.7496930457616657  0.7507181779865928  0.0005644957513905
  0.8326772976156455  0.4169971671353946  0.0821876496945988
  0.9162445460364103  0.5832048299749161  0.1656890744844352
  0.4168337054273057  0.9157251648390431  0.0001526115120356
  0.1660662683194955  0.3326297455289779  0.9982235376837589
  0.2489723041738816  0.6657490660999222  0.5829680840963463
  0.8314999704525453  0.2498289266280146  0.4174622797514204
  0.0832740551507353  0.3299701075989853  0.2483932080530340
  0.5002055954119738  0.2500828125058864  0.5835379963301194
  0.4992619566026463  0.8323149659043986  0.3352509745894260
  0.5001865098185899  0.7490792699102498  0.2517753462873585
  0.1663894060131412  0.4166210782134311  0.4162583928439039
  0.0836553725584496  0.1652834593300675  0.9163887112653616
  0.0840539983657292  0.3325505806349817  0.4180847011911993
  0.1684677051989922  0.0013954021090813  0.5001946391800858
  0.3332453744922897  0.5009398923322823  0.8346693231737788
  0.3326909550013873  0.0007020596787866  0.5007561679172234
  0.4176390224282358  0.9172522061897611  0.3345036706314399
  0.3331302886791736  0.1681077794292813  0.5003825090221091
  0.5825031325138620  0.7496390213240953  0.4995617429002542
  0.4999274546155741  0.5842058352695711  0.5825769372790915
  0.8319970708967245  0.0005569308130444  0.9987491980058134
  0.0845196037349734  0.0006610332874430  0.7503414019906371
  0.2502409831902712  0.3316784241012806  0.2499803656514051
  0.1681811563768759  0.0010503512425427  0.6660858994616070
  0.7496646962418518  0.3336610604703262  0.5844908064598326
  0.6661953359031905  0.9162049670786047  0.9153894052764675
  0.1659389740338856  0.6655607014684347  0.4997550483275456
  0.4989676295794621  0.0824803582228558  0.9161498462391520
  0.4994193702296214  0.8323542126198032  0.6653212574929467
  0.5008552634239286  0.5830986284269662  0.2501622735999310
  0.8315500331283597  0.7496443899842579  0.0839959484380099
  0.2485048698918378  0.6667440817863178  0.4170682300490925
  0.6661598250796393  0.5011314421549133  0.6660947301276137
  0.1667605369295654  0.5843190733541987  0.7499023345925211
  0.2517657187775384  0.0010114240214902  0.5844123101537764
  0.4994273784240493  0.5843028247740012  0.9178576241553594
  0.4170992787388573  0.9156266215054540  0.6663664741985379
  0.6661486081830007  0.6674599212848216  0.1670234356493079
  0.2512143541207848  0.0843616599827332  0.3318100296486009
  0.7500889785524748  0.3331535433404228  0.2501953795995902
  0.3334498188565038  0.7491664445561959  0.7488964708082539
  0.4167902849467873  0.5842573414590896  0.3337118243758072
  0.3331487628300487  0.5002777257830020  0.6667734151189485
  0.5008035364111499  0.8328528689434755  0.1672183755401600
  0.1674608496151720  0.0838379687614787  0.4172123203960538
  0.7523074367323240  0.9171283786530310  0.4991751037323755
  0.8333577769706829  0.1662648577148693  0.8333746227657970
  0.4164195729834780  0.6666946780452870  0.9162456599179762
  0.6670875751134753  0.7498962624136419  0.5828896194708036
  0.3336088930373036  0.9980114760074311  0.0008310847298304
  0.5828608789452479  0.9166803909434960  0.6654270054651705
  0.2505670376505079  0.7495638272139258  0.8321175709483727
  0.8319196270399600  0.9163780693476382  0.0828974056789322
  0.2502877023689940  0.4992276828082862  0.2513714580167487
  0.9153268870582674  0.4161011840252112  0.5003208473893709
  0.8343628073256651  0.5824352322056093  0.7510090904947979
  0.8326785723505256  0.0008860830279231  0.3332959437581062
  0.3337138714414485  0.8329606515442988  0.3347597337854112
  0.4173282491201136  0.3344591304705912  0.5830679835617131
  0.8332338952109811  0.1666285881026185  0.3339591387079504
  0.4162437513181846  0.5845208666871564  0.1677346326217144
  0.7484296655317494  0.3335764236383140  0.9175506025138660
  0.2505349132735070  0.0002099010703919  0.7494622535304233
  0.0004150462622846  0.5009010251742145  0.0000815371152107
  0.4179654783426728  0.1655814448325496  0.9178206435484915
  0.7502933432746203  0.2497439222991504  0.5009182532713287
  0.2502888573015940  0.2521948523966914  0.6667770980767542
  0.0005959946053705  0.9179080500500419  0.4170498625719841
  0.9156208727278109  0.2487023404128207  0.3346599302361510
  0.5019214564571350  0.3338663178653136  0.0004700738231696
  0.5010565987308531  0.9992778146101771  0.1675483502141231
  0.6653041051544519  0.1650741652602147  0.9993064444848040
  0.7502212229204196  0.1663840961828191  0.0822243405737641
  0.3329167292255626  0.5833532652524278  0.9151080788958010
  0.2505062259148867  0.6657098255144076  0.9171856576050246
  0.4170429448654158  0.9152495202447535  0.8317487721641093
  0.3328165307968456  0.8327652924292896  0.4995155953426292
  0.9985901902762836  0.3328122400504239  0.4992018513417771
  0.3331094195931886  0.4170616024152667  0.7505426694273228
  0.4164629277897419  0.2516241817031009  0.6665716025788986
  0.0002763993233366  0.6662633259810145  0.8329830276013893
  0.7502623529513605  0.0834374047105049  0.5009700296076084
  0.6670097233981391  0.1661689255331520  0.1660764381826242
  0.1670379456528562  0.4171756815037182  0.9166524284258522
  0.4161094813450734  0.4158601464491906  0.1654966665265761
  0.9994384028651750  0.6667705746185060  0.0002512731842593
  0.6665715664964188  0.8328722963134462  0.3341814794044380
  0.4172314067519331  0.4166505739070820  0.0002971547991550
  0.9175336835173074  0.4169132157926237  0.6671002995367631
  0.2514617893241140  0.0849260432457598  0.1667302601889843
  0.7496482585428280  0.3329218457191236  0.0832811040827082
  0.6669055666008038  0.4168032165629281  0.4167467195694660
  0.4995647646335392  0.9159383569317816  0.4175318239563885
  0.9161318662977386  0.0828908669786064  0.9986255905600564
  0.5827418033161489  0.3339993101904260  0.7503445674305588
  0.5839737382973677  0.4999782371912374  0.4165968484771374
  0.1676918564930156  0.8327996195361226  0.0002891191057798
  0.3347035101832231  0.9998055577501227  0.1670723425447100
  0.9162038023616377  0.8332068526326241  0.4188401457455838
  0.9173230776937863  0.9164116612331483  0.8326902444256062
  0.1682179924338568  0.9170957857590769  0.9163330549605776
  0.8332188185177336  0.6665821982457684  0.0004167508575428
  0.5848542749357545  0.4161930399073098  0.1670384646336996
  0.9165796665366513  0.0834040380940925  0.6672856476357264
  0.4160643864538645  0.7494964683351033  0.3345869927062762
  0.6662143792727473  0.0830878550834466  0.5840313089473749
  0.5022042413912132  0.5842570663289433  0.0833972122518000
  0.2496074418543116  0.6667447697686594  0.2504209417620218
  0.9164729605138585  0.6669632143555584  0.2493273545787185
  0.0003417833323639  0.5836733979042148  0.2504371525133516
  0.5832281723411138  0.6668998643019449  0.7497254214396515
  0.0832700553058902  0.9178622820903841  0.6672012670383252
  0.0011328197867595  0.3315310971712579  0.9987163645095831
  0.0836302633855407  0.0834155255085942  0.6668428665687574
  0.8321229737441554  0.7501759665393919  0.7502784017772078
  0.3341521866622286  0.8320920723618143  0.9999026878681352
  0.9161302573150797  0.4148637676534421  0.3323055708165157
  0.0829035879368263  0.0827407869276545  0.1643535156552725
  0.0015097114858770  0.5001361010231816  0.8332756434694133
  0.9993146088629494  0.6666095205291717  0.4997268851277167
  0.3340188658865410  0.2511020387244964  0.4159884465574691
  0.6666343168998332  0.2493276307662145  0.5846357199507840
  0.5834485606551287  0.4997775896661359  0.2499547954716445
  0.0002616603773937  0.2505749404611232  0.5833748190197890
  0.1682445971458181  0.1664134512790162  0.5011907314178845
  0.9159894097510410  0.0842687763970292  0.1652296502860235
  0.1665220285111145  0.2507823528927325  0.7503424504023826
  0.2507349594125544  0.9158063910556792  0.6671517073819756
  0.5832512866808895  0.5840079337397204  0.0003014857069819
  0.7490507123331702  0.0010097360545911  0.4164876257118092
  0.3349865415771512  0.2499373212556316  0.2496193940717281
  0.1684751940129992  0.9989881038862607  0.9994022586709754
  0.6662473606812528  0.4174684694181536  0.2498007776650094
  0.2494009208399566  0.4160997237040331  0.1669256194822245
  0.4177642296336820  0.2497360694048829  0.3330780026421070
  0.4165525979559452  0.4162099743349961  0.4998882053240902
  0.6667246345593228  0.9166028947687941  0.0830932564662076
  0.6661145467047710  0.7503976884964709  0.9167234885397298
  0.5000403739197622  0.4165609019249313  0.5831597969673261
  0.0833911327989672  0.1662713122872166  0.0819170384092607
  0.4175843997915232  0.5004030630345458  0.0841086556086880
  0.9991522792216999  0.4162551536166457  0.4162261849814385
  0.7485992303350930  0.9163831276426090  0.6656640819670133
  0.8353741109766856  0.9181154421698566  0.2503046660084011
  0.0831202255472383  0.3321111045447692  0.7514276449037501
  0.0015624914547701  0.4164221119201515  0.5828550309700988
  0.9991077834952795  0.5831182758432515  0.4160624326987266
  0.8331455708940293  0.5822291586693037  0.4163849892722229
  0.4182842710154457  0.3337041899764328  0.2490415868373443
  0.4998755506108756  0.8328720753897617  0.9998915480543298
  0.4997876239667099  0.3347579537479089  0.8326807096617562
  0.4179611454981165  0.6660268983646159  0.7494147815336734
  0.9996085700457138  0.7511370272027893  0.2502075336465770
  0.3344229561093944  0.3330860064535031  0.3322360484963327
  0.8339630782979521  0.7502493609582316  0.4167958423098959
  0.7500050170872226  0.5835682430404427  0.0003197457710935
  0.8322550936942984  0.5838520313268442  0.0832807905727182
  0.9970771825701594  0.2517315171830420  0.2491067397027852
  0.8296374781851036  0.2490584724097177  0.0820214560863408
  0.6646365023334506  0.8332557543434255  0.1666292509513858
  0.4998982560908906  0.8323498937622500  0.8330200343968935
  0.5845261161471563  0.4158149981828256  0.4996382053536997
  0.6679524335237894  0.3341971521208140  0.9991656740581595
  0.9986589463138821  0.2519092493782810  0.0811609717151975
  0.0836966200014737  0.0006110489904565  0.0828154400699461
  0.2505274019497903  0.9167742862238263  0.8328250540646819
  0.8321246196284106  0.9156897982374170  0.4175295672338039
  0.0011086796644761  0.2475751438021861  0.4176435702432162
  0.7513261016549704  0.6673199926025776  0.2505090682827592
  0.3324557993066674  0.6664988382963101  0.4998284953952918
  0.9169068161805156  0.9994894925716943  0.7498211579272197
  0.9162997332161347  0.0002047851652036  0.5850500407109058
  0.9993411885549920  0.8334743056076720  0.5003781649993202
  0.9165413147545167  0.8320191252997456  0.5851068256280416
  0.2502833258407100  0.4181090756691306  0.0004595956272848
  0.9983869011118526  0.1665616875381543  0.3334615777913870
  0.8309195874581660  0.6665151258636193  0.8330669434691563
  0.0001576050160998  0.1656922384747440  0.8337762165562838
  0.4998226172452813  0.5021362119365556  0.8354530722218195
  0.3333423702533976  0.0825159933605135  0.9161960337537906
  0.6655257386012252  0.5012546835140581  0.8334792986668103
  0.8320541295644784  0.9159107657731401  0.7502058734789230
  0.5833549111448866  0.2493809495775473  0.3333747670280764
  0.3333600704286197  0.3340440264946756  0.8335461693942304
  0.3343156007150814  0.1668522060088863  0.1662621234403354
  0.9992155651458782  0.9155113450913326  0.2483197377061798
  0.0832025754623711  0.8334322573393890  0.0825405469201954
  0.9996361520288835  0.3333750709053213  0.8340832125069573
  0.6662167988476223  0.9997118577777775  0.1668461014954696
  0.7501430637076069  0.4992306356179997  0.4166652510339759
  0.7497220934511334  0.4168230337752348  0.9994217145428334
  0.7500697816929548  0.3330921414784659  0.7499022145972186
  0.9153434785626765  0.4168001588533258  0.1654541353091969
  0.4998866774539913  0.1662657188399922  0.0002576958204093
  0.1658638344581016  0.4166620454376600  0.5843779280443722
  0.7489153558188713  0.4164041853132179  0.5014316214091095
  0.0835734908203037  0.7504661593505823  0.6666797693390805
  0.1654804992938551  0.5835154088479897  0.4161109705611629
  0.0015732749537595  0.6675379688078305  0.6667481122178703
  0.7494333174720752  0.8333793386107226  0.9155510962532957
  0.9995425470774562  0.5831251160664758  0.5841261882547510
  0.0837205359563225  0.5830972372649321  0.1672121114058112
  0.4988992454520249  0.2505543235570448  0.9162973334598858
  0.9994896598333731  0.4129655311003938  0.2484865023143808
  0.0809974035201483  0.5831215886783609  0.3327176750968047
  0.4996875008679748  0.3336180791913728  0.6667945633441665
  0.1683513388133229  0.4155423128175664  0.7502948900953437
  0.3341495393306251  0.5833651872264729  0.0841735397653329
  0.4154582831771433  0.1673457826533367  0.7501924384806424
  0.5837076078803306  0.4174342110651748  0.0001137469346379
  0.8328688915728091  0.4152009332721966  0.7508753174916354
  0.8349650819903296  0.5858836225314948  0.5843127969520011
  0.0844373124360485  0.4167262330520233  0.1662067114420527
  0.5829550741812888  0.7495049833183335  0.3356702258199938
  0.1681728212836160  0.5845160237657786  0.9166749676510443
  0.6663983373168663  0.6680889903455316  0.8344215017798190
  0.7502767876976825  0.0814235918285066  0.8329562618306834
  0.7491022744595399  0.0833551826245049  0.1665106903101780
  0.7488667466371293  0.1659998854492803  0.9154509307949408
  0.8332325860865073  0.0824543093806467  0.7507864227155825
  0.5820284628875091  0.0833112125329348  0.8335217575563548
  0.8336543371995370  0.2475197959399139  0.2497434069532922
  0.6662190910260561  0.2493145224550403  0.7509917014346417
  0.8344975235457558  0.3327513185014031  0.6656677578785819
  0.9152280457707268  0.2493962766582027  0.5006765375127233
  0.7506751182565929  0.2496244674497043  0.3334084692036909
  0.6669261578274204  0.9999405553100357  0.5006601951795855
  0.5826832556994289  0.1649389401664282  0.5838164606946769
  0.9162633262664440  0.1659992915140287  0.7509392289335619
  0.7493307993112038  0.2480888756673590  0.9995763802571125
  0.6668827479071308  0.3337418210042283  0.3329964879756524
  0.6671246327453219  0.1671449877514241  0.3335341670039744
  0.4155374562079021  0.5826110579484254  0.4995587545119762
  0.6660959163766850  0.5838961618896455  0.0838771692083875
  0.6662977026543884  0.4995657707509546  0.3332423292237566
  0.5002231160351629  0.6660452042501696  0.3346274118276766
  0.6657101768683225  0.2485450411142761  0.9165399688061235
  0.4996165781613428  0.9995916233311056  0.4996890512883872
  0.7497387982737040  0.9167356324420447  0.1665250150545646
  0.6663244638815112  0.7492260519206652  0.4163971053858818
  0.5831316138021128  0.7505333672661677  0.0006059996234673
  0.5831230124711635  0.5000417766718177  0.5833598474621225
  0.5832973439240731  0.6663416333333482  0.9164312227529705
  0.4172706545578796  0.4177540200916531  0.8341732510340992
  0.5003047025284824  0.6667984196831378  0.8331087359330688
  0.4998517398528215  0.4174051712901601  0.7502461699332796
  0.5820325607118476  0.5841551752096864  0.8335212775412891
  0.6668895916466153  0.5833563287358364  0.5829517682643227
  0.6666226618207728  0.5002680450248613  0.0000945150392529
  0.5826451522930703  0.5013740120953858  0.9175375601524529
  0.7498989500332176  0.5003564505252458  0.9163022565407909
  0.5003799004643783  0.6666069756889244  0.1673590029304518
  0.8335258383728388  0.8317975665287607  0.5012869218538200
  0.6652333162291503  0.0002443879058827  0.6684019411516759
  0.6683529185871282  0.2490880870595210  0.0821886444938262
  0.7497003681175982  0.0001300334493962  0.5843305537014272
  0.6657473885936177  0.9992093873524537  0.8324081274925458
  0.7494663550228354  0.9992502587473717  0.7499876720672269
  0.7502460146163478  0.2496646702174942  0.6681076433618578
  0.5005462333721868  0.9156768708979041  0.0837428196679697
  0.6659828988431322  0.0826568295634773  0.9146201218611104
  0.4164605356590938  0.8329990807470588  0.5826570068967595
  0.4994852830177202  0.7488769114869149  0.4169535861783555
  0.3346325123945990  0.7495994722728947  0.2504747569153417
  0.5835090491629567  0.6658858477609358  0.2503629258657885
  0.5837485719513494  0.5842677113940515  0.1665075731528206
  0.6667424256660044  0.6669338173411791  0.4996410046608474
  0.5832445900220261  0.6667965265336301  0.5828057335909462
  0.4994575487270136  0.7499696082974171  0.0827148963036652
  0.4174627012284934  0.7501318402785510  0.1675529501982384
  0.5832684972576324  0.5835345211844426  0.5003151989358617
  0.9161429338492311  0.3325345287926090  0.5835968507368687
  0.8331487625185532  0.4163765844773515  0.5837996555402856
  0.6665195015508302  0.4168821542955392  0.0838013252111068
  0.8331544235860415  0.3331633851500109  0.8339626426826686
  0.8342556296236087  0.4168096159732196  0.9168868408001328
  0.9171775583342547  0.5004734609106943  0.0828990521119978
  0.9158541931937940  0.6661592672540974  0.9156279895122312
  0.5839781942906767  0.3334637884051239  0.4165776395477406
  0.5830204934598385  0.7506267859404162  0.1666897603515305
  0.4998088172843483  0.6673741821455483  0.0008530138713710
  0.5833293866757771  0.8335360752287425  0.2505296230283131
  0.5835071979509437  0.0011830481991726  0.4181122078007944
  0.6673767784479560  0.8321933418202483  0.4995086271300079
  0.5819481895021932  0.9170535056966092  0.3336301183255741
  0.6657044544297640  0.9994621996783101  0.3342947373480116
  0.8329549105613415  0.0001088152749040  0.4989408241556808
  0.6661255531039179  0.0829448570065224  0.2503493772874266
  0.8316590511542782  0.0830845743525841  0.9130818837359601
  0.8324568902155089  0.1659288453908860  0.1658130880635614
  0.4997077044173506  0.7497087153174242  0.7493981405784846
  0.5006674649085647  0.9995832096430132  0.6649682678187221
  0.4999465290968382  0.9163545829778146  0.5820568336513596
  0.5835967627228359  0.1667523038062466  0.2496533218564210
  0.5835384849966613  0.8328739149844264  0.7492442592925181
  0.5826150514998593  0.9158572454964806  0.9994668656625529
  0.8321280684087917  0.8333491727181708  0.8326763615986378
  0.5820665515184472  0.9161376278736684  0.8325692345944654
  0.6665481158243589  0.8328428632924810  0.6658488385905379
  0.7489185068487331  0.0007033986775478  0.0826112666130550
  0.6657866064285278  0.0835451015596278  0.7510266189915985
  0.8324458968588692  0.3324018193017656  0.1662177918630468
  0.6656842065647972  0.0001303095977338  0.9990764995094280
  0.4167012563516349  0.8330088637681277  0.9163862033272898
  0.8328859211118315  0.1652626746279285  0.9977535991041773
  0.8332578590520191  0.0010182697367597  0.1664103983695896
  0.6665099858425656  0.2499288268608214  0.2503515816701254
  0.5835004661851124  0.0000018555582103  0.5828078872853746
  0.5832599809439861  0.9162706782806493  0.4993120384821096
  0.5832272093180558  0.8328591542838608  0.9161094882852402
  0.8329858420395719  0.1663276738957929  0.5007725888373993
  0.7502822543980896  0.7496614700153449  0.4990001356819326
  0.8329441844998297  0.0830235887943140  0.2497244662233253
  0.6651499658838895  0.7502409244867022  0.7499325967599292
  0.6660364042011748  0.8339199215963788  0.0001289698740023
  0.7498254465789870  0.2495248730252989  0.1660111946958691
  0.9160082578440049  0.0004431408225655  0.9157133435464149
  0.5830228212820325  0.8343224462925357  0.0830982123140260
  0.7500928986488307  0.0841074608791837  0.3330663940056119
  0.0833657104833493  0.8350245816565304  0.2494450988564803
  0.9990026721182866  0.1671964615670386  0.1649606678482266
  0.6651622618825959  0.0823859773473366  0.0832725095445501
  0.8330913293723015  0.3319271197602857  0.3334723703187177
  0.5841018065572809  0.9163067245456736  0.1673198905319789
  0.7499912957958526  0.3332799001120706  0.4168192481627127
  0.5003674255612889  0.7497863768706916  0.9162066367535964
  0.4156875045719026  0.6646046210455412  0.4169554314371423
  0.7497600680891036  0.4177103837941656  0.8333899426769904
  0.9159499523922966  0.9163275167090736  0.1645681596972737
  0.0814248965519012  0.1676026958610122  0.2496557267987936
  0.9142329932771136  0.2481973545473660  0.1647925089418044
  0.0000130516076440  0.0005492404822250  0.5018702958043850
  0.9157119188172859  0.1664800264332254  0.4181020748082716
  0.0832976378965695  0.1659010834573528  0.4189258870719685
  0.9157359821936754  0.1656911476079560  0.5843682971733928
  0.7493560556450245  0.9987663365468665  0.9158093199960977
  0.0834397555994807  0.4162726501211168  0.9999210603149851
  0.9163620129321319  0.3337325735290732  0.9186488282288336
  0.8338328780561203  0.2512022446476005  0.7508688582770663
  0.5840746739459203  0.2500861183167905  0.9998995870164957
  0.9172404718319834  0.4163268037962933  0.8348076013719822
  0.0004746679938941  0.4989591762281745  0.6677053681469802
  0.8324160797316251  0.2500312368890003  0.9160958641104578
  0.8332820750707081  0.4166589118748184  0.2501781397956071
  0.8332255909855627  0.5002666282807304  0.1659040543680096
  0.7504287046915363  0.1670369868364872  0.4166446394100690
  0.8322679860683573  0.3337020337230504  0.9991235616270600
  0.7496746935872671  0.7499539027702761  0.1672860344542196
  0.9990112837574985  0.4997407660943193  0.4995952949056523
  0.8328990944113956  0.8338754221807152  0.1660957925383218
  0.9169257622536813  0.6672216454708079  0.7499964203635067
  0.9156044377485577  0.0000927978138362  0.0815802144626199
  0.9158529052640458  0.8331001573627614  0.9164207007445765
  0.7493203080126669  0.8337073476910586  0.2499981889050978
  0.9161498045215796  0.8325495489846365  0.0797393117840342
  0.9167384704450300  0.9164783443112070  0.6668876490209721
  0.9153925246088732  0.7506532704593923  0.9998191165565083
  0.0019796264827547  0.8344046819667948  0.8343699468299003
  0.8337233481642106  0.9169146049323380  0.5833852049006686
  0.7512544677947970  0.1651607884516780  0.7521772191715332
  0.9166175145926767  0.0827706717926981  0.8330896313242278
  0.0001440238432051  0.4997802378352481  0.1663109079067540
  0.0000524819640576  0.6671144360124041  0.1666799845821725
  0.8336537822013386  0.4178761218465838  0.4155009101855670
  0.5835113126638061  0.1669170731160927  0.4174800358750157
  0.7490738249236150  0.6680713455718386  0.9174037330681023
  0.7488068285509760  0.7497826486709465  0.6668299634569398
  0.8332718984103998  0.7509974283789365  0.2491108734788035
  0.2521920444886900  0.9995932270750247  0.9165823835088132
  0.5001899087625439  0.5831498818206641  0.4170456844086177
  0.1669769900522383  0.1652090504726453  0.1681327619865007
  0.3343347029932602  0.1670526194494700  0.3333417137331217
  0.9987626416832772  0.1659070717214024  0.5018395581688243
  0.0822311605805008  0.5003170875081666  0.4162677557551695
  0.2506400052917553  0.1665717935934710  0.4169107255467112
  0.8327535709890996  0.9158895798058717  0.9158155512660415
  0.9174050492755441  0.9172399508096944  0.3349367843327054
  0.8327008117256384  0.7504130918149832  0.9165193006622288
  0.7497699074893526  0.5003651105065435  0.7489358026752662
  0.9163012940806639  0.7494544258855895  0.5003085776835244
  0.8326680295370468  0.3327804300249234  0.5011647945336690
  0.8333475343284582  0.5000162690813837  0.5006770982543731
  0.9171338995975329  0.5005822211657481  0.5832450548989786
  0.8348915459327333  0.4999098538929554  0.8347432170210908
  0.8329808721243522  0.6675560092355064  0.6682335373640856
  0.8331504923519942  0.5006615542959615  0.9996794187630204
  0.9182443996501349  0.5005292699668478  0.9182410793365724
  0.0849163413486145  0.8324996809470119  0.9174347238935101
  0.0821226927709068  0.6678857465179637  0.2499887163464270
  0.1678510023988692  0.7505176329140021  0.7495428110128048
  0.2503049604905699  0.8334821752137022  0.9160722220643118
  0.2496514897848533  0.5846587569406723  0.8324942362106775
  0.1680697808128618  0.9194406383391953  0.4168823748502726
  0.1655004476610981  0.7511817281483100  0.4171408995737412
  0.1675025790634026  0.9170127420326697  0.7499170836292141
  0.1682378402610164  0.0846064794281365  0.5851914699399158
  0.3338800980607311  0.0004243537462366  0.3326398880096037
  0.9146008756486663  0.2494771121792969  0.9987769235371429
  0.9154211290492000  0.1669351090245660  0.0814687337114902
  0.9166333901284575  0.1652000279962879  0.9158689572401927
  0.9999139681127974  0.0821582750875536  0.9152868269442256
  0.6664404767624370  0.5843153476290108  0.7504154097558295
  0.7509091284486240  0.5839447125257866  0.6668486119284978
  0.6674896694574535  0.3327931002373095  0.4999943561970693
  0.6667422946553240  0.7507413482597620  0.0836596973992725
  0.7509116139172111  0.5822586418554369  0.5007168933320396
  0.9162887863431602  0.6670459818282342  0.0834964899135480
  0.7495486346200474  0.6653471312182936  0.0830792561029987
  0.7496158032000347  0.5001316981260426  0.2502196858574042
  0.8318834472191323  0.0830114825884279  0.0821541445898343
  0.0011192090899168  0.8333398480457123  0.6672141393873929
  0.9164065564265551  0.0838307289349721  0.3336782770786245
  0.0832185944182428  0.0018142495319723  0.4179021798148329
  0.7508280453457107  0.6666502437593030  0.4152550628908652
  0.6666822676423324  0.9156397769527213  0.5821909773306402
  0.5834059795573708  0.8325947980291545  0.5825248294039872
  0.6665254168533861  0.6674962793401059  0.6668731104048008
  0.6661727854404836  0.7500055664288436  0.2508102757750443
  0.7489572490057385  0.4989808852849566  0.5849259934435350
  0.6671997490170226  0.5837117579843268  0.4164887436754008
  0.8332872639551265  0.6665638824240667  0.3321661368269465
  0.9153992604893710  0.3327131197559128  0.4170479458473196
  0.3332408639709726  0.2511334713728334  0.7502645563275319
  0.1663833687496839  0.5013298961465708  0.1659482197664414
  0.3335446894183716  0.4997951305196078  0.1670506711494916
  0.3332408045099319  0.9174498437885538  0.4174023186505738
  0.5008118546597071  0.4174843849864924  0.0837864510303736
  0.2495793483650793  0.8336673866782107  0.5823868691698210
  0.0003243328742918  0.7501717352086101  0.7504751307381249
  0.3335280730569988  0.4165581009927278  0.2498456519462850
  0.3339392771715988  0.0847742923347513  0.4169710335338889
  0.6664344183703501  0.5837518584192498  0.9166300578500614
  0.7495228987028703  0.5840601493722468  0.1669005794679987
  0.6668082839990721  0.5838783352233560  0.2505558591932462
  0.0833281153964503  0.4142415413037363  0.3326835694886303
  0.5836062525705986  0.6675645793034640  0.0836030306102590
  0.7510456477531711  0.4162173356994056  0.3333336840625802
  0.5834289141349676  0.6655143630834094  0.4177053114762527
  0.5000932796887309  0.5833752620956812  0.7499484648608926
  0.4164911129118534  0.7495028295300058  0.8323366983597483
  0.5831679701707111  0.5006075533601906  0.7501572940622083
  0.6648267101339743  0.4158512884562652  0.5849723261948243
  0.7503679472440433  0.4160287821216703  0.6667359218064908
  0.1673703521146729  0.1659349109332576  0.9997192196702603