Cr N  Ni
 1.0000000000000000
    38.8588641550299201    0.0000000000000000    0.0000000000000000
     0.0000000000000000   38.8588641550299201    0.0000000000000000
     0.0000000000000000    0.0000000000000000   38.8588641550299201
 Cr  N   Ni 
 201  41 354
Direct
  0.0123537231733186  0.3712208968769046  0.4124811634378616
  0.2364681038511818  0.5516014553094917  0.4314631623089321
  0.4866536524448015  0.3208002439890497  0.4786827183844882
  0.6433777437029798  0.2566157949487486  0.4338632016651348
  0.5495989894888105  0.2200271114572980  0.4727336339027379
  0.4450299381247954  0.2306184302380645  0.4885508600056108
  0.4809385328118959  0.2731257512968318  0.4343449266210219
  0.3421673402086878  0.4485996941877021  0.4331545857905126
  0.4348441031580699  0.3678433694239945  0.5062259516293471
  0.4526834408351519  0.2802035012327623  0.5305972621356658
  0.3366253434940451 -0.0214655769281036  0.5071288919779787
  0.8794999319573710  0.8964046799237425  0.5904202811794216
  0.0114446943674080  0.9379015517416571  0.5249278750677091
  0.2486454887635965  0.6588795847323738  0.4529361364318716
  0.3454234024809947  0.5083692468837210  0.4134993101496383
  0.1795717353172263  0.4083578764917833  0.4539548352544822
  0.2313369809724089  0.4433596293514047  0.3990085323959114
  0.1624307618547199  0.3265617598666891  0.4699613343946890
  0.5296449866255308  0.6873966903873318  0.5281167314044465
  0.3746374518546997  0.2058580074400923  0.4124517962264180
  0.3033053816452674  0.2359613425529215  0.4745429670255497
  0.3817528702046921  0.3719051354243048  0.4163272383814526
  0.2225594970526767  0.7187514141121496  0.5278817470719851
  0.3183427377588294  0.3306436352923629  0.4654425800466190
  0.6554245714155145  0.9795076510807552  0.4867848410378723
  0.5608757039290378  0.0280587498874986  0.5057600099657613
  0.3230332427146127  0.8765035478209074  0.4175339901641001
  0.5890243182672328  0.0636316351560173  0.5560844446754524
  0.2125597193202643  0.8858223396686452  0.5534669257267099
  0.2627214016903465  0.4516453701489912  0.5159561152727171
  0.2758381367285320  0.3358766225697702  0.5637481837060929
  0.0670314686740006  0.9665830831448260  0.5322440528471045
  0.2143453122227926  0.3617767639113278  0.4811979606197762
  0.8948852109752545  0.9828769417504782  0.5278470098451463
  0.8629597049325584  0.9234014939497044  0.5265742180748209
  0.6042891081737842  0.0748111189890203  0.5010179147328178
  0.5105030993164413  0.0072336731715968  0.5522447634364995
  0.0222894026132454 -0.0244618709568192  0.5778589930861115
  0.9486522792707418  0.8982151879327991  0.5140256205749557
  0.9530112518583269  0.9652098791827495  0.4980512018457973
  1.0121581467500431  0.9972591451794444  0.5067976472960916
  0.4832707915202165  0.2297995676397253  0.5503911751738898
  0.3879752578820982  0.8732382469937385  0.4938194342684468
  0.9024805854405120  0.2058224162443753  0.4796050815901898
  0.3286670894242615  0.9289094814952942  0.4644450764543786
  0.0245075105807528  0.3635274111153873  0.4725596678378318
  0.5614328794523080  0.1149629044937089  0.4751141418494039
  0.7099591171660499  0.0076787377169984  0.4952982236963904
  0.5158040682662699  0.1515804638794548  0.4585488207126023
  0.2928637888271056  0.5387232083906756  0.3909094954712433
  0.1552412003875059  0.8608571645457993  0.5366397002081846
  0.0893106622697815  0.6209003449658036  0.4660487664736899
  0.4740378507343793  0.9515591853983820  0.5524591247299029
  0.4511973871164973  0.0469102661853787  0.4602661505246005
  0.5130626566391591  0.0687570156767230  0.5313249753174285
  0.4041112873743197  0.0660636350233808  0.4929298093726641
  0.1377335258382276  0.4726556082764413  0.4740870698318843
  0.2449924800128203  0.4100735794709378  0.4751309162419974
  0.4534542054849647  0.5072146300340742  0.4521149002011323
  0.9627271480777339  0.1879694331988076  0.4997391921739580
  0.3812823605834411  0.2392673767378210  0.4611854363160036
  0.2023892771107130  0.4557496720744901  0.4941089596827246
  0.3549524038832295  0.1598512982587680  0.4567091005407423
  0.0266462866426933  0.5889765349721240  0.4570444031312788
  0.0655777730770814  0.4016200280153606  0.4222471274159191
  0.2186623722976791  0.2521138761172713  0.4552214888434696
  0.1118856670459134  0.2988661571903397  0.4626834739631617
  0.0353277180948821  0.4663411227511477  0.4970633782958672
  0.0229714332124405  0.4822607621287299  0.4329255186724215
  0.0160764451830417  0.4264916157164821  0.4568198549926044
  0.3015940409846339  0.1883516171836624  0.4319861773042472
  0.3440700255326363  0.1084475430509718  0.4052473511563120
  0.0746186012323123  0.5671619187194339  0.4813551557718201
  0.1791746321407171  0.4676962515117911  0.4308382934364886
  0.1291243705724237  1.0589599459955454  0.5198669941195223
  0.2473903800541168  0.9653176286521414  0.6010218486780682
  0.2090507678108375  0.8407035223235075  0.5076061248130999
  0.2672106472351919  0.7325757230586453  0.4899031178591021
  0.2079617376419893  0.6177802128314714  0.5094365999802836
  0.8167106925678250  0.9666183513836905  0.5448336326983440
  1.0142184635928666  0.1401277928470359  0.5773388312847070
  0.2915425075388204  0.4755141671345464  0.4071245436801882
  0.2486282488785902  0.4765310103471062  0.4506315759654711
  0.4132522889329814  0.2958021122864317  0.4833855406681347
  0.2449324099299713  0.1365052244052307  0.4854172930265318
  0.5362578956200533  0.3025347020168033  0.4492180023298894
  0.2710591107968985  0.9427562479742483  0.4969106045297230
  0.9671935225778406  0.2517194690471758  0.5442126020844641
  0.6776343177773311  0.1034907961196139  0.4314182419379117
  0.8877677448242581  0.0410712825894597  0.5992459878260847
  0.8574215016349132  0.0562388766228567  0.5416467771999008
  0.2147649986850209  0.9070529470851240  0.4863052767882601
  0.9398151752512535  0.0374726453789804  0.5635239899252646
  0.8120344469663419  0.2902755239113006  0.4798737571082146
  0.3464816796895181  0.2071787889999542  0.5060222223540136
  0.5282765001089803  0.7472701124270742  0.5115297722437402
  0.2333011217847503  0.0155849719284876  0.5785428059023531
  0.2613465149270695  0.1909126943731377  0.5292942293659942
  0.8971515397514715  0.2565401025122355  0.5179228719134800
  0.3514666970115051  0.1390216961208676  0.5151631706832045
  0.3194274550815579  0.8073836065381531  0.4328545394738949
  0.4257821276139663  0.8137031954391885  0.4595385333309412
  0.5381658753215609 -0.0522824991728292  0.5776403419626877
  0.0063255083646283  0.0384737355665156  0.5567085876984855
  0.7023102217218457  0.2061254120120589  0.5663777491983378
  0.6610787924434959  0.1638425692335983  0.5624034024530763
  0.5928994640831301  0.3899981433035365  0.4303507407462486
  0.6998973101087108  0.0008542960232316  0.5579105199699893
  0.6771654722989014  0.1446228296712417  0.4703984399070896
  0.8665917757973955  0.1852857113797069  0.5213789794129012
  0.9273643597710138  0.4729745310143282  0.5198851725436030
  0.6091555884824342  0.2104660145799173  0.4945742006647482
  0.5739924303580692  0.0019292031268341  0.5720808585565309
  0.7291544163248856  0.1526649455371486  0.5844941086478712
  0.4885337956472036  0.3790901076720785  0.4534181295232638
  0.8130817784749164  0.3520924590760007  0.5239283701051097
  0.4450333376929847  0.1783688271132787  0.5418016885152592
  0.6039082004439108  0.3437189598213296  0.5151423752087291
  0.5599186747612608  0.5225286285033893  0.4849367078125319
  0.7671267674538418  0.2040604353425935  0.5895013223200291
  0.7438379917263905  0.0956316178971970  0.5448378200041490
  0.7567490903136743  0.1815027215350730  0.5354593031056835
  0.3040591579738469  0.4553536144237703  0.4737045183565000
  0.4514393295626220  0.0285083621789392  0.5276114133141995
  0.0599942408547698  0.9056360584996936  0.5516050767765146
  0.5757556152190549  0.2393281127897683  0.5267353965204972
  0.8733892263500229  0.1397645644054656  0.4675846754323160
  0.9612863774767593  0.3878726883270193  0.4487739037386927
  0.1226465973668885  0.3704664425277651  0.4500404977573971
  0.9745857541725376  0.5272583551140820  0.5206300231080672
  0.4386579539392809  0.6976858008097639  0.5524555126586175
  0.3371259361470556  0.6997341397020108  0.5745560000070453
  0.4142467893771338  0.1379382812344203  0.4102964620281751
  0.7580422554503362  0.9808622018823826  0.5986835858066806
  0.3468493751497702  0.5621717198120886  0.4575836261905176
  0.8386078067908592  0.2373876003869747  0.5019375837016417
  0.9219567105176358  0.9367442489571648  0.5526586339377866
  0.0530573637727859  0.3102843560120296  0.4980809411974772
  0.1783553763958326  0.9668603217525384  0.5733971252463232
  0.9792210334313772  0.3602030877151480  0.5208640500008741
  0.9209509787772312  0.5258710982766134  0.5016378171790932
  0.9752896336312233  0.4876253687853613  0.4734626110245451
  0.1413601882199899  0.5139521608147020  0.5169901191385470
  0.1010039762209636  0.6561497738735437  0.5741337796833225
  0.0882573525204965  0.6684762377656398  0.5097676202597164
  0.3205329033339926  0.8625733834954870  0.4807337868702439
  0.3680379381672047  0.7798639993134200  0.4525197320684755
  0.2695787351620977  0.8928706801106783  0.4510768362813231
  0.8398961058342479  0.1942621528094280  0.4606331652502044
  0.8258307191537214  0.3005256083934483  0.5424572085756753
  0.1155627085595300  0.2948387461716401  0.5197777839082363
  0.7687331290929744  0.4873094035938986  0.5139392934337933
  0.1699807156659246  0.8482976891249714  0.5992875360261840
  0.5040646338408692  0.5861140886496126  0.5186794360563470
  0.5046056132628810  0.2597234106885674  0.4934734392146579
  0.3940318243842286  0.2463214962644839  0.5190946385596124
  0.5326447995723186  0.3958716804629441  0.5407215890910914
  0.1374885282545475  0.1232188885296073  0.5091182688109389
  0.9048938236795898  0.3597967878019116  0.4409547419280451
  0.5581039466923698  0.8826086119014558  0.6002973719540285
  0.1679546473537841  0.1731885059383546  0.6155865152102672
  0.1420657193218461  0.0744275942021730  0.5781788315967740
  0.5426146022417153  0.9315627136002967  0.4634035963089896
  0.1846506087482870  0.0103075851226840  0.6180757441509471
  0.5255955344879345  0.8064318615319553  0.4949767891097539
  0.6050538634872473  0.9493356778958940  0.6016132475312989
  0.9639180871593178  0.4495068252480051  0.4261553593841512
  0.9617996809200112  0.4326561361703156  0.4956888257904774
  0.9656175199000229  0.3284215456929944  0.4657453251651715
  0.2181711413453983  0.1751799952629378  0.5722315998243607
  0.4669191107826556  0.6558841679130504  0.5211827034746396
  0.3640944225921904  0.4935002390456820  0.5372021315625681
  0.2224286188968582  0.9596395482810548  0.5402208475029654
  0.6082599917639651  0.9453252261405506  0.5353334131556916
  0.3659187524467705  0.3925167368856503  0.5239602277360296
  0.3473198418948013  0.2822429398174451  0.5482203825880940
  0.4286257676073886  0.7509475418865076  0.5340923625686430
  0.9055133100538169  0.2913161805958001  0.4650378753042074
  0.0785412486766093  0.0765355652317652  0.5561168118846636
  0.4599958374916112  0.5871566561676035  0.6003842319911957
  0.3863967261512616  0.3348026603341435  0.5456870169771242
  0.0222443947661401  0.4113065869684906  0.5237116561214102
  0.1493740324376657  0.2278880967264159  0.5963134603756783
  0.0920563075695500  0.1953263756459354  0.5258293409945698
  0.6611414559138395  0.0498279414097780  0.4813596585112864
  0.6229170703289725  0.0177344095190968  0.5302350393048886
  0.8062691755263253  0.4240699088513419  0.5634207664363904
  0.8635688593138061  0.4141268837669742  0.5818352550143929
  0.2416933126420836  0.8220755750267392  0.5614312357127982
  0.2676307229132277  0.8724750740533923  0.5202962896033391
  0.2652410118631666  0.8169906982539897  0.4810085799582421
  0.7805400722211975  0.3154606007934167  0.5779414142905362
  0.1920153732225392  0.4014616405265727  0.5208240606707381
  0.3122581830456844  0.9567376123617574  0.6166421000340738
  1.0327962347052924  0.5114282370791490  0.5375129012254528
  0.1323939070162379  0.5563365495097031  0.5558707417884388
  0.0157528952247138  0.4335107509270180  0.3916398028003249
  0.0720893405975557  0.0305895212652366  0.5142035940661638
  0.8558389187130154  0.4279638729981988  0.5193741145866178
  0.5499359945868350  0.8982277786445149  0.5359290779580890
  0.0931196265298204  0.3514172943361409  0.5008277310063379
  0.5913795276910635  0.5614061102641259  0.4898057027863686
  0.3422592728444689  0.2082822476875657  0.4550147553481971
  0.4763996913376168  0.9889312274600807  0.5199032695532779
  0.2633578480862382  0.5131527164767955  0.4213570808077993
  0.3772616151729875  0.1208310701105635  0.4367418952435911
  0.4368360805901420  0.2298502156365271  0.5372421063496692
  0.6702428069683123  0.0182619880343944  0.5198711158337784
  0.4602913496619304  0.2787930541394508  0.4799779306317017
  0.6556188871907586  0.9469905346918810  0.5221869064490774
  0.4821369930553308  0.3681656358942964  0.4993874815956527
  0.8497599981521785  0.9682255770482596  0.5067804243774784
  0.2386091305615642  0.1492147875675824  0.5332746973378949
  0.1955064952371033  0.8397512153635608  0.5562354265856487
  0.5917102218995042  0.8694487953943647  0.5294754920728498
  0.4284443928138971  0.3235085199905464  0.5247072534042281
  0.3563838605666451  0.8865500989155131  0.4578901525832033
  0.2405482938761330  0.9162013214006682  0.5278674083320951
  0.2922295201098459  0.8456398847964873  0.4455985376278616
  0.5592006502707438  0.0672539739508447  0.4783793585653640
  0.5780609071648696 -0.0803221585915901  0.5716681292305222
  0.2164436734981972  0.4407013692009564  0.4480622642068525
  0.2989602814629823  0.9033872088799839  0.4941477372838288
  0.1947138663883548  0.2920359133064108  0.4617996682217875
  0.9312366086981358  0.3174183924893642  0.4334657626079907
  0.4964749445378897 -0.0238207141882190  0.5872179326805218
  0.1636835094748283  0.3738238400624954  0.4836024327099037
  0.5275091013007520  0.2309767601231427  0.5255092584939624
  0.5236821121469110  0.2539413205060616  0.4481706424841783
  0.4035631006097596  0.2751333557851152  0.4370418582205503
  0.8940405285399055  0.0256955552531771  0.5511510197765791
  0.0420230603304701  0.0069662079634190  0.5447429940479372
  1.0051060852564822  0.3259515567236047  0.4976966413715048
  0.1181081345413865  0.1007449075630852  0.5460866384095776
 -0.0238359227356509  0.0443476301667769  0.5959383412361612
  0.7295316850126031  0.2337995821725133  0.5982248017719343
  0.2403041417159566  0.8632746912307173  0.4796540141086589
  0.5418534970528165  0.5883556241758859  0.5553428773236648
  0.5471046321113034  0.0393375899221434  0.5515069766365708
 -0.0087710854766291  0.3958427363639530  0.4881558763565966
  0.6178613563150177 -0.0169111105227890  0.5643208160894290
  0.8630461450580438  0.2773525184674735  0.4870815143523242
  0.3518281612623899  0.5026261310569258  0.4739685999581485
  0.3055111826468175  0.5014141182549674  0.5156854490335661
  0.6596083489779870  0.1028738070477017  0.5150264363247523
  0.6230155849619693  0.1171838498860597  0.4606623431273718
  0.6228283429985688  0.1517523770950756  0.5069501579580139
  0.4417372158795748  0.9862084793082474  0.4788455253260375
  0.2970233700817557  0.5205513911841241  0.4550048803366698
  0.2463610600026022  0.5967829202110039  0.4725481167011813
  0.9155414167995480  0.4717416258561046  0.4593404408612891
  0.6824585001823817  0.4440903044403142  0.5296848291330896
  0.5502803303590577  0.5842750742684214  0.4766459061207867
  0.9490335411145950  0.2489159125097136  0.4834494848806740
  0.9780185912638214  0.1294509384535923  0.5036640079398840
  0.7108541199295002  0.4993096850460191  0.4883683639274020
  0.8139623801849925  0.5159193713907630  0.4660158863026368
  0.4846465456227280  0.9049572903039357  0.4540238383831033
  0.4866849410601434  0.2109161862165824  0.4503903781798517
  0.4757976236401475  0.0601927166565704  0.5779712403935531
  0.8105182106097357  0.4577382277085013  0.4833138959303293
  0.2479195046734709  0.5140367145228292  0.4963355493865173
  0.4308725767998578  0.3471300261978829  0.4461929587102921
  0.1489804457725023  0.7042841997869630  0.4641635878484350
  0.1630637853728983  0.7455859045076670  0.5111402791032164
  0.7623087814584625  0.1266372304304428  0.4935118664364205
  0.6451815749234364  0.3096217560271383  0.4795792256155127
  0.5843847209752558  0.3998249501916973  0.5068265148028649
  0.6441927396299771  0.1947994711732497  0.4509860986676062
  0.8550728424731190  0.0157446115829577  0.4927478975927607
  0.3672591168482164  0.4477824439682834  0.4929769435414628
  0.4732106290800849  0.1653501045007832  0.4146243684433762
  0.1994372885597460  0.6905117453518911  0.4265643586781354
  1.0351483723513057  0.6887391893810625  0.4848165062305003
  0.6234859110339926  0.1162331456998956  0.5619255796228203
  0.5102918764267924  0.0754329202448900  0.4697868020772918
  0.3757938919838482  0.3495685238592135  0.4822217845363497
  0.5085214063211012  0.1286579350155599  0.5165255477777464
  0.1809996991593177  0.5265764713520595  0.4150815546689479
  0.1937511232339021  0.6312260250139852  0.4456388804046411
  0.1448378736065822  0.6418178778123729  0.4855766345611914
  0.1872574807365212  0.5734019800076411  0.4607650812914731
  0.3365547399751628  0.3910945167892014  0.4543862949396806
  0.5958590364973104  0.2692759567111757  0.4722155234240291
  0.5910889855065715  0.3317849218836594  0.4540341762902793
  0.1889019950990101  0.0849464501864703  0.5315646484336457
  0.7577312578692676  0.9874673915575777  0.5258514806043079
  0.6574000502775798  0.2520835957530387  0.4957412764950194
  0.4053684950319754  0.1235979742374310  0.5348305571211536
  0.4629270674775444  0.4809094442831533  0.5157916132011577
  0.5054038719178684  0.5424515026487428  0.4604410392960083
  0.5061863950869745  0.5244684131311819  0.5193282178972840
  0.2925871385899583  0.0135483106226395  0.5999435811403493
  0.1266742230053125  0.4938218707777593  0.4087280292965218
  0.3071104422363322  0.0722715440840600  0.5732402155803119
  0.0662271885596961  0.3338536856067846  0.4403435401455761
  0.0752185983908116  0.5155071459900372  0.4379044778450386
  0.5647566010804601  0.4655041045526399  0.4994218907114016
  0.6206056267495640  0.4532347619772013  0.5191726125019095
  0.6589443318802836  0.4654846050960417  0.4756652647551947
  0.4981472634064514  0.3418312703906713  0.5363492476268978
  0.1315808779192254  0.5358350117272892  0.4550213815442572
  0.1255512574865561  0.4317756555627352  0.4269661974467112
  0.6606377234076566  0.3331097729369138  0.5372098099706628
  0.4080647039778513  0.1250410256048431  0.4739569484149929
  0.2938539263365452  0.5649941391871961  0.4961765503068125
  0.7542325862439497  0.2626149673175693  0.4708530629516963
  0.8520385229154458  0.3809785252300895  0.4769085917055865
  0.1257063112024324  1.0164735359484562  0.5996088068955402
  0.3239200133217073  0.7155844074496631  0.5108322514057596
  0.2998533972135535  0.6285109629346055  0.4795126660795440
  0.1099838755891917  0.8925970834895001  0.5134212763148318
  0.5908879873078222  0.2252820908545418  0.4266311407111215
  0.2554375523295520  0.7185511498762220  0.4330441155779173
  0.7291869666203823  0.1795963851646983  0.4793016497292043
  0.7111331030633725  0.0916142613262508  0.4827516053938056
  0.3033178092856626  0.6873353265706753  0.4617407073420730
  0.4025070897678755  0.5818723392583215  0.4763369968406018
  0.5065214894724380  0.4785931688532062  0.4757622556782703
  0.4465173200136190  0.4486077614438951  0.4653028862638998
  0.4809014305893617  0.8408977689636365  0.4703216887455746
  0.2074833005997568  0.7346427404394495  0.4691463505863808
  0.6735585262407823  0.1933923920292056  0.5086852271091075
  0.2947451752341713  0.5841820252561934  0.4344379181979183
  0.3986604578443653  0.5365270398624193  0.4304550172923717
  0.4093417851578098  0.5011458952843364  0.4945615815240479
  0.5411637794240028  0.4138897137094896  0.4663037714303777
  0.5864858728944137  0.1682321729250618  0.4499233980611415
  0.1587625672435101  0.8095849631628252  0.4924360883405102
  0.3697287052670732  0.7612951393414344  0.5141322190211254
  0.3965509375706672  0.4744889871178726  0.4412181261417846
  0.7476444524920938  0.3812217030303236  0.4374817248041318
  0.4829364366552659  0.3823120129537715  0.5825515738698702
  0.4603849373307665  0.4382853419167803  0.5663781413253686
  0.2495947522855510  0.2460214117954931  0.5094561026699220
  0.7445231873949510  0.3214643806665307  0.4561349528749868
  0.5594063401441733  0.1682614477684501  0.5053524327418946
  0.6182575696489276  0.2846214502978040  0.5316311135192404
  0.5766540376097269  0.8395257001396511  0.4956074710141668
  0.3007704787803884  0.1644389425412378  0.4922110640179320
  0.5162446101852800  0.4569400408896600  0.5338815384762006
  0.6976302781525588  0.2277287436731618  0.4582586554105976
  0.3745434869004241  0.8429504475501001  0.4383355477854887
  0.3122909543674623  0.7458718663011769  0.4422212991308590
  0.6937438483294784  0.4067514025217035  0.4783810154831584
  0.6406698737308762  0.3698489415518613  0.4640369353387510
  0.7973916290640831  0.3509163471565576  0.4649554748761827
  0.6945907557991809  0.3465844946722778  0.4880500535911392
  0.5535407288007359  0.4691788292603646  0.4397590838518411
  0.2315583347424187  1.0164212204925278  0.5161539222976442
  0.4232584790547406  0.4313377866820228  0.5166350737599793
  0.4849706734271856  0.7432449632265273  0.5565509235160391
  0.3477959168215249  0.5481460156721858  0.5177476287016634
  0.2842316630473100  0.4164495960396127  0.4263455581234005
  0.2001969947800081  0.0688231707353717  0.5952022153103637
  0.2896681249720768  0.0401892567807591  0.5229398655655919
  0.9225626669617727  0.5852449916169701  0.4895952069239045
  0.2844574860802851  0.9816719580550548  0.5465586524989408
  0.4341057433131631  0.9199790799731725  0.4930469201566172
  0.4312808725907453  0.8747719247282754  0.4471685787918583
  0.9060098164856611  0.4139722115772697  0.4806141328163152
  0.3803309538674900  0.7036963075948582  0.5334811800446889
  0.3566835116423393  0.8195266158778282  0.4967538988958971
  0.2147250136940826  0.7795418717320945  0.5113774411276565
  0.6081150312055450  0.0187509796155689  0.4652061204148569
  0.5965907286244534  0.9603096243967717  0.4743068511736575
  0.9748216118139575  0.0915713502029479  0.5746314896993867
  0.3963192397608977  0.5921244756711537  0.5777294702841145
  0.4161145487136512  0.9646278479294972  0.5356314078032778
  0.5501831779908144  0.9662592861123745  0.5164259746697630
  0.5935134930847676  0.9004815516579783  0.4900233789251702
  0.4196491319150809  0.6917194023431548  0.4911196262008911
  0.3049727701168635  0.2339858673014687  0.5402089065752854
  0.4623469946877684  0.5408341758311547  0.5579102412719311
  0.5549866875799127  0.5063595728171704  0.5452626467805486
  0.2617513714695295  0.7808241729953864  0.4225188007957627
  0.3334438802435405  0.5968861361300341  0.5594270685610843
  0.4090729488603114  0.6356380125652723  0.5140304654727579
  0.3581583025179527  0.6644912437829418  0.4883401643953898
  0.3534516360111252  0.6072050560027403  0.5053656077402066
  0.4367303516888075  0.6415604947604641  0.5786259616755168
  0.3722755444844033  0.6470005311002835  0.5595817101169217
  0.3388824999889530  0.0184149828816907  0.5569257796373416
  0.9741024091856288  0.9703785891778701  0.6185927819110956
  0.2718616970061392  0.3581259286045502  0.4443031508731355
  0.4119689438506185  0.8072233772796983  0.5163886991930331
  0.4164813231956052  0.0679038600801949  0.5553857126092850
  0.4375701573312960  0.9048508372129536  0.5567992696845673
  0.3986830712324383  0.8558894353295223  0.5562376576274431
  0.4894136967471676  0.8996839010980685  0.5177702433684923
  0.4704489900448998  0.8032025231643103  0.5376951423678865
  0.2911242558344204  0.2899582066491368  0.5210880482121477
  0.0666823792183382  0.9832888409811035  0.4699752520558558
  0.4932782481193903 -0.0470387180932590  0.4931524501802158
  0.2963184898242812  0.2787326442802426  0.5835448692886011
  0.1561168993520329  0.1820268042920707  0.5525188182393345
  0.2379162698182644  0.2852984170980238  0.5590785463599289
  0.5431724137361573  0.3550214117921501  0.4890166972227640
  0.5548598408786287  0.3368915065194285  0.5576798224424235
  0.3484506642155967  0.2847575827414686  0.4901273623951775
  0.4444678658270393  0.8588138064455958  0.5138683393643058
  0.5318878739165640  0.8740743781145420  0.4790404039653692
  0.1382040828515307  0.2378730318179544  0.5354911677245056
  0.0258943482556628  0.0998740933363320  0.5335195493267356
  0.0831411778708812  0.1378534453452708  0.5407368906883228
  0.0310519449053536  0.1649297549978326  0.5174695751078907
  0.0510659822717612  0.1863723359262753  0.5735126905282889
  0.0887485917632432  0.2366828751187221  0.5753937447195138
  0.0782657629234905  0.0916497013175252  0.4945722639898344
  0.0221080500234297  0.0593541368709772  0.4861766601200693
  0.9206729779065551  0.0994463945919623  0.4835562894030971
  0.2401225910887943  0.0757776838111752  0.4950234312514750
  0.1981627859273621  0.2336626090673865  0.5564318408499015
  0.2237966265985293  0.9714953868593518  0.4703799503766857
  0.1972030806146010  0.2117916233991416  0.4993407329922785
  0.2565276667032534  0.2279084786402649  0.5791091052243925
  0.9045037511699427  0.9335113587206192  0.4780717564931967
  0.3860465584991701  0.9576171564339734  0.4737019554527118
  0.9187653452103055  0.9824443097359979  0.5945055557902851
  0.4190314517485996  0.7517257284165938  0.4748503061430586
  0.0333203252089952  0.0792388029522748  0.5959969695410808
  0.7546107640952592  0.0515014906474940  0.5022421959186103
  0.7527096357593432  0.0363818202296500  0.5628173236962125
  0.8274369875141727  0.0151310934123622  0.5853219329108958
  0.8032846187885109  0.0730071691596494  0.5721310520754319
  0.0001314469007852  0.2799590289230455  0.4862673609473737
  0.9663237638864650 -0.0176926020977056  0.5537614487768546
  0.3223505268973954  0.1758008298800243  0.5559053263155954
  0.9725377572471590  0.5578777626414186  0.4597413189069905
  0.1104668837766605  0.2373630718142874  0.4788728257545892
  0.8710842911563053  0.3684744827056898  0.5400018267207919
  0.6471881863411810  0.0034957205296617  0.5970921402982424
  0.7833736385192088  0.2545019457717354  0.5308358965157320
  0.0740878878419435  0.5578916434839630  0.5390065021129896
  0.7474839221309663  0.3719134602362545  0.5001349768209956
  0.9148508417887349  0.4146298938151854  0.5421982224281064
  0.8644855372238649  0.3243191498708917  0.4972833508262326
  0.7077802973298875  0.1423505428947376  0.5257703180150655
  0.9109794856539219  0.0427783145725414  0.5070006374199240
  0.8899315142447983  0.3078814057944991  0.5571489023840799
  0.7453011780163609  0.4322857419643053  0.5406582248858302
  0.1733603881561848  0.9843390764008220  0.5078214039770227
  0.3658580869189830  0.7206639406597292  0.4674714667223793
  0.1658898450067820  0.9230030202030527  0.5234167058267960
  0.7235334665071858  0.2319669397032521  0.5155546812571238
  0.2054331137620874  0.8028698038092705  0.6153920071086380
  0.0179433971261238  0.5702462559957966  0.5162000606713490
  0.1848016826799111  0.5595059468263691  0.5189880630971547
  0.6976271587678045  0.0583512698044757  0.5353635856972511
  0.9901347157338091  0.1966427749788976  0.5620714034383461
  0.9777077746015037  0.6129233273797855  0.4964900894339792
  0.8080078983885824  0.0886620889345022  0.5124923605077366
  0.8663459525777503 -0.0444170402688380  0.5813280951765756
  0.9680372613616968  0.0705056159441773  0.5173401420546748
  0.9625085500672854  0.5705344696361794  0.5655435168726015
  0.9556912936487616  0.1477089813582682  0.5574551946931628
  0.9243382036559892  0.5205817089320572  0.5631233126444091
  0.8824498013471218  0.4703580097225772  0.5585986202393568
  0.8046798572960503  0.0277409925793360  0.5288299707318193
  0.9160990320265189  0.0957988671383190  0.5478648118115494
  0.8247127871217431  0.4816541754492863  0.5380750943670916
  0.6943305053282631  0.2882495064756146  0.4444320976080619
  0.7088644389628562  0.2910822531870787  0.5045348604928932
  0.7643298127313416  0.3744792819314616  0.5606130454729941
  0.9146568469525520  0.1501883149856021  0.5138723824355359
  0.7841603132093496  0.2098383568732486  0.4894033922562679
  0.8619126235994041  0.1176079356539012  0.5271808813969550
  0.0656565039631432  1.0239713444514680  0.5827027437082635
  0.0922861094798778  0.0687817224173026  0.6173432624529723
  0.1423319418622011  0.1835413003603994  0.4905641735368954
  0.1775619968661490  0.1271272546214884  0.5754977373220751
  0.1929014759054898  0.1495570834135043  0.5167628918500980
  0.1424516844243634  0.6833644161205362  0.5324474971896976
  0.1765130635769525  0.7151560851390569  0.5687997338095578
  0.8403951674502930  0.1527106089006042  0.5726629563624929
  0.8607329480458047  0.0961607069792050  0.5879901999070902
  0.1010943880915169  0.6135092050533604  0.5304387069911464
  0.3412631569163346  0.8671636844129768  0.5397409132534204
  0.2879596016671753  0.8616050498152494  0.5784495250206466
  0.2676338124745350  0.7707084965061139  0.5367550115022244
  0.1624422803589526  0.6122518488746095  0.5485238059492518
  0.3224047226501406  0.7585602220776947  0.5554401331441409
  0.1979797987637406  0.6762356996019413  0.4905095332286880
  0.9017841392822482  0.1438553413187904  0.5895129312529279
  0.3019810005568627  0.8212395639238830  0.5332339840904048
  0.2094592773410505  0.7973804028352381  0.4540275948967831
  0.7201331419931902  0.3272733950515364  0.5569621732595970