C  Cr Ni
 1.0000000000000000
    39.0110871383406135    0.0000000000000000    0.0000000000000000
     0.0000000000000000   39.0110871383406135    0.0000000000000000
     0.0000000000000000    0.0000000000000000   39.0110871383406135
 C   Cr  Ni 
 213 1596 3725
Direct
  0.4191093280756897  0.0556407904789433  0.0263049084353879
  0.4272843438583628  0.0979359412825006  0.3221977786396187
  0.3107513560255494  0.0861147326004525  0.5919266229022585
  0.2612179675950455  0.2517553537489064  0.5437759975842652
  1.0099346334527455  0.8887895646716503  0.9450259378912506
  0.9709182626266732  0.9335987332345878  0.1059180800640634
  0.1841248777550667  0.8652609709118926  0.3426527230720918
  0.7899398146454037  0.5435475929611253  0.6397348758270089
  0.6412626396601770  0.1103409643881227  0.1069223857874815
  0.7252422882770370  0.5946983560286798  0.9113947717865490
  0.7316319334366925  0.4976348041911469  0.2977105969727752
  0.8431480628407587  0.3107355092519034  0.9142926830288574
  0.8368964174527367  0.4526486479530581  0.5350904301290729
  0.8167585799039117  0.8598583552961481  0.3259404659539196
  0.7821687691460358  0.0291224430977121  0.4267959736883727
  0.6708621982601218  0.1369984573290207  0.5240283869065382
  0.0644595460749227  0.8511473384708831  0.3689706077253143
  0.1839562224342956  0.8546638426990301  0.1682916694054410
 -0.0774450068663930  0.8517927969226046  0.4291163704705541
  0.3088577010921223  0.4795556024582802  0.4506622777955868
  0.4344339267726339  0.8328112935751754  0.0303010525387249
  0.7852703872079297  0.0151819254052039  0.9033028382621968
  0.6205992624686766  0.7414636361228996  0.6009877550553110
  0.5688438501470863  0.3282560833157016  0.9467309383698091
  0.9968445377113232  0.2895226986830941  0.7462617164081382
  0.0271502708918245  0.8974658852121573  0.2729274696973424
  0.3661430187895289  0.4744562658307423  0.1140819042537593
  0.3355105897244523  0.2487057388216172  0.3616384643892721
  0.4175224401436504  0.5266306385397961  0.2891078257450808
  0.0081209993825571  0.3414087078547926  0.0305812844207252
  0.3471452537418461  0.3449330379368211  0.4515769461402944
  1.0059417310981007  0.6371593365135368  0.1760701267394262
  0.1929101658740437  0.9470705728600756  0.2629216538894909
  0.9225363902857849  0.7101102005288317  0.5459428643232397
  0.7142609946732126  0.8436260887221454  0.1161065274222046
  0.8944821260455855  0.5567369115080625  0.2192526049052707
  0.3284582975633363  0.1687432993957592  0.0282551833291584
  0.3675805391036140  0.3697896744238635  0.7963073102859666
  0.1909241564962582  0.6949883035511024  0.9809124540805021
  0.4647778985048634  0.1486900914410607  0.4530845054610609
  0.4627259169204219  0.0803374106645940  0.6469332762341858
  1.0466136545057476  0.4042387735697220  0.0777430756669745
  0.2367064466264605  0.2785465971694766  0.4326446045817161
  0.8195405193972669  0.9857806941834010  0.5255349732013144
  0.0371420685126267 -0.0014081234210204  0.5780957968303052
  0.3819113934392448  0.6237321499302514  0.8294344684768129
  0.7438668480028782  0.1934663274151302  0.9133054023568253
  0.3725780793257909  0.0495480168403748  0.1405529048615693
  0.2388413405925987  0.9236672814023041  0.4601646444536893
  0.0648294324926144  0.2820950654379479  0.7660215200696134
  0.9557569307835637  0.6648699996818807  0.3831125896872086
  0.1902895910141761  0.3254835620812244  0.3414557050079915
  0.4320165100457781  0.7957650775848589  0.5117214378604845
  0.8271329704990834  0.4022959652121006  0.2489840535515864
  0.4715445521432506  0.0522291324178561 -0.0444146887262272
  0.7904858262948222  0.5732250612245143  0.3537511780030271
  0.6905053279895157  0.9555118083857659  0.1045892502538392
  0.9738507016752261  0.3088532638992715  0.3324570003360409
  0.7128784784828484  0.3508042971863946  0.4659789127149690
  0.8658586260074489  0.5980225688134346  0.8909007749534000
  0.0393476896583931  0.8087939605097935  0.6014560015698570
  0.9178630645752347  0.2507489382991090  0.2150566503307305
  0.0825830255659945  0.0123090564680406  0.8947350693620526
  0.7462805315799916  0.9743335112735400  0.8161348649706448
  0.9631126122074585  0.8006297543501176  0.0411244247525603
  0.5232863072366578  0.9209851614018324  0.5919096035558619
  0.4247344890405616  0.6474255691735455  0.7244162199958870
  0.9709002140185840  0.6662008654808047  0.7581260758382471
  0.1163428876469828  0.7750522454197039  0.9469148937921535
  0.0976334637456112  0.4472675181310380  0.2642483828880458
  0.5320517315597654  0.0056916626235549  0.7243803864110623
  0.6134057416956662  0.1291301046959825  0.6278109898766683
  0.1812896853608332  0.8052714340257401  0.1197040922481249
  0.7120017594266302  0.0412933161385058  0.8048606729002008
  0.9722531164109786  0.7161530927310709  0.8829077735463148
  0.7722404333933994  0.6881370967263900  0.4960714229961148
  0.4168512409796904  0.4985790082593571  0.4130297694409946
  0.6029845445038053  0.2003411830091316  0.5457194911093248
  0.2548099904357431  0.0515235135259854  0.4233560075240313
  0.5813217319626971  0.9289565418075902  0.7834138179385104
  0.4806485784094535  0.3417484055420652  0.6707109368140329
  0.0205878372327110  0.3556408068011747  0.5117599392037140
  0.7453447547765258  0.0781957889337147  0.0355530369693269
  0.5045694277397995  0.3342385935065716  0.4496656878931510
  0.4996064088590953  0.8473310840855173  0.2704468070127450
  0.2279574974456767  0.9651611503007371  0.9857071628617049
  0.0561979384293156  0.4166558134493941  0.6228213594677338
  0.2164798777676191  0.3477778373625884  0.9203254986640345
  0.8313231791592909  0.6815313162133606  0.4520623485983556
  0.7686505097411993  0.1918263267511655  0.7919291363863622
  0.7205908290237651  0.6055995080106655  0.8396659093079376
  0.8165944716776484  0.6835279720836474  1.0201085468970910
  0.4371107309457459  0.1307525524163005  0.4733870625504046
  0.9004142065213425  0.6358739149015257  0.1401678689241256
  0.0881069471664936  0.3707631104552010  0.3473071369391216
  0.2147652191269499  0.0764716870451686  0.9705823089291459
  0.0439485234669943  0.6110617800488047  0.7709551543178524
  0.3164196127415284  0.5717018577889929  0.2987692645884695
  0.3274375285223618  0.5837500487632521  0.0009440831671082
  0.0744406025087163  0.0093427176654463  0.3024342477913279
  0.5103647004582142  0.9403905840726866  0.3602696549327276
  0.1540005218310518  0.4747017261138609  0.0417813104305487
  0.1347470613817009  0.8825316479542941  0.3873646117999954
  0.7581120634275466  0.1742801754499887  0.4345174996115376
  0.6233827337884736  0.4299330047489445  0.0447561386752192
  0.1568445804580579  1.0131807784336266  0.0199808472350921
  0.4986558069351932  0.8918264741924962  0.5925563967555455
  0.4008231087461929  0.7909327521881653  0.9473820876020401
  0.9879200501990711  0.9743421399279775  0.9541011240150520
  0.3548940387238655  0.0456267812474848  0.4494426218881946
  0.7457481380892546  0.0974684857917145  0.2064718736508154
  0.9931653106655220  0.3112514417840274  0.9685666302981500
  0.7799011585054104  0.3190302788593660  0.9579240480398489
  0.3245608385993977  0.6728043300564737  0.5656819249118399
  0.3185739375645714  0.9203511790993104  0.7064416558357312
  0.9141497269087612  0.1990821069818070  0.1709112587149796
  0.7742723934031884  0.8236382735189609  0.8923528545773375
  0.0515417648871619  0.2981936373664861  0.6988134150963294
  0.8265110665637873  0.6128634436402824  0.9847104278220202
  0.5317372869237310  0.4983065780189624  0.6706495386491564
  0.7764089090542303  0.4698269861452202  0.9381479888478416
  0.8922636793216447  0.9601938151121253  0.9459428729290907
 -0.0328271224100035  0.3947762638396146  0.7799223057641730
  0.4106388781058267  0.6962137612033242  0.7710914861272748
  0.1292655722011574  0.8518228941429538  0.2659118940333677
  0.6368877093625687  0.0917839703273423  0.9325415675509843
  0.9304044488221394  0.3600732397676055  0.4794109698710487
  0.2516709070156341  0.8564773088541900  0.9800461685584797
  0.0493057209013842  0.4808257004519101  0.0073949071795032
  0.9357168690199807  0.9250602595180493  0.0222439783864091
  0.4926013484479959  0.0203284182477421  0.0875872715801331
  1.0514519890710734  0.4233842566826736  0.4896187715425477
  0.7382581802972717  0.2691188841629771  0.8886915036409571
  0.2609146818200859  0.9385470473898376  0.2148858620608832
  0.2153130802906664  0.6480406392028414  0.4167108969098641
  0.2424648429589726  0.4373999025768928  0.4442844916585956
  0.6606695159742841  0.3040494971033526  0.9797262932824682
  0.0781294588324003  1.0229516606271203  0.7397659677443986
  0.1439418809521021  0.2995556261693407  0.6048721378527833
  0.0976364377255370  0.4164073563561144  0.1621940867311190
  0.1478906278899834  0.9530787198726008  0.5437032308774071
  0.5747348500077389  0.8517243840045898  0.4278948185098941
  0.6252345132389627  0.8393620913684563  0.9509680242654454
  0.7617514498150456  0.6607729332052267  0.8449578238124370
  0.4504702459791639  0.9081050742546365  0.3509922507743766
  0.2607319323599653  0.8877358886780626  0.1649736310906219
  0.5136128651028808  0.4876066990999961 -0.0060053654864609
  0.3363529318297104  0.2182546619750344  0.2509795722050129
  0.4418864646172021  0.8842369066422484  0.0877919869407559
  0.5677294097032617  0.9083176245212269  0.4819056531573404
  0.0672821468351822 -0.0478751620952680  0.3822721871286015
  0.8549101668490771  0.6694048098835984  0.9425996312459254
  0.2523156098442940  0.5052724547324748  0.6801739973528804
  0.2495834891294751  0.2205011720802479  0.3835313023096059
  0.6831505861734746  0.5836476216482313  0.5901809462530954
  0.1569735968965336  0.8925798411153335  0.4839455481093087
  0.9453919451425449  0.9072792461704390  0.6224922220838354
  0.4207499375636152  0.6803085398389295  0.8395073653102514
  0.0463274654750858  0.9428348749990794  0.3520100402801128
  0.0778712353769882  0.3909593354386399  0.7500310193664835
  0.2256700143463763  0.1713720694791964  0.4372733254655973
  0.4910138554454431  0.0776353085070999  0.1471109017681039
  0.4686455249071996  0.0600762402700244  0.4194129988593018
  0.0481708327945895  0.3938026721206961 -0.0013012495054903
  0.9917090396825952  0.8410063044170306  0.4042176245188199
  0.5814546879789549  0.5874318011384922  0.2126947812142252
  0.7411725395856037  0.9251924830540725  0.9027614217261547
  0.5931720773745993  0.6396227415218870  0.4958079938508906
  0.4034925393826880  0.1951212133194929  0.5981825377030482
  0.6125437786906190  0.4162797566285203  0.9520412507031929
  0.9450592467519160  0.5854815103439013  0.9913701254977367
  0.5844557280364842  0.4131056829246578  0.5196250140453705
  0.7627575648710357  0.8279624622282695  0.6353553606231407
  0.1754123183314176  0.7575747694237155  0.3089477802914510
  0.7541707475496868  0.9190745047363424  0.6528319149664282
  0.7940825445105473  0.5557057348214089  0.8669332974781524
  0.2996488817235245  0.7795181082499359  0.9592496586061211
  0.7755535846837059  0.9746383787944526  0.6096592913097816
  0.0692938508780981  0.4377450334780277  0.0786046283951193
  0.7932154458976399  0.6019952949820875  0.2267841461276527
  0.7093258349422591  0.9251231761113653  0.0950929821036481
  0.8945093558570019  0.6633894323429783  1.0076879505604619
 -0.0615672951708128  0.3957771257758875  0.0510407158120613
  0.2717023944958160  0.6682530671593848  0.6122239454583844
  0.9632131743992437  0.1397685344304379  0.0915753514748660
  0.5698560741685329  0.2286736883947141  0.9789011014518227
  0.2368691122559501  0.8297501403943690  0.3679888382852834
 -0.0603980454176890  0.3069032642652784  0.0162559744147865
  0.4528720370104722  0.1633412783618360  0.5515587586134487
  0.4522150699464077  0.3099575263354282  0.1500033127031400
  0.6228534552194154  0.5430161425063738 -0.0054418043553832
  0.7866533771796085  0.1623844845838198  0.5709392298017431
  0.0492538503665488  0.5283550627992117  0.2816270569139234
  0.8531488841516308  0.1112989150350814  0.1804640447823279
  0.2699015932582302  0.1625906732925646  0.5591962979196606
  0.5331504149599787  0.6470321391906293  0.7084192623033059
  0.9159671353128825  0.2310078655433521  0.2809579440196530
  0.1699150945092429  0.7916442544879886  0.4788100814894825
  0.6115865028598122  0.9341006022050600  0.4023476411435482
  0.2727526600900618  0.6651673021021364  0.2537279142349503
  0.3870586377101312  0.2870527168434211  0.0637082506331670
  0.4109585929998353  0.3012025563275181  0.5257672928261705
  0.3612623613532475  0.8100273390411233  0.0329201252507360
  0.8157186323688409  0.6362536025320015  0.6938418508748183
  0.9347165997111110  0.3866682158383349  0.1192946132641055
  0.3269834405304056  0.6221202075745670  0.8704072852929290
  0.1108502988130151  0.6037634789335385  0.1068722726903307
  0.5627768223216228  0.9148169484908745  0.7537911044221938
  1.0342953862539181  0.7532899645522679  0.4590038229001285
  0.0419092981316346  0.3329139178016489  0.8722431185104477
  0.0093437109961145  0.6674441658864558  0.2818515737637686
  0.4954767500814857  0.2393245699929804  0.3582018340219384
  0.1520038723674608  0.4372292558687024  0.4781024152580839
  0.5100502606218943  0.3290620865483631  0.5975059783314709
  0.7515843250935713  0.7495518936210100  0.7991113682230278
  0.4489900058215813  0.5522241502786951  0.2606257449704464
  0.8889709837953602  0.2388881880927833  0.4145909338582681
  0.6897617970992853  0.4534475887653645  0.6996772299677141
  0.2449617885119932  0.0594171325114990  0.0114582844215841
  0.6409397594500268  0.4481563060354212  0.7386742982890878
  0.5382226222471120  0.3950694242780090  0.2325769975671200
  0.7249364593238192  0.5320139453213627  0.8114981300539337
  0.9332999176945512  0.6958851891275302  0.7684643341173779
  0.7035945522458422  0.5735714511618968  0.8727417093108824
  0.2461862613021499  0.6394745588334517  0.9917343915338296
  0.5499077206969252  0.4240988874006968  0.8811610874136615
  0.6075754139713796  0.4149993267957360  0.9019735751945686
  0.2169679375972769  0.8887706400546842  0.3139778298939541
  0.5181438304069141  0.3125816371532992  0.6587654585480324
  0.6146466880969897  0.3554190760847700  0.6883126546461070
  0.2660527923469296  0.8562538203648390  0.3373988847566110
  0.5667696704805087  0.3213028675201779  0.6191680940784573
  0.5378684765512082  0.3913931605497099  0.5372977668445557
  0.2435716574848708  0.6569580121463379  0.2152626408591168
  0.8399375536113824  0.6549154774027214  0.7321192937802040
  0.4478580406207989  0.5366672257812642  0.3263221734232778
  0.6365006374071414  0.2980492526770519  0.7037419601201105
  0.4253524388469919  0.9137938526289642  0.4872282831472667
  0.4760542447701961  0.7756408515434201  0.4862061960897963
  0.8593333445206712  0.7649131772718745  0.9499194240760472
  0.8081545969921052  0.7711675734614163  0.9267036473694037
  0.5437091558515320  0.7385733869799791  0.5701323969759402
  0.5692174844875315  0.6904335859431008  0.4278882837397430
  0.7078642187249233  0.4575015984080161  0.9286823739225364
  0.7102250108143637  0.4255561534835976  0.8221223198931784
  0.5887137427740070  0.4422359179935094  0.7795934898400420
  0.6720376740491301  0.3784478542092286  0.8177596170352538
  0.4847498577155738  0.1643558845912662  0.8931851064900586
  0.4724547894401497  0.1752190463950065  0.8306351921477129
  0.2973339807874767  0.6569306497417116  0.3504850387096867
  0.9461556822832119  0.4441102377464252  0.9590426724333865
  0.5401357753282122  0.0843153682663784  0.5312342000688175
  0.8862716856741856  0.5380637721785116  0.7535685398565674
  0.5239929150507451  0.2830343792394661  0.5566903349359419
  0.6413114755311204  0.2674128873516584  0.5983584880748091
  0.8621358783532161  0.0721915191450625  0.4806080067011159
  0.5885193124558283  0.2614524335925346  0.6386618464960696
  0.7934505531511020  0.1613503196829909  0.4642949135740389
  0.6275420291944196  0.2114036907391305  0.8787346791236793
  0.3117185508782113  0.7947702713731969  0.2535897072201082
  0.4990466451999012  0.2372325766098187  0.7757718351170740
  0.3666609639927572  0.7932001173452649  0.3847255696917333
  0.6703998817435488  0.2276588369633263  0.7802048761252190
  0.5994267103283342  0.2485990150158764  0.6974866166878264
  0.2342555466486777  0.5257485051233988  0.0337003469950177
  0.5620114372543217  0.1993485498810879  0.6915350150009911
  0.5513320952814810  0.2112550708794906  0.6339715332296266
  0.5733672994023524  0.1547820426071911  0.6420389267885498
  0.2878611945929682  0.4991066464634318  0.0542907704019097
  0.5370253601645105  0.1052683031894461  0.6420131908870422
  0.4868833438093382  0.1177267677325771  0.4894490134234093
  0.4886000363892739  0.0570186469673844  0.5179715899679213
  0.3993267314618161  0.2539642579915138  0.9586470122992818
  0.5231276491450334  0.2425901469341767 -0.0002733852791998
  0.7469324514242237  0.2904222651367508  0.9825105307384107
  0.8993972486375228  0.9065886522576667  0.6047705616535390
  0.4820436366091857 -0.0031424201066510  0.6614429321926070
  0.8834674829888985  0.8406647561042973  0.6165707180191689
  0.9384746648121272  0.8589442274657820  0.5948005294310411
  0.0281244109756896  0.9980743657444875  0.1882531606399088
  0.4767840621312420  0.1137866223302467  0.6149692851257964
  0.6554315442102868  0.0456995642961550  0.9224810714346603
  0.7518425206182907 -0.0209753743869128  0.9154338461402646
  0.7065632497291315  0.2764013860334653  0.7856966629289531
  0.2362447712694797  0.5870783354125151  0.0195236524304691
  0.7804607066795769  0.1982183036113168  0.3293847774534423
  0.1903248328372613  0.6122727849194347  0.0453765414477487
  0.7934604257662750  0.9616459682979992  0.5616683440773343
  0.8998728867874788  0.9807334637398391  0.5265953338050628
  0.8470482270932123  0.9458193688093043  0.5158305891339352
  0.6998176122639331  0.4721020048336658  0.3240829659374951
  0.6404908997884744  0.3810375635290460  0.3314106016469465
  0.4437886301994389  0.1144418455557978  0.8872591215714715
  0.4792315778686770  0.0115309661454543  0.8677250738757285
  0.6852154021270086  0.3049182138304441  0.3165761234826561
  0.3956796899408112  0.0749729563966612  0.8248554839619994
  0.4166895639526919  0.0174395197809156  0.8443166557529325
  0.8314457037089561  0.1800800343769194  0.2951351791329005
  0.9089634886058963  0.9317391233679087  0.6610425781554155
  0.8529500029092713  0.9355466859361058  0.6395739607905659
  0.9730183023511476  0.9015334281228233  0.7197259246120750
  0.9008114202340004  0.9575091728643059  0.7793367288753206
  0.0664598805207092  0.8958699763571433  0.0638970734571806
  0.4937346991618572  0.0640792756523474  0.5754551088565140
  0.1526435844353284  0.7962975123875415  0.0823813163943261
  0.8613425458296949  0.4885273774938700  0.9741280041401528
  0.1511901005971260  0.7483695911791697  0.0413575403331329
  0.3618194808233230  0.7638928432610209  0.2783142929879236
  0.3614176341040639  0.7486704312980770  0.3392499782411593
  0.2705827687204015  0.3479730705623300  0.2167448361005437
  0.5236491881212129  0.2093736186749466  0.8982017104032951
  0.9447252074280734  0.1433053253381238  0.4549334023665795
  0.3217439718138646  0.3332290780572947  0.1826747689150676
  0.4065764164121186  0.1200007173394145  0.1601038010805669
  0.0186277378988720  0.5022451214146756  0.3093568248893616
  0.2178992637493586  0.3368882922521703  0.3808091187842714
  0.0143792738928904  0.4411391652729132  0.3258150117654475
  0.2199283790124601  0.3503737766831013  0.3111253291010947
  0.2124635373782123  0.3219002415688750  0.4415225284808832
  0.2073545016959986  0.2221915879865806  0.3508449310034985
  0.1554900278178895  0.2567630618128448  0.0959953022324296
  0.3023148805438871  0.1333780843412952  0.2934408896496730
  0.2630253998884107  0.3521351900188499  0.4463463216909423
  0.0762602650227084  0.4813488626622744  0.0480048932922014
  0.0753872338527905  0.4743017278996067  0.1103772219571599
  0.3319394146305906  0.0041001202669437  0.3015104815464521
  0.4333096238743944  0.2342558952086514  0.5916479897250850
  0.5452175766492875  0.4565665457675101  0.2147265240422508
  0.6525635115646914  0.4040377982037801  0.6923427319010172
  0.4483285275135250  0.5643971892838392  0.1989785852013797
  0.4018211000835004  0.6268373140780755  0.2779350334126579
  0.7481278445542038  0.4740169492905144  0.8277875326617736
  0.8290250219951282  0.1356638508880677  0.2530878446040700
  0.0659980728407003  0.4584219179355227  0.3939236541730828
  0.4554873900469504  0.1051051777010814  0.1224183799007189
  0.0266795684142171  0.5490478739723862  0.1237162625999509
  0.1221963949080516  0.4763917114337318  0.4677189677251778
  0.6135052918026102  0.0719386419815180  0.7877378612320634
  0.2412330670765307  0.0454193745465083  0.0700071269904570
  0.4906610394443403  0.4442722378673921  0.3699205973837625
  0.0090382476847216  0.4203689094113097 -0.0188194062980266
  0.7814500857022909  0.2570590709429577  0.8666454694838202
 -0.0090054214146882  0.2969902226958240  0.0161941090886229
  0.9928087917654074  0.8307823232816537  0.5731734614183971
  0.0429778838213904  0.2053506910785041  0.0152114641256478
  0.8246136166427452  0.5448517071103336  0.7348168880370057
  0.3043326480227961  0.1821557065233224  0.1105312791153032
  0.8386290336903145  0.1985471295882050  0.4599271952058626
  0.1959979870575035  0.1210834883294894  0.0911547687231473
  0.7348655637928726  0.3380971086151145  0.7312563865826853
  0.4373396260245849  0.0845585827649048  0.4955754986794473
  0.6983938173866842  0.2886937046946149  0.7266968295771750
  0.4937803929574808  0.0186946882641117  0.4129269071731266
  0.1286173742444705  0.5163951109259707  0.0534567136733720
  0.1095448016386543  0.6213524945728907  0.5322074525533712
  0.3615856271346319  0.2072914294025896  0.9533922077656324
  0.1281628476538494  0.5342099569153561  0.4466132552563408
  0.9906465794150910  0.1286802502199615  0.4172931941791523
  0.6072037829975728  0.5224616588708638  0.6644226258740226
  0.3353854972409838  0.0482573350377113  0.3401529043246021
  0.1495836616543092  0.2130205224560576  0.0496334461393827
  0.5082850360902729  0.6266271221670611  0.3154737331995814
  0.7216764417469836  0.1391288350244382  0.2148510858442771
  0.5012030428747349  0.1748087623054685  0.5670721424658146
  0.3549509197928208  0.2048779930054410  0.5204242987867254
  0.7069834518983465  0.7132894628724877  0.7316477294324697
  0.5601410742771927  0.6305006241235309  0.4520173867507702
  0.7761495285184657  0.6943178985162606  0.8133747204163639
  0.6322367132550487  0.6157392306287841  0.7196421369975401
  0.6988374367455711  0.4451201538474404  0.4463710768558273
  0.5901577334922659  0.5577326575854392  0.5432748679079460
  0.7889446150811057  0.8979842982414173  0.5719435113470155
  0.5566869821752395  0.6158873323527571  0.5225563642083748
  0.8065885769231017  0.4415084686353750  0.4900151748131263
  0.7297904963350206  0.6743732264134471  0.9198683304551315
  0.7908900408581809  0.3382879998441301  0.4644880737815966
  0.8919921888947511  0.2867850200495149  0.4574779559393993
  0.8374119262447769  0.3074494203536575  0.4896794876106012
  0.7360961405999470  0.6402206882367536  0.8084868299967196
  0.6392799436448481  0.5982961398889883  0.7818208310028358
  0.2670214807189111  0.8374753355844384  0.4046551452367772
  0.3145852948556522  0.8234707768962354  0.3600250034065903
  0.2693137211439345  0.9175744332073665  0.3243138069513276
  0.6092449465640130  0.6115431218536989  0.4165661559497060
  0.5342927215164766  0.1990505410586000  0.9606212770341506
  0.4579104910692403  0.6578957905816789  0.2868899463376873
  0.4015369811305349  0.1627796120111741  0.6407210924178374
  0.4229560874022765  0.1070374880626725  0.6583685718560931
  0.4491710408191805  0.1700623312227709  0.6008297337599222
  0.2926959440562197  0.1175196374623986  0.5547221648075098
  0.6643802129192348  0.4139901333994230  0.9194191420090633
  0.7053559059683236  0.3874761280014739  0.9418794141744777
  0.5753996430634610  0.3355042916891277  0.7893433735625266
  0.6830975419657571  0.2728611077262841  0.2121059196106528
  0.4779879094848025  0.2634494153353093  0.6547432856893175
  0.3815773568301397  0.5703940152704211  0.0018991249563185
  0.5968429471486654  0.2804443142626515  0.8026522533521864
  0.2613721427629876  0.8254192275079126  0.2299353984144238
  0.5306087568120326  0.4504297788457999  0.7586414854677791
  0.8210136307895655  0.0419819342736733  0.1634489189490764
  0.6692238971136991  0.6645891427343044  0.7245390323955561
  0.6603310696086426  0.6793467607018011  0.6649522103053238
  0.6055816995561765  0.5944792280109373  0.4820773085113896
  0.6740421819237697  0.6345730288873004  0.6112769543534123
  0.6349177525044207  0.5889902822087233  0.6106127382658041
  0.8375847760058542  0.8778288961497975  0.6010583461583257
  0.8476218488023258  0.9346427637379412  0.5771163832251051
  0.4571736194985934  0.2850624335408468  0.5322528712773676
  0.5219562967945195  0.1793501387547133  0.7924254659717815
  0.5889527574440272  0.3789467953277296  0.2000711075682711
  0.2546652464604418  0.1734664252678786  0.3936460761962587
  0.6468164725360986  0.3466202190096193  0.9986195281356202
  0.5463006426779333  0.7949906498224086  0.6124707574562072
  0.4071445844711653  0.7432005099987781  0.0156054952839022
  0.3610002143020535  0.7638134528225466  0.0510588208168675
  0.5387522879754907  0.8398109229949214  0.6548602434028106
  0.7592329398974808  0.5359657692271780  0.4389683909999712
  0.2198618985373980  0.2143559780848503  0.6882510557114558
  0.2380248038678104  0.0659437070098442  0.8884299741262821
  0.8495786459802743  0.3813603327268837  0.4100147601800285
  0.8422333229814616  0.3217324012994320  0.4297422256748252
  0.4711295374902753  0.4288027593525511  0.6334576402395131
  0.6550634387436043  0.7092628427299917  0.7695365658380867
  0.5865735644771426  0.7301448049651615  0.6891301647430284
  0.6754531193261818  0.5255390925366138  0.8490802019734262
  0.3562553390274265  0.2789711976706219  0.6141185097251751
  0.4526974231346534  0.5929031780097785  0.0765977078439803
  0.3054759110560684  0.7325849828582787  0.0397639102722860
  0.6658814218189415  0.5689679881872673  0.9849439785593302
  0.5711705750757293  0.4713181909475448  0.6580695080026796
  0.4629429429122039  0.1675895969237171  0.3392310419392510
  0.6164662410631488  0.5072547880727543  0.7228750178540627
  0.5582985595242418  0.5178467756523986  0.7054993072961308
  0.5048035214880735  0.7463522926976964  0.6115435381324299
  0.6770917072462099  0.4962576352199334  0.7453426272224969
  0.5059729045518262  0.7559200805456991 -0.0078600692967836
  0.4355043667154962  0.7479216217786910  0.5310530879993688
  0.8940106879531891  0.3015696027413454  0.3974212066939911
  0.2170977538941092  0.1241082666099422  0.8681417226939317
  0.2762880593108091  0.1172756880743939  0.8897024358008407
  0.2925892258360342  0.1510883473558489  0.9977007923091099
  0.4108817154232909  0.1793291341045916  0.1457476509162974
  0.1915482690347103  0.0300601660978238  0.8226469267178974
  0.4007247473630363  0.3764297661040438  0.8908340840197423
  0.8074577405553774  0.4722509751129177  0.3615930097668685
  0.7512910160680112  0.4415019911383583  0.3517896773895485
  0.5483394124028870  0.5011690044671383  0.0284316915627604
  0.5695928825901543  0.8998808785191252  0.5830628808130420
  0.5298494054981567  0.9338897197333318  0.4593734993689465
  0.9472233599858547  0.3160652051705038  0.4642116604993122
  0.9552436143113421  0.3821277080647141  0.4390937934326490
  0.9026686643462276  0.4020405554010573  0.4743680319474246
  0.5563595838353429  0.9451992307729521  0.6348683178849812
  0.9635825952727436  0.4352670506802788  0.4774130914802189
  0.8147336949261882  0.6149187181508176  0.4995081335807831
  0.6857952353965628  0.9199159924203490  0.7495930363500879
  0.6695277942851353  0.9645817077839137  0.7952255922631355
  0.7209997097600356  0.9675955494396904  0.7666439124928757
  0.7955136834894763  0.3654503351375036  0.3386043910263506
  0.1568833082999033  0.1002479976029784  0.7416486858774990
  0.2990858734741590  0.6244470525299251  0.0189115025861891
  0.2719830958476809  0.9483386654496265  0.4302088638067825
  0.4350323890469059  0.0933685969799839  0.7212462732774241
  0.1798208623100893  0.9374520478387779  0.1379753604697483
  0.2425875260740089  0.1267132058895532  0.5955992911251956
  0.2518050281999421  0.0157964968140119  0.6376836719749657
  0.7200076335628104  0.1188871476250747  0.0447631336843134
  0.2650738504378549  0.0731406518489123  0.6080786731375509
  0.3290929418840228  0.2135724243167826  0.6698277592720080
  0.4011864393560520  0.1942809081786137  0.7489670997989748
  0.3894047385410068  0.2383010084325238  0.7942040717587079
  0.6853653754686795  0.2618299762169142 -0.0177455781443652
  0.4873272217548031  0.2814761070672322  0.8194322252604619
  0.5955143047580768  0.4067810895978945  0.0760098716589297
  0.5263318649658046  0.3561510429019977  0.9446785968207655
  0.4984862120862961  0.4549564538595547  0.0850949751474563
  0.1809355811505570  0.0894655270627395  0.5296677098132633
  0.4794775839602318  0.8176176906613534  0.5265550747964618
  0.6766432847742564  0.6863811793439706  0.4679746797414133
  0.8566485236860040  0.6169516549384052  0.9362826910378310
  0.6382238986214964  0.9816468462451247  0.5451365074890060
  0.3437510729449046  0.5630384765485241  0.1668342207118202
  0.3464104228125213  0.6098595106710186  0.2074841798139144
  0.4662523841915432  0.0230695845156657  0.8027024494857166
  0.8724741175354470  0.0429457047966203  0.2966256682460286
  0.1746641022560948  0.8940264574737536  0.0920424088040574
  0.2137394295001704  0.8333322951670825  0.0943300752515573