C  Cr Ni
 1.0000000000000000
    39.0110871383406135    0.0000000000000000    0.0000000000000000
     0.0000000000000000   39.0110871383406135    0.0000000000000000
     0.0000000000000000    0.0000000000000000   39.0110871383406135
 C   Cr  Ni 
 213 1596 3725
Direct
  0.4143388919858926  0.0561828006224522  0.0232420874411717
  0.2344416934318513  0.8681484654496133  0.2372576230547701
  0.2767590968671015  0.0378260782232004  0.5621298189934746
  0.2621806592557768  0.2536456301774621  0.5405607844849565
  0.4743793536517549  0.5503437726732208  0.0719451271484903
  0.2002831516720257  0.6829319831963824  0.9821805776120792
  0.5692829332828258  0.9989690072231430  0.4772084541211796
  0.3258377186506368  0.6256604404452613  0.9259549501630071
  1.0420923801020245  0.9816610928301542  0.5910912628711409
  0.1282343907367493  0.2777294700826645  0.3922134684109603
  0.2393795567195778  0.9251521866819347  0.4584665008060580
  0.9930387168083884  0.9735295309990252  0.6819587342855100
  0.8168113305506275  0.4538344208181307  0.5407074270442586
  0.3561492411646907  0.8483925832267545  0.9680966762128773
  0.9361316497506075  0.8940498565852226  0.5604976006998278
  0.2520530334559097  0.5059901167669887  0.4207415926892645
  0.9721128352420947  0.3332964609071005  0.5625674596422208
  0.7612302413046766  0.0150280361549611  0.9398316423483802
  0.6188510922201215  0.7397298074363879  0.5992778520626996
  0.6991687245724059  0.0534385093809926  0.9166001209071712
  0.9591252728790095  0.8704882643937094  0.3357816483178099
  0.5112104692809400  0.5535342471667948  0.5486831452609190
  0.7535150423902280  0.1485510392095331  0.4969321732337946
  0.0655116296820352  0.8500081998877391  0.3664743760491688
  0.8431049085897084  0.0494879217076320 -0.0384938461900949
  0.1925056215701560  0.1637866297680980  0.4092491216028677
  0.3449273675446249  0.5175447070902836  0.9466674151611489
  0.1126728506483492  0.3418334760167628 -0.0011651034600110
  0.6925849636373581  0.9141008113374245  0.9612145411645058
  0.7069299291838688  0.3260573884313575 -0.0146286558286954
  0.0376836514134883  0.9225127056842950  0.5377790259309415
  0.4891511641074986  0.8865025976345805  0.0661814446873932
  0.0669718726887591  0.9677898340366035  0.7107996302366515
  0.6832240042974695  0.0195319519828924  0.1539199498303274
  0.7847221418700993  0.5326842392481621  0.0066644727742946
  0.3689976481810798  0.3697841032574328  0.7968709108591444
  0.7439468938234018  0.8651825622299447  0.6808942215358512
  0.4893440695542961  0.2176339517833631  0.4940614281418815
  1.0015676183005047  0.7180547746930144  0.0260492672879504
  0.2883024145010707  0.2789530829175477  0.3341702685781430
  0.7252784107173981  0.3817623685281573  0.0380108721614890
  0.1113347977033369  1.0421275081462755  0.5613094868286003
  0.4831660865933578  0.6789831838271839  0.2622812025598304
  0.2569690495551333  0.6274655923165855  0.9028956929517461
  0.2833220269399559  0.4441751494014212  0.5197703601258593
  0.0094653334790641  1.0423706590470219  0.6595238772529315
  0.6090580826821689  0.1865689972211154  0.5547439108678581
  0.0225078833075103  0.2598610870174641  0.4224014416464335
  0.9368693987655234  0.9231925421377561  0.0258379689168707
  0.4169492799360441  0.0957689125305693  0.4009761646684885
  0.1647468175221199  0.7527154130236784  0.4921100019708196
  0.8663909067727613  0.8634846129773299  0.5722426505552020
  0.2631789446525358  0.1654064432465401 -0.0161288833095300
  0.5756487722579269  0.0298821628249794  0.9488978697381381
  0.5841126692074698  0.9314014707548248  0.7787418351499241
  0.1475281468165277  0.0484028512496859  0.3890282990393076
  0.4210913522286809  0.8371621859625770  0.0450101650029443
  0.5227199853761714  0.8983188130721115  0.5715316570104455
  0.7308910121512614  0.5877219081545606  0.9078387315096198
  0.7411584650711039  0.8690217339399118  0.8664941468360055
  0.7772525032865759  0.6901054682555640  0.4943753500442678
  0.7274991270012138  0.5496748196351792  0.9047957636920330
  0.5478040510886175  0.2544606784762805  0.5221254964192000
  0.1031871418107483  0.8334982612630482  0.9407518483507599
  0.3316768396156606  0.2259809874357542  0.0238801953679051
  0.7604783905507851 -0.0512709115231813  0.8704757394503767
  0.4587081869141888  0.8873897124568372  0.0003705491142033
  0.9075819913197083  0.6803373915978536  0.4223480843024807
  0.5084071122647681  0.9596736942404986  0.5389568298872423
  0.2771393004096139  0.7732131659855496  0.0454847776082581
  1.0530996774509445  0.6039005787877141  0.8298633185262472
  0.3603693986813724  0.7699841540311853 -0.0042561295690078
  0.1749532319861131  0.8069295166630671  0.1210792394698821
  0.8579280023398831  0.2807819636363961  0.9446084746050230
  0.4319597714931946 -0.0534157194015049  0.7963114877926029
  0.0716711171107666  0.8856419455680706  0.9126612309621479
  0.4233678274704168  0.6487258443907190  0.9000914245865628
  0.2291992839920144  0.7726537759998271  0.1483422419169287
  0.5295028471461020  0.6085281125897367  0.4808580134596612
  0.5650290885003484  0.9152320206657016  0.0908362633632977
  0.5688648145194538  0.5606073978956844  0.9086408919665687
  0.5591844781945721  0.3354530911681142  0.9262751492344325
  0.4740104201998498  1.0159979438656928  0.2065488205015354
  0.3502714541753324  0.5798222247436138 -0.0102274784158750
  0.0145713499223901  0.8961975590976041  0.6996997499708683
  0.1101270338472649  0.4588063333823930  0.5773448533647600
  0.9403364858646460  0.9034045964034494  0.3428701827797297
  0.5457371345014879  0.3301036940501171  0.0469307294084159
  0.0233140692167700  0.3510680441805070  0.5129525131749738
  0.5370889071560416  0.1873538515076479  0.9784271083146016
  0.4608315034280251  0.3354985748708115  0.5249657341491301
  0.9239054953768583 -0.0158319475393697  0.6595977675753627
  0.2229805393822204  0.9581254051790522  0.9866797527173340
  0.0391766528600246  0.4203280097473468  0.4864449212103285
  0.4580656605144775  0.1266143075400794  0.5118405432937364
  0.7156592917368846  0.9419550620377668  0.6540714503953702
  0.4529024419548133  0.7978130691097154  0.5576472923996602
  0.7274382938720523  0.6101230535766015  0.8351712193694603
  0.8094321989277978  0.6816792971407860  0.0171269529030792
  0.4918104428878213  0.7123555550983561  0.6240768729352841
  0.4695756009017447  0.0930285076752974  0.2295655019345324
  0.1922837509891810  0.7333260680598928  0.5722375859158192
  0.8804148045948701  0.2425664678057431  0.3883666871212691
  0.5181925010243614  0.2031162883784944  0.9484940376893386
  0.3819543579034871  0.7209311756800982  0.0369105727432105
  0.2922186159132840 -0.0132614828887675  1.0108019177854652
  0.8767575482654119  0.9507494738921843  0.5598463259499389
  0.3689735783059094  0.7202164816131732  0.9352756098146693
  0.5637310010512163  0.9146084116408938  0.7512868321469920
  0.0651143114035066  0.2436661039286194  0.9965051144266458
  0.6142768471699687  0.5423899978473283  0.9945088753438760
  0.3449083175252755  0.6831211057466716  0.5694042506671569
  0.7921555344903468  0.1680972306870575  0.5693474669743414
  0.3671422163669504  0.9436384495883791  0.1266680603323816
  1.0425332250230877  0.9429335512624417  0.8882620152377396
  0.4620483841747244  0.9646239756875148  0.0020228543498786
  0.3801109137493229  0.5742208530956939  0.9020420752341517
  0.5352109004137432  0.4956551159581699  0.6695594669047366
  0.1681102463674832  0.6781416594349886  0.3874631271989845
  0.8460763956111665  0.9652782088447897  0.9196524542655099
  0.0911639167191271  0.1696138818002250  0.5622680723444504
  0.2395999049552660  0.6904528035696954  0.5308137863187957
  0.4274127910547912  0.2474538072616878  0.5431856260339495
  0.6319019513105000  0.0889274643733555  0.9342808319845040
  0.9218620745503892  0.1012259130544280  0.4507989551174115
  0.1566413522923486  0.8421843503244354  0.0594993449021917
  0.3429383597717426  0.8138879772558242  0.0505827386200457
  0.9228268495922605  1.0006047566919933  0.9317356724827436
  0.4427176872981541  0.1374709640220504  0.6281370462741817
  1.0018384932343904  0.6281796787798941  0.9470034517037789
  0.9927852764117414  0.9859077900622185  0.9580576580370119
  0.4474768740688618  0.9671247748288868  0.2877427603682591
  0.3520971434194440  1.0298487622210417  0.6563888334276334
  1.0677984858670799  0.1537494958519682  0.2936736356834940
  0.2769791808325791  0.7257656419739750  0.2357829950544323
  0.0390722194407742  0.9398781102349978  0.3507623751146122
  0.7847926889983088  0.9509413690536971  0.6010623916768335
  0.8334087322769621  0.9100517919345816  0.0621469210184732
  0.0658785874316407  0.9635753865119394  0.2561608409606895
  0.5616062489165679  0.6926821669676380  0.5429418691887176
  0.7880601903139944  0.4807186085718524  0.9329318023267665
 -0.0083552523443363  0.3319823028344988  0.7968376281059635
  0.4426810501024191  0.8338066596204811  0.1994925639793374
  0.5080592173627066  0.9380975307988582  0.1254630745610027
  0.7699776500682479  0.8785538504911533  0.1245772686161179
  0.3746183565373064  0.6679328951875702  0.9854615816949085
  0.0300918666388123  0.8513898830475866  0.6483016454322791
  0.8591102928727309  0.6681813759889285  0.9444540392474019
  0.1831092417675129  0.1764969236520552  0.5604338507676569
  0.2651669087147585  0.1944252625373649  0.4297260007295668
  0.6500972744420912  0.6224228750726962  0.5753427152115560
  0.1559000585355690  0.9039346954005278  0.4971583264605929
 -0.0116544150770175  0.9326582105706567  0.5982826338603804
  1.0626274318092790  0.5875361736205290  0.8967783868282844
  0.0370264454721957  0.8407802464591658  0.9859581643244062
  0.4225291542473204  0.9267820748269385  0.0798432425785298
  0.5655840810227806  0.9076679476826909  0.4806037611081096
  0.0635291758483652 -0.0519087264050638  0.3797962938334375
  0.4142233633892892  0.5334826545701000  0.5582724185072556
  0.7990039094350844  0.7401247320379643  0.9644724052434340
  0.8283964408915131  0.6125738709894812  0.9835855768548607
  0.0471497951327900  0.9362662671335503  0.0035310671683473
  0.9076884229788929  0.8841203354050671  0.6354209603445878
  0.0294669018209379  0.2758672190843193  0.5098068576693126
  0.6662053366399456  0.4056337891675607  0.5510217005197561
  0.7183926438601174  0.9477837447999137  0.0925104946998153
  0.9532199787737896  0.6154398420188575  0.1088582973077709
  0.9792564999446515  0.8831663371852322  0.4683426518787759
  0.5790034213091099  0.2083878230277089  0.9050507707637687
  0.5339350081106268  0.8916399554207930  1.0063600508601342
  0.0491078399051899  0.4100352646138412  0.0238532497502281
  0.9912561518271819  0.8411197944093589  0.4064658722864865
 -0.0324558319270787  0.3963308894280875  0.7780128020960790
  0.7827746056876298  0.0113731000703048  0.9076347277689866
  0.6965792982962093  0.6048320200529356  0.5089888882414135
  0.3699904736420693  0.1983056634940276  0.5292491014267358
  0.6844199872951785  0.4155767993603667  0.9656222299847589
  0.4916427747001583  0.4151767242876745  0.5458201848986213
  0.4576988636379691  0.4090969581871781  0.4739490824920404
  0.8030066814848149  0.9314775313900874  0.6911756680715497
  0.1731968995605932  0.7563314157807984  0.3078421200914967
  0.9405326853730329  0.9916547045621570  0.5769476861093719
  0.4142243590979552  0.7141369369654822  0.5887000489030265
  0.2146009376504150  0.3664899184802721  0.0335633979756655
  0.5163270955235152  0.0802025083954247  0.1717463609124366
  0.2897110189538693  0.7906536013099015  0.9705715115392866
  0.0798192745742752  0.7325329495945717  0.5083793313482702
  0.4529335695679118  0.9585306837043842  0.1649732427807425
  0.8630283282942672  0.3886795186831374  0.5109045821681720
  0.9316782088639132  0.2627580553627216  0.9714502295076162
  0.6293773021722039  0.8263625825476060  0.9487612110355401
  0.4164762429525549  0.1805425228656133  0.4339735371030987
  0.6087068410408076  0.8517964439487991  0.0418523221689081
  0.4232402859698494  0.9487023568282110  0.3093492743360738
  0.0493308473054269  0.5264998444525810  0.2812296509283190
 -0.0782760384219000  0.7654846368343888  0.0316950613481303
  0.3102313862344687  0.1544321147035680  0.5139890715994554
  0.2063713311984775  0.4188453373538602  0.4579278743056975
  0.9144271818476374  0.2331509476823278  0.2766505058875857
  0.9276422363769620  0.3556126685402016  0.2410330721212686
  0.8137792782910340  0.8751477752110182  0.4984817962222198
  0.4844004875015597  0.3855555654725200  0.9492676270596189
  0.0326160642689543  0.3398548374162643  0.1076630707990450
  0.1909449975491075  0.6242539963026448  0.9326858855253395
  0.3474035291831090  0.8844294445421701  0.2064816346978605
  0.6106416777204547  0.3808818815531655  0.0000197267747971
  0.0903980287748347  0.6780132118785496  0.8812489366915373
  0.5705151179531932  0.8522165769596571  0.4287485131458698
  0.6483214428294598  0.3042527077064223  0.5090471123944968
  0.1430268554888742  0.9536532117305169  0.5461198029218226
  0.7060464450497259  0.8632198191232630  0.0471809757581847
  0.5954606450752165  0.9167424682401059  0.9753529646210998
  0.7066643704516138  0.2442857376955581 -0.0307573542343123
  0.6425226744438617  0.4469008422301834  0.7401092875956273
  0.2673139262770780  0.9199973764086042  0.3199808123745442
  0.7258106991156388  0.5322591850843450  0.8110098437135665
  0.3136544961212948  0.8424072562124902  0.2971981330589875
  0.2399958113493810  0.6076730296851959  0.1754473746907091
  0.2621006355706973  0.8416405520855768  0.3963413833990878
  0.5359383380936809  0.3906293019845416  0.5354950159578814
  0.5984002519073987  0.3102965722514493  0.9077438515069923
  0.5678553364914427  0.3184862269073962  0.6213294433618960
  0.6455378452265332  0.3435240009531025  0.9905560405523770
  0.2658354766148642  0.9031639032361375  0.3821088001945170
  0.2723566883441462  0.9487501667647730  0.4289630152021220
  0.8685280031877274  0.0439654321709299  0.2947807567045073
  0.4684174163531073  0.1568733062601749  0.6657974351076738
  0.1042963574532139  0.8887256767589619  0.2783055853724491
  0.4449321428360131  0.3312127778110582  0.5739285115691345
  0.5104312536651874  0.3251032479757765  0.6004410637140633
  0.3160167779184908  0.8706967577910596  0.4050931213923508
  0.7529296326594825  0.4449825710365385  0.7223738026496527
  0.4474071877702130  0.5631404784345960  0.2025893973758556
  0.4967050499281587  0.3675951785578578  0.6429763463261604
  0.4706115110431817  0.0231967349778370  0.8053235603032899
  0.4498246765051917  0.0974183659004932  0.4370224970138862
  0.4866469840844093  0.1299413726228839  0.7894109627460367
  0.4253904457160340  0.9142718547486125  0.4871049612977893
  0.4209148534089178  0.8066482439082659  0.4565745069951214
  0.9178872258788859  0.7665657951068870  0.9177054923110980
  0.8159628900409133  0.7856341252389706 -0.0145641495823020
  0.6441879824926274  0.7350827474284084  0.5544431872832756
  0.5633647741302630  0.6833515161650864  0.4925585396644801
  0.7616621578199139  0.4615282822263305  0.8922317238666136
  0.6911498773283951  0.4834398853914577  0.8058035365244333
  0.6142542914695525  0.3845110798663667  0.7944981697588777
  0.6974146537852887  0.3202217155767899  0.8305202818021264
  0.4982318216434073  0.1561959628258118 -0.0415324422361303
  0.4745095426655385  0.1737681776714293  0.8333648232277199
  0.3353154999539339  0.0819088421311669  0.4626642371103484
  0.1444120225090922  0.1669436724380427  0.0028129746471471
  0.3949293713206993  0.0296552725002738  0.0624423807509990
  0.0290759358425565  0.5600455765796625  0.0648453425531893
  0.0146187718415420  0.3872672751021579  0.0513705118278901
  0.7050355671681268  0.9773566156562571  0.1388841929680159
  0.4378414600972667  0.0918524433471384  0.7239379431357764
  0.9826056593238689  0.0833764466793973  0.3710305801057013
  0.5480934724402665  0.1637017119162311  0.9203751088190097
  0.3009395991743664  0.6838290434817191  0.2260953775203525
  0.6319762744585274  0.2115650264080665  0.8794806628717017
  0.7016680266437861  0.4729995696199308  0.3224658782142113
  0.4807336656812619  0.0115969270409956  0.8690047952131660
  0.6722957192320829  0.2277196636959975  0.7811420897057227
  0.6013924231048005  0.2479927460934774  0.6987521782929097
  0.2318540088895439  0.5240112790544054  0.0295696241034568
  0.5023540635819923  0.2059943414250775  0.6708899809463955
  0.5881453114414071  0.2290354190330300  0.5370230382692259
  0.5935969901218283  0.1090667844897944  0.6004856365315105
  0.2849127801451604  0.4835375624740856  0.1170512074946007
  0.5403452445428581  0.1033474759428030  0.6437801658768550
  0.4407293059619475  0.1450437240929426  0.4684144475343499
  0.4987502880767735  0.1101907490997766  0.4914665614800048
  0.3983853373892836  0.2577362409362412  0.9557706697537635
  0.5171438987438224  0.2325499102235284 -0.0014639219041996
  0.7412067062911767  0.2872931056607742  0.9763621532273244
  0.9474924664307861  0.9027899327764669  0.6115036344543374
  0.5048382135133145  0.9408297991158164  0.6785848538488066
  0.8847925722158032  0.8437024937526048  0.6132902550006949
  0.9696941693994297  0.8474230275557517  0.5101523048642117
  0.0244476396487252  0.9981379308207805  0.1869196668046023
  0.5175079772952124  0.1616315094645870  0.6255812352688770
  0.3048563706485946  0.2647438422552781  0.0361056299001681
  0.4851792499908208  0.0061315435008241  0.4767579437125548
  0.7090432341462890  0.2750631465615336  0.7879136615638968
  0.6394715308008168  0.3819018064326599  0.3320787387562184
  0.7348181785675620  0.2883452022671290  0.2830560033044813
  0.8461563431420085  0.9482861773523181  0.5152740799956426
  0.3982044322523424  0.0739489972734160  0.8275853771376381
  0.4089432406049413  0.0294715368339181  0.7835424864346467
  0.7802640006166606  0.2120653491797883  0.2680898987262254
  0.9092229438473648  0.9343609267634950  0.6564965997902287
  0.8888089063157215  0.9054082461405915  0.5909146068100959
  0.0232811990065151  0.9447949252882677  0.7080132688423620
  0.8618830217333721  0.0075352445656158  0.7738530784123048
  0.0017064164185184  0.8655625022479964  0.0669698380714418
  0.5000021602365845  0.0616609612918682  0.5804664468343561
  0.1460720043405181  0.7979449075685201  0.0836235473048689
  0.8687871436304723  0.4897733569508599  0.9766213055406341
  0.0918929972184433  0.7156292353110280  0.0342030811565027
  0.3585205116407477  0.7486039788398480  0.3386388099874171
  0.1343355779960541  0.5776958673185342  1.0398586038260615
  0.5000884718988378  0.2377221504765114  0.7757725146884367
  0.2410118627504003  0.5896544690087713  0.0195705181212394
  0.4636897989756705  0.7497427273473242  0.3753336457407265
  0.3628359587653321  0.7943053932491623  0.3831985161382979
  0.8371906970536832  0.2741649244337356  0.3826238776150691
  0.7950333094650129  0.9643108746919546  0.5498422424898276
  0.9022548622309817  0.9815027531862202  0.5277782941860666
  0.4454549800681394  0.1122901144881283  0.8914200886117459
  0.0760638175330373  0.4846180054014588  0.0443935147136812
  0.7090560298077182  0.5744814753503136  0.8627538676605861
  0.9355926781271845  0.1483371921842589  0.4555741363617025
  0.5951274525635366  0.4405867209602971  0.1819749124968887
  0.0778119902272048  0.5344903531146138  0.3198133381550169
  0.6546539938875414  0.4038377602395860  0.6948526458366481
  0.0139996688278466  0.4416996904244061  0.3247156160914610
  0.4935526227919146  0.4853704885028280  0.1886023531251842
  0.2095907596693188  0.3215680444743887  0.4381360581248280
  0.3999254285268280  0.6397526937855917  0.2180397635169877
  0.2045519710894652  0.2260883136364100  0.1189740487038803
  0.7512586356148830  0.4745853265517300  0.8275623121479760
  0.2595412345249019  0.3513036606941295  0.4471199731387355
  0.8261521747410528  0.1341475878196228  0.2496333706121893
  0.0736945075479165  0.4684664456594418  0.1062110192067619
  0.5233870283574866  0.2108717426602544  0.8976946352096385
  0.4292205132743577  0.2262430334065151  0.5917921537085925
  0.5651370113595239  0.2241846872805185  0.9534877392435789
  0.6236101312218195  0.6288782409163368  0.6545516844463322
  0.7032449993289962  0.7420859441801451  0.8351299850769118
  0.8868930188689024  0.2376617163746739  0.4357494139732609
  0.2378818150289021 -0.0025252169047647  1.0193181902411674
  0.5407348112089980  0.4426789372125153  0.2768953343421118
  0.9297126763018342  0.7115910767301729  0.7048909101424156
  0.3204399414239027  0.3326643790555970  0.1833783775175784
  0.3876086950179002  0.0858834029351483  0.3638630401089790
  0.1751566004206061  0.4525143080396293  0.4308745516703685
  0.1252118082748261  0.5312414390481758  0.4481921357699746
  0.0751270340048734  0.5500414952245758  0.4801369043834472
  0.0258680755579500  0.5459047594229749  0.1257230607687235
  0.1878124453239159  0.4455737146265700  0.4954874900380973
  0.2387430912295405  0.0454381710148054  0.0686534782304932
  0.2132230319474415  0.3850889132472336  0.4212922515472899
  0.0172822604682640  0.4044392303469813 -0.0131398371854229
  0.1559755572046116  0.3995073049564918  0.4576142991597578
 -0.0029179111806945  0.2846439529265060  0.0299141412191076
  0.2454793755120836  0.1072077669587886  0.0525353102338994
  0.0374015126726765  0.1473141405647263  0.0292183017441527
  0.2783674344975652  0.0433303440408090  0.2878447272933832
  0.3053315368578499  0.1795460575760952  0.1120199600924505
  0.1172822768871102  0.4403658427458539  0.3602002750851305
  0.1939846291867400  0.1198063587558201  0.0894790652362307
  0.0648990046437757  0.4244069088395306  0.2921534311123483
  0.4409147215212982  0.0820875754544078  0.4980450659663572
  0.1591618176312908  0.3050641839742479  0.3642495669986613
  0.3939701736392577  0.0988596264846635  0.3042241150474015
  0.4105337948623203  0.1813971739865615  0.1487761942092030
  0.1742173158627673  0.6149750392334491  0.5540323331231951
  0.2566192711463146  0.2445062379978279  0.4225346927829823
  0.2673194336099516  0.3331160793392964  0.2789327493252265
  0.3283824398887248  0.0107898495347270  0.3134593829548876
  0.1994060804040267  0.1637378419087370  0.1352039503717997
  0.3605340711503422  0.1476767702607860  0.5234544567262027
  0.7213091315806058  0.1355099698658980  0.2146837826865935
  0.5317828247464068  0.2076496459707865  0.5185702592758865
  0.3309323287043102  0.2002243838229976  0.4975094385843228
  0.7081222757486014  0.7120452539540544  0.7291494680452303
  0.5069441683563223  0.6608682498438304  0.4215876633807611
  0.7767925847463542  0.6900688468789269  0.8151679078412868
  0.5959941489083156  0.5646052116968352  0.7085924799572800
  0.7333527047977854  0.4216801326828290  0.4849511341239129
  0.6040125397374746  0.5413852581979798  0.5468629179136968
  0.9064745505395857  0.8569964670593743  0.5454099135902712
  0.6128878775835970  0.6454921415092680  0.5969746580817696
  0.8250019938610402  0.4238744180163670  0.4973632128784401
  0.7319034274452922  0.6710170040501523  0.9180626579568859
  0.7733603598802706  0.3927210131056295  0.5067949764810543
  0.8848513027793554  0.2918557801435839  0.4600560179632664
  0.8341200028668240  0.3067375264750212  0.4908723729841674
  0.7410237720136872  0.6442398010383457  0.8039295360685170
  0.6419601406683429  0.5989539390249101  0.7792993360101577
  0.6385953719620143  0.2964125845405725  0.7039630288420409
  0.7821076378979559  0.6621075437574888  0.7062652873696663
  0.5899760527062685  0.4712905449114019  0.8836895338613912
  0.5521805370475829  0.4240693227564492  0.8794325042584458
  0.2850447902374458  0.6358135900465615  0.9523114089452664
  0.4170564986824014  0.1124660986362945  0.5940985088587178
  0.6743345947801090  0.4090575195206232  0.9171283489904072
  0.7288283504265612  0.3989350268914997  0.9454981087385828
  0.5256823508949062  0.3313048910808261  0.8271238464739377
  0.6331238423737690  0.3027672121034906  0.1860875386843058
  0.4294821374972795  0.2565948064375402  0.6940220607590271
  0.3357662580639841  0.5327922390057918  0.9947943202698926
  0.5992681504420675  0.2792434340443133  0.8029135755087098
  0.2609008167970641  0.8277989138121505  0.2272821282956092
  0.5655973779545964  0.3480818783776569  0.7268618577810452
  0.8100276800107243  0.9821261946001609  0.1797376836751526
  0.6708438988293811  0.6646820273019434  0.7213311664722989
  0.6610398020034690  0.6790528726921800  0.6609916259489196
  0.6167690104255635  0.6000971270544401  0.5455915263575322
  0.6779647509196802  0.6386934428697680  0.6138516051414080
  0.6374192561047439  0.5863437453554811  0.6100049924729462
  0.8464572634878971  0.8226602639819447  0.5497866227147650
  0.8352304171657734  0.9376462837152765  0.5828924660572281
  0.4578282912188524  0.2862484209093473  0.5322220300290810
  0.5131161340228708  0.1925921857674437  0.7316407385776369
  0.5092052329158818  0.6735720371881061  0.3600315235249918
  0.6099213940706643  0.6255914087358839  0.3532842011001111
  0.4035578342366257  0.1627068106030456  0.6444883002848586
  0.3617295489452699  0.0074231906156483  0.6129955201474384
  0.5302074385601562  0.3347513308487782  0.2552032765538587
  0.3032355089969866  0.1312462991607368  0.2931905483153319
  0.5281865878821622  0.2990812349881614  0.7218174862970899
  0.1578710621055723  0.1008300094527910  0.7419115709136198
  0.4091855891241417  0.7503868619030311  0.0077021482898193
  0.3590358838483252  0.7633779445216555  0.0468211862637103
  0.5479202499431740  0.7957500650717173  0.6117216380013422
  0.7018233315162976  0.5053883442326604  0.4256890471066770
  0.2209078199307671  0.2135357558668162  0.6863311256171073
  0.1884065300515683  0.0598738335845821  0.9312694661620089
  0.8466470238556446  0.3818124470761118  0.4080789984438261
  0.8412264361344002  0.3688539024968795  0.4694972053251708
  0.5235366707579334  0.4339621703011244  0.5865755369241233
  0.6571587075315750  0.7076607624544956  0.7670686297386641
  0.5858901259799892  0.7294458530446384  0.6869391251140664
  0.6409691002336624  0.5182188054061398  0.9502083689149777
  0.4054033514569249  0.2839884949257701  0.5700314441325928
  0.4493923864218624  0.5913656358486203  0.0815667704827708
  0.2494883819755988  0.7649896424291847  0.0061185317543048
  0.6590232154098614  0.5689374298026092  0.9853872917607400
  0.5744506655862834  0.4681380521070289  0.6586528282329634
  0.4615603010990151  0.1738312785655571  0.3465800491512621
  0.7067762614335705  0.5626822950213339  0.6912956678751843
  0.5618529996735822  0.5154368671423771  0.7060614251378248
  0.7173532155431465  0.5475846845093467  0.7509376083122112
  0.5737314347109930  0.7426927746033153  0.6247301947100563
  0.5123305310319901  0.7525136145759113 -0.0107735274585964
  0.7936819367917666  0.3655440523319159  0.3370304947803378
  0.4221801216778945  0.7860380101800125  0.5214776338566967
  0.2174678435547629  0.1246137589705550  0.8678031749223356
  0.2285994574646596  0.0806591501158522  0.8247902263991339
  0.2483091278714378  0.2116980007391976  0.9726546655631707
  0.2084383085279307  0.2865259662212012  0.3317643196067633
  0.1922410442848135  0.0313772366986284  0.8244221336119606
  0.3545757964252639  0.3361785820091388  0.8283760370813004
  0.8062556892929974  0.4732462053571843  0.3607427381041651
  0.7973308240323392  0.3790270008797108  0.2730121179481396
  0.5503512121078261  0.4972105997378261  0.0291176281770669
  0.5724613038626807  0.8989126735187547  0.5824134891056340
  0.4805134194901849  0.9477819995296487  0.4968854817360591
 -0.0024350973016370  0.3428336960075177  0.4680553774434979
  0.9507297046987323  0.3790999854652706  0.4468968733482319
  0.8879326953251280  0.3424935816803352  0.5024339590242087
  0.6689051030730517  0.9377482588957921  0.6251811231543107
  0.9156263395495815  0.5095463572743556  0.4990681258393021
  0.8124482335606086  0.5541173199714501  0.5099868203209532
  0.7104836060815677  0.8652576967976010  0.7663435304616629
  0.6736736885432411  0.9656118035110849  0.7973084168172723
  0.7154016624739761  0.9769681242692331  0.6933442694517836
  0.8909662073230681  0.2968208929622100  0.3960070420989432
  0.2941680122985240  0.5769003865695991  0.9818950335446237
  0.4727014498745837  0.7804545685915847  0.4825676366723597
  0.6405701803249959  0.2654337538211999  0.6004766747791712
  0.9366391461752921  0.5462629282482413  0.7159324367141507
  0.1754465152986866  0.9348568339715020  0.1361944745432052
  0.3316506451977377  0.1786736691786514  0.5628675901130680
  0.2511024551433830  0.0125278807889351  0.6397566657941612
  0.7186810642153221  0.1185547358646300  0.0459344954243707
  0.2654907051486461  0.0632803638064876  0.6137133439934810
  0.2942938739656998  0.1618914489795750  0.6640292469565497
  0.4028456868576423  0.1926860625350468  0.7503187964923598
  0.4280871562338362  0.2876818445801666  0.7987880946815532
  0.6767858619887140  0.2815470342261889 -0.0182370607065124
  0.4884930828354260  0.2812455685428975  0.8199080296797948
  0.6964752921498886  0.3769880612629473 -0.0032452313664613
  0.5240428340560492  0.3553009966752663  0.9548283636306326
  0.4947684679932866  0.4517921811547096  0.0861703070986967
  0.1876809700283163  0.0859499901404845  0.5303234387791043
  0.4790042074786036  0.8242931905910549  0.5259024123630203
  0.6237348503379448  0.7166231189085094  0.4425516909444845
  0.8582417587056496  0.6181125572845744  0.9390072800475223
  0.5909152766931149  0.0047186056624277  0.5826522659463045
  0.3365311347397025  0.5003089851950128  0.1848385024826261
  0.3448702391725740  0.6090984225061979  0.2101298593295499
  0.5476038269064351  0.0794876269827890  0.5333007305099140
  0.4425503364173733  0.2369653764508278  0.4946768600453839
  0.1723594013366799  0.8861919486965600  0.0865811789072701
  0.5042918480709060  0.3867810480382369  0.8138230781497480