C  Cr Ni
 1.0000000000000000
    39.0110871383406135    0.0000000000000000    0.0000000000000000
     0.0000000000000000   39.0110871383406135    0.0000000000000000
     0.0000000000000000    0.0000000000000000   39.0110871383406135
 C   Cr  Ni 
 213 1596 3725
Direct
  0.4133134744163884  0.0544159988234767  0.0169868281589769
  0.2349278032357232  0.8672724240566217  0.2361709417102422
  0.2770468132149175  0.0384189817259898  0.5633131591843146
  0.2624702614725199  0.2553356287312211  0.5428035675147366
  0.4284726253110782  0.6304370797441042  0.0841019806489471
  0.3420855106544557  0.5206290466921096  0.9485766722705213
  1.0545074649648940  0.6029910089027688  0.8290220121764550
  0.2626905824013173  0.1655920704945238 -0.0156212304023390
  0.2016275202064340  0.6808159269356734  0.9837168524119853
  0.5677393924818017  1.0005579563215430  0.4790010973925506
  0.5021937031827788  0.5728646844925673  0.8915866837690686
  1.0369417786062978  0.9765315587016657  0.6013692984940540
  0.7885383205160038  0.4122469933159916  0.5349142702579316
  0.2542601661026405  0.5071881934282435  0.4188572478171388
  0.9707780941137707  0.3318482030092665  0.5625838990322746
  0.7785525350018592  0.0164240354451680  0.9417402826781648
  0.6220109580945700  0.7417479660123965  0.5992109462348797
  0.3505796538038566  0.9063526684382853  0.1352321334687143
  0.9593502005083693  0.8696170826836701  0.3352315326047030
  0.5132818412750335  0.5366969147555369  0.5570923340685489
  0.7499964211744603  0.1477235203692114  0.4984291963914410
  0.0637107073156846  0.8491539695434862  0.3659706657473987
  0.1919025446891920  0.8292416502561666  0.9608135025998563
  0.0045091207423851  0.8316215372540581  0.5044928895438981
  0.7182811660131013 -0.0242073801646615  0.9401067798608630
  0.6057305510817013  0.1892838588528450  0.5556589469325274
 -0.0651008987232881  0.9300067440846213  0.0337270068880023
  0.5663229832512197  0.1996183163283051  0.4661791304307669
  0.8714715759638864  0.6959291113031407  0.4677562022350746
  0.2933082530405157  0.3425327095921616  0.3137378875324566
  0.6741420255611505  0.5400999766870510 -0.0560175901698409
  0.0034270036226544  0.9912561127124102  0.5387151298447185
  0.4008713927470648  0.7325480223556542  0.5159740683805362
  0.3860815377318274  0.6295239844737489  0.8228774052653225
  0.6866789817919751  0.9106516527735922  0.9641025269988102
  0.0841366976016630  0.9104486877950611  0.6615772395327484
  0.0356152298715839  0.9237809235516504  0.5445368369318704
  0.0224845727068374  0.2605670578346631  0.4231056185067462
  0.2524544057161979  0.0496509098418600  0.4223841999732267
  0.3072282979392723  0.0494190781020214  0.3243292710638747
  0.7863625509600409  0.5318570698224695  0.0065486260772516
  0.1170232301278752  0.3413692170145188 -0.0004700527302685
  0.7507298500618377  0.8628130819198075  0.6863597044564299
  0.7114959963805844  0.3253927785724072 -0.0133999866114219
  1.0100736465862110  0.7174361346217379  0.0193886933203937
  0.4880731770145411  0.8858806364204811  0.0667624034291365
  1.0248056037746893  0.8893103308924634  0.9557300821782093
  0.6384492553940346  0.1118224448645462  0.1087056197889250
  0.3794052282896533  0.6947595155292536  0.1623412737928614
  0.3687757553089132  0.3692568930579663  0.7971154096852968
  0.2409385546564096  0.4727006977169095  0.4951390149499148
  0.1610542193768109  0.7523973537468646  0.4885068362721727
  0.1923060615646658  0.1616054623484664  0.4099137624049833
  0.5193850576714735  0.2040857833879395  0.9490900130181472
  0.5756272273028694  0.0290777440808998  0.9502646949043478
  0.0818704067680234  0.8995787026846356  0.9182451700067953
  0.8652312283484180  0.2893646101761748  0.9541744328900068
  0.8677683017918920  0.5991778553613862  0.8919684480984080
  0.3615311072061792  0.7679006628162139 -0.0053694162634700
  0.1076868994646025  0.8353983869038345  0.9370571683936216
  0.4716729062064798  0.3499238421985901  0.6089746571599891
  0.7653633520015359  0.9309809612105124  0.8861223456162447
  0.4193808461612480  0.8388007163992818  0.0436097264300274
  0.5257502132295901  0.8982919595448228  0.5720392394099193
  0.7334122670365125  0.5944923526998219  0.9060074290021829
  1.0114765517644682  0.2821026837053827  0.8707018436485976
  0.0534707455911235  0.4755205614327741  0.0089324154854253
  0.3313999216335217  0.2265629505144062  1.0239312124236242
  0.4939771711879690  0.0744820746109558  0.1407160492841164
  0.0611635440509843  0.8789403294983126  0.4968929417692244
  0.4321037551218494 -0.0529435580328756  0.7967400491862801
  0.2774615835669837  0.7742140313027712  0.0436376452598926
  0.1768147645253455  0.8056655875946331  0.1206200350026384
  0.8164067509874546  0.1797446416004425  0.4962516610672821
  0.9818825616586528  0.6521293640826255  0.8158686167660266
  0.8739303578842718  0.9518231314345990  0.5587313983252331
  0.2396443426545176  0.9234419663101187  0.4582570917858537
  0.4559682094287910  0.8889530080520283  0.0003571034768842
  0.5061944586316293  0.9585282120323311  0.5389077315541804
  0.5823491698372094  0.9301769227560053  0.7839904469314865
  0.0405314921898543  0.4204368813313056  0.4858312208978103
  0.4815923495955461  0.1550842163026218  0.4706785717512472
  0.7148940186931453  0.9412518870793263  0.6535256633468641
  0.4546214126931980  0.7948246236133034  0.5587164055909281
  0.7287049915665915  0.6085638356310944  0.8363110459513572
  0.8110633222501612  0.6821551680449278  0.0178257354432466
  0.5705974119203953  0.6602825207185501  0.5964160436105415
  0.5202613637764993  0.9854881525359533  0.1703604653748677
  0.3827644571554976  0.7214226773413668  0.0388667586144381
  0.5731627869994080  0.5632542156563426  0.9089140298464564
  0.5388852346509232  0.2724708712592644 -0.0153116751569281
  0.4688838276333034  1.0149862453974623  0.2092515379010185
  0.3338906450245983  0.5834862358128494 -0.0032261312727653
  0.1418014926464661  0.0020748811067790  0.3431792643392943
  0.1065536002577492  0.4580953180490698  0.5745619491633891
  0.9403300362472091  0.9024282146581803  0.3422640637291219
  0.5464376095854296  0.3324123640014632  0.0459803168678513
  0.0249034743123086  0.3506814440379799  0.5155269112539362
  0.5399897308645846  0.1874382261377315  0.9774799825875490
  0.4620906100097196  0.3346902396488950  0.5235118597417699
  0.9234142468925367 -0.0156542781120309  0.6673758817650380
  0.5664629166741976  0.9150800740874417  0.0891507649116203
  0.1792634492328390  0.7362892193595489  0.5636804827061341
  0.8797588840936427  0.2442888251199461  0.3883099253352698
  0.2185948859508927  0.9548897721410481  0.9844511206080145
  0.2898832953411329 -0.0157689259052332  1.0077669795877171
  0.1283626843918884  0.2778999525315082  0.3933147647066116
  0.3559459038161468  0.7781107173501167  0.9181300511040495
  0.1948661893670602  0.6255159720737139  0.9320209901967442
  0.9243128796208100  0.9094056119429431  0.9415203677333430
 -0.0582437729564389  0.3103020072107027  0.0205270297416176
  0.2411066169595670  0.6884255145860575  0.5308813177888952
  0.8626521226109990  0.3890068247689217  0.5108278505088325
  0.6352026714060817  0.0895655521591654  0.9360602048728190
  0.5636817221835584  0.9145072589221062  0.7549542119219307
  0.1429278011541683  0.9002065373639174 -0.0086123989213657
  0.6203333311833362  0.5403889315398026  0.9934951487560391
  0.9215960550528622  0.9999810466769470  0.9359489869867272
  0.7880053217623305  0.1645354751591162  0.5701212462568150
  1.0000423778385235  0.5704482785234396 -0.0393449571416529
  0.0170534434994003  0.9468158747139126  0.8778703016107570
  0.4426574122850291  0.9713716090853973  0.2872626147534638
  0.3701529287234488  0.5787525166511229  0.9001188524431650
  1.0140110145984571  0.3077729957521236  0.9855775784937845
  0.1158103183751813  0.6949650582433503  0.4260857125883507
  0.3466041388857644  0.6829857878954679  0.5685027929090123
  0.0936722052201030  0.1683389214139109  0.5620196340685547
  0.3654915849150376  0.9424648975745691  0.1268891742345517
  0.4290771034416069  0.2446730284609493  0.5442918519693578
  0.4615703510458505  0.9644742127401491  0.0025518722987727
  0.9726441629361604  0.0849196292700961  0.4145244333236001
  0.5350252025239064  0.4963053518039677  0.6702662294532694
  0.9917419854907380  0.9828357967382083  0.9659976920679629
  0.4530462579000212  0.1550474166757594  0.5595709829114487
  0.2770618389159020  0.7258410304800343  0.2345396604846710
  0.5080095934630487  0.9348024935147330  0.1240714278152169
  0.7827971997421134  0.9501911451850683  0.6009855813392241
 -0.0040311337524486  0.9809391612275169  0.6888188052098747
  1.0844853969521933  0.9762330314768689  0.5103419915306884
  0.0858511980584994  0.3557979879056741  0.1806376678232203
  0.3532541128339243  1.0300646854029909  0.6561116305672647
  0.8011221243233007  0.7431992564940166  0.9694012765010770
  0.8325197648843058  0.6123206448242344  0.9861582929555680
  0.7887831789954666  0.4793168382193073  0.9321898496806985
 -0.0090156630092935  0.3300753247309585  0.7962930340863746
  0.1751950196623613  0.7733599065367426  0.2433111900359251
  0.0287957244836079  0.8497430714435014  0.6506708955206292
  0.2595516190821874  0.1962886170917918  0.4284110608514539
  0.6507833575241792  0.6203263814015106  0.5738801937104450
  0.1573686013299118  0.9026965118271703  0.4974516074136514
 -0.0195740727891040  0.9270088980599346  0.6044118730291536
  1.0646923468469125  0.5896905875882640  0.8959250982319088
  0.4672829339681724  0.2729365730047926  0.4823819859662999
  0.4230546099075069  0.9283070245625165  0.0791575012241688
  0.5673808709882463  0.9067240038070233  0.4824567745040703
  0.0638922242629020 -0.0516096099871735  0.3773687128663239
  0.8591572378417234  0.6679176929926629  0.9442196391996303
  0.1856542699809319  0.1760860947239250  0.5611230366892225
  0.3438939921699848  0.8146124189482147  0.0472833558961584
  0.9385151819351409  0.9878355110449357  0.5764033571615658
  1.0665443913766572  0.1535382561387575  0.2947332735650862
  0.5150044956181626  0.0805439166948285  0.1736488832693371
  0.3729899337028237  0.1969554836441608  0.5298659172339423
  0.6833684420807083  0.4127697213828789  0.9670763243192699
  0.4943167721814635  0.4184134749963908  0.5431484375974610
  0.4576513522419567  0.4097694278313695  0.4739870110665343
  0.7968505406621339  0.9327274330850061  0.6894139619903703
  0.1734587251069046  0.7555042916118884  0.3091186509226763
  0.8795929751970646  0.0208984459794160  0.5312844146431956
  0.0838611596544139  0.7310653482081251  0.5106458405857498
  0.2943020005522544  0.7893022643411206  0.9670819366231279
  0.8690642767812314  0.8688670577108456  0.5721722919198704
  0.0292902871964502  0.2745835436673013  0.5117220337174849
  0.6643291178557037  0.4057627533180407  0.5522459922599341
  0.7166402971976709  0.9485855311180993  0.0949131769532130
  0.9301286243417800  0.6007683683961298  1.0112133144012532
  0.9810565265996065  0.9014263363876912  0.4654768462847503
  0.5797999011833658  0.2122116371435407  0.9070427152201060
  0.5252632110277031  0.8928417873586211  1.0048233207196990
  0.0402359003735949  0.4010009072636834  0.0181615171295495
  0.9910926911495274  0.8400179545614198  0.4066773667128786
 -0.0222022007794842  0.3836321003520018  0.8407722139852389
  0.4528672524984770  0.9578487997609888  0.1648931411400615
  0.4115274004834503  0.7139560847297866  0.5904038342798158
  0.2138792138387834  0.3630956865158723  0.0364396343846242
  0.6966641819161273  0.5928752520431416  0.5073548936911044
  0.7260284642946936  1.0304762575186353  0.8686756206037143
  0.9309363981175804  0.2593733971886468  0.9714065713223621
  0.4838974110939396  0.3869657696460694  0.9501649295671166
  0.7359509339225723 -0.0260986675621178  0.8103528957666700
  0.5935499374190426  0.9173924911253523  0.9758144287927446
  0.1444693768310393  0.9527299831878491  0.5476051869767851
  0.3128668438308981  0.1549223406009860  0.5114362622847360
  0.5696171172292687  0.8524381035426467  0.4293435721042633
  0.9139497412019418  0.2346648598290866  0.2777139593348247
  0.6287452967984963  0.8280536285534644  0.9506548192811221
  0.8149645002070997  0.8754213360634737  0.4983375197001171
  0.4151717428213739  0.1791255698538209  0.4338273216775220
  0.6088892987341767  0.8500417881825407  0.0427051525107815
  0.4156569520885374  0.9534124543455761  0.3048217140296723
  0.0488934287802015  0.5273547468531644  0.2798114240201085
  0.8864145777632214  0.9958633855578868  0.7404536519528133
  0.9265980779707065  0.3568563989378535  0.2418059109050524
  0.2098038993669613  0.4205393388617059  0.4521581248759232
  0.7690882932765295  0.8789771517827478  0.1254863024977738
  0.0397099546543239  0.9404618189758335  0.3478572249247071
  0.7079775068139683  0.8618536967012492  0.0473696422710707
  0.6090324797861894  0.3797211985253119 -0.0004857771791513
  0.5549063823154097  0.2931928268894583  0.4750438598287320
  0.7188841943738323  0.2484766663796671  0.9626410415118456
  0.5709377065517477  0.3506277927130950  0.5229192514568780
  0.3451475895410623  0.8818632987008691  0.2092684822913166
  0.3752041109031922  0.6689279745106865  0.9889437703335939
  0.5375399372639240  0.3900164586338739  0.5331562000542630
  0.4433852688515287  0.5366509582891629  0.3244070728955123
  0.5688392511086372  0.3182188602261557  0.6249655066730238
  0.7028996348514810 -0.0026061592075999  0.8961364426009079
  0.4977492534902899  0.3694183295257691  0.6460285093888323
  0.7617210985455309 -0.0218461211200676  0.9099807706594628
  0.4471074383921860  0.5631540555361009  0.2008601649654617
  0.6176671542727711  0.0709464040619271  0.7916053767476591
  0.7528487992724225  0.4452622011668605  0.7230009680007490
  0.4871808127932103  0.4451260040532101  0.3711079809710443
  0.7784773232744167  0.2568578021663475  0.8694110196780301
  1.0101666728934273  0.8359194771731829  0.5538002967379668
  0.8274605309469575  0.5454545383216671  0.7338128256676615
  0.8396032815992297  0.2014857064330955  0.4589210695500438
  0.1038851611332311  0.8898497472781083  0.2756724111054014
  0.4449362991987972  0.3313581226605138  0.5709027711607892
  0.5113597353345418  0.3220465874063367  0.6005193511414292
  0.2608760676251566  0.8570298198500518  0.3341844413186854
  0.2442638451670821  0.6707082690590548  0.1561040612642624
  0.7266158165932221  0.5320974824088601  0.8121245778298900
  0.6425851761194651  0.4471056200881355  0.7404801994250171
  0.7362993399922410  0.3381053895142848  0.7312065604565753
  0.2050537555438385  0.2241354298073503  0.3481016289324056
  0.6487831156206988  0.2840064925309290  0.7649264926272977
  0.4263248150297027  0.9134770759399367  0.4865916795557778
  0.4204244370653888  0.8072909165976169  0.4560353027666187
  0.9208240332802093  0.7687175282141429  0.9183520916511327
  0.8174227263821796  0.7886382559911278 -0.0146051380607726
  0.5971350298392529  0.7024404387871060  0.5790386701916397
  0.5634189926894704  0.6840061619403585  0.4939702620697622
  0.7616071074790737  0.4608048546607282  0.8921647626125716
  0.6914078191232929  0.4837203310087140  0.8064338004119481
  0.6140324798329702  0.3842486538531332  0.7949551625952243
  0.6747020265134447  0.3767020605232811  0.8165816679754124
  0.4992966647739658  0.1572096821871859 -0.0410984307247146
  0.4743090632887555  0.1735383069084073  0.8346522622050616
  0.2096789840007343  0.2866098297540864  0.3307304210101180
  0.2616838292588446  0.3181888719045150  0.3432628169277048
  0.4598807269770486  0.0879290386550576  0.1828354070968169
  0.1142002333604789  0.4258057499322808  0.4203555121317969
  0.4530567697636557  0.1053926487830642  0.1250991465273860
  0.5463263687439421  0.5583108781191238  0.7482103700214522
  0.9862146895395730  0.1321056690102695  0.4174539017579387
  0.3595963251624854  0.1873622591286198  0.0145727175645880
  0.1293082655992858  0.4509564235939593  0.0701633000905795
  0.6315732720522220  0.2103048520435205  0.8790589714693308
  0.3005099454449573  0.6841725153106877  0.2249515274112709
  0.6384966375732656  0.3827973542403908  0.3314569209119531
  0.7339062915655630  0.2891182582004587  0.2832948471095516
  0.6721748396819215  0.2272650978887151  0.7810363299938037
  0.6017041838305431  0.2479825212896263  0.6999374814398265
  0.2328710304289176  0.5257401552512738  0.0322407430313553
  0.5028185684537534  0.2053116893048100  0.6739180164121338
  0.5671599176373221  0.1657105991210651  0.5784916513600445
  0.5924182687917298  0.1095672201866530  0.6015672830566595
  0.2347712843992356  0.5132441085470550  0.0893152701677822
  0.5399282828204829  0.1028731772592617  0.6454575994613081
  0.4364159211771727  0.1403679424050787  0.4633230113287173
  0.4916921989566952  0.1126423886840098  0.4935449582405418
  0.3980120447722968  0.2594784548407946  0.9548996473440396
  0.5158655152008602  0.2295330390666798 -0.0008580601739251
  0.7468964383091331  0.2890419221575523  0.9759178879446126
  0.9383188880850639  0.8939963037091935  0.6126170778529288
  0.5067492372576650  0.9411604802826683  0.6810509227005395
  0.8882747663936049  0.8454927079509543  0.6127168777553328
  0.9558997471531696  0.8400571926394119  0.5807280060625801
  0.0241885330213717  0.9982971117701132  0.1864722321613108
  0.5163695749811034  0.1607053468338254  0.6272802250870572
  0.3039645432313739  0.1337505043890878  0.2947255326233418
  0.0802514317272961  0.4815011140229650  0.0493888801710827
  0.7083298572479513  0.2747851866950580  0.7872146198296899
  0.4451522146490606  0.1129520517271827  0.8925835414697644
  0.3976302474412118  0.0739709349433369  0.8282558452014150
  0.7007137835590038  0.4741426701415082  0.3225761869224327
  0.4089580965729963  0.0296479237693656  0.7837696800222002
  0.7795696835920474  0.2127465437369311  0.2683088180869860
  0.9108846960969873  0.9303803640801139  0.6610653872468828
  0.8869172924234733  0.9113705180192739  0.5957100700298630
  0.0224676915498315  0.9444756660210395  0.7096017161481587
  0.8991130948274610  0.9587653202124763  0.7737254585734036
  0.0054393948939131  0.8650602821381915  0.0626639419357795
  0.4973689328176900  0.0612912321440901  0.5815148284912692
  0.1485283859317025  0.7966503920211816  0.0816650067868779
  0.8689502285792154  0.4891310694978109  0.9767377650699772
  0.0946766614390355  0.7158495358687056  0.0318215683075837
  0.3616574358751473  0.7652412320743476  0.2770813695790684
  0.1335280440028618  0.5782882477599620  1.0389312810737206
  0.5000850067782971  0.2371685355539323  0.7769048864053436
  0.2400120914677193  0.5894052675049687  0.0171590629093226
  0.4640678064653040  0.7496348049091872  0.3732490964264600
  0.3633865376200642  0.7944582635800033  0.3825617001999839
  0.8364194483764321  0.2756625222761470  0.3826292540833883
  0.7921462758241383  0.9652245397882758  0.5491832071872887
  0.9036691042540579  0.9789311641056463  0.5279096484729404
  0.8428123369062863  0.9500272186048725  0.5151711793152692
  0.4802074241039257  0.0117571637871255  0.8702001940126947
  0.7826088644443655  0.6620363588418007  0.7063626943363921
  0.3953579767317505  0.0300972289653176  0.0614497820342999
  0.9345218197905026  0.1481782645097621  0.4552420945814073
  0.7831596901189242  0.1685970707034213  0.4588793238328322
  0.6433088822225298  0.3421769637276130  0.9905414538872609
  0.5282216962467622  0.2988590741204469  0.7229206249241793
  0.2660946465738939  0.9023245526784222  0.3825117120616550
  0.8591710393967534  0.0730895842026276  0.4776552066024351
  0.2722674118142843  0.9480888029376662  0.4297469894879856
  0.6407635359016495  0.2666381440686373  0.6004322839260788
  0.8673734023426254  0.0452547246993695  0.2973207793930542
  0.4469057398539156  0.2304160820216785  0.4952933743150691
  0.4159042170401527  0.1487861126764575  0.7068956629744427
  0.8879900767765029  0.5383067707850457  0.7548773644805024
  0.4706829338937970  0.0236295973448209  0.8058805118450975
  0.5458271031120305  0.0798032544656258  0.5343247042475083
  0.4859214755789203  0.1293231988864019  0.7902351599349131
  0.9459385330571027  0.4449123610459664  0.9587617446075940
  0.5507491550843701  0.1667654940756121  0.9233529994904562
  0.9827170841475709  0.0846066341306292  0.3662668627038373
  0.4976730537371156  0.0857160461125765  0.7476894050744958
  0.7048412785314815  0.9789704363214281  0.1426602294807497
  0.0107379888209590  0.3879884365502670  0.0558600594494280
  0.0278416140196229  0.5614379250277208  0.0633373015985617
  0.5984514176749678  0.3107240124379724  0.9076331856157168
  0.2622501067108216  0.8408791521088149  0.3938519351958558
  0.1932371701128198  0.1200388815207245  0.0894288245996201
  0.3048192344237190  0.1794490431352345  0.1120378962827695
  0.3315085630224873  0.0077204349244383  0.3128420923348617
  0.4406295325590807  0.0810683645837424  0.4942513929187514
  0.5943480555368000  0.4413045270900377  0.1807311228545518
  0.3960797987066345  0.0983582595426052  0.3029370548679106
  0.6546731891987524  0.4038756338913367  0.6948714073733394
  0.1762371433670440  0.6137802063748804  0.5541660005238582
  0.4934125787184225  0.4869781484008052  0.1875208077402505
  0.1250639202756590  0.5318228837791259  0.4469925123412361
  0.4006244424792922  0.6403231020708816  0.2170497537010769
  0.1748922209607205  0.4546593496858601  0.4293175155168943
  0.7517933081510997  0.4752302867285989  0.8282199178677900
  0.0253416463319893  0.5469333398722359  0.1236977103784409
  0.8255478294520785  0.1349876409364347  0.2508439238407820
  0.2382038916443287  0.0452194657188959  0.0677941276413978
  0.5237374281183407  0.2120692171702268  0.8988125067431094
  0.0081604924093653  0.4180146100518590 -0.0167205553690649
  0.5654233585530952  0.2286756447945565  0.9558061380665106
 -0.0051774295413097  0.2911729685546691  0.0304582162129210
  0.6074461595174451  0.6130623838772675  0.4179824762457588
  0.0413595061375221  0.2109337591274870  0.0149708162377019
  0.2662108984353707  0.9189241156466873  0.3199526642272367
  0.3140327022597405  0.8417133681369461  0.2973609425646894
  0.6386798584676266  0.2964107175252453  0.7043529258915523
  0.1988227736654000  0.1640569478261078  0.1350218153925166
  0.6627723406460241  0.6776654780119709  0.6617415393312001
  0.7210573702339672  0.1359262585105316  0.2154096345913999
  0.5029137915070876  0.1716917240750434  0.5701640709856455
  0.3328441239361633  0.2015322903580169  0.4986767801248252
  0.7091147076218817  0.7123010348896183  0.7297649782103152
  0.5566154803348724  0.6327967576894576  0.4506441948189635
  0.7779553613707734  0.6899571872728224  0.8152384215754450
  0.6356551060454954  0.6141870089897152  0.7175380234385874
  0.7241453795253328  0.4255479064677501  0.4914156039592348
  0.6021364266593291  0.5366255276122398  0.5457274955537138
  0.9152292409067985  0.8659488987169993  0.5537999769003668
  0.5485344874734492  0.6726172369422747  0.5530971512811299
  0.8245624944683634  0.4245417511523653  0.4971568253666033
  0.7349451973976360  0.6728383248531703  0.9181366125495191
  0.7695052339011728  0.3902791082054980  0.4963444641068059
  0.8844000791437582  0.2932852203550292  0.4596195637784435
  0.8331456653674099  0.3080776545124203  0.4906750314023699
  0.7417455357440421  0.6438229302670071  0.8048167170522748
  0.6437642717850123  0.5992705077281332  0.7783221151140640
  0.4849187547183703  0.0065283629160061  0.4766600412121225
  0.3045957952195400  0.2652419391694607  0.0361062149782703
  0.4451026782791268  0.0959234127879873  0.4279115332547613
  0.3877013244395696  0.0690656727076962  0.4293215032902546
  0.1440265444085028  0.1683925348543379  0.0033135635700610
  0.6716669205339724  0.6639131727597688  0.7223584303311448
  0.5525921751682881  0.6208487336242209  0.5135545568366340
  0.6782696683739873  0.6373007181524803  0.6145929043970346
  0.6395307764219474  0.5864597782054634  0.6111204244175015
  0.7916166914594092  0.8460562985009322  0.5302338408895662
  0.8325322435984480  0.9380969488475041  0.5821721016632100
  0.4585583066101901  0.2847118650644526  0.5309046601140436
  0.5131234600928077  0.1922033994977465  0.7334047951512860
  0.5100836093216158  0.6746015304400185  0.3582057135308166
  0.6094312245199591  0.6261124088194254  0.3535105278185253
  0.4040759062955693  0.1613871084925777  0.6488541494240084
  0.3626231783795930  0.0087811614505405  0.6122324550158934
  0.4211625965563133  0.1151046181797595  0.5900039036556602
  0.3626973208766869  0.1472498260630774  0.5242488332703260
  0.6738307444256147  0.4075283476806241  0.9180477189429141
  0.7280311206862695  0.3992038615182502  0.9461839481502939
  0.5254281541521779  0.3308843663771257  0.8278756319748116
  0.6330269822377048  0.3036882550004994  0.1855568692855198
  0.4296778900239114  0.2563088782462967  0.6950761115285153
  0.3341010234838654  0.5337076828187004  0.9972547479897518
  0.5990235787021277  0.2782100669292362  0.8031831517173287
  0.2600910354708610  0.8261637923733981  0.2235370596228285
  0.5656664160853212  0.3481049484852063  0.7280641550806354
  0.8096831816569784  0.9839499510744485  0.1820529398264128
  0.5296573313487507  0.3360380867962840  0.2542528651961917
  0.5899979066241297  0.4699879117674359  0.8842502251718998
  0.1897575026797301  0.4457730742877845  0.4928009492338686
  0.7182156135216125  0.5472308149248511  0.7525266043146465
  0.4095446600946043  0.7507714378007408  0.0088685831398087
  0.3589237490806395  0.7640795530479567  0.0468244695176277
  0.5487388774063741  0.7951907261861035  0.6112934450822268
  0.7013084308121385  0.5063356404186186  0.4266904203131778
  0.2212725884712506  0.2129396632286422  0.6863981603851244
  0.1876625399199472  0.0594471035520642  0.9311642420325802
  0.8469827072812089  0.3823975062202306  0.4078577464809212
  0.8411009262025381  0.3695793184225098  0.4693833530798712
  0.5242251089725595  0.4344173868055989  0.5859587739658737
  0.6575316497415341  0.7082059166529261  0.7687403696813578
  0.5887730886331597  0.7299004706915718  0.6844113872288348
  0.6354285253943105  0.5125330813462402  0.9503840850181279
  0.4069353525447643  0.2835232802208770  0.5692355113096065
  0.4527399708819713  0.5881330618078737  0.0791575051535542
  0.2492474553900757  0.7596205096787321  0.0064595470823671
  0.6635845287933637  0.5658155532297733  0.9839519170519962
  0.5746044311793792  0.4689184361618522  0.6592653703931227
  0.4602478706169025  0.1730103122559101  0.3450939486333757
  0.6209690692633801  0.5058443896051608  0.7250376566876489
  0.5615326908754915  0.5160026199639010  0.7061943634698814
  0.2851229138464021  0.5763901386018099  0.9782507552235674
  0.4731115321618030  0.7809350524772659  0.4805478497701789
  0.5101198836752687  0.7540768280030676 -0.0091998657483091
  0.4246196143973300  0.7788855482225725  0.5232371506020002
  0.8905706031301209  0.2979865342924977  0.3960994607521787
  0.2162821300863635  0.1245466230624004  0.8696163297973606
  0.2882238624392583  0.0735274127649188  0.8470967534529137
  0.2477015378074342  0.2119545698533056  0.9729676593051205
  0.5522842252442347  0.4228495334664136  0.8794651329158254
  0.1912534174483629  0.0301173227127482  0.8246538010621203
  0.3949035107826797  0.3905379787703431  0.8329805696278856
  0.8053540120900277  0.4738007915665908  0.3608911997216026
  0.8006659210619628  0.4269483085449379  0.3179073284226557
  0.5477246479218121  0.4993758009208061  0.0291220529370630
  0.5203463576302404  0.8978965419264398  0.6243896781692875
  0.5297818671039415  0.9324947746752863  0.4593651669881392
 -0.0023763182550326  0.3387578417941757  0.4742065590847526
  0.9525683618117332  0.3801730352247968  0.4458655817337888
  0.8878691995743038  0.3429509350852150  0.5024046555313695
  0.6676486851562297  0.9389276556873335  0.6269682074308410
  0.9157371830226934  0.5083867399858184  0.4984337884176486
  0.8143928515116624  0.5530342539399311  0.5105962174796013
  0.7129080096727840  0.8662606267792619  0.7693143194000370
  0.6767509760154461  0.9636077976464882  0.7994188645211179
  0.7176855355765109  0.9751771147806360  0.6947797416751879
  0.7927246165143399  0.3665233255906121  0.3363820167514602
  0.5755347664323583  0.7415677175492890  0.6240253844784696
  0.1570629567985479  0.0993698249136192  0.7432004583685000
  0.1582020338449327  0.4007911146140063  0.4530812937347202
  0.2770132317026533  0.0435296837955016  0.2851614762863147
  0.1757562558057582  0.9365391050362185  0.1355582163366414
  0.3344893753821405  0.1790814978462625  0.5635395564951601
  0.2518977442244243  0.0129407203337303  0.6411331533237538
  0.7188868288765684  0.1184415585168364  0.0463946622314478
  0.2657844243650122  0.0645738492477609  0.6147392231677899
  0.2936189254656440  0.1619197372883376  0.6643911230719448
  0.4023155490592710  0.1927765335835964  0.7514538852008136
  0.4277065923832430  0.2873970872900312  0.7994580686327758
  0.6826786873913061  0.2789852735811181 -0.0171241800895089
  0.4884265025122019  0.2805263585178342  0.8203252125139913
  0.6960650785275517  0.3760145101668977 -0.0009759320219254
  0.5245605729918769  0.3582038761586470  0.9457295669980704
  0.4935240742331279  0.4550600764477046  0.0846031143032192
  0.1838043260467363  0.0869715068945334  0.5316556462274009
  0.4228776622724821  0.8333526776914609  0.5623147868915499
  0.6243676692460282  0.7158376206685292  0.4440121382430705
  0.8624084173532865  0.6177372183868541  0.9394997639090841
  0.5898702293113240  0.0046974315629081  0.5832147328483533
  0.3412048408836642  0.5618012514021331  0.1672241008732518
  0.3453659338805109  0.6089282465685518  0.2092109490690410
  0.1170238227972370  0.4411611698236101  0.3596029644899832
  0.2440060812297355  0.1074708164553607  0.0519819642610249
  0.1714280151776678  0.8935462056453096  0.0920484746611217
  0.2063975236293457  0.8317542079671919  0.0913258052642872