C  Cr Ni
 1.0000000000000000
    39.0110871383406135    0.0000000000000000    0.0000000000000000
     0.0000000000000000   39.0110871383406135    0.0000000000000000
     0.0000000000000000    0.0000000000000000   39.0110871383406135
 C   Cr  Ni 
 213 1596 3725
Direct
  0.4137422732295011  0.0551946509699164  0.0163848141853596
  0.1032606262691254  0.7280242586814777  0.5068319771528235
  0.2769958529218318  0.0397771716777899  0.5643761409741349
  0.2587709567733310  0.2539538698202452  0.5409785852961050
  0.3598825535927600  0.0647881914996647  0.3940464242713145
  0.9006091643471176  0.6331232368173723  0.1399768234924146
  0.2368783822407125  0.9222082149585572  0.4598831160538092
  0.0575752487183187  0.8787816434589966  0.5019137396596576
  0.8851967751658822  0.9542143103440711  0.5620707142637965
  0.8178272380084264  0.1161992786889176  0.4841339893736614
  0.2786490217033537  0.7751804173851268  0.0448494522313065
  0.4473568287071368  0.8136595119961253  0.4929129340891109
  0.9007654986968721  0.3318395622639513  0.5426436721704175
  0.7779839866568408  0.0174291747759129  0.9446330878263373
  0.6237176867948214  0.7440881415117382  0.5991336174173683
  0.3702658463130035  0.9454792685424003  0.1311702905585952
  0.9621715215046526  0.8674963208344609  0.3368773943589398
  0.0727265683082142  0.2154646232728442  0.2770662965950520
  0.6871590557314403  0.1144984997462423  0.5422769364928001
  0.0610626749924884  0.8501343639925018  0.3685385991197015
  0.3462637546178837  0.8901452552284084  0.0731919377230166
  1.0025595399592575  0.8270187606407069  0.5087190004166898
  0.3091154397484644  0.5426186568142483  0.4236239014283671
  1.0174771576941699  0.3195893454875796  0.5722842324230434
  0.7136899862708771 -0.0212648924009037  0.9415543895243847
  0.1996324532065183  0.6814546883099929  0.9827936639021044
  0.5670080356084114  0.9985424752159044  0.4795700487717486
  0.3883663186669814  0.6288219522715252  0.8253318672235096
  0.0512761909852539  0.9643102790569551  0.9248457548218258
  0.3730120613912459  0.0512530432619860  0.1400074949462851
  1.0087290332369696  0.7175376084803405  0.0201328688819172
  0.9115814337212917  0.2796955532255113  0.4390415424186496
  1.0268881454007672  0.8915103456616547  0.9562975003764994
  0.1816057302763368  0.2638810282796821  0.3573834972037772
  0.3797060839323241  0.6960865289402444  0.1645259155597598
  0.0052624539795995  0.3432245618536743  0.0345926931562683
  0.1118436001113047  0.3978970247338028  0.4717908891769669
  0.8390269256174869  0.5566569532640955  0.3157708739767291
  0.6069074630581262  0.1891746380349298  0.5545672787104252
  0.4901564411990123  0.8889472747687499  0.0657115285663390
  0.4573675123030528  0.8297305704118065  0.9496349565945654
  0.8254561287284473  0.3847673613847106  0.0782505928816864
  0.1860003582203067  0.2982665241546378  0.4705326195183723
  0.3686370382864676  0.3702375776706295  0.7972917687872167
  0.5801048107486213  0.5920281207931011  0.4428764628312506
  0.5556721941057806  0.2027457273222321  0.4703460718899218
  0.5645164008337356  0.8578904539213987  0.6849119472933776
  0.2941677479699636  0.3424283039550830  0.3144234933870873
  1.0436474402242328  0.6165358604645486  0.7680641024147303
 -0.0059311037407602  0.9848997423998320  0.5368290567314770
  0.2624148928817976  0.1660913479697306  0.9831329303097688
  0.5140371713918028  0.5719635973689697  0.8849120400717767
  1.0365319097556842  0.9803599048512120  0.5973696104215276
  0.1562033791644316  0.4760886380094241  0.0417374303633570
  0.1305533745678042  0.8821432291398463  0.3755788305141045
  0.4695977041933726  0.0929800228036443  0.2288514930516693
  0.3308188952024679  0.2245378463349815  1.0250796672936870
  0.7347327839444197  0.9485993678789628  0.8026935103299428
  0.4593410077672401  0.8913383500633998 -0.0001599188493242
  0.5254131241358754  0.9016710306066443  0.5736921508603341
  0.4364960519544964  0.8777458081696592  0.5850758852555686
  0.9228895293223471  0.3259756540381539  0.3677399767484371
  0.8714683071207407  0.6952287659415184  0.4673062958939925
  0.8668344552208228  0.5992161600414089  0.8905636753713430
  0.7224854174505881  0.5391809722708408  0.9721389148247652
  0.1048854343508365  0.8373568949525976  0.9366430296641324
  0.4076408033157116  0.7314704695170505  0.5177448747788098
  0.6884382114471286  0.9554908424894892  0.1024426761674907
  0.7015882565680956  0.0533901673462565  0.9167001985811110
  0.4801237309659063  0.3404368460118527  0.6717564994101041
  0.9713862214923361  0.6987626360123327  0.8645178481555702
  0.0824044500343195  0.9264002483895696  0.2924301274964157
  0.1771660677703137  0.8061898349825295  0.1202208527361874
  0.7384051030430175  0.5937187284521925  0.8986253761157061
  0.5422867071557363  0.9971388243031754  0.7868134075409560
  0.4220272876885824  0.8399312245159299  0.0439303822088148
  0.3629010115964387  0.7650266562806002 -0.0038561592982295
  0.7879175434783560  0.8119995400903801  0.8937278382211209
  0.0464902343546058  0.8095338889842703  0.6036967758518137
  0.7589877213305958  0.1736902261400086  0.4352279840213664
  0.0655828969839048 -0.0320756060357359  0.2529184654586172
  0.1164674822746122  0.4666420428042242  0.5748232569426819
 -0.0041274284335016  0.9046830394148303  0.3882431997531867
  0.5467535701611917  0.3312622758297809  0.0434541469252701
  0.0319398581645293  0.3604207929034641  0.5085865945631395
  0.5358678194083041  0.1876462031392145  0.9867317440918568
  0.3922732823761809  0.4256720180194333  0.4485028009338020
  0.8570012395151521 -0.0251371787496680  0.6118338701598196
  0.2226491374395972  0.9529079734508439  0.9842662146769131
  0.0567646000710843  0.4191951873659270  0.6261851527805129
  0.4666977241525347  0.1014292380575121  0.4620364495024551
  0.7239504999696047  0.9391923037992762  0.6556585154427561
  0.4545554934915167  0.7912180106127024  0.5611160280010654
  0.7268916357443354  0.6098881176702746  0.8321200048890097
  0.8096936267292349  0.6810323426792787  1.0146586563945155
  0.5976288177700064  0.5747102654507623  0.5880881610022225
  0.5152920612521278  0.9858756406438349  0.1688405897656189
  0.3514257789350958  0.2554740458865971  0.5210915664296327
  0.2136779020780905  0.0775235725514364  0.9713486924101775
  0.0533562583567244  0.6039071944592421  0.8342802035978734
  0.7467445894062406  0.6207226029266580  0.0236349911789383
  0.5818050714205357  0.5873149863000350  0.2110464197570213
  0.5717213037121500  0.0246072942391425  0.9513028823089185
  0.5831797768440353  0.9310170982653881  0.7840237803141094
  0.3268216644281436  0.5823155010850558  0.0026791483692014
  0.2918156918268255 -0.0158655156917645  1.0078767739718244
  0.8656689644395552  0.2873470756104973  0.9515767630638015
  0.3851369298823037  0.7871342900323340  0.9271270925989116
  0.5648477988452879  0.7089631519928747  0.6527888821126914
  0.1391276578206304  0.8466716193431025  1.0014320619991450
  0.1818748688715907  0.7519315148700628  0.5505050396890698
  0.9188302480322902  1.0002397993614731  0.9376098380252337
  0.0926955251082286  0.1685490468991419  0.5625409856706538
  0.1360596345777930  0.2633381499376193  0.9561995241348067
  0.4382789338500190  0.2470120309506228  0.5457663053904587
  0.4404559202504382  0.9717241200364105  0.2836344551292975
 -0.0763007731839351  0.9102806514144864  0.4066702013780358
  1.0005686897451413  0.3128182760855627  0.9718401767634613
  0.3489997928862464  0.8145197386810412  0.0444508371899674
  0.3481283659539250  0.7303912022591815  0.5669557990317298
  0.4551128663730309  0.1544590934235777  0.5591364183482412
  1.0586244059345655  0.2728857504878605  0.9391802497486272
  0.9868891692126640  0.9767264021157716  0.9587865525776507
  0.1559997836753930  0.0112378520614974  0.0192659542118949
  0.0441589653861088  0.0633438069201779  0.5264130673016068
  0.5361582178775819  0.4949953629679387  0.6698941598407633
  0.7789610961954730  0.3155285336867483  0.9534666049405155
  0.9249576206605177  0.9079921890954805  0.9429670715014000
  0.3526853493171491  0.0299171205950264  0.6557386309685915
  0.2470409774442558  0.6862054333677939  0.5369158936137983
  0.8005852272557797  0.7420794550068839  0.9626716167122918
  0.6280344646697471  0.0844582855804148  0.9327394162963013
 -0.0316462117466754  0.3948987208201308  0.7737574564330968
  0.7903524569432341  0.4786688016485561  0.9276458067663979
  0.3251424003383820  0.6961279508365122  0.2617377058756424
  0.5358743710680181  0.3466542675422425  0.6291037288779722
  0.7918611077340844 -0.0645453604349930  0.6085833731584085
 -0.0106843174321832  0.9734253770696693  0.6799119145358550
  1.0841826894955076  0.9691195190879527  0.5148946104748150
  0.2027477388780770  0.4277542076159969  0.1319469517077397
  0.7630891985796289  0.6573989730451802  0.9587333702177766
  0.4442484642111726  0.8483333404572559  0.1372966499461476
  0.0383743625866559  0.9429881373161880  0.3483893616312729
  0.3466284419988079  0.8838743875893909  0.2085488306108172
  0.7323557948809514  0.2456902951888404  0.9670647912616622
  0.6143267369082371  0.3794961743501532  0.0019562271828627
  0.5651691644072002  0.5429699095129489  0.9637309636310802
  0.1582190114366954  0.9009148939809152  0.4996702342238212
 -0.0204221140109313  0.9287165771200241  0.6056468288798456
  0.3726464520921675  0.6670954073599348  0.9910696398472809
  0.4718861779358057  0.2761915576676319  0.4797367839271941
  0.4239455911589408  0.9287409926709723  0.0784844291198468
  0.5664642086654396  0.9064931682787837  0.4809668467328192
  0.0625761443822077 -0.0505774781766950  0.3772081352456250
  0.8571193204016874  0.6663765002504585  0.9428177805996888
  0.1860254130906949  0.1769796387284943  0.5592664869091869
  0.2414471623930541  0.2315112600171393  0.3858282729249574
  0.6910308986539447  0.5856757424170146  0.5890500030768584
  0.8313407275904352  0.6099879670916376  0.9835063453643746
  0.1310864993383362  0.8478221346116561  0.2638302164481885
  0.9553644979013891  0.3528794582027287  0.4911098453813841
  0.2418595078748115  0.4862695147703174  0.0711190550352398
  0.9311296620321673  0.6009831073506220  1.0109952971463725
  0.9851225269646982  0.9153425751386426  0.4797950940389366
  0.5779574128633816  0.2608446269355489  0.9523188563868255
  0.5307919107242303  0.0891035701451247  0.4331968987308599
  0.0433678028303308  0.4034209159380128  0.0158217639824992
  0.9900054301764413  0.8371672361974873  0.4106071469574815
 -0.0185897405698396  0.3787256300027744  0.8407286751240697
  0.7455058526228696  0.9285385481145015  0.8954829546678422
  0.5807601511816215  0.6462194065853532  0.4915736248840931
  0.3800723061817477  0.1928943916024150  0.5351784991185866
  0.6186013144147009  0.4205552843310424  0.9488167570502836
  0.4929386857598991  0.4160950476999691  0.5485042404900924
  0.4789877324620644  0.4212881010448249  0.4779045309166737
  0.7375744682427967  0.8655597988155170  0.6848315729664939
  0.1731750120303944  0.7566759280632193  0.3059578190780591
  0.8024357232280305  0.9340283552308624  0.6878310928224564
  0.6069871530950756  0.6047217167226796  0.8576220998870722
  0.2966596000315353  0.7886056883710718  0.9659841344411381
  0.8786601656722561  0.8505942990757015  0.5427221498027661
  0.0474114130659973  0.4580869105490323  0.0707983528731705
  0.4936788495359093  0.0722517125079831  0.1393866580633142
  0.5578698010317201  0.3258453906061357  0.1237640149617132
 -0.0607743338600344  0.3077370033164501  0.0176562982330802
  0.7064845649721253  0.9235139235906803  0.0953895409008537
  0.8351496491384165  0.9742583097415625  0.0475457391264809
  0.1700217202049723  0.1402893332696818  0.1621363373748966
  0.9481128797315781  0.0350026518625597  0.0629901014942126
  0.2954307184096787  0.6772314324735893  0.6115986991000073
  0.2078925529129710  0.4285738341845406  0.4482424258481421
  0.9270945237397690  0.3554451583904801  0.2408039769518172
  0.8122831465164265  0.8744827215571477  0.4957489399076529
  0.4083261069678875  0.4528185648048558  0.3699725216261529
  0.6060498324513920  0.8492083233936171  0.0504166443062197
  0.3322185244778547  0.6243906140598243  0.8689397960269435
  0.0477278308272543  0.5266524497122309  0.2798586453255958
  0.3459422540626263  0.2037668454656074  0.3956502665926458
  0.3124261279655177  0.1582516752200440  0.5142128991943561
  0.8626369829181516  0.3912955764864736  0.5094557297236050
  0.9137290348472298  0.2325238963258549  0.2776476120728584
  0.5642887159672327  0.9154315041777883  0.7544541590194086
  0.7872307235021222  0.1577636041543926  0.5708338557998482
  0.6290356257160394  0.5461011660888593  0.0015527050350051
  0.1510012131876991  0.9575793645129296  0.5460066392784292
  0.6262167662616875  0.8295125741284410  0.9526344446782025
  0.6310362517312137  0.4002303555091312  0.4789193088370032
  0.8442761654207350  0.0087871508810657  0.9161861085100890
  1.0300929256281741  0.7448566191328416  0.4473279436945711
  0.4187287387922153  0.9511522028062256  0.3055831089746210
  0.7692027916058362  0.8737830724081720  0.1254891389712555
  0.4153557453527075  0.1788582113188151  0.4369497059676520
  0.5692408746574771  0.8527343129428763  0.4272880031280691
  0.5731840925030388  0.3175063295004940  0.6199181441145586
  0.6484588029613949  0.5700860051414439  0.6698441239189926
  0.4973091350506598  0.3736700077907005  0.6413268291984777
  0.7568452043188401  0.7483485312646392  0.7978913337855743
  0.4445643613686089  0.5504604928479093  0.2637671445955558
  0.8889030618174738  0.2398693099062737  0.4187742297346392
  0.7535935146805273  0.4450775126537492  0.7226757603737738
  0.2372413160903281 -0.0061548555931883  1.0179647508141623
  0.6436692363439385  0.4463518279342749  0.7403456353377433
  0.4849097692436908  0.4119620628207997  0.2678012278970939
  0.9516599510032963  0.6534491671582092  0.7184762590091193
  0.7118146674678777  0.5743541496363481  0.8617409911562108
  0.2425421340173490  0.6484900718738549  0.9900682150971950
  0.5505237362715223  0.4235613472221438  0.8809318019221132
  0.1584791351125659  0.8588893215958457  0.3036575840009897
  0.4549026746336837  0.3196450396907329  0.6349732864729248
  0.5190111388376556  0.3118391099310043  0.6615629656549311
  0.2623667331357570  0.8582748424766874  0.3343629949349804
  0.5364441206723884  0.3918298036941938  0.5351788951748143
  0.2449121487789763  0.6734714953943706  0.1576282359546808
  0.7280608195838710  0.5325732009343244  0.8132892826746058
  0.6079337979734069  0.4134972810715455  0.9009637622881198
  0.2954148860489321  0.6572494934695231  0.3499470205745306
  0.8428367170421281  0.6551792766871511  0.7266595091880554
  0.4261146513170368  0.9146525427445223  0.4841293088596624
  0.4177846764943703  0.8071636694676412  0.4538955242127721
  0.9214762102724847  0.7691946245664680  0.9178880966461930
  0.8161739030853693  0.7872595583285688 -0.0160648699670118
  0.6001800338228483  0.7024725672899282  0.5752592228695248
  0.5597242852541963  0.6901831917079750  0.5014142430193838
  0.7616409350957183  0.4595193783946111  0.8916438784670905
  0.7131045470348729  0.4253195176742751  0.8224278977908231
  0.6137609263309067  0.3841733377132721  0.7970066758077958
  0.6754775005725174  0.3774129897930476  0.8179081420735713
  0.4844108049268951  0.1615948339446284  0.8952615364266893
  0.4747742996928231  0.1741524067745784  0.8339171129234535
  0.9479103228250015  0.4406257253503403  0.9614208727421163
  0.5428833264331102  0.0814597499893135  0.5342403470100733
  0.8888702079066443  0.5382207131371057  0.7545683885590446
  0.4584023453041391  0.2311868142065852  0.4949392073746303
  0.6419695451870912  0.2666145365208884  0.5996304019524893
  0.8579431293755422  0.0737979810082233  0.4808939858204616
  0.5289864402786890  0.2996753162757970  0.7228006548155658
  0.7980995321824935  0.1612589931622146  0.4621459741794552
  0.6389147209071068  0.2959267867107270  0.7047915669076763
  0.3037904777659155  0.7535642974448293  0.2056001430882272
  0.6324934784900657  0.2102461389230527  0.8785770476720137
  0.7339364179629732  0.2884153500182124  0.2832318871753334
  0.7796183473199959  0.2117164149956745  0.2676231741275399
  0.6727058362151678  0.2271608653555022  0.7813209469673933
  0.6021467920611343  0.2478208679791145  0.6989353587696477
  0.2351208335351111  0.5273026839779574  0.0379116648531867
  0.5032695619846611  0.2054189199620217  0.6723548488833814
  0.5679169782282761  0.1668469833308809  0.5780943645386402
  0.5918201835279320  0.1101801256190055  0.6011984917051827
  0.2887758523399192  0.4988142855864989  0.0555403796402327
  0.5387014369125568  0.1036931988439001  0.6451604787722256
  0.4402087601845416  0.1422185271642117  0.4661308708804370
  0.4921791547235034  0.0505853745980671  0.5202879421647076
  0.3998389630634736  0.2566869548780999  0.9566279031182933
  0.5168561294647726  0.2320612649422437 -0.0000830792829856
  0.7452932110102080  0.2924327064641690  0.9817364526472008
  0.9411406873975072  0.8971931822362360  0.6216092911640095
  0.5069014597708755  0.9410056705196803  0.6785145890721024
  0.8978373474901877  0.8490951152573515  0.6191640508194454
  0.9569235054096006  0.8403972471356115  0.5847574692737590
  0.0240934708453295  0.9992371221184621  0.1860479662752999
  0.4793222829851039  0.1110753033982176  0.6211966268674078
  0.4427939483806844  0.5373427641554549  0.3235942847494232
  0.6529690334327800  0.0420978289794525  0.9269236189779744
  0.7090402863685002  0.2744222300135167  0.7889107119580028
  0.3988371066652396  0.0741430241396042  0.8276756188963528
  0.9108466819747553  0.9318365711278097  0.6675549506920876
  0.4797428790271264  0.0107969379111388  0.8698074935710319
  0.8907383850852976  0.9267652368292374  0.6078612608050014
  0.9745459356786293  0.9035803137874691  0.7230055458165712
  0.8990828026946397  0.9583137813677649  0.7782975728205087
  0.0620263669681749  0.8940325585221536  0.0631804134943070
  0.4979250554288362  0.0596192480958816  0.5798999924367536
  0.1491343075904533  0.7966513525910881  0.0813987993775667
  0.8615550372546221  0.4864524171052124  0.9741995394363215
  0.0936217744508491  0.7146935025221938  0.0318700528279074
  0.3605814773302832  0.7665048314912083  0.2786648184383829
  0.1330700474453943  0.5785435860892715  1.0389116857612473
  0.5002365192377044  0.2373509522864365  0.7770637693891775
  0.2378796385841254  0.5902837171138193  0.0175462406314171
  0.3581751215209130  0.7504485284987069  0.3391268980797280
  0.3627267412220997  0.7945382341453119  0.3827300746856633
  0.7817597371322295  0.2432868852445660  0.3752335692140895
  0.7944506733897705  0.9621382761171877  0.5493582376800774
  0.9022391106332698  0.9812977700939162  0.5239349134368707
  0.8443594466239164  0.9501437739454945  0.5159788833830669
  0.7004519379136254  0.4729874987140516  0.3220519512978749
  0.6379256990566627  0.3815219411088811  0.3314370426690765
  0.4462885128414816  0.1132592577954327  0.8910575099092516
  0.4092726908727385  0.0296796255419762  0.7837897248864766
  0.2570291889908637  0.1871630721617456  0.3754929089284407
  0.8264192328847865  0.1344233590094382  0.2509277845799557
  0.9343709449237668  0.1464377031975489  0.4533503106169698
  0.3364260002590354  0.1059382891396431  0.4085987016957702
  0.1151443279000479  0.4245035720683099  0.4236295793065479
  0.3203072525068187  0.3332904277138334  0.1842557847810713
  0.4620823115276040  0.0880325327180495  0.1792280985664000
  0.0766878653532246  0.5348295416582749  0.3182410724984470
  0.2125705558804250  0.3357594052440069  0.3758581889606455
  0.0135408326064598  0.4411823046019783  0.3244111854311244
  0.2133060117989667  0.3497876035601362  0.3124307887428752
  0.2116449494962483  0.3225522740412579  0.4369019020524406
  0.2059115463992881  0.2222332616750948  0.3477565527622313
  0.2037771756290201  0.2268785064896868  0.1189396864956456
  0.3040124316287493  0.1313119506579395  0.2937763436696477
  0.2607173452502420  0.3534971641521328  0.4479716112716842
  0.0763235034993422  0.4844179757244851  0.0403514451123904
  0.0766581662581004  0.4687764380152064  0.1072634596024895
  0.3278160097761471  0.0106779412684017  0.3133099480306570
  0.5945179546565164  0.4414199146684196  0.1804752353543526
  0.6556705366507636  0.4035756072031475  0.6960543408396427
  0.4413246215356080  0.5033659715811308  0.2202875835027377
  0.3992060503307341  0.6252121446066150  0.2795766771808089
  0.7516890998743408  0.4743878087259945  0.8289034387954181
  0.4546701756702411  0.1063550465145764  0.1224217243081716
  0.5877220793575403  0.5802135430672340  0.6418063794494983
 -0.0093725059147527  0.2973432888873253  0.0241213564679522
  0.0100111317483041  0.4165774070283894 -0.0194767231775755
  0.7580215664366442 -0.0198252364795467  0.9136578572353412
  0.0415283317092077  0.2123411355423877  0.0146078000052757
  0.6179568194898832  0.0724385084668583  0.7901466316740211
  0.3050521416539923  0.1807217181479281  0.1117154554512739
  0.4883335187558134  0.4455240240952066  0.3695601438550638
  0.1945466295652176  0.1201949141994035  0.0890604523968063
  0.7803529900641532  0.2554860339627293  0.8693190760355017
  0.4391149567053514  0.0800339779839455  0.4966856495716401
  1.0109270963785932  0.8343488731971235  0.5577153790609941
  0.4427872783077579  0.0487568189965888  0.3864142463837644
  0.8277933057341458  0.5457388404524900  0.7332511137562141
  0.1776063769286536  0.6111921688894886  0.5558285447581223
  0.8406032419642937  0.2022506632313889  0.4595400969666412
  0.1252142889017288  0.5344433664033805  0.4461411771940085
  0.7364305091398771  0.3370986615071727  0.7319101739480808
  0.1701422554546803  0.4585397083981751  0.4296878452417183
  0.7005147205553890  0.2878110120280087  0.7276293445489678
  0.0262475046053879  0.5469832179108947  0.1230322842879186
  0.1245643008135909  0.4513237712796015  0.0702353229274380
  0.2399880119733323  0.0435113216148180  0.0683994374144059
  0.3584903865513667  0.1860882966372432  0.0133960955205999
  0.9869390514518450  0.1291931030664897  0.4168582407838737
  0.2640964849667523  0.3330926250027655  0.2771067271056011
  0.2013613759608874  0.1652971457150897  0.1337699969716941
  0.6791440386505598  0.6346715226278266  0.6090713162734960
  0.7208339232824645  0.1348464795565477  0.2152970930996916
  0.5020028965431043  0.1735771163729488  0.5678882350316015
  0.3397440049560916  0.2051609174496820  0.5039791013383771
  0.7106556210439399  0.7130474281621527  0.7300134074198285
  0.5539383491693922  0.6339097273308711  0.4511649020273357
  0.7796319552874944  0.6877841526435559  0.8152541811304445
  0.6355911905860272  0.6140443888322933  0.7174389999426928
  0.7209749979172200  0.4229509311620620  0.4957604469330036
  0.6061419871874626  0.5420537839328590  0.5450094022591576
  0.9171553763473141  0.8740981794976448  0.5644996129327333
  0.5457441388635658  0.6212159260607222  0.5171170835461842
  0.8213796254605007  0.4276053305935982  0.4955190987818461
  0.7356069465071677  0.6732987735601845  0.9185687263165055
  0.7717116775282670  0.3925166932871559  0.5064797957950221
  0.8769925421079585  0.3013379805117006  0.4641626769064711
  0.8299033757256279  0.3102464525067964  0.4964582569182794
  0.7418530112944779  0.6443367064284810  0.8020401050025359
  0.6447315911062830  0.5983448132507209  0.7788298863194568
  0.3117500447047944  0.8259522696488716  0.3587330463198296
  0.2675040907335698  0.9195367830643112  0.3206652146271219
  0.6103223694676327  0.6150805423508179  0.4132831807695018
  0.5590440645398221  0.2146556537655732  0.9527265822900669
  0.5216455529257288  0.2079698141050516  0.9004887674928438
  0.6014036804426527  0.6004708804641193  0.4871332627828690
  0.6418948461675756  0.5856505716902869  0.6116259712817657
  0.8538433441163561  0.8654706033861630  0.5893606910470670
  0.8388750697396086  0.9341861158417092  0.5796489493432222
  0.4587396611664317  0.2882749611985942  0.5274806719901305
  0.5132884512002007  0.1935191963021267  0.7321997964499235
  0.5086591025700680  0.6740943020316984  0.3580546893230329
  0.5539685512493995  0.5976008758201723  0.3430283548375216
  0.4038716517285016  0.1618580071104802  0.6444520527754940
  0.3827342728634729  0.0658401018291366  0.5955255731783865
  0.4525845317651535  0.1705023750907648  0.6060918701596305
  0.3610281183316433  0.1464581838496769  0.5259119323145085
  0.6651123753561632  0.4112196405762850  0.9173762927549319
  0.7069052229241883  0.3852471543064047  0.9408961787405868
  0.5769442450771507  0.3362408581844359  0.7891143470102959
  0.6335291780136519  0.3024672798727863  0.1857564981602493
  0.4789069812353125  0.2639334973151583  0.6541362292542214
  0.3827086993446260  0.5726261027837537  0.0039356540310908
  0.5989279393788419  0.2790427953032951  0.8039379754227466
  0.2597813026162909  0.8281908641393899  0.2252165189082733
  0.5662105364378824  0.3474160823737140  0.7287691230812999
  0.8086746510266890  0.9847724984113073  0.1832459307288442
  0.6731145883311767  0.6642973296792238  0.7216964598884130
  0.6650411089041980  0.6783451379206495  0.6625574047725050
  0.5813801957349545  0.3186731068852189  0.2210342715859570
  0.4097940790756088  0.1821960878618583  0.1479318721925260
  0.5997341434663642  0.3119699143871681  0.9079237906513271
  0.2798741700376541  0.5742162410830505  0.9815504684378967
  0.4084824240011007  0.7454897375719769  0.0128890045605480
  0.3604284802779038  0.7635221834940845  0.0479579752746342
  0.5379879872420985  0.8400909353783603  0.6488636299489164
  0.7012033902208343  0.5038745429005539  0.4258827593284215
  0.2212058574943343  0.2136165250824632  0.6862762389373499
  0.1875245045859222  0.0610364887110695  0.9307341457612884
  0.8457258954716147  0.3821941446978785  0.4074633375150954
  0.8362825759499031  0.3231778062745278  0.4266504359402253
  0.5208609280786178  0.4346149911653789  0.5918261343836426
  0.6580468089336259  0.7086973331879388  0.7685022624707268
  0.5910185493587321  0.7305742338128640  0.6884540737704623
  0.6890811848088438  0.5147968716496804  0.9099507629465021
  0.3565452207894678  0.2775456892359855  0.6123205937849437
  0.4510443169810042  0.5917325556591846  0.0772518899636417
  0.2485485565868586  0.7618883053452646  0.0096654150314040
  0.6731492699976527  0.5572437580658689  0.9790583371799022
  0.5200572249711244  0.4616456074711617  0.7008145582641538
  0.4611173237236903  0.1735686635159317  0.3454723070994227
  0.6213701161216600  0.5054068434240163  0.7235008064130161
  0.5616537026059625  0.5158323957946790  0.7057455446878758
  0.5780489158611650  0.7419272673792559  0.6200853800245607
  0.1571327424720732  0.0991437023175227  0.7432413948812344
  0.5085568593201445  0.7529035497624463 -0.0095879665754470
  0.4269168314962120  0.7802768673502679  0.5229084691714644
  0.8921819811159780  0.3019584110111479  0.3979888566934838
  0.2164628960912036  0.1249583816059149  0.8686112997968298
  0.2883874999416067  0.0736002868776163  0.8468571892434593
  0.2466186668191585  0.2126617929644677  0.9721998540168422
  0.1576978741553488  0.3054153385917876  0.3663931106843776
  0.1915203178306377  0.0306202208738957  0.8244848700709430
  0.4013907715894419  0.3764266317321500  0.8924638715906237
  0.8052123703173536  0.4718370301049397  0.3600866230158496
  0.7493488934484435  0.4419916620865710  0.3499660358538713
  0.5486084647507320  0.4998533234278332  0.0296935637721709
  0.5750332292409513  0.9005141512931607  0.5856623071414970
  0.5283090468453809  0.9322410072492895  0.4593863194947712
  0.0020221906760895  0.3312116201579718  0.4772405419971822
  0.9514419495020416  0.3802086996485146  0.4468388125155957
  0.8978228865166561  0.3493974265403827  0.4979714958436557
  0.6108855585075731  0.9493579930054029  0.6024162924512404
  0.9193317043997674  0.5083351171189427  0.4986148824501436
  0.8039525797025320  0.6128553351409033  0.4899659856265673
  0.7100396572001636  0.8619880040285753  0.7686563571101382
  0.6816821698630134  0.9662859679698786  0.7988634650045480
  0.7243256079039112  0.9657436604348077  0.7555039777372377
  0.7922932710076676  0.3654051896822645  0.3363903211657921
  0.5075442295048699  0.7483798632515897  0.6094788778702545
  0.7187364535073401  0.5467531112624751  0.7528865561346193
  0.2667642185872382  0.9025025656844717  0.3826538537133262
  0.8687945938715953  0.0442880308583981  0.2962541183505837
  0.1776885870189439  0.9350771712384456  0.1357698925439888
  0.3327472565910841  0.1810983137336411  0.5638368322842882
  0.2520355181579321  0.0136939621028035  0.6412836672705824
  0.7169516124657176  0.1165936322303710  0.0471874091730786
  0.2652544887556428  0.0651119200656078  0.6147906225721503
  0.2938694580984000  0.1628440554133229  0.6642562161838074
  0.4025720780232684  0.1930665906944678  0.7495709701747666
  0.4281247435047181  0.2875155520332915  0.7989570534059572
  0.6812879836860610  0.2652882731900625 -0.0173565272978078
  0.4891164079377356  0.2810325101573544  0.8214056796466068
  0.6478991997598633  0.3886468613101967  0.0405793565413540
  0.5257195498136035  0.3599432814422204  0.9486648210145485
  0.4941272519919345  0.4551952095275821  0.0839821753970829
  0.1851408021925259  0.0860579468486895  0.5315936678503718
  0.4810433567513679  0.8220195016055548  0.5285973663742337
  0.6233799166855745  0.7178147971568839  0.4411870330317800
  0.8612026597900180  0.6156819583242544  0.9385123166023300
  0.6422372899971223  0.9814248008312628  0.5467937622440081
  0.3408288847128678  0.5625167105048779  0.1675314044837004
  0.3447747959495770  0.6091750795222415  0.2093334679879380
  0.4373693416067942  0.0924204102270080  0.7223630238058687
  0.2708182260305400  0.9479879153839915  0.4303152481974937
  0.1720132909389510  0.8915969124020442  0.0903220920889362
  0.2078644063835116  0.8329805284248025  0.0923734883952043