C  Cr Ni
 1.0000000000000000
    39.0110871383406135    0.0000000000000000    0.0000000000000000
     0.0000000000000000   39.0110871383406135    0.0000000000000000
     0.0000000000000000    0.0000000000000000   39.0110871383406135
 C   Cr  Ni 
 213 1596 3725
Direct
  0.4136204209522276  0.0547057126252838  0.0228712761273810
  0.2739826792355030  0.1132780178970060  0.0888915876594940
 -0.0036624298552523  0.9801730239645848  0.6856481407491665
  1.0865067053183943  0.9745023493276697  0.5087427772207113
  0.2052308362736915  0.4302297207089121  0.1300632637252896
  0.1287719423586454  0.8519555774950368  0.2659615847142991
  0.9279964920286889  0.3572524946104016  0.4781977708329097
  0.7630666184972277  0.6561283143180580  0.9633451836143432
  0.7042349362754219  0.7820185738265220  0.1348535491220461
  0.0424792469277726  0.9443619555026426  0.3487248588513346
  0.3473478035685775  0.8841979274669286  0.2080452454242651
  0.7338625905497095  0.2471426432600105  0.8929160404285557
  0.5674436222136989  0.5401318634550609  0.9659649087735145
  0.4394722363299540  0.9031692062709236  0.1029606642640232
  0.5683576917758488  0.9068353447203056  0.4815047184339696
  0.0644715257361033 -0.0493595986406308  0.3784981142626186
  0.8544382210628714  0.6647648935067441  0.9425734337849915
  0.1848008638925266  0.1781804384401881  0.5583815377519038
  0.2390921433638030  0.2325003063540756  0.3865499755606432
  0.6881629337664344  0.5838792782882295  0.5890782156644435
  0.1552348552438260  0.8997945540946157  0.4987492064537647
 -0.0298681005117027  0.9263781469556819  0.6012438968787325
  0.3525538130319027  0.6731021044863892  0.9872947930609631
  0.4915758968163392  0.2160101290907938  0.4891968734391677
  0.3224236819810167  0.6656747556417967  0.3836204185427546
  0.7991097951603173  0.7419659691924629  0.9632924602509290
  0.8277723749047513  0.6106668034342048  0.9844057031739152
  0.0687843077952730  0.2409940517342082  0.9865052681422786
  0.9487038545400157  0.0338795000091021  0.0628347599768525
  0.0521438423650640  0.2985367438543378  0.7014083190120912
  0.5644027105013304  0.7081879415354498  0.6534727837547100
  0.5351707660078739  0.4942505365923561  0.6688615384191730
  0.1789445111715763  0.7490029812044792  0.5495564107275133
  0.8952042788443172  0.9561139388931692  0.9493656227123133
  0.0921870151893012  0.1703084141330244  0.5622209422488184
  0.4739824806579124  0.5855471834897524  0.8077011721700131
  0.4300133990658133  0.2444227554795197  0.5465487266860259
  0.6277651270135913  0.0901653345910933  0.9364443462024000
 -0.0764127306882773  0.9133509871363019  0.4092887726998005
  0.2547541615696865  0.8626635840839992  0.9748794683997518
  0.3558640067801120  0.8154490723371860  0.0402045042605094
  0.9333296645776388  0.9281396170294893  0.0270933136408910
  0.4549919743532709  0.1535412993119132  0.5586321157977852
  1.0377826712745783  0.4197422694298403  0.4870352411326521
  0.9919672532824801  0.9776902310376687  0.9590476246801667
  0.4076296073096092 -0.0010135228318039  0.3684544937001614
  0.7434814816065777  0.0968297140873549  0.2056689011617864
  1.0042852877220640  0.3115745617733151  0.9734783463490482
  0.7792981568233314  0.3153807017720464  0.9547578727434698
  0.3485537468154040  0.7326133594890198  0.5656789833545650
  0.3533108645879847  0.0309573768740060  0.6548112581618478
  0.7884294032502231  0.4744560869961417  0.9307881132428572
 -0.0321158470743954  0.3948419270586342  0.7750985757473660
  0.1307799904486496  0.3258689902561265  0.4374120637839837
  0.2956194873942935  0.6791036131760522  0.6123246549311723
  0.4159921140896932  0.0584998544550376  0.2912072321532100
  0.8665403815980709  0.0236908691378222  0.9135084842271236
  0.3071440181795293  0.1521624402019620  0.5028606535869431
  0.2395155195067709  0.4358356571434723  0.4463760742266946
  0.9143518860092307  0.2307460467911236  0.2768213301615348
  0.9275783157225946  0.3561508881051251  0.2414654844144223
  0.7860891723378476  0.9619325699441478  0.5227877849205547
  0.4903458031056859  0.6199744617569156  0.8139918229101509
  0.5748613818681170  0.7690852586505943  0.9333075011416039
  0.3329021000116479  0.6221589707878233  0.8669521403519050
  0.0490601893145830  0.5274042103580845  0.2807005888248670
  0.3458087072769852  0.2005129288074899  0.3950257904808603
  0.5669245645488571  0.9141267695847534  0.7539159660443678
  0.9349128969682627  0.3258416475298334  0.8399363294620802
  0.1510387607515986  0.9562131908492407  0.5474791954600277
  0.6337457914520659  0.3999617375593335  0.4785580132673882
  0.4171839521101936  0.1799356330093485  0.4353853429083904
  1.0323943561230045  0.7455927065359573  0.4454318207145745
  0.6274332603741953  0.8331512566672362  0.9500518144313375
  0.8099850433874075  0.2648574750755075  0.3484769988841843
  0.5702371267974641  0.8532703742067518  0.4244034018533345
  0.5335887486841993  0.3429178831892003  0.6268344098479371
  0.6281816770608396  0.5455426731920042  0.0034022691540201
  0.7898427676620968  0.1631818197242650  0.5702503567662804
  0.1703115755014855  0.1398672805395140  0.1629683005533106
  0.7393205524758018  0.8552627306620489  0.6933956191819410
  0.1732279859284363  0.7572881311588545  0.3059216674463009
  0.7878143363519540  0.9273759949926150  0.6851673903517116
  0.7113962007037343  0.6572083254462111  0.8844829034176213
  0.2980777866566948  0.7796497938345779  0.9615101272058365
  0.7750060667140659  0.9670468940379273  0.6146688241373259
  0.0476677220683236  0.4606226305075732  0.0697521655904754
  0.7932638466717780  0.6006537892790484  0.2274075422425425
  0.7059950449228402  0.9224948028102994  0.0946846051214463
  0.8958583748287563  0.6626030230046006  1.0046834040568835
  0.9861196076969185  0.9113876974143941  0.4776837460942864
  0.5708826515496742  0.2283301936452214  0.9793128415756632
  0.4651370002072939  0.0542911677175216  0.4172621734509319
  0.0458898347727673  0.4017137563166318  0.0135597339640237
  0.9901126393974552  0.8377820417595820  0.4098552619919585
 -0.0185096390751544  0.3802823674045068  0.8419249623082995
  0.7414777076671363  0.9292929453763465  0.8967022087351806
  0.5802838513730839  0.6429548774221726  0.4922862511649631
  0.3753840513422709  0.1985359387266272  0.5297534446085136
  0.6129211545583741  0.4153524925650978  0.9536323706852176
  0.4922183771266353  0.4159992735137686  0.5449191713760091
  0.4897226440876239  0.0709491075265442  0.1428920086908763
  0.5608692439029046  0.3268664728281396  0.1186172685755849
 -0.0587870461331459  0.3077864612600668  0.0191095755961702
  0.5726908643582180  0.4150851952553531  0.5156492959149341
  0.3978429488593347  0.7926116006087731  0.9463320768653631
  0.6048753548553758  0.3188099144600760  0.0149874041631556
  0.2921664197159245 -0.0162275994085797  1.0079780325569669
  0.7082806409040909  0.3484132181623661  0.4626825591402897
  0.8942618593747312  0.5556910162294231  0.2200911489995622
  0.0389381939679616  0.8068981035694824  0.6026392531935382
  0.3682964373935266  0.3706262405428567  0.7966980876463738
  0.0549642804760748  0.9641327910851515  0.9229535157681112
  0.5624860180519151  0.1967794999461975  0.4645113740222803
  1.0094580206363790  0.7182563913199023  0.0223896262439828
  0.2854303242191164  0.2485032769747932  0.2258651608823632
  1.0174508332988803  0.8871276659769147  0.9447567340375399
 -0.0147754366661623  0.9757176186089020  0.5369389523818600
  0.3795309470985729  0.6954443053864404  0.1637020448260371
  0.3889709925849018  0.6294303066280480  0.8256244977591876
  0.1129174764534201  0.4126208000840548  0.4652404696845606
  0.3736011536759545  0.0515120932293661  0.1421027666769187
  0.6088092386079131  0.1870902702376130  0.5556591743920756
  0.6061637322234340  0.8364375629860165  0.5150210139328792
  0.4587656206726712  0.8417016704014061  0.9535824263660834
  0.3361608224171997  0.2532343529585336  0.3579331649729857
  0.1871636032594539  0.2236460964571794  0.0718269349692107
  0.0063485509649514  0.3437583460946269  0.0351617067367796
  0.3111936584706857  0.5254969222557803  0.4889643915041399
  0.8398940381522204  0.5573602379287836  0.3166192387374708
  0.7266073815216265  1.0068205334746227  0.8728166025641282
  0.8898819850134937  0.7574811989197857  0.5113516213466471
  0.1898762432724043  0.6931752321321181  0.9799585520381066
  0.2628420011085678  0.1667533924778173  0.9836975208379460
  1.0156022017537285  0.2775669786280936  0.8050978634945547
  0.1889223615603383  0.3259352164043791  0.3406002142369030
  0.0984130913522459  0.7338284275979686  0.5133801251308859
  0.3097079832895903  0.0773127335809113  0.5903140193700819
  0.2620811764076057  0.2539436225030024  0.5435164603510374
  0.7893985827026313  0.9972911905562710  0.9107584023254909
  0.0372054562493919  0.0013446659327732  0.5823699358811393
  0.7761740090291640  0.0280361031177825  0.8250462209189158
  0.2365302032490756  0.9232998948514430  0.4597860679998787
  0.0540132413790708  0.8782058577529789  0.5027382629258452
  0.1016114205820026  0.9765445000577361  0.0112992929618343
  0.8189600933789991  0.1158967944481081  0.4859046975512427
  0.8697605563685745  0.4297431778554440  0.4939146883061852
  0.9207969384134289  0.8624886071365179  0.3612633336366105
  0.0729777715875557  0.2154235285173338  0.2769656193831555
  0.6842900505707774  0.1146597277685943  0.5415463684701871
  0.0606910969237042  0.8509809616532173  0.3687381412411003
  0.2734164666451271  0.8627245705544749  0.0567352652333334
  0.9869779523379991  0.8231534766574464  0.5069226770326412
  0.3110273923716627  0.5438299965980898  0.4202759448542094
  0.3341675255362785  0.7892088279893795  0.1184916677042256
  0.7733674503508273  0.0154122561830094  0.9417677011538460
  0.6233071600414735  0.7417543013190149  0.5992759660033529
  0.3712683098234327  0.9443996180822670  0.1286105709684743
  0.8919340855135744  0.6146765194659249  0.7780638345400238
  0.4887188963759585 -0.0323299561527578  0.5798628999029494
  0.4278879754757130  0.5732484412816001  0.8577705922734103
  0.1305569857673974  0.8818408683474921  0.3768265992717236
  0.5154014318311867  0.9842837881677644  0.1677768837819557
  0.1424175638618294  0.3859206656465275  0.1869720131526156
  0.2142130044435795  0.0770255328584565  0.9717003615554370
  1.0532181480819771  0.6027081000097301  0.8313427610930231
  0.2222210323860087  0.7125783374240859  0.1647359421384529
  0.3277291696811825  0.5830970630833765  0.0030923320532783
  0.0666225686919948 -0.0351114077556686  0.2544475619462748
  0.1104962423580671  0.4739664140034734  0.5742693735961187
 -0.0046308182889154  0.9055148920258287  0.3867501707253816
  0.4801964900774756  0.3386718097519882  0.6715194776000432
  0.0195692536872553  0.3493355606393987  0.5136125982404903
  0.4843900927841186  0.1464219717147900  0.0361850209989330
  0.5543327332186491  0.3160630982703320  0.4179796164151320
  0.4510121111766702  0.9089494132702338  0.3497047477338565
  0.2218443222127045  0.9547776971325684  0.9847253818003131
  0.0570561269173357  0.4169696043135366  0.6301071571796174
  0.2149152231640067  0.3489621857566645  0.9200784618818230
  0.7150972356602993  0.9336164436593017  0.6523014099540876
  0.4519173203543604  0.7890006064643562  0.5614937412627414
  0.7273353535604968  0.6084010294624486  0.8360031133042386
  0.5705254994514078  0.0258694202180824  0.9425191079647057
  0.5833898756489463  0.9290302328310365  0.7842099225198561
  0.1552077297512994  0.4777391769980607  0.0398196546001891
  0.6982652507989157  0.6509854471545657  0.6467492384385339
  0.8111489047793305  0.6820840951376148  1.0158281544036085
  0.5816459280661430  0.5870128131243258  0.2122481123334734
  0.6905768386754727  0.9547318687350743  0.1046297956259664
  0.7600511336756186  0.1725264029728884  0.4354652558555547
  0.7325976835732988  0.5428987850011655  0.3420593185328190
  0.9582375618663047  0.2900666989161846  0.9204268575850295
  0.1050854703557319  0.8394346748198207  0.9366350534379371
  0.3331428768715999  0.2240704887503419  1.0241324185250922
  0.7344784222283826  0.9484945313205277  0.8049010638224422
  0.4121485391992650  0.4992937250592562  0.4128264564944533
  0.5228880899273763  0.8981362221539564  0.5720303313243051
 -0.0084108897861476  0.4481855638801044  0.2294635246114720
  0.9743993969244006  0.3087758359336081  0.3320004127717995
  0.8546889664094551  0.6828237650110827  0.5280814095484910
  0.8655650257747037  0.5976875152149209  0.8913192895520496
  0.0954937387572518  0.3356143822945272  0.0568572441307627
  0.6950917697042490  0.0581411085091234  0.9219410279481559
  0.4067859801384456  0.7303648223641828  0.5179887704729095
  0.4466879097513322  0.8127567573178665  0.4919277471786530
  0.3624291801760126  0.7653603993552032 -0.0046353855847886
  0.5346320193271471  0.0058510712169707  0.7262209825079986
  0.7353679312458831  0.5894134692989915  0.9060036347749697
  0.1762800502264584  0.8072471348669548  0.1209617536595926
  0.4279540823535847  0.8428834488854747  0.0486138019236628
  0.9696351080201022  0.6985759765319660  0.8647941888953286
  0.5728375233329071  0.3957136988017186  0.6382036005380111
  0.8642540364208390  0.2854474013123267  0.9556301651542471
  0.9644325181522130  0.4922784017355587  0.4615619925974956
  0.0704384486243275  0.7666826265662127  0.6050623078571383
  0.3395578918955179  0.6676963861721911  0.7734150629478986
  0.4009283155708728  0.6637535671855113  0.7933832371389413
  0.0710681455331341  0.6318738870199202  0.7356299772300920
  0.1239147293897525  0.9396830052613917  0.5071076914053521
  0.2560443900310406  0.5799242185529246  0.6987534928104991
  0.4704784140210659  0.8264619928081125  0.0662462374236150
  0.1074608583953898  0.6659278177549433  0.5754057288007005
  0.5165059929590816  0.7459249118879751  0.0492851043020597
  0.5713629471281531  0.7779937093055829  0.2894851897308151
  0.1452270665725479  0.7452739989396685  0.9194953192057073
  0.4779806154080421  0.8674055029865795  0.5728316107391112
  0.4267415655536155  0.9180393739405835  0.2521782340976887
  0.4988410719063952  0.8700425876201651  1.0299627025373785
  0.1956395324095865  0.7380173952745606  0.7174006198597382
  0.7833209730846418  0.7595418845729333  0.4326642832511790
  0.2725476179413021  0.6544670771199546  0.5768876825132843
  0.8743741877765574  0.6106732941307045  0.1652386810221622
  0.1139285407512302  0.9878712596739914  0.5496383676103579
  0.9239589830924904  0.5947859404606206  0.1326248729235150
  0.2212321730166631  0.2445293508153009  0.7918000040390621
  0.0317863817238957  0.6277988790043991  0.2712209572532351
  0.1228029533227577  0.2008404092617083  0.7681808919594039
  0.8977996896766124  0.3486235555860239  0.2037812852243170
  0.0969558215738140  0.1377164809377359  0.8267294836529951
  0.1385060751115566  0.9202829816624474  0.5807839985290821
  0.8474735358655225  0.3626975780312283  0.2404769355070784
  0.8436107706272606  0.3181599640211119  0.1979894313934447
  0.3850512425257992  0.7056646006940995  0.8471403535427827
  0.1192850336686952  0.0492646644708426  0.7396727637883869
  0.9445146679145575  0.2695638999663839  0.1884466266947757
  0.6015551455509267  0.9976356066777694  0.0432432118908791
  0.5735977413165065  0.9560726187971595  0.8769728781472160
  0.7225320690332198  0.7009764074008153  0.3128612541112037
  0.4322909566338183  0.9307927259381885 -0.0043667642058706
  0.7635157603203022  0.5672082055111548  0.3140544646391465
  0.5299574479578869  0.9028180125553209  0.3492460121580634
  0.5260090921909384  0.8538885552386577  0.3041268777967615
  0.8467661833392655  0.9626412441000959  0.4537951657731427
  0.0694593867446379  0.0431114805024946  0.7815158432760688
 -0.0260953088030667  0.0167781546543193  0.6605080746249544
  0.8846589089724310  0.1784954940227626  0.1979825923244357
  0.8793179050084238  0.6854941499197897  0.0886643383595513
  0.1722693612812625  0.2073656456911237  0.7261850726201252
  0.5105345470539944  0.8104541610731328  0.8159886403124119
  0.2988101579035302  0.7978943052049653  0.9130542916628447
  0.1824555470469164  0.2265117243466944  0.8912086902703888
  0.0291389129509890  0.4950801757142493  0.9132412975306428
  0.7853455371438536  0.8069527518920641  0.2424369789755314
  0.3162416488115526  0.7858987904241841  1.0094290551216150
  0.3213233860259406  0.7687804086933936  0.5429657081859063
  0.2919220933247943  0.8311920067016674  0.9633574973872542
  0.0366358082635921  0.5556303244302703  0.6332924420353943
  0.4017664344226718  0.7467779067718844  0.6299352187376688
  0.3350599018927751  0.6483610941432963  0.6027100581566562
  0.0868682876557030  0.5896512088267017  0.6954791372302920
  0.0358028335249283  0.5859054101371436  0.7373043076568139
  0.8060965724384859  0.4551369911423897  0.1940658372575092
  0.0959760433783862  0.5735405815716689  0.7535352498400426
  0.4977128308769075  0.8546610675871058  0.8635167623898669
  0.5947677299998446  0.9898205363935716  0.3429718067453197
  0.8311788419880722  0.7318094599737296  0.2270323375477014
  0.7765241904959834  0.7175507061370574  0.3830664147711888
  0.4412657326998545  0.8912322833661633  0.0532053759622530
  0.3263863693588925  0.5595340485364007  0.7831832527440695
  0.2873584167245729  0.9447318382908136  0.7189393256652529
  0.2292916165179988  0.5161739624219360  0.7534036769263338
  0.6681707874894722  0.6866040746019287  0.2406591074916500
  0.1833794309636281  0.6394614050620766  0.9734954937980103
  0.5149717557929134  0.6973630654255386  0.0060481691435869
  0.1066904237085901  0.5604454488220275  0.8138248627790035
  0.2120323501723853  0.1643996057493768  0.9742777937141612
  0.3070153432076596  0.9168522086833645  0.8442075664350812
  0.9461900354804864  0.8120367013935330  0.4173375373028434
  0.1178057098019533  0.1112121130199113  0.9487056361876013
  0.1070795896006858  0.1237009237152667  0.8865154862347525
  0.8911913954394755  0.8398458945826924  0.3915352572818307
  0.8931997437200903  0.8864106434240075  0.4363883805236420
  0.9524069072575483  0.8741734910639761  0.3975461346189689
  0.0684315695262061  0.0722403828253744  0.8880801218783129
  0.1313815588983159  0.4453400380845168  0.6140451740929008
  0.4388850365938806  0.8295992536679833  0.7365220411481642
  0.6218985099708219  0.6517819140404888  0.0019214567643746
  0.8380837720815351  0.8240904253148561  0.3168483740309780
  0.4986469918098784  0.8224420716977495  0.7571812693477870
  0.4262758764047935  0.9467103929107241  0.1265626138589416
  0.9667772992315126  0.4686036277019030  0.0717043783137447
  0.3452746621668368  0.9679902980818744  0.8485072148648536
  0.3575625190580432  0.9553693914014223  0.9092544166222550
  0.3879315826383949  0.9267467660615542  0.0369600472358315
  0.7929119794292924  0.9268823013190662  0.4398519443539113
  0.3827856441506305  0.9976705533651885  0.9477227476545667
  0.7825498481850673  0.7613668419609918  0.1995317818092779
  0.7335312615031110  0.7805745195174681  0.4573571245971291
  0.9494270481588823  0.7995977280391996  0.4756132867210793
  0.1322855864510793  0.5137774590439784  0.5061150041169367
  0.0317347163323357  0.9149653891568206  0.9061835304139062
  0.7157160040558123  0.6423623830386218  0.3306952083910985
  0.8553551656136316  0.4253529075930464  0.2203256843840978
  0.9879962329512409  0.8753056284027704  0.6137872399136226
  0.0996609314132205  0.6829440363271271  0.5106659925735904
  0.4719000523513106  0.6102462818323152  0.7658440778906974
  0.1804774957893323  0.8105991609948099  0.8664714895212785
  0.8665080969878032  0.0041219548754872  0.9571187528946263
  0.5861260433955527  0.8751079895709534  0.7227654260335066
  0.9638446817212030  0.4731968747096343  0.3005767444009159
  0.2760330276645860  0.5528156594919066  0.8198757597139854
  0.0473470201357602  0.8259554567814880  0.1563268973071690
  0.8367658387280917  0.7920985273682114  0.2101823174358168
  0.1920305873096636  0.6865284185484906  0.1928952049686448
  0.4846553548352540  0.9264007480928204  0.0870842218729442
  0.8156881223058753  0.2079217438735904  0.5609743638200667
  0.7179688887714858  0.7783680874358622  0.0052242836567108
  0.1476977640859660  0.7661825614061891  0.2104679243935030
  0.1587436114357220  0.8942640106091709  0.1782093698908730
  0.0714480169746859  0.9368043145018603  0.1023103122314113
  0.1277507652877177  0.9506463718651957  0.1735970851285148
  0.8914046198848297  0.8239838646317934  0.6780042715360691
  0.7623549022510735  0.0284846702045193  0.0906593780306721
  0.3319161394785159  0.3107529666788345  0.9830795650649259
  0.4928859582878671  0.9822257809578413  0.7258896547072387
  0.1513482776946160  0.8553322404874908  0.6852203688174315
  0.2330633722669098  0.2317680238317119  0.8503779533799836
  0.2252737217242144  0.7728121286711386  0.5609681371348806
  0.9401176321225869  0.1902819056255823  0.2689817779171073
  0.6739443292629392  0.7452332959438217  0.2232465127628821
  0.9234686994532185  0.5608581315122505  0.0320707440600573
  0.2116973748586444  0.8319113184394951  0.4894105679580565
  0.1663883037514407  0.5858603957092333  0.9357075359105377
  0.4083976064151449  0.6403381666905832  0.9292136879949157
  0.5378565280376908  0.9521683524128084  0.5754981529156384
  0.8654594637465161  0.5163047948524213  0.3089789223484903
  0.1886650072822456  0.9026967559578651  0.6920100728193301
  0.3893868370756682  0.9687246581755909  0.0831704596692487
  0.2365083324594652  0.6901096286249001  0.9643924184936226
  0.0285410246860233  0.0253319478439178  0.8870125015489153
  0.8468464365475840  0.6569992977399332 -0.0093770996460221
  0.8412375050285238  0.8691716805495553  0.3605426630763864
  0.1376787262355691  0.3082562130990881  0.7545122222013164
  0.4820132520668287  0.9251267428068483  0.5571532018467553
  0.5420222003080931  0.9745201716179682  0.2684853326411338
  0.5382756803301870  0.9601405389482036  0.3336762330340785
  0.5273334128868600  0.8692595774500085  0.2430638551244369
  0.0383482255020198  0.7333934305002255  0.0648891541483754
  0.2050613451060163  0.7236842135996377  0.7763439260444053
  0.3292895455915504  0.8610020124255637  0.8617263836439559
  0.0733251395494556  0.1631682332156677  0.7034650663426348
  0.7919617690193401  0.4661331096451038  0.6247550975362309
  0.2686686715429926  0.2831623250195169  0.8561108095723290
  0.2805000765096194  0.2713382473981050  0.9131975087334483
  0.8531106285927500  0.4092048211814053  0.2822514230545173
  0.9031733381160691  0.3980284671097986  0.2500135765888430
  0.8797790307392427  0.6885738459619613  0.3157885216619536
  0.8959505827733333  0.3320040298959475  0.2700337753102406
  0.9447990646602035  0.3003571936138198  0.2933571039192121
  0.9464376783249666  0.2558444305553672  0.2486369550135520
  0.8906080668683020  0.8544462885030464  0.3239724679493081
  0.5586020537635475  0.9699783518868155  0.7494410494804007
  0.0487919859913183  0.8579486239593012  0.6106103447503286
  0.0681348552576070  0.5110207014623520  0.8114911160049056
  0.6630344407454005  0.6259932361996897  0.2582372552227953
  0.1194165830612856  0.0800505304110450  0.8462229265135595
  0.0821513751905949  0.0275532471793406  0.8498130254506869
  0.0146964924739537  0.0365281361571815  0.5514300238582014
  0.0675276087919122  0.8193511077082335  0.5653134438305943
  1.0409937817836881  0.8790068240261369  0.5519324175166336
  0.5745384702880509  0.2443555512698868  0.0684903190178421
  0.7129368871658871  0.6649848227484686  0.5096762803840494
  0.7435333846843212  0.6062968622572433  0.5284379710655819
  0.9709329849244548  0.9223889870356403  0.8814267796734274
  0.6626206003512645  0.0871787138483100  0.0373360489766118
  0.0360334968407729  0.1442525646921286  0.8053850200752970
  0.9143111924784380  0.4456130015341022  0.5135895969029323
  0.5996566014918805  0.8833406493974544  0.9562875355821437
  0.1740318923190946  0.9837800916492061  0.5110302763106926
  0.1833615551894365  0.5084153402978745  0.0136641060723823
  0.7543391152926261  0.0466491407078949  0.5596521183185145
  0.1847722111735127  0.4378730110988462  0.0309790333546689
  0.2416311083972821  0.3553818894025706  0.0109928595509575
  0.9638109465846325  0.1640678238363130  0.7224657050429337
  0.6690626383291109  0.1582057989964380  0.4747096747221898
  0.7179317412580055  0.1405987358112860  0.4436111755151115
  0.8936058812920835  0.1857581432875894  0.6401073762995497
  0.8059413001717834  0.0779420132302922  0.5146567835571401
  0.1849295031419033  0.4883908713503001  0.0775893673755558
  0.1331646432802269  0.5643991336094472  0.0973173866603402
  0.4689502836244861  0.2288315082341194  0.0957842197442943
  0.9488180699458407  0.4716162786713028  0.5744181790918371
  0.8918434009177941  0.2179996535438842  0.7449323713566727
  0.4614824787961859  0.1862481369695582  0.0535379305585341
  0.8217725343046517  0.2411008149691952  0.6636329255943652
  0.5136136559859250  0.1530073017886888  0.0788977024063804
  0.8272091903039416  0.0746787340280454  0.6958880277661565
  0.8159321339632992  0.1188349615142529  0.7378191040252512
  0.9375107313423062  0.1031965535119690  0.7812578514499043
  0.2368354344404000  0.4676264482960973  0.0386838402475800
  0.8464526199873416  0.8238815601885834  0.5499047008813022
  0.9868128744132296  0.7336918382994820  0.8368874980504546
  0.6949558648628846  0.4247473501416078  0.5948885568786684
  0.9358760664571081  0.1385256413924402  0.8901673474632620
  0.9989869299892474  0.1325495017188428  0.9070044959771671
  0.7719974929550486  0.2043488456460711  0.5977165925358552
  0.3576227756816246  0.2558813415195773 -0.0054504036228632
  0.8766455236049134 -0.0045065369200752  0.8361884619488256
  0.4507862937427227  0.1412149418728736 -0.0007009670351340
  0.4045118554744430  0.0956320187146631 -0.0080175862736790
  0.4569028402489830  0.0801707822990458  0.0164378447643737
 -0.0031966447140128  0.8028831278587216  0.0784752102961361
  0.8925702362029573 -0.0273039981822719  0.7247085911280357
  0.2233546096209303  0.8031699257857992  0.6642223071149126
  0.9643154403749182  0.1972105481006459  0.8251327593843569
  0.9487422321373240  0.0931175327274040  0.8443693090152651
  0.3646429669032946  0.2336869742648847  0.0615485432886638
  0.5107342100214458  0.1329639662655226  0.1412259722795283
  0.6138958427745875  0.1046113497253821  0.0710784237176792
  0.9525535297110568  0.3604356318760889  0.8075941297290867
  0.4755344590765719  0.3750381013683622  0.4546329838779672
  0.7905754790590210  0.4957613858316984  0.7307618347034648
  0.7554433359771657  0.4162959852639610  0.6159155196684949
  0.9192319356080214  0.2811255622613940  0.6892053102514378
  0.8492055363405064  0.3054816648515409  0.6080875330653110
  0.7440802387706050  0.4309742425330473  0.5572570811849641
  0.7422477246837937  0.1481028330298668  0.5943669355407256
  0.6849503158335035  0.3907421315470706  0.4730391989642040
  0.9538948609721455  0.6627676644294567  0.8925674772040892
  0.4502674731727060  0.6320004503302654  0.4119771365178054
  0.4994948921767567  0.6018389735962524  0.4401166103009866
  0.6896121579088816  0.9305430904235523  0.4004560881586400
  0.4435961857918930  0.5103113311976778  0.4483738049137972
  0.8553724549786339  0.6124655368928453  0.6804524704295292
  0.7583496975766391  0.5695593704080620  0.6552823088191474
  0.5438057580046808  0.4752687087355598  0.3791281504551070
  0.5717517663451023  0.2123586711435175  0.1937156494634797
  0.8532570861295089  0.2471595374821492  0.5023276288824584
  0.8421603634439156  0.3173836556496428  0.5481007401062180
  0.9354338539782269  0.3610057069277938  0.5802363202767843
  0.5071908817278059  0.0899661447978624  0.0959471403380385
  0.7116044341930868  0.1355246938805043  0.5066640542340530
  1.0043565914476487  0.4046549368313184  0.8755369108727422
  0.9946776400680497  0.4157667028900771  0.8103804160649813
  0.9412977617260309  0.3734529696762092  0.7411765761582321
  0.9780151007865977  0.2726997334759172  0.7101290973491592
  0.9057627378396718  0.3251938962380961  0.7371957369329042
  0.5005148958476813  0.0328112787081712  0.1080022882214261
  0.9943192110087583  0.7172929892911150  0.9042197550923513
  0.6823900875939960  0.4434820380874870  0.5317934094578978
  0.9779942478320386  0.1311942367532330  0.9559298566423721
  0.4369146377188776  0.4110934812438889  0.1366978991411114
  0.2091981089511304  0.8611659490687850  0.2026064363347053
  0.7466982268481300  0.2360092584704785  0.5284391571124857
  0.0068221625047185  0.3674312868348785  0.7619078777213303
  0.0341719830307306  0.6582572926305456  0.1497374041871360
  0.9454978142593772  0.3465602741381866  0.6366290438273329
  0.1398210885015777  0.6727239744358190  0.1222975620525679
  0.8580804995470107  0.2905192272172882  0.6691327233085086
  0.9261764672114433  0.2962992401194712  0.8772643661786919
  0.7361917216356270  0.0515102816923274  0.8420322217905378
  0.7423594533420802  0.0432550569825306  0.9055633058972297
  0.6873136191142388  0.0194287508158478  0.7723734898867815
  0.9353145330505854  0.2126942883272746  0.9779709339658690
  0.9258229274712105  0.1782825297229152  0.9279772902053098
  0.6549000793625855  0.0139443251681921  0.1178654024564744
  0.8221072692421251  0.1406184641642000  0.9033302128677781
  0.0541780616170047  0.9179386949914424  0.2497338007771369
  0.7887576374875833  0.0612497193602926  0.7932364028641846
  0.0999576241300375  0.8432153772613794  0.2271744762833519
  0.6782238248828920  0.0301332244106777  0.7088794105299479
  0.7265650400553640  0.0332177700998011  0.6702596272457063
  0.6496636947074115 -0.0062053580761620  0.6042438839704518
  0.9031851368458331  0.6513090775138096  0.7491632575920719
  0.9727920315275606  0.7747432241765583  0.8849923397643703
  0.9560218368486513  0.2404184240269850  0.9275979937511776
  0.2341082632562665  0.6405660737681416  0.5143114213844067