C  Cr Ni
 1.0000000000000000
    39.0110871383406135    0.0000000000000000    0.0000000000000000
     0.0000000000000000   39.0110871383406135    0.0000000000000000
     0.0000000000000000    0.0000000000000000   39.0110871383406135
 C   Cr  Ni 
 213 1596 3725
Direct
  0.4126090935813800  0.0552295680557447  0.0227496397110680
  0.3689977173823918  0.5772765157078839  0.9004960554733208
  0.0769976848700381  1.0218908750845273  0.7411443858635203
  0.1447027370989330  0.2987734583022587  0.6028162911310531
  0.0969409282081344  0.4154802831514031  0.1626469932321535
  0.2597855999805418  0.9413075740038045  0.2144805554203489
  0.7353169354982810  0.2671409044633761  0.8938906089350172
  0.0773773025613350  0.3863081827588585  0.7494469431631522
  0.2229434768543233  0.1572475584064350  0.4234016075668753
  0.9789031814093798  0.2369573716472176  0.4932254459713776
  0.5746340015789170  0.8525299833682820  0.4267198309097315
  0.6250349360662603  0.8402555232988183  0.9498690204719458
  0.5157133003615776  0.4851281648844967 -0.0049083151995195
  0.4631901968947716  0.8865898689405871  0.0694056229265834
  0.5685924106015754  0.9089450536163357  0.4806942332118035
  0.0681529714319655 -0.0477504708487438  0.3811992338099057
  0.8214580956509644  0.6589188607365885  0.9245548221143332
  0.2524229995573632  0.5040859678611486  0.6805092023299412
  0.2479880024130715  0.2237694855983443  0.3856194250205032
  0.7442723170063662  0.5752861976129025  0.5391628313483350
  0.1565363676501476  0.8934291320627317  0.4835852792807155
  0.9332416635088006  0.9177425536343858  0.6468659598353553
  0.4217000408084865  0.6818045904266348  0.8350423685108170
  0.3367196729703330  0.2174146053828573  0.2530660329988717
  0.2162123298307356  0.6498839390653234  0.4167226699727496
  0.9291283488450952  0.3609169488566275  0.4805356902704709
  0.0560746887261302  0.4778050213517021  0.0091157811760761
  0.0413028008993075  0.3088001823617794  0.6981741563818077
  0.8159323880761993  0.6369312958642153  0.6933701714669531
  0.5296644511000898  0.4983533960385659  0.6715236692464790
  0.1109119084852517  0.5362000460368420  0.1235825353221206
  0.8426663172825776  0.9691029795021454  0.9242191085787846
  0.3652759626315362  0.2489602210064783  0.5223147419738547
  0.9949419115331675  0.5094179639228777  0.2082633533516834
  0.9847100045562908  0.9741960652682037  0.9559447284896352
  0.6420611078016245  0.0990012861059645  0.9305567699222648
  0.7450068268307075  0.0992724239663225  0.2056086613948779
  0.2577640304673229  0.8570017382063364  0.9822753924628271
  0.7972524534601406  0.3207645901202958  0.9553670245743833
  0.9355366657596110  0.9238939101340926  0.0243060434270651
  0.3195150968108262  0.9203424695695374  0.7051116115641523
  1.0501295956440266  0.4222410084136016  0.4890289263811676
  0.7722541671376943  0.8223064847217737  0.8873134981662305
  0.3530517352249096  0.0630313186171687  0.4551408069974370
  0.8437537449918929  0.6123799977574705  0.9751980200596495
  0.9964827143154124  0.3138356047489024  0.9671694601209778
  0.7845054477386452  0.4716015955363690  0.9280647094210585
  0.3919013870206266  0.6643418076966786  0.5903165749204899
 -0.0358564318537716  0.3950989365747719  0.7838519046337594
  0.9123327564930992  0.1999465555698791  0.1727228913576480
  0.8315175138353555  0.9309058255802918  0.0024367871666947
  0.4906851545681657  0.0201006904911461  0.1160739026260707
  0.0472612153060915  0.9427534966512083  0.3511144759985445
  0.2928069740415487  0.6721747625346984  0.6153030833944824
  0.9622594113647897  0.1398794911495740  0.0915791577965301
  0.3264833982772973  0.6236118260983389  0.8662922667819503
  0.4963198144786703  0.2392790395848427  0.3589847189400645
  0.2990747860831308  0.1947440602512424  0.4819695657504703
  0.0429603995361910  0.3330047164431141  0.8744925687915425
  0.9163947722448607  0.2317938082656022  0.2789816181146215
  0.5616448864005884  0.9146665590410920  0.7527132442082360
  0.6116601161304972  0.9350557107992222  0.4011198085337994
  0.6228003844725831  0.5424835573097676 -0.0053030326891679
  0.2873421199440520  0.2965910766758727  0.0416996459406500
  0.7853121329130994  0.1630085118639862  0.5708650921232722
  0.0513979871693745  0.5290163366898244  0.2850574161387715
  0.8527875090845100  0.1123069608387673  0.1804898984975347
  0.1692483718563285  0.7928982262799198  0.4778143332292134
  0.5332309160086155  0.6479760155067108  0.7069833969499782
  0.2564416479558939  0.8885890913057714  0.1669026845985019
  0.1125783175062820  0.6059985992194724  0.1072480740414959
  0.1513932139621662  0.4374522786633805  0.4768192942031622
  1.0355739687784999  0.7526913984421431  0.4573879581961964
  0.9340807081724686  0.3864023558257815  0.1166773044406110
  0.0097540726084264  0.6678310761522975  0.2813445634563263
  0.2424374744843553  0.4392790235211105  0.4458564597137089
  0.4522125469811130  0.9092369533502235  0.3504745166821976
  0.2730163602227139  0.6655334900346332  0.2533712548222612
  0.9920886234736368  0.6397207309511365  0.8825664491089347
  0.4899447498805279  0.1042540351358181  0.1624835788957777
  0.5650036666955274  0.2281770901790367  0.9769090032068427
  0.4700869283106158  0.0585446503728400  0.4181616798740614
  0.0464188791623036  0.3939710418997072  0.0005725592291134
  0.9922821498943410  0.8411861482599143  0.4040750629855084
  0.5815954534370692  0.5883593366452662  0.2123001688652174
  0.0627704488586672  0.4083135499899930  0.5611764512199289
  0.5885339859835642  0.6400203570947969  0.4940647218345908
  0.4005585141582539  0.1842353026479683  0.5930926320360267
  0.5980104166600518  0.4109192246062491  0.9616099792835826
  0.9407840471968187  0.5777651470232386  0.9836104570618950
  0.5846547042909335  0.4139138172852538  0.5193658247501460
  0.7632897021215507  0.8281907951829887  0.6342345010556175
  0.1756430067045065  0.7581675268160115  0.3083988706443452
  0.7532205555039041  0.9189999145996360  0.6522931770270786
  0.8054938841032629  0.5500929933605941  0.8707245770548347
  0.2997462862991861  0.7757536281972285  0.9575540481528738
  0.7741049312133372  0.9751154130965620  0.6099021408302114
  0.0637510354934360  0.4356178056951419  0.0770305929591086
  0.7938495396370343  0.6030433873243193  0.2236081592685286
  0.7107898528224166  0.9254076374086905  0.0950848419263021
  0.9082287758112195  0.6638622278750156  1.0152450135213726
  0.4512640255082894  0.3103029035551401  0.1520185594329144
 -0.0608511976818332  0.3078495950570720  0.0160455588358100
  0.4434788384652047  0.2346205865388623  0.2269974505391893
  0.2351001294502428  0.8323588395796679  0.3659282015132789
  0.3992767485262927  0.7882713502870272  0.9442129732256304
  0.7605384051892414  0.6614173598641657  0.8448147903841090
  0.1572438925637430  1.0105820652694804  0.0193225916736563
  0.1192086042631251  0.7750541788538878  0.9458410101036921
  0.3671387888638974  0.3695421343256210  0.7963704769663372
  0.9707623153082620  0.6660371724160238  0.7569774525830899
  0.4677155686857400  0.1461752436523651  0.4509006690330608
  0.6020281310761632  0.1928589805345372  0.5509353594422459
  1.0438614833461526  0.4012326791251892  0.0793856545803125
  0.2557094992585527  0.0496118585904146  0.4240258971176535
  0.8224147359342338  0.9859840604996042  0.5273100567120838
  0.4178678297905250  0.5269242771742473  0.2906469364086074
  0.3835659072694937  0.6266243329160622  0.8239714959442132
  0.3471453634229898  0.3464016456013004  0.4519433971808658
  0.3724240576779282  0.0494461164041015  0.1415013338184647
  0.5941688600760310  0.4901169364394128  0.6934443812034337
  0.0495350757582494  0.2999585321677347  0.7684520601502914
  0.7150679575532806  0.8437347671585513  0.1147207797468553
  0.3355877460511446  0.2519293537326373  0.3650677779350968
  0.3272101450773012  0.1672285701284765  0.0286389094366402
  0.0072473755255126  0.3407212957314363  0.0315203055654511
  0.1931540347263697  0.6969214943602066  0.9793591182484077
  1.0070316134350299  0.6366982459468433  0.1765174562175510
  0.4634021751589439  0.0820926899543836  0.6453178774634812
  0.9231101816526408  0.7084694901363144  0.5456178291855923
  0.4643500051503371  0.2624211378794107  0.7868124405126433
  0.7916379394718998  0.5881467882009350  0.2880886526482368
  0.2386441529720588  0.9242152245481389  0.4604395610089241
  0.7398298602528710  0.1928765840796405  0.9141052432364075
  1.0262261471507941  0.2309307813681854  0.7583513442435628
  0.9652204423326999  0.7252055891624039  0.9627220865344959
  0.3858471193824363  0.1717742761592630  0.3398636293387993
  0.2945800247223594  0.0756720526642931  0.5844757086168068
  0.2618216150847235  0.2550275343487134  0.5420116625692493
  1.0080230979839964  0.8841165850774819  0.9427600736645779
  0.3666770795104533  0.4740142664249897  0.1156101203246923
  0.1898591664379211  0.3260311285087739  0.3413007526945696
  0.4327645821053013  0.7988648023493593  0.5102392302768374
 -0.0075900884575127  0.9437194583570599  0.1066665508416066
  0.4535304548939654  0.5558146704049403 -0.0044360031374815
  0.7907021992405403  0.5439492081251400  0.6410162236541181
  0.8379545133419446  0.4520508626061078  0.5379244453621428
  0.8162435532928527  0.8590906448818928  0.3234424929236434
  0.8538302725836178  0.1098264765544224  0.4128197438160428
  0.6714553611850601  0.1354730537679368  0.5208391612120682
  0.0664882428282453  0.8515512090627977  0.3682908659864937
  0.1837255285239103  0.8544880128692880  0.1711302671643567
 -0.0784253101667447  0.8494608051680376  0.4304063709165281
  0.3078460406539845  0.4815516323056190  0.4516076248556833
  0.4659742452444862  0.8410599299174211  0.9488820070626984
  0.7854040536098950  0.0187922176800281  0.9048460268117707
  0.6200375853474945  0.7418662966639015  0.5988909074682397
  0.5614334932843908  0.3231121442291384  0.9410039102882989
  0.0387717772563584 -0.0036250532999448  0.5789078769777491
  0.9560601883153840  0.6649920022984913  0.3828689551599042
  0.9515470755746859  0.9095393688360166  0.6159657610003511
  0.7583795857328904  0.1753099347395761  0.4352379555955497
  0.4536934413122499  0.9123347883017515  0.0424652469401361
  0.5047413388636128  0.3330853806449215  0.4509551106295185
  0.4999631846330010  0.8484005517355998  0.2691873504360676
  0.1503223701423800 -0.0421850124535363  0.9218292535341910
  0.0535402378864905  0.4153587898728546  0.6271434634169009
  0.2150954693650872  0.3463558325009275  0.9199642077031778
  0.8302933010118461  0.6807063940203085  0.4526193520375934
  0.7679002042046993  0.1931146734733226  0.7920754324137375
  0.7235232040922365  0.5971802911537050  0.8347782212330612
  0.8148452868113248  0.6863869835057615  1.0192881102561437
  0.4401982002877106  0.1279436952832990  0.4708178572415956
  0.9013137217315894  0.6349025873525691  0.1409916772328458
  0.0881333767129669  0.3707114110972008  0.3481223798481260
  0.2147149993986272  0.0742518635637851  0.9698662189623354
  0.0440416405351363  0.6096205905155657  0.7705336200656618
  0.3168981717641338  0.5716749223162616  0.3000260082462949
  0.3542994487583312  0.5911210929647319 -0.0066891213089354
  0.0745790871351324  0.0087503730811306  0.3016986083125578
  0.1317126751036831  0.5165724895620940  0.6403179666640313
  0.6265438875519431  0.4277851303146037  0.0470639004418386
  0.5800726637088943  0.9288762083223355  0.7824348610764716
  0.1462586793290779  0.4775626046698983  0.0500801539764062
  0.1374492723750433  0.8824467309673522  0.3842589663225109
  0.0203239816214549  0.3526311511539506  0.5157815371637109
  0.4807916254184973  0.3414776659380760  0.6706183692426589
  0.4503180929614273  0.0193545054039966 -0.0563564743290601
  0.4251779829488823  0.6495362363387884  0.7260063947452013
  0.7241867343131073  0.4338332703048887  0.3170913931544367
  0.7680713945782099  0.6864110653054328  0.4949017052480176
  0.7090990336842846  0.0386458318451864  0.8101755376298715
  0.9721905499372574  0.2326897028386411  0.1822577786022889
  0.6629954314960259  0.1278873110301812  0.5911155968109689
  0.7490041465042956  0.9651685169437634  0.8262855842251503
  0.7903634187269142  0.5739242906057006  0.3563056883771307
  0.5238774842749344  0.9213700878042622  0.5913511443486186
  0.6914093731535421  0.9555947547248597  0.1032356637447242
  0.9743498268237732  0.3094496615626405  0.3335120423275476
  0.8186713519838207  0.3603181764301940  0.4402030717321136
  0.7432408343325131  0.5795569767698647  0.9005861234146952
  0.0449176520436654  0.8076018165041428  0.6017101649854691
  0.9631341469524074  0.7925075182990921  0.0397264517723600
  0.0797625644457840  1.0114312141747372  0.8959936563418045
  0.3244626924260684  0.2931155452591916  0.9668112492114603
  0.8536095844075529  0.3058628730500326  0.9052813579502733
  0.9723519052443482  0.7165027094159797  0.8824239800511742
  0.0979695985994708  0.4474561020901813  0.2651228640211472
  0.1808836870555028  0.8059293655589727  0.1206056949953132
  0.8200335646367772  0.9084806866722440  0.3730548426590236
  0.5315106625980300  0.0058897183528894  0.7242579868394547
  0.4991708807688250  0.8921584787545939  0.5914603909960295
  0.7323018371340314  0.5004734354193188  0.2982378438036336
  0.2523006597818703  0.5827239879969722  0.6979661088927931
  0.2521828105702355  0.7201029448407001  0.1988630881568122
  0.1002374404880508  0.6641480575930786  0.5770112182895493
  0.3442271933028556  0.6565733537404205  0.8366121105999778
  0.9261162789794526  0.5934968045358441  0.1309322338913579
  0.9692570140213630  0.5524817395435342  0.4481084790281563
  0.1194210537727624  0.9867940502649827  0.5467631088850535
  0.7776306324542953  0.7162667968912868  0.1538138408637761
  0.8723804942592434  0.6251133564394770  0.1019952950195387
  0.8691812053220821  0.6004128960586207  0.4550011580204656
  0.1936345453180964  0.5589843741138540  0.5719539494111029
  0.6919628450792417  0.9318123451545967  0.4003048898125348
  0.7889325816369966  0.8037814891706089  0.4797957331147082
  0.1328833265830009  0.5189621824598425  0.5094469341819275
  0.4922477996264313  0.8721693578869747  1.0291063323681262
  0.1915476642243878  0.7378843812368276  0.7153072465290093
  0.8378938964313067  0.7314082850240990  0.4547076125650369
  0.2525582675910387  0.7022577361567254  0.6307826555847724
  0.0712758924126008  0.6320063922822677  0.7349421078275308
  0.3346009548007488  0.6677464405371848  0.7746229778396752
  0.9640142088886438  0.4915767491800559  0.4627798996246271
  0.3262635750372074  0.8614115182168059  0.8597153248620913
  0.3969996748300458  0.6634178386288035  0.7970205145604395
  0.8576318584696074  0.4254243038337808  0.2210490628304002
  0.9018258013356827  0.3491469755134747  0.2072342686173010
  0.0969943491746258  0.1362998910031618  0.8256134022338063
  0.1299489654236380  0.9215148188382678  0.5732080403432857
  0.8499411053482813  0.3640331360002496  0.2409295234316636
  0.8451658553894685  0.3191732377950575  0.1992559176514308
  0.3799683050476498  0.7065228027298169  0.8462368307092407
  0.1071693705176294  0.0925308594429657  0.7852919229375888
  0.9460686949726613  0.2732123342142276  0.1912963830016887
  0.6040125890235135  0.9963634880397854  0.0429273807782344
  0.5719581557070916  0.9573900460227288  0.8758250930933862
  0.7244279348005911  0.7026342572261696  0.3115635129512201
  0.4358627893153150  0.9213753147763688 -0.0058017843870090
  0.0793289212944856  0.7179371363180065  0.5599609491889700
  0.0367409809545091  0.6997221656884338  0.6588625462703550
  0.7145749180831639  0.7806846542927008  0.0033272299931409
  0.4975639424468667  0.9255805693972148  0.0735850677087893
  0.8392253432065422  0.7930818171633335  0.2084053973894419
  0.2712032939175791  0.5518492891925570  0.8195215067163916
  0.5846336506021625  0.8776625022882352  0.7203485954307662
  0.2375479947498543  0.8021870365038607  0.8923930547080395
  0.0935993078459361  0.6716104736135659  0.5089065906307483
  0.2946244436398918  0.7969181861244514  0.9106917521303153
  0.5089613772625554  0.8107741343238015  0.8145233847429155
  0.9498228115213346  0.8115248299375981  0.4181734503685998
  0.8942364870219586  0.8400660602422242  0.3893957632285711
  0.7875816991049563  0.8072781846474296  0.2411447591680700
  0.3340060020816135  0.7700658653596759  0.9941455797943527
  0.3379462134258652  0.7598128020962162  0.6012309713792940
  0.2917345123098953  0.8249224467668567  0.9676847347432952
  0.0329240362458376  0.5522896153886474  0.6330255400559706
  0.3996257605838890  0.7501608653372085  0.6255293855720061
  0.3337269788355314  0.6522578137501412  0.5951852923323747
  0.0826771624405633  0.5872306572749910  0.6956604649082635
  0.0320230917086665  0.5800143423795617  0.7328463661255257
  0.8068289417578829  0.4564884019962237  0.1944102743101943
  0.0920481488966878  0.5739087120328077  0.7550899009202132
  0.4962275274014801  0.8541042921817646  0.8612461167091223
  0.5959908725597438  0.9907587088569810  0.3410763404470089
  0.8323741277083230  0.7336967889343395  0.2250666404487786
  0.7805711299034664  0.7170662985566200  0.3833133673438739
  0.4226354844313662  0.8687325669087395  0.0454999861486126
  0.3222625568884525  0.5590759585246589  0.7822350715837521
  0.2808845333641757  0.9463665790939745  0.7184394840096193
  0.2256716003060771  0.5159010291229840  0.7556932623641349
  0.1136753143447705  0.9484832909048827  0.5075735339073756
  0.4666225767244038  0.8305697995412152  0.0666101289393245
  0.5128106049705751  0.6991095768653484  0.0055032575697080
  0.1132812107174354  0.1033019627978865  0.9460443886058142
  0.8965132935125659  0.8899270146200114  0.4387188930793595
  0.2098799484376533  0.1594276605543828  0.9723038777683912
  0.9528773090537559  0.8740902423836346  0.3985785604452954
  0.0701887497912773  0.0687517749745113  0.8918045114966915
  0.1317276545421213  0.4362617111776346  0.6200127928030703
  0.4363634116988778  0.8304695042306769  0.7331195666189148
  0.6225560546515955  0.6556392738292915  0.0004963304069457
  0.8437557252031912  0.8210706131881509  0.3144517739012059
  0.4963527191503317  0.8231701902980947  0.7545052674383183
  0.4386740915799456  0.9265627838157573  0.0970267143172732
  0.9684097066110321  0.4687065991396862  0.0723335156492528
  0.3447695273279621  0.9679088785787090  0.8452741948078994
  0.3568286133658999  0.9535761848275510  0.9117084548109647
  0.3968447045635604  0.9245499139999592  0.0385123933123577
  0.7949429541968941  0.9312965211117923  0.4440835838153041
  0.3758390877123943  0.9923708877549412  0.9520519200397245
  0.7836749570063644  0.7624878299306715  0.1985062263959788
  0.7347229900247181  0.7837062891163097  0.4572563360616659
  0.3049219440022181  0.9164924851367298  0.8426140753392684
  0.1824573364053358  0.2243917488426724  0.8934649071887831
  0.1039793261579393  0.5593363547362891  0.8147489417705932
  0.9518835011807815  0.7959311145907184  0.4787177822185509
  0.0274389848353826  0.4947334900124404  0.9097828505118064
  0.1056448223881663  0.1211447418643669  0.8866511723226682
  0.8592755069892284 -0.0412101026446660  0.9728415756081996
  0.4831959376528083  0.9291891612892387  0.5576174684678048
  0.7169674688105191  0.6425103544821374  0.3295212532146548
  0.9046537558712231  0.9482901192435435  0.4208187071393806
  0.5313826512466679  0.9032354724258617  0.3492447328617793
  0.8211049361220366  0.5976877876411671  0.3253791229165024
  0.7650099144384690  0.6160515723702887  0.3605547545334832
  0.5254037316965162  0.9167148924758911  0.8021679964596478
  0.0340903831891343  0.6260763879378309  0.2726405942280964
  0.7966232780965151  0.9131061496882574  0.2657362798402475
  0.6691851635884555  0.6879725410540509  0.2392680953690451
  0.7558490963654819  0.9871213635243431  0.2812681191981346
  0.1858750833478967  0.6419831119702624  0.9716781626186446
  0.2498233991791896  0.7603232740041865  0.8454413993217951
  0.2202450209785230  0.7794382809826322  0.5564095192645375
  0.2777881398171750  0.7688041665620653  0.5782640367033947
  0.6753795546926262  0.7464082607469099  0.2207381813964936
  0.7269937359235596  0.7311750508821987  0.1878839818471593
  0.2166216129844634  0.8090466235958467  0.5006285725252180
  0.4118965693804005  0.6376618801151287  0.9296954285774363
  0.8650312814027165  0.5202328150559650  0.3091672705923577
  0.3929902734077290  0.9664526490930341  0.0806647256986281
  0.0286909223125170  0.0213029290428384  0.8915787922749854
  0.8458450829761360  0.8683482440383575  0.3624954901082150
  0.5300887283256227  0.8565666800489462  0.3070864025347387
  0.8518718192168441  0.9634555584868777  0.4546056520698661
  0.2325601504426305  0.2305259992325553  0.8528026986487235
  0.5306499861962616  0.8736470808519741  0.2395861444770983
  0.5152329835989082  0.7482485531988100  0.0485567242686361
  0.1472192679897905  0.8540107176666565  0.6829314174173502
  0.5732837561773018  0.7785899822279402  0.2886108388725868
  0.9423270781152034  0.1907538903655003  0.2720295846167883
  0.1711707034253900  0.6863850205932766  0.9352366455374552
  0.9264616620640339  0.5596839627529087  0.0288596310969722
  0.4761726342199785  0.8486217291089121  0.6298804642913959
  0.1641380053965844  0.5827136686985529  0.9381692786645045
  0.4249919349004944  0.9186077359987230  0.2527393526949848
  0.5340715300532562  0.9650090077265550  0.5694285802956505
  0.2216254559447378  0.2432449800431657  0.7924467212021410
  0.1846298423407012  0.9018147050450392  0.6921432003690788
  0.1238544642463682  0.1993590814721894  0.7674615377091641
  0.2394932456486372  0.6872984374591543  0.9680112834858493
  0.1717274289977384  0.2061108804002200  0.7262429193577260
  0.8283468215432760  0.6613925330362230 -0.0230247014750417
  0.8264680406631676  0.7200512116779580  0.0578055610559817
  0.1394891688378798  0.3064968629381216  0.7544542790484571
  0.8830540661756835  0.1786576811325957  0.2033056645230337
  0.4766547046300316  0.9042612357418068  0.2149277634230303
 -0.0242420122634494  0.0115190583706653  0.6607783588680465
  0.0682351564094759  0.0433587907664227  0.7842706039255609
  0.4870108451433643  0.9776953524153361  0.3673768879377942
  0.0734153158418300  0.1606402450961603  0.7009559727875312
  0.7891402123248499  0.4615354964997831  0.6274949874324736
  0.2689107193130535  0.2816610543824772  0.8570837588602934
  0.2789444147988722  0.2688014907189308  0.9141509469969809
  0.8560014516577918  0.4100995291465664  0.2819849549102798
  0.9070702438219024  0.3960463916238516  0.2513158080121072
  0.8810239162615752  0.6901530783660943  0.3142558566763491
  0.8989776428505231  0.3345629682591891  0.2685554799872646
  0.9465514132003562  0.3022131286123387  0.2940284301324643
  0.9482491908793925  0.2579107401747175  0.2518600919415416
  0.8969679407230465  0.8551664305812431  0.3271936417636624
  0.5548861272418505  0.9704549725807891  0.7481947347868579
  0.0985220251139632  0.8171728413968127  0.6102587075184901
  0.0662924355585404  0.5103986231940690  0.8113862702923565
  0.6641128638423593  0.6275423115228943  0.2569362090590750
  0.1199483464702480  0.0785458178961444  0.8459920250949793
  0.0833227619724200  0.0268049084295304  0.8473611814674209
  0.0153480472578559  0.0347924488328859  0.5508430823075867
  0.0463496322474031  0.8216025387661371  0.5522870873728210
  0.0463416801220352  0.8583491794817086  0.6057019180648502
  0.3121571344266063  0.3186140882972290  1.0063116594296120
  0.4889966876911532  0.9835170743367976  0.7220256808876199
  0.1437260003955504  0.7313605685056728  0.7532810119965380
  0.0434406282737333  0.7333472010456471  0.0673449055427607
  0.5394506273015633  0.9617051446027308  0.3319706379486719
  0.9751401379413309  0.1490425019219751  0.7839586281446232
  0.9170301643863674  0.4437646559477788  0.5135606363013947
  0.5978781077044647  0.8874856779338165  0.9537086845149232
  0.1707129982798996  0.9824268313006166  0.5124013467639122
  0.1779209675693750  0.5038114699351567  0.0150783850233534
  0.7527202333259543  0.0488940425820592  0.5617541968660286
  0.1802674804540907  0.4370850495067006  0.0344807586789144
  0.2418018516971103  0.3536267895674666  0.0038561236000535
  0.9640731945590265  0.1619006830567564  0.7232577187251990
  0.6722529476845002  0.1596103170313032  0.4743352474305056
  0.7208187231964828  0.1407674457976929  0.4441664505689529
  0.8565341851792774  0.1350765020768847  0.6404555946724458
  0.8133228531528617  0.0868739758571449  0.5084518136615747
  0.1865112666012853  0.4866285395686544  0.0780295884903940
  0.1386032209757386  0.5660254903476848  0.0970371840014090
  0.4683420504650303  0.2262807626119015  0.0939108751242972
  0.9455335420677673  0.4678110275972412  0.5755488284779549
  0.8910204879581006  0.2168096800556954  0.7449268746625782
  0.4654859238747028  0.1828786402323461  0.0533699443435729
  0.8432616440602394  0.1805139808078443  0.6832788772753998
  0.5152122491524364  0.1529863909941486  0.0772069893973911
  0.8253519124643850  0.0751103722291106  0.6974316047323876
  0.8657802082898144  0.1211257894164683  0.6994656143562410
  0.9362252224813552  0.1030378378203256  0.7824898070448618
  0.2335910412051147  0.4645873523170436  0.0429161509986347
  0.4978278918162953  0.5530944593870734  0.3985883641172446
  0.4501566240979777  0.6680323279283108  0.7629145006027140
  0.6918543300538558  0.4242181525432134  0.5869546332657516
  0.9367238748083802  0.1387515396968533  0.8896286633653200
  0.9976955441876777  0.1315333830276068  0.9059633191847904
  0.7717257212360903  0.2036130856277562  0.5991421588140379
  0.3556988380283159  0.2554442596408572 -0.0056148026271219
  0.8736242995491086 -0.0035497521631148  0.8388146767772060
  0.4513723838994543  0.1379612509428504  0.0004934758743637
  0.3540176793687076  0.1257628257194102  0.0247028487059076
  0.4579027692280855  0.0819640956631043  0.0169555235859268
 -0.0001162862535258  0.8035925690646770  0.0806497834189330
  0.8444569577385792  0.0213825524585360  0.7146780249750417
  0.2301986792808513  0.7614406140846415  0.6161573001848974
  0.9645262758092590  0.2004018230750829  0.8256804514760514
  0.9499195459809371  0.0932466482140988  0.8456605347507253
  0.3666410128478314  0.2737787643186066  0.1041478621474286
  0.4634020555448312  0.1657049990201172  0.1113184275778691
  0.6109696807367705  0.0543097321080768  0.0232519433500376
  0.9267349005963513  0.4238495033858514  0.7915686503944239
  0.4762763599685896  0.3720923967069635  0.4577727255726695
  0.7877226686391054  0.4963458043602065  0.7317203007595013
  0.7552878482625450  0.4158137200134148  0.6105117285741516
  0.9195882135210852  0.2803935164137206  0.6885165992797503
  0.8492040798180909  0.3026385678967407  0.6107661304944234
  0.7395655029506146  0.4142066217214092  0.5489169506754417
  0.9980715536158756  0.7130330427101838  0.9237367317010898
  0.7392073313062487  0.1502389847772870  0.5924804181201748
  0.9534253831961121  0.6690661164918404  0.8902964705363231
  0.4533914005742857  0.6313003596189550  0.4130997396393365
  0.5016724176170985  0.6012628705942983  0.4420388578811358
  0.1102367933714838  0.2919925814471447  0.5219039168175532
  0.4981348947209647  0.5388785224525723  0.4614128346216195
  0.8546630772657547  0.6106880738634743  0.6774253679831219
  0.8041805069637177  0.5790043534120238  0.6095410451060795
  0.5944114178635351  0.4456287942647191  0.4070955996793001
  0.5735044434419554  0.2128967368140404  0.1927163068332658
  0.8452176345689492  0.2492520985419869  0.5062451494375749
  0.8423755282150510  0.3095684162087055  0.5499852882704199
  0.9349714367660759  0.3569331927389810  0.5856501537523346
  0.5098490074087074  0.0898252492057101  0.0893684196503059
  0.7179925044981433  0.1333209738659944  0.5040726926630362
  0.9953982688505160  0.4010706835890462  0.8751599177247217
  0.9916802402544651  0.4157957394177350  0.8179835327573549
  0.9401597375677175  0.3732025093028434  0.7475884424149321
  0.9581012638538174  0.3160686600599926  0.7683014187984727
  0.9028987706921913  0.3247684654825334  0.7417541284912279
  0.5558952788689629  0.0183097766278362  0.0734875311312947
  0.6862672839844112  0.3895000474201410  0.4734515461440361
  0.6868483378929490  0.4412120340113700  0.5202220442471057
  0.9802285101463495  0.1303738778724628  0.9571166064495736
  0.9138876785317177  0.4908886645912622  0.3348074463032386
  0.1971549920830296  0.6896850403900273  0.1915976954391615
  0.7431816313096850  0.2387879934943503  0.5283959890839478
  0.0034899425192305  0.3682872678433110  0.7749383278002756
  0.0384829733363187  0.6611321301539984  0.1483534339739942
  0.9452399368713521  0.3440738134925611  0.6426785966764695
  0.1452889064434340  0.6755745122025517  0.1243956010993741
  0.8577610729810559  0.2899428167363959  0.6690337904182049
  0.8975989231025706  0.3043319966329665  0.8769564818902252
  0.7433089382607789  0.0575222204944921  0.8397576298462192
  0.7424363784501434  0.0460156146093625  0.9017164279708740
  0.6859273534866256  0.0186682700777320  0.7703699281815776
  0.9337661656511438  0.2118544919331618  0.9787595380287106
  0.9266105413650182  0.1800443892052065  0.9285677746667416
  0.6096413467123555  0.0457771495731550  0.0864242363280837
  0.8212801670036831  0.1425479821214888  0.9053878994571936
  0.0541814061176464  0.9030818704346509  0.3147135506339079
  0.7893163828401634  0.0606837577491478  0.7985583585896926
  0.1041393339810491  0.8448415947047575  0.2315838776621729
  0.6758115494841250  0.0311316365052341  0.7067624456440169
  0.7228874127715905  0.0333619125145835  0.6685947001679839
  0.6484731243136321 -0.0025745135948660  0.6032007984893102
  0.8170392159147151  0.2037987812227732  0.5629250953674669
  0.0504075354125066  0.8274779307938620  0.1580311510068957
  0.9885801081478944  0.1874970497762184  0.9446068230805608
  0.8424230639928021  0.2151855910164327  0.7851902719434519