C  Cr Ni
 1.0000000000000000
    39.0110871383406135    0.0000000000000000    0.0000000000000000
     0.0000000000000000   39.0110871383406135    0.0000000000000000
     0.0000000000000000    0.0000000000000000   39.0110871383406135
 C   Cr  Ni 
 213 1596 3725
Direct
  0.4152858471238099  0.0559645805116493  0.0263103133544771
  0.1574429043994624  0.7928255799956490  0.4753459448894427
  0.3128968512499591  0.0863196266055341  0.5919266829266550
  0.2585899903300652  0.2497502615510616  0.5415720131039843
  0.0834447711255889  0.8441748087237769  0.8612848393342222
  0.0825217016507202  0.0125009573776178  0.8951551020224200
  0.9625384881901989  0.7969972109003418  0.0402500332407687
  1.0098555090641037  0.8888478150534083  0.9461980962513957
  0.1171798677045216  0.7745445450363705  0.9471297776966338
  0.9712047735860965  0.6664904272342899  0.7569314230658224
  0.6043892061559164  0.2036316864123210  0.5432826644571300
  0.4590706689157585  0.8424609022894024  0.9541513543671699
  0.8376393858533168  0.4542873304962923  0.5356257833352178
  0.6700044636777469  0.1378282787288529  0.5241471973860871
  0.0642228243817617  0.8504002989457577  0.3685971395107231
  0.1842477483338358  0.8554843764508065  0.1707439519854421
  0.9750077879905037  0.8358953042256062  0.4986192918530600
  0.3132663922472346  0.5418051561863962  0.4229368884885210
  0.3333265711670823  0.7886444960948397  0.1166475299415076
  0.7842058601093514  0.0113719867625458  0.9062864708197056
  0.6219859072014818  0.7416880747935303  0.6000952115125072
  0.5671294698229947  0.3284967000700856  0.9434126884220277
  0.8161239321889352  0.8599418844711665  0.3254671371588463
  0.7818709551094037  0.0282789964279340  0.4268854029030764
  0.9970800672542661  0.2908421080289375  0.7475115526260691
  0.7905939713241723  0.5736333975657980  0.3546694448621585
  0.6928562761947322  0.9555649799039655  0.1043241910223397
  0.3815921102499771  0.6243857469246890  0.8283371540948202
  0.8878009668611555  0.0034152744002467  0.5679314594834999
  0.3722375121570066  0.0509419836045127  0.1410904465320376
  0.7909946775626946  0.5434294789831181  0.6404252930712677
  0.0643783880150942  0.2829146851759951  0.7672553895969986
  0.6402031180741301  0.1096421127575723  0.1075359030424434
  0.3365913541797773  0.2501722787528279  0.3624469924329196
  0.7273069384338903  0.5921907547408695  0.9124802133006480
  0.0081930105912110  0.3439797310935888  0.0339529440169814
  0.7305352667782671  0.4964018217583821  0.2976670932894568
  1.0063468974028751  0.6368558765867623  0.1757115542094253
  0.8444216501697320  0.3091725701340602  0.9136076313008886
  0.9298502407473772  0.7432640240264018  0.5952423763976936
  0.4992623980678096  0.8926795324266334  0.5905883694980839
  0.8941334168216205  0.5562562965736608  0.2199372890297667
  0.4164106899033072  0.4986738177415387  0.4136387041298125
  0.3671907769426657  0.3697740567504477  0.7956775456533466
  0.0969708495881802  0.4474307284855927  0.2640363627315607
  0.4642557078100585  0.1462021806708279  0.4495927267972062
  0.7717704761767643  0.6875402628936166  0.4962891760223492
  0.1417958304741076  0.3390013737876360  0.1432807569273997
  0.7127937037762792  0.0411704532365415  0.8052371581179225
  0.9511288703016683  0.9537392802940204  0.5379190042743984
  0.6133731476184365  0.1299408522815481  0.6294726023511751
  0.7122357478471311  0.3496309040151057  0.4648303464791291
  0.0389828564215810  0.8104755269808226  0.6030921254279724
  0.1546475048350330  0.4757069188370578  0.0406600650518161
  0.1348287802633180  0.8821168474547575  0.3830075303091672
  0.4638671682116417  0.0829653721707154  0.6441639489239084
  0.5338781326893339  0.2500033485920202  0.0458076509029144
  0.9178874282850340  0.2503585362403556  0.2156420604546079
  0.0358543597751094 -0.0007896226003988  0.5786116996306702
  0.7471842535549452 -0.0260898033034032  0.8172315230718553
  0.7367948606277350  0.2091413858381803  0.9195571603657765
  0.5222456032705117  0.9193955215847475  0.5775221098791055
  0.2383012192249603  0.9246736398332329  0.4603373676777641
  0.9734199913254422  0.3090108136465506  0.3337435972043471
  0.0633222650124467  0.6809999689519804  0.3540001161953313
  0.8673160230414956  0.5978438209178344  0.8923481021189080
  0.0263028593162963  0.8976556030236817  0.2717012723838304
  0.1897199478847024  0.3257072465703542  0.3412596800205333
  0.5087093011966064  0.5696916339667235  0.8866565587574525
  0.5906209125567796  0.9188873416544214  0.6256856326334685
  0.9725836357820474  0.7151655577151286  0.8823599657330098
  0.1914405428815154  0.6947320922838853  0.9808931748495299
  0.1817161824994430  0.8057971717691524  0.1208449605728895
  0.3266285715388501  0.1684739186831114  0.0295596971408115
  0.5325494307483188  0.0066037776704097  0.7245798690300197
  0.7133671242770687  0.8441097525546046  0.1162388015786081
  0.3366066280971525  0.4326385995815624  0.4825134815125873
  0.4309642329652520  0.8040773382174978  0.5088495546129314
  0.9907633420724218  0.9445214037465021  0.1063936451180259
  0.7593206933663860  0.1731597840298967  0.4354356423157331
  0.9008253719912446  0.6360729197970940  0.1393441437934413
  0.0873011082258448  0.3707455171935548  0.3480836108359792
  0.2136115537378064  0.0754232990651207  0.9712744361269018
  1.0518169760821539  0.6017525334198319  0.8320663173136458
  0.3154240472827160  0.5712533480076778  0.2983699017652741
  0.3269668228137632  0.5835864736708256  0.0007664272761851
  0.0745125782655836  0.0090939715386054  0.3022759869279353
  0.2594412298641423  0.4320715107710388  0.5215782016483842
  0.5791333619343624  0.4753387146705954  1.0214295265113720
  0.4803773393333003  0.3408684853259999  0.6701361620471452
  0.0188164312244182  0.3460969291867971  0.5141071390209551
  0.6993146682016183  0.1573273962867722  0.0510481330550666
  0.5039221066265234  0.3343614673690240  0.4487003005195946
  0.4533877595328674  0.9252939562309150  0.2848654887091141
  0.2273445072040054  0.9661084228382157  0.9856506760240518
  0.0575139566882632  0.4202900756585423  0.6237948811533391
  0.2163548877097679  0.3476693034061211  0.9203277259696395
  0.8331561537204696  0.6841492756173092  0.4532121025578628
  0.3819835875472836  0.7079218483302504  0.5636499765031904
  0.7233431777945484  0.6033152367935650  0.8394679625272011
  0.8087231044217625  0.6829013145795823  1.0148655467233427
  0.7351958489678815  0.5703633982477571  0.2167936648305930
  0.5678805779380715  0.0252716588375600  0.9409132505251318
  0.5817157582448115  0.9287435788776265  0.7835429027442581
  0.4374941962244804  0.1281374523983392  0.4709766470309638
  0.1559251260260788  1.0128577317802328  0.0202649125473478
  0.4177371325478503  0.5258911366037033  0.2886439666692315
  0.4026151920359539  0.7851166289469105  0.9449892276774157
  0.1487003262920110  0.9515963425000670  0.5432138507622920
  0.2542252811713390  0.8573897084799955  0.9803693644086208
  0.5719770672411914  0.8520907274650393  0.4280527295139491
  0.9339448228032157  0.9208262183428737  0.0246378671944571
  0.6249088536543933  0.8383491289444486  0.9508884164605371
  1.0487405452867749  0.4228679546227652  0.4887599955033353
  0.7646374647274932  0.6593023431178893  0.8452459963132742
  0.3458700606018706  0.0326400426740807  0.4532643234296973
  0.8471785172827557  0.0793846108209617  0.0722859616282967
  0.9942024456148125  0.3141535755359389  0.9704191701110170
  0.2597532070470149  0.8891035031177097  0.1658214985303934
  0.3157301435316339  0.6500260474243776  0.5535867406858005
  0.2387356338322739  0.4326871671382780  0.4437863701686378
  0.9144517355391073  0.1992292900711411  0.1710718575725430
  0.9340055112992951  0.3869286006661943  0.1173113715592127
  0.0517252754457690  0.2993521833592925  0.7000121372317747
  0.4619707866734412  0.5791291683719637  0.8051369586912076
  0.5326337208107801  0.4972111865081227  0.6708462508729911
  0.3269167965265765  0.6228107679122440  0.8689403049342277
  0.8921181340986988  0.9599568069775448  0.9458685662695092
  0.4389632269136710  0.2074895367982408  0.3483419757197054
  0.4112951977258015  0.6940714379831262  0.7683854530854359
  0.0413922954226864  0.3334416481269716  0.8733923445608069
  0.6308855288375683  0.0888114323020560  0.9334802061389988
  0.7874951291775720  0.1628736975376096  0.5698248270121276
  0.6234758506795849  0.5435191922171482 -0.0034020436658434
  0.2195153738795259  0.6490603308943824  0.4194421363126108
  0.9875876379396182  0.9730525304763502  0.9553783026849272
  0.3871277000569025  0.2322322188184902  0.9999287690530564
  0.0781921424094314  1.0224006494258229  0.7394693561243689
  0.1533085177866035  0.3081096574666304  0.6196831351569149
  0.0922312275724876  0.4184998822135940  0.1562046481244120
  0.1504723353323097  0.7529242798070286  0.5489645696291396
  0.2724108382419855  0.6655225382220870  0.2549959664956728
  0.4133802821333458  0.2996987339607360  0.5258997391261306
  0.8164820492803131  0.6356626507317604  0.6939652089192860
  0.3634611333532475  0.8101798107585110  0.0331935929944806
  0.4539380810287021  0.1498506253645426  0.5624874589707618
  0.5115732755680578  0.4890943240476539 -0.0075232497535285
  0.5669408739415419  0.9082163696128756  0.4819287790193797
  0.0676785254132392 -0.0492147165088946  0.3818453650856398
  0.8550515732666398  0.6679188036011517  0.9440120811228678
  0.2527069415752637  0.5056884269415672  0.6798694441752009
  0.2489275097820494  0.2224389126907388  0.3837925265704619
  0.6841634997431488  0.5827122767745601  0.5900935075180772
  0.1567909734906779  0.8908872381292540  0.4772015271976688
  0.9449227541774542  0.9075000024052118  0.6222834785735956
  0.4228324281769762  0.6796172087785137  0.8383635310733549
  0.4925092584167484  0.2050673654164668  0.4850167787118959
  0.4310946604202432  0.8888782413585724  0.0979014466365248
  0.5629005347775174  0.9147980969843537  0.7540340504711943
  0.8526042669058730  0.1110018148245093  0.1797990145847176
  0.5628485961755317  0.7096543838064585  0.6544937901210539
  0.0782859398398771  0.2619276449963148  0.3229040572907029
  0.7957453083252204  0.5548664799663577  0.8690352994258489
  0.3013118010438207  0.7799194966559706  0.9584945446504310
  0.7728815059076687  0.9728721584179622  0.6091364884841881
  0.0565055350435918  0.4443873580834803  0.0735804981599516
  0.7952530239741391  0.6035036075572012  0.2270283164854305
  0.7105126819782531  0.9247698159533838  0.0938349388990032
  0.8948577773313481  0.6669239230105540  1.0047849901022752
  0.6742219749800219  0.3682259005799024  0.9588550176086449
  0.5682930907015161  0.2304943790099339  0.9785603969009889
  0.4690329115073056  0.0586570496213289  0.4161455006731303
  0.0475152704978682  0.3965083664363795  0.0048112373210709
  0.9903802555879259  0.8411271171859518  0.4050415747334484
  0.5805719407205352  0.5868440963463009  0.2127277231100854
  0.7411346233067158  0.9243164199615437  0.9023215242355949
  0.5876079139663237  0.6394129815736967  0.4944571147676252
  0.3819638439660954  0.2057756702559849  0.5166090845742491
  0.6113615292600761  0.4168160352162101  0.9542819005533240
  0.6353503556516298  0.3992157924152522  0.4735508263313404
  0.5824186699744301  0.4109368816806580  0.5223366138517307
  0.7626610459787579  0.8271535660970583  0.6352320408858938
  0.4907455424711988  0.0783439545977953  0.1473793704932566
  0.6085791783844456  0.2949523881955019  0.1492156014430642
 -0.0600634404088570  0.3081116440026280  0.0174250693913583
  0.7525909125649716  0.9178484477484991  0.6529772840714426
  0.1755131281340290  0.7578856233898600  0.3086190595027083
  0.1713868031726001  0.1410583223084797  0.1637274397730739
  0.2288426173956845  0.1719513331409666  0.4355642633512338
  0.2889224075232459  0.6783904457726834  0.6162490935869414
 -0.0329378254098490  0.3939447569131562  0.7800119956055065
  0.1312012908693655  0.8523206447391961  0.2673982433477329
  0.9155848267495005  0.2308247822437014  0.2815252382942655
  0.9270352522488068  0.3582833711396986  0.4782638954736996
  0.6106280459529146  0.9332450803134701  0.4017915156165782
  0.7056626031365265  0.6551589030517874  0.8871438445991181
  0.3877685187655094  0.2876930280773149  0.0629298721519241
  0.4886781539527180  0.0288056753334232  0.0800822228678764
  0.0481775335566430  0.5282661173991418  0.2819312661500131
  0.0468836488965601  0.9420992457239347  0.3512463389929096
  0.2596848369985408  0.1589633798773191  0.5614484950953763
  0.3439849872362022  0.8799727919773288  0.2095901543048954
  0.0782838212325689  0.3911784190899631  0.7509477753632934
  0.7402110235153462  0.2749554536883720  0.8883418513512965
  0.7458225781119785  0.0970582094571340  0.2060390426052389
  0.3199389643577394  0.9211023120258709  0.7070894050033004
  0.0073185994211301  0.6667304634206175  0.2793209962166772
  0.7838088952774224  0.4733503086882761  0.9335782626802599
  1.0310692601887959  0.7508913433147709  0.4551843187880595
  0.8268703737006173  0.6126250183534375  0.9851021121044834
  0.2102224599612280  0.5402047088773323  0.1595677196933803
  0.7741610511191037  0.8236803372622097  0.8918234504484018
  0.7822690262578262  0.3197832280472672  0.9598385869596378
  0.5667638161468538  0.3200327507502736  0.6195911409020824
  0.3022111580441566  0.1349641317207048  0.2944943759639899
  0.5086181079461664  0.3270543003160738  0.5968079156082419
  0.0747136885860895  0.4842744919793157  0.0442107226559509
  0.4488750678548111  0.5520153452258578  0.2606470636358644
  0.3319985853352830  0.0044930390860968  0.3014741709588453
  0.7508359708504191  0.4446616367358586  0.7217622281515527
  0.5445458065423556  0.4557615738459004  0.2143518979209678
  0.6413618184412130  0.4478563597805866  0.7398900130812732
  0.6528559336120314  0.4023940926746379  0.6928187527289296
  0.4476456640952037  0.5643180076577432  0.1997526899865530
  0.4013628983075351  0.6260234878265387  0.2793309060275431
  0.7489216879064960  0.4731557993767054  0.8274701721124481
  0.8286924823527967  0.1352759532732437  0.2526723980466119
  0.2141020467943993  0.8895241245154953  0.3144217432535360
  0.5181060606490486  0.3118628051997898  0.6585658303140345
  0.6151691208509473  0.3551358566575236  0.6886256724925740
  0.2631570034050024  0.8572244105484874  0.3373829301381385
  0.5377521772534127  0.3899141251780250  0.5376731457823892
  0.2431257611425601  0.6576444300359680  0.2164844501290567
  0.7256294530712264  0.5315369278251291  0.8129089676760826
  0.5217715409736557  0.2098338980401918  0.8970962318648849
  0.4362894988715707  0.0935964633956072  0.7207744922855257
  0.5336662725141470  0.1999824510646263  0.9593434998651487
  0.4259814246122962  0.9152413891088058  0.4847908991747057
  0.4739691983233354  0.7778175233285015  0.4833663439673669
  0.8620019059564503  0.7622585299765610  0.9498623919061799
  0.8095824544060843  0.7700053788443514  0.9261832411137586
  0.5439659187067831  0.7346729134912960  0.5678789859954294
  0.5667178089345856  0.6908585581795834  0.4286712776901029
  0.7599435470460201  0.4601087610586828  0.8902841230991783
  0.7105317449437226  0.4248894471023213  0.8214717540742252
  0.5893570723280642  0.4419917839299473  0.7803692249786933
  0.6726982411792060  0.3777991724649380  0.8180886797112992
  0.4853831254115612  0.1622290104458117  0.8952420945266327
  0.4732186384569565  0.1746217898699576  0.8321240072529900
  0.8723079060428653  0.0426462324603516  0.2960987808509757
  0.2729623470528213  0.9492767958838261  0.4315025359549732
  0.2679169073339034  0.9022000809176282  0.3835047803023970
  0.6489166997842987  0.3415514155972227  0.9942572110921140
  0.5971577525995094  0.3094319157947500  0.9088528105966709
  0.2629782754461678  0.8389373731321026  0.4001412493198426
  0.3119879255258851  0.8253090622117289  0.3598563940066839
  0.2678307814926595  0.9185825835091233  0.3233348209793414
  0.6082276302638058  0.6118896751801892  0.4178959676155257
  0.3109299249381393  0.7949565875956173  0.2541094791996948
  0.6273552285241940  0.2107684316188211  0.8791886323586344
  0.1515989687922041  0.7482435926118545  0.0416559654108858
  0.4990558538547125  0.2374702461783557  0.7757524661783317
  0.6710511828435486  0.2273991841251223  0.7800520366117299
  0.5996382352304361  0.2481171322689453  0.6969800014192277
  0.2335741841415520  0.5260636152568579  0.0344559301801109
  0.5619395019889980  0.2000439130222189  0.6917113774982696
  0.5509746727244096  0.2111893804090162  0.6339062504278534
  0.5909948836900355  0.1089256103318771  0.5916452481715386
  0.2878557256580063  0.4984360397442255  0.0552004961756959
  0.5375375101862455  0.1041602307159065  0.6437645059681633
  0.4867660024349639  0.1154680233914755  0.4863577885345503
  0.4894317647885378  0.0545442950700605  0.5151070514146343
  0.3994543667324075  0.2570596640276189  0.9559024790632229
  0.5214870713149540  0.2462872813654544 -0.0036608685636632
  0.7462515073330329  0.2969706868753865  0.9873267667532277
  0.8980593540992198  0.9059659606324404  0.6066770585493982
  0.4836157799306993 -0.0030833892731764  0.6605422551110218
  0.8836065162713427  0.8399757262745451  0.6160936420976288
  0.9391522130719718  0.8601861972164714  0.5939020380234769
  0.0276360659466229  0.9987297374994518  0.1875099459067091
  0.4753184985364056  0.1157747411820270  0.6097516683850847
  0.4668152607734616  0.0231341276889354  0.8027295861209014
  0.4850901972021568  0.1307844867433748  0.7882008720120666
  0.7068898210309306  0.2751106098380131  0.7864665002626693
  0.3604019088611615  0.7646111519665352  0.2790310481654814
  0.2346738490976093  0.5872590293720127  0.0188303981270748
  0.8643005270990608  0.4888675672828768  0.9759621979303212
  0.3594807661651416  0.7495733392820745  0.3401919466728694
  0.3646146746681949  0.7938384840185450  0.3847448226912422
  0.7800917615454442  0.1979639450581614  0.3292886187149907
  0.7906266579040477  0.9594934111846600  0.5606644945166641
  0.9002934514246633  0.9800958322077997  0.5240974979256611
  0.8468776640690869  0.9444093570450094  0.5157193820510476
  0.7001369119913015  0.4705169965036837  0.3248171669127259
  0.6404511381008889  0.3806537291868325  0.3310118822897752
  0.4453194662429335  0.1130916616380658  0.8894124980185468
  0.4796773985852660  0.0111167991748975  0.8677844605080610
  0.6850429266964849  0.3039607899954232  0.3165921823664383
  0.3971089784625299  0.0745874542006535  0.8254167913440923
  0.4177603002519026  0.0172244432693533  0.8449068279875854
  0.8311813235957298  0.1800611409240500  0.2947782966190455
  0.9068866431760588  0.9310375800952838  0.6628194917242624
  0.8481555637708995  0.9330312393824413  0.6416968448443054
  0.9730855525891300  0.9014589128099736  0.7201830790419774
  0.9010366293695329  0.9571815633487841  0.7800804028209533
  0.0680259197243295  0.8941277184358822  0.0642473757202320
  0.4948699425069784  0.0602056107251180  0.5744872396415236
  0.1536705216640591  0.7962087255765486  0.0829574141902836
  0.1889140898555254  0.6123538312194290  0.0457315217741610
  0.6993332335607333  0.2876686444657472  0.7268705095708216
  0.0137565469719360  0.4409771244487278  0.3270092669309556
  0.9371884722797386  0.1448277050148330  0.4558253695676436
  0.3620842604844264  0.2094198434569169  0.9548967688387473
  0.2157016154474710  0.3871501251002701  0.4267208390525774
  0.9890389896261518  0.1282916470809436  0.4181395354214147
  0.1567524447763017  0.3990960557116215  0.4539525738144737
  0.6081487322723050  0.5211777965264055  0.6650008465374914
  0.2458686178515750  0.1088387739643656  0.0542578506154396
  0.4540917297031359  0.1070304027256219  0.1245949243441360
  0.2817361142108832  0.0451800161428661  0.2926284129446147
  0.0644106042026089  0.4583013752001996  0.3948626008638540
  0.1189072634803358  0.4419845167528289  0.3621617601099787
  0.4059953673967097  0.1212490718852960  0.1614649504331056
  0.0626080804165938  0.4124805413486021  0.3549807543607932
  0.2174138815670560  0.3357139492575981  0.3817833462028561
  0.1592638863978955  0.3002934750636662  0.3694497307390206
  0.2190448266425653  0.3508466255447420  0.3111299117498879
  0.4105475055258683  0.1803712342873395  0.1470517019870039
  0.2560094539889714  0.1746436708839535  0.3923700800265418
  0.2702739846655179  0.3488141106130486  0.2166734910982163
  0.3364198110457249  0.0482218412025960  0.3394894619584360
  0.3224130658144369  0.3335854401248637  0.1826098480763977
  0.0783661747319883  0.5362295005937082  0.3189535472060569
  0.1982047961612795  0.4356527616555101  0.4746618818551931
  0.0723144375300645  0.5579980454398001  0.4783403874129226
 -0.0090562323930655  0.2994106544470614  0.0180061534813267
  0.0090297678101199  0.4214277775226364 -0.0155436412158628
  0.5331026943269817  0.1666239068006099  0.8539246921038319
  0.0420568862255159  0.2060937965051028  0.0150751391985062
  0.9841357249478647  0.0820879846885314  0.3722490861839455
  0.3039327227122138  0.1827894616079137  0.1114911959694680
  0.4874721728155878  0.1010286446218472  0.6824206998527077
  0.1964066617161599  0.1207390025948843  0.0896609288846660
  0.7061246788969567  0.9825023347175905  0.1464907712691494
  0.4371097566765761  0.0794744533405283  0.4890438541394983
  0.0182761739457857  0.3902550278235656  0.0494605291093727
  0.4931215665032666  0.0170977616712678  0.4089095534769988
  0.0275311756003184  0.5639145104788831  0.0621230770375757
  0.1119232874907880  0.6222050919710823  0.5331871521863782
  0.3939716054368850  0.0278294245859133  0.0630327855839729
  0.1272246674862631  0.5300943328687097  0.4499432922755101
  0.1450009827228416  0.1705715118877693  0.0037880902569700
  0.1310755597647454  0.4644925499803342  0.4794373553038730
  0.3864857741873511  0.1163830401963407  0.4753487598588030
  0.0261918131935059  0.5494540962453413  0.1232092432222692
  0.4467788281504382  0.1001353611380023  0.4275590370806753
  0.2408880755144583  0.0460306451970308  0.0701144755941516
  0.2614191010925543  0.2745743315615443  0.0720333816956456
  0.4868433475926764  0.0064155932886095  0.4763486194299691
  0.1286070749640578  0.5168063960107947  0.0539037365993664
  0.1487531460740417  0.2126939581156042  0.0489443434847073
  0.5757766837850987  0.3353260715112957  0.7891344534294313
  0.7216685978007875  0.1387655616819019  0.2148458363472854
  0.5022654068683164  0.1721669333187186  0.5703370122649188
  0.3326163946713356  0.2031821544003345  0.5089972394550781
  0.7080023399114567  0.7124993735394042  0.7315029365959651
  0.5574811892146541  0.6304548539977796  0.4523284503150656
  0.7772024477417955  0.6934238393002709  0.8134549718190184
  0.6328990320316255  0.6146358785111569  0.7192184666848020
  0.6993867641675980  0.4444502330975105  0.4458958808309066
  0.5904647667428552  0.5572668006028411  0.5435401443220610
  0.7877306563312774  0.8960715603907161  0.5713007963189796
  0.5553976307817738  0.6139605519270823  0.5234475195530561
  0.8072487550384123  0.4398136103014372  0.4913538398619949
  0.7335156201901407  0.6746891973196025  0.9233254875785037
  0.7873244611045086  0.3863996477612210  0.5037370546657897
  0.8913523444946800  0.2837689149629636  0.4590201068779427
  0.8375552539788702  0.3073499742073942  0.4901583495102293
  0.7381717920070600  0.6392304092588533  0.8084750632754150
  0.6413475086428305  0.5981496503613792  0.7816308396843812
  0.4264120868027249  0.2266902646059295  0.5890659593310817
  0.0750825248683377  0.4744628651373404  0.1079289743653057
  0.2619406837026900  0.3493555903564984  0.4455126413104870
  0.1546598802602825  0.2556850881848210  0.0953350130484810
  0.2107452798342197  0.3218435070386794  0.4398481688738294
  0.7138480531338121  0.3912528373471282  0.9402584999554844
  0.6838509201371127  0.2721476109392281  0.2126333197759937
  0.4789142542671411  0.2631491375572165  0.6546663478202515
  0.3809503202594562  0.5706077870781500  0.0020429657126818
  0.5973288020055021  0.2801128282907241  0.8023928737064505
  0.2595579554431733  0.8264499655051779  0.2294588127159484
  0.5431315254932301  0.4061857936907607  0.7137487292682946
  0.8135115568631952  0.9828782537403609  0.1825312307777922
  0.6702537107705241  0.6636393113452099  0.7247499790565507
  0.6616593295962300  0.6785322482483596  0.6651045785824442
  0.6053023829967989  0.5948797417991337  0.4826275007308636
  0.6747597659492357  0.6337540964353600  0.6113501804029163
  0.6359786826925160  0.5881843758510786  0.6105623774971536
  0.8367252014809718  0.8764066390586582  0.6010821041805543
  0.8452041163279600  0.9308604942517075  0.5770507699847706
  0.4610188376394135  0.2871967326350442  0.5334450831987809
  0.5225682885589258  0.1793363518812912  0.7926150597992616
  0.4612567597354333  0.7030087390757151  0.3308025782466524
  0.5071679651531894  0.6267392483496467  0.3162289722905858
  0.4007656224154851  0.1636323509275188  0.6460521230249975
  0.4231140683683585  0.1089330071827262  0.6548964161242712
  0.4477543543342160  0.1711292504346022  0.6071531726662918
  0.2883226534206887  0.1141314851899303  0.5566200507605410
  0.6635492599504960  0.4101777241449058  0.9234792673461748
  0.5885862759131650  0.3785937672405755  0.2006015461873517
  0.7355174301797920  0.3376640464484612  0.7308425254122394
  0.7522816639856817  0.7493453516453163  0.7985082800156339
  0.5063167812225767  0.7481468570814204  0.6093414245339793
  0.4040120281846671  0.7376444760458825  0.0162566736291615
  0.3612589567441070  0.7619593110638099  0.0500366208128163
  0.5388340032017158  0.8396958248982745  0.6540043513425265
  0.7589469713184450  0.5358781609156611  0.4385660263122494
  0.2205117146145351  0.2143586836517265  0.6880958727544776
  0.2388514141613801  0.0659750940526113  0.8878616509259992
  0.8495542678859133  0.3813268710620222  0.4098105117204092
  0.8422081752667634  0.3212611838337008  0.4289872029056262
  0.4710534483679715  0.4280226523609901  0.6338252418664531
  0.6560095305824684  0.7085527304769185  0.7694330644662568
  0.5882995128509055  0.7304954809696633  0.6908131956530654
  0.6762746785577493  0.5250397516829522  0.8498781277958193
  0.3561558227459993  0.2779367627326822  0.6123458726476059
  0.4519273633199827  0.5920167336032370  0.0783061191651835
  0.3046711931446327  0.7313978238135629  0.0398215921647279
  0.6654951275771885  0.5692815550224876  0.9848039813573199
  0.5720825224245671  0.4700206294516987  0.6589402198954526
  0.4636036771598672  0.1656084965552443  0.3372743063560332
  0.6173828015626329  0.5065630568216208  0.7236140651019993
  0.5592459077354675  0.5167718015839119  0.7056940136394598
  0.1571376917367668  0.1004200025960308  0.7425648995656658
  0.2982456368846849  0.6231951353085909  0.0194622181589910
  0.5067674501688066  0.7554278868650425 -0.0087876557574483
  0.4344716065587591  0.7593413254149929  0.5276952463763315
  0.8935182685003441  0.3007699157887705  0.3982121419759129
  0.2177441075590062  0.1241992847647193  0.8683661446926695
  0.2764264450781902  0.1171536998188019  0.8900399131461266
  0.2904992383713682  0.1520920471533430  0.9976401997535818
  0.8401180450584301  0.1997992121440981  0.4594584210654938
  0.1922043246752418  0.0303229953987972  0.8232172282697002
  0.3996530476345744  0.3762720028885220  0.8905750780087243
  0.8072224960143892  0.4719030260103264  0.3614022116153206
  0.7513614059483755  0.4403971028542971  0.3517127421532190
  0.5415939355346031  0.5062340534169258  0.0279960764658194
  0.5686408499399802  0.9015203206738678  0.5845390501025471
  0.5299428821980604  0.9335492377718350  0.4580382245939303
  0.9443203765802365  0.3135163626904268  0.4658226031472076
  0.9557197293463932  0.3815262036833539  0.4439892857040919
  0.9008929463569998  0.4020286493051659  0.4750695154197234
  0.6141103778199687  0.9521630362119460  0.5975316483597715
  0.9625738418605657  0.4359752050977652  0.4768518721504491
  0.8143682844668735  0.6148790221343646  0.4986773279977122
  0.6860489203657313  0.9196408340553268  0.7497583869247152
  0.6699048313112632  0.9644640294027456  0.7950272469192361
  0.7213063347336203  0.9673523366825824  0.7665462264661428
  0.7955687519314392  0.3651635359715019  0.3383381524408183
  0.6778015945319339  0.4957668581673798  0.7456000466763716
  0.5469218609282097  0.7958249292753159  0.6111897193510276
  0.2450564909999422  0.0600356475514870  0.0111886811910482
  0.9339597851217157  0.6961998772858102  0.7676175743092573
  0.1796806405575784  0.9376815077320513  0.1382125702242345
  0.2410541401363329  0.1244862247383277  0.5968884695796448
  0.2524444086352306  0.0158867819454321  0.6395141843252089
  0.7213452918293842  0.1147941344469384  0.0426862911465400
  0.2659203831597885  0.0722015591414463  0.6087187596363002
  0.3287379566650320  0.2136785321907770  0.6696212632716053
  0.4013233713206534  0.1942411106934895  0.7494714553634942
  0.4269050380440459  0.2878529226656227  0.7987449511847183
  0.6803766413799639  0.2684665018511491 -0.0173167108839111
  0.4872117857487256  0.2818848066382476  0.8186786701595832
  0.5994918502431864  0.4064438753100575  0.0728010036487157
  0.5257386010422463  0.3576713376324916  0.9437140264751659
  0.4988338105586314  0.4550419879434999  0.0856402962790633
  0.1788777312406585  0.0889338445810926  0.5295465772675839
  0.4789764147000873  0.8191430940636055  0.5261885569513084
  0.6754538419119348  0.6866460809648792  0.4680701131516401
  0.8582590950086313  0.6166666001624844  0.9382935797921902
  0.6390023524136268  0.9822248420328041  0.5423524068733598
  0.3434166151295569  0.5627200278628616  0.1673805912196373
  0.3461581161765304  0.6101375349031136  0.2083596219975887
  0.7053497315630256  0.5719306268562967  0.8732221985317029
  0.5379104688782540  0.3944956976569762  0.2323097703964502
  0.1748625834792097  0.8938034530474327  0.0922339128181132
  0.2143886535072003  0.8341849606185147  0.0957877665097225