C  Cr Ni
 1.0000000000000000
    39.0110871383406135    0.0000000000000000    0.0000000000000000
     0.0000000000000000   39.0110871383406135    0.0000000000000000
     0.0000000000000000    0.0000000000000000   39.0110871383406135
 C   Cr  Ni 
 213 1596 3725
Direct
  0.4140721103837021  0.0531199902699539  0.0161545416864129
  0.2346380098680357  0.8672514797287010  0.2367696406016454
  0.2765072760473842  0.0386058586861772  0.5625237016906698
  0.2600113828071908  0.2534641434181470  0.5407316929726060
  0.4733249945997196  0.5506621669230245  0.0718075454291727
  0.7500965214244414  0.8641020323674934  0.6835823789643305
  1.0082992819837011  0.7184107858663296  0.0210348335401709
  0.4260728163536339  0.5859755883887677  0.8509573156962283
  0.3784041489573860  0.6931935273501993  0.1641633647941462
  0.2409776421456927  0.4728001929827974  0.4955745826051813
  0.6082164049338321  0.1882042826326389  0.5535019271821230
  0.9366824758119243  0.9221988552133654  0.0265860885737655
  0.8173539696402661  0.4542727120743628  0.5409663549668403
  0.9598481146865024  0.8709467132156028  0.3370636431774414
  0.5056681234882183  0.5425886669476505  0.5598367659741175
  0.7528225595307443  0.1485691324315151  0.4964814359882190
  0.0641886000615830  0.8504622975525036  0.3665862618466503
  0.3568762903984626  0.8470032180280618  0.9671761299408580
  0.0093816501553639  0.8360483047024225  0.5057231489349133
  0.2538480609969589  0.5073429138547007  0.4188103231145476
  0.9711328762545388  0.3332539057091744  0.5627299588880529
  0.7697448040425624  0.0157449671014467  0.9408555611915477
  0.6211170287469187  0.7393026344882436  0.5982655740222125
  0.4448191611721444  0.8443812854702188  0.1382890825094722
  0.8431243683536461  0.0483979499399834 -0.0382882814714374
  0.6947668451643283  0.9149870432657845  0.9613905959450225
  0.0324277796846612  0.9210802106945912  0.5395867927483224
  0.3689104884582607  0.3695207128929772  0.7963599910361850
  0.3598049703716966  0.7681419438928506 -0.0046171099746756
  0.4926911391303002  0.2147688849011052  0.4934806213633890
  0.4900464075660587  0.2034997123816106  0.0295534686444674
  0.2929663698812187  0.3426101863280347  0.3141175225788262
  0.4210367339802667  0.8362504598775624  0.0447314837561828
  0.0009021315550320  0.9918879816595596  0.5402982037816223
  0.7331770371617391  0.5945404724529680  0.9050838867073235
  0.2607457623453505  0.6257546690208432  0.8997816435110620
  0.8731137326189946  0.7941749401905377  0.5239720587811737
  0.0088858274696671  1.0400753171846433  0.6581056216633736
  0.4940806223870752  0.0740844676356641  0.1432598252449153
  0.0222977421875054  0.2605168573063515  0.4226337272516499
  0.3318653066722109  0.2259767154774121  1.0236801298061267
  0.3081507761474231  0.0474793786501686  0.3235513439414302
  0.4583662702904450  0.8879912381008708  0.0009153141448597
  0.1153243517257765  0.3411937869591848 -0.0012839682579294
  0.5067197748681085  0.9594607539688317  0.5382465878900146
  0.7078202002192336  0.3264460485353519 -0.0135025701706148
  0.9051349869540205  0.6807852451814785  0.4232750814829285
  0.4895204044775047  0.8877176793820741  0.0652332509675954
  0.6723763258455558  0.5415962518912153 -0.0557913848629438
  0.6389924010124208  0.1118434327610110  0.1082098059378711
  0.5347483219013270  0.6595982658655113  0.5243494248211114
  0.0664731945167952  0.9681851247384465  0.7109194540462386
  0.7849934163617641  0.5321436591324530  0.0056577330998309
  0.8802203566543626  0.2436032789629053  0.3878156313323790
  0.5191652998277564  0.2030796119964129  0.9471296068320182
  0.5679367290124182  1.0012755081297082  0.4785024529217936
  0.4959996996179953  0.5641449323086623  0.8774193345884498
  0.1073779924991911  0.8389381141231859  0.9405612052099783
  1.0360850566714839  0.9736693465793275  0.6003548917938174
  0.7640987088814064 -0.0693078880906600  0.8847371535944344
  0.1273266281532151  0.2786853466333254  0.3919757943610691
  0.5253428746545301  0.8985819626119347  0.5714832267052470
  0.2393773587067399  0.9245586517390337  0.4583452080430110
  0.7223286000973599  0.8095304693438943  0.9196627884183384
  0.5980640186573337  0.6195330471424493  0.9705844925735654
  0.8685816542761302  0.5988735372692593  0.8926342615373883
  0.8865165707458833  0.9536376187239798  0.5709948509074588
  0.2762366758282679  0.7732545612339360  0.0444674303462209
  0.4273216275812323  0.6514617704649001  0.9013430263841467
  0.3436697694135527  0.5180905368558505  0.9472128809470389
  0.9834851324163758  0.6515245971242147  0.8151043288222436
  0.2011403013607749  0.6840802393833804  0.9854101466465284
  0.1762267511146894  0.8063818415963870  0.1212427578641218
  0.2632827680052277  0.1657407964144307 -0.0160730382339876
  0.4323500295551539 -0.0526275221820988  0.7958131077194724
  0.8705588024577109  0.8738508616798989  0.5703299843626116
  0.1916619229215475  0.1636426580972760  0.4095122773870319
  0.0697681718475650  0.8837334261322056  0.9082424608771826
  0.8597412992544260  0.2783181138714155  0.9437417446978704
  0.5761202030370803  0.0305687666053878  0.9479419342809640
  0.8109760707116418  0.6817836700401754  0.0183219827117023
  0.4994922935521555  0.7154160226467792  0.6278980005984457
  0.5182273890700529  0.9863624094048028  0.1721415571451666
  0.3823243838357996  0.7215446301716150  0.0395922621697086
  0.5681248455889607  0.5607052082411740  0.9074713617103002
  0.5380879242402533  0.2724831933387638 -0.0160223668160074
  0.4633171086525592  1.0061460923388152  0.2114662165729600
  0.3481809872831641  0.5811307065641521 -0.0102215453925497
  0.1421977383013691  0.0025185771580055  0.3440329582445711
  0.1079019510098798  0.4580473464314196  0.5770194490049877
  0.9408086143397884  0.9035990504701951  0.3432094329998867
  0.5450400683034093  0.3307805934421892  0.0461424787557283
  0.0229035918119001  0.3512685357093957  0.5134472977638835
  0.5403355498187493  0.1868482813253443  0.9755096839260402
  0.4608231157018665  0.3376635432431992  0.5245464290935737
  0.9202156591724403 -0.0184248786798623  0.6654902965346468
  0.2226636423236818  0.9568827062714470  0.9863101249311096
  0.0386707525775212  0.4203729443003687  0.4864928572593794
  0.4577974954691224  0.1260111758401922  0.5109290408691669
  0.7164284420585987  0.9422858627962882  0.6523483285813194
  0.4531570292611061  0.7947974750709369  0.5587223413029141
  0.5825201627867035  0.9306635517333066  0.7828757559193694
  0.5662317330956832  0.9160127559678714  0.0912972533066427
  0.1913520517221168  0.7338633023920196  0.5716959136079162
  0.7279283783759899  0.6086539475886987  0.8354281398093053
  0.2920080452365446 -0.0149220878496920  1.0088536938687107
  0.1637198539180841  0.7521721784126315  0.4911837251585773
  0.4596379133048336  0.8328620403826557  0.9493241648716892
  0.1437603205653251  0.9536017906108856  0.5484667684284946
  0.5348800388978393  0.4953173279492530  0.6693946979775938
  0.5666466486276311  0.8539418911020400  0.4296116185734202
  0.8490232879561508  0.9642405176096698  0.9217222641908912
  0.6305079207183093  0.8260979189838588  0.9483828294565181
  0.2381142232459607  0.6900586640804791  0.5304405201863788
  0.4171846319110238  0.1785293460686462  0.4338468486232759
  0.6356429198997393  0.0889513948694727  0.9339775050944755
  0.4176589904693386  0.9515362456604157  0.3066481117525176
  0.1565697128065283  0.8430181156006423  0.0601223172692039
  0.8893332144702132  0.9939981808233715  0.7397351880990943
  0.9246333260561820  0.9981054203018740  0.9321522433677436
  0.2109260337666928  0.4202849489022053  0.4516312703904990
 -0.0003707555597707  0.6278068886803833  0.9476190791010787
  0.9267324329117981  0.3561741757064695  0.2409145667447318
  0.4445475308300327  0.9696463807196745  0.2887352533997222
  0.4833081644375629  0.3870497991952452  0.9496846023615253
  1.0060202829705784  0.3113861126447095  0.9820840792760867
  0.1929052440489506  0.6253182758566507  0.9331209297738954
  0.3425078732870386  0.6835779794614049  0.5687086729441664
  0.8730512465341824  0.3271527378799338  0.9953039052565105
  0.3661938505650664  0.9430566155685430  0.1256647734268546
  0.8622980643166523  0.3890647293755308  0.5115256674906835
  0.4625024426707022  0.9642769765359376  0.0025836518452454
  0.7901412707877949  0.1641668586600020  0.5692643672633999
  0.6128463375342886  0.5426704152566296  0.9933828815243099
  0.2758445052687907  0.7260369653372530  0.2352670699246350
  0.9952193950349226  0.9817364572073263  0.9619623153026576
  0.7854437133844253  0.9485442342000863  0.5990654644490663
 -0.0056236634178760  0.9755842044055634  0.6883102195927079
  1.0833808585253430  0.9748812138880167  0.5107857626638638
  0.6367371671131571  0.5997207456637282  0.0535146007642228
  0.1163319133524293  0.6946414882388654  0.4268545808084648
  0.0924314283547248  0.1702679111542452  0.5628487860295224
  0.4298806056649632  0.2476092024974305  0.5416479119174430
  0.9734886265847237  0.0853728887228669  0.4143004748275981
  0.3424251609888583  0.8138746383668191  0.0493682915481655
  0.4425232068814784  0.1371438822292136  0.6284958338820837
  0.0313401894261773  0.8517561999254321  0.6511932510152021
  0.4640426968724601  0.2777003839536630  0.4808398889794356
  0.4220915451289838  0.9266067549172700  0.0790753064251059
  0.5670711396174113  0.9075163334082068  0.4823492744362324
  0.0638960172743359 -0.0506680757421142  0.3787388233505919
  0.8591506893999580  0.6668739199909344  0.9442101354356043
  0.1851523862424695  0.1780460969639910  0.5590982473713507
  0.2636711288512601  0.1959438688912826  0.4287992876274648
  0.6519304379286877  0.6229063030713381  0.5746693778521011
  0.1566350812347669  0.9036850163950843  0.4978810782985086
 -0.0185159961785208  0.9266693410092705  0.6028978217166713
  1.0637511032294482  0.5893755028895314  0.8960744521814868
  0.5638958518058693  0.9149120371475572  0.7539870467691032
  1.0417816518603451  0.9423839757139607  0.8879471870225499
  0.3723379198947676  0.5797292415720338  0.9012178464734171
  0.2138924412267093  0.3626222425898289  0.0366780238839099
  0.1728897530334261  0.7559851338414428  0.3078606104336981
  0.8901126211370558  0.0219504575592541  0.5478399875852322
  0.0805500165222478  0.7322091809336652  0.5100828563321268
  0.2914232970246550  0.7900683052521683  0.9684740043335870
  0.9056119576761965  0.8774218004507999  0.6429942813923722
  0.0293967271051104  0.2752429424261028  0.5121255141755974
  0.6672341891801160  0.4058115147627153  0.5513372199440771
  0.7178263841492325  0.9497289462989766  0.0940344966607969
  0.9300104882144236  0.6017707122347932  1.0150710913691148
  0.9807294306249570  0.9017234691727974  0.4672851300720611
  0.5796623899138392  0.2123404770252628  0.9055447873277844
  0.5338561700977128  0.8919102189014039  1.0062057706002543
  0.0398783937543651  0.4039860024480108  0.0183498813553988
  0.9916681623583418  0.8416333428291808  0.4079883921311027
 -0.0209790922595952  0.3837064068016053  0.8419660550564202
  0.7246401594917833  1.0284350653969601  0.8674461701328802
  0.6965186411042926  0.5917604217056442  0.5069809595962009
  0.3714004768488430  0.1979949658984516  0.5282325251103344
  0.6824068231051551  0.4133063673795936  0.9666930814740760
  0.4914646194236854  0.4151860877528651  0.5468546105200423
  0.9366740185597267  0.2598154006990578  0.9701607935804799
  0.4520158267385367  0.9552418474903397  0.1647210003027221
  0.4100404680677435  0.7139979173166283  0.5915011170553410
  0.7994149909434217  0.9334191936292991  0.6880713567994087
  0.4565538104181029  0.4101795990989673  0.4742039793195600
  0.7357777038022943 -0.0253533710602026  0.8088709053538072
  0.5962030819727038  0.9167939195112168  0.9752797197284352
  0.5152400415356815  0.0796594601924831  0.1755059135571636
 -0.0084168836740562  0.3334892385308941  0.7943004586715066
  0.0726054478799441  0.8194848557754600  0.2567425408198024
  0.9136308105390575  0.2341600377218724  0.2763759080463479
  0.5077049414973588  0.9357039440758977  0.1245370579741985
  0.8153505810743128  0.8720544823126433  0.4964396075550528
  0.7698672945250672  0.8800873512625094  0.1251793427573766
  0.6074875167442468  0.8518136027014414  0.0417196993394212
  0.3743919601972684  0.6696195118727690  0.9860601906843081
  0.0485422127897951  0.5267152162171607  0.2802835598445255
  0.0398243307228029  0.9415284736774923  0.3490827164131221
  0.3099104564845301  0.1551274175381127  0.5135510252176994
  0.3464306223629752  0.8836980823877574  0.2062574918350829
  0.6086208254474753  0.3799207943697572 -0.0004405541390835
  0.7079612765632369  0.2455180233882190 -0.0314986091634320
  0.2400279364608398  0.1027891595989127  0.3279773964470355
  0.3525871010692007  1.0302311056683240  0.6557800274776673
  0.0927988521328420  0.6790843981056336  0.8821072775829365
  0.7883774599553314  0.4799191236175023  0.9322593556826871
  0.5517765049263499  0.2906447706923984  0.4776686121644790
  0.8317895477646267  0.6119856104585089  0.9859093074539717
  0.7053545549926008  0.8693681579460014  0.0498224624269710
  0.8018387975274515  0.7423096968170417  0.9677499459931160
  1.0661120434051059  0.1537466275078858  0.2941811091881599
  0.5683798807739185  0.3184796043828317  0.6211640161758603
  0.4000199318458855  0.6391761262207477  0.2186959325077707
  0.4969693744990525  0.3678060263936132  0.6431326495527843
  0.7510231003934955  0.4752287703477340  0.8283263098057060
  0.4468539283005096  0.5625000052836020  0.2024605942723415
  0.8259052345797817  0.1344121143661453  0.2496295375320649
  0.7530078762884821  0.4451289557590741  0.7229299357003277
  0.5238238719544801  0.2124793053856692  0.8973010955556423
  0.6426451807383584  0.4467976273506710  0.7403999375726817
  0.5648122983743562  0.2291578883077865  0.9542391392121954
  0.6068349851010681  0.6122635240005581  0.4180502907187397
  0.2672192336874344  0.9192165300906633  0.3200317006765003
  0.3135874573991430  0.8418879091778010  0.2970535499922141
  0.2615924170087575  0.8407183716699607  0.3954187050779549
  0.1043245191726533  0.8912092574385718  0.2777728084947928
  0.4446858890109399  0.3318810078260084  0.5733104395949612
  0.5109481189209879  0.3251381585714438  0.6008101421520800
  0.3160179423000427  0.8868078312832963  0.3437711173816683
  0.5363227972489294  0.3903219515535982  0.5362459743678546
  0.2391352122429390  0.6083757801686102  0.1755174661862582
  0.7262166956067243  0.5316165685140497  0.8127660412993049
  0.5973843007704589  0.3112433013516975  0.9072491655397036
  0.7050217308211263  0.9791205747716683  0.1424379557889401
  0.6429848692784510  0.3427164002450823  0.9910045056013849
  0.4255925425601976  0.9137712014101167  0.4868002394363538
  0.4205732968827958  0.8075366088827122  0.4558716852773263
  0.9186579823388556  0.7667489628618823  0.9179182668359193
  0.8177319334536279  0.7866881226424699 -0.0126053313617854
  0.5964807892235371  0.7008233694199311  0.5750499395696977
  0.5647767459147547  0.6871401366758522  0.4964216731218107
  0.7607853293822474  0.4612337496514421  0.8921755373269775
  0.6909650298216804  0.4834825048971538  0.8060848856946286
  0.6142751126891303  0.3843965383519932  0.7948598817522841
  0.6976077755402635  0.3199033983169332  0.8314275694308778
  0.5002595593070290  0.1553059999401123 -0.0421229504214518
  0.4748384368591402  0.1739838485559227  0.8334373260685620
  0.4981418970915084  0.0860947081564351  0.7465486414702838
  0.9833157371283594  0.0844268866465659  0.3657305786435253
  0.5508011430970043  0.1666394456454131  0.9216141195599686
  0.4867139612926715  0.1297505101585384  0.7891262520574086
  0.4711390136616241  0.0237623359733267  0.8051214050541776
  0.4682641587077383  0.1568214499633860  0.6661048007680305
  0.8677958387496718  0.0446030222753660  0.2955540780707266
  0.2723138957156256  0.9487288465768050  0.4294697797787236
  0.2655102263002374  0.9017848138571389  0.3823375475951149
  0.2992500882125501  0.6844944543949678  0.2262196596011447
  0.6321171658879008  0.2113195085143945  0.8789443436686591
  0.8610497710729336  0.0098414121209778  0.7780117832757956
  0.1458603116693847  0.7989317218892744  0.0838068913744433
  0.6728441887997916  0.2278229172487874  0.7811771629110741
  0.6018065798820875  0.2478026591451769  0.6988318057977888
  0.2310383481724070  0.5245925221306945  0.0310555709991867
  0.5025789977677735  0.2059696900014672  0.6704546437773321
  0.5689437674679007  0.1669221971358754  0.5772074668672849
  0.5936860023458925  0.1097097530696518  0.6005327809848224
  0.2336874460876674  0.5132557586953513  0.0889025122666593
  0.5408070735087840  0.1032442239442346  0.6440012771700548
  0.4406726017090995  0.1427358429137225  0.4671094772537752
  0.4992728076722904  0.1102774841651867  0.4925386803603266
  0.3977515493284440  0.2619309169482683  0.9530482895429492
  0.5158526509647201  0.2286108825687935 -0.0037061808833414
  0.7424388138476423  0.2883482064631442  0.9770690536049388
  0.9432327598061101  0.8923349200871930  0.6124341996118317
  0.5071793016666748  0.9417733838358336  0.6802603552537005
  0.8884824906829056  0.8451609312304298  0.6091303593913818
  0.9576215318221889  0.8387785024812339  0.5814708903971010
  0.0251324254836136  0.9979707049831896  0.1864289030376827
  0.5175556919727929  0.1614262449402221  0.6255824946922712
  0.0107740096458300  0.3905253543421845  0.0564737160553720
  0.0280488974784542  0.5610405870135113  0.0646452098494067
  0.7096172363302599  0.2749484674293678  0.7884518230802583
  0.0023432820101624  0.8657799440122010  0.0652132570162779
  0.8695972457571345  0.4887421334540929  0.9773878030895049
  0.0245794326290415  0.9411882034282746  0.7048859575281434
  0.0929271730195674  0.7174524158707796  0.0335197314577852
  0.3610988583244710  0.7648596919106855  0.2775230310001648
  0.1330527047143049  0.5785255994186105  1.0395026790888289
  0.5004441433682374  0.2376364702213881  0.7753543889403179
  0.2398082002405844  0.5902574749450513  0.0196429759086439
  0.4635924397408959  0.7491507351459553  0.3742346043053044
  0.3625432036258142  0.7946049310452044  0.3828504663645552
  0.8367601098798498  0.2749815900338474  0.3824481397288385
  0.7950869496399211  0.9631371073424324  0.5478901325069395
  0.9000022071544745  0.9774071385967956  0.5237618470235095
  0.8434988116060869  0.9500174017985712  0.5121647174813100
  0.7007692575883960  0.4732045980829414  0.3233508209803316
  0.6386493663072719  0.3819516949834308  0.3327276651429220
  0.4457430814975789  0.1130954090624227  0.8920527861458151
  0.4806930041105337  0.0118075030053061  0.8692362525087671
  0.7341817264398393  0.2887501108733844  0.2832329803727920
  0.3981790468835135  0.0742448661749096  0.8277628081278886
  0.4093557590009058  0.0298144809209372  0.7831845516508910
  0.7798912742639259  0.2124578234719855  0.2676059177978132
  0.9078047579005400  0.9266560296203399  0.6623225699117888
  0.8883052068207821  0.9122349365698063  0.6019531762703172
  0.4989000608765394  0.0620189462102208  0.5797878957880176
  0.1142813534502674  0.4247959855389489  0.4212449190988201
  0.6250145402140148  0.6282650709994972  0.6543766693589520
  0.9337366120277518  0.1476638736689307  0.4550081271268356
  0.2609624564488194  0.3183622898724310  0.3431208263511554
  0.1583039671495466  0.3049367480929063  0.3634867951731270
  0.2591012986225600  0.2584295630225738  0.3585393231557980
  0.4098478342349628  0.1804923264189757  0.1500982171873748
  0.2035551064587691  0.2257987102247833  0.3459523665778975
  0.2560577393364521  0.2454865239648607  0.4214231314042565
  0.3057980184816216  0.1354558470534580  0.2942678294450366
  0.2639295046876673  0.3320894805567340  0.2760194821417519
  0.0749792246816835  0.4831185161485765  0.0436858792166277
  0.3396986064205791  0.1026616139614693  0.4050379904202721
  0.3326155418756321  0.0068689325036506  0.3122031291900748
  0.3196787146551440  0.3324055936266423  0.1834539185919161
  0.5943931439305850  0.4408702669887383  0.1822619826455827
  0.0771471456557314  0.5348291786623793  0.3187861601937412
  0.6550140556744816  0.4034914242835060  0.6954320698278399
  0.0131079572594442  0.4419593404828940  0.3243106187675565
  0.2088052787384920  0.3213297716333555  0.4378924852200213
  0.2037838605040374  0.2260734363159919  0.1187454413613163
  0.2577651068553188  0.3510413035428668  0.4486091239820902
  0.0727223708995779  0.4673423262720294  0.1039367276584031
  0.4293898991548776  0.2270661888867817  0.5904557282809191
  0.0638185443097881  0.4247724933648457  0.2915264591780109
  0.1162135372531223  0.4409285266281986  0.3594298533262457
  0.4404443527158101  0.0817289682787340  0.4955827072762992
  0.1936352063591733  0.1196856319557571  0.0891834548412000
  0.3954392617706221  0.0292246885159638  0.0605969292350291
  0.3969164439125872  0.0971178472042132  0.3023687982422011
  0.1442871362617687  0.1676898975021592  0.0027147651201889
  0.1751913789589769  0.6150238627851496  0.5543405948976514
  0.3351746168279892  0.0836625993737803  0.4608967227449373
  0.1246812930330595  0.5312516126137077  0.4474400107114680
  0.4451470825192584  0.0967341054049387  0.4308424332793956
  0.1745400012655362  0.4544553315863394  0.4296815649444628
  0.3046922993627281  0.2643484815354741  0.0357277230472574
  0.0243308624894674  0.5470520696356033  0.1246977943637669
  0.4843506667844374  0.0061900672229200  0.4758543143638291
  0.2387501371382712  0.0454244693505551  0.0678700840209966
  0.0748846919379885  0.5495526580168317  0.4790178892046977
  0.0078317151280662  0.4201506705674593 -0.0161479798648403
  0.1902092175943578  0.4454988244340203  0.4922630003743144
 -0.0007307436010699  0.2869751449346153  0.0305480555189766
  0.2112436596469067  0.3823017934751806  0.4176238483433514
  0.0412028544769864  0.2125762087714775  0.0137212824821562
  0.1587015446527126  0.4003510011207409  0.4534599812113899
  0.3051422302665147  0.1790039512229006  0.1118685732787224
  0.2448353517196972  0.1074715534169273  0.0515750689576722
  0.2787717824426523  0.0426471006308081  0.2839935614014507
  0.4605562119704183  0.0885810280447906  0.1839217368320679
  0.1990507806644061  0.1637807588061489  0.1345162146209719
  0.2594288789056621  0.8258338273578377  0.2246296064271085
  0.7214729341668226  0.1356926877018617  0.2147292155974420
  0.5088210186904799  0.1735543395902930  0.5683396120656601
  0.3300248949444445  0.2018361946489743  0.4996841908069686
  0.7091613369960246  0.7121841430316967  0.7291105345672533
  0.5566925817531312  0.6311952411913463  0.4510081341966045
  0.7780644207750238  0.6892570841223147  0.8145030652291064
  0.6353349562318772  0.6140078057575280  0.7164451691896695
  0.7337666395343635  0.4206144665992021  0.4852881944233373
  0.6004730518518973  0.5397836430921679  0.5468764639929496
  0.9190856500593368  0.8696264260908330  0.5554516646324108
  0.6122951338749426  0.6451296155795210  0.5931292474036480
  0.8246041754537381  0.4237420791970421  0.4973123812540723
  0.7341279123433929  0.6720892720788754  0.9179451019115681
  0.7733327452769811  0.3910680626771175  0.5072347960500798
  0.8842785572346835  0.2928112340345915  0.4594437173540973
  0.8333611827984662  0.3073925033940864  0.4908705850115692
  0.7415833243885132  0.6435241181046079  0.8040310082687689
  0.6436434261131782  0.5992284995890286  0.7767522393446236
  0.9297673742050537  0.7117406074882192  0.7047573880805758
  0.5401180062323052  0.4427729081620026  0.2774725606226428
  0.2370985929039847 -0.0029876200090757  1.0181449414985113
  0.8866262933764245  0.2390041057492263  0.4350862102055603
  0.7046327205439580  0.7427858539679818  0.8347682557939937
  0.5995370338324316  0.2791895358466972  0.8026497811469342
  0.5658201086194575  0.3480525949317474  0.7268348890406653
  0.8105020040033010  0.9821465850656249  0.1805156619858838
  0.6717756577514790  0.6638297884956299  0.7214496348780802
  0.6627115506583062  0.6774326909029844  0.6608806936556634
  0.5531693517826890  0.6151204656720656  0.5150106941716800
  0.6784777363314003  0.6375434186222615  0.6146358949104878
  0.6379982392212340  0.5868506572088551  0.6090922730602755
  0.7907313869249840  0.8453554091240104  0.5296511357751424
  0.8371323188770742  0.9368755755313072  0.5804326301059517
  0.4584672730335711  0.2877283206855940  0.5310355700247134
  0.5133274473126190  0.1924309067822586  0.7313873898263744
  0.5094457423916025  0.6739635542213236  0.3595892813523083
  0.6089113048058968  0.6259002228672410  0.3541954204250255
  0.4033910917739812  0.1626417614506038  0.6442537318698008
  0.3621605916972855  0.0079441077078652  0.6124332568410237
  0.4174391891352279  0.1130172552211745  0.5934677036906411
  0.3600548267719240  0.1479566729985024  0.5227937477243425
  0.6733388762544131  0.4082599881657933  0.9178176576811178
  0.7276019746217439  0.3992744067733060  0.9467508038369170
  0.5254756291123701  0.3314910084154982  0.8268459747821282
  0.6331301532663561  0.3033615831842656  0.1861583324781153
  0.4302094952126906  0.2565195985167867  0.6935790411113605
  0.3338893105461051  0.5336856079458948  0.9953335625028592
  0.5295957461533484  0.3350593045532158  0.2551892038407288
  0.4539879154173834  0.1039211315447072  0.1255334200493088
  0.2958120811966259  0.6352735715531900  0.9433580302602440
  0.4729078082167439  0.7805809743562908  0.4822862174776562
  0.4087639883574222  0.7498196169584298  0.0084853053010786
  0.3581310576576815  0.7639207452717544  0.0471194845341567
  0.5498898468253425  0.7972346561044875  0.6116485108190577
  0.7008517937087438  0.5054114398566492  0.4265657382257808
  0.2214747137420283  0.2135631325222658  0.6863823208632104
  0.1884477511848126  0.0594991712135474  0.9305514147316465
  0.8459810198755627  0.3819997311740658  0.4083580260899929
  0.8406928285427657  0.3687216319594416  0.4701282658907939
  0.5241987351487215  0.4339083319649858  0.5859696412953499
  0.6578646061865264  0.7077525820961549  0.7673638179106586
  0.5882946317105527  0.7301434152265690  0.6834447842576660
  0.6342503954800718  0.5130807404665479  0.9508917224791558
  0.4059286828601349  0.2842550897963022  0.5679767221117178
  0.4480607148559271  0.5913134892215717  0.0819482587353427
  0.2493614350143981  0.7624494534341141  0.0051054100638062
  0.6602823654358672  0.5663051461641878  0.9836478600099775
  0.5747465882799699  0.4678355686724108  0.6591995245955971
  0.4606362248089606  0.1719161203501436  0.3459279077256969
  0.6572719567133908  0.5559611894639025  0.7305449230905056
  0.5616604437709212  0.5148335433179978  0.7057389249052239
  0.1579008476314607  0.1007282732198265  0.7421571792888735
  0.2926259220839429  0.5793532745756425  0.9813854431303340
  0.5127976565875874  0.7516476820978557 -0.0112150173267891
  0.8904871966227580  0.2977849881812494  0.3956485540233554
  0.7928471469929560  0.3658564548697121  0.3367807954156695
  0.2173682843139009  0.1246154564731250  0.8684370301120650
  0.2287688305547584  0.0803725233557154  0.8247919934214953
  0.2480861918898538  0.2119445911825031  0.9725092509483128
  0.5463646559426570  0.5575715197923267  0.7480961170859033
  0.1924716279929767  0.0312501793301792  0.8243314215083313
  0.3545334495264899  0.3360091604267672  0.8279933256029257
  0.8054012710310517  0.4734409257862049  0.3610281995050214
  0.8012059484383516  0.4263311887955132  0.3180028934724343
  0.5486397306354356  0.4966521286696063  0.0299072958381212
  0.5200798254202615  0.8986921308761590  0.6241483843320710
  0.5294623825662651  0.9327839089881460  0.4588297070693012
 -0.0028026016953646  0.3432942331525402  0.4683454921087482
  0.9501361542560167  0.3796774416292683  0.4470887076546739
  0.8880217748376625  0.3434242502266967  0.5023797942363722
  0.6698408884921188  0.9393952400342929  0.6234911676050626
  0.9158036259850574  0.5088949061595749  0.4991206846486335
  0.8139951327419023  0.5553277004351023  0.5104783532415699
  0.7120783245906980  0.8662428119432011  0.7671204954921140
  0.6771002902877860  0.9642454253997156  0.7972662559190511
  0.7191096701897081  0.9759903500539527  0.6933294187578071
  0.4234008545512464  0.7761069297645041  0.5248662222054784
  0.7180748671403018  0.5468716605432766  0.7521633578272492
  0.5762354646630773  0.7415458272300026  0.6233107402955523
  0.5886034951382456  0.4702764814738287  0.8837289317006642
  0.6389490816289035  0.2963276806032233  0.7040752178162178
  0.1753087835357137  0.9349036651052315  0.1353297357038543
  0.3316370595555767  0.1786731190277503  0.5627718641616639
  0.2517129398637730  0.0129474825850253  0.6399948128230448
  0.7198646693361144  0.1185866323204605  0.0460123232675855
  0.2652261801052034  0.0640013934667717  0.6134626572794687
  0.2943670122625250  0.1620664383696207  0.6635903602655180
  0.4030747568400203  0.1928249282200887  0.7499735520073406
  0.4281796038878475  0.2877067246509059  0.7983014557953891
  0.6778556104954344  0.2823827872790622 -0.0181673439338530
  0.4886926855130539  0.2811114187620568  0.8189554544679059
  0.6947256405798077  0.3769433820599863 -0.0008622756207376
  0.5240192490352669  0.3581843178767650  0.9452503132725547
  0.4938223794203583  0.4521367968702042  0.0859961044477302
  0.1844244279671256  0.0872442117257683  0.5308409602780274
  0.4782338615465657  0.8230670035842209  0.5261026884832857
  0.6229892154164899  0.7156860530138307  0.4442443507087096
  0.8629968970405337  0.6166693187658783  0.9402945966721080
  0.5905715187133449  0.0053173632891514  0.5823934505864304
  0.3356496569384441  0.4999308871772711  0.1849147088686447
  0.3440233488268127  0.6082875091356342  0.2096718807615238
  0.7852222026674507  0.1673650269141469  0.4567731003089748
  0.7827229496519826  0.6617658006498185  0.7060766019819996
  0.1721786273984205  0.8863583000093275  0.0858507025732035
  0.4428328421790095  0.5267378290113841  0.1022169564691297