C  Cr Ni
 1.0000000000000000
    39.0110871383406135    0.0000000000000000    0.0000000000000000
     0.0000000000000000   39.0110871383406135    0.0000000000000000
     0.0000000000000000    0.0000000000000000   39.0110871383406135
 C   Cr  Ni 
 213 1596 3725
Direct
  0.4142429448615560  0.0563612593269441  0.0157870221337801
  0.7951805019417607 -0.0633121620783157  0.6082507154369712
 -0.0126840150774865  0.9734733886246929  0.6794667945824998
  1.0828109793203577  0.9684578485843305  0.5161336833672204
  0.2030050514706999  0.4274205903857891  0.1312574851628956
  0.1505731128453811  0.9578307817376228  0.5459563494326133
  0.5692941709967606  0.8530371954277632  0.4268947488700249
  0.6264470218265681  0.8261992327063511  0.9504176384358367
  0.4158076597114445  0.1787117027036215  0.4364612134450084
  0.4152941565974573  0.9534255992742252  0.3038899744517281
  0.8443692732359487  0.0086149476081059  0.9161377168050867
  0.2088646508079667  0.4274219693772195  0.4463386917471632
  0.5647667483577639  0.5423758638544973  0.9641529443691483
  0.9778369623157531  0.9285691675818238  0.6063227902051762
  0.3725795312485560  0.6671391418695070  0.9910032819494944
  0.4729511730834868  0.2766625141682449  0.4797506403061443
  0.4237400935276023  0.9289426140074123  0.0772475424886000
  0.5665708845019878  0.9068899235177071  0.4805038841565162
  0.0625895381613069 -0.0504377838198213  0.3771948258584279
  0.8564814191404277  0.6659707522886338  0.9430127136371967
  0.1864508144023219  0.1775045851064068  0.5584230158029315
  0.2414069506790317  0.2312739562437079  0.3853809312767875
  0.6906254020819949  0.5841308692962073  0.5905479343291715
  0.1572935137405142  0.9012092463217677  0.4998021526926104
  0.4274683428279495  0.6486748139120188  0.2524928416516599
  0.3464620443248873  0.8836814635264514  0.2074915200819782
  0.7347379741731278  0.2463033170088294  0.9663940570392621
  0.4388801357915865  0.9728865858787611  0.2825387625964255
  0.0446272072209395  0.0629576632168405  0.5273025585014378
  1.0036339622950743  0.3110227371234031  0.9737341100092678
  0.7796305173973256  0.3157606420170276  0.9547984893346911
  0.3478394023740472  0.7303518165197175  0.5670651514257514
  0.3523120372142943  0.0299668374107340  0.6555183609513449
  1.0625489421055887  0.2722293434335952  0.9407419291360137
  0.8006447684843059  0.7420872129283370  0.9628506468063140
  0.1555300883429540  0.0111916737470795  0.0187647219947651
  0.8305451904269324  0.6097522728199144  0.9836335644428135
  0.5361831134189626  0.4948743409347359  0.6706067797307448
  0.7916438855185054  0.4773909755745523  0.9281201485507434
  0.9241539348343458  0.9080717480347960  0.9426288009371588
 -0.0313671238194703  0.3952490641798385  0.7754971635743266
  0.2476862138719602  0.6859295383513118  0.5372202119799427
  0.1311317433531755  0.8478324461788270  0.2640639236522591
  0.6279047546407621  0.0852120692639149  0.9329488939894339
  0.9410847148120821  0.3593007282760220  0.4824922584879581
  0.1392521687443389  0.8475238745578486  1.0027813452296459
  0.7626431174950604  0.6576204892710223  0.9591662057799363
  0.9186983912187030  1.0002970685077317  0.9377412763045055
  0.4447878276178811  0.8485335404461410  0.1370500877528165
  1.0352097998759793  0.4184537623041560  0.4865623331145537
  0.0384042348186294  0.9429169061680694  0.3485147027621576
  0.6070954480290887  0.3170623363207737  0.0151895380062858
  0.5361576403003594  0.3463575372549601  0.6288602267104560
  0.4944046331278220  0.0716682704301018  0.1377319201667986
  0.5597765943676420  0.3266753948704088  0.1192545282598060
  0.6275488092122632  0.5452663357709777  0.0021939990652942
  0.7884336366607257  0.1630683053230808  0.5707123305943650
  0.0477365975599003  0.5267493720759860  0.2800247428643708
  0.9483114542959219  0.0350908852846026  0.0623973482299152
  0.3126242078092373  0.1569559736810483  0.5128451404250375
  0.5647931836255456  0.7085751658388536  0.6532642829434749
  0.9136778308567971  0.2304512249565053  0.2764811833452315
  0.1787582919388878  0.7515643288423506  0.5486739968302766
  0.7806030634883937  0.9545568101989498  0.5156600310031707
  0.0927594086839176  0.1688177372987968  0.5623083275589283
  0.6064826810660126  0.8493275675854083  0.0482599020448420
  0.4393433144210576  0.2467478370108896  0.5453158102648270
  0.3511527233328870  0.8150350991324720  0.0439395968062512
 -0.0762737204366273  0.9103296539855045  0.4067230137053067
  0.3321016659734047  0.6250400790689037  0.8686439204353107
  0.7689477246559214  0.8736307946774861  0.1255707086528381
  0.5650330559828717  0.9147547006285441  0.7535867999973117
  1.0280681028980259  0.7465516189740566  0.4487790699667875
  0.9371161056387455  0.3242947295792930  0.8389786430447214
  0.6318821087100773  0.4005166726046833  0.4790597354012981
  0.3464267863191814  0.2032920452789243  0.3951589416324635
  0.4078273259325328  0.4515385496980808  0.3709566113216900
  0.4550789394597199  0.1534682322323734  0.5596368288627639
  0.9866020968965880  0.9763442039025654  0.9581538409351534
 -0.0585903816364721  0.3093784270779749  0.0191472839038336
  0.6119888556850496  0.4137908585844622  0.9528595775989609
  0.4934600480096100  0.4155724623055447  0.5492595750316978
  0.4785483312558240  0.4196572244132265  0.4779599046230312
  0.7370588520178196  0.8629483177215395  0.6858712251307539
  0.1733489894674031  0.7566251657224299  0.3064970849544295
  0.8014548775542880  0.9328673300488115  0.6880409214037377
  0.6068921420479452  0.6043963870896801  0.8582769300713461
  0.2972998458212556  0.7890913596313998  0.9663489896509938
  0.8776984368463736  0.8501090093033877  0.5420065985860035
  0.0470368158965270  0.4592948328322868  0.0710969703754888
  0.8350291718178857  0.9743924358515091  0.0473989697520413
  0.7054106107953099  0.9234358996371436  0.0967195470254738
  0.9305457491531938  0.6009186844322705  1.0121571096673034
  0.9835083569244761  0.9168317136395935  0.4816774821953615
  0.5733323653805130  0.2565498630893856  0.9648252177968779
  0.5307905607805262  0.0894042453590242  0.4329861544982795
  0.0442996796947995  0.4038389880889231  0.0161821504194486
  0.9899032302846607  0.8369947291549350  0.4103275297241884
 -0.0181068746663120  0.3800763434891867  0.8421464071602872
  0.7456114663502241  0.9280536282963422  0.8946003575773083
  0.5814365723475461  0.6438581629759625  0.4914956890602837
  0.2417314498097712  0.4864644897087220  0.0707137219911583
  0.2948695459923128  0.6773385158116154  0.6114708006394443
  0.1701156349783555  0.1404104056449197  0.1616273859520188
  0.3822965865231401  0.1940195132252939  0.5338702911483333
  0.3873414855077942  0.7874809607688518  0.9298257627769561
  0.9271450479496974  0.3554069370168650  0.2416842257473492
  0.2920517057721033 -0.0156580221435348  1.0075347333625235
  0.1871493779719851  0.2978600255018620  0.4697546847788105
  0.0065133129141869  0.3434723564452946  0.0357447650064629
  0.4721028486441773  0.5788010465703363  0.4658907451680687
  0.8373774523066420  0.5555873637627190  0.3183834316410509
  0.5649738338575701  0.8586191760386598  0.6852411959688385
  0.4903732833130048  0.8891575735062653  0.0653019121862085
  1.0432417979272302  0.6164032765623945  0.7683012686803719
  0.8898361672125350  0.4734444615397585  0.0734146992097295
  0.2627030862701030  0.1653914514978166  0.9826729843408215
  0.3677783394134792  0.3706581004129436  0.7962257826081937
  0.1996021442230300  0.6817209539946968  0.9830005989645059
  0.5579148999002012  0.2026054404654057  0.4686391210985437
  0.5672446665485267  0.9991680870567085  0.4790747857488729
  0.2946807383875716  0.3420002140501236  0.3139566771760606
  0.5124849904213096  0.5714052938827182  0.8853586995393559
 -0.0068221511309655  0.9850308428725711  0.5372781176723426
  1.0348142242494540  0.9793216232599501  0.5980651868057552
  0.3880104674711472  0.6278629960001579  0.8245756389128039
  0.8991376203590522  0.6049916374846124  0.2606976371909127
  0.3729459994110143  0.0514919235473521  0.1391684640373433
  0.2368138711813156  0.9222354257904078  0.4597588698481384
  0.6729935656691018  0.6928276334565771  0.5244410716489251
  0.0560676614368347  0.8788553863624037  0.5022118219892969
  0.1819626403959491  0.2638073611492516  0.3568080516514007
  0.2797962752133162  0.7729964262247059  0.0451387687524904
  0.8223099396796449  0.1167009204515951  0.4855961409727227
  0.7132538048827070 -0.0214405335151312  0.9400514155240077
  0.3304810333889653  0.2246238122959409  1.0247902129068960
  0.0978258276773890  0.7352668096887131  0.5134093997302123
  0.2771553075765575  0.0394981103850851  0.5635711709221202
  0.2589424795377649  0.2546040767327261  0.5402573317185269
  0.3598293701350715  0.0644885907355688  0.3931822621149851
  0.3628451173725576  0.7648900253630975 -0.0037053419682294
  0.4805064845377531  0.3406496761609274  0.6711969981211477
  0.4226983795056738  0.8399214591652671  0.0436956583204292
  0.7356439692467157  0.5898836202708743  0.9036862625544360
  0.0827282097154862  0.9267425857189008  0.2921873313064862
  0.4629111252538265  0.0930557502384054  0.2248446374261368
  0.8714835417225463  0.4306047501068807  0.4922063243942238
  0.7779400409647222  0.0172395123532915  0.9439880703443332
  0.6235358517987261  0.7444795868346751  0.5990719037429518
  0.3687878372257834  0.9443532635834859  0.1288860149428721
  0.9627545745166413  0.8677281305265624  0.3367159082479691
  0.0730797044330263  0.2153427998656510  0.2770432701195551
  0.6871001487458991  0.1151800610401564  0.5419328682747934
  0.0610610496125486  0.8501494954678132  0.3688340657583690
  0.2688686370827578  0.8613465735082979  0.0532328190372520
  1.0005677395089638  0.8264008137251123  0.5083517398998130
  0.3096113778555000  0.5430305135705843  0.4227386176871733
  1.0270737441277140  0.3286421141899140  0.5788681960367930
  0.8843306656319085  0.9552633821899909  0.5677630699428075
  0.4470795369669507  0.8136961958962998  0.4933607813520042
  0.8638080796354833  0.2872810332008029  0.9548761301916697
  0.5712395771596679  0.0245190370263290  0.9516241066914840
  0.7263231082368888  0.6082274249227678  0.8354515486989280
  0.8094603652977044  0.6809833250637161  1.0146900051109999
  0.5968429211738718  0.5743632076827067  0.5885099666120391
  0.5152061099313033  0.9859225436757295  0.1679326498595172
  0.3518309222548539  0.2551060503216744  0.5206149516993148
  0.2136853404278115  0.0772349522097919  0.9709580527762172
  1.0531321347982621  0.6042224788801281  0.8345730374541982
  0.7474541745420366  0.6225820505272643  0.0248557566957608
  0.3264790517546712  0.5825318293936004  0.0025398272088378
  0.0637981897373972 -0.0326453941023515  0.2527866143590967
  0.1105329845378964  0.4738301591853163  0.5727635850851399
 -0.0040363676317848  0.9047532558999385  0.3885063621330204
  0.5372157651982338  0.3284470854333065  0.0423233843434252
  0.0195479450761503  0.3474381231456988  0.5092088246136619
  0.5334321557800181  0.1913824064799239  0.9868469817142822
  0.9173037110644889  0.2785174560204100  0.3254316788920474
  0.4511766192973236  0.9086684665870446  0.3504483213689064
  0.2214551830721408  0.9533519214457550  0.9832337760269944
  0.0575841856825138  0.4172235903048195  0.6298595904913238
  0.4660737963763970  0.1020275067924675  0.4614052974899103
  0.1304255390575281  0.8821960367458860  0.3757871968206993
  0.7601766188799309  0.1742969827895654  0.4352931758706540
  0.5819764103906144  0.5873017023390457  0.2114430856556629
  0.4540475021806184  0.7909667273096788  0.5615008090596537
  0.7235133151861091  0.9380935228454144  0.6559619246141895
  0.1563529602850422  0.4762394927828844  0.0414917048255848
  0.4576604030983047  0.8297590150905173  0.9495026601669507
  0.5840749093861114  0.9287107744124973  0.7832536373266182
  0.6888838445689688  0.9553047380449344  0.1059792963472991
  0.7873235260396297  0.8118349823938059  0.8937946473690596
  0.8662641098727798  0.5989578719559329  0.8910582802591017
  0.0446769632616385  0.8098222748464302  0.6035682237025194
  0.1054868806295853  0.8381796448944263  0.9376010506853667
  0.0516157699193831  0.9636667335638192  0.9252458296502288
  0.7345604436646578  0.9485209525458941  0.8028656998059103
  1.0080248350558638  0.7162527955761152  0.0200811750531110
  0.5255998256789411  0.9004142857083710  0.5725329501242766
  1.0260497167794018  0.8906261944849925  0.9566226721741872
  0.9229814584783119  0.3267290257370060  0.3717791128772133
  0.3794929430628495  0.6958527664019725  0.1645275480263297
  0.6077029320957481  0.1885533791307201  0.5549673833367950
  0.1143995673250945  0.4063709570118278  0.4681169689443240
  0.4595172930767717  0.8914843620264356 -0.0004503166285085
  0.8508408306839416  0.6802886406125529  0.5277109797830984
  0.9708131396420067  0.6987501715348901  0.8646388713856507
  0.7006195820029959  0.0550833034238178  0.9164331903563639
  0.1769338214868555  0.8058175356412827  0.1212057065891373
  0.4072852898415163  0.7313051847324705  0.5178471169687504
  0.5345710612393254  0.0055272773872514  0.7260089996430911
  0.0964236383622376  0.3360312091344062  0.0575097368053992
  0.4360251461548976  0.8775920041073489  0.5851072849934590
  0.8732783941925671  0.6099646149626856  0.1658023393670079
  0.4968757303092944  0.5524276500733405  0.3957973842968020
  0.9649307731696263  0.4943001548213425  0.4620541533779546
  0.8601164110354450 -0.0454489886500066  0.9792089760761262
  0.3027510481389093  0.6175773480915900  0.7674723564944087
  0.4856048383872606  0.9766007504021131  0.3682321312077045
  0.0850023240423210  0.6186382134969720  0.7978963981685764
  0.8989619309328606  0.9519473983174866  0.4177673177364917
  0.2558023678440385  0.5803998687576165  0.6992050436428323
  0.8148001475107263  0.5978326514707515  0.3264569415704928
  0.5289708321266885  0.9163956914539810  0.8032460380948716
  0.7944066612838883  0.9122895926837529  0.2681742392077050
  0.7494193959779075  0.9739952818887626  0.3474323071597858
  0.2535446300298967  0.7601226011111363  0.8478547415544991
  0.4993980487047812  0.8635173828717916  1.0233051726307287
  0.1961234771473287  0.7381461268241445  0.7189467650073134
  0.7837282592498204  0.7596348147572758  0.4308310782045632
  0.2718021650057758  0.6547264528421306  0.5736894966785048
  0.1150706137880464  0.9916357802520859  0.5474776532605443
  0.9242184218006997  0.5953481209059072  0.1315696953765541
  0.1075696503741081  0.6664464621821813  0.5758777293575004
  0.3070956654634125  0.7059243750625668  0.5726283301895928
  0.1331404601993137  0.5148277625515647  0.5052778524154486
  0.7258620161100889  0.7287616308296558  0.1890597284102124
  0.8971401663391716  0.3486484141639737  0.2039172068069122
  0.0955621657135576  0.1379031330116964  0.8265161993529931
  0.1413317836038731  0.9205308261784790  0.5815988386733668
  0.8472930709723762  0.3626120775810581  0.2408155565044823
  0.8427053324908638  0.3180170068487683  0.1984363197185205
  0.3870798708383958  0.7043951211381915  0.8461631588808086
  0.1188487970593351  0.0499639545959894  0.7396808473803769
  0.9438048590619823  0.2698979624648249  0.1892963326342742
  0.6014805171122217  0.9954802859058001  0.0421571595479521
  0.5750364198599133  0.9554052895850526  0.8766705865204834
  0.7225453238499422  0.7004575024364293  0.3127897881359464
  0.4280153538596859  0.9316755423794147 -0.0075379500982706
  0.8407877874214549  0.8181599010534880  0.5444249763698876
  0.6908788980856558  0.9304799572184335  0.4002433878904361
  0.1539263034688240  0.5058573625918847  0.5687081624523981
  0.8656554810483589  0.6010818900222018  0.4580665128372623
  0.7762008138496100  0.7143431147351793  0.1555717466605238
  0.9679100416027914  0.5526220422222816  0.4471683565221161
  0.3494988583864050  0.6568938353982138  0.8367708526773439
  0.2550506938134102  0.7814407046428175  0.1819952747893202
  0.9882406324365974  0.7166180456536991  0.4587660557448205
  0.3001725577815176  0.7973560250440318  0.9151155560330252
  0.5127131826239958  0.8099485442190419  0.8156394790217386
  0.1158383279138039  0.1112351907908341  0.9479331006321697
  0.8937863895755789  0.8854882302633867  0.4353526474009628
  0.7848802944770179  0.8064254470171730  0.2428511782879136
  0.3155780183994393  0.7880415974021960  1.0140851643861029
  0.3224809028469398  0.7683310186766066  0.5420894699106710
  0.2884144322274590  0.8385583562789399  0.9628672102564200
  0.0362766921165387  0.5564639090797546  0.6317248595809452
  0.4012417044743047  0.7458200586946457  0.6294345182290383
  0.3224790353181611  0.6967321905374004  0.6483217195278178
  0.0852966414996658  0.5901446364879050  0.6940571623206107
  0.0355626048067221  0.5837733367537624  0.7317965194875033
  0.8058518509345614  0.4556135167644235  0.1945998832870951
  0.0460983349188329  0.5713880557071271  0.7930160909156648
  0.4996926395816859  0.8535050269965756  0.8621624121204506
  0.5937366975681594  0.9897300479600882  0.3435338065625391
  0.8315841646720267  0.7305486310705228  0.2271302717159528
  0.7763737806567443  0.7160678243808092  0.3827869099701859
  0.4402947371509561  0.8889007619937691  0.0465819173032502
  0.3257287445181942  0.5606600598010749  0.7831395135149354
  0.2872975563645063  0.9441238031965735  0.7211789511187505
  0.2285189337805768  0.5163086586761799  0.7539210437672149
  0.3315806430609821  0.8597121424362058  0.8628381043411389
  0.8551886202432762  0.4253601402734706  0.2205719007347925
  0.5144015391687993  0.6972153140206573  0.0058427092121367
  0.1051989031923572  0.1241742242565859  0.8870171521686280
  0.9534977345428918  0.8736934849469571  0.3903077072603791
  0.9450384988964916  0.8134086682285540  0.4140758575148913
  0.0670315545483048  0.0725975885747227  0.8885690713149793
  0.1325135157635377  0.4460928437095848  0.6125904008921247
  0.4404599248668356  0.8290225295603377  0.7377851572841047
  0.6199693874309027  0.6551643339065334  0.0010272371328108
  0.8395013176627419  0.8242331797218109  0.3163881628550502
  0.4999132289573703  0.8221863397023910  0.7571591120763570
  0.4244615939237801  0.9498858936955585  0.1270807787932680
  0.0191347029166202  0.4501596552463901  0.0326295885241149
  0.3458473287994744  0.9672891811841323  0.8487796075550629
  0.3577466467782088  0.9552664021649310  0.9083255776576298
  0.3879015340712843  0.9246761553460067  0.0380047353744240
  0.7943054941299458  0.9279462122679644  0.4392890673530709
  0.4206972586885865  0.0491576022293681 -0.0414901754837521
  0.7814857815313118  0.7603186240619706  0.1993951888243864
  0.7339641177825771  0.7793812103399660  0.4566180891960117
  0.3079338521127051  0.9168009461971800  0.8440576291253895
  0.1433893464211666  0.1752705373346550  0.8882416757357821
  0.0958576586996871  0.6040087458065309  0.8603149769829109
  0.8916147028219296  0.7637579770709702  0.4663159435999972
  0.0293803441653553  0.4947162127406096  0.9121782328227994
  0.2117172214843116  0.1626282174119880  0.9722148279430277
  0.9436134269704803  0.8235591141361854  0.3514727769447625
  0.4829315986670554  0.3807330004301652  0.1652109758813934
  0.7601122359628655  0.5646557586258222  0.3164041694273109
  0.7154321948237898  0.6411654780733155  0.3307614340282367
  0.9039110389880501  0.7959584217982797  0.7959879764033834
  0.1467914204669003  0.7456958571280783  0.9214375733141453
  0.4358774077286161  0.4112534861151103  0.1373135600681598
  0.4824591317946946  0.8701086640535654  0.5699703997381272
  0.9726827272520904  0.7750680077278884  0.8868282730097454
  0.4251175283812619  0.9219634867979914  0.2568519432403135
  0.2096114085543521  0.8603105478801901  0.2015215877398991
  0.2206287009043607  0.2449721386249581  0.7918494774836488
  0.9024840947945174  0.6465316593838949  0.7518878397363437
  0.1225817898844767  0.2008203191968778  0.7672477225089297
  0.1527748905194110  0.8484372607245503  0.1292771598368557
  0.1726145444939749  0.2073930095228564  0.7256841462486211
  0.8595515896001176  0.7587628226428388  0.5527865388901293
  0.8788376844289152  0.6854112376838413  0.0874578588326410
  0.7538024599343063  0.7057323370165877  0.5252304286494119
  0.8838253306297658  0.1786606560883404  0.1982865166927815
 -0.0259246597874995  0.0167070309216925  0.6588418110035533
  0.0684326873448680  0.0433271898991166  0.7816957523278618
  0.8488420100967691  0.9620157639715980  0.4515852149706245
  0.5257419238368706  0.8538364609970399  0.3034699759008567
  0.5297049303245686  0.9026142174022026  0.3493461496637795
  0.6216628189095992  0.7469153913790499  0.3177531134791457
  0.5167576295854639  0.7431271794711241  0.0501949455985750
  0.1675610872397455  0.5862728008827300  0.9369582915733216
  0.9235288587267212  0.5561389066074791  0.0336985849831002
  0.0996259298101388  0.6842904635503257  0.5108340086312209
  0.5376214131348688  0.9542975573423790  0.5745206661229809
  0.1811859610945577  0.8111037600324967  0.8678679902096217
  0.1897362852488352  0.9016744954392740  0.6947978103920516
  0.5889692677730675  0.8791323368981827  0.7225539189323654
  0.2427929222396111  0.7028856565154949  0.9664750298287819
  0.2755914154516442  0.5532295100910819  0.8199387760716131
  0.8470041755655068  0.6575064805565873 -0.0096315674359828
  0.8864044798637206  0.7618517615073814  0.2363724711577080
  0.1371914805204396  0.3084326417811700  0.7540775286859646
  0.4740766335733979  0.9314050745702777  0.0876186584302384
  0.5401042735181898  0.9753223793709308  0.2700371533659062
  0.7177376604157019  0.7763862292121927  0.0045627534583812
  0.5263666147657193  0.8696906650762779  0.2427972325778222
  0.0498763549208684  0.6895892753707406  0.7203940137278270
  0.2312740393051489  0.2319212144022945  0.8505287782953240
  0.0715696185133455  0.7672476380709388  0.6056880250362545
  0.1519212939125406  0.8554019791912882  0.6867475434722174
  0.4023129927697628  0.6626263654503524  0.7938226220576777
  0.9397431773428153  0.1902274782752510  0.2692035431764466
  0.1244525920330609  0.9417861314991186  0.5048024327919380
  0.4674496336058404  0.8269197742492523  0.0628848988988910
  0.9879031290240758  0.7336759130170736  0.8364954576622666
  0.0510948236446872  0.2218809216860721  0.6870047287330052
  0.1831660553791952  0.5069024342664995  0.0137003624080777
  0.2676021638756764  0.2832318450510687  0.8563927644338355
  0.2785155189150712  0.2714212300973476  0.9137017915930756
  0.8531654369453201  0.4095102253269462  0.2820557064853886
  0.9036341513424556  0.3977993995957297  0.2499489295661234
  0.8797126934841587  0.6877863429330050  0.3155641302882616
  0.8945230297182933  0.3320305477220412  0.2696293259093544
  0.9461130902736394  0.2562832029130361  0.2485421045442482
  0.9518593956030471  0.3142236783687247  0.2332465076106851
  0.8955731003940346  0.8559699156561180  0.3259769051730465
  0.5596271196562980  0.9702030509261564  0.7486013341843403
  0.0311118098136575  0.9263055454350799  0.5944355561982554
  0.0682790869995008  0.5106551490765380  0.8105801288909800
  0.6631141584684198  0.6260369776165591  0.2580507391130382
  0.1190451550947769  0.0802599055437840  0.8464292694730989
  0.0813610781474400  0.0273545481577807  0.8516947215860358
  0.0106249828985744  0.0352977930479184  0.5514770805272150
  0.0526457372404430  0.8301798441653835  0.5059673764072293
  1.0439768684787345  0.8827095516785362  0.5523532959218735
  0.6742269089927624  0.7460081044902518  0.2233927191139295
  0.2253220970364014  0.7732245269167023  0.5621671221039934
  0.1812379625238604  0.6343097658094708  0.9782212102559562
  0.6689566760576089  0.6864485355763427  0.2406313262746178
  0.0308190060072912  0.6272038536413309  0.2712063087569339
  0.1839471435508296  0.9221302538173334  0.5380842061217798
  0.7562493096939406  0.0510955900615486  0.5587870662090395
  0.1835951225436828  0.4352955343678784  0.0305549849674100
  0.2396714662125723  0.3543429969973393  0.0096759843564183
  0.9644885394138296  0.1654163213643350  0.7229039949349082
  0.6712519999366081  0.1598486247207634  0.4741203080668311
  0.7194472450599982  0.1411867986850219  0.4435391686141796
  0.8942265465178671  0.1875422318476825  0.6406655456607612
  0.8060590181269311  0.1463525070295122  0.5242189762920030
  0.1895280606612533  0.4878749944369040  0.0764637415718714
  0.1324320972423967  0.5633463675697983  0.0985269568058708
  0.4668905487595432  0.2283726637342699  0.0948611714829631
  0.9482032590783324  0.4739111436730648  0.5734241697099652
  0.8928532859461997  0.2191314081814922  0.7459966310273823
  0.4608654668484711  0.1852491719801972  0.0495144992689738
  0.8224679248603454  0.2408239753616893  0.6643382482864637
  0.5129811798746314  0.1527518400750107  0.0784280521466343
  0.8289542914500891  0.0756342842839279  0.6968288531774034
  0.8166585771676409  0.1195295041648360  0.7380413027420344
  0.9375397396951602  0.1030205762833635  0.7810606627508919
  0.0356803386836091  0.1444475021698162  0.8052355251568379
  0.7923797937945466  0.4660496433607216  0.6244913182097845
  0.9162667643610634  0.4469267532545831  0.5133016004877848
  0.6003595843486950  0.8842809205641625  0.9560155841461345
  0.2364717794417874  0.4614968667991084  0.0308080012451067
  0.5725965610568904  0.2428580214912350  0.0699857790641134
  0.4135201203418898  0.6333546478044269  0.9242659197764606
  0.6805343664683072  0.4421793059805398  0.5353745115664975
  0.9352405760365486  0.1372060840163217  0.8900838730049934
  0.9971512547991996  0.1277929313293961  0.9052172352640828
  0.7720781778925718  0.2046894331564259  0.5982772465574950
  0.3566159342206764  0.2555506835213735 -0.0042289016716266
  0.8727907181646430 -0.0058063975304242  0.8416450737071483
  0.5127554865929079  0.1590365985923401  0.0199559562811594
  0.4058253046583276  0.1021150770770223 -0.0080118573847983
  0.4580242328399527  0.0828716190894509  0.0135644708635405
 -0.0025960834863717  0.8040399134702596  0.0801214344070072
  0.8877484600880793 -0.0265733437967671  0.7161687461895001
  0.2230488048746202  0.8024391207936808  0.6656425341629694
  0.9649180604244403  0.1969054757688906  0.8258431838634078
  0.9473556659628493  0.0909786761365340  0.8447856925414893
  0.3625311680618946  0.2332331042567093  0.0616851828876779
  0.5092758552479028  0.1296719451811836  0.1411174268064096
  0.6603270164824030  0.0721556150570115  0.1000321857505498
  0.9528970358792178  0.3608669972463649  0.8078578302215698
  0.4731977299234484  0.3761516064445363  0.4514978749677998
  0.7908342897361990  0.4954604158907320  0.7309185204705376
  0.7560818635679805  0.4159057974073889  0.6165117400472040
  0.8502087739810913  0.3056220886407777  0.6093465617957582
  0.6956420836774044  0.4236783181154772  0.5960762563662135
  0.7434306451420374  0.4317425868068427  0.5581723269615507
  0.7986108437339791  0.1418800286730803  0.6152811157510165
  0.6856821602799044  0.3854927590117705  0.4647133804465478
  0.9545842356930920  0.6631847367735680  0.8923663564209244
  0.4492054535636781  0.6322670596075284  0.4115768211077155
  0.5019997700912349  0.6029461300077903  0.4374591990595463
  0.7122875065585226  0.6611857015723899  0.5135198570207574
  0.4409715933539379  0.5074100414021596  0.4455043952757131
  0.8556210248878443  0.6124135811493286  0.6806223175299567
  0.7369943369634913  0.6285387866025489  0.6379298243216698
  0.5934596174476201  0.4586335126713992  0.3459935528652363
  0.5705601727267751  0.2122794782174110  0.1945016344817060
  0.8521835122901820  0.2495508622602732  0.5019485377312276
  0.8430221221602006  0.3179598234695845  0.5475439951493651
  0.9365491000394394  0.3611451053677804  0.5822944602074137
  0.5472026307212472  0.0615176106649686  0.1284122766287470
  0.7128027464952408  0.1374909898216744  0.5068018317673093
  1.0051110087491775  0.4039227023962503  0.8757494676359777
  0.9951554937962225  0.4158289953170864  0.8107905836604573
  0.9413046707669457  0.3741635502813642  0.7423988131438932
  0.9798127783969207  0.2736948690165085  0.7115384538419671
  0.9275583960173474  0.2951409027408824  0.8766323180143373
  0.5014199896621131  0.0300139380453025  0.1021869286147878
  0.9954558162232862  0.7170915342384467  0.9038339038381100
  0.9800922762569342  0.1362781070740328  0.9547222547239463
  0.9193535063066451  0.2823501430986806  0.6907969749483982
  0.3890935368676203  0.9682767072691340  0.0814601979361329
  0.8422533616273175  0.8683404527977155  0.3584164311239440
  0.7463778494355719  0.2386342465680069  0.5279790499476520
  0.0071026021867437  0.3667429220210999  0.7620655547998592
  0.0338029861233788  0.6577694715481823  0.1493452553296813
  0.9449581788220216  0.3475414346849296  0.6391865441940496
  0.1400427464029753  0.6714592603302836  0.1233929530445641
  0.8596573630579677  0.2912210197229708  0.6697120982618817
  0.9143375415144265  0.2904487773090520  0.9382087364226805
  0.7277861766858040  0.0660027037143114  0.7743825793983087
  0.7506125166966079  0.0439547816310914  0.9059751233931017
  0.6888201548646303  0.0196367422813805  0.7708907437564099
  0.9342245311793411  0.2193581279288696  0.9753641371395877
  0.9270866908739417  0.1810355438765781  0.9288579347942807
  0.6536659487483391  0.0135148723186601  0.1179051764832202
  0.8375225884566267  0.0974813306476850  0.8656057383301294
  0.0546990237129225  0.9187512227916440  0.2497600454892417
  0.7862162409090546  0.0582303900649118  0.7980038126866982
  0.1007495123183502  0.8422063161418381  0.2261377700000237
  0.6807129183065995  0.0295967063214745  0.7078435932216250
  0.7284481928965199  0.0332309467561272  0.6699719838756050
  0.6529335687387159 -0.0058976102749434  0.6047723911866684
  0.4839847400357755  0.9302217438355971  0.5600832100382321
  0.0275468787573279  0.0245170924945230  0.8887585674716278
  0.9587760867067145  0.2480808372561354  0.9263134520433023
  0.2450555336052001  0.6999837714046695  0.4857919379788536