C  Cr Ni
 1.0000000000000000
    39.0110871383406135    0.0000000000000000    0.0000000000000000
     0.0000000000000000   39.0110871383406135    0.0000000000000000
     0.0000000000000000    0.0000000000000000   39.0110871383406135
 C   Cr  Ni 
 213 1596 3725
Direct
  0.4138918720908353  0.0547460785733694  0.0160154658269880
  0.2356584709341376  0.8668259590568868  0.2354215397212760
  0.2767204769495815  0.0377896152986414  0.5631183985459366
  0.2630192630927966  0.2550677826915690  0.5423362320723967
  0.7728818998484590  0.4337475880686050  0.4658390305058981
  0.3794830291694767  0.6947381344492717  0.1626091513300865
  0.1151309064820432  0.4072883755097308  0.4702061876582184
  0.6053289638485879  0.1895832940038746  0.5560785525584159
 -0.0642874488445790  0.9297117399900368  0.0334497113268747
  0.1837005104106411  0.3578201064069741  0.4480484140505411
  0.9499854994671634  0.2042827600752312  0.3640763830357174
  0.3421539141033579  0.5189801461711424  0.9475557596859427
  0.7906896547998256  0.4129709654616570  0.5362580281404459
  0.1920926785506218  0.8287330566095773  0.9604353783417557
  0.0045036162974805  0.8328621559433125  0.5043275476743042
  0.3111296510903575  0.5440034049026814  0.4230221785340227
  0.9712445619956193  0.3294650912003758  0.5630202465368483
  0.7873625407356140  0.0163062694415025  0.9542834162520866
  0.6220890123588254  0.7393735358081105  0.5988989262495757
  0.3518535810218187  0.9055835091844820  0.1369111623081196
  0.9590172250186653  0.8697502093635610  0.3349141140241430
  0.5098002822670128  0.5462556152482317  0.5562762058937556
  0.7495712674927654  0.1474562741218812  0.4992099846387063
  0.0638633286857219  0.8493063119646445  0.3658618949856617
  0.7201139427066886 -0.0228837156230370  0.9429466196897682
  0.7867978252279568  0.5325615136535360  0.0067115489748639
  0.7447605227543421  0.8633026716225504  0.6827587401410570
  0.0036876732264967  0.9916041931120418  0.5384051252468185
  0.7337751456659056  0.5946747616593493  0.9055170300606233
  0.3862482702794291  0.6289719509043444  0.8239761287375547
  0.1538592570314206  0.4751292569656663  0.0404905275089321
  0.3716332609484793  0.0514030997871713  0.1397848718098725
  0.4940656459163565  0.0741300561697051  0.1428606377383242
  0.0220221434842584  0.2591095610925211  0.4192613051449123
  0.3313533505220240  0.2258878371405492  1.0248529030111408
  0.3078872501034713  0.0492501864546915  0.3237980208932789
  0.4564888494598974  0.8879640326412411  0.0002761611965778
  0.1162690414376595  0.3417506954211322 -0.0009050735150488
  0.5057710127013347  0.9583005852815210  0.5384295778031991
  0.7121874438135564  0.3260010128059525 -0.0130456593770725
  0.8728488260174059  0.6963741433693466  0.4677443484404147
  0.4887915947118727  0.8860346673515304  0.0672444303569977
  0.6749259452592796  0.5397962889772041 -0.0549776160612154
  0.6385636334612212  0.1125293960024469  0.1090710307589261
  0.4122712643574149  0.7357852405952391  0.5162189100972807
  0.3678895657186034  0.3687571016583869  0.7967280147797772
  0.6877107790161159  0.9107365155531506  0.9649118566522865
  0.5664002702468416  0.2000247256607155  0.4666189065958086
  0.0356318144115683  0.9237875489300726  0.5440648290603262
  0.2932751524918669  0.3423162954817231  0.3143722313242449
  0.2523829114752579  0.0496024519944285  0.4220426257469012
  1.0107415335361045  0.7173418253493360  0.0192650362607548
  1.0251366209517112  0.8889740292452071  0.9548362502564444
  0.5824771103058520  0.9300736529562769  0.7836910367824976
  0.5637496269335200  0.9160575240836719  0.0912161121315309
  0.1297508660758262  0.2772227497468224  0.3916380451340044
  0.2395338229915153  0.9228921713301548  0.4582335466456159
  1.0107866970474289  0.2821335062689979  0.8703528252968760
  0.0616187390895127  0.8792997674773142  0.4961234682045993
  0.8678935354228448  0.5991477537076403  0.8922454444166608
  0.8741200173069149  0.9521009043231436  0.5588483262348575
  0.1082040393976706  0.8352846412928870  0.9366917855843232
  0.8157687287770514  0.1795084100627458  0.4960773955760845
  0.7475110684187272 -0.0555337766123307  0.8270228461781297
  0.2773640274013292  0.7744245752569081  0.0439152689761548
  0.5256665842116364  0.8985287389209495  0.5723845466468745
  0.0821685971295733  0.8994489450451995  0.9179026695924315
  0.3619130892165555  0.7672253790180090 -0.0054308279154197
  0.8662850882778502  0.2893326200143991  0.9543592823254101
  0.2019260890143985  0.6810747160863597  0.9836109687209028
  0.4322862188968838 -0.0533605379416847  0.7968161675715635
  1.0376669426363319  0.9774609251626186  0.6004676605450638
  0.1773564822785147  0.8049026964300151  0.1209889508875719
  0.5102555028827586  0.5745022049493388  0.8908574200579882
  0.9814578636000622  0.6517494404012601  0.8150311974246931
  0.5677238454977587  1.0003304639474111  0.4789576404443841
  0.2622241231195597  0.1649034191025867  0.9839873985208193
  0.4712645903707036  0.3492511798813029  0.6097302889754871
  0.4201645320393242  0.8377180917598274  0.0442756002433324
  0.1738947854076127  0.7425870845374509  0.5550654106095625
  0.9242824238984509 -0.0158584229662188  0.6676390372654774
  0.2191577621147739  0.9546123242826225  0.9841472417885704
  0.0358804735458109  0.4193219929774584  0.4866971233170311
  0.4819324693494443  0.1544192827162622  0.4710189958280590
  0.7163915280562555  0.9415127274174349  0.6541293176703104
  0.4538073225785189  0.7938243098303276  0.5582233859543971
  0.7276943621940181  0.6085082361456677  0.8363512930819716
  0.8112637671817027  0.6824587392604391  0.0176917357112400
  0.5769163285455946  0.6582291027623925  0.5988424332388659
  0.5188900730403774  0.9843735262078355  0.1698053243032213
  0.3842162647138020  0.7211222141810664  0.0387745682957863
  0.2129601450070537  0.0759190641678790  0.9706984284848562
  0.5386976686321073  0.2710565818717271 -0.0154664122082699
  0.4646727187488550  1.0054521372458254  0.2083811680819232
  0.3339962928596697  0.5830206634495883 -0.0031451849105230
  0.1788652615326979  0.0256344561639468  0.2730752522936384
  0.1039597644272960  0.4558826535080290  0.5762662621637120
  0.9399823175803192  0.9025860815235344  0.3419900322506996
  0.5458363718335301  0.3321277868721990  0.0459602722654109
  0.0240442627587725  0.3506107615648778  0.5155383313959522
  0.5421264161255664  0.1884634799409181  0.9773685536333652
  0.8788538697049513  0.2461132329348597  0.3898677734711696
  0.5347416986402252  0.6633496954824984  0.2281504129903641
  0.5765544780544694  0.0298933738659834  0.9484217614555717
  0.4628353858032678  0.3340400947294345  0.5242129521621887
  0.2905723764189473 -0.0162239027385755  1.0071029464731185
  1.0539871654585924  0.6029792489035127  0.8290620530944719
  0.3560349516563894  0.7783028859157689  0.9181754633057326
  0.4158013135510279  0.1780976987429869  0.4334731285493574
  0.6360363919278198  0.0897520865622146  0.9361867392952573
  0.4160308197863657  0.9529021885533497  0.3041820188354229
  0.1435209413049292  0.9007540546830304 -0.0094680072525902
  0.8858865499595265  0.9953696104044220  0.7406487778162167
  0.9207263528701574  0.9993103275566541  0.9367757977578545
  0.2116010475703897  0.4277645909186247  0.4467599129178838
  1.0003829560869335  0.5707260719707279 -0.0388438074273706
  0.9271935828283171  0.3567624499807612  0.2414478942135083
  0.4428456213777673  0.9710417414873299  0.2864448432542203
  0.4834471379479547  0.3872787193511817  0.9493019405489068
  1.0150399968269395  0.3083688898818968  0.9870097874283341
  0.1953438253456852  0.6255983358805153  0.9320244400230903
  0.3450666585134235  0.6814664139315496  0.5707626712496887
 -0.0580172313335068  0.3103341098285204  0.0205520919588223
  0.3648878160000941  0.9410288530595355  0.1253333276034280
  0.8622689266413056  0.3902612424155577  0.5109074569121147
  0.4617933722547268  0.9634357087994291  0.0011998045782932
  0.5636759725562356  0.9144804655101921  0.7546530181929547
  0.5346387317125665  0.4958687609024706  0.6692048213260549
  0.6200378510528218  0.5411258928594472  0.9934093915809042
  0.9259582746723953  0.9087571992599768  0.9425337833520646
  0.7871457017930167  0.1643862937256425  0.5708008076633766
  0.2424069848365880  0.6868161412421679  0.5323038061314324
  0.0711030165368296  0.7238479276386849  0.5056075061235750
  0.3719868817425012  0.5774061827826240  0.9011333336082297
  0.3827158733222528  0.7258927087941969  0.2688451400433612
  0.3528614300005109  1.0299450531942886  0.6558119639055643
  0.7826775009114522  0.9501854618430602  0.6010239426148140
 -0.0031959836047828  0.9798464712976550  0.6890025495061978
  1.0848459475246663  0.9765374732181255  0.5097963516803593
  0.0384763883098920  0.3871754038430204  0.1527131848757584
  0.9728887222567351  0.0851580689565833  0.4145982341138651
  0.3444091249175792  0.8141330090503419  0.0468343161164255
  0.4527026190103737  0.1546195801037672  0.5594627174656156
  0.9920111197596839  0.9824079674799338  0.9657845114591049
  0.9390367075161625  0.9878661690560313  0.5762879379391264
  1.0670203830281184  0.1523990143402091  0.2940219124347058
  0.0305576565727525  0.8512724404426464  0.6500763286019369
  0.8599014610132703  0.6684462929562450  0.9441793849848324
  0.1853840211966426  0.1758399645014222  0.5609456981382176
  0.2589139118012008  0.1949070144285478  0.4275956139426769
  0.6907874068132609  0.5852185896601471  0.5897994060525318
  0.1578874693488352  0.9023047828925969  0.4980733332159598
 -0.0186741347315073  0.9274641670275626  0.6042777277392362
  1.0642417976484189  0.5905935038114087  0.8963282133421404
  0.4684144898971573  0.2725068042518070  0.4831417668930142
  0.4235660293936809  0.9278589059775408  0.0781174957269380
  0.5672097379207708  0.9066086495043572  0.4824691693251169
  0.0634510069600192 -0.0519439640281498  0.3775918339485930
  0.0158966129510654  0.9460953523469050  0.8771450634904802
  0.0932808596174195  0.1682148409859151  0.5615218640253258
  0.4290359937456494  0.2444465926088203  0.5438628897984422
  0.9313677075546184  0.2591825681065951  0.9717963214063174
  0.7257467421183221  1.0288456302449114  0.8691418515325519
  0.5868614384740827  0.5967657518076753  0.5333468672472662
  0.3730375141541191  0.1961412979660588  0.5294768575562743
  0.6828459128224443  0.4146694014981712  0.9675795564513678
  0.4931908200541750  0.4167242501917954  0.5453674442837287
  0.4590705796034095  0.4102482954636307  0.4750207106994684
  0.8000272289768012  0.9314706324795901  0.6904042761345938
  0.1731189533759154  0.7553250476567472  0.3062025938627942
  0.8797577161156938  0.0209322355897479  0.5311158068797200
  0.1022325989266898  0.7250442004366420  0.4848018499043296
  0.2939082438734934  0.7886194182272570  0.9674231768853989
  0.8693792586472799  0.8694417349490531  0.5719476951231596
  0.0256064222303480  0.2804052611978736  0.5004108912729991
  0.6640351067152760  0.4076773316146817  0.5522575783530316
  0.7172402752871061  0.9487901838345683  0.0954874749457114
  0.9301433521106384  0.6008350775268507  1.0105480699997917
  0.9808436910344414  0.9010999283251360  0.4651858037712532
  0.5778007650674967  0.2134833205820964  0.9093954905278344
  0.5262493578483567  0.8940898715620342  1.0052463311979702
  0.0391852469437350  0.4022568950677666  0.0159367900821781
  0.2143736064557348  0.3644022359004914  0.0360843994054916
  0.5149015325940202  0.0805101753243510  0.1752315936138188
  0.7268250729208051 -0.0273259538912402  0.8146731859273773
 -0.0212792731220649  0.3823801089076023  0.8417112417472128
  0.9903863544482503  0.8401864897155024  0.4061421456306176
  0.4128467572435728  0.7134448800436446  0.5914078585269927
  0.6290124094898415  0.8279126787456929  0.9511318876880512
  0.4544629163380409  0.9546935388355058  0.1621485420766539
  0.7694903185470123  0.8792375519721914  0.1256690655837435
  0.3753312264807993  0.6685603832441162  0.9890424273742130
  0.0477740302283152  0.5275124253034980  0.2802668946632944
  0.0396399567064451  0.9403638151408767  0.3479607518046858
  0.3131339563998683  0.1544529551473900  0.5097839379118965
  0.3447338730577522  0.8808363285608332  0.2098751221301010
  0.9157841396065773  0.2352167341493648  0.2807812740554050
  0.7177993448414363  0.2494235063108793  0.9634175655178437
  0.8148806018056561  0.8757127915227073  0.4984028105495625
  0.6069645892219450  0.3810722228770497 -0.0001482924672492
  0.6090233830911108  0.8511478590167828  0.0441204709209460
  0.5916743209178258  0.9170158265494128  0.9758812866263912
  0.5707827672328447  0.8522361086363276  0.4293701209523779
  0.1442708088258423  0.9524509389238837  0.5480046779103214
  0.8019706988756747  0.7438795894048533  0.9681976554854775
  0.7882837066026719  0.4789771995920474  0.9337611516856531
  0.7083683517628001  0.8623626170654508  0.0478670790872470
  0.5274315795459331  0.0062630311163014  0.0338245233403269
  0.5554083300685335  0.2938752135310125  0.4754575340241664
  0.1279680270307569  0.8513822709563678  0.2636916561182244
  0.5704817986011295  0.3514414249357204  0.5237028160023762
 -0.0098249644320636  0.3289226152777304  0.7956365494656547
  0.8328148660372819  0.6126240339304442  0.9853940799965960
  0.7256835028708098  0.5319831706115085  0.8133690398211531
  0.4981053230895370  0.0850068683020274  0.7469873399850061
  0.2442130260252815  0.6711758264216393  0.1564448818303779
  0.7049736319927844  0.9792898925644337  0.1431643892082824
  0.5373492756127546  0.3911101240185778  0.5338459772476846
  0.0114725388303850  0.3880608827582115  0.0546064907295778
  0.5685103629727503  0.3182749318235815  0.6256902945004227
  0.0276737035174322  0.5615729088762491  0.0624142593162853
  0.4972113892610283  0.3692399929468911  0.6466457783053907
  0.3958078857541610  0.0299920856405407  0.0600228625068361
  0.1443968490750697  0.1677478750157512  0.0029522894984691
  0.3877424258691411  0.0686341623005274  0.4286563139117632
  0.4453583180344427  0.0954318566828647  0.4272304743756695
  0.3054435251019055  0.2661649017783688  0.0352032273418963
  0.1562601737878213  0.8586442287844612  0.3031884054757564
  0.4448862215416767  0.3312101219224118  0.5711958564372238
  0.5112688296087757  0.3218629303001024  0.6009206855131828
  0.2611778291235943  0.8568566111126170  0.3340276995486803
  0.6418451974308270  0.4468913537167788  0.7406250092788882
  0.7520083545120944  0.4453053926255044  0.7239072833361058
  0.4466983126251764  0.5629412278219752  0.2004507108349602
  0.4848841606590949  0.0063008087243387  0.4764925120215562
  0.2555498471967060  0.1933962762191665  0.3750547441389941
  0.0755444351366903  0.5503556625089612  0.4784682596352066
  0.4264460184315357  0.9134898857122778  0.4863617197009029
  0.4207338071847890  0.8076867762577752  0.4550754009374107
  0.9200618833351051  0.7687063593160447  0.9179481687689311
  0.8173820367518866  0.7890669065402355 -0.0147616892827254
  0.5980459600711818  0.7001971724980496  0.5762900857550873
  0.5600346814947906  0.6863376395686266  0.4997927406429398
  0.7609472253652827  0.4605429277850126  0.8930452960955151
  0.6904141519196606  0.4836165260009126  0.8070521463236497
  0.6130830753585084  0.3842888061646871  0.7956198277708040
  0.6739236260292929  0.3766008388090366  0.8172890984367489
  0.5018009652292432  0.1632462903258011 -0.0429547793261971
  0.4738005315799635  0.1733182304932819  0.8345787723667768
  0.4100538241562268  0.1817335855678161  0.1492020045610326
  0.1600190801143246  0.3034203574044080  0.3628310483016702
  0.0654583872035732  0.4250724975394456  0.2908717573070532
  0.1177458364084745  0.4410846286058418  0.3588084500056141
  0.2780157913297126  0.0434303910091093  0.2845729001311486
  0.2446525677734490  0.1074494719494402  0.0524661558483474
  0.1624389326239786  0.4025318147228011  0.4521201905880904
  0.2169535911735829  0.3834084344123191  0.4216351205075782
  0.1890947760971189  0.4436179533067744  0.4906622263174531
  0.6305309146109296  0.2105042498761782  0.8794701600413987
  0.2983515929766381  0.6867457455979272  0.2250412465115270
  0.2407200157548209  0.5893144810152952  0.0169894033050018
  0.8364196988114544  0.2765112924756452  0.3832610596650366
  0.6715312207128467  0.2271272562624326  0.7817190490791220
  0.6009691062061996  0.2479040159906052  0.7006281184951400
  0.2344760735934831  0.5257162319524790  0.0332245095670189
  0.5021204798656922  0.2052416653858704  0.6742354590793609
  0.5668966521614720  0.1656540483254628  0.5787740132615823
  0.5922352585128755  0.1093994915563822  0.6017371351015606
  0.2359598818816126  0.5136186198175879  0.0899346496549854
  0.5400438931615771  0.1028205421214430  0.6449984177356753
  0.4368684217778559  0.1396006543820535  0.4629449868226437
  0.4919939236233474  0.1120567700788953  0.4936813011970126
  0.3969825415210387  0.2580884069241233  0.9560374733236978
  0.5157518788993656  0.2281812170181544 -0.0014651219759643
  0.7471153135821895  0.2894146522016302  0.9763389586223046
  0.9392326222162175  0.8944805666888432  0.6128124649546801
  0.5060848060817080  0.9414113937414739  0.6805913019158571
  0.8888215387071144  0.8458461627521139  0.6123462486882169
  0.9561423308736016  0.8408128328750555  0.5807023217773417
  0.0246009338297204  0.9980150359322154  0.1865456922418287
  0.5155829614478484  0.1604273531221723  0.6277556746722026
  0.2646121503584062  0.3325397988034668  0.2762099829835610
  0.3398407403373418  0.1029222591127773  0.4051727424925949
  0.7078009296149022  0.2741789253876962  0.7881582932326613
  0.4142861599194160  0.7811337595131257  0.3480245415211590
  0.7922982365762784  0.9655549211798455  0.5494811854725759
  0.4996818759693137  0.2365219635535280  0.7779221058855867
  0.9038909957003737  0.9790103686514691  0.5278344600974185
  0.8429838269766138  0.9503563566178086  0.5151440542238150
  0.7005701907097835  0.4745811698925889  0.3227855798304314
  0.6388520698544475  0.3830379969713905  0.3314498533915003
  0.4452481480985064  0.1127785315740961  0.8919486178027645
  0.4803804160594571  0.0116504493943686  0.8698096532060098
  0.7344687258591728  0.2897013766890739  0.2833412604254986
  0.3975370604735987  0.0736163459487977  0.8276954067288106
  0.4088514585506281  0.0292338746909445  0.7836712273090968
  0.7802602955770552  0.2134020099804213  0.2683497056135059
  0.9119095664721777  0.9306489609842958  0.6610101151014091
  0.8876112142133286  0.9117594531622660  0.5957428065336919
  0.0257422669789490  0.9429789997868264  0.7058409441011806
  0.8992117288685388  0.9588417533012370  0.7745251395107429
  0.0059493785208227  0.8647419686521824  0.0626283034747332
  0.4971542597266110  0.0612202575138280  0.5813514174491720
  0.1491025733507107  0.7959114236675574  0.0818670386364770
  0.8695969569006270  0.4887094591685249  0.9770110970307379
  0.0951660648179650  0.7151168169680738  0.0310944192739442
  0.3581609730285793  0.7672734672902870  0.2774875178203239
  0.1339044533314304  0.5782473321527536  1.0387329062408202
  0.3636904582016436  0.7940586440727553  0.3819454947909896
  0.2620236017670038  0.8402549605368035  0.3937175285273489
  0.9441985955095061  0.4457476687606270  0.9581150312536215
  0.9344053821446321  0.1482845346667366  0.4551574078816983
  0.6418722671259803  0.3430851952303051  0.9925016537114186
  0.7099114520249286  0.5745438803968665  0.8669947259266656
  0.2659206515683469  0.9018283590202161  0.3826046489661590
  0.2455080604194256  0.6487551442886563  0.9895920610000690
  0.2719974926197601  0.9476574025941097  0.4295711161299647
  0.5516798441781148  0.4233401725204743  0.8800582224835225
  0.8678248183272494  0.0451902412245042  0.2974339931550786
  0.5889778265254028  0.4708364032285406  0.8845810889036418
  0.4373713154336707  0.0916392872197180  0.7234770465918419
  0.7831950701333789  0.6624584344430083  0.7067400961090212
  0.4700586260534597  0.0231480229392626  0.8054505798166774
  0.6378621792717122  0.2961115716301874  0.7053174063481338
  0.4860771419661207  0.1288009735267377  0.7897730631527788
  0.7823197281659032  0.1687651078278377  0.4587375016959908
  0.5528854824476965  0.1691642032537891  0.9258213856659083
  0.5274286292352294  0.2986592905234602  0.7235234686101648
  0.8590972606044204  0.0735489009132036  0.4773364079827159
  0.6403198028103756  0.2665730191017983  0.6010529143078567
  0.4472781473274320  0.2300203793580303  0.4951085165033921
  0.8872257981335329  0.5378365254329306  0.7555801532720612
  0.5457313511309952  0.0797831659195897  0.5343058057261637
  0.9303690458958395  0.7108337541940961  0.7037340695026018
  0.4851702362891222  0.4118399402633460  0.2683809271685870
  0.0415656620649147  0.2104764215105195  0.0149110059257966
 -0.0053815557640990  0.2906841845000022  0.0305018829395967
  0.3204252774913169  0.3327173835997423  0.1839288794550357
  0.3052082688885518  0.1796297391003724  0.1117889460114351
  0.0770508413568100  0.5354671887569172  0.3185065208474958
  0.1934487697774556  0.1202020177116206  0.0894354192603025
  0.0135950747400240  0.4426700896258849  0.3251834842921447
  0.4405982955478453  0.0807415882855112  0.4938205507666493
  0.2121454152548863  0.3187570954937754  0.4380068218556585
  0.3969860273489942  0.0978865417235317  0.3017868610462908
  0.2039569717185435  0.2264914463170882  0.1189774051233118
  0.1758618692728611  0.6134413205702515  0.5540799063376726
  0.2619067755229879  0.3501865804344318  0.4474033698068943
  0.1258161694883137  0.5305265522581478  0.4469635970564978
  0.0732806849975249  0.4679958862484299  0.1033909063827676
  0.1735052906584237  0.4588601670839214  0.4278457037646149
  0.4286193069533942  0.2254509503257267  0.5930761325076422
  0.0255272374487923  0.5473048161362400  0.1231653775841605
  0.6481662171202153  0.5707206652955578  0.6715639866539541
  0.2394202513330494  0.0443246737286111  0.0685936326855429
  0.7558564580318690  0.7496113043680744  0.7987552525817817
  0.0063334872853896  0.4221822091761154 -0.0165372384860272
  0.8864295341233800  0.2408098637850535  0.4380202305426947
  0.2354261271404633 -0.0057963781867028  1.0166388604512142
  0.5973602087403562  0.3108323619174574  0.9081651629474686
  0.1990154097731871  0.1642120967187026  0.1347697651676409
  0.7914148647292429  0.8463473838196320  0.5301415822462866
  0.7213127084010216  0.1361282524671816  0.2159056860980535
  0.5026697418405150  0.1714145015213367  0.5704685368800220
  0.3331579408342825  0.2009175190280196  0.4978173176203277
  0.7090176241089489  0.7124969299458350  0.7300829738122324
  0.5550254892125213  0.6330909916247971  0.4521167685569659
  0.7782286846410991  0.6896893976793878  0.8151269712758609
  0.6350632975325410  0.6145635270861345  0.7184988646368337
  0.7233179400126992  0.4280804932819569  0.4913526263958913
  0.6041736741725361  0.5501141797127810  0.5474992458056069
  0.9156080944370726  0.8663687428882272  0.5536933293248277
  0.5441533330318954  0.6647320457783825  0.5621107432932129
  0.8233908216401115  0.4234123516665564  0.4940332305578028
  0.7341053345399668  0.6726482576156920  0.9168311612328833
  0.7691540244001183  0.3931014580647131  0.4972688517567095
  0.8859372795903191  0.2959859872201208  0.4623278090118166
  0.8326432290967307  0.3083777964201564  0.4919000855215094
  0.7411325542717868  0.6436250791684686  0.8050307077460740
  0.6427102445253551  0.5992655768180835  0.7802771832475064
  0.6165888621159349  0.0713618848816532  0.7913417300573183
  0.7643440811908508 -0.0108780655851005  0.9188198179282592
  0.7030369570862446 -0.0024088239304857  0.8984327877139903
  0.4432988785737504  0.5364374636210496  0.3246017138710757
  0.3480253437519527  0.6401405363213545  0.3139983895372834
  0.6408497811965870  0.5866303754529348  0.6129967745827144
  0.8326832120159726  0.9381727835121063  0.5820542326870234
  0.4593872623413072  0.2843083723979538  0.5314657240894209
  0.5125458801331365  0.1926848291995468  0.7338780898417269
  0.5091607299178378  0.6740941337198757  0.3586916678616469
  0.6089010435903953  0.6262523779221797  0.3542896963133819
  0.4031963810858686  0.1612787424512583  0.6478375900207000
  0.3622870767541744  0.0087404429208153  0.6118877740728167
  0.4208961236116394  0.1149732652577196  0.5890631787371293
  0.3622912843301233  0.1464848215144182  0.5235578086310065
  0.6722817536748524  0.4078949570853483  0.9179688300359741
  0.7127937378975630  0.4445834013161470  0.9935620842978574
  0.5246170524328296  0.3307982193243142  0.8284810115665270
  0.6335431388512336  0.3041615306085892  0.1858141970322923
  0.4290707278503924  0.2558006164701092  0.6951072468700505
  0.3876334068601917  0.5735646229866986  0.0061796402058805
  0.5981161022954625  0.2784060117035115  0.8038964201029100
  0.2589269087378833  0.8244008988677228  0.2227368916191891
  0.5646030553214594  0.3478830830932649  0.7288603217012772
  0.8100745409978630  0.9841580129649929  0.1823645623160536
  0.6718374813865919  0.6646646898997903  0.7229274807702277
  0.6633918477528150  0.6776842643612840  0.6624194975493176
  0.5473521676708413  0.6230314635083677  0.5174132432918277
  0.6815599673358708  0.6332903253765598  0.6090612745817354
  0.5300091530299956  0.3363511233159430  0.2545397277006164
  0.3134439306488652  0.8411954906513623  0.2973729057458632
  0.7775142379872528  0.2563271710346063  0.8695661086171674
  0.5764416840473567  0.7414565399389773  0.6233616452965318
  0.4102399764812368  0.7500673619572059  0.0087579525667265
  0.3595598309584779  0.7635369639277568  0.0466378997947017
  0.5408785752435831  0.8413426911634138  0.6540407642435248
  0.7007041325514274  0.5069644995376048  0.4261696596929298
  0.2206868751770303  0.2125074674968732  0.6856876796540998
  0.1868002827105044  0.0596818656322270  0.9302856339862382
  0.8478534815555809  0.3825772245048404  0.4067361092631023
  0.8422555196423611  0.3689359810368654  0.4694333730374392
  0.5244014566032378  0.4343121823901286  0.5877234235098659
  0.6573058077556678  0.7083847631693180  0.7690791103250966
  0.5883412394532539  0.7290242639077558  0.6836239499967901
  0.6352309399962855  0.5131265687327013  0.9501033857359840
  0.4067954747907369  0.2832962198401818  0.5686493912783950
  0.4518541474862925  0.5906710513745027  0.0785071140937681
  0.2500209962978031  0.7601046194685781  0.0061644422893716
  0.6643064197631507  0.5654340188781305  0.9847446091000783
  0.5742307940615214  0.4684174435165624  0.6589179386185783
  0.4606372527143899  0.1727579564864317  0.3450702581048785
  0.6202202388820813  0.5054217765049615  0.7251114670107048
  0.5609774736021312  0.5153267573755970  0.7058725924676583
  0.4753375782868904  0.7801261796838826  0.4798114464368088
  0.7174436352235288  0.5469278270967843  0.7547451296441364
  0.5113344563862816  0.7547867722490832 -0.0099456895584367
  0.8918848442078980  0.2990801432397918  0.3979457566344261
  0.7932052290161776  0.3669837389380420  0.3364335029348806
  0.2157321823023336  0.1240382318629485  0.8689327978490513
  0.2880094433839088  0.0730757644414099  0.8467928505735769
  0.2474841689208178  0.2115487944115035  0.9723714543685937
  0.2668619829389949  0.9186145231060436  0.3203079803310203
  0.1908038264797797  0.0299467568957309  0.8241584823726278
  0.3940498198483481  0.3900901600346100  0.8325885765440245
  0.8051705432568829  0.4741316060040316  0.3612585170412440
  0.8006314469487757  0.4275346676073591  0.3181753350646170
  0.5474540626690143  0.4999936076415264  0.0291165110130236
  0.5200375988100747  0.8988828230181902  0.6240064998444582
  0.5298746085092991  0.9322776939429603  0.4591684155663160
  0.0043331404583072  0.3296140280143879  0.4751617501586697
  0.9522314122848444  0.3838100468272137  0.4425714864417152
  0.8860927550620302  0.3431584672424548  0.5049715829711996
  0.6096551518164324  0.9516442136344178  0.6027798763089159
  0.9147844048625113  0.5076957812263654  0.4985312734335104
  0.8138814294027671  0.5539094973564841  0.5111715619738481
  0.7125699610639201  0.8660500132330047  0.7682163358733864
  0.6746537645570864  0.9647068378499861  0.7981049522363590
  0.7179190160912469  0.9751473220261950  0.6948874752846662
  0.4254787192237289  0.7842232196748526  0.5186392549944131
  0.1563145078722190  0.0984256174893046  0.7425326858499461
  0.2860979634363450  0.5762807740113706  0.9779052008595888
  0.8269628320362961  0.5453106790689095  0.7347616316618114
  0.7352939498335745  0.3381256914026420  0.7319906043480225
  0.1761119546851081  0.9359211560169993  0.1349037159712017
  0.3344633583681805  0.1784713560982828  0.5631241707820185
  0.2515051471527913  0.0123476845344633  0.6410132196075502
  0.7189127731372520  0.1188486294535218  0.0469401906209691
  0.2653491653093298  0.0641432196195296  0.6143159944383418
  0.2935018908594072  0.1615235670987738  0.6640220169462739
  0.4018210579704065  0.1924585515667157  0.7511585092229084
  0.4269356843687841  0.2870387928939169  0.7995534688537101
  0.6822635716841029  0.2804551202154001 -0.0174244857079305
  0.4877040017674598  0.2803249565712648  0.8212270334497335
  0.6943879824073044  0.3763576442574053 -0.0008957469963099
  0.5240420802163382  0.3582411317045310  0.9467027252654233
  0.4938364728030664  0.4545025301897241  0.0844455069632194
  0.1834352518991486  0.0860711526459007  0.5316295210216201
  0.4233312873475434  0.8329689293278519  0.5620009576118453
  0.6242144562120926  0.7161666819907914  0.4434699020243202
  0.8622881505406955  0.6182547896856496  0.9393568766078733
  0.5892087621130463  0.0039888034527535  0.5835604335163087
  0.3413839703831399  0.5612760860076611  0.1670400660725273
  0.3449042265106451  0.6086107843550346  0.2089760909126559
  0.6480102164382544  0.2839373581394523  0.7656712871612351
  0.8385054773418892  0.2018378629124069  0.4588649847779553
  0.1710153768953114  0.8927312249074284  0.0916230100400975
  0.4460083789916799  0.5301287821220227  0.0993139437557503