C  Cr Ni
 1.0000000000000000
    39.0110871383406135    0.0000000000000000    0.0000000000000000
     0.0000000000000000   39.0110871383406135    0.0000000000000000
     0.0000000000000000    0.0000000000000000   39.0110871383406135
 C   Cr  Ni 
 213 1596 3725
Direct
  0.9763077473235166  0.2692009432263790  0.0402396997462766
  0.1107374824591792  0.5595383921460564  0.0633471743254269
  0.3030117711026084  0.0776186519433473  0.5865972244297680
  0.4057081962599981  0.0275366549049019  0.6722958529887247
  0.2828648900048132  0.4330317403498345  0.7586689098214603
  0.6635175898853657  0.1262240056521539  0.5905970822337498
  0.7906456930046291  0.5720767782061010  0.3541368093447098
  0.7708553176664167 -0.0141009755095370  0.8348688726623537
  0.7333635603358496  0.4126096511022185  0.4608352639557233
  0.1229926575194346  0.8349603061656327  0.6469187033213244
  0.0773337253730445  1.0107276842478659  0.8921790658046469
  0.7750001750127543  0.9172131719973076  0.1664816589029556
  0.7752493911753382  0.4347237299612747  0.6501889794552274
  0.0713053757838150  0.7597747227952729  0.2735510524076988
  0.8134113549864228  0.8165372700231591  0.2769161902429425
  0.8554724409317485  0.1085937505340762  0.4149250110158053
  0.6681885265386075  0.1364466375851450  0.5208933979954139
  0.0829939951397119  0.8506255913678754  0.3714167271787467
  0.0971335999297951  0.9125197300105592  0.1594027491538098
 -0.0347406746731850  0.8237869049765357  0.4416495175564922
  0.2589538062424203  0.4654442114613365  0.3741248886430470
  0.5580476034898945  0.8757274555989950  0.6932064138226625
  0.7703272415275673  0.0184159092267186  0.9342979949389600
  0.6203790837163176  0.7367414012447939  0.6016532922839198
  1.0242813073253769  0.2304338441647010  0.7600541580268287
  0.6278341679136814  1.0102963578966067  0.3146621135107983
  0.9889871930548434  0.4343679293137731  0.2936574788918577
  0.9018651185982972  0.6220294163269132  0.2003083348530529
  0.9497252003733441  0.9095282512112515  0.6161541866523317
  0.3641629260474797  0.3719361603000083  0.7966754847531923
  0.3671593327948063  0.4736535178329142  0.1146707832244962
  0.4694829827049326  0.1410728639322504  0.4538489072517283
  0.1910423255019807  0.3263314507055954  0.3397509503297277
  1.0446104645874725  0.4053533223682012  0.0886463724740058
  0.5074265935584145  0.8494285881116012  0.5038711014492002
  0.4406645801609199  0.8242481610291285  0.0267142784721894
  1.0375582082670518  0.9624554062743849  0.1298990241774027
  0.3783525042742354  0.6242653456852889  0.8295561990103781
  0.3903372366030752  0.5541482772769135  0.9648411430222257
  0.3751106610496633  0.0515465506260836  0.1419246121402624
  0.7896757798851299  0.5449596504412567  0.6425198997735476
  0.0487976986615232  0.2993039209710489  0.7696897072643633
  0.9684021144753573  0.7220792372798255  0.9649748191471194
  0.3349836146006845  0.2464094019180243  0.3616406238614803
  0.3210375246682467  0.2955383493776145  0.9670928910397741
  0.0181717881653296  0.3487296639500820  0.0345222318620368
  0.7329061615730850  0.4973181917627458  0.2984447678123858
  0.0638260159628989  0.6521090349552329  0.2458098372686756
  0.8380828864860648  0.3084979613570126  0.9153156127971454
  0.9419059500151483  0.6929274632502673  0.5397649764236242
  0.5157306305005853  0.8874083154862149  0.6226477331222742
  0.7567655979450665  0.8019374523476528  0.5490444879378698
  0.7072685002033126  0.0287936301404062  0.8099450186183698
  0.1741660522390305  0.8803640733616396  0.4016683059704714
  0.7581758494494439  0.1742263221365347  0.4347629034061733
  0.3461160258709285  0.3423405251880416  0.4523831158976433
  0.6470814495852991  0.6489041131571145  0.6925624434313231
  0.9732028314993147  0.2327488598863968  0.1804082312324530
  0.7147122001252909  0.8401906456128313  0.1153675829707960
  0.6678567075681366 -0.0063179573248634  0.8524496073819553
  0.3225565900947907  0.1650393504134770  0.0252354742868180
  0.4409774811367472  0.8837414364019189  0.6433188864428074
  0.1873402210779193  0.6267389197165086  0.9307122346686338
  0.9744010166544815  0.3095862083168914  0.3290211953900549
  0.4551348787894480  0.0856146588299940  0.6389548822301709
  0.7377315124309731  0.5647677074778591  0.7905566467241624
  0.4614292496258668  0.2638643874256338  0.7857234112389652
  0.7371959019379192  0.1975079805345833  0.9121903066754601
  0.0398750244933171  0.0045965128315172  0.5449671775513858
  0.7677812545358419  0.3426735110690919  0.3653910280153529
  0.6068098390182838  0.5965606096619953  0.6839414535430817
  0.4194828404591069  0.5258934664966273  0.2903315729855938
  0.0745588754121113  0.7879870955821565  0.1474307926526240
  0.2291792387950129  0.0555379043125677  0.4727197902698729
  0.9764232396573965  0.7176966128198754  0.8867418795871387
  0.6052353945965278  0.2034094182131434  0.5416570114346860
  0.1155453955568912  0.7127483080288761  0.8954196642505448
  0.2012808258190218  0.8227908595226842  0.5486970758347844
  0.9336632413910185  0.6905784035735746  0.4320952931441036
  0.6659171935481333  0.3574188133064367  0.2630979173138033
  0.7200727878136228  0.6058935190677966  0.8448990355348086
  0.8187002144476266  0.6840523992088120  1.0167183363470624
  0.4395669966202901  0.1239921796599951  0.4678303637330481
  0.8958940946979405  0.5551123827598294  0.2197274769122262
  0.0914528088318854  0.3710897807313480  0.3454963159810385
  0.2162560724334024  0.0800265656839492  0.0766243476272892
  0.0083050308074181  0.5683228576040114  0.7080458089269689
  0.2141337682101644  0.5733908965639913  0.2645472891503462
  0.3616031116982275  0.6103375422242655  0.0058350141669750
  0.0217314645767515 -0.0214050460483030  0.2711982961699538
  0.1310320408873831  0.5197546157819958  0.6357773813884895
  0.5727285702140522  0.3828911244555213  0.0998614903826430
  0.4763236667328908  0.3461037514587362  0.6676981449069473
  0.9545523863665337  0.4031885873237383  0.4384258248611680
  0.4473156743635118  0.9069149845742239  0.0461676129383968
  0.5068220889714340  0.3416749531544084  0.3848740825687709
  0.5014907914869795  0.8477636371596832  0.2705093638417617
  0.3974753957997228  0.2967005464902306  0.3041062967819325
  0.0883518137410430  0.4969321865105071  0.7407677156334350
  0.2127455358093119  0.3481556159737518  0.9195602478825268
  0.8282244244301429  0.6773842838251828  0.4548116209473140
  0.4492707517485828  0.9720573430623191  0.9327368949262687
  0.5315724678464926  0.8621525945442569  0.7769231382591483
  0.8941066657869063  0.7035609428939982  0.9004325547883741
  0.7643937929782596  0.1917282866458873  0.7906562378766449
  0.1595346093412952  1.0093989842098126  0.0195467191082558
  0.4230679955406040  0.6509320147483971  0.7285152796805043
  0.4067715278661151  0.7905305313269699  0.9438525717974094
  0.0408003487246939  0.9891361812864651  0.3672823298416584
  0.0424529927230301  0.3067589621668804  0.6994064117150157
  0.2615834799989996  0.9397306352635185  0.2140351952253280
  0.5284538084866357  0.4972707384582756  0.6687010917617544
  0.6748368877457083  0.2901496643965159  0.8596188169966515
  0.8453841814217764  0.9627925621357151  0.9331129828045819
  0.1026996554071959  0.4477520457662971  0.6952865006876512
  0.9958862607490322  0.5108495665714479  0.2093886794936925
  0.3568585210468814  0.0688043656608002  0.7304451197187001
  0.6363037112330400  0.0959685533536014  0.9322860038301795
  0.9728563136785036  0.2897965012410813  0.3962270726031715
  0.2831925204593625  0.8597333997847135  0.9726010391169748
  0.5829938134691689  0.8404551066594612  0.4875694186371378
  0.9383755958114735  0.9255621855173036  0.0269987434067104
  0.5215580114925371  0.8730409518279731  0.8937420886471610
  0.9785198318738318  0.3325178637082862  0.4958322125313916
  0.7613875852457185  0.6570165008300627  0.8463873370365088
  0.3213841409602075  0.0688959011395296  0.4887619293927348
  0.4659953841347483  0.4751323461652300  0.5322668544295627
  1.0021937765616473  0.3199313917992278  0.9722747192300705
  0.2601572839072951  0.8932518534979484  0.1590002081294261
  0.4361215606329842  0.6055779308274228  0.6783388025391334
  0.2537481118539809  0.4442695181622489  0.4479841320110864
  0.9127874274890262  0.2008334566887711  0.1711784906548402
  0.3213392335628426  0.6165863331177381  0.8743781937529360
  0.1596045550797386  0.4394923258188775  0.4782512062995315
  0.2161829621746144  0.6515695357794775  0.4188263306972599
  0.2316132402498584  0.7439122332497069  0.2725857213107754
  0.8757494867842426  0.3569803123428810  0.0020505632363316
  0.0760706430609049  1.0235632403026447  0.7386124270305769
  0.1378382833268123  0.2961369168153995  0.5961349550275097
  0.1578965565867349  0.4632386789289952  0.1054672331434958
  0.5982628947685152  0.9151378078939719  0.7578355519681772
  0.5790749267560844  0.4754220173551942  0.0226953074164679
  0.7887698070333964  0.1638797183577886  0.5692156682521059
  0.8514383045977076  0.1106987070942353  0.1784564576619191
  0.5311214734728469  0.6493331663740315  0.7092499566240800
  0.1726886865711862  0.7899628312627236  0.4790291233054603
  0.1878534926548096  0.6935382239073855  0.8015461021902325
  0.4189948276235665  0.6806530686766825  0.8356341622151523
  0.2274905577914125  0.1720099519050396  0.1725740736820508
  0.4557016069897238  0.8808213155185292  0.0729642219916877
  0.6214207220225106  0.9313526150293878  0.5482629292186563
  0.9820620376833847  0.9360679268633150  0.4260339439542395
  0.8257600302670143  0.6468442933118060  0.9293542848529751
  0.2501538635801200  0.5045663242842261  0.6790670811945263
  0.1753496150857695  0.1530800021499022  0.3312260183418674
  0.7719180777253377  0.5819218844545826  0.5231945763918125
  0.9721252485145397  0.3724693937814231  0.4265941293350776
  0.9335905612593991  0.9184318799060098  0.6483849534290481
  0.8418690026872977  0.3465760405187819  0.0125701805977367
  0.5989166962690496  0.7110865365716628  0.4083880338542296
  0.0403198404647339  0.3346773150367331  0.8758831353057895
  0.2898519619658128  0.6781758806642807  0.6179795291599508
  0.7626687570453813  0.8270772004453862  0.6362836630821158
  0.1725265184482615  0.7122432560423799  0.2640576574681666
  0.8191618768773096  0.9446291543048492  0.5992926932466474
  0.7909113795866878  0.5533019156268830  0.8681319594502547
  0.3128507345632908  0.7861597811303285  0.9570876393466389
  0.6965175507333653  0.9099523647244397  0.5763557178016534
  1.0366735844145689  0.3403991082490720  0.1141257437940553
  0.7945977993884508  0.6018149559432846  0.2271849875813449
  0.7196700096903932  0.9044964400466630  0.0897624697196936
  0.9204508793483833  0.6544354208457650  1.0145249652335251
  0.0773733405781366  0.8405294458073088  0.1950326209199355
  0.5496980473738594  0.2122568972646021  0.9904590038002138
  0.5771542204808415  0.1147861274445584  0.4398385019784464
  0.0358984850499124  0.4114649350321941  0.0082153430168566
  0.8714229857596775  0.8317221073587914  0.3556693010157679
  0.5319903755951880  0.6020543188325604  0.2461831238123246
  0.1160004100152891  0.2809988474681850  0.5704848177572166
  0.5217871144258385  0.6387073935814314  0.5301859423678561
  0.3955426142781552  0.1913960082739864  0.5946141720015277
  0.6819980084504204  0.4384257185939778  0.8958955343051376
  0.3964194152102309  0.2793606608915672  0.1391619226359197
  0.0250907633335771  0.2328192744125974  0.0835933590762288
  0.5002208707281106  0.2650481277841922  0.2354471208779976
  0.5532846202143437  0.2890801392870010  0.6450481598556803
  0.8218622153133596  0.6090176904307019 -0.0074757145689994
  0.4880308458793677  0.1076016533972363  0.1630836672252542
  0.5700790332714367  0.0766113008626922  0.0758743388217881
  1.0113739808276954  0.1076457741890174  0.1149406337175108
  0.7569328547475738  0.2645435400644195  0.8735405996043480
  0.3150650781572896  0.9206558573872456  0.7054578897064331
  0.8094505125375359  0.2201179647321679  0.3033937115887841
  0.7733088791494952  0.8187834542676324  0.8931824809027017
  0.6175552503455268  0.9362208878897088  0.3983725395183683
  0.6845422418167175  0.4602183403370816  0.0614660811448467
  0.2253069965108468  0.9664591081347352  0.9798598099195380
  0.7809487928499397  0.4805625154916239  0.9282691847582661
  0.0533119228148880  0.5290793830164382  0.2860459156132643
  0.9579922433641016  0.2890820624162839  0.7951101664909683
  0.2835967354422212  0.1726976705360067  0.5516831679168167
  0.2048446021664469  0.4633862958303769  0.2402170359354018
  0.0550545958088484  0.4839656023778922  0.0090275246291269
  0.9203524665622237  0.3303428301515820  0.6045456587824141
  1.0018855171150112  0.6533469389723248  0.8393933047169940
  0.2376360491491515  0.8566088084689517  0.4705534288594883
  0.6995496480531340  0.7890784065957476  0.0556716238538709
  0.9100101631290949  0.1245412000885570  0.2522620652954022
  1.0342418446349837  0.7567100688223221  0.4566932635543797
  0.4361973906300557  0.9731915973985260  0.1230261634493155
  0.0093937254701380  0.6701092150378485  0.2834731331236754
  0.2554710096967259  0.2524639837350880  0.5447674293436507
  0.8152986776283934  0.6380820084153420  0.6957192664435579
  0.7225980128687961  0.5250455464172317  0.8136486960916214
  0.0207773231528160  0.5049154570879548  0.3128677857387961
  0.3526162476368246  0.6572223996205213  0.2519519727779477
  0.0199930286915189  0.4909276834211257  0.3740863083719652
  0.5312590110035559  0.3876694216141747  0.5323743704442445
  0.2130440348544895  0.3209256769725193  0.4392866947537515
  0.5642086837983312  0.3236819642366149  0.6132500093279820
  0.1558242193833692  0.2563785281923664  0.0950496827982909
  0.5047651291395135  0.3309098343254214  0.5858945148697479
  0.2637658519124666  0.3503416129588844  0.4468079926458007
  0.0764642269089372  0.4720425930293693  0.1079561127634949
  0.4261250937671870  0.2315521082857520  0.5877884079602207
  0.5903369941551246  0.5621092286773882  0.7127752210226778
  0.7514877889014845  0.7479088823667450  0.8004423373498590
  0.2160275685989369  0.8883446956252876  0.3122530454850967
  0.5127053434793346  0.3149040692988014  0.6552384469037934
  0.6134058336360947  0.3565021044322962  0.6858977529531292
  0.2669585327254629  0.8566472666794109  0.3372786157774031
  0.6384343727567127  0.4467108266858277  0.7391724276965982
  0.6881329760682451  0.4533219699036272  0.7004646139804366
  0.4498620338735990  0.5509875391053242  0.2611723653111992
  0.8882678657054810  0.2380617571871278  0.4148891901243503
  0.5900863699134212  0.2591890619470056  0.6365976956500543
  0.2453622736997918  0.0468965858350219  0.0074675536500560
  0.4323718067289570  0.9124629787290466  0.4883317089896123
  0.4780207430733961  0.7746901170711362  0.4838286589270342
  0.8614912026581821  0.7650948444834829  0.9524748990901895
  0.8076440314563098  0.7644206144789213  0.9315404341925756
  0.5241978425129473  0.7656949077014691  0.4448708731540267
  0.5659413736762539  0.6853277331167517  0.4331780413072857
  0.7086516922941453  0.4590410607630316  0.9306806658551292
  0.7082711486240754  0.4239578191769369  0.8218147073181651
  0.5869327597084937  0.4427895867660184  0.7785360897034285
  0.6696115486802590  0.3774666988788178  0.8168406377787581
  0.4839290605442900  0.1622446236155568  0.8972411483259355
  0.4708061653128892  0.1744106530537902  0.8321711740232107
  0.7955680777258129  0.1621890856126679  0.4630087077816541
  0.6353009640194367  0.2970949081691718  0.7024209364461098
  0.8405880757721245  0.6553305646912279  0.7337581794508277
  0.6043103746126168  0.4153893379007180  0.9000831782186943
  0.5477809951806969  0.4239730451681652  0.8799008772568113
  0.2564353328293725  0.7025509709285658  0.0304632385859705
  0.7043700861845456  0.5747948942387682  0.8794571744386815
  0.9358648266479046  0.6942958077074796  0.7661851004998333
  0.5393400182857583  0.3956545019083589  0.2335203877965812
  0.6266583087858043  0.2068102318973009  0.8757781829854400
  0.3143227118399874  0.7963534011566836  0.2552934983956599
  0.1947673897072505  0.6136750636708946  0.0469868623385706
  0.3630321095728501  0.7500374831689492  0.3395389317180725
  0.6676558414374344  0.2259258737381012  0.7785330580371320
  0.5984832940651250  0.2478832290437848  0.6970213005002942
  0.2376802321141543  0.5283974813844453  0.0339156388540593
  0.5615481269004906  0.1994795592092483  0.6893110934893140
  0.5505589250496669  0.2105504092071553  0.6319760846707765
  0.5748941133394332  0.1547691153531037  0.6395950352339821
  0.2874856820807822  0.4975123784940684  0.0536696863945607
  0.5346580585100249  0.1261492274617315  0.5838653958429265
  0.4790612515334139  0.1091418123705125  0.4993758942800510
  0.4925052943455878  0.0388436278365768  0.5228364312849852
  0.4527216079085404  0.2489545003288298 -0.0233067494283781
  0.5096913079657643  0.2409981422008986 -0.0033021687708280
  0.7595145789935994  0.2819921659651788  0.9726542262705266
  0.8988894039771034  0.9157483498577184  0.6113479900475157
  0.4789725397747361  0.0028016608292478  0.6489328762155617
  0.8812698699980885  0.8499433461665912  0.6127517335303818
  0.9297993347040820  0.8725510080283346  0.5790678310181613
  0.0251715407823229  0.9905062966551968  0.1756861122060665
  0.4761646509620378  0.1197971367548348  0.6120075749997691
  0.8635728583162251  0.0730861971693055  0.4784071802311521
  0.6413151115543447  0.2669181274673663  0.5978037957907633
  0.7044175485323761  0.2751884009013019  0.7839813240961048
  0.5090193393806496  0.1939614786655932  0.7310325016698673
  0.3669575403475926  0.7944708731536888  0.3853704349844776
  0.3635597146031171  0.7647305365223078  0.2793554126556003
  0.7784316961538359  0.1962731344186933  0.3320018367579856
  0.8043651717345447  0.9698223309521964  0.5514588142917451
  0.9009199485019408  0.9826637713206057  0.5259633971481948
  0.8505619834253403  0.9423077753844535  0.5167852238131807
  0.7006810356633097  0.4719173032668129  0.3243177901199606
  0.6400369754698841  0.3816016331416446  0.3344556786539782
  0.4408553135592284  0.1119054334181672  0.8894911260268458
  0.4748179487158716  0.0118867314709846  0.8650657318847929
  0.6859103110011582  0.3036418113579932  0.3189152714353226
  0.3918582415068685  0.0751299649960015  0.8264323996139538
  0.4142254172386255  0.0168870738888240  0.8436991287026407
  0.8345256673034330  0.1782956013660621  0.2952154825717123
  0.9025997365666092  0.9489312213721390  0.6702929594856278
  0.8491143418514372  0.9450373338532366  0.6442255399353138
  0.9587632648871094  0.9454815377922783  0.7632364154111276
  0.9018857465813465  0.9546141416903368  0.7785949297725310
  0.0596760567837415  0.9019706231685863  0.0675766586525862
  0.4935961980193779  0.0898034846297113  0.5622687251172747
  0.1541791068275462  0.7962261654137126  0.0848360736065736
  0.8635310420574283  0.4969868163047782  0.9737515495355156
  0.1520414499038043  0.7500620632141980  0.0387743397926929
  0.2423699059402831  0.5892512772679962  0.0173237595885475
  0.1648702649592043  0.3961648385689598  0.4553980602413759
  0.0811742671733110  0.4882384382131131  0.0488809325864949
  0.8904956665126508  0.1788562394036880  0.4276064601111676
  0.2964993032706247  0.0710184080567099  0.3132244585603965
  0.7333766730015078  0.3366318320331263  0.7310356364142981
  0.1238918061327337  0.4420872737872096  0.3616640987908837
  0.6968288994389596  0.2870681074349686  0.7255708270016673
  0.1177204511003653  0.3795807497300884  0.3846287320240352
  0.0799286232677245  0.5335517748075127  0.0911391591655322
  0.1599095824230871  0.3012727748053849  0.3674889176882415
  0.3567272092341314  0.2065060073599519  0.9537505633894493
  0.4122642091100713  0.1803594352196260  0.1466336383849879
  0.9943865585592300  0.1286799459561633  0.4146390176268057
  0.2574837144773249  0.1918176019777053  0.3756684016273749
  0.6057705317190285  0.5208000853079853  0.6652069408248785
  0.2712347753557156  0.3482733776911325  0.2172982807793881
  0.4047513595919701  0.0771426639411202  0.1123699452975014
  0.3439515837954243  0.0475311932372308  0.3441811482389877
  0.0697306904523318  0.4580179508491947  0.3932893069209273
  0.4070212984664136  0.1205022640763706  0.1620236963414307
  0.2183672079108494  0.3371137199160411  0.3803101216976157
  0.2150430573857820  0.2845108884635555  0.3308982512990717
  0.2061781251033306  0.2262759111730060  0.3489322538261325
  0.3039298324531489  0.1337539812202963  0.2943986816110248
  0.8424356749615479  0.1995808045599883  0.4590717981508384
  0.8241074266609419  0.5446912596200976  0.7362151851206344
  0.4959244232600176  0.0206956706501529  0.4099560057448579
  0.4139324029062983  0.0825386151631094  0.4807393636755504
  0.5246859525489553  0.2838295770359678  0.5549589137987666
  0.1117858583337681  0.6258116341020629  0.5318688175232851
  0.8850587242301552  0.5369782612814161  0.7560138810889928
  0.1288566419765956  0.5335996301496863  0.4475755903077446
  0.5400885588249773  0.0792359112567295  0.5325195833396181
  0.1221332689285996  0.4718485294972405  0.4702478721644681
  0.9383436125125667  0.4438382876175319  0.9641865809906937
  0.0287552821885317  0.5492516946841215  0.1238332563003476
  0.2986270733849106  0.6582832394752721  0.3487224290391986
  0.2447091982466587  0.0405648028042708  0.0684038167906571
  0.4484786406332785  0.5351243250894521  0.3284717459114597
  0.0005818445038270  0.4302597284689704 -0.0214650483505031
  0.6719791773920680  0.0668314388324623  0.9131998274451572
  0.0084789044120187  0.3022786016147690  0.0215984443801594
  0.6862794322098302 -0.0019366534558156  0.9027615661351324
  0.0417678579165414  0.2092330258676221  0.0135732745976985
  0.6102362723325908  0.0702991092024110  0.7849213702013517
  0.3058345327505013  0.1807679676113747  0.1109001073403365
  0.4906968549278623  0.4429833551105613  0.3721531609967608
  0.1940119773511746  0.1220547199944262  0.0899438844297190
  0.7786058950980853  0.2414211391782838  0.9128400497707392
  0.9745213030321607  0.8309996827578874  0.5711929726113544
  0.2482531805001539  0.1076657381336946  0.0527974327942033
  0.1492127472208025  0.2113898598797220  0.0487154048520254
  0.2612925706886612  0.8276242945532036  0.2291476745840469
  0.7289899379094825  0.1972452971727097  0.1960306527303362
  0.4968286226465873  0.1707588559910154  0.5686850394357849
  0.3582975274260305  0.2163416302381602  0.5157046185121456
  0.7081421195920606  0.7155420770989182  0.7325718307374622
  0.5583155162954517  0.6274254012532093  0.4520199796108072
  0.7752302552921025  0.6920087390505844  0.8154362780704820
  0.6311670593490525  0.6140825923662404  0.7243809845967861
  0.6971930714783849  0.4447067338241504  0.4433713875899072
  0.5899699874101642  0.5560608917001517  0.5436563903532620
  0.8029851011903093  0.9119186297286511  0.5666238540348668
  0.5625181489941038  0.6129726928399543  0.5191119074116944
  0.8180390247542378  0.4314282457214741  0.4937241246318322
  0.7225974648660020  0.6710152108896488  0.9182302132486867
  0.7882074376256956  0.3396385863205053  0.4676571065841814
  0.8880169068493291  0.2852795888900090  0.4584576051673016
  0.8368509185311401  0.3073417885888414  0.4919032900404253
  0.7352044070252357  0.6378548404594834  0.8097932771911696
  0.6371717260103552  0.5958979248107599  0.7854148844500368
  0.4023316059969544  0.6266926731931863  0.2784234227288727
  0.4493453104590260  0.5634592083078616  0.1995083718790873
  0.6505087365613856  0.4035653860476418  0.6927465307748899
  0.5461332214642731  0.4563716306923083  0.2153598584642406
  0.3359111696853356  0.0044687350722090  0.3054341460965930
  0.5939024735367238  0.2795467130563994  0.8016306630812724
  0.5277768364040343  0.4508884703684997  0.7581865616001253
  0.8189911402347629  0.0428849505801229  0.1626792904429561
  0.6717232321700375  0.6664779289713949  0.7301729480181935
  0.6623506198238377  0.6839093336522192  0.6634286219939897
  0.6058591765787991  0.5963625461476363  0.4825747263620507
  0.6729824886623026  0.6368243079020690  0.6156082508373569
  0.6351942113870620  0.5883066270935631  0.6092076095869058
  0.8303350282428343  0.8980671914653919  0.6202496406878367
  0.8616070630406424  0.9470140301018618  0.5742670469112354
  0.4725442218245656  0.2917102372308030  0.5348023882740930
  0.5201171036658554  0.1784702876573850  0.7926950603784763
  0.4584481820923820  0.6572783997469375  0.2877420293029895
  0.5070216446928839  0.6275209573211242  0.3165613259697034
  0.3967211427523158  0.1653556807486362  0.6434247829671271
  0.4204492607790953  0.1116333832038946  0.6622707036809086
  0.4142289768837817  0.1042843685681123  0.6041308440914759
  0.3083300485515975  0.1259403376958443  0.5633651734874245
  0.6637587368761012  0.4062748636846903  0.9278405810080178
  0.6844184547548199  0.3503045664088753  0.9462800348384701
  0.5722804257747591  0.3354750840658139  0.7876579274748907
  0.6847455212344901  0.2727227916771024  0.2134783195383030
  0.4744350109270932  0.2644107717741390  0.6542442330482220
  0.3979319431752779  0.5723117389672090  0.0103960116416253
  0.5894592318658837  0.3804970333967708  0.2013730012867321
  0.2201799576604271  0.3857282764338538  0.4257626172666886
  0.8275446291427970  0.1358480343481059  0.2530413044792481
  0.5108325246627501  0.7542082379251799  0.6084083842963055
  0.4057320578176043  0.7438295649598136  0.0157295266802480
  0.3620471830520778  0.7657193713015878  0.0520795607307379
  0.5384346981000897  0.8497819483073838  0.6535434983626708
  0.7566595291133181  0.5325131643292345  0.4396323835373280
  0.2179520329569152  0.2132693382204018  0.6861464603628630
  0.2335785242633134  0.0661401594300986  0.8883722616658233
  0.9072237765705972  0.4090145353320326  0.4200225216652760
  0.8473524619043090  0.3345882276144441  0.3668088342106182
  0.4670128403979175  0.4296321617152081  0.6324483838508144
  0.6530427465650303  0.7079566095772970  0.7701908545465687
  0.5870960964333666  0.7323250216133974  0.6883556655219348
  0.6736386844493993  0.5285729121479324  0.8497442404069282
  0.3530913276222271  0.2804127371260243  0.6105630063647600
  0.4552716981893652  0.5926862314255670  0.0785216408995499
  0.3077791217013253  0.7335730942788130  0.0409150156918125
  0.6606151363067949  0.5617841957712595  0.9843817812075988
  0.5689565304151094  0.4714111455126809  0.6581449553074471
  0.4638135717996624  0.1670873884483494  0.3394398346936136
  0.6163184611718423  0.5049981659888707  0.7241502722460127
  0.5543328647626625  0.5163038133959436  0.7051046486487820
  0.1542289085274967  0.0996881385234332  0.7406999471860264
  0.3053785691131628  0.6221506828763272  0.0159781237777111
  0.5074923227684782  0.7559023663071698 -0.0074414111786606
  0.7989858586846119  0.3665174107146233  0.3363684063841680
  0.4383778254282948  0.7745084267028187  0.5235030417950070
  0.2151650454276335  0.1233125138877098  0.8671248961881680
  0.2747251235473790  0.1167364229922840  0.8905083842736267
  0.2839741646864449  0.1454232581120652  0.9979481466323088
  0.2106252294034707  0.4407680501430765  0.4768714777820266
  0.1870605151101928  0.0295403590719957  0.8221586983200909
  0.3980502206263430  0.3769072079512419  0.8907953322437419
  0.8085973842399808  0.4718477511301020  0.3624421311018626
  0.7530650081138400  0.4407130974780859  0.3522124529604097
  0.5399277574769085  0.5054191054040228  0.0262857916750249
  0.5865154073778239  0.8945344068228001  0.5624085655398285
  0.5369736811148578  0.9331771808825804  0.4574436576348109
  0.9419307663482286  0.3070550895370235  0.4697278298824363
  0.9447081630975459  0.3644800419952613  0.4700240118879362
  0.8824254013177467  0.4067564931762553  0.4952234696564914
  0.5749333327686469  0.9533911666928567  0.6502214821022314
  0.9623463779069344  0.4273517783068064  0.4832379088590352
  0.8028102837673975  0.6165424163594992  0.4994891852944995
  0.6894187801342296  0.9184350782672436  0.7534649308377950
  0.6842132732486004  0.9771465940886681  0.8066714285251094
  0.7368219471335758  0.9507546887261499  0.8204748522116911
  0.8936576994776069  0.3011620815229092  0.3958243475831351
  0.6245735232201486  0.4896321724335935  0.7825430138534353
  0.5499993032779515  0.7998036534549631  0.6118952173031510
  0.5170253025926067  0.1942942972071466  0.9531212943798956
  0.2702023106766820  0.9158170934002257  0.3222165118885220
  0.1850005497293605  0.9378471092019139  0.1382862992563431
  0.2491097059173786  0.1387288756649002  0.5441963316497197
  0.2480439930907352  0.0145182922105858  0.6386340585701360
  0.7204210931024901  0.1201174358798105  0.0454077421003231
  0.2997584723331410  0.1197966742255095  0.6199152904663804
  0.3256386191340201  0.2147543483875755  0.6689632884424798
  0.3980758613430603  0.1961805912520022  0.7501125852764786
  0.3858822215588184  0.2376817282986004  0.7933520217350514
  0.6577597078644651  0.2756593471211384 -0.0081314001455866
  0.4932850895155115  0.2691690822959130  0.8790733812945134
  0.5516820335584459  0.4399012798650296  0.0466291111173167
  0.5159200232579012  0.3607434139159034  0.9363881045167926
  0.4999425901892596  0.4543339378055309  0.0830045830751626
  0.1861117016866155  0.0838815437831073  0.5370157688671789
  0.4818163455611438  0.8188066354007072  0.5313401870673494
  0.6784523006063310  0.6825193526449944  0.4685351877629910
  0.8063899266798871  0.5993267051225969  0.9477475739818789
  0.6466398433034268  0.9751299581627503  0.5416656540352406
  0.3456209981278235  0.5629075702296348  0.1676461660469128
  0.3486279989096149  0.6106995534323495  0.2108409289041805
  0.3158983626954339  0.8258522316853933  0.3606766290192149
  0.5508523559052446  0.5813032848363426  0.4078688955475213
  0.1903372593557302  0.8946219632341549  0.0906528155159642
  0.4991666327445661  0.3870614574619380  0.8115969869676637