Cr  N Ni 
 1.0000000000000000
    21.1263713165068658    0.0000000000000000    0.0000000000000000
     0.0000000000000000   21.1263713165068658    0.0000000000000000
     0.0000000000000000    0.0000000000000000   21.1263713165068658
 Cr  N   Ni 
 259  86 605
Direct
  0.6566367572877559  0.3363898795188591  0.6661627939857270
  0.6631262782339851  0.9964863999553323  0.0014716817724976
  0.1635516623900984  0.6689708756104107  0.4969208566130401
  0.6590079275647989  0.9905830186495275  0.8304623970915503
  0.8305938320396095  0.0854034453066641  0.4151770569032140
  0.5783776583480991  0.7510142458307915  0.8339760614877956
  0.6671763956468880  0.2439208931171722  0.4188046021976819
  0.1624547555381631  0.7530260193209947  0.7488237213002326
  0.9992351958072833  0.6624488781861494  0.3319905906451148
  0.6573006467996323  0.1639009268399222  0.9989760773585579
  0.8330589551239331  0.2488164909153354  0.4141446781759295
  0.1661971426148041  0.6667378453596023  0.3314012113842781
  0.6670617825990083  0.1693274885684450  0.8376906607900841
  0.5825143748030046  0.9230110676441018  0.1708583907859786
  0.0823440814144809  0.4142949693062671  0.1727275907649681
  0.1663214819747260  0.4175308162970053  0.9236011578954778
  0.3281701113736478  0.4187247230889216  0.4153950517767128
  0.7498697061249108  0.5012441157277100  0.0836768586144109
  0.5720555203236363  0.0794751900190749  0.8302959784650151
  0.5814198285765422  0.9230290478566320  0.0027520356927752
  0.1613606512455400  0.5001269194656204  0.3302983434639084
  0.7456684411841767  0.9880654962283194  0.7436119962807397
  0.7468268523276504  0.0817847481141565  0.1695304347752789
  0.4941588372590984  0.8363306316493336  0.0028294174021077
  0.6698961726158709  0.3333324503654349  0.3359082065857967
  0.6708188160234491  0.8336410554632880  0.0028769083996485
  0.7510933473263566  0.2518235561103622  0.6620616398284640
  0.5840122684084880  0.7449421929868110  0.1696946636189345
  0.7483154806581820  0.2485662947254661  0.8389771119523752
  0.5796196482068711  0.9185412858294020  0.3276959916215912
  0.7511645599219523  0.3387052609181034  0.9245721008325491
  0.5810746334504476  0.3361337597897874  0.0817161002462708
  0.4955799664344393  0.8382434743651266  0.8318680623504942
  0.6661383948840927  0.4220019864771476  0.4181274093176068
  0.7463850778859021  0.6642369071220063  0.4139106109439976
  0.2499069367552627  0.1715501553601398  0.7564440965045065
  0.2415557836491023  0.3299544740460638  0.5820510108019250
  0.8366917472184995  0.6592610798574509  0.6659910926717609
  0.6695046611080532  0.8344632919920623  0.1698028377145332
  0.7425324767035126  0.7541117151927823  0.6613421932405104
  0.8206865486182365  0.9195575068925687  0.0864567113901308
  0.2533104217114519  0.1630115469862868  0.5794311384426736
  0.7454932917744511  0.7472120207440146  0.1663425896346314
  0.0809132207835831  0.3337849313986756  0.2499876201812061
  0.7502060203320586  0.1673884971914759  0.9137823076506075
  0.7489105869331627  0.7474714598274844  0.3439563846673731
  0.1650470013351659  0.1656231034524871  0.3319801943386076
  0.7436584985473524  0.8388735312466675  0.2530908020017462
  0.2472442146400557  0.1634912311612854  0.4148687812683568
  0.5836182254130029  0.7451997954858419  0.0024296329305348
  0.5807103199318182  0.0014442228495831  0.4175935545890600
  0.6691136484040805  0.0849225246597884  0.4169586940566172
  0.0817181817775003  0.2503619995644706  0.6721683566897624
  0.9179940278004328  0.7425944693500378  0.9971899182425262
  0.7505780019122983  0.1668059491353478  0.5717692530476605
  0.2474481824847360  0.3325308465765917  0.0797370276735479
  0.6687727310469589  0.9193293756958828  0.4169668508886970
  0.7508505321672746  0.1649786828043015  0.7490175351132115
  0.4945826733592922  0.7504996968243870  0.4145892494470840
  0.7478473383786658  0.0762089092336490  0.6575389461576825
  0.4980565183012692  0.6620193072864829  0.8360775915782666
  0.3417808552160645  0.1677152124040385  0.6669428226221296
  0.5775592144450027  0.9162491135484101  0.8309201190106069
  0.1618322991216123  0.0840396304462919  0.7510783080117008
  0.6727769279882160  0.2477052790870576  0.0855902743477497
  0.2350167138502269  0.3344628451080028  0.4138518295194988
  0.4103572740023759  0.3341732173498090  0.4166306431004065
  0.5804611415433674  0.5790635100096997  0.6702991345451115
  0.3295413595515865  0.4150671965382335  0.5870364061422593
  0.6653939512948532  0.3344345902414260  0.5113222072551046
  0.3341051277902639  0.9204933908048720  0.7472893669870657
  0.9084999468463052  0.4206034621436168  0.8355514787912046
  0.7523131181121314  0.3358076766380300  0.5738134958781769
  0.3308512912533182  0.5036308221686794  0.6722395889867098
  0.3317638811034463  0.2396112149468986  0.5830036496314401
  0.7480260842032803  0.3412254631195803  0.7504783324508217
  0.3285008499739170  0.5016626168276707  0.9995250385323947
  0.9930953637306846  0.4167232411204780  0.0853748100177226
  0.4948694772715805  0.5794490642317737  0.5823737824020792
  0.1649168547208903  0.7475338909347710  0.9185066421428369
  0.7493719275867486  0.6640319043640591  0.2536797001024696
  0.6724351563688457  0.4230136972177645  0.0819515462108017
  0.6653624812157281  0.6597426963683518  0.8369864447571035
  0.0808359642705103  0.4178528710728329  0.4946102020284667
  0.3210944367764788  0.6688136783343264  0.6664194157760357
  0.4080765307202801  0.6696311165162391  0.5773507320269848
  0.0837568367551209  0.5801002984600654  0.6639544716249300
  0.3246694347696212  0.2438343261360450  0.2486160413794024
  0.3318707583279037  0.8337680556777377  0.6587502510069371
  0.4157001485928650  0.5773418002932137  0.6695004773461095
  0.5800280071518176  0.9182006529375425  0.5034298253057601
  0.4181308789267740  0.5016675758184367  0.7551717498316660
  0.3314830999247854  0.2497225345871832  0.9164255198746305
  0.7472217493657384  0.9070657939939770  0.8338428510741864
  0.4040361055035648  0.7484201403986561  0.8364516980936124
  0.3265539062008720  0.4186126193588624  0.2482308216469907
  0.3298957462287039  0.7451559159372891  0.7509948475295176
  0.0839643125329876  0.2521201150567026  0.1678516897862511
  0.7494714854167192  0.5753366973851638  0.6667411389731384
  0.4122983260148337  0.9976474653692924  0.2520962642626899
  0.0831505240122601  0.7485062560889431  0.4942025648397696
  0.5803165646662164  0.7572963493931653  0.6622349409927075
  0.3273399589052639  0.5032072086945339  0.1560626852022095
  0.5737083783883755  0.1645723023525854  0.7439692929301465
  0.3312609351947417  0.0886858499968972  0.9151990760374631
  0.2459185216548226  0.8253684247611950  0.9166644075385256
  0.3295617938870579  0.8312947603174672  0.1681251718124387
  0.5831811206632687  0.5116959514270568  0.0827085712920292
  0.6656212390229863  0.0004299368192179  0.1712100087020391
  0.4910361541162377  0.8329999415698115  0.1703519356382961
  0.4172516177716395  0.3341814474799328  0.7548094418932776
  0.2487217545395315  0.9986396195058246  0.2517426538197181
  0.4191160912823805  0.5065803426025166  0.2500365392621802
  0.3311370707021589  0.6686735836077555  0.3324903765522387
  0.1518314251440362  0.4196331605661887  0.5815045286213365
  0.5800525787406470  0.4202221064288555  0.8376962336628201
  0.3273263134495595  0.5033710178959377  0.3299518111152346
  0.7429803350736520  0.6672553713540578  0.5738192775223822
  0.3304289505577560  0.5019964478479736  0.8457013961451999
  0.3321492433424129  0.9111739964910821  0.9177866510378965
  0.7488246389581481  0.7574309226367641  0.8356910170276816
  0.5022271604803764  0.0724986865129043  0.0866173967022257
  0.4905670551436564  0.9162861810775463  0.4142378637110653
  0.6601917046660883  0.5853865903525582  0.2518409382339489
  0.8275314450551247  0.7522255691477839  0.5729078629317822
  0.3246452178820881  0.2425484632514974  0.4151377121468794
  0.8349440428530286  0.5802684927439331  0.4149706634554108
  0.4936493859365871  0.0806179702830241  0.4167032994333604
  0.6598324588972041  0.0774456206662976  0.7431073753249369
  0.6587772081062313  0.7473220977117635  0.2532311861874942
  0.3294635467235527  0.5020255111436706  0.4989331085841263
  0.5828915345152610  0.3312748968487452  0.4183126424543525
  0.3302243633329517  0.5953327044874238  0.2490893136060837
  0.1623731531696182  0.7470124084660127  0.5786132837592554
  0.4169383011507087  0.5048967500773540  0.5825884006166688
  0.4956232221178011  0.1658430992441196  0.9922550623938569
  0.5850537498422209  0.6704394637126528  0.5774977107393061
  0.5883198042012251  0.1597659033021129  0.0841207282312068
  0.9978705374648250  0.9207068847781831  0.4066744493095515
  0.4127925953493125  0.9892730500777984  0.0863139304997425
  0.4124554207941638  0.9161486440702938  0.3327655118846945
  0.5824562972575419  0.1747547617235499  0.4190882163677949
  0.4090713287066706  0.1661110019209130  0.0805998238424018
  0.4143411552790454  0.9168215209592464  0.4979763588527075
  0.3285857941019328  0.0809701686477392  0.0856399413503278
  0.4965107674027371  0.2484124519257586  0.0814322571943230
  0.5830503632307351  0.1630808044193609  0.2508623291488414
  0.4151269789836639  0.1570453162624495  0.2506762125478154
  0.2496508160271698  0.9987417929706877  0.4146225443418519
  0.4214207592150521  0.9971359033224545  0.9149819240806486
  0.4189631626965284  0.3281274316653360  0.5883130139513790
  0.0901225921622082  0.9164009611039796  0.1657186535398496
  0.0836819181680135  0.5057064589166352  0.0845274554437840
  0.4138120240819358  0.2527309372310221  0.8341732860043315
  0.4979663193657490  0.5055935357110427  0.1724278747389154
  0.8318539136766634  0.1661155703143160  0.0037472860106320
  0.5779160750176067  0.2576044573979576  0.8378235220828262
  0.1556184007156015  0.9148376406432435  0.9176416207636828
  0.5827750958475443  0.8317437307877922  0.2607135201342556
  0.4987911698123294  0.4243808010398850  0.4159569191262410
  0.4942846165533488  0.6646343773152102  0.6676077952791725
  0.4993481032964119  0.7571896659384550  0.5791761935391352
  0.4959374686067061  0.0812521507085419  0.5829997627332593
  0.9235541822313069  0.7497283287984590  0.8377869931327565
  0.7480249016633409  0.1649192167152929  0.0897907892379537
  0.4954909209746918  0.4215225113586339  0.0801898578162631
  0.8288534500715998  0.9204819677223636  0.4164924661300358
  0.5825036534288767  0.3331635220204409  0.2446499855125266
  0.0048721367837331  0.7403932517594888  0.0864482962659434
  0.5000123606735082  0.2458624601853091  0.4171965077701244
  0.9100697312584860  0.8308000751700129  0.0861444185537445
  0.7480579043923928  0.9994332655737780  0.5809199843396368
  0.9115287096556680  0.9198666358168543  0.1753153484581895
  0.0818256581755224  0.4178657157068244  0.6675806497129744
  0.8281665767413592  0.7529837911105838  0.7509686371619279
  0.2480283879594870  0.6670378030913688  0.0844222463287573
  0.9998646933902923  0.4998077342000215  0.3321993749157323
  0.0034399483843211  0.9180256528843961  0.9058490680016658
  0.4123602436123776  0.7485906281287082  0.3327324868201686
  0.2498319565233401  0.0829017835252848  0.8387669640822207
  0.8306996988333893  0.6611117823377888  0.8441806488898884
  0.7589583002692210  0.3371128774426521  0.2507683116998319
  0.3288933257144760  0.6675085881941784  0.8371051472399265
  0.0074480527039107  0.7525698832196516  0.5752795562423727
  0.0020335281233630  0.8292562657267187  0.1713995649028410
  0.4140128583870685  0.3321757980367421  0.2473094172497273
  0.0098173399117949  0.6603903028262443  0.8370113547038851
  0.9984703478960675  0.9233218118029490  0.2629115907782655
  0.9123114089921327  0.8352866737583362  0.2637103331573687
  0.0839298750703981  0.6646055021868553  0.0852147340362224
  0.9987440224898163  0.9185840116280899  0.0837045294740178
  0.1667936762209454  0.8326496008862347  0.4925732447292369
  0.9258448044685705  0.6596801841501309  0.7490881427652205
  0.0013878494970722  0.8296414215112017  0.4904631047448311
  0.5057423874681408  0.4182158791417921  0.5861106590982488
  0.4963591709641982  0.6619694652032300  0.0003867418289145
  0.2463824599967314  0.1708546160048583  0.0830463570814554
  0.9174390836433398  0.4194446134391090  0.6643306259676862
  0.1659361782997257  0.9245129904654529  0.5781595662058323
  0.4034145885946588  0.3340402737452171  0.0782249313863127
  0.9979727238978054  0.1660748513265982  0.3322555781074820
  0.2428747353795624  0.5021396968882432  0.7512862510132612
  0.1651264569491812  0.3280172643417268  0.8347981747342628
  0.9155497402431653  0.7409840178551291  0.1729885381800786
  0.8354706465583577  0.4184544082981364  0.2506692239435773
  0.1659704930750052  0.2530531068593638  0.5823738640105763
  0.9163233026300420  0.1673925788493868  0.7417021457149682
  0.2473522490494129  0.9950301384645119  0.0865518728037020
  0.1645414251520323  0.9888538586954735  0.6645723228666178
  0.9975119363975468  0.3307534603218212  0.8334116390237967
  0.9092774340361217  0.2498400256251967  0.1703078942230565
  0.0019813329787189  0.8279574319020874  0.9955107450625819
  0.7474533978328598  0.4268466030899495  0.6655939654158244
  0.0824655077864415  0.3304639817393061  0.0829568339916787
  0.9970290098804316  0.3375849820943121  0.1693140596821051
  0.9219927020410276  0.7503873852131298  0.6624096976646170
  0.0830297370290477  0.2501582737604706  0.4924436191900793
  0.8294297040585864  0.5724219981346444  0.7488330993948585
  0.1556016495217254  0.0854761631235337  0.0863729189233473
  0.9963949848687454  0.0066924672945475  0.4960370647662251
  0.8400966033089290  0.3390981202221621  0.8336331074343324
  0.1631521544263344  0.1683582627362797  0.6704692402428758
  0.0918863164996738  0.9161951735573955  0.0019598911254874
  0.9992429810265466  0.9188064406860702  0.5844964912165592
  0.0821412888454194  0.5005466647825023  0.2500211458229022
  0.0752537311034067  0.1618341267772474  0.5779439622815048
  0.0902389287880929  0.8294361717781781  0.2533835975756045
  0.8298747957550011  0.5797970386001884  0.9217689576169577
  0.0026985967560577  0.1694122119832573  0.8304754968996778
  0.2455390684879052  0.0013301244672832  0.9180286129788935
  0.9137667511711894  0.9183131897849427  0.9958151940692995
  0.9117566230725336  0.0843199447250365  0.1718511571635518
  0.0042320983623403  0.1661389097972432  0.0051148046159855
  0.0027947063540660  0.5048517818541465  0.8353810772334472
  0.9976222545926768  0.8325013947082432  0.3473761392984012
  0.2390401353956362  0.5057401770751299  0.5804156410092427
  0.9971513876923911  0.1616506077307974  0.4973392008665853
  0.7505805014441428  0.0834431172294715  0.8376801423642521
  0.9178785011157471  0.9198555536529408  0.8348736085044692
  0.9899664221372138  0.2522839435378380  0.5838580235914903
  0.9133788446081297  0.1671055748472874  0.9172082542774397
  0.2540239900449847  0.0755942530163497  0.6627453466873360
  0.3318398632957704  0.8317380429840371  0.8359233649851429
  0.9160694721936483  0.4181814608856275  0.4956474583118758
  0.9067492157461249  0.9192784976521815  0.4952064921690550
  0.9183861001545498  0.7514049485954419  0.4851780199323324
  0.9169720729912948  0.9185996476099860  0.6579700142967222
  0.9206514798979376  0.6592484106448193  0.5746054476999314
  0.8303602344526776  0.5735503283531115  0.5807832326396047
  0.1642828715487846  0.0834774777617409  0.9240566430146449
  0.8363872020660942  0.4170566222939829  0.4170817505913192
  0.1629880802820213  0.8375330483628513  0.6680805184927899
  0.9161223113358901  0.6530541644082580  0.0844505638131979
  0.7524630695278742  0.4902896962597598  0.2517393564133865
  0.9957731725035259  0.0045768108230962  0.3348974446875058
  0.1667505067287849  0.0750456470859358  0.5747946489259607
  0.8340999597488661  0.3366497259897400  0.0007505056366955
  0.8314048504192701  0.7499679690479470  0.4137214338947229
  0.8366417971747211  0.5807050183918423  0.2502360983229284
  0.3297699730554060  0.3254296502658729  0.5901880443761273
  0.1674430603395244  0.4153540727223701  0.8364241005557576
  0.2386631736432596  0.4177369152896524  0.5855492047448700
  0.5805524343615067  0.3351717530424394  0.3302368798042473
  0.5835328683570898  0.8349051957841203  0.9995003618825419
  0.4989076046661473  0.1593973336295395  0.0809577901798026
  0.7481777884401193  0.5763584353272027  0.2498983742160736
  0.1674942531176997  0.8357698407815199  0.5802647719288780
  0.7501556802358885  0.3403953912464456  0.8391380974044932
  0.9277386191698950  0.6576499667365290  0.6610490978358010
  0.0020416481854628  0.8284290475320751  0.2619890653270580
  0.3296687090230107  0.8331947860752709  0.7468870122813968
  0.4151179441110471  0.0758833877145453  0.0832208003562055
  0.6638177277332820  0.7479748198354079  0.8334162938080953
  0.9230100493898012  0.6605959493143934  0.8408376558941486
  0.8309021459348411  0.7556817441595581  0.6619943295750979
  0.4177996040144415  0.4194256345834522  0.2476974882151646
  0.4201523010035612  0.4162135982815823  0.5860008405234391
  0.8333318791643726  0.6593654323158137  0.7555265655182508
  0.7529808593501257  0.0746825552239890  0.7465014621973066
  0.5851115922427909  0.4253147011424381  0.0810780467045163
  0.4940849775450715  0.5102798837804823  0.0838114067417930
  0.3300514166339628  0.4997208855830814  0.7602719452290905
  0.9957064095976185  0.4177015995576782  0.8349537281716723
  0.7470455280438406  0.3411316802578077  0.6601747601426853
  0.4927942611226595  0.7482857506981011  0.0051626302807470
  0.6729221269906597  0.3329848330685153  0.4253865552988196
  0.0015130366503752  0.9242502297604475  0.1725613961275083
  0.9073399066181819  0.9236303936382525  0.0847185534984474
  0.9973418193722360  0.9182300206845192  0.4958972718379187
  0.9151163631086022  0.1668326024395343  0.8276358725659028
  0.5802882363567682  0.9123396155407735  0.4157039546468371
  0.9181772258032502  0.9210137141947067  0.7465322742491983
  0.7495577332243322  0.1642335245969388  0.6567582362823430
  0.6607819309792594  0.1683571053738432  0.7454484041294621
  0.9183049852269242  0.1681384218321045  0.0074001686907018
  0.7493590926616511  0.7521058283362979  0.2549730817068608
  0.6598987033230092  0.0780970833372071  0.8352436813094370
  0.4146962273527465  0.2423551061891689  0.2459094237895620
  0.5807431613887859  0.6697278479094191  0.6708414026453825
  0.4902360856730161  0.7498691989615208  0.8300466915451834
  0.2427293377079084  0.9121699264247015  0.9182888779255775
  0.0822211484269210  0.4184435951215156  0.0837415375778839
  0.9963406466846482  0.2484968817119226  0.1679696278232093
  0.1633170964547305  0.6672869657281887  0.7496170246097729
  0.7500574294320179  0.9921082853609269  0.8354967414469587
  0.4056992330033775  0.6667450940431272  0.6682559989755164
  0.8360400489905987  0.7528557515078945  0.8431450199940776
  0.9086791707184443  0.8296198787612331  0.9938446208946057
  0.4954766032394178  0.6693513811873200  0.5753718106100009
  0.3236958966975623  0.3308284608654579  0.2443533165002895
  0.0899473406469229  0.9195903816039709  0.2534858722721885
  0.7467073962291830  0.6634029079392340  0.6645405921877635
  0.1606429696745276  0.0758430515355482  0.6623512425292990
  0.9193184139482606  0.7509493773001935  0.5713028806568268
  0.8313084477817407  0.6604969112208173  0.5730269408026153
  0.4965383719208273  0.3369733605457026  0.4201725127927330
  0.2543695368511529  0.0802407283396063  0.7518106988674835
  0.5813630777903488  0.0886571722737491  0.4175996375864164
  0.5744570255697130  0.1702420563082614  0.8331489099792216
  0.3202598630572744  0.3308120556923323  0.4168194711548311
  0.2545175860641535  0.1688528600640836  0.6681826171575374
  0.0041534258328786  0.1675170163585707  0.9178789154801259
  0.0043965318665824  0.9214249010823625  0.9926771836005801
  0.3272681670527938  0.5066605365038251  0.5861385887178812
  0.9943510996470318  0.2496981272772388  0.4941845767285941
  0.5856211466486898  0.2468104883033058  0.0831219959384986
  0.3273574126830352  0.5087567547148080  0.2413534202959905
  0.2410334152410440  0.0830503360708286  0.0860192105225428
  0.0057424707507018  0.8285658595942061  0.0830004171272289
  0.4120092026566019  0.2427480205303138  0.4198511418218005
  0.7435098693064608  0.1658637276905684  0.0019946431228215
  0.9078383677691237  0.8292329539549672  0.1769780730074363
  0.7513257840207824  0.2532053664197349  0.7508909936829959
  0.3293829919233642  0.5070001007510270  0.4143863541367520
  0.5844959664860886  0.5805340400563375  0.5804140911391421
  0.6743088300225772  0.3355977548916403  0.0780077348284554
  0.6717818216809260  0.3336910008811679  0.2484916185650775
  0.1647237010983598  0.1640256772088426  0.5765943113975470
  0.9238344240068882  0.7505643787301655  0.7506061677297765
  0.5796283602073209  0.8341037159783555  0.1724912408887446
  0.0774377511826860  0.2525019179595887  0.5838559452110090
  0.3348001793743925  0.0011327246551481  0.9178589305269015
  0.1601829774085490  0.0864990867349124  0.8393261226087808
  0.4899198944704067  0.3348758258719512  0.0803264613360596
  0.9115920366598055  0.7388276174965692  0.0847947132930942
  0.8324582667628194  0.2495223474931491  0.0860747785972295
  0.9133814013874567  0.2558567828064552  0.0016748410118785
  0.1669793898622356  0.9993981740346420  0.4942472713852765
  0.9984829438880309  0.1618745646557720  0.1697675088888191
  0.8317246163354777  0.2500346158101776  0.2513620106500334
  0.2480613728989902  0.0819054424507137  0.3323007592257174
  0.1696533333892030  0.9166222819722497  0.4146889236168695
  0.8303866615893210  0.1669538353516286  0.3339964960134769
  0.9139862245243164  0.1658133338705473  0.4136893526765956
  0.8337694558227251  0.3340759966896185  0.3343210216357462
  0.2388647713486758  0.3329680539398320  0.2494345548647400
  0.8325791063694626  0.1659325388845754  0.4977876661838613
  0.9134556718648698  0.1649331595285692  0.0931421554332981
  0.2521549085299549  0.9971610659433280  0.5795135317136090
  0.9132173846886749  0.1664715310797894  0.2522721489694153
  0.1658714877165513  0.0820328252169156  0.4131212154473793
  0.8390896826243179  0.0828547785112934  0.7458858373515236
  0.8325067952279855  0.0820820851765049  0.9176705994240045
  0.9140112835278259  0.0012173094877696  0.5794187686140312
  0.0010606148617709  0.0854957482927856  0.0865176685722100
  0.9136074068847820  0.0799230974013987  0.0013152165535314
  0.2464127227753203  0.4175620104804434  0.1637989261560505
  0.5818814204292924  0.5833829963643515  0.4934769961923068
  0.8283840185684207  0.0031571614519468  0.3350899114232179
  0.1652311378477119  0.1742351837847092  0.8328283031572616
  0.9118291168315642  0.0043734354846351  0.4153386700564341
  0.6637103107489164  0.7538648045865103  0.7447935904861890
  0.3338689448942228  0.1674165179969867  0.8339317239025089
  0.8371749052384367  0.9988439890716406  0.8325641256570055
  0.2457621076837006  0.2481343591899598  0.4980696624399671
  0.9133923771498271  0.0841099212616291  0.4969575016644739
  0.0811163530623850  0.9991548354232510  0.7479257375167595
  0.4966928966620206  0.9150212665593451  0.9168848584330005
  0.1630494304978647  0.9965966131749069  0.8337211648898043
  0.7447619636839196  0.7469460891111243  0.0040042613381832
  0.9087294486382614  0.2491669918893050  0.4958100610758910
  0.2452746603509318  0.1654892213737537  0.2504597886210624
  0.1660423866966679  0.0003326600183535  0.1688593128709399
  0.3298404375200596  0.9971165562773832  0.1696336626498743
  0.8338149233256155  0.4202676765245408  0.9205102471979039
  0.1647949690273650  0.0007543926853341  0.0029202186769836
  0.9149768224573468  0.3362243963558821  0.9187422507395260
  0.0843258720536070  0.9161571707236966  0.8311831659811093
  0.8313481741000943  0.5824645933101174  0.0845010492542986
  0.0831145937657517  0.8299207444890287  0.9160490330767423
  0.0018691003346666  0.5804605525720186  0.9198836139331582
  0.7478363706316479  0.0851836958498657  0.3351353044898352
  0.9146684050767554  0.0091309727760949  0.0876901343885347
  0.7497138944813289  0.1674453680504059  0.4180915320409538
  0.1658202637363492  0.2529258236722169  0.9176191736693782
  0.8326119314503391  0.0820050853682294  0.5803613972677897
  0.8314066401390886  0.9185094428696243  0.5791813573850170
  0.1640165880310442  0.2523458255676323  0.7514762482438968
  0.6642800207753357  0.1661544890865095  0.5030480727263711
  0.1689636507784423  0.0000318109837727  0.3332545259080720
  0.2474091794822843  0.0822766994592779  0.1738302078879521
  0.7593215098198847  0.3355905643647731  0.0828028271444149
  0.9164874631131508  0.5799287816522294  0.0024979867412155
  0.9137709868323818  0.3349069897850056  0.0848037241399644
  0.8327027943279922  0.5009922529729740  0.0031040315115584
  0.8342518388051142  0.3351398369117864  0.1672690637066210
  0.9981596196513487  0.2504454092893390  0.4080335266246551
  0.9141095770861962  0.3342230260939836  0.2518721808178326
  0.9158518655411726  0.4182813353061279  0.1680084266001530
  0.1650479590964740  0.0831604193859021  0.2520959845569276
  0.8378981784047647  0.1668920450202724  0.6621206079157140
  0.8390039594075143  0.2532495597210015  0.7489623259944134
  0.9166904072320126  0.5727725871286808  0.6645364317713646
  0.8350300593119436  0.2516344693165180  0.5814454335679053
  0.8356126903983390  0.3347323508877363  0.4989517131617595
  0.8369955417444013  0.3378422586661680  0.6646852523864027
  0.8338332344556489  0.4207349221959842  0.7484138185196788
  0.9155811567976094  0.3340242205462157  0.4145295827381476
  0.6665678782519993  0.9187804445122767  0.0869181067052068
  0.5023608820478557  0.2468169759752279  0.2484860654007755
  0.5809233375512816  0.6659327170688980  0.9180197187105698
  0.6645790685061550  0.6653508209663765  0.0022553330422156
  0.2475157123386573  0.1680930430898081  0.9166510111495149
  0.6654045147013427  0.5845614746366654  0.0837242472507840
  0.6646691742559442  0.6649532106665974  0.1680556303314822
  0.1660663514832567  0.3327067232829344  0.9999686336331265
  0.0807269556101343  0.2528762587063747  0.8328068262165008
  0.7484033540008437  0.5826045202476009  0.1622949282006997
  0.7468321067576772  0.9193470025288208  0.3354615197952716
  0.6629227954923986  0.6648082348138362  0.3349565105938539
  0.6641795234431991  0.5804479122900508  0.7524371252280979
  0.8316992529356348  0.6647508513061378  0.4876127229055057
  0.8295442829839468  0.0822151421252841  0.0878222422050211
  0.2488622003761504  0.4173615457648562  0.9996712583381259
  0.1698984235224432  0.4168444571180718  0.0813155744596238
  0.7485870901209187  0.5018033318891785  0.9194894123320275
  0.6642919461712917  0.7479560707747811  0.0864384739876457
  0.7483639971141243  0.5803787310816969  0.8374426927657912
  0.4982643706089096  0.1624646041439525  0.1706789656197885
  0.6658227479000643  0.5025837854745080  0.1671494322742920
  0.7498410604010862  0.5807765075967407  0.3388895607898177
  0.8340640418602562  0.5000338602765239  0.1667348934712837
  0.6634847604410501  0.4987169820273393  0.6687676611505702
  0.6664627762125931  0.5006993175464258  0.3349762690341141
  0.6653673462143571  0.5824377978491581  0.4158438354163798
  0.7513378779891002  0.4990262032506843  0.4164452565186174
  0.7459723122107424  0.4991138919502755  0.7523094075084922
  0.3270077388036317  0.3327362051823807  0.3309285495409325
  0.6632123352737821  0.5011263927478179  0.8356954992806845
  0.1638030475782733  0.4170264942883963  0.2490494097177915
  0.8294633297338075  0.0015001152898496  0.1712488905170664
  0.1642151331521987  0.3323793224294912  0.1655994397005875
  0.2459065926773082  0.2481746742321856  0.1648356009508112
  0.8353601806550077  0.4193666747666536  0.0836921925163671
  0.4114429048179008  0.4190728685664132  0.1599228744633121
  0.4137742985080591  0.9989930649139369  0.4158114709324294
  0.0827146321184974  0.0017064583033587  0.9175083521518870
  0.7459519544333347  0.9184412859271252  0.0023908405164328
  0.7463463862733198  0.9170782636255141  0.6599152479067962
  0.7466402583209049  0.7505288661175981  0.4930306475789863
  0.6628008581810982  0.9155318932250835  0.9180258218860923
  0.6637717022578163  0.8352143294271424  0.6609687035242582
  0.6617008272558131  0.8379794433022810  0.8310479576974779
  0.7459342469656034  0.8361239171363151  0.7463129215066019
  0.6639544075595566  0.7524518688712911  0.5774147262770573
  0.2474096961998130  0.2498379120651770  0.9996920357827506
  0.6646824700112508  0.7490167794231127  0.9223224730718682
  0.7464876096254401  0.8350868151448237  0.9200282951993178
  0.2455932166711452  0.6691605986730750  0.5802280635720738
  0.9186925056167590  0.0062386568472308  0.7462292782812738
  0.5799246155402421  0.6670027975537043  0.2528814497291190
  0.7476257221812934  0.8354106135700962  0.4167649084067397
  0.4968128896739267  0.6679438309790725  0.3347267516130255
  0.5810124288541212  0.7508445208649476  0.4963170649165500
  0.1644728172450091  0.1675185278130219  0.1683172454019988
  0.6634848088235176  0.7492904119677425  0.4151361835483355
  0.8335371251466390  0.2524302519247379  0.9176228105658110
  0.2500677725907592  0.2516878923926854  0.8355818455891985
  0.6650045525491952  0.9187948163612626  0.2539334822654734
  0.6639961136062893  0.5833471818170880  0.9186598265739508
  0.6655211819955454  0.8339072997539019  0.3366262390813082
  0.7476862792418605  0.5823666962482138  0.0023184965249911
  0.2479539746177468  0.0842747302471175  0.9969403086373955
  0.5803641672645568  0.8351069606663049  0.9120362360838449
  0.9161897334073577  0.4168634755005537  0.3335804676208131
  0.7449494245495679  0.8332260150761537  0.0860423244009275
  0.9176399679157535  0.4992497849019249  0.4147308706768261