 B Cr Ni 
 1.0000000000000000
    21.1200000000000010    0.0000000000000000    0.0000000000000000
     0.0000000000000000   21.1200000000000010    0.0000000000000000
     0.0000000000000000    0.0000000000000000   21.1200000000000010
 B   Cr  Ni 
  17 259 605
Direct
  0.5807461510229825  0.8233030145252230  0.0071627988790140
  0.5226411937425115  0.6437226364181798  0.0576022802335111
  0.7628627570831058  0.8371315105189449  0.1452872859459585
  0.7248906385408436  0.7702805642386950  0.1054296103695683
  0.6389379369776302  0.8568139616337641  0.0531080464320904
  0.6655340719459378  0.7387726852506447  0.1507582200826439
  0.8142335139206728  0.6755686406113400  0.0674790137806569
  0.4839905028390223  0.5851397987899688  0.0106048319093792
  0.6681285157344856  0.5934619028759555  0.1615115824016831
  0.5810731512630727  0.6776371475113505  0.0128224291600531
  0.8500978802838335  0.7338833233673588  0.0182373771845241
  0.4833466351418883  0.7721464447819860  0.1434678856670739
  0.7562117138339409  0.6415757038614843  0.0225428907758184
  0.9103083652701445  0.7670403260111568  0.0651008760637090
  0.4277509738128019  0.7368863999214903  0.0980395829944497
  0.5881170708067216  0.8503228319781336  0.1966848256789130
  0.9288353120750692  0.8305502203658108  0.0076740182043155
  0.8361942929880921  0.6651563414806145  0.3360206262941757
  0.4122030708841842  0.1670997965763917  0.2531306168762870
  0.9195607859401526  0.5787397861507013  0.8296971676028867
  0.7500593556537493  0.6671280826928990  0.4112484700404270
  0.7267621707548686  0.6719621336879691  0.1101260328603480
  0.4957889607345888  0.8379267309992957  0.8280044867036759
  0.4982750509968598  0.4127342580114293  0.2545780078220942
  0.4961285496403954  0.6648003680756748  0.8355577327703646
  0.8216240789590311  0.7639149639381484  0.1059986961791236
  0.0822331954699774  0.4172837302345248  0.1660631401023536
  0.4153971830282573  0.4996127668731728  0.5820094167904404
  0.0835379150136985  0.7504614155566321  0.3330426248782415
  0.1672806428522828  0.5815724766471230  0.9132504453568280
  0.5825836516166371  0.5771138891388244  0.0004835946486748
  0.8326434136835962  0.1687610349953405  0.8315204024095981
  0.6047879272327482  0.6619777636573327  0.1078986975539543
  0.0843691460102999  0.2504983116939664  0.1662937676569037
  0.7490089589764248  0.1682406367572746  0.2492957307167208
  0.8316507752747592  0.8358457752715200  0.6660932967408644
  0.8350979066553716  0.0041091761887955  0.9984615776941126
  0.8327819204285365  0.1696083648537438  0.9985434860777451
  0.4143267221601444  0.3326268621331529  0.0829392825618208
  0.5812022021595116  0.4114491550138966  0.9997822201960942
  0.0005461073221619  0.1667666013881851  0.8316490442397001
  0.8331933740622570  0.0835373907945504  0.5839717548095170
  0.1642638654930156  0.0035097173946601  0.5015763740838466
  0.9994179766443183  0.1685540524877973  0.3324665160260402
  0.9182399647623802  0.0843321470997009  0.1657484827925883
  0.5823150981321835  0.1676398923066004  0.7474571049089914
  0.5828514563816526  0.3305739320875233  0.0822674361220173
  0.0819754541165149  0.3336353639154825  0.7486451045372116
  0.9168489674664780  0.5828684553178919  0.4984520718000320
  0.8355135036875285  0.8333749599227795  0.8330181036139201
  0.0051903635996706  0.8347703769658318  0.8297541582731536
  0.6670776479752348  0.2497082568377640  0.4172875968013838
  0.4982289365645791  0.0852145753002895  0.5826149806311736
  0.1665950883936444  0.0848839444794075  0.7476240732245640
  0.9981359856052116  0.8342928571868599  0.4999757814367888
  0.2487241823305058  0.2492510133245383  0.6645779928366738
  0.2475714967532940  0.1694335485364197  0.4179083199640664
  0.0802532264240941  0.1688633757398305  0.4161781153230180
  0.9147567118344201  0.3315229544730686  0.4172866844323394
  0.8341438504983498  0.2512769053034769  0.4165473295080349
  0.5827440855173412  0.0856277708870240  0.5019025079640400
  0.4151938125260355  0.9171615329315064  0.6639168698016039
  0.3315521466573730  0.6674975800410142  0.5004365319937030
  0.4937723565866339  0.5794572530036436  0.2546225168110524
  0.6672390483917614  0.3324653248914394  0.6631410296947533
  0.8348628831228306  0.6663174025970277  0.1684104278793514
  0.9975207102039010  0.4155209614428469  0.4168822496382659
  0.9994546084810702  0.5824088796368372  0.2481267711075720
  0.0825084183778364  0.4166305523513166  0.3338631682338887
  0.7524677355464660  0.7410744986384864  0.0063830647838261
  0.9225467687710295  0.6557046188180019  0.9033694088447120
  0.5809941459586949  0.4130928226601071  0.8284281791592094
  0.9973828929238413  0.4154722940200636  0.5837209691188888
  0.0823566071105312  0.0863801563909715  0.9990285327051736
  0.0023587922908232  0.7513490789990409  0.2509859589769627
  0.9170552541214353  0.4142279708677877  0.6636579432782873
  0.5814128941363257  0.4135254341879401  0.3359573627012695
  0.0000810886811185  0.5817983395822927  0.0811683380085243
  0.9161624179420654  0.7505143147496276  0.6653234070375810
  0.5820162235848625  0.5768965403919639  0.8291902018026598
  0.7506798586757267  0.7528222408716797  0.1995156064116647
  0.1628816111423990  0.6662819859336110  0.6648188089411198
  0.4986624813514778  0.1667086966159785  0.5013575446820673
  0.0827769490010410  0.8348760945381820  0.7486113940688482
  0.6674041627681230  0.8342190807674865  0.8363501632000855
  0.0832913243166013  0.0835628471484628  0.4987601304568650
  0.6669642048186033  0.7487543018930171  0.7506544549666659
  0.5807265895127862  0.1705461923950087  0.0799168391564855
  0.1677702089984728  0.0031123132804263  0.1656960645565234
  0.5821516873006591  0.2505361688404781  0.9981235550914964
  0.4135570729024636  0.7511875710441932  0.5014153286726190
  0.4141641711704494  0.1712424830735515  0.0812539484521718
  0.4957445373547076  0.2505790213319521  0.0836268982383310
  0.5841504078220792  0.7483614825080904  0.6672600236417301
  0.5825914635504778  0.8334930405264912  0.5831470422786343
  0.9167442383286366  0.5830545664688417  0.6640543548969668
  0.7500736003121034  0.4983791817842727  0.7466481409468181
  0.2486686530784361  0.1685541547224918  0.2506282703813431
  0.7526232649821528  0.6559401644894861  0.9097789381503237
  0.0003934224140862  0.1678534621020671  0.9994573324761689
  0.0819750778387616  0.8348758809540261  0.5819217649972429
  0.0855699075617089  0.9190482558845650  0.9992095260243731
  0.1664010931986296  0.0026487960740899  0.3338093469743927
  0.2482224372202573  0.9180793285986674  0.9988201126278909
  0.0827912049432279  0.9176349489319418  0.8305048974578727
  0.4955665664696923  0.9202568309281614  0.4212115115041893
  0.9162668338612996  0.0015859809678677  0.7492515263388649
  0.4206348335199848  0.6478199035192955  0.0683693822417212
  0.6399890677373550  0.7559311011195826  0.0578509023031586
  0.5548152756929513  0.8393927968514315  0.0986892354402401
  0.6559995058166053  0.7751656657367845  0.2518424494189996
  0.4160843068672385  0.0859695582999228  0.8307442185105909
  0.2480869330041240  0.9182423569512007  0.6651711743277937
  0.1662555025404071  0.7484629361016421  0.9145196633640374
  0.1677187807142838  0.9178039685254445  0.9166319914975698
  0.4904510793626283  0.6712578994623568  0.1550330291594175
  0.5815186450177562  0.4130765722522444  0.1688619076339343
  0.6659257635921696  0.8388492849413633  0.1504233783854148
  0.3346385168590618  0.5008123619276401  0.5020530495708321
  0.1648652680958893  0.4987990983926476  0.3328801266918169
  0.0828322860448451  0.4163344063801742  0.9981009860154760
  0.3338120807854525  0.6655655902833871  0.1658982105619006
  0.9976979720346135  0.0820504983256389  0.5840258647237061
  0.0811269878136076  0.1673769865856954  0.5817181408473004
  0.7462669172043582  0.8483157391367111  0.2514750598620390
  0.9987733423983148  0.5826945260941470  0.4179610476332335
  0.0881074907522522  0.7451495751588266  0.9974656258071088
  0.2484725848126006  0.9190892852599504  0.1687046317479211
  0.8355556600596050  0.6670721676942188  0.6646855284977192
  0.0036280847292975  0.9209537552353441  0.2524127568477345
  0.0852218635368868  0.6652383572916949  0.7452375273497803
  0.9223685977921043  0.7523600642064998  0.3344318981782050
  0.8275162689508430  0.9193794875405366  0.0819230301975454
  0.9143013350416987  0.6686827451312559  0.0795456219378444
  0.1635379104213357  0.6656212654102244  0.5013174224902261
  0.9993545601468603  0.0021657710373559  0.3324115257533737
  0.7523305833352432  0.2487514724491902  0.9971904743373916
  0.4993140838709748  0.5840946712647060  0.5823335011706983
  0.4946414612828599  0.9301752670210638  0.2599509190916752
  0.7499389590000358  0.9177782727290966  0.4999611118943580
  0.8328208169887327  0.6675779578399269  0.4969077432836069
  0.9154908187319014  0.2496915974747498  0.6654383872589912
  0.5007727637400433  0.3339841846573789  0.8299720123275587
  0.0826801834829396  0.6665397174730960  0.5809898061841843
  0.1650029534450040  0.8330601867945713  0.3330997612195138
  0.5788920011881864  0.7460187122286127  0.3395990675365584
  0.8360298814985888  0.6616257838291546  0.8309985961875694
  0.7515233149190842  0.5785343644784754  0.8286947899682481
  0.5788149213917525  0.0104463296802400  0.0811564033255093
  0.3296993830489183  0.0882128803248507  0.2513722252190384
  0.4997470863695939  0.0849387473944078  0.7471722943150905
  0.3306424757699616  0.8329553441227002  0.5030672784277294
  0.1657840074689909  0.2516151889501928  0.4169887220531697
  0.4147323266991489  0.8330706541597501  0.5840950613376771
  0.3315886111246988  0.2517863685591362  0.9128688268982410
  0.5825877030703741  0.1706482910254273  0.9158739837836031
  0.9174775970846617  0.3336603960134588  0.2493359086017571
  0.7497614580912298  0.0865766427318172  0.1670614790204229
  0.2486006658354666  0.4161929500933119  0.9983451369910820
  0.1650084215577690  0.2518607167795038  0.0841286377324708
  0.7488426156852276  0.1679154878505964  0.4170877918624932
  0.0872404982238671  0.6635295775488754  0.9137217471491847
  0.2490871227967193  0.1678209752643316  0.7479371678210465
  0.4850840099505755  0.8415314334932249  0.9948986388867980
  0.0000604594882031  0.1668754288962780  0.6646975418171335
  0.7506718696975396  0.9164991753464965  0.6666209349831279
  0.9197599780719738  0.4996476632632422  0.2494208981258697
  0.0837466673705032  0.0841614975621570  0.8303095467050196
  0.0015082929842465  0.0857025606855419  0.0820233859702966
  0.1659223884156829  0.3333443155360986  0.4999856654318474
  0.8305331741575489  0.0869641293825898  0.4166610684531301
  0.3309104219852755  0.0027517032690214  0.8314487585754785
  0.3316754318923015  0.1676525305905112  0.8324564020654802
  0.2460792749205151  0.6658588480947867  0.4184693802393868
  0.1662080905147090  0.3357600154746528  0.3325064739011740
  0.2494584142714987  0.4168411275619969  0.1656480764758539
  0.9177456464904477  0.1667143063819345  0.2482718064302154
  0.2478528856225624  0.4142018776526444  0.8301126346632169
  0.1634483702001882  0.0830432709886643  0.5837204762397856
  0.2489565335783878  0.4155666067052108  0.6639026060178594
  0.9161695629465813  0.7518395445013982  0.4986051652199549
  0.4156184845739334  0.7498545376874728  0.6657035042430307
  0.1654759462927159  0.0844017105594904  0.9145086962586301
  0.2488087190293879  0.4164881007796726  0.3345270235820942
  0.3292902633522199  0.5829487922404636  0.2514205587006086
  0.7593377317139152  0.8323791356441257  0.9103074897147097
  0.9984816033603091  0.1648427733671694  0.4999818002636723
  0.2475198492186382  0.0849505897545209  0.6654314678439327
  0.4100023947972364  0.0042839383052686  0.9103637438469909
  0.0819442939457128  0.2500235825092473  0.9993053059048782
  0.9150278275288830  0.0015646531048466  0.5834788909148141
  0.8344026701736921  0.2508951285320388  0.9142319975333356
  0.1660502233347124  0.5825024135323434  0.2497676977210387
  0.3281704739131961  0.8352464184878806  0.8295396379164974
  0.3249517675518331  0.4927939832604389  0.9984116117700934
  0.9986618875778589  0.3337378065816888  0.6653352195583844
  0.4119841218294608  0.7493357425705798  0.9972907812469002
  0.7502755477103105  0.1657727491783264  0.5833162564618725
  0.4227158798652362  0.8347224253015024  0.0869728418976720
  0.9183617101531173  0.0028287406978367  0.9144611549047300
  0.4962212450933671  0.1676735913355717  0.9969611207694730
  0.7472828465999464  0.0024711305447905  0.2522128626372599
  0.5817756958409201  0.3336861252651134  0.2518560272359935
  0.5867660353462192  0.6518454729504146  0.9024847886389604
  0.6656033791222976  0.0018792572180185  0.5017597143338781
  0.8332278723525469  0.9272955826412845  0.2544698081082286
  0.1651904058837026  0.4155869008039974  0.5825020942821940
  0.0830391237486927  0.4977764206392379  0.7468669846441370
  0.7503281295717150  0.0061333617945304  0.9114476627697942
  0.2475474559943417  0.1671304427015186  0.5836616344086736
  0.5791609943575788  0.0862237713648139  0.1652591061819356
  0.5830787488873745  0.7511483644665073  0.4983948947514026
  0.5841995237029172  0.9159770159384226  0.6664542624858159
  0.5788329117882615  0.8359084110732826  0.4164922737653374
  0.7489159853295040  0.3324462158981977  0.5835501551921572
  0.5173684072415003  0.7449994819051154  0.0562865442597187
  0.6669000444856266  0.2492755688712618  0.2491999174058521
  0.4126882549375839  0.1690271991726631  0.9119656845354119
  0.9178779464726061  0.3324044068715246  0.0816313902727824
  0.3299003489846093  0.0854723748821758  0.5836627695435801
  0.4088088528130209  0.0049034698715521  0.0833403484327613
  0.7501325010297452  0.2484286406500595  0.1681167077383288
  0.5813122870893794  0.0866409170801163  0.3360315131364555
  0.7514359442268835  0.8352757759534652  0.4164449481271725
  0.3283277322698148  0.6661872408172245  0.8278981593492124
  0.2465212551118372  0.7496487127216136  0.6649955589625565
  0.2484241971819174  0.5823603104118518  0.6640814605795106
  0.7512431157245326  0.4165485555217885  0.3354556447970920
  0.1631606327540483  0.8350264934166446  0.5013029891792610
  0.7493089996051574  0.4989259085148952  0.4173624051840308
  0.5800129196701574  0.9239089090184651  0.9997979955756265
  0.3322392781618952  0.2522517394577112  0.0819330300922022
  0.6652540147462314  0.0033452932830816  0.3345890890214617
  0.3305837471926689  0.3319161220479115  0.8295182878268419
  0.3295654863308358  0.4970982160622820  0.8286688325683317
  0.6667170337414966  0.6673063573996554  0.4974029753145224
  0.2491796903306387  0.7494039322194791  0.9988633465892376
  0.4167675730169745  0.3335738964329021  0.5820191136628563
  0.4096970879430493  0.7503009490402902  0.3352039366298285
  0.6660265281630514  0.0858491533112319  0.9138431535652273
  0.5735965432404850  0.7539272041462168  0.1740430280924478
  0.3323528074687384  0.4159121460248804  0.0831247929243050
  0.8361018614443879  0.4137997436455790  0.9128277064519333
  0.8317358460750519  0.3331111342768001  0.4992596383018613
  0.3304801018823736  0.7492252363821712  0.0817592973509426
  0.4984475067662118  0.2488995267630912  0.4198003190851846
  0.1643521781749311  0.4976963082825942  0.5011361638639135
  0.4147262233232025  0.4992644683660725  0.7478870737866217
  0.7534044621908179  0.4146846477328182  0.9976990919798508
  0.3326142140135138  0.5838916057495759  0.5826002749174037
  0.5804814917567213  0.0017790907783229  0.9134951344814156
  0.3309667096800463  0.4159261591132608  0.2511366226243127
  0.4906405002968068  0.7520167654578120  0.2577528153191275
  0.4157872064473819  0.3340263862580486  0.2538002985575479
  0.6664086469708729  0.4992671457370508  0.6640764719864369
  0.5825822159630281  0.4170375764325205  0.5002515314391510
  0.4110720470391747  0.4980646891359419  0.0812210123053832
  0.1658333271328003  0.3338790120936296  0.8309467571584119
  0.6584594044860691  0.9150484131672312  0.2473787402790283
  0.0063168093890794  0.9195710448090400  0.0811080268854550
  0.6651494251360182  0.0853981316814035  0.7482725614807316
  0.7523181130073580  0.4151142884144489  0.1673175483312671
  0.0005374608606235  0.2499426098406264  0.4157075791197231
  0.4118434940259061  0.0879859434061868  0.3356556575168957
  0.3287035713836049  0.9185840422823813  0.4203945624790925
  0.6643253429594321  0.6682236956662030  0.6666047420269070
  0.4991078701773400  0.3328606892466450  0.6636299556971952
  0.4152361477159090  0.4142110120058662  0.3357338311503495
  0.2473207498161725  0.0870114802500356  0.9981859824849810
  0.3268664481414554  0.9217633019585112  0.2520495876979077
  0.8330541690473193  0.8337683218253086  0.9980386155039607
  0.7488338239867680  0.5001256946984710  0.5826715322847891
  0.4110593261483021  0.4934809479351030  0.9080498887489562
  0.8322192210973915  0.9176585703745535  0.4173849703602843
  0.9976088472819986  0.0030727643563022  0.5019604311872454
  0.4159230151964925  0.1658452243075792  0.7498750845496875
  0.0852706483347286  0.9196667507020113  0.1669956639466393
  0.1645078449289211  0.9183626844742389  0.4178250585042342
  0.0847554631714706  0.9193782410045374  0.3342354925987916
  0.0103554839076147  0.7476397776333543  0.9071074910353949
  0.1665436581184999  0.5821027041082736  0.0830070195946185
  0.0032927797979269  0.8356773876620428  0.3349743508644645
  0.0863827424386906  0.8344145049411248  0.0840891373123037
  0.0845795847173937  0.8355211707421571  0.2500726084826612
  0.0023567296242092  0.4146515469129483  0.9145989903768884
  0.0837783783464502  0.4153130251922914  0.8303273121749504
  0.9179873870560435  0.4988355413118353  0.0815951369488784
  0.9189521355154247  0.7489282910210801  0.8320300487671363
  0.0859711965957924  0.5812088991028594  0.9982860143600011
  0.0839403258669681  0.4988852128738616  0.0826568339281793
  0.0835024161484163  0.3328252383551784  0.9152111862985755
  0.0001751910797204  0.4991150141331508  0.3329924951131242
  0.1655605362355993  0.4162666156647866  0.4174486974270746
  0.1655259870218811  0.4175078393231771  0.2497447408339138
  0.0871387787110302  0.7490329169250820  0.8274431259379332
  0.2488750042622551  0.2510510486373391  0.1662204532405318
  0.1657700911568062  0.3345627619963483  0.1659974282019170
  0.0813151203681363  0.4152972549777658  0.4991251313811342
  0.9170828192967264  0.3320561126388544  0.7475928606895883
  0.0012503198689163  0.3331801358447181  0.8306173951978625
  0.9996744839673662  0.6659372930711178  0.1635562177357911
  0.0822274294924626  0.6661410792020884  0.2493399799263702
  0.0824873396982304  0.7499251356336731  0.1667597816977800
  0.1654029324935271  0.7501382613172363  0.2504389860454331
  0.1647377539499793  0.5819963354871301  0.4177240669381896
  0.9984775671200407  0.6671812148984508  0.4992529744447668
  0.0813517839856792  0.9170717854025676  0.6660289070947053
  0.0829604536724030  0.8356963909875917  0.4176277201647287
  0.0157887374515253  0.8327237944059523  0.9941399979796899
  0.9172695766209343  0.4980806904881969  0.7454393449600321
  0.0839737970714252  0.0015233222330322  0.9158071559917652
  0.7493176609362986  0.8327380080876984  0.5822623550832786
  0.0028326216698141  0.7513488619099535  0.0798011347143236
  0.0821166762785376  0.7503530219768342  0.6647715697359114
  0.5804707707729740  0.0869969294761588  0.9968850204426188
  0.4975259966115590  0.8340995313517945  0.5010325054401142
  0.4959856709026011  0.0872011707499924  0.2522284328005405
  0.4967791922197533  0.1687114312800677  0.1669335397272060
  0.4985568690039314  0.0870855234272909  0.4199936151311937
  0.5813950825727834  0.1680577392969982  0.2508250031404596
  0.0011930586191476  0.2505627101527537  0.0834258662557331
  0.0001712114084895  0.9196118155713054  0.4171681131985245
  0.5830473399911313  0.2496258476233618  0.5005020163908117
  0.2507961094106064  0.7493934385625524  0.1670928434878094
  0.2445485755348869  0.7500942093255710  0.3368711560093722
  0.2476838389513471  0.6653801019951834  0.2509655629577215
  0.1649714326930316  0.3330714337918212  0.9994919822403140
  0.1654754543598170  0.4156947405413370  0.0828256892611149
  0.1639218721508428  0.1684842432319099  0.6654290798534126
  0.2479237329180550  0.0850682540358255  0.8314495812481745
  0.2486305860937583  0.4978140527684150  0.7459549183032879
  0.0011493259260829  0.0849640621491289  0.9150758465223123
  0.0887326999206881  0.8341483133453746  0.9122324080191356
  0.1670094669748895  0.8345552473608372  0.8304224800301022
  0.2479716094941228  0.1694014650541242  0.0819155459132751
  0.2483067883838776  0.0017350720291671  0.0826871628296582
  0.2486602806931570  0.0865948002110065  0.1667188022637789
  0.1663339347196852  0.0859984795599561  0.2510395992524068
  0.3298101160657658  0.0861817582644880  0.4180511305836886
  0.2473858756681545  0.1693062596562654  0.9147198741509471
  0.9981029094544703  0.0007966417310624  0.6669162309006963
  0.8320547407967188  0.0013401294673745  0.5003869641838592
  0.9162335925194687  0.0860303083333169  0.3338276034140569
  0.8337242917403662  0.0039554093832151  0.1663163337528865
  0.7476383262908989  0.9269294823371632  0.1659855799817319
  0.5802393030708374  0.9264878599858841  0.3404051208150548
  0.6650953188609176  0.8339976789767050  0.4981577469852706
  0.7485106225066562  0.9218198061084913  0.3371079209346386
  0.1653644433412602  0.0003823644928171  0.6661328967655574
  0.8316663338797372  0.9161704226923557  0.5837683008678042
  0.0842482558333136  0.0852980518779884  0.1668451153656995
  0.2465152487058819  0.5817800050125583  0.8274938680123677
  0.2494320691667841  0.4994225430202027  0.5819527467739813
  0.9990943703005880  0.7505266249313540  0.5824940646055093
  0.3321014787748445  0.4146373853142745  0.7462906031735833
  0.1664190181310919  0.4978729054732874  0.9992875789592237
  0.0819795952130575  0.4985504246897909  0.4171654548434245
  0.1649337204241240  0.4994387856593001  0.1665619102583232
  0.1656729096355496  0.6661112952928844  0.1665086517417845
  0.2471194658246164  0.5816461993399917  0.3344895330973036
  0.4136157849157179  0.4146057013653123  0.1678959094284195
  0.2492345682537616  0.5830700435543253  0.1675170532330283
  0.2475822445193699  0.6661104102002658  0.9132041461940136
  0.1657017962390220  0.5822082557333104  0.5820538328466582
  0.2487154583675044  0.4171135980008902  0.5005430818260508
  0.1654224415939708  0.5810631751208334  0.7462151099339821
  0.0819928396564393  0.5818881743521048  0.4996397603440950
  0.9979557547131551  0.9174479051789831  0.5830303462612958
  0.3311668670206251  0.6663431375248179  0.6649923859589106
  0.6648908176571668  0.9259613200090026  0.9107191891880264
  0.3326532229698804  0.3326921514249779  0.6640725938411350
  0.0833473906666650  0.1677646430853962  0.9150064437693506
  0.2468597544557496  0.0017272425476962  0.4180805446325551
  0.3298146694292267  0.1702727799440868  0.3355646194317858
  0.0812384474729894  0.0002609952070478  0.5842703251799317
  0.2482410830267678  0.0012064359142756  0.5831530624457558
  0.1658602276982714  0.9173035790894388  0.7480490461251386
  0.2481270392468646  0.0008762763612671  0.7483706088466625
  0.1660715162974096  0.0009857036895255  0.8317535277863710
  0.1653106955152963  0.1676165772994727  0.8313632855112487
  0.3290674519685922  0.0036042391139610  0.9985352505876207
  0.8336489325706010  0.9166095101906099  0.7499125680093458
  0.1650336332400796  0.0857659555040865  0.4166361359696590
  0.6793342856971784  0.7387240819554228  0.9085265109135174
  0.9993360330687755  0.8338921560604236  0.6660075632452322
  0.7505096310167462  0.8323941706025250  0.7508234837775672
  0.8356220115578328  0.0868038215733232  0.0826750918278901
  0.1636480841804761  0.7508224108551897  0.4187841502351593
  0.0008678197338997  0.4160316464475682  0.0825574698241289
  0.0812510932401661  0.3337114697894018  0.5819537709234481
  0.0005591126849405  0.1681899217319776  0.1661329117587985
  0.0832899246893346  0.2525701418038669  0.3324103636931586
  0.0823934742870382  0.0833339406002907  0.6661329644169536
  0.1647307192632455  0.2510394385696403  0.9149239302094809
  0.2471686656640684  0.0850477813496685  0.5006816686544346
  0.0850591592994634  0.0024898108903290  0.0823005249335189
  0.0830887446595716  0.1685306210431362  0.2501497620870073
  0.1663722223474959  0.0856504764077962  0.0815837053595116
  0.1649987714293809  0.1688024844021403  0.9989871242216170
  0.0831051306436318  0.0849388880756737  0.3336717063354423
  0.0027975715148685  0.0027493480193680  0.1659633537509763
  0.3307729105000607  0.2512186975264722  0.4179889968616265
  0.0847333045144475  0.0022573174459658  0.2505137661220830
  0.0814485359721227  0.9192906864616963  0.5000747428992153
  0.0825941890908610  0.0013459031776759  0.4163113390867691
  0.0831402269476360  0.0008268865054087  0.7490526707180466
  0.9981490115937829  0.2497670106530551  0.5826484397537568
  0.0820655175293732  0.3338052593102321  0.4171160282028612
  0.0829646480323836  0.3339392326448484  0.0827149796514124
  0.0819002396683453  0.4159038678738672  0.6643991317535141
  0.0823675928131962  0.4999009994650960  0.2491746203933544
  0.9156586884867630  0.1658164551837494  0.5830522463080594
  0.9993940252120705  0.3333457189606783  0.3327780599598247
  0.9168921190267270  0.1673946330414484  0.7490841985874427
  0.9979140581526482  0.3329485956232965  0.4992974427520300
  0.0811864446292555  0.2511247428579506  0.6649897823751258
  0.4144192489757410  0.4133537942466018  0.8282983583913675
  0.0824570639679965  0.2501014267195629  0.8310532672951079
  0.1649453692054036  0.3331254991662694  0.6646369572258787
  0.0004933395167516  0.2500297415729969  0.9146703061665468
  0.0029548940020749  0.9182957745411382  0.9150551801764149
  0.0013270061655106  0.3328002366995226  0.9993285574520130
  0.9987871865341875  0.0842470406209667  0.4159789980857951
  0.0835407698417125  0.3349160687439974  0.2488508864198914
  0.8325262813206465  0.0854528613005424  0.2498782492040092
  0.4922391641814005  0.0078703431599287  0.1684051920765288
  0.1644951546476869  0.9177187698916952  0.5827749583232205
  0.4147838204154777  0.1679984499816471  0.4182802784453662
  0.1650140147946629  0.1686843493694215  0.4999536363307741
  0.3311184467502306  0.1677361366186822  0.5006758795183398
  0.4150257542623288  0.1668943012994321  0.5833060106007053
  0.4153880085987128  0.2498744438215197  0.5009181784498825
  0.3310180792643957  0.2506125866816017  0.2512895554691128
  0.3321688000095707  0.2499016907932123  0.5834639881147694
  0.4143202341676503  0.0850769705245599  0.5015210591275419
  0.4107329178912621  0.0055876442328457  0.2532940584132262
  0.2478671473169225  0.8352590215696523  0.2519288300734654
  0.2474933368043709  0.0035626951694591  0.2515062998119235
  0.2472284409649026  0.8342567329804126  0.5828310149862466
  0.2468723872530923  0.9179806787891589  0.5007423801333825
  0.4119642130202222  0.0883978135386222  0.1669379441901013
  0.4946182338920865  0.0876253063215116  0.0812081717329449
  0.1646111687819532  0.7507170740384776  0.5824953029230977
  0.3303182727977862  0.7508435693601430  0.7460313499767094
  0.4144732234120791  0.6667980519340014  0.7486053883437821
  0.4136836325319975  0.8341233668444357  0.7464175630523322
  0.4103070150601851  0.9230338692370111  0.3384847167489081
  0.4044964930780344  0.6662042729434906  0.9086456734424255
  0.4091785000867028  0.7516624556820130  0.8279621511671224
  0.2489080937367772  0.8341746310281052  0.0824715855088351
  0.1677406090754700  0.8342781182971600  0.1667330235908542
  0.4109857500580839  0.9229461055020967  0.1697661566536390
  0.2466227915387477  0.9193353908078772  0.3352996297069414
  0.4067637403845320  0.8408600163385995  0.2584360404426443
  0.3283792156218019  0.7507133273086232  0.4187945049961409
  0.3302371981773915  0.9172537361033004  0.5835302596362940
  0.3288811340216827  0.7515911681932224  0.9144091603478272
  0.5812756902081868  0.2507792151932514  0.1665687602200094
  0.4141913895390460  0.2500827740124180  0.3346904349328943
  0.4956682923702159  0.7507159093847527  0.4188971928840324
  0.3295127791549136  0.9190621611440621  0.9151108128898890
  0.3312749031069619  0.9185851915899527  0.0832786948269113
  0.3302570285487185  0.0869727790830937  0.0819277319464806
  0.9179116009393431  0.0860227544082666  0.9992569981500574
  0.6665071015742261  0.4152422290653203  0.4181977261436924
  0.6677465238431454  0.3327685889898759  0.9985935276938246
  0.9143796035128843  0.0847300467190818  0.4984979372585457
  0.7493554184775845  0.0006128271464509  0.7486318531152926
  0.3293461975513808  0.0039617538100208  0.3357294227351338
  0.4133367221035166  0.0034349649854533  0.4200245169916343
  0.5828819885585553  0.0001191027986447  0.5836246439163089
  0.3327057270626187  0.8350558871378689  0.0008577437235584
  0.1649099801804058  0.2510094270925049  0.5825812112549654
  0.4153044014337935  0.0843928657706512  0.6657777766920013
  0.3326738897645387  0.2507043221334625  0.7479409011842976
  0.2471512427528055  0.4987067333841340  0.0842407544937243
  0.7507459400087600  0.3333700886009295  0.9145131692063425
  0.6686578339822123  0.8311258662996449  0.9681953358051718
  0.7521625171501145  0.0077144029665518  0.0814179412884186
  0.7495792481482447  0.2490174379767224  0.6652106394288324
  0.9994676887974687  0.0843979715455935  0.7494195969708342
  0.8342371676933689  0.0020831166894373  0.8316145896802234
  0.6689827035305453  0.6562271439413002  0.9960626399793509
  0.7522017460764475  0.6645664751992579  0.7469899019862438
  0.7503495074967538  0.4887433661329608  0.9067733608189489
  0.8317458196775357  0.2494990150192032  0.5826323057627532
  0.9188755775373137  0.5824712682546104  0.3343991157564610