 C Cr Ni 
 1.0000000000000000
    21.1200000000000010    0.0000000000000000    0.0000000000000000
     0.0000000000000000   21.1200000000000010    0.0000000000000000
     0.0000000000000000    0.0000000000000000   21.1200000000000010
 C   Cr  Ni 
  86 259 605
Direct
  0.5029802469613981  0.0905301757629472  0.8407230132304615
  0.4144941221456440  0.0019123073218068  0.6576767619424840
  0.2398918719252694  0.3321509799951508  0.1659497614645162
  0.1631559169528500  0.9220181806457072  0.8321416342017983
  0.3230372659267003  0.4201421262884107  0.4915377648757292
  0.6630280927910654  0.5771851128890837  0.9971761491133472
  0.5864856714210467  0.7447441649759002  0.9142534448866722
  0.7495635511939569  0.5843742539120097  0.0885039216113648
  0.5061750285005960  0.3235144903173756  0.5821295952067349
  0.9182160603462726  0.0758007933394459  0.5848411935286709
  0.2329738869757719  0.3237436547552995  0.4967597293512696
  0.9113466102101185  0.6686552392148537  0.8243586731668655
  0.6675061055812745  0.2465678493300391  0.1673622752266633
  0.9121492701285104  0.4879419496600021  0.8258333643433512
  0.4016474145322398  0.8393768557644102  0.8201556663732985
  0.8362984645103507  0.4946957675156480  0.4185077835425570
  0.4216085002092448  0.4220053556261799  0.2491588267092662
  0.4186366332456100  0.5103804148719726  0.4916566629462898
  0.0879511381860784  0.4928379533994689  0.1544825111895878
  0.0616135727520859  0.4202033119194282  0.9031662386930687
  0.9092575907382628  0.5787008958510582  0.9199462481163196
  0.1591130742046567  0.4941279312367359  0.4055081187627563
  0.9160800604082772  0.1676035148811338  0.4940110022382835
  0.4952039854183586  0.7451032323882778  0.8228419457445075
  0.8156681874574200  0.4882366677929308  0.9299030681508790
  0.6765606538231322  0.7493454828593685  0.0085399376256974
  0.5853091388804328  0.8403140696611541  0.0098008996874055
  0.5055969997578208  0.4137343952439498  0.6719658364767431
  0.4109508693426321  0.5030595777110224  0.6730972818042311
  0.0019247568849417  0.6726297527103103  0.9187490291497052
  0.2337710157834211  0.4308594781488164  0.2628325533151828
  0.6748508533566733  0.8412774095784801  0.9125946672674327
  0.3322951928591617  0.4263652929627076  0.1672771008244230
  0.2407465693881155  0.2415163723763296  0.2526305145618089
  0.2380248127215453  0.9118524470934622  0.5818459503239763
  0.4279790818346115  0.4239099019786438  0.9241947447330325
  0.2439436235552726  0.3327471288538035  0.8217275679839845
  0.1624658913740342  0.9151323483655311  0.0085213624064981
  0.8284883323501302  0.1676933082551405  0.5882552955097499
  0.4148861340551491  0.0849611788972574  0.0889654254980842
  0.3331195043335935  0.3300361322980560  0.2565679473052050
  0.4096480830805827  0.0078463251531819  0.8448030690120567
  0.1507453340819865  0.5189739882632021  0.9129685936847122
  0.3296674943594625  0.9101890839789031  0.6701879087503795
  0.1608774723623588  0.5014254180121263  0.7438710530859646
  0.3348254436551473  0.3333761511001361  0.9189044198039160
  0.8312284527769158  0.5839728255630240  0.3286864826696508
  0.3404347137374981  0.2419745162922246  0.0096862691105738
  0.3464622546500869  0.1498780766208738  0.9052350110081925
  0.3413368411307013  0.4320789805901206  0.8195081859070756
  0.5800750833038681  0.4177796449334422  0.4124379093047328
  0.6632881024986397  0.9251304795747438  0.6643481133472517
  0.2448656903236417  0.2412054572164637  0.9161535942033153
  0.2437666402396372  0.4260483923498952  0.9120273277534410
  0.4140479761328743  0.5896828353814780  0.7550007200323753
  0.9154661123534280  0.6726573173512863  0.3334131840879787
  0.4108181985426556  0.0937817639750760  0.7500120981501075
  0.0784131603374968  0.0813461571510010  0.9169396764208823
  0.0088502824086258  0.5735768935611890  0.8264634630233609
  0.4938145971529151  0.8401273367790628  0.9163202074780735
  0.3340050100438013  0.9154484693601168  0.4918538918104647
  0.5057749329022523  0.9975601128136002  0.7487305385376364
  0.2333130246283217  0.4285019381637419  0.0818869570227684
  0.4272314048177583  0.3264794907221756  0.8292491334124287
  0.4161786049935677  0.3248503470676597  0.4893923567657696
  0.6701370022960491  0.4167387902390768  0.5036347834426396
  0.0746837789187828  0.8311275329515112  0.8380086390655431
  0.2537232634272774  0.5890001289092871  0.4142390403603626
  0.4939697093224988  0.7434029768945147  0.0094180854811372
  0.2406845176959716  0.0042286811969963  0.4924572840313869
  0.9096866075087799  0.7617075714271495  0.9175720788055433
  0.6709613334297141  0.3260019622818389  0.4101591327962935
  0.1536598625838600  0.2436751149963263  0.0061310534849237
  0.3242075534749684  0.3228870288250055  0.5831366726000279
  0.5843683064034272  0.6687278552832296  0.6653024393493866
  0.7354734596709179  0.0716757844644304  0.5922017095642064
  0.9094763931106736  0.6710377168620003  0.0130007520557861
  0.0079358134732554  0.5705291600820361  0.0134364311828522
  0.1534482739063077  0.2382691136445368  0.8234270140232242
  0.1589601532644777  0.5873484851294378  0.4994390486582208
  0.2372770449467359  0.0825782259682901  0.7512110687416046
  0.7441949230608490  0.5863823189112475  0.4189062976589296
  0.0796163168628842  0.5894458968107037  0.2503466544250995
  0.7463565410620938  0.3299870571030536  0.0013979643649103
  0.4135668243257731  0.4168053580241525  0.5830574957282587
  0.4047671019544938  0.8381364849036762  0.0085017528821963
  0.6649825355612408  0.9986489781970472  0.3337408513085757
  0.6664015063225883  0.3364292356515322  0.1699664844079911
  0.4167205347197567  0.8325058342556284  0.4117831863244673
  0.5869424170299625  0.3287560261167714  0.9190826316963954
  0.5790417413005468  0.0812886199539551  0.4913993391415324
  0.5019679469615744  0.0897974448120194  0.7483680285558859
  0.5030639905370561  0.0040464409212060  0.6596825997001529
  0.7488356048583127  0.2474825626845213  0.8337792514219790
  0.6654255901008174  0.1616232234465371  0.3320536746931298
  0.3251239705475515  0.0006471319413322  0.6627817191060541
  0.1615635294648996  0.6709103826097405  0.6633064280905381
  0.4217866971490226  0.9143594257613995  0.4935556625510504
  0.4174183483775106  0.9172354562014955  0.3311621174718872
  0.1631862141871018  0.7550846909713206  0.4143597065979494
  0.8324700725775214  0.4129719778280018  0.5853888073988500
  0.4051103643571748  0.8362226065549296  0.9172736602789791
  0.5021904199712836  0.5034276374593248  0.6669115419524719
  0.5086482411665623  0.1777455787638455  0.8379460566053204
  0.5002796913716008  0.9175421197483351  0.2514632640756136
  0.5813619641982587  0.8346427866782926  0.5779835124873842
  0.5824202893410159  0.7525249977417893  0.3331814204763591
  0.2505880670100332  0.1522900795562361  0.9208218369003534
  0.3298526518180237  0.4203697471713521  0.2577912200386090
  0.4139860209914139  0.4183747976393440  0.4941784136967065
  0.3255496686773391  0.3292802774428846  0.4920552829426916
  0.4197402236966832  0.4193942126271307  0.1611440019840873
  0.0948010698169200  0.5806047261650993  0.8487864512180515
  0.2419941332555164  0.2451080525443151  0.8268604825263778
  0.5818245811178662  0.9203595134331010  0.1714099612576548
  0.6557105774921247  0.5879737898507693  0.4174221737394491
  0.6602889649582177  0.5824970844893788  0.0885563534884277
  0.5022768566479300  0.6709137707812329  0.3320579819191645
  0.3326543534649611  0.2407347522018047  0.2504869509576170
  0.4059195633637858  0.4975619445624886  0.7620497393595372
  0.5031608645406586  0.3242458720828337  0.6701174307438067
  0.5039140346115452  0.4152182050618837  0.5816909126005644
  0.4179575639994029  0.3280226878345089  0.4014669168234564
  0.5052431649193683  0.3269519407409339  0.4937955974742588
  0.5780010520353730  0.2451727460192871  0.1697541626837546
  0.5827240219794807  0.4176260070710582  0.3243622982220089
  0.5855329919909206  0.7514637231774300  0.8250150021384814
  0.3348060716442955  0.7531715138220859  0.4130351381150196
  0.3288376258510027  0.7531019495670378  0.0903490869262298
  0.2442620914008298  0.9138342846022303  0.4943803931780548
  0.6703799157213619  0.3280225088842997  0.6680285208887492
  0.5182817000949812  0.4159779659901505  0.9191497527292637
  0.5035992047910099  0.0004766710517293  0.0065518129360624
  0.2467916397024374  0.9988932967256735  0.2515526643454951
  0.3301981562349474  0.9192061571602244  0.0932771643460159
  0.3310177087290803  0.0056400408250905  0.4954958214074666
  0.2507911331031411  0.9176800653472803  0.8352466701509111
  0.0662943239682638  0.2472256464454728  0.8320583926227629
  0.1651294948695401  0.8331382702307951  0.3332491300595326
  0.3234155131708651  0.5926866110843435  0.7475955874965572
  0.4137323193232292  0.5888491105150150  0.8430950760757064
  0.4129629377495722  0.0953583401581862  0.8399829231593668
  0.4133144691547261  0.0020518826460810  0.7510606035082233
  0.4180499010586942  0.9125953977721326  0.6602267912330589
  0.4139881120109098  0.0909569548713070  0.6603851764437232
  0.3324294442987804  0.8309026046627771  0.3328473075248036
  0.4221438330025431  0.3309596533731579  0.2527001021100012
  0.3305234793108629  0.9980282646476457  0.1725953808275023
  0.4183052190604040  0.1728229469408235  0.0853405022511653
  0.2501783692154513  0.5155679624716372  0.0845431777831051
  0.4157831470891077  0.4133776091975828  0.6715171731921208
  0.1672791142842136  0.4951030353826388  0.3150581056601839
  0.3303437316197535  0.3262991780337939  0.3460297290494628
  0.2403647918961959  0.3357202270668027  0.0768201417369520
  0.1554896575176484  0.2421121749492119  0.0932470707018662
  0.7505074648562303  0.0841246845552348  0.8351997343366759
  0.1542990214952430  0.1659209220720397  0.6597140861238622
  0.0899785856678504  0.6708003731545427  0.9198701985460401
  0.2431335401706730  0.1536345047231487  0.2512120002533871
  0.2507457267127786  0.7520570661245755  0.1694333151256785
  0.1598031149135555  0.7503816982742733  0.5832545307045011
  0.2440517885210649  0.3331499124177495  0.9166067149890841
  0.8260165541821315  0.1632839631076790  0.4968715656837146
  0.1555680181175909  0.2450823407893602  0.9165148513238144
  0.2428582326248898  0.3318313728476965  0.2552004626466732
  0.0791283943956500  0.9954702954520791  0.4144022179703615
  0.9909393044685617  0.1641139692339386  0.8332757214746236
  0.3330176120467155  0.3330858539545026  0.1654631374669601
  0.0048237949784331  0.1641487013040739  0.4963508527883992
  0.4191841762731165  0.4166647737596888  0.0118850544270253
  0.3345526946962399  0.3326565100480148  0.0093981642250717
  0.2517415980722685  0.6731385141256775  0.0885445062678627
  0.6663890315355768  0.6706296751778783  0.5000649800332250
  0.7480577868501259  0.9120861726222671  0.4934195433815303
  0.9059684995641506  0.4899166313706194  0.9180226644432793
  0.9157454757103219  0.5781658437352053  0.8295129949340798
  0.6691072673142280  0.4153423392389429  0.4136437858388890
  0.8356771609980251  0.4068177993057541  0.4158532426614354
  0.4999518968633095  0.5838401160539841  0.0871799848171847
  0.4968371081608548  0.7483225698874114  0.9165905580072632
  0.9893663019576998  0.1631305225821717  0.0054502069506011
  0.0006026229171197  0.6686444908729877  0.0093047031399217
  0.0774093940713930  0.9965427478682477  0.2506417694107915
  0.9136747459353102  0.5821950215202771  0.0094141118590170
  0.9167802877356475  0.1649316986349902  0.5837575045045411
  0.9121075773307296  0.3277212016533016  0.2505942751515278
  0.9929193534661755  0.9972740602405079  0.0066277586970417
  0.9119398459906806  0.1610620194901368  0.0862411529729824
  0.8307058394498466  0.9195469638419173  0.0891659849198919
  0.8333888503427684  0.0821397469227342  0.7544199673985282
  0.9131577724699688  0.9996039702576139  0.7511578225713749
  0.9146776240170753  0.0767339588845686  0.4944470097331726
  0.8281152884301780  0.0765540361960225  0.5836053367038214
  0.0779877260360234  0.1619354777512946  0.4130227052730852
  0.8337708845330870  0.5842253907370002  0.4197942816010723
  0.8337439866584584  0.4995230245095629  0.5082613479224417
  0.8308043089346779  0.5835499894217236  0.5815041587235635
  0.2453771725159078  0.2443800717638599  0.0069580395987160
  0.1511456084887527  0.9962956308824730  0.4973528286491894
  0.2441586709035911  0.4209080524383031  0.1710989051455876
  0.0773518441316370  0.8333983480593391  0.7451548589945829
  0.3317484056344133  0.2448032811804947  0.0971379456845085
  0.1567516918880517  0.1621747291404212  0.3328448007618326
  0.2430612860661956  0.2431356162998245  0.1620296323507477
  0.9973056991206023  0.7528722439638422  0.4149677315676598
  0.9199196179706353  0.5821603522479717  0.3313068977012205
  0.9120950697796312  0.8373579304590647  0.7457058377298063
  0.9994940434338743  0.7610211188520154  0.9185040200506313
  0.0674739265960646  0.4057745547559656  0.1673943914973674
  0.0929532087397808  0.5977188758493016  0.0016751804239325
  0.3289322032032275  0.1538348547312544  0.0020362240998231
  0.0785991961154122  0.4979398593236208  0.2491744137458217
  0.8204032762217376  0.5796298539401125  0.9135311248744946
  0.2407273698554518  0.9123121395873875  0.6695236499211240
  0.3353230868841729  0.3355379057621666  0.8274622125257356
  0.1612597294464967  0.0039332591524283  0.0074726467186944
  0.9099092783467670  0.7573387785036729  0.8273674228254366
  0.8311882071597527  0.4121169500568946  0.0918595833702929
  0.7484971529226531  0.8366207544468687  0.7461675184573470
  0.6667958721127133  0.9294468363402978  0.9172480941951414
  0.5834185638490975  0.0820366405414192  0.1700194784268334
  0.7503462414877868  0.2471126715950283  0.4983182789228510
  0.5924226090302386  0.0858504164634324  0.8365357176084762
  0.6693175717584527  0.3251483362679818  0.5002642533897131
  0.7408369532548446  0.1634934828870117  0.5837251995776169
  0.8310621085966829  0.1629971406187717  0.3320187498671567
  0.6667156767548528  0.2380312522252402  0.4124649491594373
  0.9116004663190234  0.6668191169871317  0.7356391497663894
  0.7484723234954022  0.6676860675023207  0.7457233461385157
  0.7505374745060773  0.0808420363363183  0.1692079072340046
  0.5880365907858467  0.1663649988842337  0.9213617992831064
  0.5837455961175455  0.1672274620671585  0.5813768183571029
  0.3313751428311812  0.7480302641305366  0.5799721572695050
  0.6673983632915175  0.1632594797621182  0.0027928310385557
  0.5011666133168394  0.0021727459085824  0.8374521172578997
  0.7515590801317753  0.4198467335683482  0.0010879513185618
  0.5802505226109740  0.4156972975839694  0.5012679619696406
  0.7482611329326541  0.5843181320614289  0.5083302633203187
  0.1631193136555047  0.8337770536457316  0.1713172590025512
  0.4153105863598467  0.1598982733408656  0.4120703229095080
  0.7478061947799887  0.0801688741307473  0.4971593499424198
  0.4979783570409023  0.0805458730108484  0.4132257938820772
  0.5840121069721234  0.8377929371254760  0.9176058834233265
  0.2444123562074799  0.7485728020185237  0.8345898826622632
  0.4955134820833458  0.8356873071525619  0.8279162928735975
  0.3283983667195797  0.6749261149779110  0.6634191714754805
  0.5842745343330427  0.7491796704428184  0.0043266860861117
  0.6712071386823291  0.0128578375878370  0.6601297451791426
  0.6683609959934343  0.8342516245705938  0.6648204574123007
  0.1432088469485363  0.4253666144180666  0.0897918533291522
  0.5006227266588077  0.6690829396729782  0.1692281656635392
  0.7472597184712944  0.6758528715595897  0.4172151525389273
  0.7439072672352520  0.5847742469355615  0.1766507682317056
  0.8314059337714259  0.4944627647672258  0.3280569854517412
  0.7460176721602233  0.4967343311294817  0.4169342737149045
  0.6653241389718987  0.5819371187654043  0.9079224384970392
  0.8216768370340353  0.4954735505333981  0.8306954308295501
  0.8218025430088637  0.7505244870285895  0.9114450987184817
  0.7489096251027567  0.7549220642691061  0.1710099447095746
  0.7481215437046972  0.4977870424892584  0.7452700188386440
  0.7503465005344006  0.3300896677840642  0.2503433123276350
  0.9090427335313760  0.3240013889531606  0.9185348337332805
  0.6734405566405650  0.6690219488065959  0.6643784620595056
  0.4159263734277787  0.9182549190966574  0.1719895398097976
  0.9950605029071815  0.4996942970488356  0.5015177708250048
  0.1655608233678412  0.8310013073566881  0.8343320929300334
  0.3351319824945793  0.9091301630736378  0.7583619786429489
  0.9954298981996097  0.7513162499981433  0.5826617254850855
  0.3228058728501555  0.4162690307669960  0.5830495538397046
  0.0032186562495709  0.6731934909180436  0.3320577065184294
  0.8310136402692961  0.7529819806796068  0.5816557843362656
  0.0723598450278976  0.3295190940286698  0.7444723700821783
  0.0014357291454588  0.6649688588385132  0.8287319818284874
  0.1531714522475522  0.4203203416113572  0.9188311046488867
  0.8317531981916341  0.9967008891013899  0.3323679465768860
  0.9973994951938169  0.1623123134061623  0.3324080191500964
  0.0013677009998420  0.4844473000038436  0.8421286766778617
  0.4959271091496182  0.6681462195094193  0.6607053377675985
  0.8314259351916438  0.9237233009674194  0.9187462106922504
  0.9125014506954445  0.3286954939719202  0.7476445478780643
  0.5856852981850037  0.5017320297645620  0.9156381783312588
  0.0667340900025279  0.4980223893925816  0.4151159173769459
  0.1634934708503985  0.5842146625970370  0.4102187996789521
  0.9264939999546369  0.4991148495014308  0.4177993384966889
  0.2490604817303479  0.5897408198182245  0.5025728272947243
  0.0698944611657615  0.5852381226055571  0.4998843488367310
  0.0686624676978809  0.5091917087909869  0.0682322408798679
  0.9943495760352331  0.2485291994429636  0.7462163838000373
  0.0825781592602721  0.5862905245976617  0.1613347454316210
  0.1606139722875792  0.5013176416975381  0.6568927802358350
  0.0742638203083232  0.3292451510798925  0.9186378309772749
  0.1561462557481498  0.4965591166111100  0.4976599110759702
  0.9785136900060537  0.4045214533868046  0.9240540610974973
  0.9956746464601138  0.6701178524967972  0.6646249570578098
  0.3351109169632058  0.4228724632248378  0.9147698899715777
  0.6625925403479409  0.8356007511998602  0.3323017035550089
  0.5840522752407233  0.6712374909522913  0.5744183274050632
  0.8262774446417537  0.6737438231261309  0.3325347466842601
  0.9110829835401018  0.7592957043802078  0.0070957107210773
  0.7427381849737118  0.5835982143186114  0.3288001675935150
  0.8373970006948521  0.5846514410404547  0.0941350778237250
  0.7520670015537032  0.5751566427518658  0.9997650612153997
  0.9991791381684287  0.5828084344952996  0.9209677601425457
  0.2367316586644279  0.3323451227356747  0.5846489074735858
  0.4137145893502950  0.5066682041348741  0.5821787885410169
  0.1691272170413599  0.5901284279353772  0.2538712926929417
  0.4202833305930084  0.5075951602392674  0.4039242143374223
  0.4244667799497435  0.3319724747547323  0.9203396952391881
  0.8314733948597746  0.0832803240961366  0.9176517799792463
  0.5848468805074645  0.4999876306718709  0.7486516341153095
  0.9964075081738218  0.8360591373047076  0.1700470551650678
  0.0772083051656396  0.1648552076875837  0.5818286667866447
  0.9115112595993868  0.6694597503021736  0.9174327423008755
  0.8216944155887516  0.6669888090370594  0.8298650561482308
  0.0742689728830350  0.9213190693828797  0.8348042360272380
  0.7487843697823100  0.8346285417681721  0.4162781421133520
  0.9166142609226652  0.1659707887534729  0.7525394471839012
  0.3278039466833718  0.5093928322211577  0.4981482565816506
  0.5816129098900348  0.4168292267018344  0.0048465802491824
  0.4955102353070306  0.8345030574485500  0.0056369640595463
  0.6744708277904053  0.7520006074559217  0.9167124550049354
  0.4141261310484572  0.3272447555709986  0.5791151670233574
  0.4277858485642633  0.4158658497297826  0.8345318945275991
  0.5834822153802992  0.5870692654463032  0.5018482227090535
  0.3372375209645943  0.5925408190117257  0.2503466811391516
  0.5029442732396456  0.5063025570275945  0.3309906420372484
  0.4067370412842420  0.7493442632321075  0.8354684038896156
  0.2492394267609198  0.4194736968236445  0.8254642717365032
  0.7529430705187712  0.9161060471447139  0.6665883789443251
  0.6733648436621548  0.8385643457751298  0.0047280520795225
  0.3342372550367536  0.2424880135944114  0.9199936736527748
  0.2347926606807755  0.4158753003353037  0.4956160918886439
  0.1554630719863711  0.3353900284215289  0.0009902891814892
  0.9954320275704949  0.4981226717432374  0.6635241713381103
  0.0714241735785942  0.3266483328089120  0.2498805020424551
  0.2429212935657246  0.0022006762599402  0.5841288352498225
  0.9970670877341999  0.7576414011797939  0.2493177234532211
  0.9124007258057898  0.9972387617831703  0.2527641607204134
  0.9130916591453525  0.9146496672477411  0.6667398775973135
  0.9955283613129415  0.4116256815771557  0.4137310797298593
  0.1669725796226160  0.8271407614070730  0.0053499865353542
  0.9158735870379977  0.9144275139911042  0.4967454258033982
  0.9957975212931722  0.9185992970935491  0.0889315261288739
  0.0750512482494670  0.3326717968589789  0.5830617607200300
  0.2425958044302873  0.2344517051981592  0.4958826182822799
  0.9122887618773390  0.0803984900255559  0.0030803037483953
  0.7509928855773140  0.0027705962129320  0.9193210347152990
  0.5834107411515007  0.8359829332336860  0.7466142833751427
  0.5851737574934660  0.7569711124797786  0.6620269037795409
  0.7494528274808560  0.9195741151915621  0.8334387188814634
  0.0770888855403448  0.9964953583185587  0.5820352889065010
  0.6659492765637715  0.8361817798070260  0.8262652370672139
  0.8313779666126774  0.9980583633271364  0.6673271339036139
  0.7484880178427791  0.7537339208457833  0.4996626052503943
  0.6665786721671950  0.9193120708135387  0.0887409587038127
  0.7598271200900767  0.8413633126746047  0.9183413256795069
  0.7487605768126010  0.9190288269032948  0.1699364537693200
  0.0777742248188509  0.0785381749856017  0.3323975123614115
  0.7486913399263406  0.8358943989261589  0.5808547633003853
  0.8315126801853466  0.2432476551133953  0.0872093337675051
  0.9127420652570569  0.9195605693619124  0.0056112596752850
  0.9124323229431718  0.0809982615320419  0.8357593417927721
  0.9136298709037348  0.0788539780662098  0.3330094918410528
  0.8312286167887252  0.1627571295918859  0.0027016593617402
  0.8278652565826400  0.4031740716501316  0.9142463920525110
  0.9941584262286330  0.9970124213825194  0.6660367851296921
  0.6636669389794652  0.4903748753469099  0.0034059514661808
  0.7463721406675243  0.4118504468880289  0.8299893099940003
  0.9952455873964713  0.9184054003266779  0.9203420452278954
  0.5030844066970391  0.4166020698503959  0.0863485771932796
  0.9123158679470602  0.1641457984214449  0.9189120144391884
  0.8240724134814862  0.6645790494659071  0.9997054314749610
  0.8305535016442496  0.0002899090358023  0.8346878745327428
  0.0755985085192759  0.9979026521119290  0.7485884006312835
  0.8308680910945035  0.9994018299956605  0.1703621360809446
  0.9951519142263094  0.8372181379788245  0.0062886331604847
  0.0791117656570429  0.9166700888374264  0.1703972141841318
  0.9950686258208092  0.0814263926241864  0.7494162384969173
  0.0798140075362936  0.9148318891896640  0.3325294430883550
  0.8317947398852492  0.9958547894117115  0.4965879944500070
  0.7498704812365918  0.4132569202181401  0.6665853576962129
  0.1591931300896334  0.0787135880483757  0.2521980705424125
  0.6646163995828437  0.4994323946336241  0.3314688302837333
  0.1603374920288215  0.0797054295896131  0.0889897031063033
  0.6648594850512508  0.7531788348347884  0.2510283652880185
  0.6643563600663415  0.6716763895953017  0.3338544086621658
  0.6647710412911418  0.8345812312218897  0.4969014832580573
  0.9967346420823302  0.9157094909627616  0.2511542573327127
  0.8323655908629795  0.9136757417939172  0.5805611801009963
  0.9144346406446138  0.0808469281668155  0.6720860952358005
  0.0747824499683592  0.9172806902215688  0.0057876081346821
  0.0799259242824814  0.8353345654154524  0.0878231564845909
  0.9949310480904766  0.9979068966266773  0.1697839765765489
  0.0775375295026428  0.9123192441011386  0.4966739096172091
  0.6615327272680070  0.4122875514993180  0.9173345633437110
  0.7503464467345915  0.9218737216806870  0.0037135155806252
  0.7455569115323373  0.3290578320825210  0.9141588404863181
  0.0733201672986994  0.3287773365256209  0.4136534202683192
  0.7462652094306762  0.6644478207663395  0.9152402765002680
  0.9128183419525747  0.0795502009970562  0.1703652814210461
  0.9139918095332799  0.1619644630806678  0.4082982552557720
  0.9110374702791386  0.2435802085896694  0.1698679588026752
  0.2402463331461362  0.1629219979984895  0.5822598688275146
  0.6642640453507938  0.9162882608912900  0.4149190963848242
  0.0794237840272984  0.8328952897973745  0.4156790657276854
  0.6669305872951047  0.8372673170595064  0.1709791883681877
  0.8294181911862735  0.9174277593003685  0.2525415375191183
  0.7498803390112763  0.8381450537358883  0.0886657335434283
  0.1633164520166001  0.9160980111107965  0.2515050468197844
  0.6668698406177129  0.1595193707414709  0.1691617294955600
  0.9124964029104661  0.1614582913482878  0.2524732402295523
  0.8313808135849613  0.2449750699568769  0.2514295802760407
  0.6628762811816821  0.9167132189990859  0.5759489650824565
  0.8308814608999235  0.0801021719586192  0.2526133975585471
  0.6623665299467110  0.5856131702381389  0.2510232833135198
  0.6648953126443033  0.6685926226258776  0.1694316695322359
  0.7493536535751334  0.5830290608137603  0.6635038913603416
  0.6645793529673885  0.4992339116051761  0.1683999778093294
  0.0031230784824770  0.0789065480477593  0.5803197688251774
  0.9955722945441520  0.5846689767589562  0.5854434969787706
  0.5005449266376550  0.0812600066790763  0.2509436739808033
  0.7462988713375264  0.4978828829422355  0.2500441526492852
  0.0751379045949245  0.0807573177462168  0.0057745564547497
  0.6649842845465901  0.4978238047428679  0.8265490726416312
  0.7496867594600437  0.4136084221367586  0.3314975789976953
  0.7563843851501357  0.4126413850263293  0.5016889537491355
  0.7572390525936399  0.3281624903182475  0.4144787247825020
  0.7533135802283147  0.2459827425250580  0.1694438193405969
  0.2454948773706521  0.1601549572332314  0.0870193702180426
  0.9939007513915946  0.0796694867392431  0.0866725585962079
  0.7485573298591631  0.4938130266720235  0.0893427762036475
  0.5830342116173988  0.5031910395463716  0.2485856469667923
  0.7490555261049457  0.3301802404387110  0.5836773698056350
  0.0777084585819997  0.9991311694014482  0.0877277428783094
  0.6603153018301133  0.3325524777547182  0.0038227885861389
  0.6657042880355188  0.3308363483785334  0.3247828572403800
  0.6668962127282544  0.2443279744532981  0.2545993330200780
  0.6661792845794157  0.4163849950335919  0.2499111421110499
  0.0800595970603688  0.6666961924201286  0.7464425806270174
  0.9961924829588830  0.9963320846509988  0.3322645498977770
  0.7470576261074262  0.7532145566995436  0.8277051274583320
  0.9130873239149546  0.9991871301904811  0.9193821838232703
  0.9952924356247352  0.0791660006247234  0.2518255417979494
  0.7468419238409250  0.9166741898269900  0.3346016233786367
  0.9951044253360323  0.8335254357277297  0.6649711663690240
  0.9980121980065375  0.9956320540466412  0.4973659673246672
  0.7458112030051888  0.7551834801506977  0.3333559097449554
  0.6644306546661309  0.7537859959164174  0.4162346561416573
  0.9123936113638315  0.7530051131982124  0.6644013555129830
  0.9974909062091678  0.8342357572253186  0.3335789868648641
  0.7483323446381333  0.6704472753855653  0.5816262367847818
  0.9109693297891196  0.2437786318642668  0.0033381482472774
  0.9956647426849342  0.8325027386133039  0.4988032353453929
  0.8314987218556960  0.9158130025499737  0.4154093074816469
  0.4159738726418004  0.9998377380920537  0.4134434104236713
  0.2454378444712008  0.0763552867670176  0.0074137742446028
  0.7490679627407381  0.7533060189122806  0.6635062636707845
  0.8303056851676444  0.8373634136276080  0.1699249613310116
  0.9950470394180869  0.9173365459946492  0.7479991080729251
  0.7468323600415319  0.8363775492600540  0.2521590810558011
  0.9973706456834095  0.0780781123683058  0.4138702119432238
  0.0775387472319366  0.7500697700737593  0.6653732573400180
  0.7481119479047305  0.4974105802810844  0.5840918488645345
  0.6658373465806268  0.5844846953585262  0.5838977759314881
  0.6674162113521188  0.5833061711732473  0.7462338164661855
  0.6669280950986179  0.4999570563275770  0.6663822958793664
  0.9134363971542860  0.7516140827556148  0.5003364136564672
  0.5833635389666141  0.5011624347587929  0.5833928465280986
  0.0806924822843706  0.8368123318843590  0.9254883584517997
  0.6667717024960869  0.6645463480987439  0.0013112066463821
  0.7335861659943774  0.4946658757122697  0.9107442628512776
  0.6684132015674944  0.4137407141532428  0.7481610942008425
  0.0764778315388261  0.0792464648020630  0.1699045717169796
  0.9926787729052237  0.9986641255264874  0.8336077992576917
  0.0772825984791821  0.8304868930696682  0.5821320346898249
  0.5031349973690051  0.3295637471498158  0.3305758644373937
  0.8294346982490397  0.8353718174007490  0.3344969917466011
  0.9890253110748100  0.8382567078449379  0.8309949833263837
  0.9138159614043110  0.9151844900400666  0.3331571190841744
  0.6685042805862628  0.6680624385965126  0.8293303109217021
  0.8324227059673284  0.8342015878644844  0.4986884084657600
  0.7496468757342107  0.1615161565792526  0.4139952878626372
  0.8308204051616063  0.7550332551089578  0.0907245774741044
  0.0755250252220255  0.1652700860329904  0.7485332911262226
  0.9911707579947217  0.0813469656550979  0.9200534072322905
  0.9131452508272538  0.9179437479465624  0.1701443073358713
  0.8299306467126877  0.5852273962090107  0.2431908979528577