C  Cr Ni
 1.0000000000000000
    21.1200000000000010    0.0000000000000000    0.0000000000000000
     0.0000000000000000   21.1200000000000010    0.0000000000000000
     0.0000000000000000    0.0000000000000000   21.1200000000000010
 C   Cr  Ni 
  86 259 605
Direct
  0.1512257798680221  0.0154030914075787  0.7557504089556742
  1.0016878730131218  0.2535557279317185  0.3340245689494589
 -0.0021593965204211  1.0089271486696474  0.2458012202543074
  0.6685535422387499  0.4179408627383361  0.8375121717056214
  0.9087869553072869  0.2515871154434949  0.2421574780063507
  0.9077785564924942  0.1608115642865045  0.3352530399296138
  0.2456882257249162  0.2471692757676273  0.9184252787357811
  0.5734493454019518  0.4177334018002268  0.7465488397696806
  0.5768149638022685  0.4922649789492566  0.4945765147832534
  0.2449996111486820  0.9225252215647393  0.7443828741610292
  0.1509556261723666  0.7630650267163805 -0.0051435040729157
  0.8178895861316721  0.8235737554819681  0.9181260647588619
  0.9044930998676632  0.8328978183459284  0.3379541068815229
  0.1410541760510162  0.6830773867510356  0.4031807260446241
  0.1464992713743316  0.6737574247148385  0.0991314093777133
  0.1622685724808361  0.4190050896143501  0.1706524840291209
  0.2393725729133880  0.3389044513496576  0.8245987421464648
  0.2572316819755983  0.0084362006256320  0.4951094411768602
  0.7602245554440655  0.7670747342036616  0.0707029296382327
  0.3374262543441218  0.5834015511828806  0.5055653984267057
 -0.0147584405052685  0.5798887694653377  0.6634332321414202
  0.6657863583979641  0.0005715812498817  0.5827584120682094
  0.5767612704860000  0.3251072132323545  0.8359058421363049
  0.1643681471463369  0.0119307816168258  0.5811274601161537
  0.1519053728254081  0.9227031700579914  0.8434868473944050
  0.3342960686953025  0.6773237660173428  0.4148247494960971
  0.2505600101064991  0.2438353487575053  0.2536880215158834
  0.0048405509525652  0.8244643334556786  0.9162102802067709
  0.9073615799604172  0.2529017048418622  0.4253909644057071
  0.7425350267891155  0.5766609670306786  0.0785352225530130
  0.2539918101470800  0.3282164496039381  0.1653796827242529
  0.2403117747883015  0.5825377021771774  0.4140984535784289
  0.0953768661468901  0.7266952804439463  0.2553628001293358
  0.2463685517627030  0.8292927629512239  0.8410701326115968
  0.8992258891541077  0.8166099521587351  0.0187050267138314
  0.1633875552476503  0.9187385578525779  0.4907152610152871
  0.2498531104867255  0.7558208990371177  0.0903890144760397
  0.3410306915355039  0.7381770326147448  0.8319182555984987
  0.3377193560707634  0.8319036296773794  0.7424724771956372
  0.0767797241770400  0.5801088473415785  0.7560629517835747
  0.7469399330583252  0.6687574303812764  0.1709616086115703
  0.2390725838402182  0.4908061749841486  0.3242658768827016
  0.4124286481011025  0.4203022951320977  0.2459160651845751
  0.0784738508480753  0.6730312267485853  0.6628939318674164
  0.4257858006663539  0.6764543693517614  0.3254658753914499
  0.9989940710083745  0.0069368417584790  0.9155696539690150
  0.1497163673449302  0.8306238351744344  0.7520766808233025
  0.0633752189366423  0.0151041384303390  0.4894489287246232
  0.2420002440718940  0.6782659144985619  0.3166914638981736
  0.8395403452181678  0.6644912705700702  0.0765485069184247
  0.6642645583050348  0.5855364668246836  0.4989480223612949
  0.3384220378621945  0.4901213003038777  0.4145851381227397
  0.6653083340989109  0.4959190898697728  0.5885259416422156
  0.1680119745078412  0.8267852019722240  0.5821506381963477
  0.3404076361507160  0.7530255798532668  0.0015745384532710
  0.4274374755191209  0.9249342687705644  0.7449667881632304
  0.8199196961255513  0.9179547314104128  0.8287675870880872
  0.3389819515185741  0.9225346138269903  0.8393199937858505
  0.1719067055875461  0.5829148975663495  0.6632720528111464
  0.9952759171950490  0.7342680193621329  0.3466530385615512
  0.2440506123619759  0.7357163031577920  0.7381551827871814
  0.2407706503538291  0.6757304766881309  0.5059424484917681
  0.5073719385755571  0.4210961387342911  0.3386011422800809
  0.5068251427733147  0.3278584031715292  0.2436571299618227
  0.0712322294190114  0.3288735809041980  0.1684425394525016
  0.0697875350421296  0.9178283555069688  0.5845955440661602
  0.3361856247204014  0.5820849363343398  0.3203768519581029
  1.0036007774326530  0.1591405424585727  0.4287278086218719
  0.2513019656024620  0.4176112448377035  0.0751888231929896
  0.6673193265804216  0.3259716500240838  0.7456293393702004
  0.0965587348189249  0.8284450528440268  0.3443553453207646
  0.2502721846960289  1.0148601016323766  0.8393035907963133
  0.9952226774994807  0.7327131144191809  0.1623783141416850
  0.4144850103281528  0.3284049992399898  0.3373524393892715
  0.6646165912375175  0.6720519541667097  0.4114067203201920
  0.5793365572011114  0.7528558883661984  0.0819120867692280
  0.9970431934655984  0.8277838812379408  0.2465968508743070
  0.2463160721058145  0.6619636117458133 -0.0000350160116488
  0.9088699909816118  0.9164964121886534  0.9200375058772436
  0.0048382946910464  0.9132457221841874  0.0124418326745096
  0.4927758362891509  0.3307518789602433  0.9208228451136016
  0.1718641089152820  0.4876471820477519  0.7554347018099599
  0.1011442247170207  0.8140524611567851  0.1491253836426264
  0.9964770345569340  0.9223271623644351  0.3398159236542846
  0.0937759203436258  0.9182424701934021  0.2460077112912098
  0.0779750991372281  0.4877127590849034  0.6617293585870885
  0.1679233057385374  0.6726446600724476  0.6702206969315589
  0.0747040615473291  0.5775433314109161  0.4994173062188837
  0.3320415229540972  0.3283355897016671  0.5038351082500343
  0.1572533374359097  0.7421785528841386  0.7561437466980897
  0.2525824085853245  0.0867435212803795  0.0045780254166632
  0.0835292915136214  0.7412164929057460  0.3426573984240122
 -0.0027645995020346  0.0119720461545118  0.3357128748224469
 -0.0031465248352760  0.8303053363716802  0.3366239113479415
  0.2565805374729927  0.0080489235309512  0.2494010852428594
  0.5815879933552984  0.1653663057024223  0.7479675115857458
  0.4183756966827415  0.5819410825582368  0.8345786256973856
  0.5814774986711155  0.4999922485365103  0.0810907101410095
  0.1495614892366233  0.5857321966515744  0.4166534443717686
  0.9059059158031637  0.4928034008252605  0.2519906923745832
  0.4979189744410928  0.5844620594643417  0.5875700278040944
  0.2459844066428330  0.4930379685559924  0.4164982831713788
  0.0732081300521225  0.2457525228653477  0.8353247974169707
  0.0792822779583418  0.3312649751396381  0.0760342835153570
  0.0781390458641988  0.5811464164904004  0.6646231640236875
  0.3342882287670054  0.6710039916346504  0.3261448356089977
  0.0743262161027518  0.6697807929070900  0.7537278372413523
  0.8268405137781603  0.5826687546078865  0.5831990533630307
  0.9061401486055802  0.9237097654636317  0.3324923864250426
  0.8358660686006776  0.6620915291473816  0.1690940293698058
  0.9063762628530748  0.4951357098128575  0.4184549669612524
  0.0792051397859995  0.3292885981848748  0.5813651281311725
  0.9095949038413343  0.4944216056470632  0.0807633113487281
  0.6655918217527325  0.9174941647479550  0.4171400247209395
  0.7444641589435200  0.8318872668619773  0.5855177547588732
  0.7437994006244878  0.5814096995064174 -0.0099579476283308
  0.0807183482773755  0.2401325819490220  0.1633381654048365
  0.6650576280592396  0.4168965352571279  0.7477216734957938
  0.8293654602346477  0.1675803378866622  0.6671042654644830
  0.6613199831209374  0.0041712195503075  0.8310626284304532
  0.7305140160411980  0.9180871518189399  0.8312430568445750
  0.6635659280203871  0.0023289554422480  0.6736702361431689
  0.8233198587882978  0.0835159574268329  0.2481947760752446
  0.7547709361905948 -0.0007509613587463  0.5855621337510548
  0.6646376463928266  0.0903263227105245  0.5839823623596316
  0.5843525763371300  0.0853972193468920  0.1674675602892863
  0.4213070667243951  0.7562664091107955  0.1666815561664947
  0.6612346643583589  0.0023966847616581  0.0000374383659447
  0.3384070466653243  0.9233601072288410  0.9284182421399177
  0.8176160742648348  0.2501327526326773  0.4189816863351808
  0.8260090784360505  0.8275841893097183  0.8288285809148154
  0.7564218879395702  0.3302509792501805  0.7510762086333287
  0.6669684589653243  0.3321676036154740  0.0009744815178770
  0.7571707363103956  0.4123199004918031  0.8334720538383242
  0.7472751331882803  0.4140297046975344 -0.0021380569851270
  0.6653648979299283  0.4157391736961920  0.9268527112132520
  0.6654426765153612  0.3274963832631378  0.6576547156157750
  0.7493038388049681  0.6686908817789567  0.0789083780679434
  0.5795073960171991  0.5006136201521212  0.9171491570820396
  0.5794157749961446  0.5062430205917754  0.7500442866925110
  0.6610124050417088  0.7468103473074028  0.7487917513429810
  0.6649152453888771  0.5009981485669243  0.6761906797021205
  0.6661653763210942  0.4971135672686646  0.4991259862577093
  0.5755487241170297  0.4984574673976249  0.5857977441938342
  0.8296961075665205  0.4132490939408290  0.5844046830726299
  0.4998241401665623  0.6723591666223948  0.5019419764441366
 -0.0098240072447371  0.5658814427834975  0.0812474594946428
  0.7437075265764304  0.1664458670016356  0.0813453853053730
  0.1595988955000589  0.4140831923043535  0.0766792516102444
  0.4169942876058990  0.0855400330865244  0.6653252284581109
  0.0086761528825620  0.8227057616404169  0.1593110724809719
  0.1570628679785533  0.8337868151205017  0.8407575812194665
  0.2485792784733554  0.2471957828018859  0.8283061500560241
  0.0789706974624773  0.4895250624601694  0.7535880249180008
  0.1637879111102456  0.4945466609342209  0.8451437401397034
  0.3377728102827399  0.4155002039722669  0.7466206223273613
 -0.0009102691237078  0.1600982544043829  0.3364184844516337
  0.4183134635404827  0.2396686033040423  0.3343213023476598
  0.0850432576988800  0.7262299777975921  0.1655115888510887
  0.3331942866981273  0.2478235353491477  0.5819484860020034
  0.0887420654083828  0.0078030906050085  0.2462549548962947
  0.2456746499034906  0.5835007008057448  0.5026805378952356
  0.1656534014548456  0.5784034461500377  0.7541173552257996
  0.1575944812034566  0.5793587497538938  0.0814912802592906
  0.2456637692597313  0.5827043386333602  0.3247471668056864
  0.2513430396584438  0.1686254188652808  0.4176631955896781
 -0.0119867862935635  0.5777132940899067  0.7530812751725264
  0.3389327516506195  0.0119475823696467  0.8351175281960460
  0.0754341990111229  0.4122737622326041  0.8380049975754217
  0.1769924060492851  0.8489329613583677  0.0074749063136696
 -0.0048688211358644  0.1695439521031488  0.8333836827460682
 -0.0061964418622836  0.1701856775412182  0.6667311553242816
  0.8286065332560826  0.4132899446504192  0.7500951292124047
  0.9080023558472262  0.0038682118800341  0.0855058809618741
  0.0821854531086426  0.1666330367061005  0.0797873458548965
  0.3450519543234750  0.0058727456770678  0.4988334924085259
 -0.0037569659286720  0.0092031543998061  0.1573987700485992
 -0.0065419102131439  0.2467049871644737  0.9184302098103294
  0.0867677136011890  0.9175558540804831  0.3351349318695074
  0.1614780757199677  0.9191107755218882  0.5815423821893433
 -0.0023287117721551  0.9157842170361358  0.9232862940745690
  0.6659952054941926  0.2488560340994342  0.2478071991221819
  0.1622566425771196  0.0103995885568818  0.8406447637943353
  0.0003625173537745  0.9186467818929045  0.2470811372613456
  0.4166901307865252  0.3302634990311051  0.0800859335901812
  0.0005332048164525  0.7377740205629582  0.2536688868816682
  0.1620733745122319  0.3294298264595930  0.1647778882403291
  0.0737315012356218  0.4187966816624626  0.1657764146374211
  0.2504776989127293  0.4161837154600812  0.1635436878494441
  0.0734050102811802  0.4945781143203037  0.2527517786768969
  0.2462208551363056  0.3298125615564976  0.4224257037626781
  0.0751094260754814  0.8281417885360834  0.5810211896003759
  0.2463702655014545  0.0118326406592725  0.7475091159269124
  0.9080462233461187  0.7488229591097827  0.6673643282705515
  0.4143412230832317  0.4122810858939868  0.6643902878198800
  0.9112337397106202  0.3340536958585565  0.5848909284561108
  0.1657405595548655  0.3292930204288504  0.6655536421486947
  0.0765389122989337  0.6623975472935550  0.9162551354717640
 -0.0109307926325288  0.4908914732807311  0.6662954210753759
  0.0742099771100211  0.4966227667878286  0.4234247630549622
  0.1669798393118926  0.4927406310660372  0.6656487233570811
  0.3324487791804098  0.6722863390243302  0.5023764284417753
  0.2477711740442722  0.9216495065102712  0.8365524583200175
  0.5960785372951489  0.4154822509716673  0.3319220048761344
  0.8192206953583492  0.2509568778584741  0.2479479398904486
  0.1679241508423508  0.3988002558467862  0.7573071867698891
  0.4198965784687020  0.1670687546523079  0.2496693495226265
 -0.0107459469047507  0.8250050588527851  0.0071495918915553
  0.4173022024609674  0.3289588686324822  0.2473564540116654
  0.3311122003463091  0.4943908432291616  0.3262812001118909
  0.5003659172032829  0.1677295208901956  0.0008992484593896
  0.3320983153779089  0.5834393576635675  0.4137590070959521
  0.0769584316851000  0.4128784331739750 -0.0023275721784211
  0.3373183813173720  0.5823726399097477  0.0841370929589983
  0.8453730320775945  0.7528489467508812  0.0833560175979683
  0.1633266128751533  0.3307654685944235  0.5008634518437191
  0.6637402262369378  0.9108085704685964  0.5825223794999197
  0.5039984772611082  0.4184364299210352  0.2452868147217163
  0.4990466175179246  0.3323194422422270  0.0092009348673890
  0.5771915113186712  0.3278627928212722  0.7472484341516508
  0.6672825836399400  0.3274231350297416  0.8355921415817207
  0.6625283026106524  0.6694274704749567  0.6679529110282765
  0.3381246985554300  0.8408654235126869  0.4999073892413314
  0.4177047217253389  0.4175942817909077  0.1565659589509981
  0.3411626249009107  0.8427125519668293  0.1642894915224146
  0.5838299584258954  0.0066168304311271  0.7487845450111668
  0.1711848151036717  0.0888135510528169  0.4129808978062495
  0.4173703136960631  0.1681297090282615  0.4172714398042580
  0.6634232329842917  0.6737520300165779  0.5022215417384038
  0.5851442605926664  0.0841556399055978  0.3351074705081213
  0.5819699883154917  0.7563172932769592  0.3319284998768805
  0.4222323831857179  0.0062855533213734  0.0831966269573216
  0.2489312542000047  0.3283567115810702  0.0763780969235302
  0.3388655092343864  0.8437444070910731  0.0042880334725024
  0.0898256143280907  0.2472722698005991  0.3337960846264686
  0.0931355162045838  0.8275870493009495  0.9353031035196185
  0.8302722048899376  0.0068349032037643  0.8332178213641043
  0.4273514447970936  0.9200966454090249  0.8351319261997627
  0.1560665340561865  0.9215002685744751  0.7518867098219093
  0.3344277196033343  0.7440825694132914  0.7444798764293877
  0.1725680150956944  0.9177447775081637  0.4030671288517498
  0.3401190918445113  0.8428704297923989  0.3301684476926678
  0.0737974169626611  0.9243867355150123  0.4949171888403848
  0.1521642543235794  0.6693177555934483  0.4934272250161940
  0.1605586953639497  0.7628709634640123  0.0876402393133905
  0.5826111338565366  0.7545911143621767  0.1718470681251557
  0.7458956828422328  0.5785815456163838  0.1685136392900958
  0.6610205787403958  0.5064165665951846  0.8326352107457707
  0.5729396281243692  0.5853551044284383  0.5018689398197638
  0.2501372304432048  0.3357253130025911  0.9156186453788662
  0.5864265482166745  0.9207298675770696  0.8362009293294641
  0.3367745625606091  0.2465487864492811  0.9173278273290300
  0.5008504694559166  0.2463621757733520  0.5833605731017483
  0.4158054917607202  0.3272162450737471  0.4266756077132037
  0.2458175615359360  0.8311951396807951  0.7490432360205036
  0.2487815970086013  0.7404830615384473  0.8328398970909028
  0.4155778625168533  0.0133207326872233  0.7503822517568115
  0.5030222195367444  0.2389477987752679  0.2494731520142233
  0.8267216052041406  0.1663438892382401  0.0013947883719682
  0.5820134913852321  0.0858475273915130  0.6667291271216289
  0.5768088677803063  0.0030121080438982  0.5832378864109157
  0.5853903399842921  0.1661029179643000  0.4169240972330003
  0.4991311207510239  0.2408682641415206  0.9183143544710367
  0.3368046660685106  0.8319593264450025  0.8346553858107194
 -0.0167053368953854  0.3322556046723953  0.1653562606749909
  0.5016141020285756  0.0884631184770602  0.9176259231376200
  0.4172611394764572  0.4172988601583169  0.3356316434738060
  0.3346432774503140  0.4942188164397024  0.5038098868542215
  0.3350312870982089  0.2454551907469930  0.7475959635558690
  0.5821667673034365  0.8431356701841007  0.0836307808760930
  0.4194593260875945  0.9204729970878476  0.6567917881541557
  0.5804469362263036  0.6669756403702004  0.7483720573372096
  0.0892608607997113  0.8248219716216294  0.2483232476117530
  0.0786993151759800  0.2551221850788381  0.6673000961711838
  0.9069666761606774  0.8368310029096009  0.2474478099280359
  0.1631689040767858  0.1749276087530530  0.6668213657229051
  0.7461933563223064  0.7512636525185771  0.5012788740265710
  0.1649581609102115  0.0091991941981130  0.4934801875905299
  0.4218839154788854  0.0050724255074353  0.2499065927449141
  0.4985014644206910  0.6654820161580711 -0.0041434298944485
  0.9102375461775255  0.9176726946992532  0.8291764829775718
  0.3410579803933482  0.7553480596258708  0.0897382883597496
 -0.0070121698479326  0.7360873971111951  0.9156747706659712
  0.8280725296549571  0.5798257303085983  0.4158791676955128
  0.8266259240897800  0.0007452119379401  0.6675729853332092
  0.8280290551321584  0.6624891506221127  0.8298464458499097
 -0.0023650970085356  0.0705116969269331  0.4290274065653494
  0.9092345598067074  0.2474833362370322  0.1541330652032176
  0.9080031022515553  0.0058376206914039  0.9174638058186704
  0.8201235105730326  0.9157324938703728  0.9194298252614784
  0.9090846901554435  0.8261120708643818  0.9218354299687648
  0.9023269581606351  0.0008030103404138  0.5908899926633808
  0.9051273651129678  0.7485338874889951  0.5049675378933967
  0.6632310952843211  0.9202061383333678  0.2518373076887900
  0.8123019926060384  0.8316716269716614  0.0072754203607423
  0.3351946977447129  0.9215166112616345  0.7487302105095699
  0.4176695289402714  0.5835402900874489  0.6678941203232623
  0.6577698455372906  0.6698611456832175  0.1662239776181892
  0.5046026258168708  0.5094461407674991  0.3277734032156903
  0.5010983742289955  0.9226547795361427  0.2504218363210765
  0.4994751939769375  0.5009691116371254 -0.0009776118806194
  0.9073324439937753  0.0729170958298227  0.3374025347786481
 -0.0007332962903147  0.0972061836324333  0.2455279614970626
  0.0856594422388226  0.1665588978120057  0.2486587600105510
  0.7467508439221572  0.1663373137400400  0.9192941387838302
  0.7462442558058145  0.1655623692450269  0.4182191422397230
  0.1557258707708683  0.6662604555949082  0.0038974607810914
 -0.0026792794352278  0.2498431172735300  0.4235079800673868
  0.2416006172422121  0.6660561924544619  0.0911586133260398
  0.2415535108282452  0.6737123514645132  0.4101969587401816
  0.5819117089227382  0.1652629758494092  0.5837021927788963
  0.6580724194065761  0.7465331060955248  0.9125450492191199
  0.4960240895024601  0.4122333460324350  0.5843260678336626
  0.5782547142189965  0.4165175094601524  0.8370356833928044
  0.4271507023420938  0.8343458006186443  0.7480160225994382
  0.5062514274608640  0.3301777935952206  0.3353609667782896
  0.2548925753617949  0.9188141236590851  0.4957069529868901
  0.7454651119702584  0.7579499877364374  0.1648489217625368
  0.1606941830295814  0.0074437180507112  0.6681694954977891
  0.2482232096975625  0.7517961782417708  0.0004742820298498
  0.0769625643851887  0.4935965404045953  0.9158802624042444
  0.9108514245880313  0.3324139544134521  0.0813902038687831
  0.7504560763664412  0.2450808384400889  0.8354818326270523
  0.0732931669247123  0.0081502892153230  0.5830822882814773
 -0.0005466114023559  0.2450249542238302  0.2446781925847032
  0.2569251720928049  0.8455036473961099  0.0859743820248569
  0.6665539333181114  0.1660386408994738  0.0019742082853817
  0.7473191308832756  0.2492597958693032  0.5022069375445420
  0.9096144219367034  0.4959126599917901  0.9152933007788335
  0.4205738867933680  0.5842414638842204  0.1591262790036425
  0.9096670586004205  0.3305510560375777  0.7512128789677507
  0.4285812417427179  0.5884054933996989  0.5015837921565738
  0.6682098035624355  0.7513506981679372  0.0796106046898505
  0.9087025451105781  0.9135301787775293  0.0108111304607847
  0.9069555496079772  0.7432749114240830  0.3345016593213185
  0.5834458165318325  0.9216569382101235 -0.0019007587452410
  0.9082887022898448  0.1579602124463536  0.2456107197480965
  0.9082075504595180  0.0848283817423982  0.1596523222926394
 -0.0039473067662372  0.0946659288759498  0.9175456728383112
  0.5020304241707083  0.8367216288518815  0.4989380998585325
  0.8280836166168164  0.1678662429213018  0.8362084451829412
  0.9110389671089589  0.2503817452458798  0.3332280420318930
  0.9106279835861136  0.1620332639800676  0.4243115114395702
  0.9064894819610471  0.0078247944692996  0.2479857425056134
  0.6628188653293400  0.9195578427080126  0.9183702099666011
  0.2486646611522862  0.5035905458985959  0.0808116114880735
  0.4205444375577062  0.9224406334899196  0.3332338258674194
  0.9099624251299807  0.0840492119930144  0.0008367430954165
  0.1610807773287845  0.5823926906327282  0.5764257226106073
  0.4173427816628413  0.1672298803611175  0.5833982755889838
  0.4184670500293207  0.2457726161220280  0.5019639100058984
  0.3342097076439953  0.1680224361405647  0.6648028515144878
  0.3381927189765888  0.4168820269352907  0.0781728394253143
  0.3333145093257720  0.3314691370263333  0.8297781400013919
  0.3351189215804140  0.1680447255738189  0.8322408525479585
  0.3350821407524944  0.1680326151869682  0.5010394979285637
  0.0708797308973140  0.5727804787720979  0.3379131444069392
  0.4073543524575904  0.3326855093442262  0.9161972322386662
  0.3379778774748460  0.2466442634253362  0.2479752535777459
  0.4165405458221700  0.2478540396795314  0.6644661119733645
  0.0767119020669680  0.5760735627558413 -0.0037401385937046
  0.2499609053529042  0.4989722463178811  0.2386817273727027
  0.3378210299096948  0.1652855059211336  0.1653949270162738
  0.3358290939067902  0.1660632009381902  0.0020097424044234
  0.2584071158545354  0.4966851048056048  0.7492290158115438
  0.4243990954122382  0.5038547929577075  0.4148826737436975
  0.2574749335894662  0.5790481890429829  0.6663949320471696
  0.1629607940958959  0.0977919669675366  0.5864774958445831
  0.2468606328169624  0.2483253288949434  0.3394893379088724
  0.5011093007118698  0.9191503819569304  0.5814052640662425
  0.3338277886832575  0.1665595014791242  0.3337230759242702
  0.4163702849797500  0.1658167056506883  0.7483215376817229
  0.4195716928648524  0.0877582334545410  0.3335034363785928
  0.2481382980946975  0.0994681539916316  0.8311095202544680
  0.5831549545217447  0.0857339698100476  0.0007190578499149
  0.3359826570805421  0.0869102805817751  0.9197240345005826
  0.5027632433820303  0.0050576894143105  0.1680758344820333
  0.4185802645365431  0.0884947915879179  0.8344369130571271
  0.5025889504883881  0.0863400410407537  0.2509534209090706
  0.5822173912473638  0.9216327885643231  0.1688682658746194
  0.3330382394725894  0.2479349903115771  0.4202115480291599
  0.2630967914819108  0.8422076254053249  0.2483520485048800
  0.3405624423581341  0.3295576743932512  0.1630403815865445
  0.4202243623361963  0.5065257297449227  0.2461918372188517
  0.2516160630146715  0.5789676989758215  0.1609610312999755
  0.4200846881696683  0.6692429043571008  0.2395484695374778
  0.4875347046158222  0.4147785259065815  0.7489677677864508
  0.1578776865100522  0.5665013755436830  0.2533034954913069
  0.4166484318501139  0.2480579920509086  0.0007066470872348
  0.3344441453895672  0.5010880444132731  0.0005388651042735
  0.4191402096241308  0.5013662448909803  0.0801788882217305
  0.5831015217348138  0.9206212528422030  0.3342455655859424
  0.4193654999282109  0.2469399972428416  0.1650035898197256
  0.4960399786165807  0.4189786533956213  0.9174809724137880
  0.3359454478564246  0.0859439661861983  0.5833423728100110
  0.7457886743763320  0.7511643458286187  0.3335590076723338
  0.5005633491695529  0.0037483717708020  0.4991878570009737
  0.4142262580941081  0.2471907499639508  0.8325382598436806
  0.1626052784082342  0.4177919541925143  0.2581513653723095
  0.2575146138714890  0.6643091566392424  0.2343277939595693
  0.3385877596747811  0.7638453318456228  0.4159526044570494
  0.0734817550413744  0.6660553877744427  0.5764217275069967
  0.2518985994658366  0.6515381611181339  0.7530760664893493
  0.2581249126123486  0.8413098335567076  0.4129504419115457
  0.2489384565046140  0.6595158418559515  0.9128423289513096
  0.8248194196407819  0.4154219196315018  0.2495993616312516
  0.1701539807275482  0.9246912732612907  0.9273547368723087
  0.1803239764105756  0.9255761061146930  0.2491390834249945
  0.2510510534605169  0.6642984742189553  0.5910560558234379
  0.4170995542468350  0.4158679100975765  0.0004964071431059
  0.0642438766087411  0.8338798890560717  0.7511988466172811
  0.2548231556226848  0.8405592351354162  0.5802647731894801
  0.0659977819244362  0.9177238599294025  0.8341975475669646
  0.4227927910120098  0.9231888635572153  0.0010839627094084
  0.1723666082750035  0.9262348606661694  0.0862485547851646
  0.1811095502871070  0.8397019574528417  0.3239571910464812
  0.3403864576281176  0.9255394022316880  0.0841283902911513
  0.2586916180506619  0.7582707601724398  0.1746504888570180
  0.8273431014911936  0.0005934224332952  0.0016215495206207
 -0.0073127117827735  0.3297118122076105  0.8357592316215628
  0.3344542282941715  0.0053713710113715  0.6658964684689633
  0.4201790931336254  0.8357963995018918  0.5795262055680427
  0.5024652873544649  0.0047698375086900 -0.0002303457710566
  0.6644039913680554  0.0841379204137381  0.2507234608001589
  0.3395849591909426  0.9221424328531060  0.4157798533663943
  0.2586720102708791  0.9268925830962090  0.1671645314008870
  0.2505236200727926  0.4125666512480062  0.6649848044453630
  0.5009068036606071  0.9203218724817266  0.4165043986790555
  0.2529144318237763  0.0063802213957282  0.5849764140419786
  0.2525300548096743  0.7618671289001667  0.4976185305017943
  0.3366205921777470  0.9235297787309092  0.5805179884065058
  0.3395012005875445  0.0064359144019817  0.3313941856810269
  0.2477138150702199  0.3311850584504994  0.5831185645784743
  0.3378120072231571  0.8385806107337491  0.6567826021071922
  0.3362060994284545  0.7503082648946188  0.9167359521545597
  0.4258222827266265  0.7524079794801025  0.8329058044068484
  0.5817213205515610  0.0040817718595303  0.0838430922069469
  0.0802701429580523  0.2479176159941610  0.5024556438536133
  0.2461904805880731  0.5773544328249646  0.0010469784709500
  0.4202330876893250  0.9200110444629946  0.4996424066812091
  0.6647524173829983  0.5831816956047613  0.4101143169683971
  0.4195716180575937  0.1662693230402665  0.0828779915980386
  0.1588921413934516  0.2469374086159048  0.9202428160647101
  0.8255117002175124  0.7484058319699367  0.5850684374650457
  0.1618677242453197  0.0999196191447302  0.7474813064940479
  0.4211734423853429  0.8405758750700063  0.2497121963833478
  0.2498344618462133  0.2495314778381613  0.6637954270436319
  0.8264426128825975  0.6666254388003561  0.6670457308437125
  0.3358717005178750  0.4958891464639591  0.6656609399548101
  0.5796255162035628  0.7480446408538650  0.8314219049670107
  0.4964960938556626  0.4985794813589354  0.6679326392024926
  0.5822048690561044  0.8386110047365029  0.2515668774744120
  0.2484315867427512  0.4176882355554796 -0.0093275281631089
  0.2505027976515559  0.1618648066931679  0.9201500743026232
  0.1623049760479743  0.5041777794291142  0.1629297219270009
  0.5045920908324472  0.8354847594760224  0.8343246175312768
  0.5016399366725331  0.8397580876401490  0.1681389151515850
  0.4213056916377654  0.8378434802888299  0.9172317361523444
  0.3316934845401557  0.0889334764168968  0.7468660306994954
  0.4199804200329341  0.0867992336279028  0.0004370718617155
  0.7514306019143560  0.5828153058730008  0.5001449677141919
  0.4214269909708078  0.0854843770356541  0.1664439633225684
  0.8263446441891901  0.9213682997706805  0.2499062867629151
  0.5028993235210832  0.1654757944255950  0.1656651716511240
  0.4153740878980268  0.4128010220713345  0.5025581336613523
  0.2508700792673735  0.0935566910081756  0.5002835989836540
  0.1569329037368652  0.6568254914938622  0.3195247573388742
  0.1613679049582587  0.8335774724290195  0.6667953211855616
  0.4196547659293897  0.0044017613242742  0.5832262476762567
  0.1615340745978620  0.6599566248155023  0.8348295341185393
  0.2534028228009975  0.8402285477904127  0.9266288565424367
  0.2488490444444426  0.0892683786768726  0.6648435954045518
  0.2488516446414632  0.9219211338875754  0.6587208450257969
  0.2482216548546114  0.5765668386337686  0.8360728206782188
  0.6644757676229728  0.8343682017428686  0.4998492513473334
  0.1635289303609334  0.8319975154627551  0.4957074626329406
  0.4188221874107161  0.7516734415587438  0.6649309954130103
  0.4173935108782040  0.6657159711822863  0.7500241543673033
  0.4215319049877070  0.8413495751106411  0.0837565189004820
  0.3345302929963246  0.4181799886592862  0.9180067438667058
  0.3314666433644153  0.4047380091893317  0.4202684936948967
  0.3343769548372626  0.6529882681945440  0.8342189964229836
  0.5025872608946577  0.0857786403080924  0.0833873815519514
  0.3417044872121940  0.7567674218919093  0.2474251369688543
  0.2598809107282856  0.7624547539474011  0.3306851341642397
  0.1614125336903542  0.4109192352714220  0.9177286671682674
  0.4206380374176289  0.7623979164498115  0.3332704949753597