C  Cr Ni
 1.0000000000000000
    21.1200000000000010    0.0000000000000000    0.0000000000000000
     0.0000000000000000   21.1200000000000010    0.0000000000000000
     0.0000000000000000    0.0000000000000000   21.1200000000000010
 C   Cr  Ni 
  86 259 605
Direct
  0.7465245484938351  0.3383848760387215  0.6570982809646434
  0.7537620731916785  0.1709357364636053  0.3232092532312419
  0.3229872976532152  0.5891047768782562  0.4983177499824202
  0.0751495507232749  0.5778129403570463  0.7508778087630696
  0.7334733728177733  0.5932303025489067  0.6024208389062156
  0.8354953090800256  0.3380374368191922  0.7480229369374333
  0.7522246313083838  0.7559872139246281  0.4139405113890284
  0.6611483663582564  0.7561887613342424  0.3260144167133641
  0.9196789706286882  0.1538661087687065  0.8406548603938300
  0.7400759721707090  0.5739203972177119  0.4166013916150420
  0.5896089490557749  0.0953018298193153  0.5753175021763753
  0.6559143465597234  0.4428228495613341  0.6509654672164406
  0.8217432289095393  0.4939256877650465  0.5866895318055380
  0.6617483673568375  0.0770102058302865  0.3220790121608815
  0.2450855687106382  0.0877630211178443  0.0796436145049671
  0.4136179015810271  0.4990349504459796  0.4993163422321530
  0.6649418206430567  0.8348399299932105  0.7593049826362890
  0.9197470354094172  0.4950614662658525  0.6784662184963522
  0.1662842364640646  0.4980338833488836  0.2397055803308157
  0.6540748281185473  0.3388047799211005  0.7560885095799775
  0.2430430999355415  0.7483250289753078  0.7581103816651427
  0.5042624171265012  0.6798061833120367  0.5999603817860159
  0.5028772583449218  0.4081646930461957  0.4947808447082637
  0.4171770861506188  0.4978605113897810  0.3249251661841862
  0.9955040967203109  0.6698970347967580  0.2460504592415758
  0.9171349022451846  0.5918455998497314  0.5882043876072155
  0.1627577944725767  0.2471501364589897  0.4959697003284652
  0.3292965328642756  0.4207327222411258  0.8464006280259784
  0.2420073549784467  0.0004532736326600  0.1693060735222960
  0.3339025207251443  0.7419222883431201  0.6628305247631491
  0.5091758615969404  0.4897765140604758  0.6025422462194613
  0.4912949746720750  0.0890578819079678  0.6674208317761406
  0.9177397466393776  0.9159729195529310  0.5830331832973741
  0.8285267285728969  0.6599894334828879  0.7444900949176316
  0.1679200984818128  0.5003253543734378  0.4202988716976170
  0.9200541040713440  0.6651620262321271  0.8420447059483739
  0.1611699871414337  0.6664455530833278  0.7514955926148049
  0.4144155946095871  0.9182910724241199  0.5774806014480239
  0.1623243323296348  0.7514599473958468  0.0030261440112068
  0.5822902932102041  0.1641598865503676 -0.0007043482097289
  0.2402217959421985  0.8361807962173852  0.6646439310431068
  0.3302776087673680  0.2465736396509175  0.1634903223816821
  0.9090196376187034  0.3267847953897127  0.4968321332233405
  0.6602962310030024  0.1700647334139158  0.4166219425670632
  0.0766697794058742  0.4965941915918911  0.3289396862360600
  0.8258273975164599  0.2437580412083038  0.8409086469293895
  0.7547598020278984  0.0750924196287501  0.4149635514324741
  0.9183016832087104  0.7607606353735559  0.7472981008277495
 -0.0859163343497841  0.4979572368468159  0.4926729004973168
  0.6640292242342378  0.7372918512036175  0.6608038223379857
  0.5744001547523895  0.7434947034833000  0.7599175186420020
  0.7560356165650016  0.8363256837429904  0.6633956378670530
  0.6579409160126957  0.2481957251082320  0.6585988056792852
  0.0789158031660082  0.7517981594401425  0.4140817929525247
  0.9926262953838338  0.2394589690838479  0.4981322426944879
  0.3323289662791800  0.9141810223128236  0.1667889061644361
  0.4913433198006069  0.0852444712865014  0.4871666208800209
  0.3330725241474312  0.2457137074751216  0.4961493199779008
  0.2465654209270954  0.1663293327811885  0.6624809237738182
  0.5615143535802033  0.3462331611875550  0.6513718491857938
  0.5861672624907813  0.0009914673439968  0.6666611774455853
  0.8269257044936101  0.5920615361985342  0.4957923821349723
  0.7459600480207477  0.4281674803468821  0.7589978390028246
  0.8286539345728234  0.3350416082384571  0.9292635467844369
  0.3370408709208146  0.4230484019493954  0.6635205668320784
  0.2408310730913542  0.4196005227553412  0.7534924027154772
  0.5719164891879528  0.8242191637876898  0.6590218391898615
  0.5829205146856338  0.3316197602919313  0.3270720209569747
  0.1592605862011069  0.1650953379215705  0.7545386850400914
  0.6589595983039912  0.5815046157328327  0.3247391315705416
  0.8274219134693062  0.1533066224792107  0.7450578128397454
  1.0077022821622363  0.5881174599461418  0.4948496794273329
  0.4915815016229929 -0.0025047057510216  0.7582666680823162
  0.8460890706835347  0.1750662441948226  0.4260821581384566
  0.4104340935586243  0.5878723669899000  0.5949524152601882
  0.5937814419512712  0.5053038304944848  0.4945200489232319
  0.5851090385168501  0.0901211541881407  0.7589044080386667
  0.4916433122759804  0.1668720039730813  0.0889428504013892
  0.3290906206316293  0.9251240730247553  0.6687912494262050
  1.0025369465370948  0.3360425674992629  0.4069328070625709
  0.9223300365612151  0.2450642097088123  0.7455041658376048
  0.3319974307070068  0.8360732886151663  0.7615718270192458
  0.3296919691312691  0.5878364725610520  0.3251536527565526
  0.8279353015923190  0.7574548770297630  0.8443105794587699
  0.9211762488742791  0.3366976802791230  0.8410902400309714
  0.3342801323824726  0.3286790086367358  0.7552941046329205
 -0.0045079227153503  0.3326040547150127  0.3187918684517453
  0.9127371161385600  0.6691715787694597  0.0841403923398860
  0.1659892794805394  0.4985786689430606  0.3292354188488884
  0.1609671217490954  0.0744317923265783  0.7533019857666636
  0.2443644422986087  0.8335916639038184  0.4123370155377879
 -0.0045980405162255  0.5851627675993500  0.4057975067703821
  0.4089730237708471  0.1653358457291284  0.7584260479427830
  0.9133463634440973  0.4988399755790582  0.5862047371933776
  0.1638312638145471  0.4999668043870306  0.1530165451586160
  0.1514513604577437  0.8352035117969748  0.6672873352699458
  0.1595804039610417  0.1638876411458077  0.8439020061800949
  0.0946840523304120  0.5852866688532264  0.4996949092017677
  0.2465136998650203  0.3347141591703131  0.5845146168304277
  0.7470228436940952  0.5852951409483822  0.1633898287019638
  0.2444784143346067 -0.0027708132307214  0.0795733316775005
  0.0759268725467539  0.5000317627335898  0.2403596392156561
  0.1625386714315763  0.7527565761034425  0.0920505970631223
  0.1636370352921764  0.3304495695918601  0.1635670390189043
  0.4149711861688339  0.4178281053070393  0.0035378105960297
  0.7323753439328647  0.5038406423795547  0.5827295984980796
  0.1534708973551768  0.4146322910506526  0.7526174208465118
 -0.0042533792639761  0.8370782714651153  0.1647916060515130
  0.3295601008753130  0.2474399942669541  0.2536949192731898
  0.1622114546136651  0.1577910698991191  0.4954186803472992
  0.0712809624257484  0.6676916338601344  0.7511707457156508
  0.8302999159398972  0.6673098680595613  0.8418508792500526
  0.0854974477301869  0.6691241977647204  0.2455787557536360
  0.2423137847545123  0.9121404796478879  0.1667889315175671
  0.9059301634113170  0.2380512425261641  0.4885750264552319
  0.0044430914303879  0.5847301703601614  0.5842341827618306
  0.8309022831653716  0.3329526318183868  0.8395118485326699
  0.2436909486881731  0.4148946523176237  0.6629849297565462
  0.5658897627342881  0.3366271579979918  0.7511311081164198
  0.1616054188389087  0.5816260530090803  0.9249032518270718
  0.4941859645995283  0.6657056797252692  0.8456733362337941
  0.3312017147625058  0.8345471127261381  0.6698023633977033
  0.6640431859580498  0.5867233622662491  0.9242156303704798
  0.3332383916584005  0.7457865046878533  0.7560874866579980
  0.3288098118611996  0.9164410419469282  0.2561491228410615
  0.6613673742001536  0.2482147096182645  0.7514206131858088
  0.5804619611678866  0.6685519177294703  0.0819907697022211
  0.7473756147552716  0.9167970595857390  0.1621377672163719
  0.6553318686239611  0.3413541628597476  0.6652518874527878
  0.4984535185619705  0.2553683250868765  0.0813201477176215
 -0.0047162174520470  0.6692770517058998  0.1558871899678628
  0.2457248716836745 -0.0004845442804651  0.9192131699636488
  0.5914638952751723  0.4130419786376558  0.4933715662142042
  0.4968885441336790  0.4194783869567097  0.9241953548744600
  0.6646829155940932  0.0805540709277331  0.2338227378619193
  0.6817068019167508  0.5031525532683435  0.4855371582408961
  0.3299009090204010  0.5861796172922348  0.2357372967293918
  0.4123327044146246  0.8340400806500768  0.0807412153103749
  0.1598750760333995  0.7534435883240261  0.9138126827658251
  0.6651225633482206  0.4171738516942368  0.0829600211883957
 -0.0035268392773491  0.2483122949773602  0.0852248201164438
  0.8304929042968140  0.5846700985981791  0.4063481259623035
  0.6633388827832444  0.1581524953475086  0.5050382075986104
  0.5817851898016464 -0.0005432232099515  0.7565010101605796
  0.4938870268220122 -0.0016915476371557  0.6670141748204510
  0.4953044316044790  0.9151646161102932  0.2480698965587041
  0.7452996902552812  0.3375853280651234  0.7508332128960655
  0.4948000913682652  0.1658339930138098  0.3244282241159397
  0.8316190157039620  0.8463599237720455  0.8390424934168279
  0.9118379460938683  0.3337023679777858  0.4049852737364296
  0.7538004670505262  0.8374372347825393  0.7546621525610855
  0.5759314417166334  0.8334563070898503  0.7540058141014621
  0.5036161251279885  0.4978432252964320  0.5079570402085830
  0.4030423376267650  0.0853211565001432  0.6684442820184878
  0.8296897191584536  0.1558930724483967  0.8361372451871849
  0.9169397803180630  0.1603820708197546  0.5814224259192863
  0.4130912256054364  0.8343204516847300  0.4123780284205463
  0.5786181893261221  0.2540279812776094  0.0025140120082322
  0.4928547904284777  0.0880847391622218  0.7569815683005977
  0.8353685827159008  0.0807085068473498  0.2429446009021632
  0.5698087113360959  0.2537889837133008  0.6701935904455781
  0.9160402145573634  0.5865885879271795  0.4976689573960444
  0.6623872429920586  0.5857690319534590  0.2362889329420470
  0.5821690899108550  0.4215930250565485  0.3245295320446289
  0.4101397520510101  0.8290243501547183  0.5796505012567140
  0.7483827751137480  0.2490590394336684  0.1614104522183933
  0.6590954606934760  0.3345285392128309  0.8446454127937232
  0.9189424285893470  0.7568101241530303  0.8391327248400510
  0.8294975038489221  0.2452860108797148  0.7487912705111036
  0.2430995376271008  0.0011685317247767  0.5781561693594968
  0.0015404009423093  0.1654082220850235  0.3216512555961694
  0.9182399153693745  0.2446116166439264  0.8370903760573795
 -0.0011369238610833  0.3303856541428988  0.4969275211913376
  0.4132194104720201  0.4085726926931711  0.3271602037992423
  0.9147126486197512  0.6672931620788715  0.9315987172608725
  0.9185350123377649  0.3326928704995513  0.9299705207195377
 -0.0046517029157674  0.5794735333178437  0.2437669891784036
  0.3280963919086924  0.4981555857871870  0.3269270355112094
  0.1641994489502277  0.4075926248468035  0.2447073531552673
  0.0711569689441223  0.1604558905785110  0.7519909706235504
  0.1548985482192828  0.0841193804241301  0.0825999748230427
  0.9162670199535221  0.0657904939422445  0.8372976820470155
  0.7480686782047713  0.0780665521353282  0.5036039244677089
  0.0086252721965374  0.1627796144907586  0.8396249710955827
  0.3333401508977673  0.3307331795674306  0.6653607034045885
  0.1576232201121665  0.1657643943457897  0.6641522336993807
  0.7469321148873690  0.4180938141208357  0.1597795965563054
  0.1582086096492787  0.2551876680001310  0.7526772804542260
  0.1606434355747004  0.2496582351401972  0.0834189903444824
  0.0088338132782719  0.6685606781532436  0.8419876434748974
  0.0821950794045273  0.4997420120783064  0.9265802120566334
  0.0831628230401900  0.7525503754285174  0.5027532815938454
  0.3352980904253998  0.1648591837067083  0.6658910190667354
  0.1523390311182714  0.7558803781335250  0.7565909799928711
  0.8281833555789404  0.7522218531117281  0.7538331566962779
  0.9195839714924254  0.6700617011087655  0.7520166598242469
  0.9173631117231943  0.7561031599665680  0.4948264699405505
  0.3271054959728919  0.0116710763882697  0.6669155823943717
  0.0011068598290824  0.0761051303257382  0.4121752852302520
  0.1646656967776431  0.6696676069952266  0.3262647436066855
  0.5743206483779352  0.7379682384441761  0.6690173811409437
  0.1615163443705012  0.5001574782840491  0.0033193837047118
  0.3292413061887386  0.9168175263326110  0.0766696373935415
  0.6626769243476370  0.6661933224559056  0.8482670766893884
  0.3316270167759323  0.6766199220679189  0.3303041791131437
  0.5016489573777262  0.5867679026597511  0.5904733546224487
  0.3292590197658767  0.2476159395005331  0.4060089526141316
  0.6640948654414900  0.7443992036984672  0.7545508852409689
  0.4955236255571747  0.5849399399691393  0.9246550987131752
  0.3277605210158317  0.6631548208983924  0.8461516987904644
  0.1627645342022094  0.6678803095295699  0.1638416507092555
  0.1650533672108703  0.5894236772233826  0.2432713759567764
  0.0786286663799883 -0.0007417509084937  0.2487461040254281
  0.5822742254554477 -0.0010064553744831  0.5761268997061803
  0.9157630239849794  0.5000448091107218  0.9268195630015571
  0.6533238366974408  0.5892476190059807  0.4137541546886870
  0.9141892206546558  0.9172164483665570  0.0036007183132410
  0.4192596818549153  0.2488785552796007  0.4948230869576117
  0.7436398740530605  0.4192120914449972  0.0056085979376048
  0.4147884411660508  0.5880992938025289  0.1627967194292509
  0.3298981174659056  0.4178987416650693  0.7546507992161799
  0.5702798173664121  0.5894772230182871  0.3256862201011841
  0.4924459704960220  0.3312921792527912  0.3276925374635558
  0.2453901542039938  0.8328312131056929  0.5749463265380438
  0.7484674464047110  0.1651494930865991  0.0846480720529640
  0.6641092287202911  0.8454122576930950  0.3274734179507329
  0.9154958376170518  0.0816524163751988  0.1662741722465830
  0.8343610784833843  0.3291502774934187  0.6603176397847708
  0.9155156277938814  0.0806502225591068  0.0034769089297402
  0.3346212268652253  0.0789865299081429  0.0823635483051684
  0.3278555605290561  0.5854696795512282  0.9252302277196325
  0.9167097608650006  0.2489241936163460  0.1634883883320888
  0.0766257202068396  0.7559944094389587  0.8415305016906722
  0.3297542724896995  0.8350556209396538  0.0019384722456357
  0.8292460025676629 -0.0022870013680121  0.8402927593885183
  0.9160436173676583  0.9163632803126112  0.1652678978856291
  0.3302990870679732  0.3362613344614285  0.1626898582677080
  0.3329947731253651  0.8263661779233632  0.1627158956670576
  0.9183879195384815  0.1569368052211995  0.7491618182583319
  0.6675160501498517  0.0815995355816717  0.9195669660222299
  0.0776537598254474  0.8375578405549523  0.9198896265341810
  0.9147684765092681  0.4166485019857373  0.1624873890684563
  0.3257500883410188  0.7547641529214225  0.5745115876678778
 -0.0111518205303882  0.5022553507305335  0.3259222560509824
  0.4170088947485967  0.9194574036086893  0.6676179125025574
  0.7488413367700636  0.2470884488827144  0.6633166575383699
  0.6640078853671901  0.9176817645056234  0.9235455519370348
  0.7495342551182304  0.3352530682001776  0.4057046895656550
  0.2445538602376018  0.2576948049134524  0.6660287594162225
  0.6562831612991902  0.4291938353619281  0.7505828818973925
  0.5809008432452868  0.9186495005789023  0.4938888518108214
  0.7491890910330326  0.8357072050127842  0.5741126850581686
  0.6633431106503799  0.7518422592572415  0.2372340657661011
  0.1638643500292412  0.4974804762854929  0.5077334939981587
  0.6638942566310427  0.8318493539323775  0.6662199778764203
  0.3315200521126599  0.4977980902756425  0.1630560631622689
  0.2476163881296980  0.3333680533396584  0.4104006495631000
  0.3275088987433761  0.2489589033160302  0.9210094405309190
  0.2424824027837181  0.3270818207822774  0.7537852872589358
  0.4200428676513562  0.5880448771863797  0.3276885316320854
  0.5773567770116865  0.1792815897741776  0.7565032567643305
  0.4191210231794586  0.4200256662616529  0.8467530370778299
  0.7495868595861299  0.5829158589913271  0.3249551362456199
  0.4111598970308894  0.0818331424390653  0.3280811170734447
  0.4963422188283559  0.0867102509875384  0.5775505189281320
  0.3215102259487730  0.5844983635444870  0.5864426224135578
  0.7511639962480287  0.7549534610320242  0.3244848266505442
  0.4129581380128277  0.4097162327073136  0.4966817772515247
  0.4147184526601751  0.4972569519479352  0.5906399109299124
  0.3294938728727229  0.4163356556765002  0.5759745728135717
  0.4955732514203399  0.6711532379818469  0.3293613196454238
  0.4149636072692219  0.5889520355638526  0.5018840985221121
  0.4101569103655092  0.9162694898359891  0.4882041447013912
  0.4959561384745402  0.9149760563875848  0.9192912226052776
  0.5806538529981354  0.3330405552509976  0.2372204955865034
  0.6632132571465901 -0.0029965561111953  0.1618507346392455
  0.6653101303526128  0.4910964946670314  0.3238054213860830
  0.2404588367057690  0.9254712249647565  0.6651209639171932
  0.7535739862744809  0.0798050531505765  0.3241211828833274
  0.3325640791338728  0.0034323362094948  0.1665520320989918
  0.8299856832616285  0.7526054616329906  0.0835754465627609
  0.4917209015271223  0.1662616209307856 -0.0015855125574920
  0.4956022089739611  0.8346936079248726  0.0028095953916892
  0.4957905974996766  0.8341688564369741  0.1625284430131981
  0.4965402764478738  0.6731726430914369  0.4992971231791300
  0.5990478474270416  0.4940769982602957  0.5858903194581168
  0.4955805890090269  0.5035278172661821  0.8455703291375937
  0.6638082357338664 -0.0119580083030895  0.3254759984673540
  0.4122316733974563  0.6682419958709377  0.0826314048327122
  0.8277391611281901  0.9146190964284531  0.5809376852214869
  0.6639914006658165  0.1670501025399752  0.3248363123788974
  0.3289478760254455  0.3300245173255020  0.8451571280510306
  0.6634472548236631  0.9162911539164932  0.0807190821401944
  0.5797664853626623  0.0882835925160088  0.6665174065252620
  0.7522704082013858  0.0788312157121005  0.6683533304507218
  0.0792316838101139 -0.0021124138391224  0.9206544445698740
  0.0800174573682873  0.1667960796259977  0.2485145403066440
  0.7525147458035188  0.7473701786693555  0.6707630677455423
  0.8258521086289812  0.5864812315715272  0.5853069808442981
  0.0091100160823969  0.3350605466312815  0.8407969745575812
  0.7480685065316610  0.7527308992761921  0.1620834832787274
  0.7387762581803915  0.5950906585461638  0.5040046271480674
  0.9177169817809201  0.0047004208543826  0.5813199939160055
  0.9064201627343084  0.6694302497220264  0.2451575174134190
  0.8430157302447743  0.0826155310671708  0.4130992273419960
  0.1643962760289780  0.8360145617187342  0.3311381771418448
  0.4116646478760025  0.0812946148253446 -0.0011521431325920
  0.2466234540450609 -0.0014277029835038  0.2576159137799220
  0.2422629719033920  0.8373050864323776  0.7559297304881837
  0.5681135808156117  0.4328886273068758  0.6747548899183214
  0.7455260395103689  0.4272932175479345  0.6677308458805690
  0.5772867754219148  0.6704333691676668  0.2426966114483951
  0.1592583118352915  0.6659304633722598  0.8439983306753326
  0.9163590705262679  0.9163946760260081  0.4917993866530629
  0.5816021037332267  0.0782963511053172  0.4890862669255732
  0.0037887197482106  0.4969430857995262  0.5003632246332089
  0.6634698982117769  0.8358685854784864  0.0033504815417421
  0.0812447228747278 -0.0008479419667130  0.5801725240386061
 -0.0044814381787553  0.8380418843439726  0.3284293625478336
  0.2478741938590272  0.1670461904650217  0.7542627806796641
  0.3246522903441265  0.4980150686407611  0.4997136834864905
  0.0779066411590876  0.5016628780478597  0.4173917476732713
  0.1619152747429206  0.3311049056364237  0.0047631715459295
  0.2424945477884641  0.0888095361445509  0.1693519551255703
  0.2398968773281524  0.4172922460581749  0.8433910716311858
  0.2453314127657355  0.0012881584534965  0.4120444262461008
  0.9224870808690362  0.3333140719566642  0.7519337154661928
  0.7451115342619739  0.2462106152890601  0.0066860940451961
  0.8295198287023070  0.5019413016450794  0.6756379489366247
  0.1627943655977988  0.5783463482838216  0.7554289935347193
  0.0793720150162560 -0.0002769468810074  0.0837694253895720
  0.8237684704872377  0.4998881992622216  0.4959644627886711
  0.5716872395787477  0.7517583864660792  0.3267360766267011
  0.5799130261084335  0.9132643882587546  0.6651860262695697
  0.7528515948717359  0.1663529361006615  0.4132229085907951
  0.6612394781035061  0.7559762846756397  0.4154647822544399
  0.4860103257237308  0.7457613633897856  0.7627360743600872
  0.4915037256456991  0.0771954651136340  0.0820396188756227
  0.5818667101808066  0.1632351486144092  0.0879405999097902
  0.5056568421515305  0.3998856391345433  0.5858130475622937
  0.4952226522339034 -0.0024287506798469  0.8478316046287460
  0.6646812809682685  0.0784502078506145  0.4119965704798104
  0.4963587257688927  0.4167628389074265  0.0819958617667306
  0.5785834699335834  0.2520507421414473  0.8391966446586345
  0.4144516829517824  0.5004714760749529  0.2347688531603420
  0.4953156475886041  0.1632825972701374  0.1738046803562850
 -0.0041545419357392  0.7545562303646497  0.9234407623287232
  0.2443249270792493  0.6663921654335452  0.9228124945333270
 -0.0045104852984835  0.5836841760627915  0.0839179413787391
  0.0806609876621145  0.6695025232868949  0.0847543099494542
  0.9147843347082766  0.9223731829670759  0.8391394965701655
 -0.0038130846845048  0.7570633920935090  0.2464571200052475
  0.0806612792157040  0.7541233679046341  0.3268393638266707
  0.0787846226955747  0.7527982166066891  0.1657971700147152
  0.9171321888463111  0.2470044601430862  0.0050664323785823
  0.4948944454207714 -0.0035139330281588  0.3285246756236436
  0.1607522796360547 -0.0011438009725244  0.0011701660895113
  0.1635012281460688  0.7528097979247802  0.2463811268246722
 -0.0000996509624188  0.4983739334664293  0.8444322984303980
  0.4960550438440147  0.2504329385084113  0.2462935074511980
  0.0818021852339291  0.5825277544829620  0.6635756273440784
  0.2422490755590337  0.2482927370465938  0.1666547520301443
  0.5804499459702288  0.1666088872164684  0.9140416320991065
  0.0078714067367023  0.2485992810943597  0.7534646750010572
  0.0828008849692641  0.6648172116864745  0.4111138619297789
  0.0805154254694741  0.0779147658609391  0.8379095078716667
  0.9123804540462397  0.5854880407712009  0.1633585122348545
  0.0790578542322953  0.5844400255569385  0.0061357770628099
  0.1619693012294954  0.4134344194420358  0.5830762299780462
  0.0790170469962912  0.5846906367064186  0.1617954926659067
  0.2367287141250055  0.5853227919833109  0.4981711565766345
  0.9135687539218067  0.4165197614264686  0.3240762477523599
  0.1638896575898022  0.5837700705351482  0.5861200053961988
 -0.0090548186495432  0.5803800955830515  0.7587446058703651
  0.0787736779264006  0.8355583890431695  0.0855502925187033
  0.0793689785057814  0.4140327680149686  0.6660268463721425
  0.4978861352435435  0.5008935324382705  0.1613781900083089
  0.5787796927796717  0.2491629864902876  0.1640774804966152
  0.2425536885649006  0.2495031119036812  0.8389590376367453
  0.5805722651488575  0.5006349210717351  0.0826831047870676
  0.9127746042163697  0.5857736310189195  0.6756861546947185
  0.3280098809664712  0.1599342394083042  0.4939967380274855
  0.5852979120732200  0.2454687657567547  0.4880662763161965
  0.3287349219979722  0.8337107136273771  0.8461586091640128
  0.6673067151141869  0.2557515778900386  0.4059371470829006
  0.4954129144757325  0.0802157046408669  0.4025114926036417
  0.4123623106564799  0.9156892485467455  0.3316678541568427
  0.4948895608170366 -0.0038688870804076  0.4949479648502193
  0.0803290011700866  0.9171737881961478  0.3299073705189133
  0.0042931452615955  0.9169525453419370  0.5800725765038627
  0.0794347197910859  0.0815355169992322  0.0009764003879996
 -0.0041794219978341  0.6692763342016440  0.3326831039674698
  0.9159520931847996  0.8362587739544939  0.4110349123683962
 -0.0035972930633987  0.4163480365888278  0.0843826168421003
  0.5808726765040028  0.1648279866310703  0.2446092744340138
 -0.0032441289788152  0.3324800558411440  0.1643383227851712
 -0.0009830801582600  0.6752986148792732  0.4948834913943217
 -0.0050806438435169  0.5005611753071441  0.1623673468771465
  0.2455610190294964  0.4144998143134367  0.4982917755422395
  0.6629456758225070  0.3327244836279786  0.0038274354963412
  0.7460212226163795  0.3322961606514117  0.0837663483907052
  0.6631074944207079  0.5022324351515162  0.0045111625865872
  0.4962947439367118  0.3338720964736857  0.1631888150563447
  0.5799150131207826  0.4175437340750641  0.1623293164198732
  0.4078415812828793  0.2462691941853488  0.6685803812705350
  0.6624391022365947  0.2494590789181964  0.0837004713770953
  0.5739129861738633  0.1639786605271399  0.4084499908201205
  0.1611111573468928  0.8388291713769700  0.0018087340832733
  0.4132684838146137  0.8333513135114666  0.9220967444307396
  0.4957754875544419 -0.0010801933906879 -0.0021385279449327
  0.4103238386044338 -0.0002524205775509  0.9194795301637925
  0.7483710561921517 -0.0010335716154961  0.0835174496713623
  0.4942227215474356  0.0834641031589758  0.9187768742180573
  0.4956252726838182 -0.0019444126229913  0.1659796889302041
  0.4950318010300094  0.0794631052688671  0.2488617389281221
  0.5752809020810677  0.0796648878539750  0.3253510992351248
  0.3239693171458621  0.9186953756609024  0.5769959378401798
  0.0802846677474181  0.8385696552458637  0.4118693439660204
  0.4066091349323976  0.0824608433598709  0.4947550497556181
  0.0005087433986973  0.0798708524069882  0.5822190013103382
 -0.0004617154883019  0.1544732677930222  0.4973127974922988
  0.0786944897409982  0.4927931473788391  0.7555414476093520
  0.0791155180425585  0.1667341150020779  0.0839571446577142
  0.1624226912302279  0.9200420775178451  0.7526351481286297
  0.0798583922745743  0.4148041601161857  0.1633546440171429
 -0.0027211880908223  0.2490813419618613  0.2442221121554965
  0.1611518213837866  0.9174357797722097  0.0837443279504577
  0.0813571777173041  0.1625110486812469  0.5810063446736782
  0.0809599238997482  0.2500071610209121  0.3270257036428428
  0.0876208971403743  0.3316611410251116  0.4126899042964802
  0.0806000387261991  0.4084014617861312  0.3277710180075686
 -0.0008082854060366  0.2453517644859195  0.5854447871111711
 -0.0008164512455696  0.4141470091439172  0.5814269590984760
  0.1608474034760023  0.2505869794959347  0.5844625006197828
  0.0815563553643115  0.4145341809416434  0.4977980332345330
 -0.0000297811833740  0.3312905661965538  0.6663044563503100
  0.8318025868393645  0.4998744274207699  0.3217889125932883
  0.0794427532397193  0.3342087441665280  0.7518544084147498
  0.0796898042801815  0.9170796830239281  0.1667020823869401
  0.4968612688336879  0.3348130497240237  0.0019524662392431
  0.1614829252537183  0.4976226807689068  0.6680097809367931
  0.5758634648667219  0.1805883761546245  0.5822924606250298
  0.0787658219272150  0.7515836242297255  0.6650513125326980
  0.6646117663537180  0.1612765031834958  0.6646979491770640
 -0.0011033822248878  0.1615542195188263  0.6653904155998301
  0.3264731190303009  0.1668836634266530  0.8392461877355818
  0.0797812861504350  0.2486441586949101  0.6655991559925871
  0.7451186610033849  0.4182217503662004  0.8454035011512445
  0.0797289568406629  0.1650243899043743  0.9231730681661012
  0.6632491648442531  0.2485026632799871  0.9213738108488168
  0.0802424883072205  0.3314656736465201  0.2437441206910486
  0.4974124504113115  0.1728172194702775  0.4955479194619792
  0.0804943120162243  0.4154182551851506  0.0054057541817121
  0.6725053203224949 -0.0027281865492358  0.6675642375836468
  0.9181868337543243  0.0797730764123113  0.3267625532172759
  0.4958680655948589  0.9117907606515029  0.7565053262380146
 -0.0021413191710971 -0.0006520434979383  0.1654231458877788
  0.0811404044307560  0.3323846299790573  0.9246917219689759
  0.0046757788622845  0.7576303634235403  0.7516759303622078
  0.9134787936178508  0.8362607877715837  0.0843567763154867
  0.2447205663763544  0.8342727641787869  0.9206570967445818
  0.0751720199214182  0.7532585858692663  0.0034038924904851
 -0.0033291697665198  0.8374284618775246  0.0031563792562080
 -0.0022223890892428  0.9171123897706439  0.2471611788922275
  0.0016192647887879  0.7534853850506336  0.5797387116630328
 -0.0003330412528264  0.4166253113710880  0.9257120042722830
 -0.0032645230516464  0.6688612219244170  0.0057654415261564
  0.0821019456116439  0.6691415247438848  0.5812375913113013
  0.0794083387482085  0.8352842017251668  0.2479140756590659
 -0.0017209036011023  0.6674827973503454  0.6649353328927800
  0.0817436649300226  0.9188386357541487  0.4961432929993905
  0.0790340270209881  0.5808189416641197  0.8427821678865446
  0.8305526365361092  0.8357620959640188  0.1635576952398872
  0.0810418631857779  0.9184889781115382  0.8381379047766606
  0.0017940611959423  0.8374013678926908  0.6663095936340141
 -0.0041981562914782  0.7545898178551320  0.0845161682312788
  0.2450282237936290  0.4992311799084437  0.5857297756572527
  0.0006478166760741 -0.0028901871870801  0.8371971927546299
 -0.0018474689291922  0.1645171918965746  0.1650979473518450
  0.1618675964617957  0.9182765767888517  0.9199502037652821
  0.0812951351734246  0.2495104790408124  0.8407271989991001
 -0.0012008942333518  0.2484141301077163  0.9222057656955213
  0.0781723316417123  0.1627197719388996  0.4103254741357432
  0.1615302741335531  0.1650168951983563  0.3295945837754624
 -0.0018852452885174 -0.0012667218691381  0.3292802625185015
  0.9168016714869496  0.0796321521852841  0.4978905363283550
  0.5790528835228852  0.5847144612634995  0.8475100996823918