 C Cr Ni 
 1.0000000000000000
    21.1200000000000010    0.0000000000000000    0.0000000000000000
     0.0000000000000000   21.1200000000000010    0.0000000000000000
     0.0000000000000000    0.0000000000000000   21.1200000000000010
 C   Cr  Ni 
  86 259 605
Direct
  0.5050911915725426  0.3393188039981675  0.7432079386046521
  0.9267883827005071  0.2292159019842840  0.0680990557403663
  0.3202797509417055  0.4930196474943579  0.4050775557304052
  0.5771215259688677  0.7564055930295630  0.4136088208437061
  0.9119720020540005  0.4183854137423012  0.0792092671041807
  0.5075168984938311  0.4327537832460601  0.9884066608089371
  0.1678309525541030  0.1771589041395892  0.9172065045211881
  0.4150317213908866  0.5917155819764649  0.4083659030251345
  0.3327601016941143  0.0019909957589567  0.0862683092652307
  0.9163879182168591  0.3285102655170427  0.1710273187384226
  0.6551768510049016  0.5827858067367900  0.8320853169782355
  0.6609711629963405  0.7519526783117073  0.6704773835233669
  0.6534619958096994  0.6759247491544977  0.9251878698464390
  0.4087874298167190  0.2457728567460289  0.7429518567624046
  0.9971785963891020  0.7486908166871127  0.8302872518302561
  0.0856709680388104  0.8458598334875226  0.9993031555873138
  0.8296583894213123  0.2399909456230251  0.1702478720511093
  0.7526212276178941  0.5781005121269777  0.4154994046939522
  0.3262807062189435  0.5865046901377570  0.6733873554174412
  0.4086582142444000  0.3338601153368442  0.0046465579177906
  0.7489325041636742  0.5812424794441885  0.9237913610395601
  0.1705562733463392  0.0848154383225548  0.0100777722614494
  0.4121217280597191  0.1573605519704889  0.8367837264392824
  0.9939990121216146  0.6655000084743875  0.0912761983245219
  0.1639077144289243  0.6687595241943731  0.2543569844749166
  0.4152425713211091  0.4962237370443462  0.5002382612383190
  0.4105300050089984  0.7550896006506541  0.9139180984932210
  0.3227081247991811  0.4939505312082699  0.5857302607516288
  0.0774663038596050  0.0826081230547702  0.9169138293579353
  0.4133817700404857  0.0831575641795723  0.4112845288384208
  0.0705091072583624  0.1828993823948823  0.0170214955757043
  0.9847396656008525  0.0803694328270271  0.0096445252943331
  0.3223782759656303  0.0804881840972887  0.5023233808072897
  0.9010206241802128  0.7424190785468644  0.7361657303788233
  0.1570418860403836  0.6742582923128484  0.5752306318510230
  0.6641085451817819  0.1659256792161296  0.4145439893559388
  0.5606420434398336  0.5806101751385095  0.9342790285408961
  0.9031493936333574  0.8425458235971158  0.0058793497249462
  0.3225949768231742  0.5928123369493622  0.4945993615434339
  0.4204309957565639  0.3319009607290668  0.3365182901850268
  0.6642778037194513  0.6670259723671514  0.4103366105582653
  0.2483806805561653  0.8370658992972378  0.8321480555567558
  0.5702677084863451  0.6625763116767536  0.6637183955185545
  0.0008587982725251  0.2519070658052483  0.6644615903148763
  0.0061894837886551  0.5926580704897314  0.6734164424336242
  0.9131142949054375  0.4954864511961408  0.6659503493217653
  0.6584838973734298  0.8413989175917227  0.5763870146741593
  0.5120645660757448  0.5977850159951675  0.5014238390257503
  0.6729672579228480  0.6575915069917320  0.5817721946427350
  0.5815272355947866  0.4119411506917406  0.5845010316505553
  0.2464710035694355  0.3358139733111509  0.3364377445201802
  0.4139796756401097  0.5002231129152954  0.1701885787274552
  0.0012482522989886  0.1612952806570227  0.5748432605634408
  0.9104662568630093  0.1601161711891505  0.6664259456418347
  0.5880796650927380  0.3280097646348657  0.0003238278866795
  0.0120529402460608  0.2369256490147397  0.1726536681460979
  0.5038879869379667  0.0824942959423677  0.5020242742370297
  0.5080469562420630  0.7274939118339094  0.9947383481222456
  0.1644439208931093  0.9999764878045264  0.5783709306366862
  0.0934012706538398  0.7380602196588453  0.7297695816528452
  0.7500379848386748  0.6746365869820699  0.0113572546116264
  0.0119571031790248  0.3303710735438091  0.0748627137566966
  0.1667435433673369  0.0840177619386134  0.8258842877941555
  0.7410070619167657  0.2444994037366933  0.0789537828976761
  0.0046196296464665  0.4199605193633949  0.1738623972892356
  0.5047148693965167  0.4944062598937727  0.4088137526895096
  0.0889689848261706  0.5753479969283330  0.0907932101082475
  0.9935627916592108  0.7563950565895068  0.0019957372422463
  0.5645619262944709  0.4885863572941835  0.8314005086814424
  0.9994425322268888  0.8417977583685015  0.7381921667061956
  0.9061409893494401  0.8414474206389150  0.8310796213060592
  0.0887608946922945  0.6652196199616723  0.9991690258392695
  0.4107715486940023  0.3384137922434217  0.8329352832645831
  0.8229640368025951  0.6054295949785413  0.6513802833618805
  0.0868804566960998  0.7577268328262274  0.0937405377676141
  0.6518468322740131  0.4832746688355984  0.9342570151485992
  0.7510715459543587  0.8418396091062743  0.6698034099258459
  0.4230442461365242  0.5922083204657018  0.0767728379280706
  0.7479526065287251  0.6761563069005979  0.8283820348703403
  0.8210293929000615  0.2499768149607269  0.6637318425031171
  0.2405721223791934  0.6763882053973951  0.6693188531229435
  0.9837480047836414  0.1740627714608136  0.9132022087312436
  0.7479515829344320  0.4901484841612114  0.8331171522449800
  0.0872575315361054  0.2473929440492720  0.7543043743959167
  0.9940664493136906  0.5737102756329638  0.9976186970172464
  0.0854071981723339  0.6550347222993279  0.8269248590890442
  0.6610620486938097  0.6681612789226957  0.0142424769621926
  0.5868904741892433  0.5856424215128438  0.1761470965938090
  0.6601472348477484  0.6636302119722586  0.6684004616348284
  0.6565332399028758  0.6720034600554656  0.8356049711659642
  0.6624870185168779  0.5772086486798811  0.7434276383509706
  0.7430221512396631  0.4923946196505262  0.9228636572572406
  0.7440417479556021  0.4944098676267806  0.7447781480905200
  0.7458689719268928  0.5827678821890543  0.8330153097762828
  0.2504336942145338  0.8379780323093019  0.0856965266748382
  0.6569224878074225  0.4926894886779501  0.8377235206851104
  0.0016416344423731  0.3306250212121762  0.3364008181717231
  0.9102413381128643  0.7519495460255093  0.4954508199262494
  0.6543272697957984  0.5803300022343444  0.9240984857153699
  0.3283610881835147  0.0788796100064498  0.7454523670865676
  0.3310456360796000  0.6758959032527252  0.6664488246135085
  0.9149631793249592  0.4171901072194742  0.1693990804416230
  0.0848650000900574  0.5765170667075868  0.9985357971719100
  0.4115657913758905  0.5900259005336855  0.1707452140304640
  0.9953354157218525  0.6654741556729737  0.9997000320757082
  0.9955598948512135  0.6594631465726229  0.8362586821008517
  0.0839940940452084  0.6666341873260037  0.0878912311054501
  0.1623901281577229  0.9986579152812307  0.4893951077209674
  0.3330779258282624  0.8385743861448035  0.6648282111164545
  0.8361962496238290  0.4952950081371916  0.8328081095971970
  0.9114142522448420  0.2513618529573498  0.6647879010184644
  0.9073106585360101  0.9304200765794944  0.8302075983236402
  0.9095492011776948  0.8378001620157249  0.7419027903570066
  0.4158021947274862  0.4056497863304105  0.4983920322951270
  0.3263696072099116  0.5866191255029392  0.4072894115566121
  0.3934953839791327  0.5821117177813615  0.9930310234657792
  0.6670197834415871  0.7559841049493929  0.4129940418971198
  0.9144009872344924  0.5814284375172069  0.3340112697895903
  0.7529795885366594  0.1650124279429398  0.4145885369376773
  0.6629298357618081  0.0810483180465908  0.7499135106750258
  0.6634303503049251  0.9291196662354365  0.5803968844895231
  0.6603709079747022  0.0822253437957720  0.9165646625359497
  0.9086313655773317  0.0772104146664260  0.8296503866691519
  0.8293961927937521  0.3289804436957163  0.8311560772920847
  0.8424635097813137  0.6865606407149434  0.6752011314760860
  0.7480334043874947  0.3344090145994959  0.0864559789434521
  0.6670291843789917  0.3227620248463642  0.8301275735540773
  0.6646819910520558  0.0817088803075214  0.5823800083176638
  0.4126000710840224  0.3303676179792009  0.5817103100622699
  0.8226451299651696  0.1607103547315207  0.6642924891236687
  0.7502631182122762  0.4955964270102366  0.2511314716721673
  0.6652213726424565  0.2480919015705104  0.5790284530265949
  0.5795311509207220  0.0820812276076061  0.3301192137048101
  0.7462131248041741  0.0003036238931944  0.4129050082597250
  0.6650015520915987  0.3294929867015387  0.3310221671371494
  0.6640524439149135  0.5783478034918293  0.4099702286012354
  0.5761244039561788  0.6674876128738417  0.4210311429863204
  0.7486029092595491  0.4889582366208964  0.4140486796940480
  0.7442246576498666  0.6701898514267153  0.9209709145641422
  0.2483944541543697  0.8365134710690667  0.2510796738730272
  0.8406172770150221  0.5794533264203702  0.4152274612035602
  0.7450575894010986  0.9187199079514603  0.3331639930541026
  0.7407921733969138  0.2442828459324758  0.1691581192239913
  0.9198151041869859  0.2394182444464076  0.1634646808652316
  0.4993507001744142  0.3387706925241831  0.9993238189863700
  0.6645611861068554  0.8373498207834418  0.1691648759650770
  0.7410240913093490  0.0030244031917747  0.7487663737611320
  0.2474922811563045  0.0011147775385243  0.2523708794367451
  0.2473953095303348  0.5864109281603470  0.1702991989948278
  0.4123920943827139  0.4996605945922411  0.4106977752618349
  0.7468663591146862  0.4907394671538158  0.5801195010951773
  0.1578477665665702  0.3333357809657748  0.3369380578788440
  0.0889988492096895  0.2504797564280422  0.6637579730968038
  0.3249583345302314  0.5857564672646396  0.7606566473293441
  0.2473130768853265  0.6674690986510865  0.7576720564475020
  0.1627031576608903  0.8355573671003437  0.4933532511386870
  0.9968760924475017  0.5817479164844258  0.5781149286535092
  0.0831203953668263  0.7555721916607540  0.0021303358829064
  0.1593057975902454  0.8392017021643129  0.8345565135197412
  0.4136458558152394  0.6737309454357343  0.2494945232254009
  0.0033579397349443  0.4969940594904901  0.6638156835879903
  0.4134247823618676  0.9168815489219656  0.3304595194918612
  0.4151059963637604  0.2438536911493860  0.0033072163937747
  0.9940043547423786  0.9222816013454326  0.5744076092804618
  0.3233376895626509  0.7524070475112471  0.9215124230614822
  0.2496360781159911  0.0836794505571708  0.1714237259165453
  0.3247077510785596  0.5864900447018385  0.5833764608218791
  0.0820931844541309  0.1650824511531115  0.4141416464600737
  0.1650386641664086  0.9996921190961168  0.3332585479330586
  0.0770272520877522  0.0797615954211717  0.8269557699499988
  0.0782797528862467  0.0852915794089501  0.0074722327188010
  0.9102396277264044  0.1636779148907565  0.5749933230267138
  0.0798620694327909  0.8456637644104276  0.0898317597775297
  0.0052649432875563  0.3290981588043785  0.1681560047011092
  0.1509247068492580  0.6775048292698536  0.6676096294623267
  0.2460220939545948  0.3350227939097793  0.7469791263565613
  0.9821927184142050  0.1693482567873915  0.0036104054130464
  0.0760404139595788  0.1733407092037470  0.9231477389834676
  0.9084444961091699  0.9995466114919515  0.7463490431538778
  0.9935865502990725  0.8462355991869103  0.0025288180028620
  0.9957495774406127  0.2508363616744061  0.5752547794722819
  0.4993435573202076  0.7606274211389211  0.9114782849955131
  0.3339994542466908  0.0822318667737974  0.9173362329768695
  0.1618926038822788  0.4134114512150568  0.5791794229817325
  0.0811346164565845  0.5670333852864193  0.8363459692634416
  0.0807160961365179  0.9163360922443229  0.3332595168179631
  0.1682206039905894  0.4137818444092348  0.9166891018413589
  0.0936513002217891  0.4181669354500131  0.1718444364945282
  0.9070862787820531  0.7512842242184263  0.8301438001314349
  0.9143701854892403  0.4142596204315984  0.3360871286217767
  0.1633243038619352  0.1735573727049920  0.0074158004446175
  0.7640955997547250  0.6630641063816979  0.5888263984095425
  0.1628809999771898  0.7648804432333264  0.5756002006754167
  0.2467335440950746  0.6745615368984168  0.5789287446331840
  0.2325937514315388  0.5010426696237987  0.4159269618943808
  0.0783247545348104  0.8376041232215522  0.2561045401906538
  0.9102615092821212  0.9207038379147156  0.1715294646465737
  0.4974929140123866  0.0003402493899620  0.1676568481860697
  0.9971573110414964  0.4146836859707669  0.5787195570000555
  0.1673492810064534  0.0801664314645775  0.7382970943961096
  0.2475215939361045  0.2447843453524194  0.3368285406676215
  0.3326089748547910  0.1696217223805138  0.0033195775355383
  0.9945074021187837  0.8375568106042942  0.4929638593185108
  0.9913558685335562  0.7575854077759393  0.5664068346076453
  0.9965264185917755  0.2512672028770143  0.7543745395389221
  0.1786639627020700  0.5840487825939169  0.0860683099768059
  0.3262134839528530  0.4986568076516720  0.0014884778115193
  0.9109976581795726  0.7516250914560901  0.3349648846592156
  0.7541197827220040  0.6684700070485465  0.4120003729754578
  0.5830711269945854  0.3215555093775487  0.5807790711099772
  0.4158091154105341  0.5882194402690928  0.5001755636146349
  0.4137583596550265  0.4986230743859239  0.5893886363570798
  0.9980394632621765  0.5772080608901169  0.0870135497992583
  0.0938151518486182  0.5795393945927197  0.6615104062262200
  0.0875235208781779  0.7471867461961539  0.8254316676464671
  0.2350879848328764  0.5846659990115748  0.6653192000469311
  0.3239673042509656  0.4974185161145217  0.6723327280455252
  0.4897648754231355  0.5840083716570589  0.7477463015497352
  0.5033818563018067  0.5850492070976395  0.4112919181237872
  0.4153562357500850  0.5834918280671978  0.6648821470398932
  0.5043506149962074  0.5000266098377143  0.4985697890409961
  0.4982093255954765  0.4059122940168864  0.4162664066257825
  0.5798949468097598  0.6693251046548387  0.2467575660926856
  0.5639626240707145  0.4917209547076349  0.9210823333576983
  0.5781439408518592  0.4092512402865396  0.6742901938999458
  0.5798575004650461  0.8460997627194923  0.4121814951307231
  0.4148356759173600  0.9905927841759797  0.4126123044726789
  0.5662947672227243  0.5825148210639393  0.8370683066721485
  0.4138044092478356  0.7535505776426601  0.3275032330807818
  0.2511202965723781  0.3328505838096453  0.2465868925279675
  0.3325697625691751  0.1675721387816871  0.1700551387855871
  0.4159192381882822  0.4114517393006308  0.1699393236484327
  0.4988074850326957  0.1721324688777208  0.4988276779619856
  0.3275173034852006  0.2452497537485614  0.4198046986129336
  0.5018858197078100  0.1644492534809985  0.8320366663958333
  0.4126648282263652  0.8401541594292249  0.7485117160957901
  0.4988539834793105  0.9921776878926811  0.4991178974847825
  0.3247732189119804  0.0830767339049431  0.4121895650315981
  0.4981124614703318  0.1667168728619962  0.1686843388694324
  0.4974847536642797  0.8356197759721958  0.1669694567029047
  0.4106942481953902  0.2468057775835286  0.8332321187630777
  0.5008301982373149  0.2438782529059422  0.7479084640500647
  0.4107219079738342  0.2467489141411258  0.6541362245727397
  0.4124722094752953  0.1570542623447374  0.7456827740599496
  0.3281202649275668  0.1719299223819034  0.5008056818227919
  0.6721059003362300  0.4103965443072342  0.5813619073669920
  0.3252474246817685  0.4995641484487344  0.8305649612461764
  0.2492147759488672  0.9986645402287492  0.7457218315110204
  0.4851902246683593  0.6436444146448570  0.0150304519913589
  0.9942457701272983  0.7552305071844599  0.0920995073984735
  0.5023118168749305  0.0798487757393441  0.4114510810341206
  0.3345582996178418  0.9193791611675884  0.7464044907530675
  0.4969012286917991  0.0003545999325607  0.6652918498288843
  0.5023064392054336  0.4204465360882791  0.0853044118759428
  0.4997888249956482  0.3221749716771767  0.8324536662788405
  0.4166369790884299  0.2480817326174283  0.1670794633522729
  0.8214403714577944  0.0747924616486098  0.0859085936185192
  0.4987736593505484  0.9997569317791209  0.8331258200257894
  0.5023666416665477  0.4130454770051936  0.2514400982705235
  0.1711349059551778  0.1638408309733533  0.1737084145646406
  0.5951131519338473  0.4182549871843975  0.0019081803535479
  0.5809337978999433  0.3341272801786389  0.0905073409751412
  0.7425604923107182  0.8396961301667142  0.0899025934866240
  0.4159335268725737  0.0819245010910493  0.3241285910613726
  0.1663795513846631  0.9944749903382002  0.8307912784162657
  0.5789048506448280  0.0822919324160883  0.0012468261837979
  0.5823323340830819  0.4113718094607359  0.4935600492525736
  0.8330050408063545  0.2426318736042052  0.0793143282810976
  0.8261196852428413  0.1606187517721337  0.8301972811824210
  0.9105389118385386  0.7538701567163698  0.1723079265246852
  0.4141366298203874  0.4242191060370264  0.9998589173414394
  0.3293761700115712  0.0017151834401083  0.1757332622808323
  0.9961610622214747  0.7512808118361026  0.7403845847441625
  0.6608659816440353  0.8408713337738928  0.6671719226289650
  0.8322391690785240  0.7538227044469703  0.2512607366033527
  0.0024285338536767  0.4183825461187353  0.0835107683274238
  0.0631425760139253  0.6530745586974314  0.7384363065855789
  0.9887861212650852  0.0815418263875694  0.9181861381517334
  0.5780741776524404  0.6671938349919783  0.5734378336252083
  0.4133918511839376  0.0800214584862667  0.5001487668269189
  0.0817996739007386  0.9333361880765918  0.0030738237925830
  0.4125189673143911  0.3344550108025712  0.7442868295082821
  0.8269860817391910  0.3306172055845963  0.1679664336723187
  0.9996363251356535  0.0736402581592825  0.0973591774123394
  0.7396624104669964  0.0015747349328468  0.9169985921902583
  0.0798901005476079  0.9929027564705798  0.9137223767766117
  0.6672847583609335  0.9194601085964649  0.4121461894393910
  0.8280195427451258  0.0809461353726838  0.2538428266166408
  0.8285405368125091  0.1505392215419951  0.1716777732731454
  0.7425327826757948  0.0014424405628431  0.0866383689846387
  0.5746105354273108  0.7553171396949577  0.8319192219570070
  0.9987283112853269  0.1610298764312811  0.6645704155861959
  0.0894793557283931  0.4871078631088086  0.0838737940466664
  0.9949720977012323  0.5824883560012969  0.4127245612288241
  0.9191628361954161  0.4934612890122830  0.5747084304603149
  0.4170400308912509  0.9168298899318023  0.0009433909897197
  0.1730413500889972  0.6679872190213052  0.8353084528529074
  0.9131903697367364  0.1644827340630342  0.4144664345990958
  0.5633828120036206  0.6714348828608195  0.9297058452247956
  0.4160424746051075  0.7501068254469893  0.0044526342088764
  0.5824608560804571  0.9167708958243426  0.3294679180255690
  0.3292381267325995  0.7562311849239856  0.4125925189987931
  0.7490933323077971  0.2424285775754904  0.9910641574970093
  0.5785320832562201  0.9200517855876957  0.0027968958612572
  0.5712568441006523  0.7540511698918432  0.6668671465107433
  0.4984218017158472  0.7514949956884183  0.0872021218677936
  0.9127357609239249  0.4077246323047941  0.6648161509056912
  0.0141141495876008  0.2427121602899965  0.0828127946805279
  0.1665219914303506  0.0856580955490778  0.9178063834392269
  0.2508635308204682  0.9188300795033819  0.0015007287227949
  0.8366272002621581  0.6658789896485916  0.8292341157310231
  0.8310284567466872  0.2465960388583378  0.2593478465306992
  0.4135400357020856  0.9172855584646762  0.4994021349149290
  0.3255703463732050  0.5003047188699531  0.4970044086840156
  0.0830776598610073  0.3396376493074530  0.7500684757590559
  0.8382178314796996  0.6685485390170788  0.0039030646381160
  0.9135107906945429  0.5827617862704249  0.1735108917371912
  0.0745761378127200  0.6687789491950995  0.2568944532040421
  0.1599715798062711  0.5840334781174724  0.5790067254990474
  0.9930930915138689  0.9914018697333304  0.0027263197614200
  0.7495411967097401  0.5824899421785605  0.0125026315295474
  0.7403091146754597  0.8406456450895126  0.9185516123491010
  0.6638379019488285  0.7508585595231454  0.5793764299104143
  0.9985091186548268  0.0791306213170540  0.2564464837563140
  0.9118443810493299  0.9188094899324791  0.3341405570464159
  0.7492740988371950  0.6680065183503568  0.2505069999679557
  0.9958636084204324  0.0727249561969294  0.5759312392510935
  0.7518471457702099  0.6696360633248432  0.0988528532767494
  0.9045225584448009  0.7531632284077023  0.0022729816686700
  0.9140765748635495  0.5841254373187005  0.6611145921543716
  0.0819312117551497  0.8397337310680538  0.9098686650896669
  0.9980070136522819  0.8388308449932760  0.8297285966918784
  0.5025750053107417  0.4985789013776655  0.3199271190710838
  0.8313083403059465  0.7527038744431328  0.4127059349636054
  0.4097446481324423  0.5009969754009777  0.0822536119478696
  0.3202990676354885  0.3322965582126763  0.8317680864478614
  0.2530969725360544  0.9985932961366371  0.5805871918526091
  0.9170985925020035  0.3258708043832598  0.0779495200588662
  0.7503527311159620  0.8374272520640567  0.5777252712132448
  0.4997204887936460  0.2452510861007154  0.2464824157417655
  0.9050229890498804  0.6689280968360267  0.0903591025131027
  0.7445531957197946  0.4133646924612843  0.0030469773147682
  0.8314063726060377  0.3308943387679519  0.4963126327805863
  0.9109048645892545  0.4128760280953500  0.9903947587336037
  0.4970255970131915  0.9190404752493554  0.4123676709644394
  0.4120211106384770  0.4144316446693338  0.6651091588723865
  0.4137548966329987  0.8370941588926204  0.5826076099980607
  0.1625509316348484  0.6702044533764271  0.3408518328798726
  0.2485675046167051  0.7562245810635111  0.1696494914977727
  0.3303081420281428  0.2480351777376193  0.9186734636385510
  0.4158578936829770  0.1646422544136325  0.9229508030470647
  0.3253606674031619  0.1643648048122942  0.8309064901244418
  0.2507018391210681  0.3343129303694742  0.9178086664685130
  0.3310937256192523  0.4155261111190784  0.0867996870021711
  0.4876082752035715  0.4113408406853234  0.9035333009756270
  0.1589350252271838  0.5848751692148426  0.4137729062500590
  0.4178015594336197  0.3339610458658523  0.0903668093242736
  0.3331626071783322  0.3313455720137105  0.1681940122219667
  0.3304541112153431  0.7548388393578838  0.2502463001485764
  0.2484560030998171  0.7553156136488119  0.0023855530492903
  0.4133798206385744  0.9989254507545219  0.5815487241097216
  0.4160854699037131  0.1658796690534422  0.0865993004058973
  0.4132422552051030  0.2474580668278308  0.5032598435587909
  0.1632522610928886  0.1716194124567613  0.8291080473076823
  0.2430395306560477  0.4159710241273692  0.4989586562974778
  0.2495300122216245  0.2473772407124297  0.1700409553494860
  0.4987091534743714  0.2451053540174974  0.5819518576133251
  0.3274903704862399  0.1652470920467709  0.6645166942884007
  0.5831562469089918  0.3299728123562711  0.2489207403586935
  0.4159868956065968  0.8350763565170172  0.0837449154384671
  0.3241423164951970  0.3332125100069678  0.0037353260344872
  0.1676029690812320  0.2618663661306743  0.9177151969070479
  0.5777566461385991  0.1673918471487146  0.4126790473358048
  0.3341923009075295  0.9998242289396158  0.9993118289783249
  0.2437656846654421  0.2478130013588334  0.4988301917577291
  0.4160856962763048  0.0001634715617989  0.9189307101376394
  0.4149915476283867  0.5004344799526392  0.2545408383676316
  0.4977959997575007  0.0818371899852760  0.7479637762054423
  0.2362477386127631  0.4995391726252886  0.5803681811644956
  0.4146779437170043  0.0729553037810222  0.8317733575717527
  0.4940040655055175  0.8375167494477924  0.6672295894168624
  0.1641143521140858  0.8356414015026667  0.3324898487622294
  0.2472144605936493  0.8361900306231701  0.4138357690232063
  0.1631278283045190  0.7559347083618202  0.4139254796049074
  0.2492535261747829  0.8376359230582825  0.5776655607108527
  0.8300074553981731  0.1645729411440395  0.4957604681873227
  0.1655032414065505  0.7536707676250630  0.9166557420989214
  0.2449975505019558  0.3312015832856713  0.4226914701664997
  0.2497454366747029  0.6712185318330506  0.2520514423865453
  0.3311070366236252  0.4082062298166866  0.4192308126112292
  0.0796315140097112  0.4994680158545497  0.4150080196292151
  0.2498925815940914  0.4173141293530600  0.0008179868298606
  0.2472754926133158  0.7558584702214494  0.4957658088208023
  0.5075316456357795  0.5796184259709131  0.1017099229226572
  0.3331002674864164  0.3301917988620292  0.3343386372526738
  0.3252889170959202  0.5010684869608830  0.1710546920741695
  0.1642816500264347  0.7568683816885901  0.2529701644057952
  0.1649790435274809  0.4154021317635065  0.7485903168523487
  0.3293816923504858  0.5025367368159183  0.3215045434805883
  0.4145864328478869  0.1662611692152642  0.2504228030267879
  0.2508880149937283  0.6710652896728007  0.0861956125135690
  0.5822642599786024  0.9178333289753852  0.4989567562386840
  0.2499690281838392  0.1660606157669944  0.2530511073287588
  0.2466553737711303  0.0836092623450741  0.3326781742328107
  0.2498321068627505  0.8417022788011970  0.7447575075152700
  0.3245510560660877  0.5830090163014461  0.9089846748190986
  0.1688057336285856  0.9983910825680875  0.0021676274431370
  0.1653524368039065  0.9163417718824853  0.2518978415381242
  0.2482875431071830  0.9172718822673434  0.1704054295284859
  0.0785935574850426  0.8358237891438858  0.4136158011036858
  0.4972815860844113  0.5826926004590809  0.5874899492400972
  0.9966950232912191  0.9994955943488556  0.6613543060065359
  0.2464268358990605  0.9173843848556743  0.4954506687269967
  0.1680356837909252  0.9191886723736256  0.0882661313454183
  0.4986586905896114  0.2486600822164325  0.4156148342701991
  0.1649053693994964  0.8360417147670768  0.1698591843806393
  0.3311323139661155  0.8352852132842274  0.3313308418581435
  0.3313913884618909  0.9987745196957352  0.6644647674378086
  0.4981862474398775  0.1658748817045408  0.3312337789517596
  0.3262189904797196  0.5867613185519998  0.0881273423641769
  0.3348982171541833  0.8392068490204724  0.8346111852425999
  0.4143162847379718  0.0002554793945917  0.7471048832417259
  0.3328462746728230  0.9204778254685154  0.9194161778780495
  0.4145062919234695  0.9199509573850682  0.6641553716223788
  0.6599770283753479  0.0809916249702395  0.0842233227003084
  0.1688037904672657  0.4967739445540729  0.0005082065665382
  0.4967497273515873  0.0831435501509933  0.0856967983627489
  0.4146560321267634  0.9221185124878213  0.8323919940475946
  0.5789406829744501  0.0819761439301509  0.1669299476170396
  0.2473918950863389  0.4166748320418531  0.8321385560096402
  0.3272794634192738  0.6717062027881110  0.0025676787308804
  0.4147243117755361  0.0842560861051132  0.1699185163394699
  0.4156434742734544  0.9995292348247133  0.2495554355570463
  0.5887448402060155  0.0825086228246843  0.4983787888335415
  0.4114127963491153  0.7564407453114027  0.6669666084670207
  0.3301599663681478  0.8373032219315226  0.4961979333821563
  0.4962256339934363  0.9203174265212558  0.7482948178513767
  0.2469813651368382  0.4979951341042719  0.9160201142631722
  0.5848461840897499  0.4978715454058065  0.0930298490631725
  0.4164955717001846  0.3299298762397099  0.2482767019041026
  0.5849948988209485  0.4119428142870007  0.3315343882668094
  0.3315172521691598  0.2481773035541625  0.2504288616669603
  0.5832990151959503  0.5854255558797372  0.3279108380171797
  0.4145049049537692  0.8362252093938473  0.2487842438999905
  0.1679708931754600  0.5016868491935090  0.1701990534268656
  0.1683227614582481  0.2496564581339847  0.2549693784901567
  0.4993949811845403  0.3264496211936779  0.5001403262615738
  0.3299238132348098  0.9937943303637692  0.4955585053043058
  0.4915280771451492  0.4237718246295226  0.7532585212545548
  0.4149138158346460  0.1706777547640091  0.4170705785613259
  0.2501638300072132  0.4998400291121577  0.0859288058324422
  0.2437835466152854  0.3319660826249051  0.5803072521126964
  0.2500751138254096  0.3318969255670147  0.0887643284156322
  0.4964777517011952  0.0827423703778505  0.5877343142096725
  0.5806367580252930  0.4029804050961158  0.8278213685098630
  0.4095163379118918  0.3292055446743209  0.9178829789466841
  0.4107104123730218  0.7590159335488079  0.4974748854465308
  0.2417962111974750  0.5802400326332873  0.8343753899883269
  0.7433715878241777  0.5749152056090172  0.6656717785346477
  0.2485365458609172  0.6666040734514221  0.9171344440600380
  0.8255512028946075  0.4959623543069271  0.6629095644639758
  0.3318876945440399  0.9999367022481560  0.8327209468664801
  0.1659198299459292  0.0800362417119615  0.0955279756108238
  0.9933557995048118  0.8431252458367455  0.6513635046888444
  0.0801735771912345  0.9199764810496464  0.8274741312601681
  0.4195130034721060  0.0013572563083317  0.0843194387882538
  0.6564945537481272  0.7626858311431959  0.9189734466104347
  0.3313365844927229  0.0848661322167310  0.2524033575097164
  0.9944071231464526  0.9199330323574239  0.9123722654843742
  0.3300327174803281  0.9992292339864151  0.3306963749363808
  0.6672756220112379  0.4128418064167615  0.2505192553807640
  0.3297584959511930  0.9164163289758424  0.4125363345799735
  0.9964190524662245  0.9992197889642576  0.3336261424789368
  0.3314043847285788  0.9171772167774426  0.5809721184295527
  0.9956758293753453  0.9176685194910853  0.4125733403802102
  0.4032837393310805  0.4233171787775789  0.8297052506919735
  0.3289473061395067  0.7565420557476753  0.7490870179082951
  0.3314838805992426  0.6786411664842550  0.4978289278226331
  0.5813179345663253  0.6689808573367263  0.0928529211951242
  0.3288131590125177  0.5888140482063653  0.2499464952541006
  0.3325564110481689  0.8364572217973399  0.0018335394190185
  0.2455128902690137  0.5019297416674293  0.2505057630634439
  0.1637493204360088  0.5817197974878020  0.2529906609820657
  0.4110473349531080  0.7548343542021239  0.8275174885887336
  0.3312017011376454  0.8361653699864938  0.1683730887680401
  0.3337247642544515  0.9147761909856076  0.0853549989647096
  0.4972139722789609  0.9178311924070642  0.2489595315934308