 B Cr Fe 
 1.0000000000000000
    20.0899999999999999    0.0000000000000000    0.0000000000000000
     0.0000000000000000   20.0899999999999999    0.0000000000000000
     0.0000000000000000    0.0000000000000000   20.0899999999999999
 B   Cr  Fe 
  14 206 480
Direct
  0.0729904178782010  0.3334273839763893  0.7109697053988661
  0.0919471301564820  0.0282518075066508  0.9332811317686703
  0.0079530833794098  0.3311008835783207  0.6460614279918042
  0.9641369829088613  0.0694314838776737  0.7220217918459432
  0.1128612207073614  0.0652432190492310  0.8542929268311821
  0.8920513492010210  0.2054179345735891  0.7109734315015929
  0.9339314200909535  0.0180092043115884  0.7851382243350139
  0.9535920674101288  0.0719588483895124  0.5758353037757462
  0.7847066901621049  0.2160658369093051  0.5737237688997722
  0.1002788585487689  0.0063033984283100  0.7901850473222872
  0.1316325403689806  0.0805962652981940  0.6640388508776528
  0.0772877426547880  0.1463130773091239  0.6589237133574641
  0.9442440920645437  0.0177057275985236  0.6451715175195871
  0.1372956728059217  0.3397971702868718  0.7754802263728457
  0.5730520106999394  0.7142041373688470  0.2851233704929866
  0.4310127600169903  0.7139073214418067  0.1427068154228076
  0.5711343736525863  0.1424994928009861  0.1434785088446686
  0.1434089381303442  0.2899087697213096  0.8675904422230831
  0.2163268110433392  0.3578908605345612  0.3544021909293373
  0.4290501246950099  0.2846970597248064  0.0000436407829980
  0.5028619022775433  0.5006076788447388  0.6409662247325164
  0.2917058032247491  0.1406726516707075  0.5650861826946256
  0.5047997577077767  0.4998853522696339  0.4982193097109039
  0.5720654027849464  0.5712193019188524  0.5691348898005606
  0.4280689003565761  0.1418692107783895  0.8558237090296892
  0.5730035220515658  0.4317171032876590  0.4258516213063805
  0.3610793851040576  0.5017834127359915  0.4963558590515476
  0.4302451804415695  0.1425507017876254  0.4273474014487574
  0.8558355381500221  0.4337453706946804  0.7153864381576520
  0.5036090651701747  0.6430182657716890  0.4994900186420898
  0.2866571070343947  0.8577201300629772  0.5707087833767509
  0.3598335550093169  0.7820371876178963  0.9278916459293299
  0.6439484571429277  0.2148946150301904  0.3546555590122267
  0.6415099254031391  0.0710798737325293  0.2120072115466808
  0.5007367598036542  0.9274143046007235  0.0720527954839472
  0.7129656203084701  0.2867713705148050  0.8590021007891968
  0.6428823522752616  0.9267051336935940  0.7847472699102122
  0.6418939389480987  0.9251695815501934  0.9297135177032662
  0.9207289268573051  0.3666371074852207  0.7944053612704095
  0.5035895497642591  0.7849502632389481  0.6406889549228968
  0.2868683832783983  0.2859776467872976  0.1425853619771225
  0.4987644563023340  0.0705613302542879  0.9276493936706034
  0.2900154349319455  0.2873406637028931  0.8613770803747501
  0.3586189079846698  0.2153211786348408  0.7854701179017979
  0.2850362592162478  0.8582287237095023  0.4270890135606332
  0.2854779779620697  0.2865197173899801  0.2853600883187022
  0.3603882646087380  0.7818310202799800  0.0721647159409038
  0.2231952239541756  0.9185140059440109  0.9344320643186358
  0.2892910186721058  0.7126949429283431  0.0003421190992627
  0.3603629799757231  0.2135881406963807  0.4967927011156162
  0.5001502950347885  0.2132304804556444  0.2130812856653135
  0.5007143829301600  0.0696613057027514  0.6409358117072842
  0.2843736834011649  0.9972456075710870  0.7125175969386469
  0.7151234961423729  0.7133010732485514  0.8563433435806999
  0.5735583503181192  0.2863844395926252  0.7126378199642824
  0.8593265942882352  0.2899977594538021  0.4209740231128283
  0.4998586946957482  0.6426109262010237  0.0705992240067934
  0.2015488402375068  0.0663389742192712  0.7824691976295359
  0.8573254306130138  0.7105014415363248  0.8568723584321616
  0.2892087903295575  0.8523849095391685  0.8560726330877887
  0.9299257327509853  0.7821551146458835  0.3564437241021843
  0.1447002456301782  0.7093270151421759  0.7123196954631877
  0.0017493164992777  0.1445628650762839  0.2837841750151976
  0.7137806646961155  0.8560890162985486  0.9993327752127396
  0.2158422685052264  0.9275235646951893  0.4994123268348538
  0.2866897621384686  0.1413541986885300  0.1423675265989039
  0.3566975372935384  0.0719574688511831  0.2138843133982140
  0.2163189681792669  0.6425156884512284  0.4980381675664119
  0.9290806235863841  0.2150292144302376  0.3536066811094692
  0.2865976330439596  0.9980225195759773  0.9986715861753828
  0.2183109187638933  0.2133776537288207  0.4967311664657500
  0.4306386761417926  0.5729258306191019  0.9996762945567571
  0.0028484071537758  0.8494988648403443  0.7147328609962741
  0.9299731310429917  0.0729175220126136  0.3517202377831923
  0.6430936791737127  0.9264029056419260  0.2132741580120606
  0.0707816073098718  0.2447216416598765  0.6426620663537960
  0.2161568911710956  0.2164926641901617  0.9285249385068766
  0.2894316853079673  0.4294835061059559  0.7110913582922604
  0.5728511386124574  0.7142500056855875  0.7117839660661235
  0.8680778246951464  0.1124717310684456  0.7572833188193159
  0.5005564814883174  0.7832110735110825  0.2150235007745925
  0.4294567651836135  0.7141340430528380  0.8561505334864163
  0.2179721690412459  0.4988092477453402  0.6417907743055327
  0.5023918668225310  0.5007534122876802  0.3552982825018797
  0.4315544951409292  0.5713667352039427  0.7117678900121042
  0.4305631724042714  0.4290743244875369  0.2848509601770958
  0.2150028058956606  0.9279539924829943  0.3559704631566317
  0.2873273034931776  0.4295903415118303  0.0008684609860862
  0.7734233130073664  0.0655150532918956  0.7910398791882839
  0.8597743547238446  0.1435911319226039  0.2832267130162240
  0.9913723662543937  0.2970470745379999  0.8699599839112090
  0.1446684635110460  0.8540377702813482  0.1447502796322438
  0.4295293245182680  0.9992908518855271  0.5712372891680361
  0.5013440514540050  0.9277668393170350  0.3568782969719329
  0.5734375052275810  0.7142894676306579  0.5698154013449507
  0.4309875152718828  0.7143222220683487  0.9994982278232754
  0.3590081498473329  0.7837716498745098  0.7845994650381536
  0.4310536464668475  0.7136396844728898  0.2867527560604250
  0.2893930294786752  0.8537857406205951  0.1436802085586426
  0.6451491863516108  0.0707245766264227  0.4984838174120694
  0.0148402687475541  0.0004190334309273  0.8565506147698871
  0.3604772686026927  0.3570128617018554  0.3542681889379760
  0.8567935985313703  0.5723700933564974  0.8561584342773533
  0.7873632762331356  0.6418828906273158  0.4977079724464558
  0.5756700613760005  0.0017207115954261  0.5724892249543151
  0.8591329131329390  0.9986565198520259  0.4231471980313184
  0.5723677645221417  0.9976581710807637  0.1437811534629141
  0.8579227899955232  0.7133617227209286  0.2848129817311381
  0.7878746291782180  0.6426365949449809  0.3557932839793641
  0.5716600871637321  0.5715668507654798  0.2854982382541696
  0.9281283836670183  0.6432099048733234  0.3561441423163463
  0.7145167169396425  0.8562387418635192  0.2842763149600394
  0.8569187685089424  0.5718644630098753  0.2858834587028112
  0.7119554811439143  0.9968203555149630  0.7126288186445068
  0.9300931850533933  0.4995197272651689  0.4982417218370532
  0.9291049138442792  0.6438516077056234  0.9278388739436012
  0.3581095683789279  0.9284135289162954  0.6415409004837960
  0.6423991222487218  0.6434545875146501  0.6405104235464584
  0.6421144264796884  0.5024924718916718  0.3546213895726509
  0.6437949575159239  0.7855165492100408  0.4999871935019468
  0.5732195502934201  0.4298333980102647  0.5700446612680685
  0.0005812636646391  0.7132440977221316  0.1440040747938924
  0.7871717525508400  0.6441146816196943  0.7856332594543348
  0.7846869485551559  0.5007200356469138  0.7849295321950908
  0.5037071169894236  0.6442103212811112  0.3544203900100167
  0.5731109651186551  0.8571564560673409  0.8560753777515463
  0.5721536661569014  0.5714017340684275  0.4270122024094888
  0.7863470326300672  0.6443749933983538  0.9275604871862315
  0.4997733832135417  0.6432968874673661  0.9290106402807750
  0.6441649477318155  0.3578098014794309  0.6425691905960854
  0.1482630421046199  0.2869174431390199  0.4238221756128783
  0.8569372668574219  0.2860893181472904  0.0031965555050722
  0.2859466159857768  0.1425327819542752  0.2850071570175448
  0.9334581135425600  0.2440776934496716  0.6249615347678331
  0.2194966215415973  0.3584631686392133  0.4944258899464596
  0.5725805793170219  0.5739795518804247  0.1412345064657986
  0.2878070141935811  0.5709859862028079  0.1424663081409001
  0.0732464377662551  0.0703722772573243  0.2149978373316695
  0.7857146326710280  0.3584263628255559  0.0728435645979327
  0.0733639871156140  0.9231310247664862  0.4955117847860258
  0.0709389121240272  0.7822701778870645  0.4971503459170112
  0.6409810066851107  0.5027109199189934  0.0736631761247392
  0.5738143286211846  0.8566286526937947  0.5709436498103253
  0.0000720499400505  0.5674004864674070  0.5692794056618316
  0.0011072596879369  0.4218169020262186  0.7061556444967511
  0.6449390243972626  0.0701488826467126  0.6430478138500042
  0.5721547350630486  0.4297752014574109  0.8567708235050705
  0.7862218876069932  0.5021899750850924  0.3540942724894705
  0.6424702796937126  0.6430066058528598  0.0717045649346127
  0.6422068957831008  0.5008041900829120  0.4981138028902470
  0.0648454952684833  0.0723105852061495  0.5005826217746759
  0.7860826349947199  0.6416273010832499  0.2147151891448085
  0.6438987730113465  0.9284172326771304  0.6404830350086674
  0.7833352505739397  0.3591612655418904  0.4923463444644798
  0.7152414068687412  0.5727991502444663  0.2857432101459237
  0.5720279217551143  0.5744367774733863  0.0010414924261299
  0.1441830038606547  0.9993726954352184  0.2853057668105883
  0.1731678961062187  0.2926585808069024  0.6905875926973102
  0.6421365391754592  0.3589785939182561  0.2129981741786928
  0.9278599522176754  0.2166412370783075  0.0727858232663370
  0.9304990852331350  0.3595691918171782  0.3534906446366273
  0.9124470430780400  0.3619401366163694  0.6395276170631647
  0.2925280602203249  0.4338022673829002  0.5635337290338671
  0.7130244431806644  0.4303064607141561  0.7138779081420424
  0.8604883070427363  0.1451618776979324  0.4206081417700021
  0.7128138965155789  0.2887038528663278  0.4225583375835373
  0.9294783560895460  0.2139011904161263  0.2148422389668066
  0.9302606971030974  0.9280780095049134  0.2136178148050864
  0.9288727793169707  0.5011577019467135  0.3539874800097575
  0.2919474066952378  0.2872690283058457  0.5631326237447144
  0.9997703223525014  0.5670825498937370  0.7124401966221581
  0.9301624565197102  0.7816711025574185  0.2139112481751470
  0.9257120341111332  0.5041871240392594  0.9320939602655732
  0.7124918840041118  0.5736669695365378  0.1431712371006826
  0.9299451603021865  0.4996138643471119  0.7843337072492922
  0.6422444641089625  0.6412720056125297  0.2150258408275542
  0.9299314705261705  0.4986981805852215  0.6414634827806547
  0.2172058708316346  0.4998324751002500  0.0721117128928232
  0.1448801914694014  0.8553086834954213  0.2851301245807942
  0.8621853165580248  0.1480070941722537  0.5534734658072393
  0.9297696307019584  0.6409465808700789  0.7862766061378634
  0.5721935601487411  0.4291314677870783  0.1430327172859850
  0.0008661700969622  0.7106732469798501  0.8563680858758868
  0.9977196835761438  0.5702759939263001  0.8577249027010991
  0.0008754833664516  0.4301270489477554  0.2858568440588468
  0.9995843897973647  0.7142432706747145  0.2860833727937151
  0.9923268008943095  0.1706882135733747  0.7129124578852405
  0.9989217987012704  0.4254432169051922  0.5691815061083269
  0.3604149861113767  0.6441808615239052  0.3549358980121725
  0.1435220774161154  0.4250835843691004  0.7131916561459145
  0.1421083074511154  0.1617363367831492  0.8497510156386237
  0.0714211104359875  0.4972215882711478  0.6393136752719850
  0.0019638104711355  0.8507787597449135  0.5654080460039794
  0.2152318745256533  0.6401235442476669  0.7833154346688588
  0.9993231266540119  0.4315889120619871  0.0033033925861454
  0.8558809375288292  0.4295312229594870  0.1433931569051390
  0.1456071560212755  0.2850216760879231  0.1448294343224340
  0.8566630908150189  0.7121596436580758  0.9994853781059510
  0.8578476860026628  0.7107577598473300  0.7137149010968842
  0.1461780745304588  0.4295098953487823  0.1432430254539167
  0.0710618591278690  0.0974799198377067  0.7596721689626229
  0.0801577421959916  0.3631389060377850  0.4900553651865230
  0.0733129777347147  0.4996501108982630  0.3551127199439595
  0.0013914955716937  0.7126498993332955  0.4260811441605826
  0.0768024242665125  0.2182441015982421  0.4935542363919528
  0.0736537298987939  0.2158187442169142  0.2139428300269147
  0.8576968480691715  0.5704410475127443  0.4257800965038726
  0.8570677058833776  0.7115554462902041  0.4263575170994352
  0.2185890356506480  0.2142847000786890  0.2123913716285081
  0.2167364865975044  0.3562284669336854  0.2115734366282880
  0.2167254117330161  0.9254267825035057  0.6392921083201734
  0.0010871200389612  0.7111485361041718  0.9995957422229322
  0.1515843741743395  0.2846748241297430  0.5605186797272991
  0.2172301256481345  0.2136010946872451  0.3544644909115799
  0.9998235833167178  0.1458946706177047  0.0111819287223619
  0.0714932160101512  0.7835455332758107  0.3555897871562988
  0.0032642264831744  0.8529720128282055  0.4247915067219071
  0.9579611855319354  0.1076866795262605  0.8286141239299395
  0.2184807585575106  0.3590033556823338  0.9299360424677082
  0.1480187495887203  0.4304780780202625  0.4237529082902057
  0.0721264152454140  0.6427540651894774  0.2142502938154548
  0.9296370076882038  0.7821601086129342  0.4969722145374798
  0.7150979300159032  0.7132908310713717  0.5696297942752669
  0.7135037724134518  0.2871289486414280  0.2832452483421999
  0.6427020920387695  0.5011174380789732  0.7849819922091527
  0.7150128733126780  0.8561924593641463  0.7132815120553229
  0.7147331196735391  0.5717722167933432  0.5693600915778461
  0.8586244089970609  0.9985845566204750  0.1433833334683111
  0.7143140523448682  0.5729479086064827  0.8565147490194561
  0.7821367390532488  0.2161685003317235  0.9338496004828304
  0.7137904026018335  0.2869554885767449  0.1432469049492067
  0.8557210243286284  0.5733978974725352  0.0012855038553006
  0.7132250222735187  0.4296883716620646  0.1429929517577469
  0.7137802903121626  0.4304986025441785  0.2841571191480286
  0.7830955968707444  0.3612330874685079  0.6423887399930968
  0.8576329897561590  0.7113723519862424  0.5693608438656972
  0.7849996837223953  0.5008862344436251  0.6414326070938661
  0.8572311844468113  0.5709085196690699  0.7137104983588244
  0.7143751094228583  0.4291368213090394  0.5684545981634738
  0.7128211855634080  0.2872954948593908  0.0026371894888212
  0.1438490850059057  0.5684437135960347  0.8550956498078891
  0.2160221095600562  0.4991009572049093  0.9278703670503770
  0.0716008426741019  0.5003272273524249  0.4968700028261279
  0.5729500183409763  0.5719165971990942  0.7122043955676937
  0.9983681164283786  0.9837101119182953  0.5568355254857240
  0.7821728049381219  0.3614755502790042  0.7899493962229980
  0.7138373908599108  0.7135174341131523  0.1434424809985801
  0.7115406674607856  0.1423496679598183  0.8597654339395266
  0.7822112087389762  0.3608516549320101  0.9329856163231078
  0.7150771148032293  0.5718572484344335  0.4264598557752798
  0.0006753577086152  0.5715923652127765  0.0005167817990818
  0.6436964889463243  0.3577672031967004  0.7854684738642512
  0.5712404547722142  0.2860307231508394  0.8572623152493237
  0.0728587586855907  0.5002899166141831  0.2139840085890450
  0.6431696038154554  0.6440403188088628  0.9281270279623545
  0.7866211414098010  0.2154030350871591  0.3516384422781015
  0.7126227673098161  0.4316934654003293  0.8586882232551882
  0.2168020696243562  0.6422507058662627  0.2136997536250459
  0.7140881009197096  0.1420586203094793  0.2835142453611644
  0.7862998756506903  0.7833513407676974  0.7855460772701021
  0.5699742903109225  0.1414463329600775  0.0001622351852367
  0.6434186571496402  0.7853158840562249  0.9276800634532538
  0.7110469228590346  0.9951242917328380  0.8591858998871761
  0.5019567476173825  0.7848711327392667  0.7844493932416785
  0.5719259686961952  0.7141430320247258  0.8564577234452977
  0.6437598453362815  0.7850520958346346  0.7845319150955383
  0.4309482133078519  0.7144913739687154  0.7125959081661007
  0.6438729997843478  0.7851656266238675  0.6415155433495117
  0.4314003153598047  0.7141330599052453  0.5696878951087330
  0.6446921583544578  0.9288643567493073  0.4999729719256221
  0.5734558622696889  0.7144271934432433  0.4284282401289109
  0.6443591135199713  0.7851386646209276  0.3562613059646785
  0.6434009606986479  0.7849568623220283  0.2144318838690986
  0.5713859110397630  0.8556353493593735  0.1432836775989072
  0.7860841962289417  0.7842203914587947  0.0711265226884640
  0.5717021752251916  0.7142483228702017  0.0000503827331649
  0.0002742395869467  0.5701451697089851  0.4260056011563337
  0.6405806598777900  0.0689764905860895  0.7862328203739731
  0.6420850105748975  0.3585169419302819  0.9292371358858509
  0.8568679281780573  0.4306211430618243  0.4244489423097306
  0.7865545069379558  0.6416549913275628  0.6418157339137526
  0.5027639694616985  0.3579472723979368  0.4974407360394358
  0.6438611487975247  0.6424879741246138  0.4986351788221366
  0.0007328433761319  0.7103915783817082  0.5689642003251135
  0.6425461520803897  0.5017869248516957  0.2132117083488037
  0.5014427204139082  0.6435645074491305  0.2141755150619034
  0.5002360725264408  0.3575832274704545  0.0715234974571660
  0.0021678961725673  0.8506222404245778  0.8594996376979173
  0.2159787767791806  0.6429471948268796  0.3557487453626346
  0.8521293082663577  0.2968621646156224  0.7207009189626946
  0.5722141075092577  0.8565146105858965  0.2849470385842203
  0.7887336216631271  0.9280584474132462  0.6413368504141399
  0.1442083185981750  0.7114084473748493  0.5685439024947204
  0.7170665361035908  0.2856800109351561  0.7150111351209919
  0.0689630827282719  0.4967703855767388  0.7851873050745680
  0.0722738315273160  0.6391139574980603  0.6411240939547802
  0.7851753569448873  0.6435969287080698  0.0717568689891299
  0.7139215224147131  0.1421705523228392  0.1431902820401408
  0.7185424696650119  0.1418163112567086  0.5697498788528951
  0.4302107607831370  0.8564420815024882  0.2856037018361298
  0.5710803386984163  0.8559703163589686  0.0001458835389577
  0.7840861424359984  0.5024823419018890  0.0736273833076941
  0.2852169702887826  0.9995323486720059  0.4282142242728263
  0.6433362844782349  0.6434177620600960  0.7845141413657282
  0.7126581782586237  0.1420327726722269  0.0019892229945935
  0.7137398780670082  0.9984213241254063  0.1429924515045594
  0.7880859414538022  0.0711118339417649  0.3542558623593575
  0.7143149233650937  0.9990634395135809  0.2834995902236739
  0.0733257362400463  0.7800762690272415  0.9299322460198916
  0.7867934440317854  0.0705363945071548  0.2137433672496389
  0.9295175938876937  0.7824564022642106  0.0712457994840772
  0.0726450812593417  0.7823066644996033  0.0728103506879455
  0.7855745587355377  0.0702040799829917  0.0724696920471084
  0.6412720654686759  0.0695414515271374  0.9297502775883085
  0.0725557086401218  0.7839123197335789  0.2136780560701018
  0.7871736839990773  0.9273004358084724  0.7853627604748139
  0.5728565978589741  0.8568615480983485  0.7122049100047124
  0.0006351130431172  0.8548229792994252  0.1439701135777411
  0.0720541675691899  0.6424604980855806  0.3555797750553906
  0.5732558877855068  0.8569947311636860  0.4281190595037087
  0.7159972813762600  0.9993908740059780  0.4267375775060939
  0.6431154545667798  0.7854654080271771  0.0709846908526944
  0.9281347430617756  0.5015378251632931  0.0732708462233744
  0.7860465254721650  0.7847702134356979  0.2136130939384524
  0.7856188812025335  0.7844618573404104  0.3552152930619749
  0.0009966878508485  0.8547595599355206  0.2844610885659915
  0.8617158556240587  0.0037575943490909  0.8553081641303442
  0.9062346912409055  0.1165159509144609  0.6499320862265500
  0.0721441380715427  0.6405863819591981  0.9278388422015805
  0.9293383907421826  0.6400693233301589  0.6411868133684291
  0.9294927619954041  0.7809414370840865  0.7856752517010733
  0.7829539350377600  0.5032108866081676  0.9309495437454498
  0.8514896738776278  0.2919961626680460  0.8668943102664795
  0.9303962795154934  0.7810654577905221  0.6411750447341550
  0.0253983328831533  0.1967432128817944  0.8338592646400846
  0.8575730222654221  0.5697184980853385  0.5694704716540471
  0.7849389693220284  0.5012996613237627  0.2134674654963553
  0.7150788603132706  0.7131956703211080  0.2847117227290665
  0.9293822294370360  0.6424509733583075  0.2140793067024449
  0.8567985340486406  0.5724589082285558  0.1430175632286309
  0.4304543504840679  0.2857192561023188  0.7123953014195348
  0.9303563502320283  0.2222089597523725  0.4916828418854003
  0.5007954886605227  0.2140958421885746  0.7851152531008269
  0.5016250973913858  0.5014026502771968  0.9288938034128007
  0.4298123792665888  0.2851136747684032  0.2843686915819761
  0.5010908794362581  0.5015840179232630  0.0717548613547122
  0.4297638550320840  0.4289132487281164  0.1425777989372329
  0.1442767665250692  0.1433088621523357  0.2842276409384442
  0.4991859112574679  0.2135502231286814  0.9282772486668179
  0.5008123374197975  0.2138134700145835  0.3557065976780590
  0.7147067643539113  0.5724957744299300  0.7130698114824856
  0.7153475114739563  0.2875091865284252  0.5690510757040451
  0.5026755924532158  0.3578419515740263  0.6407494040515371
  0.8537814056265263  0.4307955716562716  0.5655204832653868
  0.0729871965179537  0.3587011139614309  0.0733004263917207
  0.8575175857121645  0.4299338262730006  0.2843812852436204
  0.9287766876929755  0.5007974245051595  0.2137262629004949
  0.2172730854254392  0.6420014531399312  0.0719147232196606
  0.5020373267370443  0.3575198617157894  0.7846893043547857
  0.4304257905556296  0.4297486067599673  0.0003434519227594
  0.5006304861721448  0.3576489954940589  0.9289286120955523
  0.0722584008610121  0.2250672606944741  0.9383671320349108
  0.5005117365291696  0.3578056098392756  0.2133790364712088
  0.4304547734627832  0.2857256407731640  0.4259921562966921
  0.2905008299239576  0.4291027350420799  0.4241461204769852
  0.2306414251988490  0.2129565622314055  0.6282867961613963
  0.9264517002728112  0.3593155510389944  0.4937021797265753
  0.4318733590383944  0.2861285019493411  0.5684558607812943
  0.8625018471116237  0.9957027834951973  0.7119577157397133
  0.7124898846036725  0.4314401538858311  0.0026034051514920
  0.8585922297740637  0.8540294645715401  0.5693083485964543
  0.9265174187892313  0.9217571999584971  0.4926237165635653
  0.8570414154892442  0.8538411478679453  0.4247238336678744
  0.7862408737739409  0.9266732061836944  0.2137102923707218
  0.8574032937308246  0.2867566317560498  0.1437319813615570
  0.9312543822675422  0.9275105549370262  0.0708017841593887
  0.8578822330980219  0.9975583243777139  0.0012289937931751
  0.8582382473342198  0.8549986235955770  0.0004298024580413
  0.9307742535905743  0.0715008319682325  0.2134710048597171
  0.0012516361539075  0.7101436875997361  0.7131347433262099
  0.1457978451015140  0.2857322204686010  0.2836998695505697
  0.1440471499130886  0.1429469636942493  0.1435288517992610
  0.7154986266780352  0.8564943027453785  0.4281401465078691
  0.9132166695290993  0.2193435178564217  0.8060915870219542
  0.0953028718773243  0.2450648314019255  0.7653879590182718
  0.0497554402983333  0.3657189368198642  0.8032740241375582
  0.2825904628224754  0.1425800165194589  0.8541635109992697
  0.9297702012348259  0.9262190856122475  0.3545618882359196
  0.0740751529219188  0.2166026035360380  0.0733143839887539
  0.9265766563264796  0.0714811287944240  0.9375204727986133
  0.7870314236700111  0.0723961639366790  0.6469303668501335
  0.7859191956880427  0.9265378528688261  0.0716320312794367
  0.8021490202731876  0.1996999566835840  0.6644635062850708
  0.8583831555304691  0.8534877524754136  0.7137623874186881
  0.7158075136795665  0.8569000212102370  0.5701979306640131
  0.8587161002510482  0.8552253565265431  0.1431724579895702
  0.0742315613656944  0.2159227463828956  0.3541405276054573
  0.6443083480341797  0.9273595486016998  0.3558669829163319
  0.8590551294269105  0.8549494014969414  0.2837692409040901
  0.9341727812767983  0.2066667090859687  0.9299986942721754
  0.7147876931443518  0.7132337696065518  0.7128802527168336
  0.7866643730081606  0.7836779011260908  0.6419854460247799
  0.0017084088426639  0.2865926266868927  0.2839447738053530
  0.7152085300534776  0.7131985672286424  0.4279368894596770
  0.7870796178176235  0.7840910605730802  0.4981918623441623
  0.1456042282845206  0.4289174377007638  0.2837068590488012
  0.0011872740819356  0.4294850139461862  0.1436247096887671
  0.1393724733507474  0.1447376112846795  0.5751775002333973
  0.8489885455551013  0.2903546543354034  0.5613228494908726
  0.7865697914382376  0.9271119990004772  0.3541588843334203
  0.7893842042830528  0.9297783433184549  0.4990866182891732
  0.0705521411267358  0.3619206942971278  0.9344703953085317
  0.0038954397175253  0.1612174789265360  0.5720365063330145
  0.7846926160988734  0.5010068720290175  0.4964924753860677
  0.0027948801747081  0.1467904713593767  0.4245462831891371
  0.7852905472694856  0.3584707975033761  0.3535274095441635
  0.8585102380397555  0.2875635774419235  0.2829387683172906
  0.0738645871469220  0.3582432690371914  0.2136822126481467
  0.0745551825989637  0.3597897376338089  0.3533313620211816
  0.8541514233148096  0.4327978840284099  0.0038193384276334
  0.9270890885638298  0.3600961517359413  0.0734504151223340
  0.7850428110523024  0.2151242820421816  0.0732603724843332
  0.7142713855208744  0.8557053107077414  0.1428505434722874
  0.7132487754668079  0.5733900811929978  0.0010360276162534
  0.7867867798557019  0.9270874711298501  0.9282459862116919
  0.7856665509595129  0.7837732235943271  0.9285313857555016
  0.7140566541620659  0.8565207771160399  0.8567941282667206
  0.1449818260270358  0.5703284170673486  0.0002174418220112
  0.9304296741987950  0.9167972580355783  0.7890918796758041
  0.9916182516181521  0.4373568592355334  0.8678019544594130
  0.9333840027257646  0.9163898063891448  0.6416726265961882
  0.0945307106693248  0.3680437561323956  0.6196330402702070
  0.0099042993091719  0.2951660468871553  0.5514728396923377
  0.7143890198177772  0.1410852135239940  0.4236466760902792
  0.8587120303482862  0.9986153649643804  0.2833997707443293
  0.0027675704497907  0.1436391182910272  0.1450653245489864
  0.7860293431693953  0.2148674279090970  0.2136480653990833
  0.8580357743883127  0.1426677038149549  0.1429902524315017
  0.8567130889315143  0.1438878108324075  0.0034514779921076
  0.7122316404896054  0.1402347846011674  0.7175327726466679
  0.7829738006441831  0.0676966146674357  0.9320546736964550
  0.9300800422718971  0.0708074288450567  0.4825710879252166
  0.7895116771480241  0.0710526318520847  0.4950770969427792
  0.9784784396555859  0.2845357975416249  0.7344175544337971
  0.7140392470761416  0.7137688102528172  0.0000106700661843
  0.7865293268942278  0.2132851438812349  0.7904486210144374
  0.1457876988577996  0.7100413470516935  0.8561425036542496
  0.6419200016333008  0.5023250138390883  0.9291676677504324
  0.6429108577309048  0.2150617331482993  0.7860310077226199
  0.3581196845207036  0.9271485592138896  0.0713739169939824
  0.1451514384200553  0.7114015605861201  0.0008502390860399
  0.0717858743728456  0.6391874459297059  0.7845184417995813
  0.3600731411743361  0.6417985159434907  0.7840463891756388
  0.3603149135972657  0.5004795502387411  0.7836795865220749
  0.3592745756798913  0.5011027778736912  0.0714065080311279
  0.3601045073812090  0.6432619186282239  0.4982150352495518
  0.2908230437110208  0.5735462662012015  0.4247306956578932
  0.4314578358443554  0.4297768247197846  0.4259924249869064
  0.4293577963658801  0.1419332914626350  0.2842710713691398
  0.9231606740018962  0.3626027175288553  0.9367168579755024
  0.3597439101385720  0.5003957747559115  0.2136390517576917
  0.4321880904710803  0.4305618738167545  0.5677780764702860
  0.1454230446016973  0.5700803194298252  0.5685663034548996
  0.2155896288986312  0.6403741515935648  0.6413507205477437
  0.2878713369186179  0.5708736245070007  0.8556875981949643
  0.3586091343857731  0.3567061917935546  0.2136586526269333
  0.5710424423532259  0.2859290305691932  0.0008031059746641
  0.5720901400930212  0.7138904590886330  0.1429958721314687
  0.2877238143233349  0.5707654017006049  0.0003249589047701
  0.4324345235841799  0.5727082198856532  0.4265719668131121
  0.2176523759223168  0.5009452159408373  0.3543570239381330
  0.1440219883290036  0.5716492802066750  0.4259787316621327
  0.2170650506416981  0.5000583815015945  0.2134081196593405
  0.4311142503288498  0.5724469029687865  0.2855676819813878
  0.2879060944680397  0.4291557402936668  0.1427374498105012
  0.2213770262466568  0.5047516265860800  0.4928399199105625
  0.2884445162091906  0.7132918758101299  0.1435167508882397
  0.1458885644058493  0.4294357017523429  0.0018173436413169
  0.2879135048293240  0.7141187765003801  0.2850075265577550
  0.2878997801718062  0.7138429856697862  0.4270182492388019
  0.4285919196342045  0.9983708520690737  0.8557923935531632
  0.5708203747146642  0.1416471787777873  0.8569924012952705
  0.4999098176682361  0.0704131614251975  0.7848094995167958
  0.4300845345670691  0.8560906146073365  0.7124638951606986
  0.5721133589218537  0.9984431189331038  0.7126884109113168
  0.5020182657789418  0.0701255124286682  0.4995312834094681
  0.4305109701170593  0.9988416831059167  0.4274656966119523