 B Cr Fe 
 1.0000000000000000
    20.0899999999999999    0.0000000000000000    0.0000000000000000
     0.0000000000000000   20.0899999999999999    0.0000000000000000
     0.0000000000000000    0.0000000000000000   20.0899999999999999
 B   Cr  Fe 
  14 206 480
Direct
  0.0699805233712017  0.3322022928941753  0.7106361306000226
  0.9476288027051819  0.0677597244250105  0.5779077271664745
  0.0722635425002337  0.1414648767236802  0.6531641070148863
  0.1254038122173547  0.0752031336160416  0.6523325594340651
  0.9777794599450694  0.1541149037738357  0.9097738181289787
  0.8050515161929155  0.2155831711106913  0.5849558699908139
  0.8106964881805565  0.2747326634748443  0.6442012440270165
  0.1360155571072063  0.3376928580547875  0.7756529679693610
  0.8936744851541462  0.1968554635691397  0.7260696363486165
  0.0735327460940576  0.0752809628028267  0.8466453543969025
  0.9670314778264369  0.0651485099672719  0.7268448721220065
  0.0032324084101215  0.3307786736563810  0.6472513505851208
  0.9306215594577923  0.0126889363858172  0.7829788898358356
  0.7978787553069309  0.0935660462024823  0.8452354973223768
  0.8615773889827845  0.1377669596385215  0.5565578234042957
  0.7858988898553785  0.6422848523227959  0.2146497579837909
  0.6416734754432034  0.5017457727743314  0.4989502237408949
  0.0665887091996679  0.0720852390834037  0.5013300223210267
  0.7149296942595570  0.5735944619500812  0.2857833538087560
  0.6420451218096439  0.6435895619331765  0.0715030637912830
  0.7866027783622266  0.5036653705484527  0.3541518157302141
  0.5728674189149436  0.4292554476548051  0.8569029761311948
  0.6446758421664031  0.0702393882271104  0.6404415925542202
  0.7886327342278917  0.2172181375409500  0.4840687008022452
  0.5715634161694857  0.5751597596898768  0.0007254894228275
  0.8575067006147253  0.7129086726351787  0.9998143498500085
  0.0648371848119785  0.2417946161658220  0.6406557086607136
  0.6420022385868339  0.3598154023215853  0.2137442025785242
  0.9272434568372941  0.2198571576207185  0.0776424542832576
  0.9311342587138829  0.3616222373541306  0.3541771936941321
  0.9231086612607471  0.3678020292688819  0.7958719009949934
  0.8583829418390249  0.7110478545613049  0.7136459630606919
  0.7138237551453208  0.4311457643668654  0.7163045218183780
  0.8589283255906881  0.1440721262625272  0.4220601012384511
  0.7141466514564602  0.2873068751109343  0.4239960051720265
  0.9293890412970668  0.2141138798672303  0.2165941847511640
  0.8572745647388242  0.7119667711553749  0.4264451821849527
  0.0012541966599102  0.5685641997988042  0.5706099581570692
  0.0019517049537030  0.5716888717748532  0.4262158696812614
  0.6404880030239903  0.5034394913187198  0.0733877018788946
  0.2181752589383273  0.3596360817501978  0.4957733612205319
  0.5719851360920454  0.5746542941591827  0.1409273419097386
  0.9299362753976869  0.9251857489873581  0.0737612922944660
  0.0730500015069638  0.0712416315364792  0.2161053402247416
  0.2919416340594613  0.2881030815683580  0.5631844201174977
  0.1453960988809035  0.8533294540273604  0.5704936391472774
  0.1439051787738442  0.0006404550881619  0.2857478144582947
  0.1478899134641014  0.2865136184432437  0.4250915670300762
  0.2923894462780476  0.4339268581452241  0.5664097622953340
  0.2857069971638795  0.1439949593597179  0.2864307381553542
  0.0009844432183195  0.4215662161411438  0.7077914848480846
  0.7229389061612949  0.2854523147734292  0.5720256196379448
  0.2156389809812311  0.7860314484006339  0.2127395902655801
  0.2166854458430306  0.3569403789942404  0.2127050848920513
  0.9985780422633503  0.1595666650014353  0.5733038216703518
  0.0741000835933720  0.2192925790691463  0.4974074341066317
  0.9295584164720995  0.6403640507971281  0.7859094885090795
  0.0735888012756135  0.2164783785181651  0.2157795865967090
  0.5720215713696917  0.4299724177341625  0.1430675911442612
  0.9301614570998346  0.4979246355418008  0.6422683550658768
  0.9260013230072909  0.3609000537015886  0.9360514997930478
  0.2172452359099353  0.5001213362213663  0.0716980397600300
  0.1458726108773306  0.2857557296079745  0.1463569267505836
  0.8559155857834477  0.5724398749283457  0.4264148288226333
  0.9315701103823896  0.7827429417716762  0.2150076777448219
  0.6422413317407594  0.7842548499025940  0.6416461289628391
  0.5016187185626586  0.7843309884611243  0.7844804448319288
  0.1467223568341836  0.4304001442564263  0.1440241949044336
  0.0778601458869020  0.0833154930813334  0.7499175196805322
  0.1509531091417359  0.4378125788578491  0.5628145443640754
  0.0722841760349256  0.4996814903112363  0.3566135744730433
  0.0011982901650817  0.7128460848380287  0.4268173049975910
  0.5716467780051496  0.5718339542190752  0.4274665119453451
  0.4990357307080539  0.6441106286195412  0.9285411667878629
  0.6431089593744086  0.9275106085926540  0.4987144045948528
  0.0018535711801074  0.7133570190905661  0.1425217886696679
  0.7156965339479524  0.5737626013691218  0.7146249089719462
  0.2190084678454310  0.2151934961992938  0.2137650870133768
  0.1376866828773213  0.0028414061635550  0.5729842679132794
  0.0732562213484906  0.6417290277548831  0.9279012341648557
  0.1513580287434108  0.2849833185752764  0.5628361516483200
  0.2170811762606157  0.2143535028786690  0.3557110468077309
  0.1472158726173485  0.4308647095452355  0.4243070995927127
  0.9966748783435794  0.1491924574253495  0.0145041378474434
  0.0018004177291854  0.8536191862210453  0.4258492503080867
  0.8598231557178381  0.0061882990195423  0.8582563567197170
  0.2170180512070539  0.3571879362032961  0.9290301824346352
  0.0730060235626211  0.7829164588974966  0.3566460290256801
  0.5027522035769721  0.6442171753996527  0.3542531010182309
  0.7865955892025075  0.6451684720442642  0.9276805418051676
  0.7872179434919758  0.6443087160437111  0.7858306417537424
  0.5739510779801179  0.4303851255279832  0.5697955350837669
  0.2873361118488673  0.5716531945769863  0.1418367042646702
  0.7837838152846501  0.3609448046793953  0.0742427805489330
  0.1440584286545642  0.7123192829717295  0.4275698553646674
  0.8527294435428625  0.2921826274308111  0.0080152460096270
  0.9208016688315258  0.2336984713682517  0.6303915689735811
  0.9265333472137587  0.5053213284046081  0.9315470240122625
  0.7121648827260010  0.5743589906657959  0.1429475223603460
  0.9302579379701169  0.4997751987944479  0.7847719563663400
  0.6416819470942350  0.6416476641590508  0.2150198051438196
  0.6418852876848179  0.5035061258490507  0.3549569428931930
  0.9305798997910985  0.3610732547333108  0.2147293026846578
  0.1454818998924063  0.7111335185383525  0.8565165251887686
  0.2139321479042604  0.6418815739215374  0.7842204262096432
  0.9987277909716060  0.5720727968989624  0.8588207101078311
  0.0011831633883355  0.4295191024972540  0.2849248318203035
  0.0002792509717262  0.7139773452829790  0.2865424706854058
  0.9941048191019232  0.1637860685651445  0.7178919998395736
  0.9975816655914008  0.4244423957781309  0.5722892828436625
  0.3590326761854366  0.6438708480231059  0.3551464804441056
  0.1424234394609082  0.4239819303457835  0.7126624955662868
  0.0678761676977207  0.2170871584651957  0.9420025969379545
  0.0716978574125898  0.4968256103606012  0.6397304093991937
  0.0014811529517147  0.8524028905653518  0.5664605273357706
  0.6427372873537902  0.6429514540046117  0.6416243898587852
  0.0006086868876686  0.5676374071983930  0.7123392296296935
  0.9281067075507582  0.6434869024360148  0.9280694795144555
  0.4988779414910472  0.6434673215616608  0.0701485071094776
  0.0697104967886418  0.9212689433422608  0.6357688850435831
  0.8581059794923055  0.7107987440415789  0.8570046195917594
  0.7140411059733976  0.8570117707035180  0.9993926143209729
  0.9303506631687282  0.7818665909574900  0.3557206845919949
  0.6438683836562731  0.9275539941612356  0.7841339565022029
  0.0016656203571247  0.1451911035004649  0.2851067986014216
  0.5737279010458572  0.4324248183034178  0.4267853380117189
  0.7151174756929177  0.7139609853126736  0.8564781942262185
  0.3592369566568779  0.7832015240504527  0.9281286656093617
  0.8593279981902142  0.2898001259675843  0.4207100901552354
  0.5008090329049577  0.0700330294875486  0.6397010585525512
  0.7954242911942364  0.2012625035252863  0.7976545952714059
  0.6453164337041908  0.0729973807593181  0.4986913597164018
  0.0031367534326165  0.8492794543206822  0.7137011547857419
  0.0059918576828257  0.9868347678660643  0.8591197521562040
  0.9297472525088887  0.0728460403734558  0.3526892361179286
  0.3599097511656974  0.3581939457686188  0.3560502151525082
  0.2133482339026398  0.7849534395710192  0.4975573811017591
  0.1450007596646367  0.8551437612362650  0.1440649324616475
  0.4288541712126526  0.7135431094371414  0.2864925860531880
  0.9964694688168988  0.2887709990637237  0.8696856940673170
  0.2891430000377872  0.8540873098370907  0.1434498554792854
  0.5025702403995100  0.6434101941901049  0.6419004602177445
  0.3583315874850171  0.9275535298406821  0.6408047461452403
  0.6454432350416451  0.9285773684571954  0.9289334634630487
  0.8594696519463970  0.1437816217256842  0.2846333064602019
  0.4287330267486081  0.7153235929645262  0.1418758920105285
  0.5711705473003384  0.1419230190274445  0.1444044449284647
  0.5717262414864995  0.5725381598397630  0.5698791072355629
  0.1410720025108701  0.2841260047736648  0.8669712246060012
  0.5034097304294129  0.4996883942307150  0.4984194272769327
  0.5016940250941507  0.2144091700320079  0.9274330387313154
  0.2153637054604051  0.3583339955322535  0.3558161021627055
  0.3600770325481841  0.5000694991943264  0.6417040608480634
  0.2907487741445527  0.1420764836788861  0.5651908297012295
  0.5727040307309479  0.7139435297915706  0.2850208271616295
  0.4303657065423265  0.1426477397816761  0.8567718895797428
  0.2171686853994370  0.2157887853534872  0.9295497485190475
  0.3603171272323166  0.5014780282329316  0.4966045635712215
  0.4302961488842766  0.1432239113672520  0.4275113778277522
  0.8559957060905166  0.4336096237512453  0.7182148558204590
  0.5033735396307746  0.6426330772324885  0.4996547508027074
  0.2154914828445752  0.7835783684552636  0.6421234328023051
  0.3575059311715052  0.0708437699034104  0.0713305974306369
  0.6441958340666976  0.2155136433400617  0.3557615724629755
  0.6420545354291786  0.0715748835156541  0.2127904467827140
  0.5010356745923602  0.9283543651655773  0.0720196647740174
  0.7168495817258669  0.2835407982963262  0.8577888512152361
  0.6425485433801424  0.9267504588405210  0.2139796401401386
  0.2873808617601331  0.1419407193319421  0.1420764724705483
  0.1395532231130491  0.1463995496448776  0.5713489000435209
  0.5010168009824156  0.0708270664906544  0.2127213437411841
  0.9760289241988586  0.2827409538554870  0.7341419355443050
  0.2869075674412448  0.8552569950867730  0.7119874259638928
  0.1448606983703910  0.7109057001414668  0.7120376864507396
  0.2255780777586340  0.0727170987490217  0.6372819359358652
  0.5735386069058546  0.2861471369395728  0.7142824830877571
  0.4295533716209979  0.9993172842346482  0.5706476628819669
  0.5011993031028765  0.9281265204252913  0.3567161527715826
  0.5727559785734641  0.7126652689961847  0.5718187486873554
  0.4301117416377759  0.7154425849871385  0.9987609217266573
  0.3571809902423314  0.7845193045448663  0.7835166108839546
  0.5011163695158685  0.0707357018397866  0.9275256154413798
  0.7875102076726653  0.6424053368549286  0.4982009225090653
  0.0027297805606132  0.4305892319797205  0.4243924397755047
  0.5747160513041413  0.0012992788940634  0.5691701673946609
  0.8580736418070458  0.9983239728717520  0.4230186986405464
  0.5718448890506115  0.9994609637947072  0.1450669811621713
  0.8581910779169365  0.7133083126011792  0.2849338783855134
  0.7877761153984576  0.6432144176997630  0.3556741592673645
  0.5708063608182643  0.5720094288569703  0.2856995482954484
  0.9284246404653117  0.6424053575612736  0.3568873185189181
  0.7138996564693634  0.8561862606674208  0.2845097605828694
  0.8564705150860420  0.5729085739194739  0.2854814046684707
  0.7091513642767208  0.9895180207521793  0.7067313136890711
  0.4312242171081409  0.1421912919705789  0.7112711294721453
  0.8572333100968433  0.5733014140512953  0.8571968330404923
  0.2854029240137400  0.2877644304414452  0.2865616709810228
  0.3587119986650756  0.7838623395627782  0.0707951960290280
  0.2881600850171187  0.7145201468347274  0.9994033112146655
  0.0710729629272964  0.6411435244106176  0.4974425985091490
  0.9291328375254062  0.2153759287610663  0.3542263146700716
  0.2867805032522084  0.9994916213234474  0.0000338390783601
  0.2174357012355133  0.2140498142690816  0.4973858578553140
  0.4299959371843617  0.5735821770208500  0.9991254276263583
  0.3603576780331984  0.2146933159791068  0.4970315099741033
  0.2870927089728553  0.2871028639026402  0.1438236632183600
  0.2887176180278883  0.2861798760263146  0.8604375338905736
  0.2857498659472192  0.0002506513533113  0.4285784327889873
  0.2894436976052304  0.4305771328067665  0.7108529708040845
  0.2162794039989603  0.9292046971793620  0.9285191297940967
  0.5729026203313796  0.7138495168643062  0.7121935036405542
  0.1454167954603189  0.8541847535196815  0.4263988286260518
  0.4310392043908615  0.4314869526984952  0.4269433959868091
  0.4304929518180596  0.5719334700928409  0.7121820389704235
  0.2167017374015447  0.4985387866592788  0.6420801928691604
  0.5018284964578820  0.5009908947195654  0.3567746875866900
  0.4289341793760557  0.7156228777083267  0.8552723474485178
  0.3599400462370812  0.7843702386638841  0.2137153861123130
  0.8753563545946929  0.1055874639558841  0.7710777022070640
  0.2865196009678900  0.4290608148473570  0.0001359300676663
  0.0273128295112655  0.0537473803920700  0.6399490525763648
  0.2860034110650618  0.8558876102468490  0.5697671064077821
  0.2155531709067982  0.7845268893005574  0.3563621483940376
  0.1452174286191628  0.7135722084375283  0.1429133360267912
  0.3600688333729078  0.0705852683207180  0.4974105185473885
  0.3612030597469035  0.3598820574618694  0.4966087558275076
  0.3606741148084003  0.0712616398805418  0.6400121063498319
  0.0726580188946164  0.7818297296470942  0.6400292185539100
  0.1428429769948633  0.5678592083260052  0.7131618795987964
  0.2295464908690227  0.3567861622089712  0.7869350919946764
  0.2154553251527180  0.4976529422816187  0.7835706471313232
  0.2147583147749296  0.0715927871892439  0.3572927150966500
  0.8575919842073704  0.7137507862114574  0.1436867779938353
  0.2134351280765091  0.9290163571696027  0.4996954705260867
  0.2157895163314452  0.7829762703985189  0.7837181521392702
  0.0731224655417822  0.6431860382476206  0.0720624376980480
  0.2171288762451688  0.7833141135962781  0.9283648866809380
  0.2168526466177265  0.9271189290731260  0.0724816725781035
  0.2155343707749505  0.6418040058226967  0.4984511362929669
  0.2160420347986224  0.0718819658743677  0.2150575048784906
  0.1448949420315483  0.8554445971293930  0.2849830450344346
  0.2147328764231188  0.9287513641788644  0.3569339003683827
  0.9298883374897459  0.6404597538855196  0.4977003756922778
  0.4294187406774554  0.8561958241034986  0.5705136427363529
  0.3611751732640425  0.3590726609348137  0.6387774806303120
  0.2875783563430960  0.9989503894952670  0.5687781323782327
  0.0747771830995326  0.7809189952340290  0.7848887361964564
  0.2870294676710696  0.5712061111072047  0.9996279330532866
  0.5005610797928844  0.2137078810798440  0.0719740503758185
  0.2878270804271378  0.4292113046206951  0.2852873686399369
  0.2149175934163163  0.9264760355101958  0.7836243339963386
  0.6423461740231833  0.2144180550430223  0.2143321785515683
  0.5002074451403283  0.2141104707213573  0.2141379355116353
  0.4288882480426366  0.1416523988328824  0.1423440130451366
  0.0784106326737193  0.9168936275921610  0.7884162350837476
  0.2894946879603059  0.1450954240767648  0.7117886068410296
  0.1450991455492678  0.5722373029204727  0.1425473361110269
  0.0735611213656338  0.5003747396174429  0.9295451241574296
  0.4293757291845250  0.9995285434747712  0.1424326731694711
  0.4295466132336334  0.9995879277143350  0.0002826075888658
  0.3578747784009615  0.2144001732395294  0.0721199646703638
  0.2162723791546013  0.6419858055002903  0.9277177973921038
  0.1445410259915572  0.5717302145441261  0.2849832154122079
  0.0742151389787154  0.5009632196265300  0.0727693286229557
  0.3582877469820948  0.2141318633221933  0.3561266164917343
  0.2872698100274210  0.1431030013855046  0.4275357560311105
  0.1439742584039156  0.4240231618502587  0.8543704247523194
  0.4314271907980847  0.1425302803866957  0.5687593804436575
  0.3616484126142168  0.2151296944702810  0.6384796674757287
  0.3574092464453323  0.9272164894994439  0.7837302535086644
  0.3606969325995589  0.3580626353650151  0.7842846081910656
  0.2152172195544749  0.0721953774966386  0.7785775131193852
  0.3579648636490750  0.0707637244219148  0.9281181827460953
  0.2872046429875507  0.2863684071112796  0.0006490256707200
  0.3581956593923630  0.3581368294153905  0.0714712356313393
  0.2873609753130612  0.1428963195238753  0.0004457723346724
  0.2170505480029473  0.2154691890396738  0.0737126341001370
  0.5715186274116038  0.7142817560616881  0.1421438040464584
  0.5717928776583511  0.2861630827805791  0.0003043378652799
  0.3573512899992424  0.0719759167982187  0.2145334128761773
  0.4305169832584169  0.9992694470977617  0.4271943310700750
  0.5015553595746557  0.0710746813979505  0.4986679963419303
  0.5716394789108629  0.9986919676122719  0.7112939768491974
  0.4294128692867675  0.8560608126365751  0.7129671399364542
  0.5011689975369463  0.0715543260196271  0.7840219674279821
  0.5705094505338023  0.1418953190806787  0.8577314612566677
  0.4295571407625490  0.9993473634521230  0.8557553087924757
  0.2869692081596938  0.7138033699541623  0.4274085245349833
  0.2875092958080379  0.7143994164595915  0.2842751283631696
  0.1457425982620480  0.4292501692007635  0.0012277917842717
  0.2878208903642560  0.7145553714165964  0.1429990523622039
  0.2188114229193957  0.5032198736519616  0.4958919540663223
  0.5008983013375929  0.0712779038114504  0.3569781471104774
  0.2875561060762520  0.4296368374142395  0.1426805938693087
  0.2167395398012199  0.5008346236783069  0.2136135467135971
  0.1436676142139991  0.5709437829435862  0.4270787877690077
  0.2169998689567213  0.5014230128701057  0.3553663839014130
  0.4317439710507757  0.5729702440374574  0.4272203575849372
  0.3580911903272153  0.3577287382700256  0.2141406499507517
  0.2868185155136147  0.5712773554104056  0.8554806031051521
  0.2149069845886777  0.6406052811047647  0.6417720352810978
  0.1438544157527365  0.5712687175919940  0.5692339332654522
  0.4315396705474265  0.4307232857057395  0.5688825934520739
  0.2245948295065586  0.3659468677570371  0.6310117793930475
  0.3592049134365946  0.5014945309048774  0.9283289274990493
  0.2894929276905469  0.4299689435878207  0.8575173395576138
  0.4303408874442348  0.5727842091924483  0.2854970776234646
  0.3578839461335775  0.7847805248042947  0.6419174767904956
  0.2871052095178401  0.7134175814696598  0.8551789930629315
  0.4295506076708407  0.8565641914505938  0.1423534017101151
  0.5011228315217884  0.0704477661351973  0.0721541806430175
  0.1450246675309299  0.7136604234731435  0.2846061937326830
  0.3575186583624840  0.2143869134181978  0.2146574187344660
  0.2866903453317443  0.9997676011385713  0.2854953151562945
  0.0015772665244303  0.5717737357276456  0.2851454286699486
  0.2913810049075289  0.2882386142552805  0.7085559965415239
  0.0780650989978165  0.3618885505010088  0.4927254424403418
  0.4299798221648319  0.1418565025923231  0.9996326594929913
  0.3583193563567386  0.9284748750594481  0.4987764825492610
  0.2884200412788395  0.5721812420826894  0.2848867069280848
  0.2865938504540494  0.7129494661757177  0.5702527129236319
  0.2864847991647588  0.7126692215199070  0.7130896907089589
  0.2887605912180855  0.5716010867266839  0.5704099836334198
  0.3589783900136030  0.2141660290298673  0.9292150822645565
  0.4310758008501679  0.2857765309444213  0.8568997474097189
  0.3586052318192081  0.6434670833914615  0.9279987658624861
  0.2877887648472771  0.8562451286000725  0.9991306420962219
  0.3599522980543671  0.2156632007802336  0.7840975989001281
  0.2874814253505809  0.9997102226353203  0.1426513847102003
  0.2867585002969902  0.8559129254093292  0.2851527448099084
  0.3575244292187833  0.9286423975794541  0.3569464290886551
  0.2204212739415071  0.2221141456459330  0.7854412762081492
  0.2872676499499477  0.9986924672574302  0.7114812168014114
  0.3593008978167240  0.6420739349166443  0.6421886161725427
  0.2885719713709196  0.2872146948059310  0.4257592528655640
  0.2872886487007362  0.8553579600581627  0.8565895820791126
  0.4300934254630609  0.9995800125485936  0.2851334663342200
  0.5003450301049266  0.7845603175045367  0.2142663535562821
  0.0639160949399608  0.0797861991048211  0.9401130703939535
  0.5730942173771257  0.9990803565722174  0.8565135665026656
  0.4297372393942261  0.2864377194278240  0.2856566749860193
  0.5007538741017665  0.5022820619822256  0.0711513428980637
  0.4294827490553385  0.4298436616282507  0.1427491708202206
  0.1441250578166089  0.1441059893914599  0.2854474556217729
  0.4298931651135586  0.2854399339263916  0.9999113888804194
  0.5011393000688771  0.2147361363025800  0.3565646104974164
  0.4298457935289497  0.1423367619902479  0.2850117751801698
  0.5721621893837859  0.2869175232572377  0.2850350121907269
  0.5740602160065271  0.1432269494671639  0.4275102419869566
  0.5025484655935174  0.2147980145542837  0.4981292045620024
  0.0753152600798984  0.3599734420944134  0.0757018331958639
  0.8580029455138316  0.4311085353087955  0.2842029383921333
  0.5014723421933155  0.5017081428963654  0.9284233283456498
  0.9293760330340702  0.5024664591112955  0.2148728943883931
  0.5026318270848212  0.3578970563254874  0.7847703485030154
  0.4302537391986720  0.4297845224646524  0.9998105665831529
  0.5016251368642838  0.3583825266406757  0.9283320187570344
  0.1532703108124984  0.1446924328432696  0.8544529962711197
  0.5007358555243366  0.3585346001422575  0.2140406561588779
  0.4302223202054991  0.2866304151851421  0.4269187237671256
  0.2892250982826044  0.4296869839755663  0.4254105193471063
  0.2295206963642195  0.2148364442394607  0.6300712953625692
  0.4319797091773990  0.2871312341127641  0.5680006894596755
  0.5032236784614090  0.3581340674496075  0.6403326524211368
  0.4316287567921289  0.2865959981816191  0.7119727705412233
  0.9282912372432152  0.2185248178973671  0.4913660501558674
  0.2172965590054939  0.6428387550708987  0.0710973348002297
  0.5018121631374125  0.2138546201300877  0.7846567935129705
  0.5024242482707560  0.5007432264524743  0.6416263867457892
  0.3585589743872626  0.6434700959573898  0.0702633997998823
  0.4314519821072837  0.4295018488331322  0.7122947065235925
  0.5022300070854373  0.5009751967233923  0.7846409361042870
  0.1452489441208359  0.1450894067220181  0.0037051249933443
  0.4302074833451405  0.5725306924980749  0.8560875281312558
  0.0730336601725259  0.0719434083828491  0.0746100759943268
  0.2166475050618353  0.3583639209250706  0.0730631637567895
  0.5719850905604269  0.5733742900440457  0.8567686576068453
  0.3598657657787703  0.5012928537621011  0.3556799538268713
  0.6430401741776715  0.6436884670029120  0.3561243009182502
  0.1456672663936924  0.2876687068721068  0.0034290015378741
  0.2155314061117311  0.0714546815413767  0.9294193407758442
  0.4311497904507092  0.5713886235233943  0.5698399364992008
  0.5006956061859459  0.7859072803370762  0.9272516995094995
  0.2869157605431044  0.5707245002588214  0.7127308194671748
  0.1427148160194645  0.1438709404974180  0.4286018173702347
  0.4306281525105778  0.4297054112984193  0.8565375882800380
  0.3582847311477931  0.7852484037404703  0.3564905837566050
  0.1582147926321099  0.1605895430247069  0.7046867458020993
  0.5739772170172561  0.2856962957921741  0.5680535194185237
  0.4303607894582833  0.7131213404464826  0.4275283109704128
  0.5011151270917258  0.7845429971556513  0.3559271846537090
  0.3580658746020576  0.7851092131316468  0.4989381348927390
  0.5011593876966165  0.7849259551896438  0.4990931588024246
  0.5011485523320411  0.7848275452030200  0.6417562266607519
  0.0728391776961029  0.0715281755243668  0.3563176033445547
  0.4293621281534657  0.8569528138750053  0.9993703551912383
  0.1420332542394646  0.0020721069555221  0.8540426712135555
  0.3592568616339878  0.6433552240185698  0.2130796956223213
  0.5011979058964136  0.5017602797775574  0.2127345060426951
  0.5017622044844195  0.3589575958318661  0.3568005159115980
  0.5739176388094405  0.4288714636998229  0.7131732123544746
  0.7823419790070320  0.3629446646416211  0.4921372766819800
  0.7145032635361585  0.9977980972537128  0.5671532356462335
  0.2156138741359928  0.9267581458536830  0.6390352288970732
  0.5721081764255029  0.1422897255283050  0.2849039930737082
  0.2157613482700768  0.9275295579438886  0.2139544588534826
  0.4298663496904380  0.8566082766322975  0.4275569670105168
  0.5015567093312461  0.9290694157150664  0.4993819585799824
  0.3578804616327342  0.0715522464866634  0.3569849883521325
  0.1447205109226590  0.9998240658218758  0.1444211419432194
  0.3575303781734033  0.9282116253140197  0.9277567483727411
  0.5010004690660369  0.9280527987837781  0.7840779781530921
  0.6443971075928602  0.5012893516843203  0.6427110006959535
  0.4290698307878245  0.8559393254294922  0.8555049906714828
  0.7135123522579969  0.9979816882833294  0.0022349826089921
  0.6416778848125148  0.0707297161317381  0.0730132369721425
  0.6424738644298433  0.9275240582477182  0.0721849093395740
  0.6421444125067430  0.2144963250110813  0.0730508206319696
  0.5721847863166092  0.9998170647396502  0.2847667679456616
  0.6438501114524661  0.0711680030490833  0.3556528991001055
  0.5736456991733311  0.9998969946939956  0.4278379628195957
  0.6405235940971280  0.2178457332857147  0.6393297736005688
  0.5013523849935051  0.9280613820120944  0.6401456003593735
  0.1465502696199865  0.8552397420953948  0.0007235534751249
  0.8557819242132655  0.8541992389414284  0.8591739374415679
  0.4300228569129399  0.9988529650507848  0.7117554347615688
  0.1437197701339529  0.0004547391295867  0.0004759483796489
  0.1476403001089861  0.8533034301239067  0.8585804333745293
  0.8559397808857933  0.4331281312307304  0.4232129379193731
  0.0751680029029770  0.9258806224511008  0.0740106473974674
  0.3580630475921250  0.9279709754022638  0.2141129439626847
  0.5714785791242573  0.9987629214919358  0.0000566019955361
  0.4297369030202780  0.5727893423647181  0.1424394320881681
  0.6452474344549601  0.3574719175873761  0.4994371654677252
  0.0769476385726902  0.9221585205056957  0.4954402032111853
  0.5739378598922842  0.1422294798897611  0.5694491610761910
  0.3590574415713846  0.0713922547220578  0.7832017507620371
  0.8705678585549247  0.1424558284185006  0.8878942784171253
  0.5007178815529147  0.9281613549561718  0.9276379261319829
  0.6429025364540126  0.2143684939511226  0.9290768862574950
  0.5718979095639452  0.2867611059699285  0.1433950086587255
  0.6421487624805697  0.3591619990611103  0.0725442108496559
  0.4295647498122820  0.2859119331398101  0.1429505214231604
  0.7851765917722657  0.3604890852410382  0.2148341039195131
  0.1450203465359376  0.8529274826962453  0.7104859810779582
  0.6431799512462019  0.3593473581706341  0.3557475287154476
  0.5737349622427257  0.2866031587947634  0.4270425342032791
  0.6470055495027661  0.2157080133427841  0.4987833774068215
  0.5007857453277142  0.9278951607590080  0.2140403202868530
  0.0738621636661371  0.7829891699172983  0.4975607749532660
  0.5713713057773463  0.1421198437490582  0.7114767853851122
  0.0738960529950046  0.9264342509150524  0.2153098573103979
  0.5720678887827907  0.4305765556992849  0.0004850385664425
  0.2170775029511115  0.7848661266420657  0.0717909403044886
  0.0019567168933678  0.8543210219939578  0.0017202053559359
  0.5720304532249477  0.4301372440823917  0.2847234695491993
  0.7129919783992538  0.4329497524435328  0.4245360927905993
  0.3590895899123095  0.5011193645239441  0.2134332720938180
  0.5019592196878817  0.2149425441205685  0.6405349697430797
  0.8557663299132312  0.4319292442102347  0.5666867832507966
  0.0015487718552099  0.7106985123440708  0.7135165888271155
  0.7099675008150239  0.1412623715071268  0.8576299570729123
  0.7206716185337007  0.0052767284078100  0.8545011779458130
  0.7134289269083719  0.9985457084550838  0.1441833269776862
  0.7129599230231947  0.1432926384788751  0.0030658827605035
  0.6437865349773544  0.6435816143103934  0.7850231094747719
  0.2859356737169882  0.8567960202799706  0.4280863682831091
  0.7839491492604916  0.5033558043357211  0.0731775864675010
  0.5720564571234202  0.8576407229951786  0.9989735478774603
  0.7138948871686848  0.1430746738398691  0.1445357995648049
  0.7852702149632573  0.6443860121593079  0.0716493313188270
  0.0721597747633277  0.6400669229204921  0.6415193846982560
  0.0682149516734424  0.4968011796291031  0.7853251513346445
  0.7869367796708030  0.0707499369503089  0.3548249026717424
  0.7237957428107777  0.2804584667811741  0.7142446215900046
  0.5718714097197436  0.8556753453123461  0.5695012454197285
  0.5717719781379825  0.8569209593262785  0.2851785051004258
  0.8535479089966795  0.2893234300184467  0.7331937087740327
  0.2155093239867707  0.6429102609400862  0.3559402039349090
  0.0024925466612026  0.8512144076940221  0.8590415517518747
  0.5009027990448843  0.3585412580656684  0.0714994844063260
  0.5005105156100351  0.6445049464758938  0.2138435051908154
  0.6418719970610159  0.5027681252908976  0.2134634815601111
  0.0012315249544223  0.7110744738159066  0.5689612090092064
  0.6438248961802265  0.6427512651785848  0.4990931537179772
  0.5030549141664332  0.3592997177850940  0.4977556358171068
  0.7867155562514242  0.6417170696339184  0.6425628609207503