 B Cr Fe 
 1.0000000000000000
    20.0899999999999999    0.0000000000000000    0.0000000000000000
     0.0000000000000000   20.0899999999999999    0.0000000000000000
     0.0000000000000000    0.0000000000000000   20.0899999999999999
 B   Cr  Fe 
  14 206 480
Direct
  0.0052714838134065  0.2706240300232547  0.7811571643338545
  0.9510294283654970  0.0689051898768180  0.5732090121420691
  0.1483216421054459  0.2272504228370807  0.6522696446121294
  0.2666369081213766  0.1475273093339497  0.7809688048049237
  0.0124776293805928  0.1290309929676050  0.9170605666258455
  0.8689806412777695  0.1924548706331071  0.7032751995024240
  0.2025853814535891  0.2633113647224402  0.7108697636686592
  0.7858808955989302  0.0108918207839040  0.6410724982394987
  0.2709437649417312  0.2081881478400539  0.7200155112157013
  0.0620932941804593  0.0853720867463659  0.8554896481404470
  0.1274244824458269  0.0787386221631323  0.6546750082153413
  0.9696871910322258  0.0705755928451801  0.7227329613154082
  0.9358113609973420  0.0179971695948367  0.7844464819458806
  0.9485425644163874  0.0166822833884663  0.6430574585990387
  0.2146451114379513  0.3582657557176071  0.3578158246662275
  0.5036689098005172  0.5007488831857672  0.4988335644936212
  0.2131176890370622  0.0704364144178946  0.4989013286210846
  0.5711921808346301  0.2864518541207229  0.1423835276735686
  0.4299668887120941  0.7132483390612453  0.1422734017540747
  0.1340185495464059  0.2838083764739596  0.8655717726449003
  0.5721759773723654  0.7140019676334847  0.5690305705397419
  0.5706450801207762  0.5713220138925016  0.5696295231941454
  0.5003604712257816  0.0713073656726225  0.9288087566294145
  0.5012350483812931  0.5002807263657844  0.6417495592570645
  0.5700910476084645  0.1419323473249705  0.9995427826033119
  0.3675940634262771  0.0577605658084000  0.6296091587007143
  0.3580223765568522  0.5005228589782311  0.4972996739193148
  0.5013675341545459  0.2140047286283108  0.4975576190310778
  0.8536650754803256  0.4328634949252530  0.5653087428331937
  0.5021225007330622  0.6428192709808763  0.4990114349607268
  0.1430987089123202  0.7138079109626946  0.5693515344483964
  0.2857733494683268  0.2860280469075667  0.0013225553690612
  0.7122645906623899  0.2897183835223389  0.4261201080564009
  0.5712929194204122  0.1421966768725038  0.2848164303763828
  0.5013528333199121  0.9264459670097032  0.9267732327791270
  0.6420273420983911  0.3580740633286597  0.9285692778506861
  0.8736898592836747  0.1070315014243175  0.7606804182202909
  0.5698875789858948  0.9991271890146994  0.8578790416170349
  0.1413647707346439  0.9942517752500768  0.7126591344096703
  0.5014061411184360  0.7851499143716560  0.5005569069855753
  0.0741614999528375  0.9264063002912313  0.0749912960668547
  0.4296141491421654  0.7161388457223303  0.2856614521270057
  0.0528434360876937  0.2110939957103839  0.6338247816717676
  0.2149439542993020  0.0706879356419718  0.2154214454808079
  0.9606780616083476  0.1068334911608351  0.8300017429492454
  0.5024765332687856  0.9257920208954129  0.4998249082370551
  0.0042401510959727  0.8522244934781430  0.5670507095656451
  0.1385451902868211  0.0051748477127125  0.8533735878640502
  0.0014009118297665  0.9963577137426426  0.4250239964384460
  0.3595330327432548  0.3579543535909243  0.3564181799743656
  0.5714047580802201  0.8560024524341368  0.2857212859319720
  0.5684180524758682  0.1430572670445042  0.7141420126090595
  0.8582739853820244  0.9980749775673526  0.2840530231157133
  0.2154316337095105  0.7844882860722836  0.7841611659598590
  0.1468337015530806  0.9966127674454872  0.1461971853381355
  0.4288650510884663  0.9981901796744298  0.7139813023148269
  0.4348212212291870  0.9941837836212707  0.5659541164130514
  0.3549669842054542  0.0710157510956767  0.7890200798836191
  0.5015924215720882  0.9269316763386395  0.3549766949058006
  0.2135209341484575  0.2171617560569932  0.9342268756975072
  0.4314202732861231  0.8556235562639607  0.5690443961062237
  0.4284654100896144  0.1434186836529552  0.1431783992014392
  0.4315119461799263  0.7107178508668294  0.9983099109993232
  0.4285352026875084  0.2866848055189531  0.2858750010089428
  0.3597110157452236  0.7826800318402342  0.3566543979683137
  0.7145701109519385  0.8574060990923228  0.9990984619252428
  0.8574427219539290  0.1464949692500283  0.5579950646644163
  0.2148178922932903  0.6428250241423090  0.4987959235791475
  0.8568749496625342  0.1450131244707994  0.4216325281968380
  0.2876624477476651  0.9976707749918606  0.0014548086700649
  0.2927632911738406  0.1348254923150901  0.5621787080401650
  0.3586761412872949  0.4991059796211385  0.9256573528933966
  0.5000674462337735  0.6426230308622685  0.0708881912208199
  0.8573735638707195  0.7099905312140817  0.8573631500105036
  0.7869158762676118  0.7839509564504505  0.3556829177605996
  0.0016614679905457  0.1436710587208326  0.2846911084680921
  0.7143724643513156  0.7120241089106496  0.9990186993946013
  0.4296508088968889  0.4292188487209899  0.7126518955184489
  0.8642540925982750  0.9986129556028946  0.7090918081910228
  0.2146935200910071  0.9270163714659493  0.2163526470901911
  0.3579269995846589  0.2175251333650477  0.9320521829164493
  0.4280305690914660  0.5708784960508371  0.8564335971204666
  0.3584586943812486  0.5007939815074391  0.0716664723508407
  0.1401683415491257  0.4326974742142348  0.7105191260939209
  0.2861599012101372  0.7130488088146567  0.8546614470756266
  0.4296306774046060  0.9977894992322193  0.2868034991579517
  0.0725741354820975  0.9228743043364444  0.6398310445966444
  0.5016579481566530  0.5002684776850655  0.3555397255695711
  0.4988182554784373  0.2130199405272432  0.7846591027740493
  0.2132630691739227  0.9237556296472447  0.7841920166595604
  0.1363819749636896  0.0034757005602213  0.5732487085635275
  0.0730838304451335  0.7825254034607263  0.6401168142449538
  0.6417971309991577  0.9281152056979465  0.7865932778217909
  0.5722925949993731  0.4313121091773888  0.4276632860276592
  0.4302229636672827  0.8563167261296082  0.9986880529230334
  0.2855568985300223  0.8558156304312299  0.7139857195444406
  0.2130264745694375  0.9286655966498560  0.4991390872238963
  0.3595050931901941  0.7826989078207081  0.2145269528739647
  0.2867341437048104  0.5700463292726754  0.7134955418372618
  0.4306205574130320  0.1425054786231665  0.4272240785539396
  0.9323576561167367  0.3552332364951188  0.7874127697070173
  0.1464631788170489  0.8528853693059099  0.8565596334095354
  0.8588734092560314  0.5716133839817800  0.8569626956510440
  0.7129850783236615  0.5718621358201551  0.4248727415985016
  0.9293105689630837  0.6442951626611489  0.3551878727968574
  0.7153444558180120  0.9987119129805186  0.4271016933604725
  0.7859933972064566  0.6425271744376893  0.3560111588482545
  0.9276315777057631  0.9239124052513067  0.4956042888386324
  0.9251068813538307  0.5035260753363362  0.4940343539887780
  0.5002051580799344  0.9269693541955030  0.6410851457531764
  0.9296444103287423  0.9288156440583005  0.9303835078874567
  0.4288891032497438  0.9974310825130912  0.1418915701361154
  0.8561963542260846  0.7136979476945010  0.2850912844350775
  0.8574472979448684  0.5720972727847423  0.4241964335542375
  0.6427998383683748  0.6418877598652729  0.3571802771789068
  0.9283798568693179  0.6419383597133062  0.9271339582285250
  0.2915279939991793  0.2915864686578326  0.8640640298131252
  0.6419138347053406  0.6426689745147197  0.6403283318072007
  0.0731856106821307  0.2184234950773808  0.4931896932601272
  0.2148742046577155  0.4986685413394205  0.9268750774512867
  0.0723311959455585  0.3561756482061113  0.0752501877085673
  0.1454320909512090  0.2876150240917351  0.1443671892639220
  0.1449505371727327  0.8554624485981285  0.2854758036886290
  0.1463649721296218  0.2864763887108820  0.2869462791975601
  0.2257941727496120  0.0615805192794924  0.6339231080774056
  0.8642900838207840  0.0045293483557696  0.5728919524818049
  0.9296478286561611  0.6410386565433718  0.7866756458684925
  0.1461359777027751  0.1426497942401544  0.1479123139629500
  0.4297581172925569  0.2863143424381115  0.0001292295633396
  0.5005718645789977  0.3579374409598311  0.6416616614045697
  0.6423469962174282  0.6423421006475273  0.2130869530413257
  0.9988785268160337  0.5715504395275829  0.7135300547501313
  0.6417392243042832  0.5015633517078997  0.3556039768908064
  0.9290937718372483  0.7825026552210650  0.2156768278047085
  0.5713049181710856  0.4298257712521580  0.5698510058270494
  0.9290487750465527  0.5007430544368356  0.9275572862562360
  0.8564448350388042  0.7128864455407881  0.4255610422149232
  0.7141149512351224  0.5710670058980102  0.0008131039920021
  0.8577102808023511  0.9977802566921743  0.0022649237657011
  0.9309779556209609  0.5002073406075975  0.7853812057277847
  0.8592306659844221  0.8522167341318667  0.7148632736036591
  0.6416288957944084  0.5024373546153375  0.0701241941602085
  0.9985846483590425  0.5723757038939462  0.4255442845805884
  0.9280691983684662  0.6435903126051341  0.4951879629900796
  0.6425386529641329  0.7842876817371685  0.4998136254430724
  0.6416252371822752  0.5018052688103462  0.4980751093896308
  0.7820275215389523  0.3604820547329627  0.4950572680443835
  0.7139261510834655  0.1425855937131879  0.1428724611001315
  0.0659940915911384  0.0706732803823307  0.4994421201168182
  0.4281362773495384  0.4296746242897669  0.8566278773369987
  0.6428936909426973  0.6418286501705914  0.0683302683724510
  0.7075730581294282  0.1474880391476379  0.7173378521660525
  0.7132445539197976  0.5728196909007218  0.2857551996441064
  0.7837223640793212  0.5026690084219467  0.3548394475275026
  0.9997421740378821  0.5728085797895507  0.2855343873675874
  0.5710651183812909  0.5728069915540458  0.0001550472641720
  0.5712053454663455  0.5713655032840103  0.4267325507535717
  0.1034143346063117  0.2290477133365276  0.7546041719940842
  0.5711418029083345  0.4312061851628843  0.2846995997856446
  0.0005465220497918  0.2864386246006325  0.1445016132020667
  0.0738015153651701  0.3575505712698443  0.3558414673274048
  0.9242884531781235  0.3654612173835746  0.6326109967119693
  0.5002866983666537  0.6418919233961105  0.9276246726958143
  0.6416704024387950  0.3581596617859338  0.4980033245463178
  0.9867852675157603  0.1757669517799641  0.7204368027350145
  0.7128875039232393  0.2901739976229178  0.5679535196050143
  0.9303701334453764  0.2146798047243975  0.2143556297385508
  0.7867366088875311  0.6414474899062178  0.7872095852839206
  0.0722318982265198  0.5013973750255112  0.0723248551101608
  0.4311549900486652  0.7139398078131878  0.4291084265911273
  0.9296516713093740  0.9285197539408757  0.2150497634180058
  0.3618935825841716  0.2146576295354276  0.6422362457939884
  0.1455460650042918  0.9999665945848958  0.2857012847364732
  0.3599866911875301  0.3608593255270048  0.7888287731146929
  0.9979767385525006  0.4285120852930655  0.7130669758164547
  0.0014015220747130  0.2891041202343553  0.4238709851616392
  0.7152266653533979  0.5723468769061248  0.8562428519287001
  0.5717029866750206  0.8565140142673063  0.8562632504353253
  0.7846213404417335  0.6408914212956369  0.9278011598493384
  0.5715328871740495  0.8569285177037852  0.5694182924813210
  0.2886492961896322  0.4285051859284049  0.4261369829349961
  0.7857849307343376  0.3583993550974832  0.0727527131579650
  0.0734422320732512  0.7831736273889754  0.7863691479585221
  0.0681666940040172  0.3584400641529947  0.7897100352438180
  0.1535164719287066  0.1429854229815916  0.8517893356168166
  0.9980234353213184  0.4287808568578100  0.8581296614748977
  0.1434681841702521  0.8522675481058558  0.7130847693753307
  0.3590489985992346  0.4996803819470467  0.7854844800703243
  0.9981581215915848  0.5710101046341175  0.8576838352923667
  0.0009652797865983  0.4288451133125114  0.2850570814165717
  0.0004974108408778  0.7139930969890496  0.2849472414828685
  0.0771102900026684  0.0904098319001543  0.7548073208689225
  0.2194910887396623  0.3575007558479482  0.6396571336256575
  0.2886310073658636  0.7148294207115726  0.2857237473032744
  0.0727092115424742  0.7827892308116342  0.4976002442355427
  0.8565954042958579  0.4289313873210576  0.1428557390779421
  0.9355765788303034  0.2057627932263430  0.9291968971743726
  0.2847457389838909  0.1431796499857401  0.2854255316537615
  0.3047563554612744  0.1187955625999809  0.6933079911097031
  0.4311517097187770  0.5711052405831876  0.2857021847357458
  0.2179532144676912  0.0573718937187465  0.7863401447858720
  0.1401091743105853  0.1455308831826440  0.5749691462236960
  0.9304050319793659  0.5021503874450499  0.3536336582259693
  0.0009612811598209  0.7125776479142273  0.4265612192826011
  0.5729216789301391  0.5736877070322522  0.1410880402656115
  0.9289096109934367  0.0691822553895289  0.0755799311934784
  0.1427980403064856  0.0005232062006532  0.4315921108084670
  0.1457438777217045  0.2870295917633989  0.4257143135183057
  0.2150450247790782  0.2147821937989001  0.2150551891033013
  0.7901644743022794  0.2093877342375124  0.7795493209840521
  0.2862082550414987  0.9936368634122380  0.5649843593061903
  0.2858476743014828  0.4293438324842001  0.8553223850511800
  0.0392719955881924  0.1898982556094189  0.8372040578482550
  0.0748201041565570  0.9259987559259339  0.4949549298345218
  0.1435674368803651  0.4295909088552706  0.4251022679235475
  0.1489350165126565  0.1433523171318635  0.0063074604454387
  0.2150118613206686  0.2140987364131292  0.3568639851246919
  0.1781199631050583  0.1464334715845638  0.7149141582594767
  0.2867927829033182  0.7123277451865095  0.0005572006729928
  0.0696793210286264  0.6425873784646505  0.3556586533143971
  0.7863698592535867  0.5005103449260925  0.7853317714879466
  0.7825929197008582  0.2164156502975025  0.9330957659409005
  0.7136932827402021  0.2870964336022631  0.1422846136582682
  0.5713126487619221  0.5715269275541272  0.8564471285099128
  0.8580362414330840  0.9985425081368640  0.1440108891603112
  0.7136618017838758  0.5720588935096078  0.5699126101320143
  0.8574840261566700  0.5711092659771921  0.9991678234301589
  0.6431147846032563  0.7848776078133537  0.7854535187177193
  0.6422023663869864  0.2152492022672101  0.3555090912151267
  0.7138797833644965  0.7130283746464436  0.5697274684364761
  0.9300490838221845  0.7833330938506080  0.4962706715491395
  0.0721241278146103  0.6426862540226623  0.2142675303697948
  0.7162895352505092  0.0001430918754876  0.7133725665978911
  0.7133747345469028  0.4301168271555916  0.1419050257833615
  0.7849500478636917  0.3607784026810604  0.6394163603336871
  0.8577059257241767  0.7126920655283628  0.5692461008669313
  0.7854236412611342  0.5009381823631519  0.6412421204774954
  0.8575068133282813  0.5713883787182732  0.7141465045939746
  0.7144757240144873  0.4295522253308722  0.7131648706474332
  0.6412847928078388  0.2142282979151088  0.0720777095312991
  0.1435913452343431  0.5703259517945717  0.8565387876819269
  0.2159306825315704  0.5003231957368105  0.0714847689270752
  0.0724817483748330  0.5019257449418492  0.4960581991280776
  0.7133523373437406  0.4308483527082227  0.2842244213235581
  0.5719794576441385  0.5716247793887815  0.7130513434018539
  0.7864898030877879  0.3577292830364925  0.7854326214557578
  0.7136495124879404  0.7130623187607719  0.1419308485966400
  0.7124571812983215  0.9974246432764642  0.8579980904493324
  0.8567296851807911  0.5719264414030283  0.2843969415025715
  0.7849582109996529  0.6421599444181998  0.4973194564404267
  0.6437547627701394  0.6420509869943032  0.9283974181427972
  0.6424160286188120  0.3572579267342320  0.7848743452600736
  0.6409775657017164  0.2157057083543190  0.7864046238604681
  0.0716904585965771  0.5005959960493302  0.2149091245968449
  0.7844461944396631  0.3596361779989046  0.9307586840144828
  0.7842119420796728  0.2159854387570588  0.3541959786309098
  0.7143469165847885  0.4290346968655998  0.8570787497901937
  0.1441043867840227  0.5712408120227697  0.1428643414266701
  0.7138659985674578  0.1427430128589560  0.2842646185101834
  0.7865660743056546  0.7839139693390629  0.7858825479559035
  0.4286153916059504  0.1427225186094160  0.0003598052760913
  0.6431268682248334  0.7847139595136352  0.9281464445763226
  0.7142271959710816  0.9989134357805682  0.1426307154119902
  0.5004363336382904  0.7852808259332474  0.7847440961671708
  0.5718408323659231  0.7131651526446319  0.8566863448387255
  0.5719784435157198  0.7135606450661327  0.7129778659325127
  0.4292573062422567  0.7132790918698897  0.7129792757174864
  0.6427475515393312  0.7850707171527748  0.6414996580586370
  0.5721860406871696  0.7140380857177102  0.4282025090129253
  0.6448333487075809  0.9282751284870221  0.4988436816232818
  0.5011875409343355  0.7846433160826389  0.3565142369142448
  0.6425533924292335  0.7849291315502198  0.3563027547213940
  0.6425024351345335  0.7844844105352478  0.2136579695195924
  0.5714836919204802  0.8553584498197946  0.1418705612819521
  0.7854334345213366  0.7845517400219222  0.0703579256072304
  0.5711964817945727  0.7129536932141943  0.9987510144934134
  0.0002888113546608  0.5708607414435121  0.9997661820175687
  0.7121134248007793  0.1448069646758369  0.8589777397572933
  0.6404842327356506  0.0711825537140364  0.7859509000490115
  0.0737147804415978  0.7835442213181979  0.9291344200167218
  0.7860913915699872  0.6422874225382058  0.6415851731186143
  0.5011873831215570  0.3585235022046150  0.4980065685607006
  0.6426377212114611  0.6423799609306212  0.4984800655015096
  0.0007838893563773  0.7128153937879230  0.5688547407255280
  0.6420605481900457  0.5015946050926737  0.2134543354493028
  0.4998866709483632  0.6433383912780672  0.2138199539295751
  0.5002146773144532  0.3580078044033769  0.0712954442341594
  0.0021139101801522  0.8540095076800199  0.8601291692072347
  0.2162107894821937  0.6430281627450347  0.3561810309996898
  0.8587361313985283  0.2943438489177282  0.7105048757387522
  0.6424481042952922  0.9273632588081019  0.2140195103024285
  0.7892607764115760  0.9154404720879821  0.6418500169725772
  0.1431380969938826  0.8550139903195718  0.5691496671048596
  0.7147097591310472  0.2867337018379550  0.7133566420244806
  0.0693072173336839  0.5016624302831570  0.6391953736444975
  0.0713908400803886  0.6416771731498165  0.6406597622110077
  0.7851204903071746  0.6425018232044537  0.0706433085637357
  0.0000852753193080  0.2864573223909517  0.0050310137219116
  0.5700890734555026  0.2858316031522669  0.8567131087289667
  0.7129311137015041  0.2873222074387852  0.2836404326588740
  0.5007547232341593  0.7845473097279836  0.2139891531413907
  0.5713884606184992  0.8556105510834661  0.9986438161527955
  0.7852269319298112  0.5009166721322144  0.0718989378011004
  0.4293786354588502  0.4299124928120881  0.1425466986392457
  0.6431652307948751  0.6424488866954700  0.7855605673988220
  0.7128188702051176  0.2873448029364094  0.0015188699803715
  0.7864141553663908  0.0707723061673696  0.3547727004315709
  0.9283579121887104  0.5002146208930707  0.0725750976431099
  0.7850210027804011  0.5011360914101013  0.2131321871203440
  0.7859331881758972  0.0706031368379689  0.2140085922036758
  0.9288839653052103  0.7847224458825801  0.0714325250441440
  0.0728327701970498  0.7845067376534077  0.0723699495613809
  0.7854914539870815  0.0702035146026694  0.0727254746386055
  0.7129111668656212  0.1427098599970874  0.0014402209078636
  0.0727295596788762  0.7847071492433978  0.2150447755599103
  0.7883673492865805  0.9281599972478581  0.7856543127602561
  0.5721193954910363  0.8570322728722031  0.7133316294571717
  0.0006775165561333  0.8559044115995721  0.1447040301368109
  0.0722176646688220  0.7845528586019342  0.3557667701939968
  0.5723970252114771  0.8556881520001439  0.4283743240078108
  0.8563695046288491  0.9960945399749012  0.4244736754904130
  0.6430686706922087  0.7844345664944818  0.0695774753579264
  0.8546188439605401  0.4320232273396244  0.4236387339565908
  0.8581528042648919  0.8550746723333914  0.2844576698484121
  0.7855088861731945  0.7844069106973527  0.2134922614361379
  0.0005441665430989  0.8555089284814013  0.2849566852355991
  0.0054418439479716  0.9952214580092812  0.8586935355224982
  0.6432855541270277  0.0727538547681016  0.6426608794247165
  0.0724585078604997  0.6414995461897371  0.9282797985898222
  0.9291157871162986  0.6421573530987448  0.6415868826322229
  0.9297885425745729  0.7825905016258811  0.7867087472639379
  0.7850331832597276  0.5008544181330731  0.9283389984547054
  0.8538529164165704  0.2890426063027489  0.8644966944307217
  0.8582144185902538  0.7118921561646351  0.7145155341798438
  0.9119778875983563  0.1117234425293150  0.6504227624385359
  0.8565122530434984  0.5723994503078287  0.5689110892732412
  0.7140089138381964  0.9988235443945571  0.2848455646934567
  0.7137276323978234  0.7131768136178777  0.2851157845773059
  0.4308129049646776  0.4307749087341288  0.4267934323103070
  0.8568373871088925  0.5719326139378966  0.1427400481833317
  0.4306944453018651  0.2859210085143409  0.5689570646121267
  0.6425854836309861  0.3582294039168925  0.6408357776014902
  0.4288354712276001  0.2865452869009372  0.7140714533147049
  0.9274657840172658  0.5013996954696633  0.6409039849385891
  0.5701139259768788  0.2861905402912359  0.7134121245100674
  0.5001885377729423  0.5005984009916314  0.9274734949644236
  0.3579518408011366  0.2144282510303024  0.2151985849465478
  0.5007477216038458  0.5013666962678199  0.0709157114587630
  0.5715589032509177  0.4303708287876506  0.1418494763141267
  0.1443538621534023  0.1429764913187471  0.2865011045290243
  0.9253907582121694  0.3614678266235808  0.9351542721815644
  0.8580799270518024  0.4290685497466586  0.8568766419576083
  0.9970339086463281  0.3004057553541372  0.6910514283947331
  0.7143169536154980  0.5718212831629056  0.7132943963731382
  0.8587696991616022  0.4294819564167709  0.7135678987864671
  0.9257235288378611  0.3614764224429246  0.4921743147709631
  0.2164183547691831  0.3583571871545077  0.0729122849325096
  0.8566512409784620  0.4313205348383402  0.2846163509210481
  0.9291270376870190  0.5004801234079496  0.2139006666686790
  0.2166630913530869  0.6421651106167452  0.0709627050544610
  0.4995913801805596  0.3579631393085044  0.7854185635868212
  0.4296330005131228  0.4295338972289740  0.2857371689566169
  0.4989970694223832  0.3575835484128988  0.9279883526817033
  0.0747696372667921  0.2121685003397255  0.9451347645963001
  0.5005487688217680  0.3580857288894237  0.2140850664577125
  0.4302731419861474  0.2861174048755954  0.4269039505515513
  0.7835640219211700  0.2180313792529850  0.4945470492284790
  0.2159574392093575  0.5004602136106966  0.3563177301890543
  0.7141887639510356  0.8557168883105348  0.7151115739314309
  0.7146959461635758  0.8552762920772226  0.4276260579471148
  0.8589376782011813  0.8526774310382899  0.5673572142473055
  0.8524151482245333  0.2938337223966761  0.5618983070861527
  0.8565284229474310  0.8545472413616025  0.4256187140540562
  0.7861669619832099  0.9271984479174891  0.2139558083982612
  0.8573107542336366  0.2862847984706651  0.1434603132544466
  0.9291792161266437  0.9271993097880553  0.0729424171997164
  0.8579430062400238  0.8561974546705322  0.0001294137273450
  0.8570434756974655  0.7128686051968884  0.9993938524642938
  0.9300720982142583  0.0704838410659701  0.2154533091107732
  0.7851202765539822  0.6426819293470118  0.2134066766989474
  0.1440997082887037  0.4290347574015020  0.2853292179060788
  0.2868335903481677  0.1423897264952997  0.1446916471130538
  0.9177619189506080  0.2216246508319707  0.7982196905735390
  0.0731877436220110  0.2161632048905232  0.3548048228967258
  0.9237385706440358  0.2287462426670157  0.6258383236002526
  0.1206207774996977  0.3175505562106596  0.6905360646951181
  0.2873552943690163  0.1424630134150901  0.8742207826585728
  0.9295469852557429  0.9261684856438899  0.3551991234025429
  0.0750853582790136  0.2152951997140786  0.0772775891243733
  0.9283476095029713  0.0693455874967366  0.9398975372157271
  0.7941307154521425  0.1025736423010107  0.6638857430177681
  0.7861763306548802  0.9270430663049645  0.0715437136074254
  0.7179196837101232  0.1445479638435971  0.5705235378158930
  0.0060200985197117  0.9788014121966635  0.7196584793547420
  0.7145853981222374  0.8550277742943966  0.5695017005195567
  0.8582851967368755  0.8557858416627379  0.1437504644862037
  0.7134363465074394  0.4298450732563355  0.0008819316535613
  0.6432491170137996  0.9271024997704812  0.3562710277489553
  0.9291290288397780  0.7838400810516674  0.3556317730131111
  0.8581596595143218  0.2849330998175447  0.0019819939044098
  0.0726074853776641  0.3612960434944768  0.9342804755673086
  0.0007894777935702  0.1462277193151773  0.4238454349813914
  0.7841427554398831  0.5021087255636515  0.4963336964939205
  0.9289143481026975  0.2162711051721116  0.3539386399370830
  0.7835234914073909  0.3600143977089714  0.3538800529778994
  0.8570083841236111  0.2876262064596685  0.2835699954142512
  0.0726336975987398  0.3572148327885385  0.2147358125712360
  0.9290778607120143  0.3594512855779800  0.3537933249955128
  0.8559063221765788  0.4309946772100460  0.0019151417545857
  0.9283601192115734  0.3584208665855848  0.0738885222744789
  0.7847833865909096  0.2143760725909937  0.0733518797514145
  0.7143405734598608  0.8554813578114019  0.1423318263213277
  0.7131772230466535  0.5719600452346651  0.1418868760312977
  0.7877845704198135  0.9288714332883593  0.9282091628121379
  0.7853533881633435  0.7840430901300375  0.9289129938218620
  0.7147942681650428  0.8565272733814890  0.8570484436569452
  0.1442330028260147  0.5702848782216171  0.9995704256514122
  0.7145587559096712  0.7130853114913716  0.7137763212588103
  0.7865817444013479  0.7832878824568705  0.6420106847646675
  0.0012281265531436  0.2867203160271087  0.2842675660754209
  0.7139323173042912  0.7139076540642941  0.4270123406096534
  0.7860725409649210  0.7835663549721653  0.4980516803740235
  0.2155582399205945  0.5003213193540141  0.2147350578291743
  0.0015259084709591  0.4292561877468923  0.1431132942950774
  0.0734830342617995  0.3606990223853579  0.4940575518635892
  0.8536688553252272  0.2906735654935686  0.4223692159240733
  0.7146130089450837  0.8549340458642690  0.2851126737633097
  0.7876176762291642  0.9281220540732462  0.4996231154087580
  0.7739976622796736  0.0713718832030756  0.7909227705970930
  0.7146463490541507  0.7131003511087450  0.8567582005278649
  0.0703588841519542  0.4992385248462171  0.7852856871472992
  0.0607816114608961  0.3736295686628401  0.6209743088132567
  0.9926067346575717  0.1565960911011093  0.5533707480864346
  0.7144971915410834  0.1436131769471166  0.4258115316729126
  0.8579133781502094  0.1434259419506723  0.2833188539866238
  0.0015237583545384  0.1424564598219237  0.1456852484627355
  0.7849713015447566  0.2145223138966698  0.2133548561879521
  0.8580938153698484  0.1422784201354896  0.1437327037600702
  0.8568923062916958  0.1428097438816432  0.0035434834116342
  0.8615382393769676  0.0059790311075961  0.8548736211676724
  0.7842605321500955  0.0690739208465826  0.9314734923518255
  0.9273570298821676  0.0698199935289914  0.4807392949161848
  0.7879185173534164  0.0713921587803808  0.4935676366304458
  0.9997267693865268  0.9835915179287595  0.5585776060008183
  0.9965609935411109  0.2930547766618359  0.8763196544168863
  0.7149423668058800  0.2856279806879894  0.8564751915759725
  0.1442361484527230  0.7123777752738073  0.8559847087426540
  0.6429924354320870  0.5016519373007617  0.9283021541600912
  0.7868384028080972  0.2227225957723883  0.6382982516180841
  0.3588310954578725  0.9264101891277962  0.0715414033506714
  0.0004597805946997  0.7128615303333237  0.9996486175767102
  0.0713622298896313  0.6408400281911059  0.7849535174829257
  0.3571957011879075  0.6415912997763862  0.7847232981172555
  0.2137651440611101  0.4990335776200915  0.7839751555888653
  0.2864921986579135  0.4296718173386537  0.9992057975806392
  0.3590439667550053  0.6428170927344827  0.4983708813750541
  0.2876257915038913  0.5722214890547962  0.4274924954109570
  0.0014495620965308  0.7128298410508037  0.7138171225738642
  0.4992607147837469  0.2143205385434478  0.9293625018462655
  0.9291910472254693  0.2147973376189911  0.0744354348918087
  0.1444388547401299  0.2890775041715086  0.0053797322354363
  0.1438974132200251  0.5716188345484532  0.5688390630729319
  0.2148958283819214  0.6421073254351616  0.6415683777991338
  0.2864554231979191  0.5696471388513988  0.8561447196312332
  0.3585161019326902  0.3576321923707824  0.2144659003464284
  0.5709993894453546  0.2866838191098111  0.9997806575017547
  0.5721802716039754  0.7129550154152019  0.1417818278327202
  0.2874148096736829  0.5699092706507639  0.9982698562207021
  0.1436256022123704  0.5717662278107545  0.2852467953379428
  0.4306592693537996  0.5711244006013571  0.4281609146830411
  0.2159630055844603  0.3577668338620590  0.2149344193483303
  0.1436087306582476  0.5725440080851331  0.4264102978329548
  0.2878394108975943  0.5717102167785457  0.1424239878591506
  0.2876030029248530  0.5718185909970365  0.2857684453336218
  0.2873395371994144  0.4295993690015968  0.1431281182983219
  0.2161734077719698  0.5001861454485925  0.4965603882425596
  0.2885654818617950  0.7133914002840408  0.1431191158117125
  0.0006062911735839  0.4307103229974188  0.0030783019873037
  0.3602579888692637  0.6432994306075968  0.3560537119805905
  0.2871722291843375  0.7132723228729373  0.4277520428102168
  0.6412048395335134  0.0706202713280507  0.9289282114803554
  0.5694307240693770  0.1427063725135500  0.8570209771627321
  0.4996306505575743  0.0702527436628747  0.7856896284271623
  0.4295113959668094  0.8561745065503880  0.7133730483448749
  0.5720643051393738  0.9989829847617158  0.7136470588364815
  0.6451681098685385  0.0718187685844431  0.4989715054057271
  0.4317536898233472  0.9966937711203363  0.4263788930662294