 B Cr Fe 
 1.0000000000000000
    20.0899999999999999    0.0000000000000000    0.0000000000000000
     0.0000000000000000   20.0899999999999999    0.0000000000000000
     0.0000000000000000    0.0000000000000000   20.0899999999999999
 B   Cr  Fe 
  14 206 480
Direct
  0.8610199367165748  0.2143023328538959  0.9087555747721071
  0.9358209821337964  0.1828437869525486  0.7258141730630396
  0.9994600712197662  0.1754687915464930  0.7835696013890956
  0.0731025117307984  0.4267044672488212  0.8197565207180958
  0.3581267142891884  0.5712256540905633  0.0020453541040116
  0.5112025207994436  0.5775613902942891  0.0890742414507869
  0.8608514939982339  0.3633072025663168  0.6678713181932159
  0.5016413921710462  0.6436475699387577  0.2675396566644918
  0.1363513167347674  0.4909609618287932  0.8256310194334395
  0.0022645246011723  0.3574398894776719  0.8164020478670143
  0.4298300188148347  0.7854534898567547  0.2148841089335160
  0.9336244803168126  0.3027513269838405  0.8198390630417405
  0.9240053827742066  0.2715971957652528  0.9013895815717595
  0.4398704121212618  0.6410477939592560  0.2107782692056993
  0.4995237346366277  0.3579711050960389  0.4998612510132129
  0.2896377288938302  0.1409335049543109  0.5683134673377401
  0.4299459855499139  0.4282511456015119  0.5706871792639905
  0.4305770822221065  0.4250682002344057  0.9982793470107871
  0.5735377432493337  0.2853025043748725  0.1447130273800901
  0.5004709174455919  0.3571516781166396  0.7868911768043384
  0.5015424539226531  0.7928954345295902  0.0722419823743079
  0.5742057908337501  0.5719541522664289  0.2865063841617027
  0.4997684575299977  0.4997027321293226  0.5007401892954770
  0.3559181289697597  0.3580721502373262  0.3570794545042636
  0.4301797079726101  0.1393574173564132  0.8566712744261010
  0.5025942373203134  0.6492995686261037  0.9297525489607389
  0.4301990292909495  0.5709976076639369  0.4285283056746942
  0.4303026140109756  0.1438832980489539  0.4265846993228767
  0.5704176546001791  0.2875824025497686  0.8564891448377577
  0.5000216987307362  0.6443671191819353  0.5006429589845233
  0.3585985000907789  0.6440431349037599  0.6423508327546867
  0.8584816837345189  0.8585379278252107  0.8556016516455848
  0.4997952545750144  0.2152876885479821  0.3566168978510637
  0.6454271252097826  0.0719464978354722  0.2147662063238271
  0.6406956449957277  0.0707652059637327  0.9289443699914797
  0.4997121610286165  0.0715667562482071  0.7844861592148487
  0.4302712795622654  0.1399632269403770  0.7134464881810652
  0.5006599907982996  0.9283934770246841  0.9290914244396591
  0.3569184165392404  0.3572653397622894  0.2152117475587204
  0.4996499051226628  0.6449530561733806  0.7849552665152130
  0.5036457544954969  0.7843173227773990  0.3560879843927987
  0.3577676438279119  0.0699286169130842  0.0735454216748183
  0.5695186307064418  0.7141079220927098  0.5695176669646663
  0.4270601079024304  0.8582804777452039  0.1430952483819541
  0.4259567808993525  0.7200599606070789  0.9983971405173906
  0.5768786380282490  0.8611585509724596  0.1407397879613838
  0.4289997003540409  0.8567300130863068  0.5698854475285241
  0.2886363217604239  0.9967476286085786  0.0020536829833839
  0.3562018349563565  0.9263653737539255  0.0734132910209984
  0.5722165223801705  0.9988584986282960  0.5703926046723919
  0.4277767681761032  0.8576001036661655  0.7152543397633354
  0.3584883103235489  0.9288182053724685  0.7843588574773028
  0.2874254299129775  0.1424411154940511  0.1438860368988269
  0.2880502988611884  0.9972148109806365  0.8555014471113565
  0.3597706790392755  0.0699809103678719  0.7847003477724552
  0.2885402034364569  0.9971527553913661  0.7135435784244623
  0.2872731729838243  0.9987733306948299  0.4270963591096731
  0.2174200120409826  0.9285816098985292  0.7846956554389535
  0.3569157556824304  0.9260477508960954  0.2148207373914059
  0.2161532764403143  0.9285848095212236  0.9294812396348052
  0.1427980077962726  0.8581027632049405  0.9993098352259728
  0.4305933802955927  0.2877892195138732  0.5703351885276983
  0.3568620732144541  0.2130673987597528  0.2158528658269977
  0.9288631706586086  0.0733531761210758  0.5000903706962303
  0.9283027885834695  0.0723255111790760  0.2134259483676811
  0.8586773045462255  0.2850137650410143  0.1409845459074155
  0.4269215541155977  0.2867517311106838  0.2856058925532104
  0.1426037889599260  0.7139522704068119  0.5728439107728615
  0.0756132569122623  0.0661790171272880  0.0760503031926638
  0.3566523279316260  0.9292891573137230  0.9288986274279136
  0.2877477147053250  0.2869325582111064  0.4270396123413955
  0.3596866481337310  0.3568667378458663  0.9314649732883422
  0.2859000488306439  0.8573282013531426  0.5716556944977925
  0.3543454360929963  0.7850731323888426  0.3568737571796069
  0.2829888195765921  0.8593950186505814  0.1434691168909984
  0.5721654580719404  0.1449725609806610  0.5689792523082772
  0.0720982916152822  0.7867562240701058  0.9300436645488346
  0.2873075543683062  0.7163354256885400  0.8573861466667666
  0.4297350513145642  0.7154569217336754  0.7152058575830562
  0.3570338442965380  0.6404168714372508  0.3577770558337607
  0.2877144341688729  0.4284429434040229  0.4289850275190861
  0.3609961493860770  0.5012777661711187  0.7873865396723932
  0.4274589449699883  0.5711338551857746  0.2879056791305143
  0.2832681279030253  0.4280396496909554  0.9986059044972101
  0.4308968356428223  0.7155913534255985  0.8568896847561154
  0.4261596209307235  0.7135336710774982  0.2883894794240993
  0.9960179861498988  0.2759679548680014  0.7322457286599340
  0.2867734242776594  0.5715050187560814  0.5729259737673829
  0.3595161551740843  0.9263243312216020  0.6406263650065264
  0.0693191788357286  0.9269032550567609  0.2155392867297739
  0.3601067452703586  0.6458354314997755  0.9303249950416171
  0.5003331986362947  0.5017065691036369  0.3562646147177169
  0.7114504035873425  0.1424781522922904  0.7131725992446648
  0.9295334182228091  0.9299290923119269  0.7851907731202360
  0.9306898414632333  0.0728381047213060  0.3590470124350793
  0.9287458838283434  0.9271604515944434  0.2162043481985935
  0.6454584847804036  0.9296496135169534  0.3578450533790250
  0.7145687469853378  0.8583385791429938  0.8556301576183361
  0.8579793574421827  0.2924522988653202  0.5786962540719186
  0.7856887102070266  0.7894730289206601  0.7855063744719550
  0.7876228597263211  0.9303478820434213  0.0733423175282642
  0.6386897932923962  0.3588100607680529  0.7849654487928478
  0.7835994268650021  0.6461753162480278  0.7833234880817239
  0.7148419335334455  0.7158792100465247  0.5708757783198994
  0.7883930300884093  0.4992874268602276  0.2157169718693112
  0.8669840707104778  0.2737137117713105  0.7234129537837215
  0.9285314152043856  0.4991219265325517  0.3589306171513466
  0.8577376951559641  0.0002759952819753  0.5712333583659739
  0.8581282719274478  0.8579702467554770  0.2852126308987547
  0.8585939114740154  0.9987570019981356  0.1453607917132680
  0.7876368183193235  0.7851365568888030  0.3569661136906528
  0.7147667880812341  0.5707708994627461  0.4288711917866084
  0.7172618582971617  0.5706444267137569  0.2864602458208606
  0.8578920118174294  0.5680269143270467  0.2869875422523688
  0.7878159167245360  0.9310714974150519  0.2154615516618035
  0.9272359563450211  0.7879194186366094  0.9279460167280705
  0.1415219699454751  0.8565418749904348  0.4273636866261865
  0.8537349677195223  0.7176185561003320  0.7140936897491268
  0.7154589756294747  0.7145120332031091  0.4259587371191437
  0.7167331910307176  0.7134991951121312  0.1430482265134801
  0.9980463884627268  0.7177626000536240  0.9984937498485296
  0.8519895019238140  0.5777749047761803  0.7108504262711035
  0.9990065666730146  0.7167044135981596  0.7117439493270249
  0.7855033386043835  0.6452921252702504  0.0730255844527332
  0.0727528314546164  0.6450587092626061  0.6427133716305530
  0.8576610839721138  0.4291448304708311  0.4314819182433691
  0.9301208652052012  0.7867361871263184  0.2166184970292069
  0.5688683845588108  0.4286177155744778  0.5693512346519146
  0.9999748591963298  0.4306587566015544  0.9926544841096432
  0.5000702826720381  0.3583002412899164  0.6397681862556212
  0.6412856874626837  0.9286809002701992  0.6400156517153738
  0.5732519189466754  0.8574885679953750  0.5703262670425909
  0.5800671238569427  0.7254995952436732  0.1375468912130759
  0.6487761165264907  0.7893962885014868  0.0715266805653318
  0.7119457113632002  0.2867862226215620  0.9998320528844357
  0.5691801134827276  0.5741239367538618  0.7142097878337604
  0.5004132287814669  0.6418921360567545  0.3668286867947818
  0.4988780609219021  0.7866459582866995  0.7844033372435676
  0.6465940203051871  0.6403491282361191  0.3578530532981357
  0.7833637858749474  0.6471682195483822  0.9284430860465019
  0.7827841410936776  0.5040447028493127  0.9275184839204296
  0.6421196707341768  0.5024561574945016  0.9273361639050457
  0.7120634513416829  0.5762959772364935  0.8598785123603758
  0.1408607505768146  0.7131124288262403  0.4280865881419539
  0.8614572923516317  0.2844968037919767  0.9895160988841469
  0.7854616501181001  0.4997204657841146  0.4987954310711760
  0.7859945082659952  0.0727152916750873  0.3582386903881709
  0.7150796069631680  0.7146872840115217  0.0020384311904403
  0.7813482979180751  0.0654734800659881  0.9319296068113992
  0.7871831777064191  0.5009327561750285  0.3597256215000360
  0.6431335679959593  0.6458959730032214  0.0742603097353396
  0.5717186319646382  0.4272670169624644  0.8570544102014463
  0.6416913119346516  0.3562826381055902  0.9264903220829049
  0.6514321297938761  0.6408042048816679  0.2140685792384402
  0.7160576290963785  0.4293149075999453  0.4284118520608738
  0.6465733800990965  0.3553924275846968  0.2164239597900804
  0.9305266488987630  0.3567046984512433  0.5024325016802058
  0.7158569020020482  0.2857783578431667  0.4289909963201107
  0.7866506842319493  0.3568897689371053  0.3604122286160881
  0.7167783569008648  0.0002995794614137  0.1443943109676350
  0.7182118527641825  0.2854813857118166  0.2866076684128785
  0.7091444584036791  0.1380011280898926  0.8597770713032167
  0.5941536276713807  0.5509802983185363  0.1448885592374033
  0.6436679407149867  0.2145079950840466  0.4977199829192794
  0.7160131539269635  0.1442466543349093  0.4282786656172694
  0.7853717059585358  0.2161087590251315  0.3595629411913481
  0.7877997910943980  0.2153343956234879  0.2137568807186197
  0.1409660720046616  0.7139212813236132  0.2857848952136720
  0.2167289431020175  0.9279454838312765  0.6403838428314145
  0.8385666436334671  0.3007260885076312  0.8517128782397515
  0.9304691653077150  0.3700550158268002  0.9152211088280552
  0.1443620344693154  0.2857461964961032  0.1416044277086411
  0.2125501148548276  0.3559594894644017  0.2141665397015390
  0.0764686594629759  0.2141459810080566  0.4962075894428661
  0.1441561035555398  0.2873795943026228  0.2845564309839066
  0.8582097172278810  0.5684604098037632  0.4306025691239230
  0.1439557338379398  0.2872638256486346  0.4296578092165686
  0.2872453836057871  0.1438481120276938  0.2863053132940676
  0.2172568910697878  0.3584509218756547  0.4967347809268626
  0.0750566478206508  0.0742260371921230  0.7820687303310456
  0.3605394930401495  0.3572452924820144  0.6399245724622619
  0.2140636359592313  0.9276347769888680  0.2150829321254150
  0.1412962039376771  0.7152872902756993  0.9987989183637320
  0.2193231001215656  0.0689193863621579  0.7839735838857878
  0.1470288210691841  0.9973978787346687  0.5686396745339223
  0.9926200855213968  0.5787343385738171  0.8573314487939969
  0.2092525349089848  0.4989778395693003  0.9201564155016055
  0.0722540602626076  0.3550764096284026  0.2137356272677622
  0.9991625849937098  0.7149391729849678  0.2870740898436943
  0.0017710346542384  0.9967380222178179  0.0025812159598052
  0.0740831568874009  0.3581701053635502  0.4973182808662412
  0.2856399677597104  0.4258717847733600  0.2842936634481499
  0.2918286387012755  0.2813958688013571  0.8585474637974957
  0.0126400218066934  0.1315835447556515  0.0110013575289489
  0.2167341649661105  0.5007365146570157  0.6444227698587265
  0.9998667348759043  0.2862981031250909  0.2846465855831259
  0.0125421369064872  0.4220853599619239  0.7240962506358010
  0.9240800685381878  0.6476498028814214  0.6424614471601490
  0.5016919312107195  0.3561932535681125  0.9286335785795936
  0.1415867611157154  0.4251461934253350  0.1421571026267323
  0.0199040675376738  0.2599790719120013  0.8588397026090966
  0.9112517914369651  0.3821601639101158  0.7639863632494239
  0.9998186452048461  0.5685498225951409  0.2870146369884401
  0.9285738583729307  0.4977555198049239  0.5019213590837395
  0.9988392227142664  0.4281154881393870  0.4318774308869077
  0.0717468244691197  0.4982434325563211  0.9154202815211933
  0.2084459866498261  0.6432892105096202  0.0691410343607550
  0.0015375409146033  0.2860813378204995  0.4308324641079524
  0.2165124972339780  0.2128116953430245  0.0742826620941911
  0.9290141309195102  0.7860675786024724  0.4992590125934787
  0.9998357128403667  0.0012981982484507  0.4275999923169948
  0.2131115402176922  0.3566125608360540  0.0712973519645651
  0.9330662052058892  0.0811818719604753  0.7847897246697857
  0.9999805717610568  0.8575819012145566  0.2857134003755338
  0.0711451969953137  0.7836931694917639  0.3566804405633975
  0.1439145622289800  0.4275412424550006  0.4298268815695819
  0.1444832630338019  0.1431779425700580  0.4273411298658267
  0.1521413255852270  0.1372339672663127  0.7091182168702902
  0.9990185507554691  0.8578124302630961  0.1451667905281760
  0.0730056806115969  0.2149516223399564  0.0724228907142345
  0.8537882580686186  0.5752406872530060  0.0006126870404148
  0.7164358881444518  0.2853555577038368  0.1433403530734946
  0.7681905526819236  0.2151960825571828  0.9277756035252748
  0.5701504167662297  0.5747915478782148  0.8588404702774382
  0.0694347315789563  0.6422297960131605  0.2146995290981009
  0.7866183106970630  0.2154011620649046  0.0682788188012552
  0.7136069315110806  0.8584423691385465  0.7126946846829971
  0.7066329645034612  0.4346544944270717  0.7133728898669081
  0.7885648882651859  0.3557302130305176  0.2137322798617549
  0.9993600207380333  0.5700950505404909  0.4304853718535394
  0.7857430622762256  0.6431436867744568  0.4990694151243448
  0.7108789380063376  0.5748081098466343  0.5682124292408531
  0.7194378618232126  0.4259593321945710  0.2887046508300837
  0.7100602256441172  0.5763021168616200  0.7129073137262727
  0.7695765930780583  0.3572449057683173  0.6430679065247048
  0.8567132188641009  0.7161875096331001  0.5701949710834444
  0.7768935217138042  0.5073000705919559  0.6368505252539760
  0.7766707698446145  0.5096699724140662  0.7876706922256818
  0.7104108497719738  0.4300273481482421  0.5693850805240583
  0.7144384240644382  0.4287522139937578  0.9976327292197283
  0.0549303816884118  0.5195108541195044  0.7810855302665202
  0.1422984127664808  0.5842887299447406  0.8545975572504668
  0.0720855006675615  0.5009554360126723  0.6471706518867324
  0.0002441586405165  0.8574909247873383  0.5705163901904712
  0.7196179868021206  0.5697908049553413  0.1424385390667838
  0.7854769699157940  0.3576464230234619  0.5022346456831938
  0.7889065271002671  0.6415608399226582  0.2154798038886174
  0.7124214322488853  0.9992744193402883  0.7122421203306686
  0.6425589989640597  0.6456311457192688  0.9301591264735020
  0.7878948312177919  0.6411138391572428  0.3582927709884150
  0.0708069235193493  0.4980025316270973  0.3585028803185918
  0.7104024820488704  0.2903973286902111  0.8541819304289781
  0.7100046113440603  0.2838346913064179  0.7163015311028893
  0.0044686289443996  0.4282132577252775  0.5739650576260295
  0.9998186983621246  0.5719190295687627  0.9963334315803573
  0.7873995600298210  0.2168127505614087  0.5017962499042986
  0.7112775857968061  0.4305224045137209  0.8553135057860120
  0.2097567394347362  0.7853151880525093  0.2149317555711078
  0.7169118770051323  0.1438777246124177  0.2863122121842233
  0.8467918400657783  0.1423527325500795  0.7152573704061659
  0.5715657313539565  0.1420826531806418  0.0009758100675628
  0.6456207091317208  0.9300479516807753  0.0721601787301543
  0.7807122144333033  0.0684498603678092  0.7843100448128819
  0.6461190409344163  0.7895261276150972  0.9269722261614621
  0.5717167532240495  0.7175307392584251  0.8570489456535657
  0.6427043875298120  0.7877661606069271  0.7847238112832121
  0.5704251721793129  0.7161850511327095  0.7139793224980593
  0.6418075768814895  0.7862448946067884  0.6407203194585418
  0.4287455226576496  0.7145203508824179  0.5701136785028493
  0.6438632991670525  0.7855585854925381  0.4995013185604592
  0.5732357279806561  0.7146489383548801  0.4279002475935710
  0.6452176650294835  0.7840563400492924  0.3561100387777939
  0.6491895445682977  0.7871927740892086  0.2150861667084060
  0.6462564399513179  0.9297176061238018  0.2147083093928653
  0.5759296275901161  0.7101736286736673  0.2832851591676752
  0.5771905815080302  0.7229032325120340  0.9977500189461106
  0.7810215235267269  0.3619313645770836  0.9296251057254853
  0.7843819950480486  0.0716188499655231  0.6410925844817793
  0.7134627544296503  0.0001356625868181  0.5699063761315502
  0.9288025090959166  0.4998234662050141  0.0688343195577280
  0.6405635953163680  0.6459756524974103  0.6410045767992146
  0.5697708322150503  0.5731125154015472  0.5691309282134657
  0.6429547885418437  0.6449399005628179  0.4986215059153384
  0.9997425607669292  0.7144623303196115  0.5717100900391383
  0.6507179958411070  0.4952923109242581  0.2219242815925926
  0.5310541614000750  0.6344823539118754  0.1751781061883117
  0.5769834018187765  0.4236760341782195  0.1456834707971345
  0.0705777276040778  0.7874347857201751  0.7845105709780142
  0.9995784963628963  0.7134891181816364  0.4291644576733302
  0.7796322699226216  0.3630578194319066  0.7763851933957486
  0.5768454744866421  0.8594530006305675  0.2883429251888489
  0.5731164943222496  0.8559692471886771  0.4273556806061991
  0.0713747670277154  0.6425508376147964  0.5009511514368581
  0.6410534385453283  0.2138230763895511  0.6420202955398807
  0.0672690593638352  0.6476245810387502  0.7836428381162970
  0.9938782763938229  0.5809939097703970  0.7067680909418717
  0.7143580484004359  0.5742087376842411  0.0006142903768872
  0.7159776499262784  0.1435416672796269  0.1434271367782848
  0.5013574510718577  0.9273598110860889  0.3567154231103196
  0.5730995218313698  0.8590641085560959  0.0001141287886380
  0.7869813226139204  0.4990647813199616  0.0698608790214360
  0.0719203719832446  0.7851721164559590  0.4995926630789596
  0.6411536529840901  0.6455379891256505  0.7856835949001086
  0.7120958886234225  0.1404636484807129  0.0008117385417450
  0.7867622702402892  0.0709803254970523  0.0724798496442543
  0.7121554144109636  0.9990877071774305  0.8572667879736070
  0.7866416752218307  0.0729535661801189  0.5001885349046844
  0.9287306833055139  0.6409256898055006  0.3575616187662082
  0.9281505890196367  0.6425430943130609  0.5006800934161894
  0.7874689920745911  0.0720834882228366  0.2144929638309334
  0.9286922338704126  0.7871806835193246  0.0719364687883155
  0.0707774637440311  0.7867641156498847  0.0710457973181763
  0.7137439161908776  0.9988905693187153  0.0015473473605199
  0.6433561506257313  0.9287923747338088  0.9284957846832612
  0.9991063344907610  0.7150274620053731  0.1432716301555879
  0.6421601475342643  0.9287449380939513  0.7846426548496652
  0.5708846738760834  0.8576430916416063  0.7127293857003792
  0.0701306515596469  0.7852965398096876  0.2152289766799883
  0.0700083442338174  0.6416988338264069  0.3575319297934570
  0.6430775861329452  0.9285251210470902  0.4991365385946347
  0.7157948140162407  0.0011611017821145  0.4279315097757656
  0.7872427727591431  0.7868268911215510  0.0722298752540663
  0.8589664056434576  0.0025666645091034  0.2865841156943360
  0.7876177400737865  0.7857894461228736  0.2152162270031730
  0.8581825755585223  0.7137851643762654  0.2866317240187695
  0.9290297164729713  0.7855155168646246  0.3568084798967474
  0.0053579445884733  0.1431012667500101  0.5681450053806011
  0.0798242152992502  0.2171959325360580  0.6385802490389693
  0.8558393608761081  0.7166253511853947  0.9999616608646049
  0.9258168662777165  0.6472931901410907  0.9289967808803408
  0.8526076997583969  0.5773713772345868  0.8563078303026895
  0.9250334545909130  0.6476219664302818  0.7833517681887356
  0.9303897352466174  0.4966691831717441  0.6467075515955653
  0.7831296837328965  0.6461847293577141  0.6404418560042772
  0.0930216200779546  0.2071182135904129  0.7786813570630970
  0.8575478137313718  0.5710956633046490  0.5719168734324862
  0.0682437746765585  0.6464185357975494  0.9273142854760292
  0.7174352350871050  0.7132818759735307  0.2863270222356192
  0.8549205300950743  0.7175294575118494  0.8560813730402868
  0.8575428240352696  0.5711239304834715  0.1426554776615727
  0.5041035094383292  0.4840676929876563  0.0730463177164467
  0.4276233903996958  0.4268294803203860  0.1440821213085780
  0.1435941242697000  0.1434828957465789  0.2856952494613564
  0.5006441310182654  0.2132666906994849  0.9288000160337755
  0.5728489000618179  0.2861418109580331  0.2863261265818582
  0.4294461117720098  0.1433466013176841  0.2859757024047745
  0.6450683956891500  0.2155190794663840  0.3571993275520230
  0.5722392571162093  0.1443639816868966  0.4274379589300213
  0.5001024475294624  0.2147846255857575  0.4983172718798775
  0.5004913355399935  0.2139311437880799  0.6412845895588172
  0.8580109446775950  0.4273084371463809  0.2874019562240737
  0.9294596493750795  0.4983922225580115  0.2144316620193066
  0.2179251082585966  0.2140845303519392  0.4971553250849495
  0.2100675368952409  0.6415250292946699  0.2141885155537985
  0.4297167148544934  0.2846449405564093  0.0012820634989324
  0.5016625423277936  0.3547553080987888  0.0725919618521968
  0.2214536413606711  0.2092133537258479  0.7851465373530320
  0.5006256928683603  0.3562774011847822  0.2151005504530190
  0.4295158602265052  0.2870072172704832  0.4271376440300897
  0.4296275605447843  0.4297011888769833  0.4279920499707720
  0.2217239141741668  0.2106956145040119  0.6374486575177154
  0.3593728189782928  0.2146802839587928  0.4980403461469380
  0.6391694536545360  0.3577163952432363  0.6420078318872956
  0.4309383036942609  0.2857299532010600  0.7127548129415491
  0.1475135317546118  0.1426215879286295  0.5676433857714974
  0.4301716117325995  0.2848853787561068  0.8581753922425370
  0.4994979585719870  0.2127647210468418  0.7853798224856049
  0.5031713752151812  0.4985662503751422  0.9289764356908428
  0.8570890273638410  0.8593652399447755  0.7138989179633267
  0.0729239174913602  0.2165194145879112  0.3569286308963157
  0.8574994116642359  0.8577761513248497  0.5704403952717456
  0.9292594870133599  0.9299471762042220  0.4989660939709988
  0.8578952081141376  0.8573750893435292  0.4280839399712347
  0.7164169993970787  0.0018673570423326  0.2864145038943339
  0.0011919349683834  0.2870237598288322  0.9922474967153527
  0.8577525247274995  0.8581226454337301  0.1444937574988372
  0.9295780493129163  0.9286615480069669  0.0731157830016618
  0.8575839529555445  0.8583081421420113  0.0006369825729215
  0.0016174683457263  0.1419021874123813  0.1435768278108146
  0.5708916313888966  0.4291608511444183  0.4278058193261298
  0.0723779866386017  0.2155258696205976  0.2145759335139080
  0.9997724611120475  0.1434222487988305  0.2859259984825484
  0.8570252642508696  0.4288095419904631  0.9965977214141851
  0.7155810528283700  0.8570756008349671  0.4271094289322835
  0.0815112345511671  0.2045020906645710  0.9390211980990768
  0.9818004152589079  0.4492339805339296  0.8522023064500786
  0.1565575240467516  0.2794223677074198  0.7066239574780615
  0.9292942604429555  0.9292713376838285  0.3573105318666417
  0.9286417431278888  0.0702812962913218  0.0722483653385958
  0.0160530875150341  0.1312342650895304  0.8679462592437616
  0.0932245995889646  0.3345096749629180  0.7836341786041870
  0.7869240189365305  0.9285076903856864  0.9273396698779209
  0.7859416808087474  0.9296897510144622  0.7851696972720783
  0.7862953054810679  0.9301309198885312  0.6420212907402990
  0.7142159849969695  0.8581016935332749  0.5702470338678620
  0.7866018819319854  0.9294939697074619  0.4991593449839554
  0.9321279102758223  0.0662634068316093  0.9316367292317307
  0.7878701378225773  0.9295242976181288  0.3568166933370924
  0.7169344034895284  0.8581737632196327  0.2867438329879814
  0.0658922171524244  0.3607463098310818  0.9146129920625045
  0.0703041160341088  0.4979343969149673  0.2140116442780232
  0.0000588508207939  0.4269925804066121  0.2863166491696454
  0.0771835991014906  0.3526877139708242  0.6477577563635484
  0.0083833961888623  0.2838313346368429  0.5663752400655597
  0.8581370795970993  0.0020491896294759  0.4280775007524647
  0.8564292916944245  0.1449733425841714  0.5707889620012997
  0.9115347550999054  0.2053316176284143  0.8182890938802502
  0.7834357818726071  0.2161031365250037  0.6429280777081350
  0.8571852065005459  0.4263614530942075  0.5783736504766895
  0.8582488741094237  0.2869826536439226  0.4309351002053583
  0.9304978137080508  0.3567464084317755  0.3592418757924947
  0.8577611034183765  0.2856500164459400  0.2868593497014584
  0.9291598549701965  0.3561867255707747  0.2137940314249774
  0.0716670772652932  0.3564878912001121  0.3580919994383374
  0.9297369001016429  0.3560394600227331  0.0653597499977241
  0.7882847878893852  0.3548374494887115  0.0681327341289775
  0.9500744223272902  0.1887162852731558  0.9424435329053301
  0.7185679079559334  0.8594683370548021  0.1442315285008957
  0.5749639942338083  0.5719374978540812  0.0036104275110048
  0.7168800988751165  0.8595600711042273  0.0004533388570272
  0.7855774214289826  0.7882147747469512  0.9277676278006225
  0.7142546481639255  0.7166736478053125  0.8565048041337867
  0.0708474688170350  0.4977965249431637  0.0668120782707176
  0.7130870657518523  0.7171203207583075  0.7139252639085969
  0.7849921840946319  0.7873126399496203  0.6416957855227873
  0.0000119534817540  0.4267451509507048  0.1406126211536979
  0.8579583866159569  0.7142606831438035  0.4287585672849644
  0.7854822202995734  0.7854556343372906  0.4988342078500190
  0.8440131682832773  0.1257724429648277  0.8648710753889731
  0.9291193391395824  0.9305141661945834  0.6423076481525931
  0.7807622093988393  0.2107844414982526  0.7914654845238789
  0.9324204067085299  0.2146913128745453  0.6328725283342970
  0.9288747833712283  0.2161325480131907  0.5016917398578696
  0.8575851200746185  0.1445881647670523  0.4288758819410280
  0.9299346385355128  0.2160249010798638  0.3582326202750452
  0.8575935039344672  0.1438838455781263  0.2871794221925318
  0.9294598316821971  0.2150805680224027  0.2138544089480456
  0.8580977733974112  0.1438649722787083  0.1420287891583881
  0.9311726380929968  0.2126886855140204  0.0687549803568177
  0.8533840336415924  0.1425320186098296  0.9970772934882197
  0.8595485628086430  0.0002133875760435  0.8552424587526770
  0.8590787206824800  0.0031710842203704  0.7150394771811062
  0.9285981045227413  0.0758411680217221  0.6428929665391724
  0.8581858760535794  0.7152377927636560  0.1438243779210627
  0.0187580621714418  0.1387591020170148  0.6953423430863963
  0.7138532137160329  0.1440405201605290  0.5702302187992038
  0.9975958373452284  0.7182637733119702  0.8570494773712667
  0.6488092624728173  0.4947191779196382  0.0667609372748187
  0.6395448307755059  0.5041465866709470  0.7866605908429678
  0.3546394566403139  0.7865245564579891  0.0723360376207722
  0.2835066877143720  0.7165628762519848  0.9993265115132139
  0.2881517722887377  0.5739730475956746  0.8590039386615100
  0.3598371756181632  0.6442358419997860  0.7867035346528956
  0.2895700040804999  0.5731282142159022  0.7136772214366307
  0.3587846902537701  0.7865702093910008  0.6417452291263750
  0.3574467350680756  0.6423795040560705  0.4998567075220400
  0.2858072760204558  0.5705115904717907  0.4293197119453214
  0.9289721128950620  0.6417361420303579  0.2157946926451625
  0.2198842558661720  0.2091264882548379  0.9330987615686035
  0.9507385368330200  0.3483643738768464  0.6437607056427737
  0.0728119582125901  0.9300186344954186  0.7846358584498816
  0.2182993321754607  0.3586477075820654  0.6423190289330685
  0.3590375065649041  0.5007753589252359  0.6420671672415703
  0.2877167231512361  0.4294845866929074  0.5712953887484820
  0.2152285924473835  0.6433004866523491  0.6425442983118853
  0.2266291089311920  0.5006865483232168  0.7864139444248162
  0.2866234552301524  0.2863559771824397  0.2848599015954027
  0.6435978637054167  0.2143432707944088  0.0721593704625812
  0.4267081029135186  0.7162403028267850  0.1437962118428286
  0.3580040641908446  0.5002089401672317  0.5000703515828003
  0.2137699302842723  0.4977373438951304  0.3579167532485626
  0.1421381705743644  0.5701498667532194  0.4298451218667753
  0.2121416878699732  0.4976705260793532  0.2137716933353879
  0.3549127206943966  0.4993429610589662  0.2128513196533981
  0.2836720342585314  0.4266306517686310  0.1419310417103676
  0.2153983690458615  0.4995779139111362  0.5009159292654517
  0.2793531808098851  0.7134033598465671  0.1395777680659283
  0.1417438391540927  0.4245422180706446  0.9931112772575702
  0.2810200302993576  0.7123286781611012  0.2887749539882875
  0.2856376921139966  0.8557967703636824  0.4276254296010744
  0.4996698875611900  0.0699856114799808  0.9290341835840383
  0.4296673910524074  0.9985671371687338  0.8570487195545563
  0.5703326746084971  0.9993441214838426  0.7122794608511949
  0.4298757423521588  0.9991617259469352  0.7132043627963562
  0.5012599458528767  0.0707684970851441  0.6403726619358191
  0.4300086456236498  0.9987612325902043  0.5696539897716538
  0.4299359246891793  0.9986940532177916  0.4271819571118338