 B Cr Fe 
 1.0000000000000000
    20.0899999999999999    0.0000000000000000    0.0000000000000000
     0.0000000000000000   20.0899999999999999    0.0000000000000000
     0.0000000000000000    0.0000000000000000   20.0899999999999999
 B   Cr  Fe 
  14 206 480
Direct
  0.0736070760564297  0.3304250844058697  0.7102495778554988
  0.9581520705938807  0.0643823820196983  0.5702822442027542
  0.0078361566779715  0.3309193443205756  0.6474054458946513
  0.9632403954450935  0.0706875063381743  0.7213863558636133
  0.1312636610493940  0.0747992278684464  0.9286989075568226
  0.8759148256138080  0.1949640114458136  0.7075154641034779
  0.0722445115289809  0.0141635132904309  0.9313917462040476
  0.1382471094121248  0.3316685914272354  0.7732425495094672
  0.9434874148938990  0.0074691931899182  0.5044897392135820
  0.0743991796624004  0.9997164772199690  0.7857302173869267
  0.1316833012656154  0.0837923746882214  0.6685561711611966
  0.0804398316924211  0.1538580678102341  0.6757095471296207
  0.9293354283350240  0.0179819840018091  0.7813960844110815
  0.9412056065952407  0.0167959504703684  0.6451726665874936
  0.5727111260163286  0.7147149818537664  0.2850822955262465
  0.4302668026048407  0.7150923100376222  0.1426546539616267
  0.6422664843408236  0.2144845212538576  0.0726631232593168
  0.1416809553840033  0.2854979801435784  0.8666263061943107
  0.2156036959764548  0.3580233702307139  0.3555498070099385
  0.4310796739189843  0.2860770801421231  0.1439589288208080
  0.5018855507202753  0.5007118281964184  0.6419258813751144
  0.2921303990265345  0.1412301821074456  0.5654110009497508
  0.5042361326701923  0.5004807551026694  0.4983329498717402
  0.5712326491996029  0.5717262239555641  0.5691900275375552
  0.4300560365258936  0.1433686952067498  0.8560481307511654
  0.3586700379482196  0.7829649293075052  0.7861221312698948
  0.3608085522122455  0.5020114545463937  0.4966763978085901
  0.4299340338051587  0.1429400577916656  0.4273051129267428
  0.8569979062324811  0.4319315023961593  0.7154833211033303
  0.5029965255811358  0.6434329872979486  0.4995713227508314
  0.2860684933195988  0.8582975613861524  0.5710859515679780
  0.4999955087656305  0.0713163902571221  0.9278640133415845
  0.6432866566409305  0.2158911814853506  0.3552839932411739
  0.6426504083331087  0.0706464061526770  0.2137049723200346
  0.5010749627497340  0.9277084613334997  0.0722798004984693
  0.7138247941897541  0.2861381092622721  0.8575614512084929
  0.4301699542563814  0.7146342396404222  0.9994749225910373
  0.6422673397052392  0.9257476872894681  0.9296569921576545
  0.9911687191581191  0.2955123406289294  0.8674548898902157
  0.5034806668615136  0.7848022956812276  0.6408586175808588
  0.4309241310466099  0.7156746930231566  0.2863055917850917
  0.6433500040191170  0.9271953414579237  0.7845117159566950
  0.2887274987260619  0.8557480747046236  0.1423221526851685
  0.5724035648432372  0.4324350898642749  0.4257222610837301
  0.6445295786177089  0.0711893082926992  0.4983421754432160
  0.3592436636329392  0.7826132237243003  0.9263081495842985
  0.1474780279107750  0.8493947473064860  0.8581593845390716
  0.3591767994129396  0.9278640380560204  0.6409774236379195
  0.3597918028766516  0.3574235798450562  0.3543143261722955
  0.2127490959009274  0.9302165266867793  0.5025604874915752
  0.1424935233677501  0.8565027676759094  0.1417127758591980
  0.5011105163445769  0.0697362923965613  0.6402572455447740
  0.9291757561943397  0.0761237004403034  0.3539448657365415
  0.1432309568499036  0.1437818947739716  0.1453111175290583
  0.6433308542972592  0.9264260277620820  0.2139426502274109
  0.4297151552249036  0.9991011509458764  0.5709639918636670
  0.2938049987582997  0.2868601250425241  0.7091826425613684
  0.5012771069733905  0.9279262470156094  0.3570316579837350
  0.2174969840677873  0.2164562222393419  0.9280694673319256
  0.7743228765777143  0.0670862638312885  0.7883139893286996
  0.4299298089083757  0.1422022948108492  0.1437289820229197
  0.8543923188440190  0.8517652778964335  0.7144979933920719
  0.8588682262285928  0.1447211053250744  0.2840532907926602
  0.5728149507444296  0.7143419657597126  0.5698529392604310
  0.2848981303420413  0.2869478323673380  0.2860360884009486
  0.7856554600968753  0.7853439256759712  0.2147606313263167
  0.4994381438793591  0.6432440852131122  0.0707347303329547
  0.2159994678077637  0.6424528580489848  0.4983544920337500
  0.9281131619578106  0.2168739201336889  0.3539547975247888
  0.2886481186455270  0.9986058874709188  0.9989586648507097
  0.2183325175000015  0.2114377224490692  0.4977934346802530
  0.4305204176575272  0.5729613360765793  0.9998888048087017
  0.9203571273246833  0.3638766864920994  0.7916893967023968
  0.2909194715168279  0.8538245066056789  0.8562313190774031
  0.0734161689078281  0.7799162676774239  0.6434441431662400
  0.1443969968992642  0.9912911708568798  0.7128180191701640
  0.5732994009651843  0.2872913693747638  0.7123493198318792
  0.4324369216677890  0.4288513183303239  0.7106779391177649
  0.5726106181576396  0.7140021633889786  0.7121808558509127
  0.8574913615613998  0.0040227461593334  0.8551627574601084
  0.5001457543623230  0.7841182576262139  0.2149654894883321
  0.4300717381351625  0.7145642598390158  0.8564288453616498
  0.2179475255527601  0.4991787508447631  0.6425874785975060
  0.5018130889367445  0.5013935241118486  0.3551259978951424
  0.4318622168736333  0.5718844880319470  0.7120880166449094
  0.4299776895126690  0.4296864041895074  0.2849896235982615
  0.2125808799682435  0.9288798437834307  0.3555952302731269
  0.2872119424905452  0.2866254146641578  0.0011071021382285
  0.4987249143545887  0.2142687302042713  0.2128215448775912
  0.8555947612595257  0.7101550641139898  0.8573540999495128
  0.2890911305409700  0.7121305170679495  0.8559289231816303
  0.3596800070578385  0.7842486025982423  0.0720034788187073
  0.0012505429679378  0.1458383959841991  0.2843867322543895
  0.7130744465075481  0.7123204505777785  0.0006302962556464
  0.8567912763105116  0.2918487722905913  0.4216565133046905
  0.2158097842774624  0.0751806246191548  0.7802001131118654
  0.7133956139959772  0.8569783374227695  0.0002561813725017
  0.0009426450343891  0.9949787847845704  0.8565919499489908
  0.3603474559331661  0.2140084035422375  0.4964516689377018
  0.2854520826142530  0.2873757541342997  0.1430997779750581
  0.2914407488931644  0.2881128978807312  0.8614922740627053
  0.3579820796522228  0.7852864891339467  0.3556262170998284
  0.8570088318671668  0.5722650244290731  0.8575728368141219
  0.7150272656568903  0.5715617676706934  0.4258634111874569
  0.7864218955806552  0.6427236229860301  0.3556126492565148
  0.5711392868966662  0.5725428622440875  0.2853335258066244
  0.9293559223767671  0.6443811970717050  0.3557319796288094
  0.7153140246524328  0.8560411777806388  0.2849457826222090
  0.8569316752245449  0.5724469864913562  0.2866503440324775
  0.7122870641088603  0.9970991601998043  0.7117458894649544
  0.9298924019392283  0.4986248147495069  0.4973208688196142
  0.5754584494345966  0.0016199729119592  0.5719243273996946
  0.8635840557784706  0.0007792909017714  0.4285587183395101
  0.5727610219505102  0.9984950184597466  0.1443917773146876
  0.8564287777111700  0.7135182336592049  0.2838480706597923
  0.9287422654078844  0.6436401530225900  0.9278768195977343
  0.3607535248722980  0.2178170889394815  0.7850176133547666
  0.6418058230843600  0.6431611440058250  0.6404248521456393
  0.2918867081364938  0.2887209368429614  0.5626893175620037
  0.2153227653754802  0.3590676625142168  0.0727329424128023
  0.1432415384595261  0.0011277290156742  0.2859677717564976
  0.1437134705047132  0.8560028919761314  0.2870044999611330
  0.2261991347552499  0.3633656433327588  0.6321966178700752
  0.0013646051571530  0.2967412207555453  0.5502402233312234
  0.0017378285439538  0.4212256708244020  0.7081775448228687
  0.9289849885879978  0.6402257371243799  0.7871061023852342
  0.9299634431141692  0.5016607734788391  0.3542923940377805
  0.5721113020998849  0.4297429370456464  0.1432689122557164
  0.9292991726325879  0.4973905652738825  0.6429207515173673
  0.6433144336524724  0.3588191348310162  0.6417876569457641
  0.9998884377707601  0.5662592569852297  0.7124965899976998
  0.0740719577158912  0.2154775236917390  0.2135005042355608
  0.9308304412319708  0.7822218228176308  0.2149053741655172
  0.9987670257514702  0.5698326984607684  0.4264612195455879
  0.9257249177435364  0.5034480778249392  0.9313103678463333
  0.8584564800854353  0.7104911081524846  0.4268801547885743
  0.1453879117849163  0.2868769116763116  0.1448364559822307
  0.8567367080914051  0.7120261354145256  0.0002926003116639
  0.2164218957121759  0.3570348045247358  0.2126600454984288
  0.8566147066268222  0.7085719494163096  0.7143002827911606
  0.0753209334250038  0.2186793470406603  0.4977552685615528
  0.6409590922033829  0.5029608828449916  0.0738278588798906
  0.1452802848002886  0.4272518665044281  0.0000472413199561
  0.9305902523431148  0.6416301811156330  0.4969997517070270
  0.5725400859574882  0.4307496754652907  0.5698300368145194
  0.6443061753297781  0.0703202343518896  0.6420802032879231
  0.4312982557946688  0.4293419684492126  0.8576343458238416
  0.7845947839494465  0.5030097897588853  0.3541359184765102
  0.6425621726784271  0.6432972925841184  0.0717759937719655
  0.6419905748521703  0.5018520123705479  0.4973474333592256
  0.0621941502411687  0.0709096316893502  0.5067713298159463
  0.7862925577513863  0.6414620538903725  0.2145401429879553
  0.6438411812725411  0.9281997304504582  0.6400469574311065
  0.7826629057850808  0.3604051735287720  0.4934659569818129
  0.7149934203391360  0.5732815841425775  0.2851415932785336
  0.5718833901622347  0.5744242100629874  0.0011265055044952
  0.6420044573539603  0.6419426821435354  0.2150157605426139
  0.0933890578134173  0.2326830035730061  0.7598276662736448
  0.6416790663947886  0.3599378094709661  0.2133008516307718
  0.9269014681085552  0.2167855328987654  0.0733318544978066
  0.9297142306985801  0.3601507548906823  0.3542450307479602
  0.9132182944088676  0.3619179490921310  0.6403673557164723
  0.6423210067281829  0.5039580995400517  0.3551899467169689
  0.7121265489496029  0.4300236458730833  0.7132192127630532
  0.8517172955338540  0.1506184055170930  0.4190082715402396
  0.7119205887297428  0.2895506722363211  0.4242245692384430
  0.9288918966146410  0.2146245017058800  0.2157508749077169
  0.7126156042698287  0.5737487518505862  0.1430536160073724
  0.7869904635431585  0.6423309202681591  0.7855421436911924
  0.9296734310096203  0.4996737889580325  0.7844638575066244
  0.0726067319844739  0.0717029127400439  0.2151107456968931
  0.1375844312628924  0.0059957692751585  0.5794865419093340
  0.1483118859690232  0.2866688083476632  0.4264560494007837
  0.2850420217522199  0.1433949480593217  0.2858449323203353
  0.2187873664215450  0.3588808084229708  0.4947936077279032
  0.9302775277543165  0.9283780820201365  0.2156733760430058
  0.5026010680752629  0.6448638004225778  0.3542268766322935
  0.5708947471314239  0.5721299596158776  0.4268295227188685
  0.4994320189569277  0.6434212953969187  0.9294382111201230
  0.6433041693470514  0.7851227032093124  0.4997625818960124
  0.0003215594941722  0.7141131328330430  0.1435911332042058
  0.5719201774220538  0.5722500243585267  0.8567780943981281
  0.9997538475428669  0.7105790109944424  0.8564446278507831
  0.9989056419046421  0.4259045125028902  0.5710171624300235
  0.2868694956660727  0.7155961459527022  0.2855100993804757
  0.1447421661298959  0.4225600792040105  0.7131598601902677
  0.1474806028459610  0.1486199013200415  0.8519682954489205
  0.0726238992266190  0.4952661929776206  0.6412098198424077
  0.0038284757004445  0.8467868640008605  0.5716070065875307
  0.2166838473326939  0.6398777138635002  0.7851621096358403
  0.9974268535908426  0.5695956540635594  0.8575795892712470
  0.0011604231870859  0.4302102591206787  0.2863227900063664
  0.0010158973565215  0.7140995713785997  0.2851420942023524
  0.0369632101882744  0.0662645762828545  0.6408079732049510
  0.5732706779615904  0.8573141223929391  0.8562811539345928
  0.8560457363266553  0.4296808384750532  0.1434812609397564
  0.7862256190463109  0.6437955907321037  0.9298619659612910
  0.0634688889703293  0.2437063276190941  0.6383525687815618
  0.5722819877718651  0.5746199245639277  0.1411670537730578
  0.1459354616214957  0.4285606122389931  0.1440988258961531
  0.0734420511901626  0.0953225997733310  0.7670422266112837
  0.0797113564402958  0.3617016063957780  0.4927708544634682
  0.0726308265526788  0.5003466494988461  0.3559237951870010
  0.0021108419719936  0.7119584642415812  0.4276695858286722
  0.2876481776379796  0.5719485235762058  0.1427140012500776
  0.7857044748099429  0.3586215563800677  0.0730743857802757
  0.0710964370316563  0.7829504141261544  0.4981656565826999
  0.8560917616974359  0.2863065349612702  0.0034170192554555
  0.2167528290562251  0.2152168865996678  0.2132698097469088
  0.5735834729820932  0.8564360065481275  0.5708234444411857
  0.2154305948437109  0.9268467377235009  0.6416415250539551
  0.0007469338759519  0.7118529643461220  0.9993364604869293
  0.1344603880879452  0.1468049743605369  0.5792751202384284
  0.2166951521906391  0.2136466850539272  0.3557116738672213
  0.9994389434611990  0.9991486326033838  0.9994655493033789
  0.0714537534189899  0.7836987802438049  0.3559007870203891
  0.0037211193574737  0.8530054864633160  0.4259172037460085
  0.9575569450289649  0.1067055493756227  0.8288446411642204
  0.2176171569139131  0.3584068683297629  0.9294362473017670
  0.1470370418054568  0.4301525748611777  0.4253330245283711
  0.0724328665909400  0.6431038753153747  0.2138820789556234
  0.9305448974983417  0.7808529962785009  0.4977749231572168
  0.7141997547001411  0.7128935976679327  0.5697663982425171
  0.7125091044112549  0.2885009753252812  0.2831771845099845
  0.7841576422499785  0.5011119956903957  0.7855130992695968
  0.7141913001375236  0.8559414388522877  0.7130925580462526
  0.7139922922787021  0.5716013691840660  0.5698755047516852
  0.8582025833618092  0.9980921123400092  0.1442072281327036
  0.7138157584841422  0.5726728900916662  0.8571850389908683
  0.7821480385389050  0.2163226247916938  0.9330660508831715
  0.7132520570434614  0.2875671371464625  0.1434410634685132
  0.8559684316635835  0.5730036703982422  0.0014911080253017
  0.7131760005825861  0.4301721422424510  0.1432026009029404
  0.7131918707696815  0.4313258455586266  0.2841914697866776
  0.7831785736148352  0.3605817759574256  0.6413869982874584
  0.8578000021002224  0.7103725008253677  0.5696493163420707
  0.7847941713735895  0.5007385226988454  0.6415612464677377
  0.8570423235624486  0.5702820240476243  0.7137259943361298
  0.7138602758435649  0.4301204806843216  0.5686322982431965
  0.7127945599027525  0.2872016518083276  0.0030302550703671
  0.1440708113715030  0.5679995800861705  0.8553533213392486
  0.2160856271320614  0.4979278474670809  0.9280891986326469
  0.0720068649704865  0.4997254332871774  0.4978044822457567
  0.5728002098645703  0.5716410285209012  0.7128438314762984
  0.0043707321967192  0.9730122004776735  0.5749860310689974
  0.7821424216268070  0.3603951563643211  0.7881528785232390
  0.7140264731965044  0.7138357589772143  0.1441828166941775
  0.7123199463933821  0.1428833877072753  0.8580693550090880
  0.7827217652764646  0.3599441301722540  0.9322066099975167
  0.7857832240219191  0.6414598397224167  0.4980026885706020
  0.0002867509830924  0.5714873816394446  0.0001696854526365
  0.6436099203422835  0.3578806384821369  0.7846584507860001
  0.5720086867056586  0.2864258534910909  0.8569214670387072
  0.0727304612022292  0.5004927970391903  0.2141462848103943
  0.6427629979121698  0.6438002202120726  0.9290777390280359
  0.7838050621326980  0.2189047827822383  0.3526577776317034
  0.7129159426241717  0.4311607254650596  0.8580504088848371
  0.2162199628051780  0.6437495270884943  0.2138514436857062
  0.7140981100445695  0.1427966871251462  0.2845875798508173
  0.7848236529017886  0.7827221393566237  0.7854754184644342
  0.5711734516188384  0.1422238663281498  0.0010568195258607
  0.6430406543888547  0.7852290187146670  0.9286938470742271
  0.7116901118900227  0.9961443535022929  0.8583662534685755
  0.5021414496652364  0.7850090255652669  0.7846035045257007
  0.5720236222455539  0.7139361701358807  0.8569794077434514
  0.6433082999973208  0.7850962215303167  0.7846581588057800
  0.4309760433822233  0.7144434355998158  0.7131947152394245
  0.6434488812229355  0.7847468933647141  0.6415751800208621
  0.4310259969689817  0.7143797397569421  0.5699731355376705
  0.6445083752150440  0.9287400616830930  0.4997310695840602
  0.5725524122489366  0.7146790638194715  0.4281309195760359
  0.6441967298341524  0.7850233056189810  0.3562335109692690
  0.6433461911986901  0.7854717962081165  0.2147417864329370
  0.5716888817209125  0.8558836629913382  0.1434025958151305
  0.7853443724498164  0.7837958316661136  0.0713004846783308
  0.5712551790713581  0.7144543458038504  0.0005069878060774
  0.8587226300019671  0.5706300663761428  0.4266714673585036
  0.6413711051688181  0.0698626034250199  0.7848517361947488
  0.6429209398836025  0.3582340883935781  0.9290535941385500
  0.0724219820368325  0.7808478051556607  0.9286134778687278
  0.7858494353832250  0.6409019543974410  0.6416523312203244
  0.5023314985055873  0.3589114659051199  0.4970746084644486
  0.6432308509192988  0.6424593508846742  0.4979281027412479
  0.0017918818593133  0.7099323160750295  0.5704039111412444
  0.6421268640782816  0.5024553751544687  0.2133100199741916
  0.5007988388213367  0.6444794327479283  0.2138740321569036
  0.5008063302582115  0.3582747542970309  0.0724607779120263
  0.9984537833560428  0.8496085376527094  0.8584306460401684
  0.2156767920985707  0.6436684493128634  0.3559081146139689
  0.8530073309642781  0.2934791044065821  0.7174121308282940
  0.5721509985835337  0.8567944338161588  0.2853398636163050
  0.7871417359253403  0.9264360462799296  0.6401944195555787
  0.1438730453989163  0.7113126322106376  0.5699632062091774
  0.7157178395883674  0.2865832762972186  0.7134683795423535
  0.0695650301088214  0.4955451568870262  0.7853750003684735
  0.0725894745520401  0.6383721289541877  0.6421651214502226
  0.7848390064831954  0.6439015951707531  0.0719137729772798
  0.7135410583686570  0.1426787372794753  0.1438648877094078
  0.7157644137886546  0.1439048472167873  0.5695051098870051
  0.4293588678742216  0.8564160176477120  0.2858399978310220
  0.5715407700900604  0.8562667668040559  0.0005346941505883
  0.7843759961554647  0.5023198458835523  0.0735421255101832
  0.2840718438511475  0.0001032050209047  0.4293189907627939
  0.6426731199884684  0.6429763376792071  0.7850840878927062
  0.7124651523492350  0.1427442744318964  0.0021770022665276
  0.7141502197432966  0.9984355420408885  0.1440445273461770
  0.7877251686883537  0.0710020264343932  0.3556927727071137
  0.9282196819977414  0.5014003768794106  0.0732569719095975
  0.7852237889798385  0.5015966295741275  0.2135750615486421
  0.7868635421695128  0.0708960310280973  0.2149985991097860
  0.9292431925810627  0.7828231833046593  0.0715387525892603
  0.0718523686622453  0.7838547551022782  0.0715112206154171
  0.7849303794268027  0.0702325781003355  0.0731644518237403
  0.6420427067920997  0.0702662797015673  0.9293799911356517
  0.0729502231003629  0.7855769890302214  0.2134933570019788
  0.7855777527027935  0.9271410977556028  0.7853718062901900
  0.5730258307021624  0.8568333247834274  0.7121927476836670
  0.9999759167454148  0.8561820263194780  0.1433967535464996
  0.0720151309077955  0.6423978592422961  0.3559534565327863
  0.5729446573769817  0.8569280395182182  0.4281036241691366
  0.7166228025371753  0.9996419580520860  0.4278306224805765
  0.6435007043622495  0.7851875502250516  0.0711892192614083
  0.8551557861824276  0.4325183773730473  0.4237099366886433
  0.8589065169863427  0.8551930184307496  0.2843640080852939
  0.7862275899348360  0.7841041406269312  0.3555367579315109
  0.0011930574146944  0.8555920872100486  0.2847114223796359
  0.8701109644753507  0.1077107242176673  0.7560972908575486
  0.9061420845342518  0.1122302007587484  0.6451795379739061
  0.0716501240439589  0.6406875521645248  0.9275062374165189
  0.9290341104884962  0.6393260828180525  0.6418541883066901
  0.9266974932158956  0.7801017738171716  0.7855389208526798
  0.7833820595962991  0.5024289067300148  0.9306622808541315
  0.8516449354538879  0.2902622867852414  0.8640992006044854
  0.9282557828245341  0.7790955779777204  0.6427952959024921
  0.0278640899529399  0.1946996294405199  0.8334709048842056
  0.8580589056613680  0.5695754978733921  0.5689255118107490
  0.7149197885945376  0.9989947761791409  0.2849575380763817
  0.7150337660966923  0.7137796382426069  0.2841835593335610
  0.9294082482278110  0.6430651122213932  0.2140138068919422
  0.8570725276557992  0.5727054963791125  0.1430370352357191
  0.9283344923127136  0.0700813280060687  0.0739655642334584
  0.2169546171419152  0.9261784934984740  0.9261217210170616
  0.0002325930989631  0.2864165126629445  0.1444613142342368
  0.9289072196285161  0.6434140189288314  0.0720522104641185
  0.9233190690481394  0.3606977967454020  0.9353071564953384
  0.8534651675627067  0.4325826572179420  0.8609128605965315
  0.7135862872779470  0.5718439921475718  0.7134306423156580
  0.7147998815964064  0.2877886436896631  0.5698678991712670
  0.8544025170544792  0.4316075637912205  0.5658667370691740
  0.9251597053204987  0.3620204841516529  0.4918687040866222
  0.2871386080608063  0.9993099024859390  0.8539252938084280
  0.5004008745774624  0.7850435131674257  0.0715136043342488
  0.9272603603051484  0.9252447460565550  0.9279843539109689
  0.5012514037619779  0.6430306988443056  0.7844215586543344
  0.0026110697860428  0.2903827702108940  0.4216819616083651
  0.0008561304147202  0.5719454754770799  0.1430990980799429
  0.9274382858806629  0.7816965652796483  0.9295361804195732
  0.9979826148453977  0.1457774133662951  0.0108640029114560
  0.2160414609067806  0.0720827277228856  0.0711103740811564
  0.0010116635081730  0.9987397638758705  0.1429658576473389
  0.0011372410598735  0.0003889628221965  0.2855494228827806
  0.1410737086509948  0.0017528800139542  0.4313435940269883
  0.0734134756233730  0.9272906612896439  0.3562898884614835
  0.0017201994450105  0.9988492090231975  0.4237356662002197
  0.2115030448725087  0.0725581898858611  0.5030961029237935
  0.0776024011993464  0.9155392173334190  0.6458319163343270
  0.9295444037820045  0.3596087242626569  0.2141995595899362
  0.8644291562807722  0.0040745897107789  0.5713114588762293
  0.8582116842036143  0.9938635765784812  0.7100884656772875
  0.7128331961386551  0.4310817996116042  0.0025882113091549
  0.8567822457027149  0.8509402083186436  0.5699600267894891
  0.9304511336650571  0.9117014594365663  0.4971363337804900
  0.8573779396747739  0.8531113971594446  0.4254234151979451
  0.7866169942130286  0.9269761626872917  0.2147935407085638
  0.8568530852251971  0.2872719749739613  0.1442632284650650
  0.9290573948207332  0.9262093628878375  0.0706145237188295
  0.8561326938046637  0.9967705140611113  0.0018819590996789
  0.8567711866750157  0.8548052511101768  0.0013734475833148
  0.9299163783909383  0.0720327354548231  0.2146018123587145
  0.0006480534641965  0.7095461501792848  0.7135010901984739
  0.1455847822450244  0.2866674759363889  0.2843487787081598
  0.2872748577990043  0.1429763813476824  0.1428373914830682
  0.7155017136354747  0.8564281871215498  0.4282908357673320
  0.9138538077315106  0.2179732364491948  0.8002064562146960
  0.9321926514886464  0.2404836398183398  0.6293347244765186
  0.0532743464764819  0.3633861665802310  0.8034000072564733
  0.2885372905534907  0.1459562940522458  0.8533675374726678
  0.9302885591685431  0.9262794058617480  0.3565008268913140
  0.0737981160403824  0.2166750522725981  0.0742422349904361
  0.9235271690247405  0.0707269370118779  0.9372350072267654
  0.7871543972890725  0.0739017284023080  0.6439425233053586
  0.7853970329115855  0.9261185447812801  0.0724832760369668
  0.7913800892691087  0.2147642513986204  0.6428156178741000
  0.0006873515182149  0.8479292245484701  0.7148864838396083
  0.7150062479868285  0.8557954954515516  0.5697859432960870
  0.8586171794727691  0.8551581478201216  0.1440041630451689
  0.0754396758258328  0.2179603513186567  0.3543054242681771
  0.6445975850169178  0.9274208666932673  0.3563903951140920
  0.9303024209965797  0.7831094195026886  0.3562880235612745
  0.9323857218618115  0.2074621723237297  0.9282161238060807
  0.7856474047667954  0.9270743958124364  0.9283002474995600
  0.7841986065853535  0.7833236419310138  0.9301459018037602
  0.7135362568862444  0.8562199741419455  0.8571648681873297
  0.1443459458019946  0.5702008271367121  0.9993911790445335
  0.7141256527664915  0.7123300047918166  0.7133009526139235
  0.7855018677092941  0.7821254918465416  0.6422136737607288
  0.0014066916148647  0.2871797349098646  0.2844877444004029
  0.7144974790817734  0.7136325817419499  0.4273789813257062
  0.7868638034098548  0.7827905714410842  0.4979117813209304
  0.1450727058895471  0.4293900179569300  0.2846266767058707
  0.0011192242582863  0.4295592125860105  0.1436683013061072
  0.1538306323290645  0.2820067968914828  0.5631787933655160
  0.8512033737637236  0.2925507526109631  0.5617071351391525
  0.7882336765159533  0.9279556172061363  0.3564294486588816
  0.7899722111609372  0.9285284895006320  0.4995544223479062
  0.0707756178731035  0.3600182244557246  0.9333338185078081
  0.8532994364353481  0.1558781571037527  0.5567992822587673
  0.7843811117273431  0.5015116843295314  0.4968175182468730
  0.0061344088396510  0.1513782099858188  0.4230539914168068
  0.7842660967986318  0.3595966498411168  0.3536681843544960
  0.8576261797674586  0.2885833995246233  0.2834394069271197
  0.0734542564468609  0.3585741974541973  0.2142844521992311
  0.0748663447183753  0.3597796877094993  0.3545463838369947
  0.8544601120047126  0.4318924268001332  0.0031773623045797
  0.9271862506266567  0.3593118373039184  0.0738529559927236
  0.7846839248583943  0.2158108214776404  0.0736596942509291
  0.7146065251507748  0.8554779044633557  0.1437607326179187
  0.7133982178700227  0.5727454800404468  0.0012765861192567
  0.9242631651824609  0.9153828645833693  0.7881047973525707
  0.9916145103184478  0.4355220543049025  0.8659303314784168
  0.9268450824123542  0.9124371266329467  0.6440412244056005
  0.0939263890192120  0.3652066901224582  0.6191362591903996
  0.9985707581715063  0.1605897602663803  0.5691060774745392
  0.7136512026252073  0.1439652591577243  0.4250629753743218
  0.8592081429949112  0.9994170025151795  0.2857084015516911
  0.0011924030197131  0.1438308079984744  0.1450342130850444
  0.7854891618262602  0.2155990218320018  0.2143226511771499
  0.8572514167988410  0.1432591656170040  0.1438223704089256
  0.8554148522532294  0.1439383698795635  0.0037057011090490
  0.7116929862606616  0.1423848591095674  0.7133671542993916
  0.7822292279824872  0.0683836669308195  0.9318014459066932
  0.9254368631279807  0.0972920824931627  0.4820773004777060
  0.7878271532706858  0.0734938660311893  0.4959782484170497
  0.9816640836223732  0.2878871085015010  0.7329149710415450
  0.7142335485944918  0.7132929694329769  0.8570024397405556
  0.7887143841535389  0.2101501148718472  0.7832231545995999
  0.1455103781890772  0.7098574258375808  0.8563206337643068
  0.6421466009257735  0.5022628243974032  0.9294985899617342
  0.6432831796473218  0.2152976142692208  0.7848289538153936
  0.3583571165930669  0.9272541186141873  0.0711945815997178
  0.1448990864769400  0.7122784009832888  0.9996560586686589
  0.0712537651996024  0.6382684020288281  0.7855038711368328
  0.3604118098552255  0.6417404326972403  0.7850816221781995
  0.3615950967476311  0.4996530395728803  0.7842307709207855
  0.3587945566180882  0.5008888767199629  0.0716110953903846
  0.3596553662409355  0.6435502514760686  0.4983748144530719
  0.2899344392732192  0.5735149727719386  0.4254281183688847
  0.4308834888693545  0.4306455036848199  0.4258347254504752
  0.0730470289781924  0.3584334815209779  0.0731856007714998
  0.9972094409483881  0.2879149675338638  0.0044013117948016
  0.3591588482195053  0.5009451614951320  0.2136844059814715
  0.4315939956195365  0.4308471896971965  0.5679918266888285
  0.1452976523583883  0.5698589653654402  0.5697199451528258
  0.2164720930613850  0.6401585883703576  0.6417651128829264
  0.2881278460924721  0.5700359955585653  0.8558242408906870
  0.3586489350825405  0.3570550538789816  0.2139828815641173
  0.5720861439717353  0.2861677465982773  0.0014759805135038
  0.5719332892875659  0.7146724535616262  0.1431658321329545
  0.2878344049869984  0.5709497857372285  0.9997348290198941
  0.4318417553506996  0.5731211827556608  0.4268448558492001
  0.2170342731041692  0.5012129626577333  0.3548655227389190
  0.1438395605326465  0.5716147132991994  0.4267182083412421
  0.2166533177782780  0.5005749131836895  0.2135650314759946
  0.4307695369122755  0.5729291898054997  0.2849018718020577
  0.2874723070294257  0.4290864285068554  0.1431212018270164
  0.2205883989006573  0.5043758308234704  0.4936288757902737
  0.2879363243352848  0.7143112898927017  0.1425330510025694
  0.9991431997073733  0.4310356461016204  0.0023603965419192
  0.3595865410684997  0.6446798839140905  0.3548822502436045
  0.2873613806637077  0.7144003758216143  0.4273476676972784
  0.4305107432825168  0.9993011399950789  0.8559627924975829
  0.5717707674065187  0.1422695691485198  0.8567447942487078
  0.5011021810265959  0.0711948218267691  0.7845542502268794
  0.4305509493954234  0.8559716143672895  0.7126958771074302
  0.5724668708665298  0.9986351726078578  0.7122424083339042
  0.5017893856102821  0.0701354985046676  0.4990358802188113
  0.4300855995485586  0.9987399881696606  0.4276507373913758