B  Cr Ni
 1.0000000000000000
    38.6592778936156378    0.0000000000000000    0.0000000000000000
     0.0000000000000000   38.6592778936156378    0.0000000000000000
     0.0000000000000000    0.0000000000000000   38.6592778936156378
 B   Cr  Ni 
  44 238 462
Direct
  0.9378343754166943  0.2091822498152353  0.5530327450697803
  0.3601642130339556  0.4207890093782160  0.5001897689441070
  0.3834554574670695  0.2248649739412681  0.4897310903204992
  0.3581067977144731  0.7046772698944153  0.5175971341867414
  0.7223409475386879  0.1767968495470511  0.5386784066461074
  0.3879549429451121  0.0644431617165587  0.4825519785473981
  0.2730145090801921  0.9923775811588452  0.5546413328925113
  0.1124098554511725  0.8884523486646700  0.5488796396054930
  0.6316264705486709  0.7619001777535409  0.4775073886750942
  0.6626531551160632  0.3417368914038647  0.4922140551684367
  0.1234188664952238  0.8757020910433164  0.5084931968661405
  0.1100864397845433  0.4115978713147088  0.4706418547876192
  0.7211644429865198  0.6510694585343660  0.4836490876432367
  0.1391988855853082  0.0127912779619443  0.5499886617252927
  0.0494523349424443  0.7026763458438128  0.4160484125273895
  0.7954129966801528  0.4187850799542294  0.5310095837219383
  0.4791683579599871  0.9735041428949334  0.5130156987764286
  0.9910169283959545  0.8576166021959446  0.5141086745680445
  0.6977824252307934  0.1199909416147746  0.5923269296005280
  0.0450292802673898  0.2104605207908812  0.5298247127173298
  0.2000090493239980  0.9288248241138084  0.5708121642443585
  0.7551844166762804  0.0752559136828256  0.5083273461708641
  0.7733601967338820  0.8027659629653598  0.5324630724764408
  0.9636720373026741  0.5865135781829195  0.5060840603327756
  0.6952799571890282  0.0108930665144173  0.5062634375596328
  0.6057213557175881  0.1863163410112037  0.5570134871317725
  0.4582903065259205  0.7226380808784486  0.5070055263796059
  0.1824252713308974  0.4485216871921203  0.4843951680572419
  0.3025673613026291  0.0663554289831014  0.4272972677968521
  0.1240930281738575  0.7788123149185211  0.5303697272505357
  0.0457939012247540  0.9092482309767959  0.4647817475663107
  0.2251954672081065  0.1908262640258368  0.5216717587339430
  0.6086044214490383  0.1235644376701279  0.4543968537776321
  0.2576884210618727  0.0077288636118135  0.4582651317757925
  0.7525933978096482  0.6645200144523410  0.5115650612973207
  0.8726279152448805  0.6407667272160350  0.4889363334696817
  0.9044854719578944  0.7044716241346604  0.5454669205874493
  0.8972773176516635  0.1875973941590759  0.4780231374381730
  0.0307460615706359  0.9198408491094630  0.5434114879111306
  0.4409170055181231  0.1516183449363132  0.5112299711059514
  0.8408327032336760  0.7603419762795582  0.5043104496791133
  0.0542095066215398  0.6893651222881663  0.4981594234746134
  0.6584015168696583  0.4205338457571462  0.4243027510775584
  0.2765468776419798  0.4591182083644944  0.4589637476412186
  0.3721375092807006  0.3079056169608484  0.4442299560855043
  0.5336685899492742  0.5575175418089267  0.5174569697155800
  0.8294605007733660  0.8028203650329813  0.5381907477055181
  0.4720176522922875  0.7921343485157997  0.4336012196228771
  0.4270697846759987  0.8730393082898243  0.4504537221853740
  0.9987622638073931  0.9831673507221776  0.5965396056317854
  0.3441365490421793  0.0305989283265339  0.4992233236235518
  0.9395678288680125  0.1591493723096139  0.4590036434246531
  0.9358787402450190  0.9839550274279969  0.5810930066551248
  0.5841691802694250  0.6694833636532339  0.4977741507896529
  0.8817467082850462  0.7983526453424535  0.5100464629191931
  0.3132497199950194  0.9224216501124041  0.4625713168434396
  0.2718011571334754  0.3571576045772008  0.4500971853599989
  0.2641796708674412  0.4126465369876368  0.4923073092714401
  0.1447839369706573  0.4206621314024184  0.5154322926860245
  0.9901428532557235  0.9556824173938698  0.5429843410049685
  0.9321903567216069  0.9242547935286678  0.5341207407931516
  0.0476036883236206  0.8280308356650101  0.5207861552039624
  0.0549734939819913  0.8104375496722992  0.4455397210840039
  0.0923082065180670  0.7331673041894277  0.4929820787801625
  0.1873948745264436  0.5635730378785034  0.4585270422095408
  0.2933619870262420  0.5813383966158600  0.4353754019039194
  0.3280054301510950  0.3233946269501358  0.4820593157894351
  0.4235253327326133  0.2928884834584218  0.4081772401708229
  0.2071334548273891  0.7977010749759952  0.4589124088840236
  0.4686555420736315  0.1289781799734181  0.5550166224659223
  0.9629411772303035  0.9673147044596041  0.4893248426672992
  0.7016698202883430  0.0644854299868979  0.5900118220913997
  0.9150669349875846  0.9841360369205411  0.5242196617414773
  0.5067192837223049  0.0776763690930991  0.5259297711035389
  0.3754782297707809  0.8191988100958102  0.5600340144815097
  0.8159675410248046  0.6108891689111262  0.4847122547240309
  0.0066115988012330  0.3560283609500551  0.4773469247535759
  0.8781619488789458  0.4126781098144032  0.5015459775070855
  0.3868417272634940  0.1830435812947235  0.5264182316654502
  0.8257016550794735  0.9543611810826295  0.5614986418674799
  0.1087073746692686  0.8323509204323967  0.5405202090550113
  0.8598765085545579  0.9528072683783673  0.5166025746967243
  0.8374021474260547  0.3183986764146804  0.4856935406624629
  0.9680188550030108  0.1324754332911633  0.5013531909543677
  0.7209553465778735  0.9548921138505991  0.5879507415335263
  0.4098044789426167  0.8789546984537759  0.5003238238570703
  0.6265452472890707  0.4554735544540749  0.5132488787309929
  0.8907130478941261  0.9398049356421161  0.5750881426052136
  0.8595931969478848  0.8921237417534733  0.5951466536641475
  0.5943983739182280  0.5567911061492956  0.5370267622309125
  0.6703009207376759  0.4526890533892822  0.4735258580752059
  0.4726540016773810  0.7323233228334669  0.4498673010728691
  0.7279086283779410  0.1184306592422610  0.5444471422334165
  0.9660362495243964  0.0277816732041280  0.4707256655572603
  0.3704183108300642  0.2379445668766595  0.5652459198608487
  0.9517270741911409  0.2008408881747221  0.5009148877304592
  0.7536239653753966  0.8530091965819526  0.5669037948619234
  0.5155165032637798  0.7240535838262758  0.5147840835303144
  0.6186715021519016  0.7679779112562285  0.5321827603124379
  0.5329121165736014  0.1364336261245587  0.5285583606807269
  0.8188144462084429  0.4365519544756403  0.4818572349887194
  0.9568524591168878  0.1565852029733980  0.5536851274335737
  0.4168618691558461  0.6818121444509271  0.4958863233501886
  0.3443513554180140  0.1017577337918798  0.4073994735966146
  0.3504002078591086  0.2675421208626501  0.4989686050589083
  0.5153478719836964  0.6210940116245518  0.4985563149735934
  0.6817750675161598  0.9111466773883385  0.5800076760186076
  0.7511384664830605  0.9457478017521416  0.4848224904378240
  0.3303892522058485  0.3537731541338403  0.5344225844440502
  0.9992854498597445  0.9139392539175820  0.4954862151464207
  0.6350286460149769  0.8200267112463366  0.4801450132233424
  0.1338627693483254  0.5825140785641756  0.4927124308983196
  0.5715402980757686  0.6126303026548492  0.5202119692894331
  0.4375686323930065  0.9861283559662650  0.4792950098032830
  0.0900211565307926  0.6810270888655754  0.4535817573449272
  0.9227705172878843  0.0914592406570805  0.6082397169918221
  0.4888851727187822  0.1267615874726494  0.4914784966133419
  0.1268786014353038  0.1455393238949988  0.5540914745675637
  0.8710711304734933  1.0003934787738324  0.5626275343004927
  0.8738762896948369  0.0451462414293245  0.6063578101090319
  0.9231600753241516  0.2581099205744999  0.5833846031108408
  0.8995239800539848  0.2966652127771066  0.5109291694157960
  0.9174237745507100  0.1047008728507517  0.4833893963961853
  0.2462420648693198  0.6562994335996206  0.4529530795881329
  0.0313484640721311  0.2567552204465507  0.5623876624381028
  0.2447265667697045  0.2510537721538700  0.5202227331543799
  0.2150991593338268  0.2624569005096726  0.4611193186751325
  0.1100491457750900  0.3087043427642465  0.4655761389591545
  0.9675100608511866  0.4457169594281441  0.4222208393235412
  0.0507702749701016  0.3897627891019480  0.4870353878788821
  0.3403150445752255  0.5573954968873811  0.4597726899542485
  0.2982447978659098  0.1958490205129828  0.4399954048327510
  0.4380712087026126  0.0928441661832413  0.5007872376403475
  0.1318627897730860  0.4667933421744076  0.4718061807546651
  0.4364938768188418  0.3963547670911139  0.4251107639220140
  0.3767491905221443  0.3644435912052864  0.4932577411865237
  0.3253150000352155  0.3861727147506813  0.4641997881339779
  0.3390322082445366  0.4696685900843847  0.4738109428865264
  0.4589456716260599  0.3047078668663744  0.4711864640339038
  0.4916771096433468  0.4213074293903060  0.4324933543688164
  0.4745033583896490  0.3243771021050147  0.4146558901571005
  0.1977606001856920  0.6761990736814171  0.4917802676103357
  0.3656484814127595  0.0841117115484996  0.5312264959651478
  0.6032063218225200  0.0204247839797530  0.4675111428487227
  0.4194073339244303  0.4070634882216465  0.5056446406601122
  0.4895885752665826  0.1871463237020463  0.5100072519346927
  0.5533773785921597  0.0397261654163104  0.5022378037600851
  0.5894774177011268  0.2094249021149899  0.4794239507019175
  0.5725255472209941  0.1601546086724128  0.4384415758841515
  0.2924064673455796  0.6362656240261847  0.4800101393553632
  0.0808408313435934  0.5543403366183401  0.4814864117299770
  0.9573699391965654  0.9300719465800196  0.5944908613003088
  0.2164911915035509  0.3229660914403407  0.4425867780522206
  0.7178159700849288  0.4343379321679465  0.4347067322075647
  0.2331536581863178  0.1441124926468489  0.4831794814886112
  0.1575328241205499  0.8237061424917016  0.5016389559427125
  0.4982213102558905  0.4672396233420007  0.4707048506546365
  0.9069392824853247  0.1609583398141158  0.5252872191290364
  0.1660496595955925  0.4008301317848613  0.4630383540827234
  0.2237276362772976  0.4276389194898820  0.4570473292935410
  0.5322905467225783  0.1760983787718017  0.4759637759361336
  0.9469983677406578  0.3291918175354560  0.4648233063435416
  0.3925248232055256  0.1213364751577382  0.4830230608861819
  0.6774087406698863  0.6148541138708662  0.4950200751601068
  0.4863029799423306  0.3598120117704565  0.4718597231826164
  0.8187210093315326  0.2170352297045268  0.5560838983338469
  0.7989900347024125  0.2198549466748867  0.4955187227776253
  0.8441417877850883  0.3215736611977482  0.5437850541470446
  0.8488234041573123  0.2623723243966064  0.5006448903095636
  0.2635401570123748  0.8857828378600772  0.4558823118089058
  0.7440622885494615  0.1873396096548685  0.4880125315495164
  0.6329728353882359  0.2861899566780370  0.5398566317451412
  0.3709879605773210  0.8418676910897366  0.4395781233771412
  0.2594790873920211  0.8201242314699478  0.4663995157545589
  0.3122276262611408  0.7489685402522386  0.4450846056434773
  0.6814621098188161  0.2735437533373415  0.4433475368483336
  0.8973902202228405  0.6305035340492467  0.5983406216940804
  0.6840163901503165  0.3333406564736738  0.4359351761752405
  0.7744914839049951  0.6464478980675666  0.5579213547815346
  0.9410297251026795  0.8379755602197058  0.5324419431963224
  0.8413363607205773  0.1998673190714405  0.4580380089320594
  0.8189349028004282  0.1087967611888840  0.4614541554812303
  0.8614400281798930  0.0729568062263599  0.4788125278267819
  0.5775854589972625  0.3248081528671350  0.4511547110536765
  0.5597735013325128  0.5660949320483709  0.4707344099218538
  0.7208461873160075  0.3497462387843613  0.4991571133852564
  0.7080762090950915  0.0981546535270236  0.4812279687637576
  0.7710975002207229  0.3779448426606303  0.5623169649551490
  0.8507258406895249  0.4352168429203239  0.5391870443372204
  0.8755170251816636  0.5363048376954119  0.5295317961047213
  0.2885063141204739  0.9812742217357574  0.5006531178097612
  0.0530608457317890  0.6331891223798733  0.5094176328495190
  0.9547668212798432  0.8612495751162246  0.4700088984324966
  0.0586389142381615  0.9463670203856215  0.5030847630149340
  0.8651298347389242  0.5917377030287307  0.5123150694016418
  0.0252362440931342  0.1057424803439072  0.5266668526199383
  0.3302636459389758  0.6593666006045852  0.5918223299264457
  0.4369368363481411  0.5188754723139235  0.4963919739355859
  0.4029642495616713  0.6190133964347485  0.5172050230327817
  0.8356804267475785  0.7311760308404851  0.4572681496553443
  0.6448484797104317  0.0129548308045413  0.6029395411127164
  0.6941504985618657  0.9144739430224887  0.4765609424235381
  0.2150869869774494  0.6768617739725524  0.5546040152736023
  0.8177624521209244  0.5021759763473694  0.4622343862101121
  0.7744776333160603  0.6434171492584986  0.4649793377329857
  0.2499104290494359  0.5726357930561743  0.5334318856922684
  0.0791853310148309  0.9277538993464711  0.5676179661473220
  0.9745347542367528  0.4842873352537761  0.4673237858160816
  0.0212659020889190  0.9243460990267915  0.6005863091185569
  0.4879430198536955  0.9638270132973537  0.4531970657110526
  0.7468974704424436  0.4331604542208162  0.5588405555441400
  0.0919520171972431  0.7429936644223104  0.4366095204181142
  0.9775707468948088  0.5590246436414059  0.4529907747196641
  0.1279035565431985  0.9304213239659970  0.5196964769129990
  0.2395116925978582  0.1362969875054577  0.5361015090510536
  0.7145666831548526  0.4846527491308220  0.4839024276534283
  0.6503794161051484  0.3958060660905943  0.5195601471330163
  0.4057080320953539  0.6415282999802094  0.4495826258327754
  0.4517716825123240  0.5659447999168252  0.4354509733023598
  0.2196182080327999  0.9720573532118396  0.4750502544621204
  0.0247989000888916  0.0498770644241639  0.5446092110536436
  0.0126749618495475  0.6261798671985059  0.5512482590607193
  0.1442878898151447  0.5289643590478702  0.5102035502338116
  0.6709865786164727  0.1008001770451842  0.5459857123856918
  0.3339611350985889  0.9374939771339593  0.5146002525851077
  0.9830016020818862  0.4190164936731107  0.4878550083945506
  0.7337651478314940  0.7769288283808824  0.4650717060854370
  0.5614678337454663  0.0977920489519304  0.4780432186124932
  0.1650408514713354  0.8780191985980130  0.5450625654606278
  0.3516029011195775  0.2969360668023107  0.5491601622598211
  0.9119660184176848  0.9979301651807820  0.4620521976837638
  0.0437189127841727  0.6766964082452864  0.5550658770407532
  0.1593059842260697  0.6849549830411631  0.5309783764895120
  0.8587287285241721  0.7079039324631198  0.5145521905940863
  0.2740432563605469  0.3550518031003286  0.5095395268151640
  0.7985742697806704  0.7509052373518714  0.5452987270802713
  0.3717487549232996  0.9842381857167372  0.5166074134058490
  0.8605817719392985  0.7466635799490969  0.5563009564239901
  0.6688505750354212  0.5032324914564890  0.5191324519453040
  0.7456579411179177  0.6105650739061468  0.5211516980874251
  0.5311015093785363  0.8715254336333004  0.4863054792470815
  0.5747051581809580  0.7474181761990401  0.4206717034160044
  0.5289979108638491  0.8159042337337337  0.5005832864409252
  0.1234473294763128  0.0206803980017135  0.4696876884745992
  0.1298789033797214  0.1202959137519343  0.5074497985277319
  0.5391459280401915  0.9804249666752763  0.5182058968382222
  0.5844592985561321  0.8675913178523222  0.5639827369801774
  0.4408253428543599  0.7681702551001909  0.5414472158908861
  0.6020721828756321  0.9812221283095925  0.5418117365919343
  0.7535777889119682  0.1075983466596464  0.6019652004467381
  0.6575929577369084  0.5488195261998390  0.5620398329107522
  0.2818682296434747  0.7233588834644948  0.5548657531043599
  0.7351534732431843  0.7109795233520197  0.4825664690082402
  0.9855497295324434  0.7713294285263330  0.4413762589300704
  0.5872740370604453  0.0254067168118519  0.5685729553181262
  0.5950101502292351  0.2397705561477345  0.5336325506391443
  0.6322527625610124  0.1773136236471873  0.4557045532317904
  0.8104932837877499  0.0147428023106714  0.5402549234748936
  0.9519320156426533  0.4713571427712738  0.5679862348147162
  0.7346332955170857  0.1630872615209388  0.5908103717539372
  0.7061539442096759  0.2151673900171290  0.5816359219858512
  0.9900828826448719  0.4733006444984622  0.5279341242796033
  0.8870305992210864  0.7541676753848261  0.4702592032712483
  0.8402236181374849  0.7943838366402300  0.4535476456126713
  0.0611223141307479  0.4736807873533100  0.5481141420510727
  0.8051783424194726  0.9770406557091957  0.4929454802365222
  0.0700333804875176  0.8889853313973174  0.5127013937905426
  0.4085607231850854  0.7192953434907856  0.5383378770411112
  0.5889049390143626  0.8949287750320959  0.4996163108461423
  0.0341188479972617  0.0892561428527983  0.5897534337625705
  0.0652925177404367  0.2641428837452960  0.5205262194353552
  0.7963696936074269  0.9179169725681859  0.5113951081417669
  0.6743206131709008  0.1596530907815041  0.5616888640511405
  0.0391100692005407  0.5221838313110722  0.5311133698054765
  0.9290751313400214  0.6257083132881397  0.4772086974929289
  0.2152428233737486  0.7952194522309305  0.5128961946044773
  0.2315049254063660  0.4729505657549937  0.4966360041897493
  0.0471745096251371  0.9794477208247789  0.5550837780330434
  0.2051777197802805  0.4157433823535013  0.5260943655107920
  0.2948304657184412  0.5670507156224135  0.4965390838996037
  0.1403315467468947  0.9188271544139449  0.5891502770479260
  0.2375651291261990  0.4616545353514317  0.5497275016515237
  0.1431712946752415  0.6454588713403707  0.4812029199122791
  0.9447585583365166  0.7258390548431707  0.4597107971560158
  0.7655934119831336  0.5327395481537114  0.4338369009081989
  0.5826544405319529  0.7893044815123240  0.4687769721427634
  0.8382244110114763  0.3785581497306488  0.4599124217390841
  0.5377285069832916  0.6655293333282941  0.5363301754455176
  0.8941752550414623  0.2363688854112486  0.4669664744361619
  0.7206534115830372  0.6091484415045147  0.4527126726193012
  0.7879029227014855  0.3417947507241940  0.4566296235615124
  0.0256144701914185  0.1251757987653788  0.4668459715232882
  0.9175107157484407  0.4644306069490008  0.4507247305697699
  0.8650143391061507  0.4316974943950386  0.4426446196589671
  0.7880452461996140  0.7518642745733776  0.4887129846681371
  0.5570177046772379  0.7694761244810431  0.5223844518784484
  0.8880974489502952  0.3524862999706364  0.4893272302428934
  0.9810561364280419  0.6171927015005164  0.4271060292743419
  0.5628130506252562  0.6266515219120518  0.4555083501620407
  0.7646999329181574  0.4686686799086495  0.4491614842536335
  0.6093266561126578  0.5469684737610495  0.4384600460274252
  0.7080085633313701  0.3879420388037665  0.5474169407063368
  0.1879922132842469  0.2213353190462730  0.5051530998231071
  0.2382133649106797  0.0244741466493378  0.5090314580086192
  0.5827416889254690  0.3412697223567220  0.3904143743283547
  0.4830034434498071  0.9005347826919158  0.4621742283967481
  0.6804129645335151  0.7820415938717244  0.5023690895259163
  0.7360269684751779  0.3710268378669181  0.4412201577135050
  0.7111067055419557  0.5006649241503691  0.4244992183907531
  0.7736325142472265  0.3901071494614906  0.4937655072163566
  0.4761516684385458  0.2004444539093072  0.4488265942754474
  0.6289054695284529  0.2988601138474465  0.4767924987297498
  0.1460885535959367  0.7069152782198210  0.4662929276522012
  0.0408063613682240  0.7723604571834726  0.4856915455721226
  0.0246027099444656  0.8617460273280435  0.4766474397267164
  0.9376779720978187  0.7900319114579086  0.4796408630778705
  0.6412955842982038  0.1155327334014937  0.4939231781484071
  0.6094046731251321  0.0636570844300957  0.5117739364830952
  0.6618974618985014  0.0527564802386247  0.4831478211159990
  0.0995367988518999  0.6780068351671985  0.5153228048449987
  0.9836817160827724  0.7459710046638341  0.5020239265627239
  0.9921537554365205  0.8104648316258980  0.4934838248401836
  0.6593096755229645  0.5145801649557478  0.4593715413078572
  0.4119719245856539  0.2612496713560372  0.4633727092407463
  0.1520103105666201  0.7683982449364077  0.4498173980216779
  0.8959398517586906  0.8299492579781086  0.4566817130970328
  0.0339491878588393  0.6540514976622919  0.4464247162583003
  0.5762239826451652  0.3878245847061135  0.4401559478262935
  0.1920130756873430  0.6262165152907122  0.4476170055577244
  0.5732153872638949  0.7280017036292873  0.4801701908128915
  0.4164795837104081  0.2482595540623044  0.5272249972241274
  0.4751974304913256  0.8368124805067060  0.4773209842743577
  0.4229499619980560  0.3464633692152521  0.4547075012465833
  0.3337272393242715  0.4422478029724071  0.4264494357984840
  0.3826521361024857  0.4169870847545650  0.4561262666824997
  0.6932857343421086  0.3911306485255315  0.4014651606403373
  0.5888596800114798  0.1485526503648231  0.4983035378933772
  0.4699509438976230  0.2589138300869570  0.4300203102427486
  0.1251194535377851  0.4277509168032134  0.4221206422381127
  0.8604884705414457  0.1162727884125550  0.5224167148139142
  0.5471868379261163  0.3519751707850539  0.4942859335501718
  0.6177301899966366  0.4981137246381247  0.5577103084135527
  0.4082108028094111  0.0349212474877739  0.5182903144321517
  0.0753230487379985  0.4463678976294854  0.4514291884737408
  0.5487776331627795  0.5052611417646656  0.4805037813636151
  0.1652549109349930  0.2792720023495143  0.4922913113625120
  0.2903108014272391  0.0455779670949400  0.4746254294135292
  0.9360896183083443  0.3810908681653829  0.5148585642895392
  0.8461160421197048  0.8464716677414779  0.4921430865567750
  0.7962316551307951  0.8556308466447370  0.5266610827681503
  0.9766059419220809  0.5328134525784365  0.5095837752940490
  0.9211140774397679  0.4054329804878944  0.4633151994168161
  0.5181903916947427  0.4530867021777055  0.5296420612069161
  0.6083087299388125  0.5165264842757435  0.4978576112970759
  0.4955980020018584  0.5100617732302883  0.5164199455578758
  0.7153083336851770  0.8050031930825572  0.5659570606591948
  0.7397131864358590  0.7484368066483142  0.5850270532390869
  0.6945134077684380  0.6003624220302987  0.5596299817322370
  0.5714993512159209  0.6848230215658307  0.4347792753052751
  0.5139991595092932  0.6533075048890291  0.4249069200070599
  0.2722497998345898  0.9571430283477305  0.4401159084019383
  0.2893759515813585  0.1573837109225755  0.4902941649558366
  0.3204977324956143  0.8742654656283324  0.4182846551181150
  0.7109955527216488  0.0083585620761412  0.5599925976856757
  0.6381979312412783  0.8845521586128214  0.4631134527246419
  0.6765946546215632  0.4896234821467250  0.5792912558150594
  0.1621012819516062  0.7508756842379166  0.5095662391819641
  0.4799425742722770  0.4034446273090678  0.5203702546528124
  0.3523247069918117  0.2318229550794687  0.4476038270848112
  0.2078117147799960  0.8376947502017776  0.5583216017433753
  0.5881340608433506  0.3967819116041925  0.5046901945215608
  0.3178662415356734  0.7351816319278983  0.5083540923970703
  0.8602176536485989  0.0122588480191781  0.4990494318200929
  0.2810808930386758  0.3459090360859650  0.5736554221950929
  0.4469203877495161  0.5020283617203404  0.4442072160776833
  0.7124310871794499  0.0394800571795942  0.4514602947607906
  0.0282851831144879  0.4225694826176165  0.5387681604944615
  0.6838346213833660  0.2108503794270456  0.4600971047929882
  0.0812407954777046  0.5795616984284583  0.5328877047135743
  0.8066715434872617  0.0360277604763951  0.4746249229259712
  0.3793797049060780  0.5180095105519588  0.4769805664674117
  0.4418144513632059  0.4425744034439281  0.4611381790010761
  0.5287560571002148  0.4091167472483250  0.4793506022767800
  0.4033399580732846  0.5779896060161385  0.4711572722349432
  0.4779383700919830  0.6710039093762982  0.5150296524801049
  0.4850554334424061  0.3815281643150161  0.3882570102846060
  0.6040998720725720  0.4825688200615929  0.4499998784952059
  0.5277368098238620  0.3559398152884475  0.4254931677614636
  0.6911814826323015  0.1552867434928513  0.4977132291210554
  0.2433286842028844  0.1593399259559321  0.4249798256832070
  0.7503344917271947  0.7045501580703769  0.5438107239930713
  0.5759794060776379  0.2657380408283526  0.4660350810689211
  0.9226858385324120  0.8798249858330501  0.5807860631329502
  0.1141299561970508  0.3681890336537439  0.4450567518108693
  0.7322280381144318  0.8217795461560448  0.5099926817094997
  0.9218586911034083  0.0430190485196381  0.5648476686355199
  0.0158577547857963  0.1482674216760921  0.5743366845816399
  0.3922070803119604  0.9273646990833578  0.5379685002398540
  0.6450938162725930  0.9300398876404981  0.5104839675521928
  0.6848696376051597  0.8073243883315185  0.4425282991955047
  0.9215805695581334  0.5659265141915647  0.4847877705637949
  0.3401739897196613  0.6090750412010905  0.5017958062478486
  0.3855469052849800  0.9433136654132572  0.4741072791521020
  0.2968670703251248  0.0962848478962604  0.5119989741099313
  0.4198720090719790  0.8105687815291897  0.4649527748106730
  0.1448813420132747  0.0846702123712788  0.5720736866547307
  0.1908060483230406  0.0934439786317793  0.5298881869101280
  0.4428148846580149  0.1880780795150523  0.5500697682477073
  0.1872052855309116  0.1755254348897716  0.4577796999673071
  0.7665649031519938  0.5757558072185233  0.4793406200927686
  0.8684008983589129  0.4933035250362864  0.4256024807963000
  0.3428422802057192  0.1400968706725003  0.5166664153798389
  0.0212246201899067  0.5760850937649545  0.5114568869883231
  0.8735517279282703  0.1420154047011483  0.4661517384150444
  0.3982332967067151  0.0762001781205395  0.4348016771410626
  0.6532415388261567  0.5591099798779541  0.5017299386060159
  0.7113733513759654  0.5541642845666683  0.5237767674453364
  0.0588693495357484  0.3398563693475428  0.4396915860132858
  0.0689461269713780  0.3980574451290366  0.4135320003173456
  0.0868200684810556  0.4360619730127265  0.5093019609694535
  0.2439884575820980  0.2057406319850965  0.4733966662079978
  0.4342333994875863  0.9346866955749997  0.4362280303725427
  0.6800490590155750  0.7420364493555546  0.4577114189763871
  0.1648223411469150  0.3642069016325842  0.5307440251617861
  0.0149557146851456  0.1703771321849949  0.5142192548456224
  0.5876849507579875  0.8288312742686558  0.5183327359752427
  0.3502259972960228  0.7151760183688309  0.5700389937074214
  0.3117299224744356  0.8499174025431673  0.4753817604371599
  0.4259670654393859  0.8236747377286835  0.5221589074578513
  0.4259918911633123  0.5627951241092364  0.5369105304438806
  0.5021294125297476  0.9271993144496583  0.5204627414715156
  0.4666904444365145  0.8764198582169902  0.5225198871812778
  0.4841623006476554  0.8204110210799572  0.5420886203152775
  0.5611799419780141  0.9257748192309562  0.5407103920625883
  0.4532113677212344  0.6188261015583736  0.4786624193445583
  0.1643331646087512  0.9885342548793512  0.5031519697112973
  0.5926939822587270  0.9593769681600489  0.4852869169553213
  0.0195618535373977  0.4169644280888070  0.4430977399012175
  0.3670983924247034  0.8286540745152973  0.4990957212089741
  0.3668898143712104  0.7809283372546746  0.4558372934876823
  0.4217046601333914  0.7493049979889788  0.4813603638662743
  0.9761876685926154  0.0998960052264756  0.5687778679192045
  0.4142714370869667  0.7044511075507546  0.4354190957387803
  0.5263202972043614  0.6822750764553877  0.4757979247776369
  0.4322633527878024  0.6623843112311916  0.5568406093449779
  0.3554743885960005  0.8773687796721260  0.5395795756691228
  0.9161343828139585  0.5913486722452016  0.5410405947902540
  0.3666089237073907  0.7214041880161667  0.4710904988418478
  0.5488328680585135  0.4548337667421383  0.4385966433088715
  0.3153943833132379  0.8100839351285951  0.4292830068622005
  0.5413771307705842  0.4117356593550560  0.3964533641934154
  0.4645293864033011  0.6881850207496838  0.3987704131846205
  0.8345995114680812  0.6491532923060891  0.5263730797593004
  0.2974285225900472  0.8891388629687579  0.5176580651896798
  0.0208382125238827  0.0618057025247280  0.4792086235545837
  0.5262834254048274  0.7623066808601376  0.4600278460120361
  0.5501462192628647  0.9703059649665401  0.5830608575965650
  0.7282046492918315  0.4948573603167564  0.5417783021711803
  0.7843762861592211  0.4851070262841688  0.5650389892473973
  0.8256435846157921  0.5354294517143634  0.5663935534278411
  0.7685259310578476  0.5457870819259224  0.5447769421605630
  0.2613373777784506  0.4040371154763523  0.5570889040963702
  0.0129131469265412  0.3142885100790982  0.5472388320904115
  0.3918237578908871  0.4744529683025149  0.4361401061413883
  0.5238793877998514  0.2943179611948100  0.4375803741745291
  0.5250887193321436  0.2344220239045518  0.4547418562475248
  0.2928965171971407  0.5133207202199220  0.4570697246445614
  0.2426686046563624  0.5946796046755026  0.4700289280961605
  0.2419521138223323  0.5346546798352122  0.4834675858469335
  0.2902525233415572  0.4682017417427143  0.5081482198837995
  0.3270839073275651  0.5171415136601232  0.5119727151084550
  0.9068700166060365  0.9364538190035582  0.4791725272068302
  0.3418249516617586  0.5063899614610201  0.4177059111154016
  0.7031721511469767  0.9586218128426406  0.5223705702915177
  0.2721823514409367  0.5151646034637580  0.5448649573924979
  0.1042008804887050  0.8493681081236661  0.4698763005351049
  0.2232577340880589  0.1871111528976270  0.5747576074969343
  0.3146967668917284  0.6752932460705263  0.5286056004541937
  0.9016941556779317  0.8769401736366100  0.5015148763583510
  0.9375792697530065  0.6768896762983445  0.5753048845511184
  0.1605779396907082  0.1971375868730423  0.5582594424553614
  0.5447744220016605  0.8150813884697055  0.5631625579226991
  0.3771044521408866  0.9040771322529979  0.4246371012773723
  0.6635969425886939  0.5793118918465352  0.4435102064339291
  0.7749867212219982  0.1705269071675707  0.5434832830757820
  0.4439356701916579  0.9310784163179924  0.4999421622444690
  0.4305331096824725  0.9782664740665616  0.5410441168328479