 B Cr Fe 
 1.0000000000000000
    20.0899999999999999    0.0000000000000000    0.0000000000000000
     0.0000000000000000   20.0899999999999999    0.0000000000000000
     0.0000000000000000    0.0000000000000000   20.0899999999999999
 B   Cr  Fe 
  69 206 480
Direct
  0.1742519341278647  0.5130112293121348  0.3804616576318725
  0.1445133479758701  0.5628049883796526  0.6287457442160127
  0.7444147830948430  0.7277038844390327  0.0613539364717712
  0.1912629014724560  0.9991866361076186  0.2849414063884124
  0.6595219787365825  0.3656945400186180  0.4255691343935779
  0.7563020375756574  0.2066340314268330  0.3510914868296082
  0.8689184827512716  0.1640918813351984  0.0962642375928056
  0.9554958991216339  0.2862889417694641  0.7651166517123332
  0.6831745090408632  0.5755476867571359  0.3252813255301067
  0.7368945036214486  0.6162309699044258  0.1710841740392939
  0.0254263096465593  0.6110682846534856  0.7194489472284078
  0.5802422820050107  0.7097025636974121  0.9504450145832493
  0.9584472299038391  0.5690241056761507  0.5397882245292391
  0.3291862522767737  0.0101331791799171  0.0242248811610214
  0.1933121243284452  0.8497082594460517  0.4318796937400877
  0.9227850245345631  0.3538005080999532  0.1712801423875722
  0.7808136409975793  0.4481603543055254  0.4399751008536139
  0.1769304755892043  0.3681632872692767  0.1197882376983710
  0.7783572999341243  0.3627219742241226  0.6635231015015162
  0.8929473107249752  0.5110043462648829  0.5211945486158757
  0.9601916801431641  0.5637509204541005  0.8603512720798538
  0.0372053980953158  0.7611929265706494  0.0062485158756453
  0.0788943644538376  0.0272966963024441  0.1047234982397903
  0.0466313006583475  0.4565644329731423  0.5529204283091463
  0.5796481732773429  0.6331197862818181  0.1918989014659707
  0.3637481079176705  0.8018857699468096  0.5044191004236749
  0.2632493432351432  0.8642161600966390  0.9644689163773974
  0.5809851876024600  0.7661825996385505  0.0190280074380873
  0.9873257169867543  0.5962409801857634  0.6271877306797883
  0.2425569444249052  0.9395813463801834  0.7576903218128841
  0.3236999098484988  0.5710124503234406  0.4456846620371281
  0.2707354577384691  0.5177962161536038  0.2910692068630072
  0.7956888913514829  0.6025581562607951  0.4284350557677964
  0.9285502520945398  0.6567663173745915  0.0163944829080401
  0.6102834549718326  0.5289021860377445  0.4882664553307958
  0.0945239969394793  0.6921434226613217  0.2140686517716714
  0.7834635725807060  0.2618743356236181  0.4167314247085414
  0.8615228462095311  0.1007134149519355  0.1577951038178603
  0.1842256484095264  0.4145308908970334  0.5089477117363769
  0.0488470213614652  0.6254764714650008  0.3537874343948636
  0.3040485677853696  0.7191377978854818  0.9637931770135727
  0.0275309836688933  0.3644984980252795  0.9248388906814186
  0.4532102753238122  0.5191427078213616  0.2896618035933363
  0.4354155488567545  0.7615206171239576  0.1684492017232467
  0.3352032058674655  0.2390499420614421  0.9040879974587049
  0.0708461821462910  0.1672596867111522  0.6669997628269666
  0.1295149011644827  0.5307772678506999  0.2238102323917476
  0.2213030685489312  0.1193248543848321  0.8992610087185513
  0.4525517794712234  0.6452016527995142  0.4246418233517194
  0.4564944100153971  0.5826081575878526  0.3586056103183793
  0.9782057639563854  0.0820294207211666  0.5897327619425758
  0.9321430400285383  0.3969876455385274  0.4303612441713475
  0.0911079501194612  0.9228640504493656  0.9974240862633805
  0.7750643378894224  0.3523049241876144  0.2894079753078289
  0.2510457783973481  0.9977041357496822  0.5133352038457414
  0.4786948219990231  0.1361264127596953  0.8444601127809376
  0.9521788264964722  0.5770024990420860  0.9869412978041511
  0.2621238654262288  0.6335182592707107  0.5758080588348180
  0.9465766155849932  0.7092260245584259  0.4630992961527075
  0.8503777850976141  0.2421084673116284  0.2281179880620103
  0.0259432451095718  0.7940515587916644  0.3427285039956329
  0.5016098070607047  0.4299454007212510  0.1712141430461942
  0.0074867120668445  0.7617242776695896  0.5037540689735009
  0.0940950833302534  0.4886615700758061  0.8640132618228563
  0.1087118852149192  0.6388604770799343  0.9299267152371816
  0.0602010275890862  0.2910739375895157  0.2306158890582046
  0.3255267612437978  0.8583337458872105  0.0230300390370720
  0.8999512090039821  0.1983121847446207  0.6608324180467936
  0.9417944748341547  0.4482071189199360  0.2237379050213049
  0.3544043645400966  0.5178804074856425  0.2164802468419934
  0.3686611917808828  0.0805703114991692  0.6538741929219339
  0.6576173031003912  0.3602666291336231  0.6489819207436633
  0.6443370847809315  0.7937836112344785  0.7858605921577799
  0.7055878351525527  0.3021181906966564  0.3543591725405712
  0.7575811169525536  0.3484947784585341  0.4721486023775743
  0.3657255645348538  0.5145066465571357  0.3489630615756564
  0.4274885812806311  0.7422610280004913  0.2802259549479424
  0.6549537493959906  0.6850771545525597  0.0280691811673661
  0.4915398484436167  0.3531952798485202  0.9392155725415284
  0.5075285997894774  0.0746953052967747  0.2161232227801050
  0.5047538623338172  0.7872297712930133  0.9362919660964010
  0.4372845452635525  0.0020418772921453  0.0050735274872867
  0.9384473973146044  0.7639134237662616  0.9529490763544313
  0.9576377507474634  0.2032520709260229  0.0463952168851772
  0.5009080176456592  0.3583492369125102  0.7921420079695762
  0.7887938812373072  0.0675017768360417  0.7903071222093451
  0.6312410781107500  0.6515733087105906  0.5060658434758674
  0.4929033300982790  0.7998106775160003  0.5088858623080592
  0.7696274021389635  0.6344865911595122  0.6348985184867949
  0.4255619428479405  0.5520393314365146  0.4588421583837576
  0.1845769327350753  0.9249742587572606  0.9333946099420829
  0.9985121546717506  0.2870476288958893  0.4619231935787633
  0.5466014823072222  0.4605561100673712  0.2695593208375030
  0.7789139909452503  0.5009509097059169  0.7900088159595838
  0.0771783044259796  0.6894923198305208  0.0977256244449217
  0.0788036550065566  0.3646418391544632  0.0617974097223394
  0.6425547078166770  0.9340619732794470  0.9269674089006927
  0.4372264250795626  0.1461264226220020  0.4324935815335418
  0.5499574451676950  0.5821674565150377  0.2882089840343990
  0.5982209040263475  0.4484730699699203  0.5689876234302952
  0.4377821626639631  0.8705185886949133  0.1522451893364750
  0.4739690181223436  0.3996401396105295  0.6068585674440898
  0.5099112465288625  0.2192084224211912  0.2192336332019293
  0.2186969917367413  0.6546613976715396  0.9391934357793394
  0.0549176315505228  0.2209000518956332  0.7642135685010282
  0.2883026294768495  0.1455061691825272  0.4275897695792349
  0.3427396821263823  0.9364487159122654  0.9391890292194558
  0.2747939074602888  0.4360052175905396  0.5752332051310091
  0.1045755639506467  0.4494914132858825  0.7628610409378680
  0.1048130340428301  0.3744331715725606  0.8461399847098420
  0.2865049617519461  0.7191998824027651  0.8578860843334649
  0.0031991850098721  0.7064744788671740  0.2853204296789220
  0.4277026423459644  0.7170087814398547  0.7209039778559549
  0.3029579289398319  0.5848109415800485  0.7251899881855911
  0.1990695751254043  0.0817842133281426  0.7916357599515250
  0.7643646943109895  0.5193716780368074  0.3644919007448790
  0.9565010655385270  0.5422793169653469  0.1796794185996964
  0.1619671274467975  0.0251188267023744  0.4528931239352837
  0.2548759672838455  0.1944299825747352  0.8364113711213895
  0.1023500368378508  0.2281674577859662  0.0416436189742659
  0.6477452990975179  0.2199669348686230  0.6491568142434361
  0.7796481755617484  0.7954586193321793  0.2189653226326450
  0.7626126293389706  0.0985633744672251  0.5516843948661971
  0.5171033481145205  0.2168325852256232  0.6409541874504179
  0.3355159550858279  0.6730754172531503  0.0588894087421375
  0.4259437120486689  0.2943308831140633  0.8564896048598032
  0.1400086611443013  0.0108794060353829  0.0151503855318804
  0.0729972769481775  0.5117831951691506  0.3541304510022389
  0.2209248269794963  0.2327541980634917  0.6350517978163668
  0.1700901805659857  0.6227413900280562  0.1712407374740949
  0.1401011683842869  0.6111234934735458  0.4198083401694825
  0.8451922630012736  0.5820614779874324  0.0033862256705549
  0.8553094724795619  0.4463528701019629  0.6052930934853493
  0.4377923914371499  0.5808443825152166  0.5780852740038995
  0.3695978037688717  0.5063278249760191  0.9348204304226696
  0.5779896034579903  0.8683161404159357  0.1398955705853119
  0.9694186108134154  0.6748697276962216  0.5632689120623490
  0.8427208570068537  0.7129247636365420  0.0068836697641738
  0.9362421848935729  0.0786891573071504  0.0852354698319387
  0.9250993335279528  0.9275759832509953  0.2286275436446331
  0.9253540702210096  0.0845852894528147  0.3719542418038989
  0.4992666590943433  0.0742658383966237  0.9272877777465901
  0.8837414950771023  0.7432810251108585  0.7576419152050414
  0.9284434292427753  0.3631119646799130  0.0646036799480526
  0.0333735256417886  0.6478936990937700  0.8455291084408399
  0.8374455098926209  0.5699341199602037  0.7190783634284856
  0.9629574415933282  0.4440683091994097  0.3334427243963721
  0.7329409268160093  0.0065650530687902  0.4465140634039541
  0.2898866145719952  0.8562684103906221  0.7217126779647021
  0.1627880807881135  0.8647713821228282  0.7272532603669549
  0.5474673587005280  0.5916653349938337  0.4280287354893056
  0.1714272379773726  0.5881614340791231  0.2996096256600902
  0.6235479006860194  0.6562676025234940  0.3601170118132435
  0.4994886807023579  0.6495160137413782  0.7883161127404155
  0.1073899303423042  0.8084425207431142  0.4970210762877533
  0.8666609568579497  0.2840573661942137  0.8456926337780879
  0.8525489324033948  0.0068627911197764  0.5504954200366572
  0.7781332005977748  0.7889388594573877  0.7873451160010103
  0.8556509945354585  0.9945120362527408  0.8566831445238130
  0.9822667101944762  0.4915942263577455  0.4665296069798656
  0.0652024261389638  0.3982486854967208  0.6394092382319524
  0.9078183382816104  0.6239240094350021  0.2463062488481762
  0.6649847877321498  0.4863189498350928  0.2670013645391671
  0.0086735372075486  0.9971560253519585  0.0111894721115886
  0.9639689830415439  0.9121138114602310  0.6833884811710902
  0.1049693882914980  0.4993199890307107  0.4674665402830733
  0.6404825124741089  0.6452120176665326  0.6418821158311373
  0.8426583911783759  0.5799210190142219  0.8566662913255103
  0.1435857418011346  0.2643921543153563  0.1482897562089864
  0.7190444166768936  0.0051579103677008  0.9982963278855987
  0.6908487802381330  0.5828727512214783  0.4359272073523379
  0.5788962684975913  0.7244585936019944  0.1301720554646787
  0.1274544185852723  0.1556973075465029  0.8553566577201077
  0.4255877424249750  0.7294111910836164  0.5760943540077793
  0.8519270339707897  0.8498914995225099  0.2909126732747133
  0.8719453320462967  0.8493215445373008  0.8448546754721509
  0.5756796886245794  0.0057568020433617  0.4359405595488797
  0.8077630685766084  0.3328162828515240  0.1870028886996865
  0.6381369852912117  0.7919883279953224  0.5034380387749927
  0.1822601218067004  0.3132263868661337  0.0269537689669552
  0.0350363201204745  0.2645319665342865  0.3300868965504879
  0.4958140413686491  0.7971077367892527  0.0777390623372097
  0.9058338065960270  0.8020501614069473  0.5142485688456451
  0.7349545309106291  0.4225725025253366  0.5735199125330834
  0.8727667196829804  0.1260021054771644  0.8659879550154588
  0.8916146158249973  0.6111050508820989  0.4730701257422288
  0.4996689819916174  0.3604254321281025  0.3554629155158540
  0.7214115946956451  0.0012955265183312  0.1412187001919444
  0.5724144952942198  0.4267493109104368  0.9969313643740365
  0.4297951833972029  0.8714861337148198  0.4366176449380575
  0.8057383281381305  0.7427656175423610  0.6733435035144453
  0.7091335842990383  0.8638308707862147  0.2902171326650315
  0.6432699476270601  0.9341053222700363  0.5037811229691982
  0.8396615381120413  0.7079438055027063  0.4266470586969899
  0.6422002049821562  0.4979297201881743  0.9282200838059299
  0.6854421594610166  0.2537601914964364  0.4645251080085362
  0.8771689899346266  0.3004391031522777  0.4533830369687343
  0.7162956854127410  0.4262602563233376  0.9973588869703005
  0.5062912570351431  0.0753464495369995  0.5054689362269073
  0.1637505425582710  0.7567016074243587  0.1368483432561149
  0.0574090655340558  0.7463530601675871  0.9029042287779043
  0.7402938387028284  0.7534670759345866  0.9599557840260067
  0.5703927247721090  0.8646396958207768  0.5748597140345203
  0.7195419592116257  0.1422411459506416  0.8549791993361968
  0.8605622414467995  0.2901300043836288  0.7045743438276280
  0.4482010814002119  0.3015983398884862  0.1619224675129466
  0.7085932050558229  0.8605624404295636  0.4337804211040975
  0.2265094777962675  0.5107061298961827  0.4761320557624902
  0.1755883108438144  0.7132047033895593  0.5686234426542037
  0.2229894593449835  0.3465204480623670  0.3466697504303067
  0.1746740311102334  0.8625545330491146  0.0446267961269498
  0.0395868548264614  0.5483303201280955  0.9327581177862390
  0.2985605397994073  0.8654095872033331  0.5780505848129147
  0.7882967687577800  0.6539534467572777  0.7795796367927156
  0.9283171583850569  0.6317313174993648  0.7838596546419410
  0.0760119027437847  0.0651248230131543  0.6314325541251291
  0.0894218806155698  0.3773028566340772  0.3108231884825630
  0.2153401358124040  0.0931789790350370  0.6583551838121360
  0.0689171038766743  0.7763520332849975  0.7856976647382106
  0.6561948538962546  0.0742739277576355  0.6389172082599162
  0.6992947530982145  0.7183053929770217  0.4331753301669611
  0.6352562004262796  0.7916028691215456  0.3600972252465201
  0.8856973276604417  0.1306238050186488  0.5849758601759112
  0.6425598267873212  0.2147451136831938  0.0661197249829246
  0.1152809265390496  0.1780627711130214  0.3412639436428202
  0.0810973860786347  0.9410776833454819  0.5232056894225269
  0.2733827643852543  0.8664174497849351  0.1276057038428035
  0.0070564129580695  0.2944654167966372  0.1344558576489396
  0.1430952937126985  0.8453931115997351  0.5995418518030284
  0.1460995491648940  0.1143422728925071  0.1289387670834204
  0.2371645323966771  0.7952357801171698  0.5124721284682369
  0.2953021192439984  0.1492901287915303  0.2842440267308547
  0.0342788793980937  0.1800602627397048  0.4389795773291249
  0.9224781825104044  0.9415234697366990  0.0687891980302074
  0.4249638177436060  0.8676825619335887  0.5755564143298629
  0.2687649615609614  0.4377708151994722  0.1368203429507755
  0.1648187422020126  0.5356893929282638  0.9569476212949833
  0.0312247524446606  0.0872987678814706  0.1804067048576928
  0.9125224979819886  0.7486947327281731  0.1966800238842026
  0.1456216454322972  0.3247899515903002  0.7194654890700253
  0.0419474996091298  0.8991465064683075  0.3273372355068590
  0.7839680609045890  0.4950486486775976  0.0662104170971963
  0.3512169782380740  0.2208915541140967  0.0870344905127440
  0.1513115936262806  0.0017323280092036  0.7149637136182470
  0.8384834703973436  0.3953480879536919  0.3689503925698575
  0.3538183563234671  0.3547448473562426  0.7663354734846791
  0.3628349792397479  0.9390877680275798  0.2150913858830025
  0.3062343660227773  0.4014632615320386  0.0322116126492881
  0.8613177712094756  0.7277971554974918  0.3037002019375447
  0.7899256823318689  0.9316396167085480  0.6417703907024618
  0.9980002302754400  0.4422572910316138  0.8595160093441380
  0.2281619207183708  0.7956450601583390  0.3471184533773490
  0.0136778639507917  0.6042580400008184  0.4495911546062424
  0.6425190721408295  0.4884441860238405  0.0679257486957421
  0.2109647926851493  0.6570433817129013  0.6661087544743457
  0.2429033859768028  0.0752491989123669  0.0644681909545944
  0.0013749334608026  0.4313574171010977  0.1322395207828141
  0.7110614233175038  0.5168052859681902  0.1618325310403687
  0.1616362656631030  0.1271968227583147  0.9888591322599531
  0.0587036247021234  0.0274947266885883  0.8179825983084718
  0.9618209087907050  0.7396699357537272  0.0776832017355997
  0.0037552442148118  0.7148588691919544  0.7093499761153312
  0.1149775753478744  0.6680518557694166  0.7574408832446663
  0.9993569035935196  0.8645143384507413  0.0064553671469541
  0.4231657594580985  0.2745275150586750  0.5849398619182909
  0.2584964941659672  0.8653840996857218  0.8452179736946378
  0.1086792069277779  0.7929601848956900  0.2587513415532327
  0.1936130077941003  0.3074977434669408  0.4761510120026799
  0.9945511044340707  0.1407283098958952  0.2970440290870285
  0.0261964674366106  0.3018839386225936  0.5817481765391117
  0.2194604069729018  0.3825553330187846  0.7866965587848116
  0.4450745516076330  0.4218305658793389  0.4399943807957455
  0.4205002031823871  0.0121936402476658  0.8533743084687808
  0.9464173777860486  0.2639801104812354  0.2484223412480034
  0.1114405981160202  0.9881618294350466  0.2059599516621534
  0.7791873696436795  0.9162956418266603  0.7918207330088901
  0.7019374011840006  0.7315946429512373  0.2805587888645204
  0.8145705114727982  0.8194133643315211  0.5980978780230948
  0.8516106212959260  0.8655318745478269  0.1533072878711028
  0.7518399827725972  0.6527745984683225  0.3452194887761744
  0.8573926912306506  0.9785207027476743  0.7351002649653684
  0.8381170406494608  0.7263180702187332  0.8756466245007277
  0.9314823172699325  0.9229544724271802  0.4900636032210891
  0.7198632220787177  0.8511571255218818  0.8701072932435961
  0.0589679682327807  0.0827531826000158  0.3872433862010422
  0.8252942277416062  0.8276120057191638  0.9487798959381344
  0.2383527884646712  0.0959110974901933  0.5260610681566011
  0.5703960416512908  0.7198266141653359  0.7172666217301228
  0.2929468182264186  0.2829468433103719  0.9898628643317146
  0.3660319242877834  0.0765377074783602  0.2165009250542317
  0.2973466707237423  0.0251772187063607  0.7315013888975104
  0.9767617191357280  0.1265383391716894  0.6837362617798882
  0.9312070756717443  0.7842994509945119  0.6396930182003953
  0.0078538381559135  0.8576602222948555  0.5665338303430802
  0.0352559218982945  0.3444973103594852  0.7475649611818977
  0.9102513282679224  0.0292726474905149  0.6505101867836410
  0.7150687713368428  0.0029081894750665  0.2936240833697098
  0.9545522360771163  0.0670786117507887  0.4897905108018333
  0.8598642445568860  0.9983682699195824  0.2998399864296196
  0.8305809040151613  0.7397372305719901  0.1216821101721849
  0.7908997020114803  0.0733787952097281  0.3588657792701948
  0.0006345027339399  0.8476108958249645  0.8734602403185766
  0.6451670609171055  0.9376059711506877  0.2169333511404394
  0.8014196752691458  0.1809769787287966  0.1726163487526161
  0.7838400356015457  0.0725763636235826  0.9261667316349632
  0.7917947746737706  0.9379680307213835  0.9275760201081519
  0.0997931333836014  0.8337775245384622  0.9581135208009206
  0.7195682238867572  0.1364789529016127  0.2815105159906250
  0.1593967201979522  0.0371712026282175  0.8930078920127014
  0.7789039361056800  0.8198490998719270  0.0640379992688297
  0.2229910505268142  0.0603239490094274  0.2096647764919005
  0.9328653161245464  0.0639471905582700  0.7810857147008510
  0.7191164570750995  0.9913196278840645  0.5733390324258233
  0.8719858698091537  0.5781259165108573  0.5950494239170891
  0.5704829019713743  0.8610509361026425  0.8605219457506627
  0.7960158286042006  0.9129571876486459  0.5083528924287628
  0.7645347042356796  0.6465509988334234  0.5140287824440340
  0.0548223085071618  0.1055719228170610  0.0428221574021006
  0.6488790503233914  0.6105477853290433  0.1125868578770735
  0.6879778703803324  0.1754558966441670  0.5522367823193625
  0.8026735683415943  0.2195621933881008  0.5132831783010825
  0.7271342264151593  0.4090276724588828  0.1342700121018483
  0.7163184199227949  0.1435637907626515  0.9971163924566251
  0.7958219998071674  0.3487048071636185  0.0646334101065391
  0.7686790240440923  0.5653740764307305  0.2599064386237964
  0.3602481741652117  0.0817709274336606  0.5098543231137634
  0.9252670714337299  0.1954488668435351  0.7795368713542513
  0.7133228097438383  0.2793388971202281  0.1356454431457003
  0.6392608846520438  0.4971634260073188  0.7850662272610448
  0.3032561681125057  0.2823183361114186  0.4266208878347059
  0.2274543348361208  0.2031660477242585  0.0672299846397651
  0.8561027544416182  0.1462372959322044  0.9948285709424889
  0.9413114271646309  0.3617507840315876  0.6551460287831355
  0.1673225174301557  0.1909373031606917  0.7345560973070717
  0.8322970808701778  0.3338434514918149  0.5793378148295318
  0.7951359969210910  0.2082937256174075  0.7866192932265260
  0.1974492620784770  0.2255600832080530  0.9379723964935766
  0.6099274297295744  0.3866765805426552  0.3329057976443653
  0.7189128721424736  0.2851896591453196  0.8535562440267604
  0.4394513140019295  0.1504705669872072  0.1460204932708413
  0.7161090522359328  0.2844922199183518  0.9942058047720773
  0.7252798561573802  0.2828093658485416  0.7140329953416801
  0.2541301626484699  0.0391572477148321  0.9561094996749344
  0.1142708000848453  0.2907449098492177  0.4029036077819386
  0.7936300519497361  0.2031261192964485  0.6361755275609223
  0.7084948281233238  0.5780652596141358  0.7223166717795334
  0.7710023294441493  0.6408938346822100  0.9319901932778071
  0.6494862801402744  0.0706348668576803  0.7850827427587742
  0.9205159022472467  0.6438181244525913  0.9142072745818850
  0.7247437390623370  0.1409363933462610  0.4362084629336554
  0.7077706441359461  0.8598174915733857  0.5712691293159980
  0.9321328958024089  0.7820131040555276  0.3808103611290086
  0.6468245702243685  0.0704931866304611  0.2136047666399094
  0.5816938470237064  0.2929232554510757  0.4206067220918750
  0.7769371705736661  0.7836703903677795  0.4941514106316640
  0.7886010929435161  0.3577256991869744  0.7833054212300543
  0.6646601003340701  0.6229934176714229  0.2398641047538771
  0.4050346706242509  0.4333906310887113  0.1330607310774375
  0.1098440052389568  0.0846760145741436  0.2678270755565784
  0.7807506172796094  0.5051749344838782  0.9305881695235356
  0.7100082531023632  0.7180039297530713  0.8512103529861937
  0.6432504117326323  0.5033529779896866  0.6544571226494721
  0.5664522867825383  0.4223878977457990  0.7083006694563625
  0.9848018391043789  0.2472317369120333  0.6761042220337232
  0.1899442752306814  0.4645017512671711  0.8683027443136433
  0.7919471411319116  0.2129747696267301  0.9213754584760561
  0.8379252976129301  0.1795237805292484  0.4004070573875199
  0.1879494966131389  0.1692033412120958  0.2415546673121871
  0.9312645024325087  0.2169057274022609  0.9188496909356153
  0.0462168063999807  0.8955112904444464  0.2146674801535933
  0.8944482360300137  0.9020856162579910  0.5980373114574551
  0.1545660882292715  0.4143568345241840  0.4084490721399481
  0.8309787495037606  0.5549698868794314  0.1611519766782372
  0.7912047198577091  0.0581240910405208  0.6512703889765444
  0.1803735542366697  0.4433995918863650  0.6796893088757799
  0.1703887457400586  0.5953979506660038  0.5423308508194271
  0.2276664087025160  0.5122136738369535  0.7744245074117466
  0.2664283527599291  0.3169081005829610  0.1041333046234318
  0.4289037834724296  0.8630522354168138  0.8651360640960283
  0.2069162519234755  0.5371392030195785  0.0775169169484397
  0.1381063202449392  0.7273035150944623  0.0003407863659009
  0.7925995815133148  0.5267284769128017  0.5040026769812277
  0.1969489246738999  0.7024893965819242  0.2445963260772996
  0.3016074180772738  0.4225589531598149  0.2646710234991440
  0.9671527529436036  0.5575128761310194  0.3319981616383329
  0.9567518264265145  0.7385489367460433  0.8403339984559371
  0.9103617278776757  0.5013922204402077  0.7988032070828501
  0.0514547714130382  0.1921611911431838  0.9451019794981065
  0.9622869721855957  0.8278991342202613  0.7612723218804600
  0.8548047911506084  0.1272557769476532  0.7156388915069897
  0.4998292040716980  0.9334846380054426  0.6475802447815404
  0.0696069194192461  0.0698930193333035  0.5127943977678194
  0.8498740110377089  0.8521290189710307  0.4226908402014686
  0.8574540668960987  0.9950434404781978  0.1488949566255702
  0.7817476127376177  0.9284087134124175  0.3626153059731906
  0.9139029096160628  0.5063734401287392  0.9291295221692223
  0.0851119694796670  0.1049131081285269  0.7457494507500008
  0.9182756721634330  0.9149902727589199  0.9388133639982544
  0.9850440694323909  0.4460836311766680  0.7244459000184800
  0.0362850920338385  0.7714602316012444  0.1799671365906316
  0.8731243561253118  0.0192404623467539  0.9889195987912125
  0.1126871117563640  0.9931878402665423  0.3432726932207095
  0.7739003600080884  0.4437513233104186  0.2445863312489693
  0.0588930311532101  0.5156560628448320  0.6664945855890642
  0.9965641076831008  0.6596303448984870  0.1737607350808890
  0.0638362782511946  0.0731711254003893  0.9304354838086593
  0.9614961916559286  0.0243444608928286  0.8947516884380780
  0.1583281276838454  0.2721360309229993  0.8322905906489584
  0.1403528042071139  0.4624807655785602  0.1463446456271217
  0.9146076570402848  0.2557605088488164  0.5743528020054409
  0.4071583725155565  0.5847788860904481  0.1292844432803450
  0.7177757483738559  0.9951299425222568  0.7182889249954324
  0.7879140834959846  0.3515614174739430  0.9258788439486592
  0.0610517921585689  0.9440550689128320  0.9036802134936935
  0.7961021072471430  0.0785368879983055  0.0753230296279519
  0.8633209035648359  0.4390946799341868  0.1497640180067932
  0.0076324600000178  0.2860478094423979  0.8575906881598596
  0.1458955490352133  0.4750249905127359  0.5757210049756782
  0.8504230837970606  0.4357470026319333  0.7148605216651402
  0.9238357028443913  0.0634596508879366  0.2272232830984604
  0.3373539200011613  0.2664419471958475  0.6719303492311687
  0.9540054092063417  0.9416874969074197  0.8097955870240098
  0.9634544673363723  0.4844601070227867  0.5995425432261791
  0.5013503108152694  0.9374982157679181  0.5072160424531138
  0.9299169693808392  0.9147733753102516  0.3573496124294404
  0.0049015132902742  0.1394269657857698  0.8468350383041363
  0.9895551618364852  0.9858325555566150  0.1536096666977977
  0.0047417846522423  0.0090124697628383  0.2910197541820352
  0.1664218303364031  0.0123698286734697  0.5780501633883801
  0.9972056614042555  0.5961909981475455  0.0714502626240803
  0.0404963528530300  0.1847471413456301  0.1215449134650367
  0.2052990897371922  0.0853615451023240  0.3489682845635886
  0.0141246761000435  0.0087100944788407  0.7128410163794933
  0.1045624448340057  0.2547058295471292  0.6428109490238925
  0.2867418420815294  0.3090642276783852  0.8573675221772175
  0.9188227707565390  0.5056945293528871  0.0644824184597947
  0.1182792220794717  0.6952832040613458  0.3260992909965640
  0.9203981115089949  0.3743033708108544  0.7907955228971314
  0.9230390111406374  0.1836737358394919  0.4810826481588059
  0.8377499697312082  0.0953936681184960  0.4730526404855583
  0.9439668250203092  0.5491481872841509  0.6991206188684191
  0.8458400003212001  0.4304846478804335  0.8626963032546424
  0.5771079998701517  0.1411582940681879  0.2871834160050784
  0.2899410219583878  0.0233780965014671  0.4258100095095053
  0.1514371570933995  0.7069366512284501  0.8609270456820063
  0.0351638509217592  0.3936906244147349  0.4111271356277255
  0.0711064833874131  0.9272530926434867  0.0948215068111462
  0.0748132759240562  0.8119309852439116  0.0805390054729494
  0.4314828248055251  0.0077506151949673  0.5798095916530620
  0.4328919005602298  0.0103755588753990  0.4367531961390121
  0.7862071788858088  0.9334221999280362  0.2276163868942326
  0.8628823722265569  0.9906519819910669  0.4267159521017059
  0.7873821492339378  0.0651772288704337  0.2185330772402247
  0.9612776841937111  0.3819613640943150  0.5333599803593222
  0.9650077972380193  0.8220935453717449  0.2676724138656162
  0.0233622545229275  0.6666063062869189  0.9800348828785640
  0.8918123461444653  0.6404046548804935  0.1140094891175383
  0.8906377231995443  0.8308859941050363  0.0444082012393014
  0.6453409120725195  0.6411724381925481  0.9196215686151492
  0.8973085284007790  0.6649028660025754  0.6683943319033878
  0.9894004756749348  0.4341455875129350  0.9938821823354954
  0.1305617048673009  0.7492660861136237  0.6805661176287638
  0.7706154111876770  0.5145597740502741  0.6397275653419104
  0.0843485578685361  0.6753785952767674  0.5127328997010544
  0.9454587103372674  0.6636665725447457  0.3715423737422242
  0.0436850326498406  0.7227419943602935  0.4132131650591291
  0.8545041202353205  0.6018949478377347  0.3461784377005527
  0.0470247440823974  0.8309599880074136  0.6799146310527630
  0.1433023351885925  0.5804162742743568  0.8503944750896614
  0.8720341026564297  0.5038190909251765  0.2750225152450291
  0.0335703483625630  0.5410331220943644  0.7927929325462004
  0.9434840213777408  0.3317759076281241  0.3533646237252370
  0.8587105928943921  0.1545097817153299  0.2827611460560288
  0.0998911846993717  0.3701507337119196  0.1893661618028163
  0.8808006593450893  0.2686895881921899  0.1250521373045194
  0.7211004863533987  0.4153556912256125  0.3572927289645813
  0.8035710273720449  0.6732910738108422  0.2187895946039816
  0.8561583639165208  0.4177290834187956  0.4945757796486733
  0.8539516178812193  0.8564377185559505  0.7119249491654115
  0.0527059137757001  0.7535133755368851  0.5954417521347589
  0.0556653306049112  0.5614253674861465  0.5555861851488585
  0.7705490500358350  0.7865796702932549  0.3602603167444602
  0.8525475109403954  0.7055334196728680  0.5614982628983821
  0.8533130263031830  0.4283037652879366  0.9962736178732523
  0.7479460803283087  0.2517078403718165  0.2550869164898772
  0.1171746731012100  0.8109643879159522  0.3740485536178860
  0.8655020488183458  0.2814996469421253  0.9948226767231052