C  Cr Ni
 1.0000000000000000
    21.1200000000000010    0.0000000000000000    0.0000000000000000
     0.0000000000000000   21.1200000000000010    0.0000000000000000
     0.0000000000000000    0.0000000000000000   21.1200000000000010
 C   Cr  Ni 
 173 259 605
Direct
  0.4196620716910166  0.6703138160541871  0.8306378998359686
  0.0269978012091350  0.5827247748400139  0.1316154246104408
  0.0741897474506024  0.9182178333370700  0.0715769610894660
  0.9761507403469005  0.4960227039265473  0.7402972307952520
  0.8666319537286570  0.3389151884617547  0.9304297745300839
  0.9973767339082187  0.7031219857213978  0.3812981264632094
  0.9946872454369267  0.5254463150029997  0.2621432132423053
  0.3522711046585189  0.3736057400395777  0.0008534788241599
  0.2442974749151117  0.2523575075248505  0.2518208976444635
  0.3178494505907334  0.9130862011275829  0.0063955309161988
  0.4952798849554360  0.4290290328658511 -0.0016956161263956
  0.8953263335029653  0.1000386789775301  0.2677966548131519
  0.3941608348718778  0.8330897452896517  0.6731977272767672
  0.6588074778908973  0.7335593670672440  0.6536242664526908
  0.9273394065686157  0.9291323962326035  0.5763650261000489
  0.2603981865526084  0.0844537118754377  0.2551254375588938
 -0.0145880922738120  0.9231670086045197  0.1587277012049955
  0.0892801125413381  0.3012522033974849  0.3001925339204218
  0.6626939728692312  0.3245047961180769  0.2288427783013803
  0.0085133155856621  0.3272978497887913  0.0893960899533953
  0.0683839293932475  0.9094868139783102  0.2593596695425479
  0.6623606108406637  0.3446648495789366  0.9126073388378843
  0.2443802781070654  0.3554957999197008  0.1487826289880384
  0.2192026599833660  0.7563090416042162  0.9331452653346793
  0.4808049975385110  0.7250282680151031  0.6767357277565779
  0.2508934231180887  0.1651492536939885  0.1478683823909716
  0.2619018207380611  0.8418468438617168  0.1626668921578934
  0.9115847138192913  0.4261678251618532  0.0895936017859733
  0.3997621683554669  0.2400509771589010  0.9237597134687470
  0.6634243494991638  0.0912313136984262 -0.0048005961635907
 -0.1055717829943381  0.8305483194685441  0.1542441352436137
  0.3864352008413875  0.2549543168220473  0.0733400556945781
  0.5676771552107882  0.3978843675180189  0.7668243422901068
  0.5050979934400079  0.2552377361856240  0.1695794901652809
  1.0025031248316163  0.1771629465919841  0.2545785113268897
  0.0665907102667259  0.7266281793242494  0.0791705386911359
  0.3312339079855899  0.0756023414603735  0.5008113406647908
  0.7291847134945347  0.2807034631385809  0.5848992832516241
  0.6545102643713487  0.5063172477110366  0.7349175649622204
  0.7523461771795749  0.8384677332176961  0.3247784648078026
  0.1614486145814728  0.6655103121389340  0.2458855027944544
  0.3340046213417291  0.4776974172542610  0.2641013249225573
  0.8453910357530580  0.2411597238167413  0.8276509621034072
  1.0004967930189634  0.0752938933099056  0.5075784723568683
  0.1216061664590156  0.4942118168638427  0.9177919115180526
  0.1019058254260616  0.6337201989857312  0.3506579916612778
  0.0607976402495414  0.7124732362137803  0.8954454554214728
  0.8386887272745718  0.8159032807567406  0.5720364553956562
  0.3279789324580820  0.2538895826413422  0.4773426622145574
  0.3127222701406063  0.0146283265882112  0.1005706262184900
 -0.0963981882682717  0.6082776924384924  0.2767677099164981
  0.3319953539159056  0.5893188692987004  0.0015938055291859
  0.1419279859888186  0.5942567783275744  1.0027842948004670
  0.2431919125432356  0.5845997041423834  0.7432312886502742
 -0.0097956330035645  0.4141442471415626 -0.0201572045460917
  0.8076592757690793  0.1149542565512308 -0.0162561385579398
  0.3417973210492432  0.6823463315210084  0.7311988475344673
  0.9229612395269731  0.2642833712139450  0.5856947991859053
  0.8610331963667275  0.2311731381351939  0.3116677806247607
  0.4950998365120080  0.2432592720417112  0.8215922938401496
  0.3102057375000759  0.1008848282428061  0.0010666862358799
  0.7294803522865332  0.1812557099169640  0.4875538066038173
  0.5545892958745472  0.3954670096149917  0.4057148510199646
  0.9019021764537333  0.0931739341562905  0.0829582887673370
  0.7505716305116639  0.6683609185456411  0.5079502693905852
  0.0048101627935772  0.8458506698010577  0.3971904930102069
  0.7734801251906314  0.3583354155388748  0.3347798349547073
  0.1102016973476978  0.4511061521726529  0.2332214376018706
  0.5952149500500903  0.6517177805623426  0.3263832692549611
  0.8260551658482526  0.2694737781500444  0.4820650029365399
  0.5038185428286825  0.1628878119445452  0.2581590243086740
  0.8289220856723266  0.0858610072360901  0.6740774579980698
  0.8740402094871262  0.1946684358134850  0.1714415187448334
  0.9905202669226216  0.0838847924013214 -0.0059472641100816
  0.3959172199012587  0.1605779390740853  0.3481957203568280
  0.6852184705765723  0.3269096588163480  0.4373201571823420
  0.2361893922848329  0.5728588227712513  0.4147776946086866
  0.8076096175614282  0.0081536184277844  0.2483371976635209
  0.5952358567128486  0.4129531691499932  0.0930976716740372
  0.1523226907291768  0.5872977099766165  0.6617617119329970
  0.9822513104011062  0.6890178505413949  0.7739863721491321
  0.6507494012295238 -0.0046148992485817  0.5879385264406898
  0.2112720894046505  0.6782675679424319  0.8255913767342697
  0.8418268636334809  0.5626976767479580  0.5115694148186049
  0.3349711686823029  0.5919320954249145  0.1735654993929872
  0.5722960122508354  0.8335338826301613  0.6674123872059909
  0.4122769496598395  0.5739162795575321  0.4167926052019457
  0.8827548122202591  0.2614465009089768  0.0490172844821052
  0.9288238679055910  0.8215034127183126  0.6745369411180200
  0.7300786694289282  0.5749552767776608  0.4186766421765866
  0.6718918986214065  0.5764728725265673  0.1785626497701404
  0.7426546767916055  0.9107674134347479  0.5761005874527223
  0.3301461692827656  0.5839708901141554  0.8321060955027493
  0.7354941882117855  0.0926077786708169  0.1018748141713128
  0.6256188577607582  0.4010247205570261  0.5912442450530597
  1.0301287645423629  0.4314056013930661  0.3473789275070548
  0.6658067951959716  0.6772459478499128  0.0795721607899803
  0.3332208861114799  0.6790006457126511  0.4311898963670611
  0.0671335268926238  0.5907463151579501  0.7851325756412835
  0.1602598165442445  0.0800725686923755  0.1586565912066310
  0.7769616925142807  0.3364231955338338  0.1574797273503159
  0.1229829507671857  0.7618400939613348  0.3164145881017547
  0.4069846133600368  0.1579784611646432  0.1627765473272723
  0.9343600530225390  0.4416587442609398  0.5969859062448027
  0.9210444740421561  0.1757984702455901  0.6851579585404975
  0.1701016685133172  0.4096337166681455  0.0035667658734097
  0.0095924441013452  0.4412721317861301  0.1653551748995218
  0.4870156727037393  0.3383133264636670  0.9070360603899768
  0.1635245407279926  0.1653640560441406  0.9136709524172231
  0.0758273311413524  0.0789135379812143  0.2578204914979531
  0.1630512531978871  0.4983351687942029  0.0984366825571275
  0.9816333368044788  0.1830996976017236  0.9050790966012207
  0.7444920789011664  0.2278547412395399  0.0871637141952120
  0.8243746613291404  0.8359272009670548  0.9120697723132173
  0.7372504778079202  0.0899686187940827  0.5851511844513611
  0.6449137095316103  0.1768531717036951  0.7672323378308075
  0.7464102370925867  0.0015426548490196  0.4936963724034819
  0.9986076468562026  0.4172525819060132  0.8393347751532362
  0.3489272317362661  0.4835845984952537  0.0859139189140342
  0.2439015297792959  0.3273542288491412  0.8311003614867036
  0.5917828327889856  0.1637076979503224  0.1594165677175936
  0.7609345633732396  0.6549557035910236  0.3169602744046721
  0.7477347691519571  0.8250062184528674  0.6673228864603273
  0.4061863704299098  0.3455906058110190  0.1744576649524282
  0.4150016769909474  0.0054038611958104  0.0024742852817039
  0.4845360158033354  0.7359504026371458  0.4857151994124810
  0.0762277158767266  0.8225848723318667  0.1670734426135000
  0.3976069575392912  0.9239660344819473  0.5732460354662190
  0.8534737375699691  0.7560326366761362  0.3006460753398634
  0.7359540639325433  0.9210006861047569  0.7541336350654361
  0.9871903219509482  0.5368227207726829  0.4415544552198826
  0.7539135993453752  0.1536076629741131  0.3160727941046220
  0.8316566930194802  0.9169732635813898  0.6692935506355682
  0.6579259699787597  0.4213543922069963  0.3355417459206427
  0.5773899667535236  0.6616116505416951  0.4953896010885469
  0.3312720673847845 -0.0012793632741540  0.4162877345812890
  0.4196622923749477  0.6756026607630458  0.3316170438220222
  0.2488003948198342  0.3440344968127220  0.3420164210552848
  0.3898143183616393  0.7311517830900958  0.5807785939765390
  0.9980020373733852  0.3253851651492687  0.4271633093828540
  0.5863687448076500  0.2352175134495303  0.9142285544171099
  0.5750032412095781  0.5794301350454039  0.5965379364930262
  0.7394584745317715  0.6686069303497189  0.8302772525404414
 -0.1064771299116137  0.9239370861657871  0.0646144185009184
  0.8994101778679949  0.9059243174535335  0.2645693811181955
  0.5979447628539473  0.4837799701499772  0.4949743573874223
  0.7483547834092356  0.3360314027988998  0.8330787452209031
  0.3358146361654969  0.4901551207221143  0.7460914999818451
 -0.0872791816734848  0.6579709136428969  0.1558169653583695
  0.3418113656892862  0.5850244658398207  0.6472607407622859
  0.5837411406658695  0.5911997160141182  0.0774806414861612
  0.1658538011063388  0.9141246020818330  0.1635290879991595
  0.4223587179401684  0.4824952296065972  0.8497016432606641
  0.1531076582686485  0.3840975571313456  0.4558088287823619
  0.2439077588113278  0.4889544388978084  0.6539517518611019
  0.9158180700767973  0.1719461230613147  0.4973339062765009
  0.8274222341908378  0.1784604976795220  0.5852532743450620
  0.1372956558446216  0.5519200602599382  0.4982039824240383
  1.0268662687503638  0.6762171729316988  0.2150639686480396
  0.4142814154467040  0.9137391753737822  0.9132062287265573
  0.1528717303410908  0.4864157922058265  0.7527281916225377
  0.5121724964164938  0.5007525588840801  0.2677528848240310
  0.1702000284207249  0.8244520182497381  0.0679598238427980
  0.4240425174698862  0.3404559678694725  0.3507277405266389
  0.8020315885364384  0.5041083843947987  0.2676519188492856
  0.3241931158486704  0.9171182398812484  0.8264313800487983
  0.4149903254531442  0.9130697164040019  0.0929650045814643
  0.0723558852380556  0.8267331781942022 -0.0180679426265401
  0.4899248722791635  0.8275439284475635  0.5795895626282195
  0.2326484043142670  0.7570697073771738  0.3980222511197363
  0.1676010392277168  0.9146415526818200  0.3454466077796967
  0.0638660581825932  0.4842938139156883  0.6456283753373971
  0.7356848952443467  0.1792898338630562  0.6759013149860613
  0.1654261984126855  0.4170009085824897  0.9145339806048494
  0.2521839806649571  0.1534737232524705  0.9213024374364375
  0.2238562631152430  0.1662868047299274  0.2450516151595604
  0.1655955603935065  0.1584753537770425  0.5062961378514916
  0.1635508664524245  0.1610779924581885  0.8257546166331340
  0.3276023277378750  0.0808086164828390  0.7483903107734391
  0.3299267358118710  0.1640149680579936  0.5032963477386594
  0.2464583415726309  0.3397409515015442  0.2504837047731419
  0.1559946761564913  0.1669563460034500  0.1594980586266008
  0.4130745253199704  0.9176173026718072  0.8266330511197615
  0.3260594843662407  0.2920803297115885  0.0112347727739625
  0.1903409484418710  0.4120263677974939  0.0893995402713612
  0.0907574657505157  0.1652413782463943  0.2523114071731686
  0.0858945462784897  0.7352730723113201  0.1683971067622392
  0.1721296097344672  0.6802872623808848 -0.0110089400486225
  0.0006266941940627  0.4161870857473705  0.0775515324276388
  0.2415356822180738  0.5900169097790003  0.8320605580262258
  0.2424113402746738  0.5811318119005996  0.6538352056582374
  0.2450519481931024  0.4948154759583357  0.7446768735769315
  0.2286983026370286  0.5799360173849705  0.5036940465645656
  0.2421276315818821  0.5899380508789632  0.0022041152598317
  0.3265808033097312  0.5896621142884488  0.4353372375282177
  0.8343458960316555  0.8280055499352542  0.6642594401859824
  0.3319871271467311  0.9096800422230534  0.4169718034115451
  0.3430301608554378  0.1826118291116189 -0.0040331001089744
  0.0236283231106159  0.2633945162391629  0.2519337875984319
  0.6545124165594935  0.7467988177753344  0.7503739726246953
  0.2364704435630864  0.9179943121525043  0.8316348555881518
  0.0200842721833968  0.4135281117935228  0.5948387876459417
  0.0212874298348123  0.3424134055389217  0.3410245913680047
  0.4195672532244710  0.5807451993478859  0.8322150582804871
  0.0811114068192249  0.6379002709289832  0.0598695713013861
  0.1719176018252254  0.5015041157751935  0.0066875104867995
  0.1656108307504169  0.1608383003897464  0.6714276346036224
  0.9174788017693571  0.7434316944712172  0.8218531474569589
  0.7423042872600395  0.9138414990156395  0.6667032964988931
  0.6713871949359552  0.2567223163145939  0.9097576531729249
  0.5916211612148911  0.1655280302184572  0.2514263485263499
  0.6546056695909772  0.0731119589739719  0.9083383234798632
  0.6488196076551341  0.0846030910803204  0.5849559939733657
  0.5010396729500636  0.1657637702137195  0.1688898763155169
  0.7498930783178396  0.5680398128863662  0.3314438065366785
  0.6471592881317280  0.4170941112012430  0.4250843187615702
  0.6722709032457035  0.5856190769329918  0.0802139945043569
  0.8073766204490410  0.9255010123499843  0.0778799321880980
  0.8290853501913935  0.2687395127473036  0.5793197381172033
  0.6779904202204584  0.4547703395910521  0.5351032835569973
  0.4086477037675967  0.4374099178049528  0.0156702704027228
  0.7374245667520855  0.3300996254930152  0.0767060803797870
  0.4963622688668599  0.5968970500367723  0.0820625072248054
  0.6604250323260453  0.8293837643164761  0.3314873490413360
  0.7403486774823319 -0.0000919925186094  0.5831564610098781
  0.8989980080578130  0.0991166335049726  0.1719202355226296
  0.8243241689473145  0.1765402052287425  0.4955808478469602
  0.3988624510986904  0.3313948803197729  0.9265395680843349
 -0.0227665130908564  0.5048284599539178  0.6519856962787834
  0.5738055509622834  0.0800986229361733  0.5011188540568373
  0.6603281675347796  0.4153531452882592  0.2465652685138549
  0.1618933040422806  0.9144310105335939  0.2547043722230131
  0.3949377830046888  0.7439617139366689  0.6699446044909395
  0.8414011005019660  0.1464227797461543  0.3344378622999493
  0.3277471455272610  0.9235618452328362  0.0931087459756497
  0.3295362210739119  0.6739076352654247  0.8270248364167617
  0.3396328101946245  0.0997615517515687  0.0915860030917702
  0.4987963520780533  0.7565178301400062  0.2463317401399868
  0.3351765398251088  0.5040646413528882  0.1748300003970869
  0.9165647594837378  0.1739883623003380  0.5905745261556622
  0.1614263042395129  0.8415014033323405  0.5113868003098258
  0.2622799422316837  0.3058618690115569  0.4279638123383229
  0.2590630398665041  0.4045861062239668 -0.0066451482262636
  0.7384710219760647  0.0900919556476089  0.4966555394294791
  0.4093865074656317  0.9210037540625966  0.6663713628446961
  0.1713986661514630  0.5906641570457545  0.0920082935686452
  0.0596967828954171  0.5963869854939000  0.4997547941920148
  0.4828968932701584  0.7381586891492042  0.5827081447856619
  0.4199426277860826  0.9174501691694094  0.1786605507189543
  0.5688006803354215  0.4293218837556967  0.3219312569215853
  0.2326586977235865  0.2521160389384669  0.1655909014221593
 -0.0110275987953331 -0.0108895865702667  0.5147909842982393
  0.6798888201658257  0.3352588074972379  0.3430645665473397
  0.0022552065186921  0.0737726497886837  0.4195975166397037
 -0.0125106013697113  0.0870394187995293  0.2512271638073452
  0.4964580376012002  0.3410538552268313  0.1660528226865625
  0.8324216040624768  0.9141643285787223  0.5803812421658459
  0.4107340792317176  0.9169944528108135  0.0021624243550636
  0.8732542443341035  0.5045335395133095  0.0739196022730384
  0.8434722848391382  0.8447588379868356  0.3325949816032152
  0.1686542470629123  0.8275574257331412  0.1591172195741717
  0.4095317813784133  0.0045592346119591  0.9128146599963752
  0.2469308527428919  0.6711560851310636  0.9132209391961991
 -0.0116605060729366  0.7664652303175669  0.4454865089922337
  0.7474761409500609  0.7537819262463314  0.4883816821126605
  0.9050885180561081  0.8359956435752747  0.0670804418376733
  0.1648273120390368  0.0731078461384672  0.2507915143576369
  0.0042107731354200  0.1640646177222141  0.5089160224884831
  0.4113384301693803  0.3254473153894560  0.5916839120402729
  0.8262487606085435  0.0882846010393477  0.5851800082267327
  0.0789744730513404  0.0029816614533513  0.7511614694897454
  0.0117672796190600  0.3295720494398091  0.8235452213038077
  0.0739556044586084 -0.0010104616726825  0.9072464952742436
 -0.0082580921435581  0.0895126457254280  0.0820229963659019
 -0.0085500386655513  0.0868614667552610  0.9052980217057478
  0.0080019892896242  0.4336416590744246  0.2572826832062887
  0.0820504784993461  0.6915639292636373  0.2827286896703698
 -0.0126488083129934  0.5083593700427177  0.3503699988476998
  0.0773751027168097  0.9083769464858273  0.3470625176288469
  0.0832944725107607  0.8229126064575200  0.2559629209612236
 -0.0130601650516137  0.8303235141135502  0.1551894903735020
  0.9044487561322507  0.8361960144051964  0.7592263580243293
  0.0690255399381469  0.6694974690214598  0.7367735279152815
  0.1532767485592107  0.5806331961704357  0.7485795551041623
  0.0088205362572263  0.6462802897493412  0.8470039193552068
  0.0957883391284386  0.6170985906989886  0.1842904448985454
 -0.0033656502653869  0.9314660995415999  0.4236498790923079
  0.0000621915189703  0.6753831066619763  0.1290320439141050
  0.0737448266538146  0.9112924042753081  0.1651429029166477
  0.0657384987016511  0.5052580302926388  0.7415487545113231
  0.8981571459309557  0.0073672290469196  0.2475995687646668
  0.9138493019912712  0.8435956911026172  0.4177534234393042
  0.0724568397554906  0.8283243012277648  0.8950377766979849
  0.3275349553116895  0.0778342911857957  0.9122317445369595
 -0.0166276523488564  0.5908233055196845  0.7456428065002355
  0.6771560782839933  0.1665103973373004  0.1393421227172802
  0.0568016679928732  0.7463608073671049  0.8118186532621069
  0.3356157262208618  0.0890828370287104  0.4113922187196772
  0.9181526821293389  0.3334264389472556  0.0893425399035597
  0.2499727973241701  0.0743832749340512  0.1620380201688816
  0.9012567611589244  0.0891056535821167 -0.0062291089370008
  0.3343970371528820 -0.0122496636038446  0.5072661224796869
  0.4981371373514281  0.1635307981925289  0.3457304564734924
  0.8279827398342146  0.1740919213962861  0.6747628071752674
  0.7297110029486414  0.1520542911469136  0.0384796987158927
  0.1680579308988301  0.3224690757639082  0.6660969787712850
  0.2344039728445593  0.4929405067170816  0.5659891103328546
  0.8239208022309659  0.3997860942117974  0.0987509298833686
 -0.0286215275146838  0.6014484059441434  0.2099625898138827
  0.5779864359445710  0.5023031204895625  0.0785740536055208
  0.8190031187737580  0.5933228953199332  0.2543386744570613
  0.7517873697734641  0.6655806052310196  0.4102854600295843
  0.0188008070645915  0.6092324711996582  0.3990329952816490
  0.4117520435250109  0.3411568811736546  0.0781395678233818
  0.9063501357310126  0.5125662863659105  0.2519916440470982
  0.5728065441153354 -0.0034819492869320  0.7478250636974041
  0.7659310187921016  0.7506234508728655  0.3265985002251581
  0.0562233688886545  0.5180956188442378  0.1980928179379817
  0.2358752304136542  0.9203437229164336  0.6712357958898361
  0.9270550407548337  0.5882835521367024  0.4866823153920351
  0.9004881022844169  0.8196877253922064  0.2412946657330238
  0.1548664493800508  0.4959642274709585  0.6614706985831094
  0.3241127945500130  0.0069230984220025  0.0068000734190041
  0.1752818381789829  0.8261017783341031  0.3387393931789066
  0.9234398725396112  0.8384929885806081  0.5856336060143794
  0.6442817098481765  0.1650423616760855  0.5058649834554627
  0.8979132837612938  0.9198830249975561  0.1626637117802900
  0.1595539593062037  0.9133240454169933  0.0745197714885932
 -0.0379086548123253  0.5107665640306841  0.1284975492597054
  0.1606145243676683  0.7358481065832081  0.0761337517501020
  0.0735171173930571  0.7377346559959678 -0.0124114844166854
 -0.0142213829199679  0.9182413672546953  0.0712407978338255
  0.1628976516116896  0.8171918452730018 -0.0203919236824563
  0.5723435367833893  0.5736395791714312  0.5042615728062200
  0.2470270765975756  0.6739449412604586  0.7432800184592125
  0.5743430470049956  0.4858431319624651  0.5845605885335030
  0.8317957872505094  0.1953556754508335  0.0111337482025076
  0.5029350512667308  0.5084519565072887  0.1705268430781678
  0.9198218106940965  0.4225136790710964  0.1820500167237518
  0.4233127447831971  0.4971274762748493  0.7561665446839709
  0.3317842883267498  0.4956708434794618  0.8345654120127526
  0.8256954532287883  0.3233179869475388  0.0127798770174387
  0.4972895453464010  0.7538354475311920  0.0790923149461404
  0.7461368541085555  0.5016120430442627  0.7517144169780552
  0.9529137413581276  0.3648700536300893  0.9078214824806198
  0.5837603507304544  0.4249753269802223 -0.0025339554520042
  0.8968684027738820  0.4077984059508858 -0.0012025677658116
  0.3320300414932383  0.4968564674333973  0.6581826594505807
  0.8260659659259973  0.2618389060133250  0.1186038108782327
  0.8385864994111752  0.3342371460897279  0.8378926451669501
  0.5810315607123144  0.5907385926626143  0.1660602499890228
  0.9196865219941955  0.2665312639555024 -0.0316964155119853
  0.9162924347803544  0.2595877459356729  0.4975161802587956
  0.9109167603051948  0.1822352076462954  0.0881909762863120
  0.4005237331120097  0.8328363623057888  0.5830795986442850
  0.3288408530291794  0.0803129957884475  0.5898746019331850
  0.7164989685751504  0.2632938367433013  0.1714619551177709
  0.7529463605207802  0.3364708295548661  0.2485436600321172
  0.9156222629725209  0.1855530465355319  0.2525261032726289
  0.3249148281375182  0.9215701917970087  0.9166950952507590
  0.8518740658250182  0.3197762524694514  0.3155725944359229
  0.7380291781035569  0.0869652633482216  0.6740791513909704
  0.4108151434650459  0.0923113687669656 -0.0003566059567817
  0.3230371604098050  0.7652784747722882  0.4156825372576515
  0.4211042423756360  0.6683244338361825  0.4214164818950715
  0.1574209209151815  0.7406516823048949  0.7622782610823013
  0.0764204439883653  0.8236325942394878  0.0741140413086822
  0.9198040533118722  0.9182276509659028  0.6704502143234453
  0.4831391461662501  0.4266911349803305  0.9109246633056466
  0.5762448596416980  0.8326772463008837  0.9137662061869199
  0.5036944601195776 -0.0007481165377199 -0.0023701000244623
  0.5122308904979694  0.3338629386355154  0.3432248812626720
  0.7492191565519225  0.3679749841230036  0.5783634120671686
  0.5783645936495937  0.6710148175692464  0.9175895928446887
  0.6562497239275747  0.9133086384825315  0.4151814918341815
  0.6612672557506551  0.6706598263972732  0.1663090323402280
  0.7371187147655544  0.2678559471576911  0.4995747749094095
  0.8080025121477872  0.0965784997132361  0.2452168110333771
  0.7385798426798608  0.1796696380925770  0.5844073811736044
  0.5043555277480042  0.3334894707720949  0.8191722036849742
  0.4856160910283270  0.8247185232411121  0.6693881767715326
  0.5959381601844402  0.2541892294672748  0.1717900347799097
  0.5773164487461623  0.9125458545177745  0.1639449738702099
  0.5827628042251566  0.5896455519593486 -0.0108564245728553
  0.5864349550492932  0.2388292900198721  0.8215240184600644
  0.4072101451928757  0.1599136529279977  0.7479024151100072
  0.6586260696356762  0.4143977969556835  0.7472860808918390
  0.4941765906259272  0.8272551838717513  0.4914935243541675
  0.7446720312930989  0.4403063485393591  0.3160382882283284
  0.7406367336637784  0.9135828346974987  0.4885061191750406
  0.6603611402461904  0.5025885885526693  0.8329633153602108
  0.5749072660264547 -0.0016097699178963  0.9106386625268128
  0.3328428269817720  0.5869647481237471  0.7408994761928813
  0.6487286035341376 -0.0052816854154983 -0.0068395216869842
  0.4124266164880861  0.7574179011134390  0.8352038387074326
  0.3115780091275910  0.4032670554614778  0.0861127109275126
  0.6655949281719780  0.4725622196305021  0.6494278703294341
  0.8240909190834185  0.2529242211081442  0.9168055412361537
  0.5714052609444948  0.7426013309155081  0.6671238463582865
  0.8289189650963484  0.6700817284126316  0.8284779922856961
  0.6547545656574930  0.0833602890594331  0.7542990648923390
  0.5819078754815030  0.9094897632796864  0.3351537846178890
  0.5065447345596950  0.0731221779831292  0.2529436184487606
  0.4140258780739965  0.2504664726813784  0.1641497140886001
  0.1472858581091661  0.5941918909001727  0.4149624334703891
  0.1668362121366302  0.5088400416066859  0.1873573259716987
  0.8206126588342249  0.6758144235336413  0.1501230489803277
  0.7419801563333915  0.7577218110109850 -0.0075338075615384
  0.8276004719362576  0.9178285912914044  0.7574180341651937
  0.7574574447767649  0.4970592406975787  0.5871335015040361
  0.1597676105486185  0.8368102156647598  0.6713881345219672
  0.4945887683963381  0.2481593619083498  0.9083801297743466
  0.2419061186580241  0.2457976204799956  0.3395569634832669
  0.1781664189191849  0.6892457032940047  0.3420652742607056
  0.2550788951037574  0.6717445533261717  0.2509820770596968
 -0.0010866815869666  0.0838081766048960  0.5956858212773939
  0.4192129318712374  0.9143359512659337  0.3330578091660660
  0.7359609454514836  0.8366219779403926  0.2372784382806965
  0.2424148793120715  0.6703854232413365  0.4307111015879216
  0.4151135889530882  0.1643239423265822  0.2578287063891553
  0.8252739905704563  0.9242883753235250  0.9056711200987164
  0.6533067805162563 -0.0016458353116948  0.4959643639138475
  0.7443485063539075  0.3410274820371643  0.7457954544171462
  0.5609325414273397  0.4023661840764770  0.5013502922473471
  0.5779806262390793  0.0755222059388717  0.1679893274991061
  0.5711410448246684  0.4093812521782529  0.6686873249347612
  0.6545120114162301  0.9076401191635086  0.5781269969816227
  0.4107665500098315  0.1582599527984037  0.5856412333235829
  0.7496962419478228  0.5777275757798895  0.5063488282639262
  0.7468427399295593  0.8237468562418075  0.5769700266559583
  0.7416988750614381  0.3941768866907625  0.4763681902028333
  0.6585673669462238  0.8257849494042079  0.6625910251044739
  0.6583567500297023  0.4931311719575868  0.1514846509726858
  0.4768399945610959  0.4944772745666230  0.3476233725552904
  0.4696815049936355  0.4037621342754081  0.4214695805533759
  0.5679815938238708  0.6696262849343904  0.4118157968895434
  0.6570736747501414  0.7616907557794924  0.0729667848802104
  0.4973461705442065  0.5800015063177848  0.4230260905950617
  0.4862220293305083  0.4147610279602569  0.2510155608820147
  0.5606116300968288  0.4910342720515558  0.4163789817750537
  0.5741373429612990  0.9159095454337959  0.8303477679392847
  0.4949162115241869  0.8335051427106492 -0.0035924546987381
  0.5748784157084152  0.9135510502234419 -0.0039919935821287
  0.5828376114104773  0.5052392888293229  0.9195956959383665
  0.4966961204411492  0.5894084847268156  0.9171000161780949
  0.8181069848736015  0.0069345355513707  0.1598030337953413
  0.6483670051738543  0.0750631620636572  0.2562382745996579
  0.7435449185804084  0.0550143986997026 -0.0145805254962245
  0.1625645700785914  0.9199270207980145  0.4302546032210979
  0.7234699769031188  0.0698367868799586  0.1799004067682511
 -0.0175248542417080  0.6718041648475799 -0.0129417441297530
  0.0773428246512591 -0.0047957170480180  0.2496013251491382
  0.4161706701152468  0.7506554404361284 -0.0018467166989954
  0.8099726463476996  0.8421514847255911  0.1517517420285022
  0.5755082278852648  0.6647473413711066  0.7524006465586418
  0.5700755933168636  0.4879129373395473  0.7578659548900468
  0.4955570112118859  0.4905817003332271  0.6681316355014413
  0.5771908101869283  0.7517698946944281  0.8344835998955403
  0.5010272899186657  0.5900920716378680  0.2456367774704997
  0.4182191324009060  0.5062005555360862  0.2509598603977659
  0.5006033340834777  0.4207499716415294  0.0858161586534997
 -0.0085792721426289  0.7550326781917324  0.2415084775090696
  0.0950668155530480  0.4925380987271096  0.3108412254516376
  0.1837798866048005  0.6768019378229259  0.1621373362760205
 -0.0274570273970576  0.6613075075720947  0.3078273773124989
 -0.0079573593278123  0.6799230467368788  0.5108463068986389
  0.0787099541284798  0.6928423011683359  0.4222320906674577
  0.0836780225482022 -0.0001791258536418  0.4235223798119545
  0.0059734764133251 -0.0009650088409537  0.3349807293345727
  0.5841932507888817  0.4193454692970002  0.8486529780674372
  0.5897398278291198  0.3167041403153799  0.4267455428659201
  0.4881475393182835  0.4886265748315765  0.5020392748835765
  0.6597328303999421  0.5331722630772540  0.4579249256689571
  0.4879728008931419  0.4094166553301676  0.5886463914646275
  0.5670235226630772  0.3282582490899147  0.5911089138595615
  0.5839323531369501  0.3192951664301848  0.7378474485274669
  0.5786995425871887  0.2451497982074561  0.3427709451659255
  0.5797058108834520  0.6782578310519333  0.2425192172500840
  0.5044413722366552  0.6710253540493946  0.3238559475250022
 -0.0026928215777221  0.0030486005828637  0.6724824263164647
  0.0909058802527772  0.4033121065075816  0.6756800209298345
  0.0873848774248655  0.2392440141303306  0.5092672911654381
  0.0077700505112411  0.2458071674828342  0.5888775476794299
  0.0758182247293957  0.0793788663043969 -0.0088477849746877
 -0.0034970430081002  0.7581438595352277  0.5903450173275654
  0.4180226439622759  0.5940980323024506  0.0010970694015473
  0.3255068508073693  0.5897105566416492  0.9173530662034811