C  Cr Ni
 1.0000000000000000
    21.1200000000000010    0.0000000000000000    0.0000000000000000
     0.0000000000000000   21.1200000000000010    0.0000000000000000
     0.0000000000000000    0.0000000000000000   21.1200000000000010
 C   Cr  Ni 
 173 259 605
Direct
  1.0058500934178798  0.0077271446031716  0.7274766466435487
  0.1170463653885070  0.9739484379416791  0.6408513968600267
  0.6730017710846784  0.6710818714980622  0.4184001025012899
  0.6517257491307681  0.2295989743044437  0.5037549009711578
  0.5117855882410647  0.6900783070746005  0.6020849193202988
  0.7575373852983783  0.3634171572626740  0.1438976874673528
  0.9165282521470821  0.7425473794780200  0.0793861923532194
  0.5345621234763357  0.1034234638076824  0.5039094851750390
  0.5753954583089108  0.1681275655959868  0.0022327723031634
  0.5783642655467839  0.5738628216820806  0.4188786494775322
  0.6728167239165251  0.4880165945850162  0.2347135080541854
  0.5111776207235652 -0.0021630574224569  0.5928971487902450
  0.5892687795349580  0.4895826623752284  0.5108591857995005
  0.9263294523805601  0.3351130488979291  0.5146005266673497
  0.2762070868423884  0.1722436269751599 -0.0207926633461701
  0.7628263276445792  0.1668538078542987  0.0025960566181411
  0.1816707425187953  0.8158263750391203  0.9420866429863007
  0.6554702187500804  0.2371439054865329  0.3272406306896116
  0.0809897770113502  0.1034319647352993  0.6007549500531381
  0.7286842285200641  0.7416764825347816  0.2677350253339615
  0.6779875019709050  0.5868130740931140  0.3200462805901310
  1.0005064766819276  0.8260118133637705  0.9086683146530008
  0.2430549150149503  0.8325789858334842  0.3317686645288561
  0.8443398858803914  0.4212059376428718  0.6611135852193134
  0.9291092054688869  0.0131063318836648  0.8328956735945933
  0.0577447110317397  0.3640924988773295  0.8298600716542939
  0.8337922067590523  0.2419601533229443  0.3274871429511724
  0.1631289725853805  0.1756011753778959  0.0725146696853084
  0.4847491212405606  0.5709047199611755  0.3281725585869852
  0.5964741605197955  0.2590922654186013  0.7424403907598844
  0.0083858653236797  0.1530735606650224  0.7252589657692722
  0.1559476509124700  0.8305225018259024  0.2380392949430858
  0.6629197062304588  0.3065257504853545  0.9227027561862130
 -0.0695443162127871  0.7608574483886708  0.7493546844766283
  0.8138230695773175 -0.0158646201240951  0.0587327771119956
  0.9886781247434562  0.8506449623484184  0.5939585765887976
  0.3332152185007286  0.1901282518770782  0.2186338861705621
  0.8980264861514855  0.1917396873229627 -0.0066695307439785
  0.9844561639788529  0.8827632518329520  0.3627232003270411
  0.2251408534510124  0.1088007138771052  0.5848976230400635
  0.6563317984346145  0.8151039652095117  0.5719680010865672
  0.4961428469365112  0.0011338137847469  0.0764844122465851
  0.7458194687188370  0.3372668175551540  0.3274324230237397
  0.4936107002644669  0.2563563666378926  0.8433952560025251
 -0.0225463640780580  0.2596732206842769  0.8033685690924318
  0.8260918349955823  0.9905292659777373  0.7494091493743089
  0.3397881404095576  0.0997367115549218  0.4994402616168473
  0.9893423448114871 -0.0080997944423805  0.2546803522861795
  0.5845439962714636  0.3357494354027460  0.1678823919140145
  0.1778721818213957  0.2646091661999487  0.1657739818259691
  0.7336427476864900  0.6504378627032710  0.1699334064826231
  0.2391757219234573  0.0110582941186274  0.4977671040329933
  0.2422786461599670  0.9223227429101353  0.5981088129828107
  0.6751972676742384  0.4872496822121631  0.4134907692627909
  0.7503723187265071  0.8192684739396211  0.6743027866957126
  0.6627003747206298  0.5830295183919016  0.8392958650689690
  0.8789413184872438  0.8375527465822440  0.8339157823942072
  0.1807243443215789  0.9328808425764018  0.0225385616192979
  0.9119062485540822 -0.0228707793246069  0.4941722904883562
  0.9086525035388351  0.0734393625901215  0.5952623161320032
  0.6799360926415632  0.8941066652193125  0.0109366019862345
  0.4259020526544511  0.8602646396965488  0.0030263860340118
  0.5171110550183522  0.1886854461164140  0.4041942050238316
  0.3388003659949451  0.1242331757839089  0.6885319185181702
  0.4214706228112342  0.0030726904420395  0.4995023136037923
  0.5057649254252639  0.0001292003430651  0.4070738900437091
  0.8004314840771968  0.0666302945502821  0.9127457920773231
  0.1671575430693863  0.0466492476917985  0.8264973319444110
  0.2390646193400397  0.5051676598895709  0.4939826295066161
  0.4155759151173845  0.0895327510215045  0.9166049435901612
  0.4954024535118134  0.9094928004348296  0.1641957996917951
  0.6813678517201009  0.0072503577864266  0.5642764118274357
  0.3341919141384114  0.2736774537529471  0.4876660344554720
  0.1482824361589457  0.8306751438461988  0.4190956493587712
  0.5629649912938371  0.9160111248355670  0.9178547001720618
  0.4841128175105161  0.1707724249921813  0.7424504067252012
  0.8150992931396475  0.6827459985999763  0.7446140478935237
  0.4029515695307049  0.3313559908984104  0.1634926834532343
  0.8260508280030672  0.2332584164044373  0.1396142889878000
  0.3368504988739613  0.3481649152885160  0.7416814890604597
  0.8294340387318320  0.3190566960957353  0.9071084135674198
  0.3976268421918066  0.1060914268954518  0.0835399719572759
  0.3300082230512573  0.9228846639508149  0.3368022220576387
  0.7329121274228344  0.7477762457053376  0.0818302019014723
  0.3327297856246155  0.5969468855918610  0.4893463436840954
  0.4265609064862167  0.5136736670366346  0.4832743073029944
  0.9347443734458498  0.3265073181274684  0.1415747196836347
  0.6034463119816644  0.0917615012618407  0.3952675185259986
  0.3308139916235484  0.3360003996687855  0.9241700269470263
  0.3251008667162654  0.6828154463542855  0.5927738054788234
  0.4830698842825374  0.7526193628517247  0.3328742729711446
  0.8297089416172481  0.6532320322217759  0.2605961892353800
  0.4190400357059257  0.5907590276167446  0.5894421108663853
  0.0892262475808775  0.9207176551727640  0.9241913583806328
  0.7321033910078079  0.4088222139914422  0.0952721051892651
  0.7582068417317912 -0.1027553911038240  0.9169145806453211
 -0.1141963076775430  0.1202543448252653  0.7257793304503700
  0.9796475086424191  0.1864839565225877  0.0964551003502231
  0.9298973610174455  0.3321230786217635  0.3282986199946288
  0.3215491362496130  0.2492645458107995  0.8331003178655575
  0.5732803369313537  0.1529238022909928  0.6458917229921908
  0.2477159592673416  0.9097522626427921  0.7415480516997516
  0.2332694705388054  0.6793981976847613  0.4927170569662889
  0.9206716566510297  0.1548667052873668  0.8312776343923916
  0.8342620326385892  0.8206115927712232  0.4182875990138686
  0.4110230937948910  0.5095474840043317  0.1670924052126131
  0.1442277525119100  0.9350719346176314  0.3213094577055120
  0.0791915034093063  0.8376216222166575  0.6776914068817547
  0.1553065319039826  0.3534775793500496  0.7404726922579566
  0.8374324137049667  0.3373865044489316  0.2355524599924673
  0.9669974489829800  0.1054300813269606  0.4717719296458101
  0.8333609149056453  0.3338795987531913  0.4197923637039286
  0.6571558306507781 -0.0062374591928221  0.2501346512089574
  0.0941935623492360  0.9832289031037722  0.1779999659713507
  0.7425300678419884  0.1318229904505728  0.6590338594469306
  0.3331854013432663  0.7971871699846589  0.6936065848376645
  0.8256237722851694  0.5075514111105677  0.9165348740422007
  0.3230913740465704 -0.0138825723157840  0.0563929942533126
  0.5691217083559867  0.3283635632610205  0.3385943034216999
  0.4767749269705496  0.6544961974729092  0.4339953775531482
  0.5735899913702076  0.6661937340300710  0.3292168507135596
  0.5913399922341198  0.8478197641417160  0.3332701603684989
  0.3331050916884777  0.0117816927660116  0.5966427297780073
  0.1500797728116071  0.5943460597062410  0.6769719136463213
  0.9337110929132841  0.2332123096071372  0.2340601766160303
  0.0958457474882823  0.5862991613516486  0.4475084038837112
  0.9379172581119524  0.1404341372153581  0.3284955070341152
  0.3931371968483064  0.3226032601351358  0.3405276739209572
  0.8201685166881852  0.1533483182468136  0.4124636700120370
  0.9866824323092207  0.0850128017671982  0.1790761481317804
  0.8629364315961119  0.2505782975530471  0.6864295893842794
  0.3287674764169064  0.0057191586010645  0.2436839148612462
  0.5690997970710155  0.8322212950793244  0.6707728464417593
  0.7407453675961588  0.7526002700069703  0.9106770369574322
  0.0747225210548604  0.2604612709534036  0.9202240704872505
  0.7366573044764267  0.1909122571451574  0.8277249267593928
  0.9325692414005226  0.2366528158468275  0.4242756924360799
 -0.0258419433219912  0.1937185914632862  0.5674217716509870
  0.2393791037711385  0.7567199817303157  0.0862165217067206
  0.0836877694102476  0.1744126634757342  0.1735692146876200
  0.8991564674109888  0.0704568489871481  0.0440976916346351
  0.9219266361599271  0.7518254988389309  0.2611997686358561
  0.2408752410092020  0.3489957391947913  0.8351365393760674
  0.4310615677971611  0.1065926771152132  0.6001364195802654
  0.3398722066316996  0.1806437459588215  0.4033612834555890
  0.1877872285053263  0.1823603244687564  0.7071112685447399
  0.2441951427625146  0.5061988091406266  0.6702800207702075
  0.5803939689604142  0.1583150903501343  0.8297940439766600
  0.4903528683218812  0.2421247053196283  0.1418728676094355
  1.0076137198130775  0.6433804570125472  0.5899844738232615
  0.6758131631329252  0.5788554150551163  0.5088850665447867
  0.2329908104654244  0.0348560798364400  0.6936679360533987
  0.8293930669084156  0.2362444700501781  0.5161498901458644
  0.0831204108156589  0.9226064650438904  0.7862001130728492
  0.5705463672887944  0.7545271232930537  0.4339110159667468
  0.6575849952803585  0.7340793181421938  0.6765248758006759
  0.9186256077149016  0.3893960378261328  0.7727973140400282
  0.5012154366842809  0.0036735974580224  0.7702425797948891
  0.7304357735311496  0.9105467873150802  0.4268217773898050
  0.4919707820622606  0.5048740724500357  0.9196779464819365
  0.2462234064653736  0.6688964299198674 -0.0019844134842153
  0.8412358708592762  0.4163627042482095  0.0095664998217873
  0.4146756583070126  0.4980360809326804  0.6737303936472149
  0.0663184816162095 -0.0105981359601458  0.4837562247299827
  0.0888902872179731  0.0835156317943685  0.2651803509087596
  0.5656670542948569  0.3205251134949319 -0.0008489506074817
  0.6583058163998711  0.4030965359773104  0.6680749861346250
  1.0006322456617047  0.5860500397224270  0.3356005899019857
  0.0748853501598305  0.0832620182183261  0.0773586073342449
  0.9226876251036106  0.5046128919607474  0.5213496191037291
  0.8254197036216254  0.7427274342992595  0.1679809162862346
  0.2669258613860966  0.9395219508545103  0.9196586394471589
  0.3212773784382368  0.0791286704848612  0.8413903754703357
  0.6678064103137940  0.5792697136589879  0.4149951542709240
  0.8956247963822935  0.2551530486109662  0.8466288711727882
  0.2939107868353156  0.8727716631653929  0.6686183904559060
  0.5724317342684695  0.2713179095114372  0.5072320351449081
  0.3360526268274741  0.2688614833709321  0.3993183095690452
  0.8284690273378013  0.5057232287834881  0.0056697683235917
  0.4074492612215683  0.5961704090651568  0.1662443786460831
 -0.0031813015445703  0.1739278647003082  0.1839381836497625
  0.4289386072595294  0.0971203318901053  0.5054351717923929
  0.8463767310922923  0.3474609866814253  0.8213707238063375
  0.8250082787496318  0.7427971720597852  0.0794049784165518
  0.8365514018720988  0.3311216377976349  0.3276195517244519
  0.4978293235564667  0.1873800466481300  0.5001907090845645
  0.2452289422292878  0.6651001242718134  0.0869427252333956
  0.2486747553763873  0.7543110118020471  0.6744091546093655
  0.1567921447219978  0.5057408039332435  0.6647663224301661
  0.1483375488760889  0.6611796186838875  0.4976983521003013
  0.3303332903254345  0.8351879260682075  0.3324209973058576
  0.9099962659785583  0.8221422809954817  0.9212113730870547
  0.9349076627071092  0.9140746558054349  0.8386652546419074
  0.2455053408998766  0.7572750566966957 -0.0024049550252347
  0.1668139949910592  0.5071943700449787  0.1643599474180314
  0.0825543918371115  0.4288097924850956  0.0003514864947909
  0.1532984559304089  0.3500842435894818  0.8326904843668655
  0.4102607274149334  0.4203285950552577  0.1648865930440397
  0.2449255077556311  0.0165640259946751  0.5882216709241760
  0.1771770413947213  0.9081079013265231  0.9351012156663083
 -0.0013526757586499  0.9076577408860658  0.9466877201898107
  0.9015136631056264  0.9073919976523169  0.3287185656728355
  0.1728909027989860  0.0935979114304478  0.7425097049180597
  0.4141823682481940  0.3478556844391453  0.5839753962669880
  0.1377867850438767  0.0895951184919521  0.9063549786419591
  0.6615170439451120  0.4955167837711187  0.3251323646249066
  0.0185162350104760 -0.0105676475289772  0.8189526144164160
  0.7367839527110469  0.7404495871803330  0.1703768788033748
  0.5779431729925266  0.5775149627666637  0.3297485455551645
  0.5777891788503748  0.1678019110080602  0.7414366292420081
  0.6613651516430764  0.6734025978621146  0.3315099591469884
  0.7404349249861673  0.6500637878675312  0.2581217711303394
  0.4013112917188968  0.2448212055760931  0.1715751558358735
  0.6604273935380492  0.4938433050946133  0.8381515852904793
  0.4972591159297149  0.2582176539649021  0.7482541624136997
  0.5878224563179799  0.7552647170395727  0.5227083407516169
  0.5760300046667972  0.6627487248566701  0.7536180783979921
  0.5663505229215752  0.8404953875537498  0.4223856249431522
  0.6612202466574926  0.0784814414400405  0.0861240300102700
  0.4147408345640630  0.5025519534701549  0.5827297317976806
  0.8834527393332211 -0.0137357367501290  0.5805382465033367
  0.9186418186744636 -0.0265733803451766  0.7488051485052877
  0.8364569446242430 -0.0064584677127767  0.8445394456908248
  0.8881986767726934  0.0832993755762064  0.8771592737099008
  0.7511142460498077  0.4248193792943394  0.3261021851138632
  0.4050447641599322  0.8327331672049799  0.7502800827687741
  0.3276282290139609  0.7718915164053173  0.5999701416195744
  0.3323077923791559  0.0110864469251369  0.5012689242584782
  0.3297178284238000  0.5075774303159383  0.8385217691656736
  0.8958173755268698  0.1559779545396588  0.0765679685531064
  0.8342384081556106  0.2445675254857861  0.2371714222891225
  0.7447549228816847  0.0664368779481696  0.0009144952533053
  0.3289750570188125  0.9161760233244638  0.2455810745166782
  0.6648543405454717  0.4968873947732572  0.6744123560289037
  0.6755210359853369  0.4918720043749857  0.5024095298654675
  0.4960429224517566 -0.0002766542415872  0.1656985753020975
  0.5184891015680336  0.0879442420109536  0.5915367506933320
  0.0887808400648320  0.8239460549954428  0.9405400433913368
  0.4843756842218933  0.9107597399592493  0.0748290496762660
  0.4810351990742165  0.8380352572244480  0.6737796049218097
  0.9223001900829695  0.3313932824476842  0.4186819773024627
  0.6728009024636302 -0.0350752794840922  0.4860228972399808
  0.4145784672317333  0.7519516792464777  0.6770557360148338
  0.5754825398728515  0.8274252457927322  0.7601045845054133
  0.5709487986699600  0.6608911533989891  0.0828518511094228
  0.6647108160607847  0.6649373525221489  0.5057594805870339
  0.1662944002199472  0.3511769614668408  0.1630802725483291
  0.8316032292110070  0.4270875881146505  0.2483422973784579
  0.2447404228713903  0.5943402187111427  0.6696298245246238
  0.5094651185232472  0.0105993191002203  0.5003443102016139
  0.5723695044708978  0.7548050071291967  0.3393747698124826
  0.0695922388103097  0.3423322590886607  0.7426186108129116
  0.8422301156978461  0.1241702016944118 -0.0227685050887015
 -0.0141818245645178  0.9230167151380001  0.4387751222019989
  0.9159201809675709  0.7397924127045903  0.5031843178296663
  0.4150336208405986  0.0099932936468550  0.4115227215570120
  0.3293446786310126  0.0105880945714851  0.3326779819066085
  0.9138631844505735  0.7393417914671540  0.1689454328426279
  0.2394784521860069  0.9238264567468063  0.3306280809094849
  0.0497333418790269  0.9164590296837184  0.6406367932223738
  0.0775648014109440  0.8240402390079538  0.5861176801850542
  0.0062748413184879  0.4275966040745922  0.7650966605998435
  0.3359979766963383  0.1018856840071460  0.5902162397877903
  0.3260432398833938  0.1024957356044026  0.9269455105085717
  0.8254475450041435  0.7411121600296097  0.2562913566734509
  0.4212785465661823  0.0105213573797296  0.5876768169741498
 -0.0059431410196007 -0.0057830925869493  0.1666976356574148
  0.0634563642767033  0.5909336752373660  0.5294946698342921
  0.7465740244822198  0.9058611683529241  0.3291309217056942
  0.8281774079594606  0.9092693258221429  0.4080208249743721
 -0.0061713743933209  0.8209500685152524  0.0069889795545622
 -0.0006551477083209  0.1875607198304581  0.4753470025440764
  0.9185071387773235  0.2496045298740612  0.5138026386230267
  0.0741038548934698  0.1744490649949241  0.0850947331317309
  0.0019456080721008  0.2766535391407498  0.0891586034854975
  0.0365378099725806  0.1791834107773214  0.6375394057514370
  0.9061542172515500 -0.0098957679553667  0.0854461570091029
  0.0626873164479604  0.5898299487348984  0.6568236582148672
 -0.0005338506456181  0.5005717474412742  0.6737110951811237
  0.1513693951653115  0.5182868569710455  0.4973647128859023
  0.2016443901792990  0.9510063900279130  0.6739034875205588
  0.2419470309668171  0.9207410088180693  0.5013415047608472
  0.9065107094458622  0.7376836426345604  0.8457086321981931
  0.4857840924211280  0.6624152852004362  0.3394893592179488
  0.0812417811391936  0.5854259197659554  0.0023233853614334
 -0.0025272595182185  0.6721332972830037  0.5012173001908619
  0.9574674988788308  0.0829217846731928  0.7731159371825509
 -0.0030886549458392  0.0827833577936400  0.2685857790655383
  0.0514243615893852  0.0789691349724481  0.6892501227501455
 -0.0146139592514107  0.0900004122066453  0.0892349091654490
 -0.0075506219551595  0.1029113373995849  0.5624123801628691
  0.2646981584718953  0.2445199401272354  0.1663145332710143
  0.0916159256655387  0.1731407612376362  0.2609001648259086
  0.0876525870553563  0.4249751252079326  0.4958072148188848
  0.0684720977066902  0.0133959464429710  0.5721377491169641
  0.2521485031006623  0.8199326074669629  0.7593902600337890
  0.8878604444411059  0.0706319711484079  0.5031182090253281
 -0.0234785739914743  0.8083945398153668  0.8224204131588109
  0.0799673694856618  0.0815136385445351  0.1729751836166945
  0.0795338946635091 -0.0044406230942603  0.2651701997949697
  0.1624108511893344  0.6630230710601303  0.1664083628063002
  0.5815606953898653  0.2466019086911735  0.1604745236728552
  0.8220276137555685  0.4226072096602759  0.0966864807370396
  0.9097858702175802  0.8304553038036154  0.0821839348049971
  0.8298903645847822  0.1657718034078523  0.6744784486128361
  0.8388093840002936  0.3239952166314937  0.1468329675093440
  0.8334509999736164  0.4934770903166528  0.5044141660066019
  0.3272020473498948  0.5038037725902913  0.0038891088139400
  0.7477450455069760  0.4149108168551285  0.6717976163226625
  0.2464570397712390  0.8361758948475788  0.2427980715429861
  0.4120607819623204  0.8266894925896152  0.0877393778756519
  0.1548575188411928  0.8379293310667891  0.3285377846793630
  0.4820615024642067  0.7481883897609695  0.4240592363932762
  0.4160491033282137  0.8175929334482122  0.9189105928552936
  0.9248994243537959  0.3264672083853985  0.2382504392827906
  0.2473637406284241  0.1736306133660436  0.2486618252174455
  0.0854350818872793  0.2647550822576510  0.1669064005873608
  0.2426024224942036  0.4296399302140574  0.3286492478892458
  0.4902984294868707  0.4171545528321026  0.9183922963726975
  0.1603720899507750  0.2624145053193367  0.7489845597182125
  0.1511344999396312  0.1678563806050810  0.6279395725391170
  0.5105857882422816  0.0920369145325479  0.4132412041888593
  0.2519800439950068  0.0996830536244291  0.4969014973173015
  0.3281184473293488  0.0945488491932134  0.2406232430507354
  0.1715541661378263  0.1748606786662447  0.1639727535207675
  0.2505002949927513  0.1718672184400419  0.0680530273200377
  0.3245468879287146 -0.0081273789968497  0.8486703627620672
  0.1296832555057601 -0.0320882918960907  0.8492410894248034
  0.1602554825557442  0.2663080672882233  0.9163576094015021
  0.2290069086413060 -0.0036063330467332  0.7777015832739927
  0.1638930678261179  0.0864108609220095  0.0768837946805715
  0.8218292524513302 -0.0115117278152620  0.1614564516296400
  0.9189425561453373  0.1977171498325450  0.7500112632375001
  0.4956756233492893  0.6602637294280471  0.6836023926976554
  0.8371953369392058  0.7665312122629795  0.7686042855272139
  0.4162059386510372  0.6791163324848754  0.5924778205680421
  0.5839821909884477  0.4857310742762109  0.4193022573140374
  0.9093258678253815  0.1486803470190101  0.4137989167662822
  0.3323869943752301  0.5073906881912175  0.4961420672787550
  0.4902241455460723  0.5666543834232435  0.4184208830126717
 -0.0081960975571926  0.8091599980330165  0.6782736266039278
  0.7948743486741304  0.8214700306219113  0.8667399676269191
  0.3206521942167044  0.0070367994081977  0.1556907978232336
 -0.0245181089460289  0.5559513548851874  0.5858742186891688
  0.8248507913643344  0.8994838427032045  0.7827153706102230
  0.1722116459029360  0.2654592378604839  0.4112887117576469
  0.1583762190123231  0.9204565934658697  0.2328355433634260
  0.5724301944665716  0.8423877579098760  0.5806315325838247
  0.1532819732012512  0.0545367046590534  0.6434418002358943
  0.2344786207274441  0.2560328071705921  0.6651208099129740
  0.2407957670448862  0.8347326861051203  0.5818871035324279
  0.0700334749923894  0.2674795800588595  0.8300715766674884
  0.4063592431063964  0.0090623719408001  0.0907025294374757
  0.9176462114794628  0.5159870033219524  0.9186928881880509
  0.2460715284527405  0.5058016909491639  0.0834598936543496
  0.9189975566834675  0.4981241131672535  0.4203491838245932
  0.9097610313398262  0.6672628017371085  0.7542436088810668
  0.3286111955181552  0.3391508123453713  0.8338681956019207
  0.3263687925616634  0.2449998940887746  0.9243606514032653
  0.3239974174103200  0.6827335489485352  0.5040585655437128
  0.9184407379194407  0.5788530005914376  0.1674653475710111
  0.8374114590750058  0.2425816996006201  0.4206866734416712
  0.9223906144788645  0.2399323566892390  0.3286595619528621
  0.4937803370318517  0.7420204853730410  0.9177250909661453
  0.3312916284182549  0.6646949151979884  0.8386174397895051
  0.4194877669719459  0.6000023932419546  0.5003053096995896
  0.2516477293560882  0.1205982572134158  0.6685898554440237
  0.2411618552635215  0.8399143867601090  0.4210834194877091
  0.2442275962379904  0.3449700247706086  0.7457522740661088
  0.6579543607779292  0.3282986877107301  0.3284669471415103
  0.8282517708099989  0.4186730391084174  0.9183349405710528
  0.5972648068674802  0.1660815272510120  0.4436293750803278
  0.7458022201336405  0.8235376962202561  0.4183219297828524
  0.8170572871643333  0.0723849683628347  0.0842756231831251
  0.4914436707259951  0.1661675695596316  0.8309354948098036
  0.7620938402636528  0.0494348753689772  0.6841649981698487
  0.6552132757017779  0.5019643408726461  0.0015543404343445
  0.8241884743452704  0.3308693569140754 -0.0014845433328771
  0.5671564979823476  0.7420455383566690  0.6639085009555132
  0.8320379525399425  0.3305973437192469  0.5073269571023770
  0.5837920780344437  0.5785374401654565  0.5076349333763434
  0.8269932996658416  0.1667264061202297  0.8375821932194346
  0.6610486862750573  0.8222253171097498  0.8437920600595541
  0.4840743283270711  0.3435036883799633  0.3318040202481236
  0.8247081555780744  0.1541958376909662  0.3242109157746855
  0.7368989036727331  0.4415873445570592  0.1844931177724579
  0.4838624295010417  0.1724878691657359  0.6541900452220787
  0.7435560981835486 -0.0081730147389913  0.9147197571763149
  0.5680677727688461  0.2399286891364310  0.3404438328712297
  0.6635127727392974  0.4184029163755982  0.7590825129895088
  0.7468601290390302  0.8187253317081106  0.5852414783894057
  0.8317196846138379  0.4277376547810553  0.7543160728032322
  0.4926470262846955  0.3305099060301853  0.1603260102862413
  0.8268277554795347  0.6510735436489448  0.1698592310789190
  0.8481797850624075  0.0134218377062441 -0.0207800504078126
  0.7526573320599501  0.7309793144791672  0.6830385604043960
  0.6103850586418947  0.2478517714893804 -0.0223666555658333
  0.7338014876390831  0.8365328534215706  0.0750768441484361
  0.5808383824795390  0.2508668927785822  0.8336702556322292
  0.6660643113172210  0.3308194976768249  0.5048227984851115
  0.2436210623830662  0.6673492092627313  0.2474678447844511
  0.5927734986792031  0.1700892268231326  0.5596884118089328
  0.6689912992588509  0.9094705924967371  0.5844230185019074
 -0.0271681744643544  0.3431951856012698  0.8325871153227794
  0.0822802518506472  0.5879415044662493  0.8372962292110528
 -0.0048752615746512  0.7455593220613245  0.5867514699667404
  0.9216614342965185  0.8282519450967941  0.4114380908688253
  0.1595042602195388  0.5897217737291726  0.5844831783703709
  0.7628656592484014  0.9289345493748808  0.0014307451629587
 -0.0007940326892315  0.5019083248149565  0.1669823232448351
  0.0879497235256711  0.4270344720309228  0.3298028971077984
  0.0113308091418486  0.1741886418876879  0.8169771077599808
  0.8461807702301160  0.9122930516904340  0.9102818406232609
  0.4141145049932218  0.0805874932323388  0.8293606132423516
  0.4342999331660164  0.1898816364034757  0.0868212611617831
  0.7443881637422692  0.2473949690733274  0.3214143251388724
  0.0592538731090958  0.8307718305779386  0.4111501072976943
  0.7295300896742538  0.9068805366720674  0.8348171240108782
 -0.0023881238856518  0.6561019328575403  0.1659875113110724
  0.4043952314107048  0.4189806825376036  0.3285753254625770
  0.5705945042649875  0.0678248085899848  0.8271097655358864
  0.4096443124793416  0.6667622143343100  0.0847842812876912
  0.5723371654524132  0.5824635155591464  0.8370141974811350
  0.8282695023039232  0.5847400349434920  0.7544082949817973
  0.7480371093668824  0.1502631676155063  0.9142588156609732
  0.6680767531664640  0.1524569675228595  0.0009914904758172
  0.4907262233235270  0.8400277120657427  0.3361477295521383
  0.6584893125896095  0.9117940326434563  0.9218095225214750
  0.5756816355946747  0.6645318796946993  0.4226394717747447
  0.6581994978795526  0.8222996853704824  0.6679504088014562
  0.7486040174217005  0.3377458063044901  0.2354731363157736
  0.9149424248282679  0.2384257796619948  0.1468603688220973
  0.5742741680963651  0.4955413881404230  0.2471935067345270
  0.5038070965031769  0.4919556735318196  0.5109307943486512
  0.5699144595921317  0.5833626275739389  0.1612329797225390
  0.4954931946644788  0.4870539385183916  0.3289972081960646
  0.4098912304439515  0.4129176175471138  0.6719894010740048
  0.4054407579693106  0.5040464974101700  0.9192436748448395
  0.4884089781431900  0.5846030756450890  0.0836944374068292
  0.4992736834903549  0.5005862342229913  0.6723340518930520
  0.5695925355746702  0.3285670143300117  0.2511251857250727
  0.8201817840824553  0.0709016804307271  0.2435363088039159
  0.5698718340503981  0.7465230019713012  0.1651335823013872
  0.4911582904726566  0.5890588082818311  0.9193868463115402
  0.4937778689244380  0.5002307879107493  0.8339636664641126
  0.5716397248263864  0.4201956681433443 -0.0011322083915355
  0.4887963592717826  0.5025016148214277  0.0048322522512747
  0.4968532500353470  0.2467688029325879  0.2440238163720578
  0.5791971314733956  0.0779910803583794  0.0027396804615852
  0.4953836687909088  0.3425426751923672  0.8367829726090316
  0.5719393392979630  0.4204007255523384  0.1631302925771235
  0.4113932029740824 -0.0048478215347337  0.7605705582146354
  0.5719203890267681  0.5835666396415018  0.0017601338781638
 -0.0168166130700679 -0.0182289903686025  0.3385915678913167
  0.0760151463991512 -0.0050171905984305  0.3977419588186498
 -0.0253002475527557  0.0103396052984868  0.6421771501476227
  0.0875244991889457  0.4433038730465856  0.8382848084930965
  0.9141604158005108  0.5804434829063554  0.0061208121584518
  0.0102069904718441  0.3454374831897645  0.4929699914700397
  0.0017775455665792  0.4305320664050626  0.9135126483027650
  0.0810559307711365 -0.0025155850495354  0.0902500660964722
  0.8211903797701028 -0.0108147684302348  0.3250022856586569
  0.3265873702422640  0.2672298894311973  0.2589835232730007
  0.6663033949458993  0.5753327327280481  0.5945269052885003
  0.6727954839563343  0.8123859021141413  0.3271630684949153
  0.4108643050547671 -0.0001819279244009  0.9163873509859735
  0.7430767216731003 -0.0103329542991197  0.2465183800121497
  0.0786288348850102  0.7513357369072434  0.4965515088516886
  0.0875077244557581  0.6823968771848705  0.5889878395965945
  0.5786702239630598  0.5776763741587346  0.6750011344315874
  0.5775415546123127  0.3409691891133024  0.4225656783790032
  0.4940047294104218  0.4216729320761882  0.4175086110734219
  0.4930346183669291  0.3488093311740952  0.5043299247850503
  0.4187074402637000  0.2691669869340085  0.5002828303388849
  0.4939571995535104  0.4218876229832996  0.7548961092651844
  0.4094576923131388  0.4213833213314109  0.8369313352756856
  0.5704609577650152  0.7367499871992268  0.0027395105818694
  0.4910154286435570  0.7458645731939629  0.2474600191483038
  0.7393247783845417  0.0756013017758015  0.1669316276033170
  0.0878272968229218  0.6586450738589832  0.7502153871016588
  0.0111808676045390  0.7302308548096005  0.7579662190051583
  0.1021863990778835 -0.0118267262661843  0.7304234230404162
  0.1611101210591800  0.7359267258079083  0.9209204337084639
  0.3152755225250508  0.0743905472131921  0.7559327490738837
  0.6563894794078649 -0.0070100648903463  0.1657197666124190
  0.5775658121666858  0.4987262981401928  0.7567790784197297
  0.9078248526247572  0.8155374103132167  0.5855770742195301