 C Cr Ni 
 1.0000000000000000
    21.1200000000000010    0.0000000000000000    0.0000000000000000
     0.0000000000000000   21.1200000000000010    0.0000000000000000
     0.0000000000000000    0.0000000000000000   21.1200000000000010
 C   Cr  Ni 
 173 259 605
Direct
  0.8997445508251144  0.4166370044771548  0.0734281293712732
  0.7435176503397422  0.9180267853171034  0.9264573019603343
  0.1527361771143304  0.7667728809402504  0.6865464587743579
  0.8283214175532951  0.0016376686869821  0.5689883428646212
  0.9281912103821426  0.7620982038384935  0.2268541516221998
  0.1682194949866979  0.3312220563994483  0.2507401571215100
  0.2707537932218926  0.1648097254526905  0.4618792281606887
  0.0627109984527245  0.4933121444685210  0.0019035988411535
  0.6700271609054462  0.0744313051754415  0.3143206388507062
  0.9321349790734448  0.1003966820530103  0.1009033422008383
  0.4959435855127822  0.3370907851959745  0.5837418450359214
  0.5595852160825766  0.9085620157019221  0.1038762634314826
  0.0789413343059815  0.6658567162264818  0.4990075206792924
  0.1644054117629707  0.6775218978405110  0.9049342616746664
  0.0043773861306690  0.0834986553144579  0.5021126159888262
  0.7098485700299942  0.1775975562770634  0.1860545873799744
  0.1735726590297474  0.4352805814390273  0.1554331275860794
  0.7407168194395004  0.0014330938173043  0.6695155120351889
  0.5759423039387075  0.9942668402640125  0.8373974949512512
  0.1544531431225800  0.6614054810257494  0.5984465100583725
  0.9009450983405577  0.4898563397959760  0.6692039142648988
  0.4747690078115976  0.4256915881089450  0.1754683734545217
  0.4168842282765325  0.4983852523477176  0.8233307414159992
  0.1474028985083055  0.1593939559198755  0.5647812686393904
  0.2586171542869760  0.3173668572330902  0.3567797714207938
  0.2408512615873731  0.9202144108121644  0.4218577155726733
  0.4210624700220876  0.5676915052751226  0.4228294121618041
  0.9772249276812797  0.8273840274756566  0.0693457847240375
  0.3148230005214286  0.4703321930697286  0.4348035310088161
  0.9025383521365432  0.8262202582639880  0.8413442547546984
  0.2457131951199384  0.8000149173415791  0.8234752336873857
  0.6589136655663050  0.4160562579186827  0.1603863052223803
  0.9589653654466216  0.2978412799106212  0.9080418694820407
  0.0045770555210728  0.9110983855597867  0.1625381867682627
  0.4940316773113036  0.6630545959346593  0.9089167412033734
  0.0117268248248450  0.0522950317406484  0.3700257274131916
  0.7509386624133451  0.9040234472118224  0.1026631810111651
  0.2620352372083605  0.6495394490568154  0.1501834410526792
  0.1749590833794884  0.5235639066530708  0.2549785488882133
  0.9019045797158316  0.6722227069820370  0.6686275348064100
  0.6730350611789510  0.6867241138468131  0.2251859610618203
  0.9438857466733962  0.9045630274278110  0.3039173536696929
  0.3207497377531980  0.6590728428160294  0.4198579971889709
  0.8363223285313055  0.1028037926536764  0.2010331882717802
  0.9039939802791895  0.1568453343835541  0.3474034379488417
  0.3403839008315676  0.7621955413143778  0.9937814699354077
  0.6718606066479270  0.7510790931630393  0.5106881010843374
  0.9815600962988278  0.2401097886229710  0.1494413197347119
  0.3211097514852242  0.9154423980679816  0.3209834396438243
  0.9955953147264284  0.4885761132137445  0.5778766927063359
  0.9021420948767603  0.5829868723545372  0.5745505689105930
  0.4922103460405826  0.7509331747060958  0.5034535904820772
  0.3297934295080757  0.0090824642738690  0.4198633382496498
  0.8177387913023259  0.7731439134129726  0.9856563985254309
  0.2337553743106795  0.7450419259322735  0.4015482756994663
  0.4137277852561482  0.7569579844557968  0.2428404403510894
  0.4202791195201043  0.0910191028977009  0.4158994182087488
  0.5672520346152922  0.0981556562774128  0.1023892300031208
  0.0756729054917145  0.3278527062749996  0.3523862564188669
  0.7752864981244557  0.8402629195025670  0.5092966434925338
  0.8975011317336513  0.2517889593035489  0.2489825108036396
  0.5100195244650848  0.8511261825390253  0.2623769196527430
  0.0644005319185202  0.8511823615008169  0.8159120676302772
  0.3873347395292215  0.2599061860846208  0.3999629250439251
  0.2421680898888698  0.4759548859191157  0.0261713298856636
  0.6090401512069006  0.0721097260899651  0.4285954061479982
  0.0505249485507029  0.6192855367036446  0.2637932402120248
  0.5810688947387713  0.2503828643412055  0.2448022268522680
  0.7340357833475363  0.0989522285803983  0.5706893262103370
  0.1687244931864031  0.5890347898061271  0.9937340507314514
  0.4273552056656461  0.8513142701367638  0.1333908672306353
  0.4784329553420967  0.9037668462359533  0.9849182465897085
  0.7554217545607373  0.0951635955680109  0.0788590162897997
  0.0023130565277064  0.7349266388450947  0.8570493127416106
  0.3444625403321929  0.5705882236479597  0.0139210257740512
  0.0168791245526655  0.2690827200982764  0.5052974770233544
  0.8407147221802124  0.9052465538073025  0.6556503056655190
  0.8605855137435220  0.2824031860611090  0.0027858806524061
  0.4183263057494368  0.9099458436815906  0.4184255435277183
  0.7561648158163264  0.0729478306760446  0.4198357771095653
  0.4070846411813252  0.6617577576992766  0.5144250301621403
  0.9707346269335234  0.6101437009262763  0.1575893752619540
  0.9080301101771009  0.7656634245096533  0.5731499689949906
  0.9858555322752662  0.3314703075837278  0.2503341766827827
  0.3736721150293764  0.3822366479025301  0.3396694874524047
  0.8152897943161496  0.1866445718065449  0.4476988166844483
  0.4043570009236492  0.8260963660056764  0.8422495726036977
  0.6682214508120259  0.2315659754766836  0.4733841776887631
  0.4304238003025098  0.2452628369371938  0.9334418019209675
  0.3341023937294372  0.8384751044020514  0.5852909240937636
  0.6557731696766369  0.0001715911274647  0.0943531820258617
  0.0570584228814114  0.5075090396148750  0.3498588927749652
  0.7633752608876685  0.6548704185280767  0.5103496741204461
  0.3272130230222538  0.4908295590996068  0.9131750104487161
  0.3289582261444713  0.1671393959417585  0.5924892570381711
  0.3353743496239488  0.7511437215880523  0.6862093623346917
  0.5331770392562462  0.0072457848059804  0.2353471886422761
  0.3137084473903980  0.6732780116302879  0.9062042358297482
  0.4215841593672200  0.5740815937856371  0.2401134870394547
  0.7377215929375317  0.9319146999039100  0.4259286006200502
  0.2487116851884801  0.8272324780251068  0.1772047120228217
  0.9168983983446233  0.6539491583257541  0.3116610586465408
  0.0811470094274449  0.1640612160309955  0.8351445463293378
  0.2410118241482845  0.5935361624033703  0.1112103962822802
  0.6404949077274261  0.9487202862318369  0.3430500760951304
  0.9040663002685542  0.2449381729825709  0.5854736921926942
  0.3341862897184132  0.1840467594991867  0.0680249661863929
  0.5703375391612910  0.4247726208956686  0.0735206898217787
  0.5709602472321070  0.1763526824469384  0.8396617208973729
  0.4308451566263587  0.4751093486522602  0.5237214341281419
  0.1762881954271708  0.9897668931491423  0.2774048896522214
  0.7531155358846504  0.3324992446901620  0.4955189270391767
  0.7542795293521503  0.5906312395778979  0.2402892479016415
  0.0609631753524793  0.4022197160862154  0.9013359053819782
  0.0080022972957741  0.6560406746996662  0.4004573695474440
  0.7469724735686510  0.5006343515880539  0.3363604914103625
  0.1557859312176617  0.6242622662767284  0.3608571408128056
  0.1652909816265046  0.2750688442677174  0.4841159752172965
  0.8340762744310811  0.0918380275669479  0.6772759317079278
  0.5885245689575032  0.2399233281834159  0.5848128805324110
  0.1738816498185417  0.6882419909935678  0.2435876366546187
  0.8309492949077980  0.2594356773612572  0.8562954703961645
  0.3189052121984439  0.5622989766595732  0.3276978449479305
  0.4153506296905691  0.6625675962733825  0.3346204746116336
  0.9975317306355401  0.5820333820457606  0.6676712010463246
  0.0753608074679064  0.9342826360188459  0.4071307342024116
  0.9991881031773234  0.4898208034228894  0.7578218436653268
  0.6612757515247637  0.5043634517947959  0.2462692186995284
  0.0779866861378840  0.1515801848128435  0.1551185502331015
  0.6613315547299621  0.8264930754659225  0.9139089141314783
  0.3192806388952862  0.5702590934025308  0.5196247756349729
  0.4823932383631724  0.3326443387860826  0.0752927260138209
  0.5833639503669172  0.6595664560760499  0.5019536841704911
  0.4325585066378054  0.1865654183280421  0.5117015122713428
  0.4021041578729075  0.2604036513043739  0.2463108713368821
  0.0943182903415420  0.3935853285415061  0.5945213935978730
  0.8802525384915272  0.1634066320531331  0.9828759948506999
  0.0114428024791582  0.8331602831572609  0.7672853707372598
  0.2501790382888762  0.1652420564155925  0.1732594964116486
  0.9292000098574030  0.9020189960517299  0.9302800875444809
  0.2684007672562025  0.3335019220021231  0.1538168359946867
  0.3849305865052401  0.4316648208168856  0.0661243202181718
  0.8056041877228122  0.7394486640067267  0.1754738404372073
  0.0741075267661754  0.4264588311415069  0.2507133064843328
  0.9876260524015098  0.4243330500353012  0.1574637708088076
  0.5195059327952021  0.7649993792480896  0.1503157087461190
  0.8321851111455174  0.0144042992970975  0.9247099324308604
  0.2428599643172933  0.7512486874749977  0.5863596925536971
  0.7416463249569740  0.9133444382252809  0.7465465660998457
  0.2565408229584679  0.4246694189547752  0.5794133379395038
  0.3059356733301598  0.1024867795057492  0.3246053271659063
  0.6572834468073185  0.9134230537508008  0.0052919352758756
  0.0546753439683775  0.6874568135881439  0.9897752542290290
  0.1603684598765408  0.2474247945106459  0.6655830865792921
  0.5234532775271578  0.1782399754140775  0.4021954889951133
  0.9966074183690996  0.3346838896270858  0.0637899532191045
  0.5754655306896956  0.3309114547641906  0.9885464994050366
  0.2428894944568051  0.3351633282120397  0.6719111284165269
  0.5792190529264379  0.5754039295772972  0.7456929952123019
  0.0760422863269477  0.6838754214631532  0.1576533875812002
  0.6665563673686388  0.1670387857876528  0.7468047923510216
  0.4958204537888389  0.0003712513794273  0.5863442037450084
  0.9107924902763823  0.8495628559852716  0.3335932239933587
  0.0832351208501166  0.3326513113172600  0.1589600795979048
  0.8428737054994825  0.9098430085344349  0.1914285170870980
  0.6506858161865978  0.8098614414580816  0.1051622075822084
  0.8293019094837870  0.9200110759894383  0.8367299820709616
  0.9129261779308310  0.6900477893172496  0.9952431934497552
  0.9768413126946870  0.1378279672986255  0.2451014358665479
  0.3307742241602799  0.4780262639389147  0.2185612950175091
  0.1670844034185854  0.4258109526541214  0.3452930052948771
  0.5075192705066791  0.6698933740303298  0.2451939513722436
  0.8815698565565205  0.0217729351911344  0.3493862141598734
  0.1931610984453516  0.7758474361439850  0.2365486557896622
  0.3098111152742070  0.7529607786835911  0.7711038198527179
  0.4110014129923729  0.0009356426778964  0.7509271755669114
  0.2379373957776706  0.4980163363110217  0.9177053387178574
  0.4744441439699551  0.9136993855090259  0.0754571286912715
  0.5672995062382437  0.0000558264956340  0.0819144719295522
  0.8182657883190407  0.5789591196288990  0.9118852791334793
  0.3406109422895194  0.7627191457367224  0.9027270599176407
  0.6552425343650957  0.9152568987624532  0.9160473072793104
  0.8320091013948814  0.0094359904351797  0.8361885173270982
  0.9869790068733015  0.2420420453220946  0.2402586370726396
  0.6098202203121378  0.0102741245913212  0.2829446337798002
  0.8269489276478416  0.0059130802828458  0.1892162482952136
  0.0940327260573044  0.6782615317496290  0.4128652896156582
  0.9931057808063919  0.5795093400336627  0.5797178197046009
  0.0646458818990512  0.5174005592404755  0.2588961184765532
  0.2274755157677910  0.3287792209150132  0.4413302187858684
  0.1566462665155483  0.4983135486495277  0.9941558403820921
  0.4196693725768907  0.0023079396270359  0.4175451490912804
  0.9857404382896945  0.4198525421861432  0.2463847638579205
  0.3362621225363681  0.6676573135047338  0.9935399876922096
  0.9902285770843628  0.5800580851784006  0.7556897675622050
  0.1507497926262625  0.5129136896110014  0.3395745836111582
  0.3272024513547487  0.0091191709800004  0.3285159632635164
  0.4843424747526936  0.1787091754645662  0.9855252417531931
  0.4095561917254566  0.8336104908789820  0.7475037197864236
  0.1828296967955155  0.7532042629278967  0.7708875587942839
  0.6690969480544651  0.2444090438341944  0.2435319525335800
  0.5097182664451136  0.0858431452003694  0.4205148661278942
  0.9130053097060427  0.7563390753157775  0.3265241768500577
  0.0722743257257863  0.2503074476259259  0.6757666383317216
  0.9171096648569655  0.6650780779141519  0.4055217193268316
  0.9920060310909644  0.7451982065781296  0.7597172641998209
  0.2521846669714676  0.5658374709726542  0.0217632933118335
  0.5016397320997584  0.1579017210182318  0.1575837882529026
  0.6625344563787412  0.1661698476861531  0.8366926294502844
  0.5762525675678590  0.9984066795187636  0.7485947216785005
  0.7503510605114559  0.6686750529173799  0.4174896763801640
  0.8150950787816975  0.8281721204915014  0.8349330457384408
  0.9160670622699288  0.9980752610178879  0.5927018513869814
  0.8316253406064671  0.9145018652435136  0.7479568286737780
  0.8312237124039603  0.9984797514952473  0.6680610928372682
  0.9432122070649416  0.0812520226785656  0.3207425746897551
  0.8507194072696093  0.0942279334811882  0.4027242793547247
  0.9910631394779174  0.4942574965754514  0.6687727744203482
  0.9215885381544729  0.0858600615288699  0.0053189466356398
  0.3316427716249502  0.7486705859316529  0.5930072508046365
  0.0744472018565500  0.4941833998315598  0.9101262420342479
  0.9828930703480865  0.6375227217981552  0.9960585277662070
  0.3308091143679665  0.9262131760029521  0.5869972061465759
  0.4100924575840027  0.7499874547113637  0.3338114529971519
  0.9793340471376426  0.7379457005029396  0.9453888981732504
  0.0807896487677774  0.7736041692730306  0.9875187074413114
  0.9654411760336012  0.5899056374307607  0.2507760815510398
  0.1639162795467304  0.4286246952708463  0.2516560331271918
  0.1481384064575438  0.6779699833793996  0.9924402735933170
  0.9994665264086440  0.3351278276467656  0.8379634359727048
  0.9896702137127086  0.8429682430935428  0.9821293032452399
  0.2544262346303679  0.9183677664222136  0.1554033528657796
  0.3410012901892532  0.3014638334486170  0.3234602361948821
  0.2478932917215203  0.7553106460892850  0.9832340511106633
  0.6844027501216062  0.0867205616211450  0.4821231187600098
  0.5800566616260023  0.6657113622162978  0.7484183744637826
  0.3257055085841292  0.5661967611740391  0.4227059720125445
  0.2448781810603830  0.7499028159741244  0.4979982032627047
  0.7905412925149581  0.1102855342917657  0.4957632000048601
  0.3301411996560413  0.2478481392441763  0.7521768961011817
  0.4162994589297519  0.4083215111601476  0.8266315761372561
  0.5822649116556946  0.0961916002552859  0.3404106926694350
  0.4059817782618129  0.7497972902293594  0.5096915140506673
  0.4102741777807616  0.6570343639879057  0.4222530097575151
  0.4176691956380586  0.4965260975813539  0.9118502561939327
  0.5677898897474365  0.9162052431457016  0.0047499737105497
  0.4206143148508121  0.8426283674999061  0.9264421890453062
  0.3302179892840987  0.4817311477585703  0.0005254869610346
  0.4129615841091386  0.3325747572341819  0.9071210768018932
  0.3266036201290891  0.4981079746995731  0.8255937201503976
  0.4136985286922350  0.2472603372798797  0.8328043041687440
  0.6617826537077171  0.1696189574777472  0.5365922529720251
  0.5071294065814540  0.5820440083586329  0.2502570383479326
  0.3339026190539273  0.3293966047958790  0.6757176648777616
  0.7281004959762944  0.1758936745570988  0.4215351791257629
  0.3308611039849084  0.0974994681739502  0.4170755559254938
  0.6555882442427845  0.2621549919542272  0.3920631697157727
  0.1624779449690122  0.2474764553663260  0.5772674442439184
  0.0758950566140705  0.4191704620563364  0.3397771223829597
  0.0032663398528038  0.2455385606794443  0.0640198322183499
  0.1530784989622315  0.3371439741657230  0.6561378285115932
  0.9215446828502676  0.0684316997626488  0.1894952294439123
  0.9897159607008229  0.1530306842937934  0.1557353868921839
  0.5841719711823965  0.2572369571835840  0.4985479081630869
  0.2554031078697193  0.3293563984202987  0.2518431708645277
  0.2504823094550112  0.2464895650840207  0.6681914369482254
  0.1710178770236795  0.3433794407146089  0.1625662792464605
  0.2501254595397119  0.4220987811456349  0.4915503529364158
  0.5746749560817414  0.9898954589254536  0.4103382656511316
  0.4076524567920334  0.0849342733748671  0.3259645259855929
  0.3323734312849645  0.0786592002270183  0.5882303467354246
  0.2384461965686561  0.4003538888497815  0.9810662658829585
  0.0776704726368802  0.2431423020046285  0.1586173457618937
  0.0773539878372094  0.3340672918262567  0.2526773433934023
  0.1675404721634922  0.2486200305469767  0.7530379582790774
  0.9916960480993804  0.8229723853435935  0.1597850064346999
  0.3016325966178989  0.2482768564382107  0.4171462934034072
  0.2534183898691743  0.8353321346982154  0.0734329196538811
  0.0010897070219062  0.9185136248097239  0.0740571069766864
  0.1629060535980319  0.1582647316520079  0.6648835067805172
  0.3310458041117368  0.5799868281917525  0.9194379766163515
  0.1651548749010071  0.3341533055119596  0.3393002190998140
  0.3263841120698062  0.0802147814034944  0.9093588667671535
  0.2328557419659235  0.9334473446752090  0.3327329575236359
  0.2433093183025100  0.7510497881993222  0.6765126579777690
  0.0038861617034768  0.9218766410507826  0.7577109892137628
  0.0988188899547013  0.8302585008539738  0.7346999143131140
  0.9922187948084341  0.6692670011420475  0.6727873560286428
  0.1762113342460263  0.7057844419334494  0.3316233682344515
  0.1665292289812724  0.4151327388136992  0.0652662478619424
  0.8892475565805312  0.1640861637711672  0.2533621247430815
  0.2450988828392169  0.1667720646514715  0.0781404564787298
  0.3276830734943391  0.0841332944500453  0.0741413601472849
  0.2409161926014625  0.0079443553468855  0.4239612146386297
  0.1551119469524790  0.7521218024229982  0.5931689076830617
  0.2443849700639812  0.6602180623428390  0.5943443597970860
  0.2245760568281713  0.0544237743956223  0.3303582468202992
  0.5001254758874873  0.6624877144934656  0.6717732635654914
  0.0821583702729092  0.9234098163334168  0.6674444938735742
  0.2324904377502846  0.6592639525742797  0.4202414885542390
  0.0697545284414041  0.6711100240245794  0.9005051500212387
  0.3369764608954474  0.8394780603383341  0.1528439275574684
  0.2447287007321012  0.1473762297402069  0.2603141972702598
  0.9004526731235660  0.8495979247467896  0.2377942620419371
  0.5882152090200778  0.6687847450729053  0.4123652132046190
  0.7440114905725695  0.9116631332849648  0.6590584652188154
  0.5105627344918269  0.2417547360708731  0.8941741600290393
  0.3287109735075825  0.8402719555222257  0.6759400916798586
  0.5169727500906234  0.1699007859219562  0.4995572347141917
  0.4195198326542482  0.6670091742476276  0.2473671361833414
  0.4249216187300391  0.7614204919344373  0.1523768943743630
  0.4978355706019625  0.6625785888502335  0.8199258124932797
  0.4127819153441741  0.5724719266662488  0.5125066536365744
  0.1605618104543782  0.5740573457782003  0.5900385427681559
  0.0890325833132934  0.3226470696729370  0.4412456954423169
  0.5679821508783457  0.8206560662206274  0.0834003428607455
  0.4269632543768589  0.1785935496581062  0.4207377592088449
  0.9020393315541846  0.7718449664524129  0.0286747725823857
  0.4215871922566631  0.8331018958126406  0.5919753902335555
  0.5078410432725990  0.6713492607043731  0.1550515339659856
  0.6103634833829545  0.1642571789195027  0.4309315104588470
  0.4082074590320083  0.5191889922229217  0.0713061911863960
  0.5748761255687932  0.5111704465394927  0.0753881103785004
  0.3958770410937381  0.3392337001938440  0.0784555718902513
  0.6593759238603227  0.5787462275777447  0.9093128271724753
  0.4969596341425110  0.3307601885074584  0.6738761611307166
  0.7493236411369344  0.5014910223951841  0.2467803645613400
  0.4942918795547158  0.4257754820962963  0.5817791220246105
  0.5767997304237669  0.1653017079092552  0.7484927628325722
  0.4952317288767118  0.4117277871890836  0.9064355373426193
  0.4806140519408852  0.4244592313239251  0.0826014164081750
  0.5803466207956886  0.7485556148802709  0.5071746622876843
  0.7388811841292976  0.4186636516790249  0.8303791320525395
  0.5082751289028858  0.8539245367584964  0.1687520339100268
  0.0777611228246372  0.9203441294165136  0.5088627325920959
  0.4947932162952772  0.8343515318438622  0.6739432089004247
  0.1623272178202369  0.8461831166286118  0.8271548830856980
  0.2484819340058948  0.4225161232270381  0.6711976421301962
  0.9190617090719370  0.2470851085159733  0.8392834544468982
  0.2506991971461884  0.8318991529965027  0.4206194092736846
  0.0825922987638608  0.3302324147304158  0.7484876733660881
  0.0911438174096880  0.2223950790452183  0.4980863699172676
  0.0714894565772641  0.1608021120137832  0.2454467673022906
  0.3301150429610499  0.9204137876456572  0.4142253515179398
  0.4858065443465643  0.3137348842466788  0.9853514995718685
  0.3892711319464811  0.2458759508496277  0.0130671070596805
  0.4112354264326882  0.5726880864276885  0.3328121336596923
  0.0664185145082701  0.6653620578650219  0.5867404705241894
  0.0597625258556727  0.5991341038444857  0.1731868036700864
  0.1682844152347964  0.0014991396395276  0.9954293822460881
  0.2439727093118137  0.8390388611485921  0.9086080264528125
  0.5754228660150891  0.8237058151472729  0.4210331927376686
  0.5038213424623212  0.7595645783868303  0.2427265398004884
  0.7397433304732260  0.0064285434374153  0.5811339377644030
  0.6469796225506518  0.9081909889255488  0.4246169386938944
  0.6802153853559202  0.0220426835186308  0.3855596512586188
  0.5708923991632678  0.2407748864639828  0.3367444893808683
  0.6620128262519092  0.4164380190163581  0.9087473439632205
  0.4140384524992676  0.4803103524672707  0.4314256394405294
  0.7508334052968575  0.0891252831171716  0.1705887946483113
  0.6554102576977550  0.0871502049984180  0.0839791083790612
  0.7457162518303575  0.0055231139833757  0.0932215310053007
  0.6462915020942234  0.8247733686852107  0.0011378136366798
  0.5046331341071500  0.9100729593052679  0.4203202830247978
  0.7384254944304872  0.8315955521781716  0.4233208709893036
  0.6641907150277316  0.7502880670607566  0.4183850423799369
  0.3198805388806161  0.6599937250503382  0.5088522693177657
  0.7980242367962735  0.9953793883678185  0.3737226976247806
  0.1669651534429731  0.6728560663387892  0.1557444075089132
  0.3321583356596046  0.2482972985680417  0.9121192160586891
  0.9153660848650024  0.8320480786065640  0.7538313384473643
  0.7405377140053444  0.9160348622887243  0.8348547502242435
  0.9886042837682675  0.8246729146124588  0.8605835161404958
  0.8217886605763718  0.9122671771946282  0.5698805241534195
  0.9178896050372678  0.9179285584701586  0.8377469911722221
  0.0723898632261000  0.8394544369596547  0.4311781204787997
  0.9849452682600980  0.6519097857468141  0.8326614239811941
  0.8328733533895595  0.9427713255179255  0.0993957907795864
  0.9049850783174640  0.6619938473481453  0.7570975690509951
  0.8317229238726200  0.9239308749352176  0.9256150004070804
  0.6708878309027643  0.6625767083370664  0.5029331669289187
  0.0865050748669677  0.7040736566461874  0.2434596083086571
  0.8019918428731372  0.8351773941058409  0.1596897816294560
  0.6654034097614592  0.5920663572305613  0.2453333139504622
  0.9332799666120564  0.2412126540340265  0.9791343997467995
  0.7407402569106309  0.5809873808998454  0.6674542354730554
  0.6640935290002445  0.4172930257025217  0.5846428396844697
  0.7453772755966906  0.4205944554808009  0.5023599435682478
  0.8287194030123823  0.7685656277344168  0.2561952478183950
  0.8210996314063320  0.3435648582924570  0.8270087152561901
  0.6637004429597475  0.3310415884158102  0.4978422963686584
  0.4812393576998725  0.3370187428655478  0.1662311912415933
  0.7589839529391491  0.6788284887686251  0.2440571639849074
  0.5705575904851388  0.3358599996334107  0.0759696006273269
  0.4901139444594412  0.0006960336010730  0.9921881437845461
  0.8341157505533882  0.0891521141213236  0.5891799955994277
  0.8935813013508251  0.7554824481119780  0.1445065991757567
  0.0621212709154354  0.0204782538023727  0.4378185008284228
  0.9085906085480864  0.1839565492482427  0.0727572616802727
  0.9134809432644821  0.6603883988594310  0.0859108606250349
  0.8945980897034859  0.9335197539963731  0.3754447631870482
  0.0749644432632055  0.5842480922344878  0.9914981624338773
  0.9040116454978379  0.5816194064787056  0.6661360307160354
  0.8073325848109159  0.7458127481718825  0.0789427042518910
  0.7319130760837502  0.9180145085092759  0.3401618336933848
  0.9189324010457840  0.6713267681145676  0.5808286047591786
  0.2461124529590043  0.0041248987547809  0.7469981607177020
  0.8253670453554688  0.3367940355452632  0.6771583519194990
  0.7587297728985731  0.7482401282823539  0.5020529042229821
  0.6540105940480629  0.9110825658941801  0.0945462424196301
  0.8856663849575042  0.8216900931994727  0.9311038552825834
  0.4106873589353588  0.1662994646565191  0.7520927845611333
  0.7439390102466180  0.0900891287485036  0.6690006978810314
  0.6639333971348034  0.8289493573600805  0.8261918354920987
  0.4956909902683034  0.6611225959319527  0.5075029870599064
  0.7490019280549058  0.9304248482714649  0.1893967248070595
  0.6597230688867828  0.7389349087237778  0.9079094341665271
  0.9057783143108867  0.4970430258038535  0.7568267193121444
  0.7542747819276588  0.8285901138059545  0.9269325110579515
  0.9069528336268801  0.7379957327203900  0.8387134583254614
  0.7537938514678587  0.2446774111498313  0.5045519176995925
  0.8259156226506167  0.4106912228502754  0.4196318495134020
  0.0021924360086064  0.6821169430703986  0.3153440205947429
  0.0785464305225326  0.4215651657581205  0.1619519160149042
  0.8244507391402587  0.6689496117736117  0.0016652560504560
  0.9059187147027378  0.4940018799346785  0.5808420013690330
  0.7386621711753769  0.2627554128303279  0.1612007412099368
  0.9058643749604618  0.3279089458460686  0.0659946755495735
  0.9912237252640216  0.4226507920417705  0.0683499668357650
  0.9940558441499825  0.3320515111877052  0.1569533490363722
  0.8782009606007481  0.3288816097024990  0.9178538458904060
  0.8243226413894258  0.2270941049455390  0.9395244266270965
  0.3296951787127254  0.0815992201128034  0.7502769912903819
  0.3220231774948734  0.8487981573573303  0.8271903449172044
  0.3227264485876210  0.8458423900618377  0.9853333583462885
  0.4143361527833168  0.6638570397853980  0.7468686239921805
  0.3313598165542999  0.6576882581925061  0.8230513705309450
  0.4146720229649667  0.7425897658587440  0.8209033166579329
  0.1535005078096300  0.7670345386409134  0.4287210540925641
  0.3302605458298844  0.9218016449521969  0.0750277442425794
  0.3315127021164083  0.0030837621156658  0.6687116011040073
  0.4143288406480217  0.9175876558844283  0.5070667326762158
  0.4929585233347102  0.9985749912860280  0.6742580673637690
  0.4148564967396524  0.8451269091127289  0.2460192826759140
  0.4109277913152077  0.0011004476120032  0.5866554442956847
  0.4095975686515012  0.0037312090927032  0.9109567356759605
  0.4070779773749744  0.1609273495496064  0.9085275823993730
  0.3430429424071321  0.8339149914011141  0.3418332714017356
  0.3268494057525446  0.4969086812378268  0.6735502905195200
  0.4144027118769507  0.4951303855976395  0.7393269730261146
  0.3295401660652154  0.5782528694249394  0.7478125409640988
  0.2449972794591516  0.4984964471126401  0.7534121798077971
  0.4113928990826336  0.4997956641143587  0.6044116021911863
  0.3251199673344781  0.3343490298905641  0.9921884114200805
  0.2999393035710902  0.4115492660898942  0.0819456231679473
  0.4882271794005993  0.2458673873447938  0.0790542546655311
  0.4177378322407101  0.4097461743907922  0.9859561879164509
  0.3183988131254368  0.2335356490647533  0.2358024059689229
  0.3381684766329986  0.4056474587431463  0.2636573438355878
  0.4303526967663015  0.3434655541415311  0.2638851356830049
  0.3878548278053490  0.4303148542213528  0.1579142823607341
  0.3512573673068553  0.3282328478771121  0.1838966698661685
  0.3285700085846676  0.3856077176210941  0.4156538416344301
  0.4129429415839962  0.2702353754231884  0.4923026566908948
  0.4418119024499920  0.4299873526188165  0.3371064408364683
  0.5089222904914444  0.5021005292739592  0.4985900458920794
  0.3393873669435208  0.4095985233570462  0.5948647150793586
  0.3285853010995312  0.0015463301063362  0.8287485852987742
  0.7458859505811437  0.4974721313143200  0.4205712777825892
  0.3321996189281579  0.7482019552393561  0.4216521520480191
  0.3266615374402768  0.6651713981886080  0.6774875917592109
  0.5092582083990533  0.4216452903814430  0.4208468798717518
  0.4136915223892128  0.6646319607482267  0.5994285082825799
  0.5863363553526473  0.5760568838589626  0.5034972922268857
  0.7441123816243312  0.4983299469224948  0.5840100468726563
  0.2430788951716234  0.5820605822441491  0.6750022171822572
  0.5022998467930551  0.4935304568249654  0.8271125737546968
  0.7417744655206526  0.3327994566289467  0.9113747619521682
  0.7434235466357952  0.3366159058448572  0.7504641991269831
  0.1584633875087043  0.6699078595532263  0.6857966795047602
  0.6597791418162828  0.4975434356953696  0.8293398532726837
  0.6589944281656367  0.5775724710582529  0.0708890587448258
  0.7447264741911594  0.4166501702604498  0.6679174802076625
  0.7390226667283371  0.5004912515497257  0.0745040899978874
  0.4160760877525226  0.8239491619242909  0.4251211810859238
  0.2488727634898915  0.9268376287661496  0.6655882037246424
  0.4171529038644622  0.1666195783090431  0.5940426876899668