B  Cr Ni
 1.0000000000000000
    38.8074927883120822    0.0000000000000000    0.0000000000000000
     0.0000000000000000   38.8074927883120822    0.0000000000000000
     0.0000000000000000    0.0000000000000000   38.8074927883120822
 B   Cr  Ni 
 213 1596 3725
Direct
  0.6995734368302843  0.6731048350016411  0.0085321514281799
  0.7427726275723737  0.5247476172186616  0.9948210208293349
  0.0029683675627159  0.6817831381128361  0.4995827374405075
  0.0263964929115349  0.6985407724533016  0.0139075871360767
  0.6418727494362697  0.1745781216484500  0.5079690314888086
  0.1110159047693347  0.9940171409473455  0.3232006044271678
  0.3273242343167685  0.4241150731713836  0.2859573935806241
  0.3009391815738710  0.7576669487186392  0.8721843755967107
  0.1200283106739075  0.8179806875816927  0.0659213205486755
  0.7355409436265966  0.8921049629806680  0.4771031381953153
  0.3198008425437850  0.7081670671594005  0.0325802635176641
  0.3538409959986183  0.7095342860879362  0.5686351975729362
  0.3314734205242619  0.1569099805453598  0.0049645570150355
  0.0788788615950204  0.1838831573863701  0.5927361001618648
  0.9501202985913322  0.2671895279102814  0.4095407513945713
  0.8772654078903186  0.7034275280812626  0.1548266707537331
  0.6312964998324541  0.8426020599300585  0.5255425575498323
  0.9052966941067312  0.5935411955093380  0.4931563257385492
  0.2033956828542134  0.6457388454681660  0.4241253702194787
  0.5164006652885363  0.3862168943756011  0.4978613762818099
  0.5380680845125516  0.0718429035156356  0.5538053403244854
  0.4785627860619559  0.7677700395281641  0.0283298726368741
  0.6429400403727557  0.0515093249801644  0.5301074813871081
  0.3547485375512944  0.4447057662236956  0.2576290019272529
  0.5794019588655138  0.0510881623865400  0.4251336117293513
  0.9936778727009565  0.1870786819296333  0.6268742684108338
  0.0722616883293599  0.0289502323170886  0.5873801697190709
  0.4875601300745155  0.9466107146242787  0.4975475798959118
  0.1705720291378960  0.6228063192048230  0.4462808967533051
  0.6277677397115823  0.4949115982211721  0.9429491140573625
  0.3217873184860819  0.0952673877999795  0.0437108698677166
  0.4595638453614976  0.9496635788890584  0.0695937100277230
  0.9785038807459091  0.4018562550696602  0.3167735815593730
  0.3724532496630439  0.6277854299345610  0.1616161253747433
  0.8511108925818105  0.8615596897016062  0.0452560501236655
  0.1155052228934104  0.1235097556455971  0.3340701495360384
  0.6674921096482331  0.5375566233595205  0.5104273046598881
  0.7882391122805176  0.8946732623214372  0.3827460760649229
  0.6196645580380514  0.9005810091817043  0.5809791970178206
  0.7984974557973743  0.0019905290103129  0.0479866336105179
  0.8803227449717024  0.8960370011225355  0.0512850305345106
  0.7025755761829309  0.3144592955543787  0.4831605556615093
  0.8452374453730498  0.0034035390334091  0.5618881157689066
  0.9090373490574364  0.4213245162500613  0.4022449271229162
  0.3258604212189104  0.1298048011047897  0.0739039880938099
  0.5010325591796164  0.6545277573064580  0.4769791618112352
  0.0340859550661588  0.0952194490046864  0.4709637409334962
  0.0311130563241005  0.3848723005303766  0.4011411672560947
  0.5939959007212716  0.9467717204626197  0.6744676808759408
  1.0086854999055310  0.8178755386557555  0.4766595719626150
  0.5790613177204804  0.7068890708480257  0.0941897058055398
  0.6264348434118606  0.6070875228416942  0.0344196284207302
  0.1126505960580365  0.1657933749715773  0.7286472347382305
  0.0127645271038021  0.5585766875130016  0.9102849348224705
  0.3319931878766995  0.9780168173129574  0.7860111139543504
  0.6303312988974511  0.9227219703759738  0.6672310963992441
  0.9109061063338748  0.8205423274718150  0.3308338909691240
  0.7102382120939456  0.4009556949573572  0.5138016849899476
 -0.0002968757408087  0.2021592222374597  0.8524512306495606
  0.6406309550084096  0.1811572246117067  0.0680198736831872
  0.0529317714141952  0.9848880780201724  0.4466362564481294
  0.2339778754587273  0.5256974337902074  0.1032366916528748
  0.0204618946570724  0.3037248887532136  0.4280358689320106
  0.9112478916497964  0.5862846737204168  0.4012820433131712
  0.0020697933688934  0.6363721618295827  0.4209092942828281
  0.3725916883456461  0.5216134658545040  0.0655373633141183
  0.0132989433418952  0.6370550865048786  0.4950657884492370
  0.5790102160063993  0.3202124204912098  0.6501222741997964
  0.1200448403558056  0.1986194161328987  0.5922873333869587
  0.2072216836773987  0.2988795461707586  0.4630952747382173
  0.9901271137736628  0.0513636397595887  0.5822228628500039
  0.9871592580389050  0.7758943063590803  0.0522955672607080
  0.9599280020801301  0.2853422011313781  0.9693892597379736
  0.0390313654073945  0.6047418808549236  0.7729615346212284
  0.5547782382203703  0.7685329358465712  0.5273928482571213
  0.6306530042440560  0.2521120107718918  0.6103186080560367
  0.9323736357381998  0.5538246099140981  0.8771140772792653
  0.3341132407060082  0.6285905398965064  0.0403402129586298
  0.5244507633390058  0.1988431801930652  0.4819138573303897
  0.1028619708508951  0.9867805497228940  0.1958343869493528
  0.0232376987424413  0.6379488282850031  0.6495781474342769
  0.8014197457679034  0.0621199478965380  0.5914206807793801
  0.6244084954696234  0.8110561414595373  0.0153593296269007
  0.5364836893983752  0.9891301061621477  0.6900619987199716
  0.1803716435692427  0.0642407371260970  0.0622377598947445
  0.8413366828492754  0.1268574900971914  0.3056306287726338
  0.2364465811274507  0.7312200692506169  0.5084276057519536
  0.2634115292055225  0.6528531092238582  0.5365263651280964
  0.1939640456792898  0.6541336602020226  0.5180365908016779
  0.9864919105200175  0.0648199932585152  0.5378437894367015
  0.4687030834796913  0.7130922537695188  0.5583201138001666
  0.0114178705836447  0.4285282273329450  0.5012243723736087
  0.7655872494385449  0.3921108702635413  0.5201735535889264
  0.0022422689975449  0.4819433164037140  0.6972841464767341
  0.8819325009163086  0.7977667727861550  0.3549027867684560
  0.8767126224623276  0.9320632214795685  0.5983999621598953
  0.0026597670367003  0.6385710910819864  0.5735732229279250
  0.7160569266744512  0.8001079616715252  0.1185963710722173
  0.2474009394445569  0.6727415059569962  0.0686030695050428
  0.8020714157076638  0.9201193464785490  0.0233503807836631
  0.8310697204456791  0.0239717160111272  0.7798254183743378
  0.5212391633477782  0.9448164892143375  0.5314109046678273
  0.7166400821317189  0.4894631971146192  0.9772607349554895
  0.4937901888673834  0.6898092490214610  0.0441374286340761
  0.8713973472953982  0.9765982939949580  0.6680587310219158
  0.0817471186661661  0.1749595026324722  0.4925738089827799
  0.3146685590404594  0.7050351552057086  0.8153305185073018
  0.3130973156220120  0.9349902317289814  0.4635562716888706
  0.1080557411333018  0.9138994206274631  0.1568061301945975
  0.5741460616388029  0.3525337472365642  0.0177271334757819
  0.1064584776932567  0.1659880536872853  0.6229785080963660
  0.9379840782568140  0.4439758025865340  0.4745618575940155
  0.5607854473995112  0.3120966678318217  0.0081484935248985
  0.1167934834541091  0.8496304837512725  0.5225767773692988
  0.3982377481487319  0.7096655694267217  0.0629902309028251
  0.6447092610510328  0.0275674755112703  0.3829423206283742
  0.3233704137162696  0.0461820321587378  0.1413025671222413
  0.9692771111240918  0.2777408825843615  0.5011311540143308
  0.2954760372587373  0.6410905264876391  0.1998569861970880
  0.7813666562475398  0.7967401254397237  0.5239467298002678
  0.8192314070032579  0.4715790764162662  0.1972623439783202
  0.2419970933977480  0.4227682030029019  0.0898265260346037
  0.5830967743452965  0.1751679383391044  0.9762223771039662
  0.9666180140298090  0.0420107393521028  0.4570099779692777
  0.9564502667979495  0.4407948925874266  0.3217017439898470
  0.4774064393804227  0.1083868516818937  0.4203678710445384
  0.5641512743743289  0.7336545153918356  0.0618102592191814
  0.5987668898209130  0.5693780491008806  0.9360214064841330
  0.0339388831142573  0.1767352961313586  0.8408876839871194
  0.9894798457872194  0.3680246793731456  0.3894817790256057
  0.1485374174349404  0.1418123059452932  0.7186405184541819
  0.4546490644201054  0.3946228272021868  0.5376180715143176
  0.6727429431008203  0.8960163983858761  0.1339157656823066
  1.0026424964048986  0.5629223825994033  0.0145684843500524
  0.6072403506735691  0.9901571128115392  0.5038867568524655
  0.2436443687626774  0.6421565575615386  0.9047931576075096
  0.8795271474289266  0.7107544984863797  0.5434644180985075
  0.2078216087295747  0.9273751780119065  0.1990415962404075
  0.7325196223800343  0.8404987267370641  0.1149559115373841
  0.9252026620252506  0.9699990653243575  0.9886913769410672
  0.0992701634839579  0.6420792180065219  0.3953887131752527
  0.3719426194828731  0.6817240161057977  0.2195561792646311
  0.1005340541786329  0.7910715987015916  0.4683404795710989
  0.2851194049594074  0.5498690760783341  0.0391935721512547
  0.2121943031881674  0.8857210402170135  0.0269283193606311
  0.3251070787842932  0.0126859266068621  0.5142113293044785
  0.2902348931463246  0.1325460647030851  0.4351208553670322
  0.6530263902656445  0.8286911213194925  0.0901616537990123
  0.2301979257656437  0.7532793516246592  0.6241711561781282
  0.3621003181422204  0.8183893393995907  0.1649311907939921
  0.5757862126889129  0.3330635029657864  0.5425895703347838
  0.5766348380923475  0.6859799605896492  0.4830275512637997
  0.4283179382619111  0.3347600694004285  0.4276519192169818
  0.1839482768892629  0.3747079405876828  0.0741076285175220
  0.2636307173746445  0.6265811808301773  0.0084836759128919
  0.8976919590848751  0.6648254573216456  0.1470571980701326
  0.7143477144513543  0.0549422021568115  0.4224841878218601
  0.5186480622906879  0.4531496495639604  0.5582150675222108
  0.9896744148548184  0.5726902262102247  0.3748611816221175
  0.8212708738116270  0.9993449136255188  0.4753211920893465
  0.8795871638764756  0.4398988114867129 -0.0093287353766137
  0.7257612577650936  0.8905686608263449  0.5675342795052158
  0.8492804457538570  0.3264963749596086  0.4142466739247883
  0.5731512113666624  0.9730628518733745  0.3909312498289761
  0.3722028711411788  0.2494827808606428  0.4468137895484701
  0.9041504659143390  0.6447133449141381  0.9813803321846144
  0.6337585748037948  0.2169847890100051  0.9993926793031717
  0.7264890798375859  0.0148065101523084  0.4371008015354133
  0.0081260658868873  0.1501947128758774  0.5381354789563447
  0.8754668088264729  0.2835686180993378  0.9422087167477887
  0.2994604947253384  0.0828886230981359  0.1509741738975308
  0.5358327118624078  0.3033149341314773  0.9367504888430157
  0.1150700241258227  0.1564873657682108  0.5165618712809525
  0.5220212468531158  0.7492983259035295  0.5005357424677417
  0.0601940701812077  0.5802382161935903  0.4829681699537215
  0.6458132128978415  0.2798948607997359  0.5776444957933550
  0.8104032443177938  0.9030239787523544  0.4217137459474125
  0.3117386861006676  0.4916529356672512  0.1452488409415042
  0.5980395265865392  0.5152273804844871  0.4526538332928132
  0.7720806549836813  0.9059345385812959  0.0546177812372130
  0.5870706181446883  0.3690831611305858  0.4690858595154112
  0.6914300631246296  0.3213778800378188  0.0488093630778635
  0.0118952042044083  0.7780759466739989  0.9688228306950823
  0.9995689386644950  0.5064362787002418  0.5007528045223424
  0.6391473460311614  0.9775048667124170  0.3232364126046712
  0.1298203275634293  0.6647959002399736  0.0225491640152920
  0.8987045425552643  0.9260447126168748  0.4655746315867732
  0.8982806441106435  0.1173812145560062  0.0518316670362737
  0.2398999377079262  0.5073831754398981  0.4378769803853425
  0.3022501485286227  0.7016884641985248  0.4388483688760028
  0.4860624547880926  0.3218801651445114  0.5595192553480899
  0.6263015459725083  0.9860518131052221  0.4649984864686564
  0.8683484937640717  0.0933127541421774  0.9612698436920468
  0.9828080545992482  0.5929730957865393  0.5593065792556889
  0.1422551230249763  0.0265155777757844  0.4673459441784105
  0.6722263064757205  0.4780861278740580  0.4671518542994033
  0.1751452795757887  0.7084445609620295  0.5646190715814480
  0.1689035499568403  0.7280863841227783  0.0315628841687609
  0.3809710861011125  0.0190864787950442  0.4418443355596655
  0.1199205656473811  0.5432693405758275  0.4437358045279239
  0.9900771903023208  0.4052877441310882  0.4167813385916946
  0.4574932118628010  0.9796163289202626  0.5012512182535003
  0.7401966008781117  0.6025405422802111  0.5539640473867048
  0.4399111313221085  0.4449437296069770  0.5225026468924607
  0.7515160281297598  0.4907971830701732  0.5174672432738374
  0.9921264643412526  0.5793438508134535  0.8262960421945404
  0.8230594983245846  0.8589166177891810  0.9721015598837345
  0.8449440476298817  0.4990489864376967  0.5467040415075457
  0.8695838739992326  0.4046668371388691  0.5250303417655996
  0.0246888467095590  0.1294274993034837  0.5744919987795867
  0.0558394561041698  0.1200229254420472  0.4404360514473267
  0.6708370853625455  0.3059557272613817  0.9812270370676798
  0.0591962497009977  0.9028714056185565  0.0250040204213381
  0.0139152725571360  0.6301565820952409  0.8144911468739028
  0.7309108920742198  0.8194531360131817  0.9619958097176851
  0.2472428782108947  0.5790070321170960  0.7031630228880481
  0.0934124477603971  0.6934301511538992  0.6841366149450606
  0.0691683239460341  0.7188786320409143  0.5574570208126413
  0.0580540895158760  0.7615443401304188  0.6057388829483790
  0.9289389788253815  0.4952875438091596  0.1091678985991610
  0.3960124938839107  0.6564536084581880  0.8002093060945582
  0.1295848367256122  0.0248600362963080  0.5924755159981377
  0.1223551636083111  0.9189640422567773  0.4467284379622022
  0.4480271846636719  0.8917017498236103  0.0717400876000164
  0.5340510537654413  0.7668987048982761  0.0046729694386887
  0.5795318966511134  0.7883949984186986  0.2931198413017960
  0.1675736587391662  0.6910506770293797  0.9356469694213773
  0.4355519110279826  0.8774523446451591  0.0123168070823812
  0.1391314156830888  0.7300793442678671  0.7525216627713479
  0.8383815410367996  0.7407125188546727  0.4543656248532711
  0.2529074226892009  0.5466457996183162  0.5998753397132593
  0.3320696174375919  0.6636890485400552  0.7755412659567502
  0.9963702108108407  0.4997972817247146  0.6412337195183112
  0.8823309022255046  0.5717279254886521  0.1235676368460284
  0.4634457249125669  0.8897842626456854  0.6808707922902187
  0.5378979923608546  0.9125516249708401  0.3627678705220382
  0.4948930192087788  0.0226900971963638  0.2637033408130043
  0.9083981609503505  0.2971467682557180  0.2254855159189534
  0.0909691857064917  0.1349855560117363  0.8227919221609054
  0.0937461924637556  0.9456730560186549  0.5381585791103941
  0.8643410686934119  0.3749546286826310  0.2444698568450275
  0.8019194589973482  0.2818001884984552  0.2524238952836919
  0.3670854118369474  0.7102699773212408  0.7890486546472035
  0.1393360521509132  0.1445832367790687  0.7770088193028456
  0.9589881418360703  0.2813645334941062  0.1910686366376234
  0.5934742810771334  0.0255004321774201  0.0231659090044799
  0.5563352320389812  0.9621658855492009  0.8151638040378891
  0.7304240558248007  0.7155528497782289  0.3109239392234078
  0.4154346125978030  0.9339957132429891  0.9912296278890215
  0.4784445190844883  0.8343032451264429  0.3069254971328046
  0.8665889488572860  0.9724039536000991  0.4562602848438198
  0.9917412248068693  0.0651853412002859  0.6909001355724733
  0.0358557356686148 -0.0003576390110036  0.7357647660279468
  0.0062657763864773  0.2037035191503264  0.1704439420021037
  0.8354367946915641  0.7368240186239530  0.0594910127307252
  0.1620751060285511  0.1978187152683810  0.7284735992913376
  0.1178097678113319  0.2026058515438375  0.7682347823090453
  0.2046314270768810  0.2862613481104282  0.8386914709397340
  0.5045585944137746  0.8057341491732840  0.8226166876275209
  0.2786586713246402  0.8414594833504443  0.9570588198403956
  0.2087097740254484  0.1552562079566367  0.9724146338822488
  0.1006032229767384  0.1230019945862947  0.8848714258209988
  0.7953124488622672  0.8242524170584330  0.2456521276561866
  0.3634837250388265  0.7756145995464345  0.0009636831229782
  0.2673184243062271  0.8021772068446292  0.6301823726169522
  0.1682468548252653  0.8404906052091551  0.9754958272413542
  0.1429224846550144  0.5501577037167308  0.6139371358090080
  0.3379706843981962  0.7827293017485171  0.7115258840443224
  0.4153981042144485  0.7050628864135833  0.5817184315721194
  0.0799510583486076  0.5845248894917261  0.6962497568734312
  0.9904662508927002  0.5290073297364470  0.7324023824441819
  0.7685704514189923  0.4823518869754707  0.2306619776645911
  0.1265557762282675  0.6226774726608758  0.7622980375634776
  0.4899384291815820  0.8494887805194509  0.8658731036654476
  0.6090051480331362  0.0057962938317161  0.4160157841530034
  0.8398541961475287  0.7491516263188646  0.2295665687177100
  0.8898712934153038  0.7435008678932489  0.3599305870400400
  0.3889834902996485  0.8656055044887582  0.0524566165690397
  0.3181484159146176  0.5574207089270542  0.7843112119689697
  0.2925924807499329  0.9306014385019440  0.7814218493576928
  0.1839702655273752  0.4633955014635112  0.7544893595828959
  0.7733035194303713  0.6229416686440832  0.3568143671848381
  0.9885135138321786  0.6533643049586030  0.3088881775051302
  0.4955072528360698  0.7180573708528687  0.9961430972319266
  0.9653458716816790  0.8620722294512332  0.4652033693980682
  0.8988268085358385  0.8464742590756176  0.3819195334163661
  0.0627328781379147  0.5090684905253940  0.8169523848915202
  0.9105218117647066  0.8869836329635989  0.4324109102714964
  0.9598404790382863  0.8836851079278784  0.3996213871854754
  0.0602280020458351  0.0734292134809787  0.8813219099105453
  0.1731269354264776  0.4468110251113522  0.5898599933107462
  0.4429866421623413  0.8120682566082991  0.7992278109915789
  0.5781998577980940  0.6383686236809366  0.0403240326901495
  0.8524812349909776  0.8370579123221680  0.3207296432533394
  0.4938225142296642  0.8189627159838092  0.7618805375910161
  0.4095997700941426  0.9302833345211098  0.0480470747787917
  0.9742293868870479  0.4269507782736159  0.0320704186230800
  0.2950697806318705  0.0257957089337355  0.8012156912763366
  0.3457603516422735  0.9537147860693203  0.9083822350957440
  0.3548565161103941  0.9314081876668384  0.0266599566366545
  0.8034483059353476  0.9499412934049183  0.4503866984589757
  0.4106990353718199  0.0475320437916571  0.9539365423083523
  0.7962358334513847  0.8386781725909738  0.1851309117113458
  0.7323744130070614  0.7663537781374116  0.5220122045581570
  0.2600088579268073  0.8651859745354366  0.8375371562720183
  0.1167213531902332  0.2301706687388520  0.8712118401725032
  0.1116752135447236  0.5453271425628716  0.8800738355573906
  0.8918537536094233  0.8760990197666441  0.4985022004942045
  0.1418680739589967  0.0412800285218685  0.0291666587083297
  0.7003950000197749  0.9075597329443368  0.5243615893511967
  0.8183671250277113  0.8260296477427929  0.6557545111476210
  0.7810490348797677  0.6845283227365321  0.3389516944888282
  0.1449249402954306  0.5256118091252262  0.5093328579489580
  0.4897347617558502  0.9828729957682232  0.7297874968482118
  0.2696394114874550  0.8529132673228117  0.8977380060181279
  0.3282579473039297  0.3075715066127628  0.9872651781509683
  0.8644909718784691  0.4387010017645793  0.2220465318855625
  0.9879916171022435  0.8108322072112414  0.6301430147541174
  0.1238219389177489  0.6463351507550760  0.4713456740226867
  0.4430289565805252  0.6611957625749258  0.7621853364188209
  0.2540149618545339  0.7456665313189612  0.9051036219003100
  0.8003979168235997  0.0319520650225742  0.9252585252435371
  0.5406365418971786  0.8555627357699297  0.8276836566488087
  0.9688240531791604  0.5122896689566747  0.4084517803705985
  0.3071212850272175  0.6041523315018772  0.8276705869753821
  0.9975284623537478  0.7442400770600560  0.1677905693840419
  0.8466389565441614  0.8107465708615899  0.2107437943431894
  0.2093761816788502  0.7114548216135311  0.1364101266473631
  0.8139404492338598  0.2123150280251281  0.5562984911599568
  0.1041110550222836  0.7444454520054210  0.2040466574295798
  0.1637655712012271  0.8971525503872870  0.1783394054964966
  0.1555538354152274  0.9128121140362756  0.1221571424658130
  0.1390569413070788  0.9560777120914680  0.1709443780440298
  0.1716846334935758  0.6603692841523454  0.8288989175852972
  0.9987861250182285  0.7116694939170629  0.0631249945950758
  0.5841006855150064  0.8501514241732676  0.2775837924122016
  0.4309922691117987  0.9444532529255115  0.2086816745261922
  0.7354944267694167  0.7783005561882137  0.2944626035977364
  0.2272242652407588  0.2298772764497442  0.8545651364770190
  0.1938365472601472  0.6364456821152871  0.9468770732460925
  0.1062306367941457  0.7985165796825830  0.6765898818653968
  0.2158846098384311  0.7496931211931335  0.5631238555589332
  0.9990814433517308  0.1266937392030440  0.2467107171188956
  0.6328292887777559  0.7923688389873274  0.1955319619763889
  0.9331604536470400  0.5715099083749913  0.0282413113588022
  0.2038327386834792  0.7334185929603636  0.4595876378610525
  0.1814963127549131  0.5249288181212028  0.9621662006874691
  0.4090541017988352  0.6607585022672506  0.0331786952415650
  0.5407118416112567  0.9528460550213286  0.5844270398036850
  0.8720553102240556  0.5325499535828568  0.3093222463256475
  0.1942016068679739  0.8530367914372275  0.6490925453993178
  0.4648433067569755  0.0033927334460887  0.0983563651267961
  0.2511917055164207  0.8075259730293081  0.0637245389182426
  0.0684908176027972  0.0625515276207110  0.9414992785158116
  0.8863464268567375  0.6500560117179479  0.0355695130987827
  0.8494535009705686  0.8825801439803548  0.3658064740466409
  0.1559109583322844  0.2489464320829630  0.7720867998304320
  0.5067688077562313  0.9080312586690131  0.5789823410003992
  0.6003638067960388  0.0035847242880820  0.3515394632387109
  0.8508968968103510  0.8636547208663287  0.4256057814148783
  0.9843968492844489  0.2297237158796660  0.6663554968528169
  0.4822552791383280  0.2327539812677470  0.1027273599020649
  0.2873360854298450  0.2232866379844186  0.8764417208677910
  0.2759987506685116  0.2671963762036879  0.9202176127538889
  0.8651033519267780  0.4223933780883817  0.2856550749895899
  0.9169483864684879  0.4049196832997743  0.2520259499522297
  0.8957295573312335  0.7690500484820707  0.3054008837454283
  0.9211774947448101  0.3941098555328225  0.3118240203825642
  0.9623218964446242  0.3511688824548332  0.3456967822336802
  0.9574775003174278  0.2647328228723289  0.2499447765557357
  0.9527851585641013  0.7940778788144737  0.3048457752097395
  0.6424341229425530  0.9787287234457553  0.6731847078086269
  0.1218154780192023  0.9047812355048481  0.6705148467831107
  0.1116926220868666  0.5149412359801830  0.7765784026552796
  0.7759536045173445  0.5914665612064727  0.2535784885675499
  0.1106098762667069  0.0809964819165060  0.8417163284817064
  0.0805109360136997  0.0164446775732135  0.8981160105963171
  0.0351984810461224  0.0393810280044236  0.5486835182450626
  0.0454502420367482  0.7666971263969580  0.5391240633496620
  0.0154570802901094  0.8764822353730293  0.5790909989493724
  0.6775176461957210  0.7442950036915315  0.5058282485372575
  0.9766580406481624  0.9001519109015822  0.9536665183858274
  0.6492593643249934  0.0169882927850546  0.0425355129293955
  0.0026355573074604  0.8144775029917938  0.8586450044093439
  0.7167863640172369  0.0103992156359247  0.0727450758715776
  0.1431594129197460  0.5871694525196937  0.0480198356843376
  0.8745172328773486  0.5187983880398992  0.5950781023565582
  0.8861900675374117  0.2190536443327480  0.7452221288051871
  0.5322943516477491  0.2036595626620724  0.1247540211509481
  0.8854168988022780  0.1878048981050276  0.6386956246459496
  0.5783298467740290  0.1272948101145281  0.1067082928250364
  0.8207474287772691  0.0772366650086942  0.6923918839484240
  0.9417313092127126  0.0594342959072875  0.7307033994238379
  0.9080600149874861  0.1623521916243131  0.7617186614248763
  0.0498356562648439  0.2328494454371777  0.8493730886652620
  0.9275467348656918  0.3895799734562839  0.6803983880239689
  0.9579331309392596  0.4245957790826907  0.5240474250241580
  0.5681781494249805  0.8147819213358251  0.0103358620068042
  0.1633638236039623  0.9204302881349323  0.5723889428977953
  0.1530861911258065  0.4690053428976304  0.0216639928224548
  0.7961690921723840  0.0042090475047596  0.5239786159909160
  0.1894241935663639  0.4296375437693355  0.1016410276609687
  0.2912155078514307  0.4007816185899261  0.0218454738137630
  0.0965171594829899  0.2188503299729280  0.6417434315914151
  0.6872473284884826  0.1574120699226990  0.4768551266577151
  0.7451403699621313  0.2033831921725028  0.4261944845673878
  0.8547614156862521  0.0945509575275525  0.5869239266953304
  0.7546229590787856  0.9449726174390666  0.4867137853046510
  0.1899295198200694  0.4936948092415255  0.0850187817663906
  0.2129656605984275  0.4559634242217401  0.0456304519322436
  0.1949926831562481  0.5558619989025417  0.5759654728372544
  0.6425542682357736  0.2833332424796191  0.0885008054224464
  0.6527619964360111  0.4872092192257602  0.5196066963027520
  0.0086978391620841  0.2016084095333484  0.7931916047098826
  0.9953464762245536  0.1108379313589260  0.9656713915791167
  0.7662825118874805  0.2049274273944207  0.5965208368705015
  0.3699347399356481  0.1116547549968122  0.0978040121380863
  0.9045649687945566  0.0433067150516060  0.8309096376191837
  0.4174394928006259  0.1608407088364556  0.0446515868825025
  0.3996554982730405  0.0915657236450491  0.9990361109308691
  0.5115216316933896  0.0884680143894988  0.9799650217437035
  0.0059215538093390  0.8190149420633759  0.0841486333235556
  0.8229049480204067  0.9768625763190469  0.7003751689288052
  0.1557152419129221  0.8076670085340649  0.6359305043480508
  0.0278594946887427  0.1789387412759894  0.8989888993495410
  0.9194204981820078  0.1487981011143300  0.8226430479804497
  0.3795668010045369  0.2787519479278034  0.1099589324277747
  0.4713136380355081  0.1282021892662203  0.0709640804824506
  0.5779229910345233  0.0749911264793981  0.0648527732375233
  0.9267989481855157  0.4205336211421572  0.7888239173655301
  0.4893367027276962  0.3614873059027942  0.4546987781403270
  0.7962137281059601  0.4809366446736526  0.7923390861125936
  0.7341043831937798  0.4579335900699219  0.6661819713132255
  0.9122848051709712  0.2824976921382260  0.6887486321633315
  0.8428805051501241  0.3048358039219082  0.6053928863226924
  0.7844265219389529  0.4643590442508237  0.6280349230370715
  0.5856817459416500  0.3782182962283375  0.5747389456361832
  0.9870288935426212  0.7124650154815813  0.9009429110674595
  0.9509631482676417  0.6627412455311630  0.8966080262681164
  0.4619261769666271  0.6500161500870658  0.3513662725724512
  0.5017079043244708  0.6078160445580125  0.4454558428783148
  0.8598583239218233  0.6206078858410048  0.4695565893621598
  0.4997431502075355  0.5510038258659820  0.4626251407161124
  0.8520163530467375  0.6085645229578804  0.6818929330478944
  0.8124217524148236  0.5573857946215903  0.6780989470810445
  0.6030329029001348  0.4493353192684525  0.4074726804137633
  0.5852518784735498  0.2188918628019721  0.1973248894917959
  0.8455884935686685  0.2681783711962079  0.4971112167121892
  0.9421013509445105  0.3159754545045876  0.5271028212733048
  0.9304686058876773  0.3594442524134011  0.5724925003619483
  0.5272243795555944  0.1615054751179720  0.0819158796597917
  0.7390782736656981  0.1053380256458453  0.5509430536331587
  0.0080188624187011  0.3537753687316924  0.8215018559188675
  0.0137657613973591  0.4736822222570427  0.7539220803031293
  0.9492430602447629  0.3304264616804166  0.6938031100122938
  0.9786071400598545  0.3940105097772869  0.6431667296995066
  0.8566250756874974  0.4424388131682495  0.7070978701005984
  0.5726948608303460  0.0670516875200180  0.1221958862943121
  0.7944395280679111  0.1067276063052911  0.5593583338584420
  0.6733307017544855  0.4344907212314328  0.5442717185080729
  0.9820902196808793  0.1689184579323952  0.9468909787331433
  0.9777253178902062  0.7277597397483996  0.8411193306248547
  0.4522969342255597  0.4132175837025759  0.1421738725878988
  0.7446049854947336  0.2492706030656594  0.4692083502683107
  0.9759925238320921  0.4236653710495384  0.7508119460347541
  0.0453283895347306  0.6678083214012764  0.1546274050021804
  0.9021039808001386  0.2948569995689078  0.6285596781639001
  0.1457109667768760  0.6311534134649586  0.0910551270831824
  0.8142759549914131  0.2409566775070854  0.6645009693489774
  0.9589635658034503  0.3498606347739032  0.8580815946195766
  0.7898335254380233  0.0774664227972761  0.9662816557413848
  0.7428506304672383  0.0403433061201588  0.9005700474270995
  0.6837225221186547  0.0150151341048564  0.7732467751846539
  0.9233119406889613  0.2139720791625323  0.9806233608319062
  0.8752445638819928  0.1766816487018688  0.9703874493849755
  0.6296707397908983  0.0634414914648214  0.0838802415999702
  0.8193161309190807  0.1399484069103645  0.9048122525382816
  0.0705345591989336  0.9738640461945591  0.2932677636746175
  0.8196288603436217  0.1082867362170763  0.7988982665446890
  0.1107939016087162  0.8499644381672892  0.2317022171826545
  0.6720767790499121  0.0272577928237916  0.7100014140196976
  0.7219872412095222  0.0354200467753037  0.6699636711798288
  0.6684398724492835  0.9401744178704851  0.6287528077290045
  0.9126896042268839  0.7657407005491051  0.9237300356670435
  0.8963083305420935  0.7931113119652772  0.8018601751393556
  0.9592739501440668  0.2328277094338329  0.9400324963672707
  0.8471241316951539  0.2012027191382313  0.8463841671683423