Cr Ni
 1.0000000000000000
    38.5644321123108682    0.0000000000000000    0.0000000000000000
     0.0000000000000000   38.5644321123108682    0.0000000000000000
     0.0000000000000000    0.0000000000000000   38.5644321123108682
 Cr  Ni 
 219 488
Direct
  0.4431172122835862  0.6748389693287485  0.5405097684441056
  0.3595666853305698  0.2383075031285644  0.5093305866928709
  0.5166709065670180  0.7454670130252409  0.6087749611588971
  0.3925529657008127  0.4621592151371546  0.5101011748491051
  0.8458381469631940  0.2192277103162759  0.4893684810541974
  0.7045073602777125  0.9398472724910764  0.6406585895463680
  0.7258708836526162  0.1986414835637682  0.6313628253921038
  0.7757720233827946  0.8026883951396123  0.5668872163682229
  0.4533502912862006  0.0531801828748147  0.4663679591741430
  0.0250171940572561  0.5811147543884982  0.5296791379668753
  0.9215603538189407  0.4094214529726079  0.5467815359201246
  0.2310016746229361  0.1842963591090271  0.5643583109197673
  0.6639994053535541  0.0446696983520627  0.6481594398929005
  0.5323928696096457  1.0020448681851457  0.6246628980364086
  0.9763820717943698  0.0142242594951986  0.5517034274799824
  0.7536559344320336  0.9255963838920930  0.6030672944488619
  0.1048289556043802  0.7933272866333214  0.5019605789775345
  0.1861907611629984  0.8715593519771404  0.5959703778900795
  0.8404484214199063  0.2023260186575265  0.5499852373021934
  0.4516246583816809  0.5510237230597628  0.5675060399123897
  0.7334508349743417  0.2072145118552401  0.5121938813488738
  0.3715140757246989  0.9658488834191975  0.5742919926680510
  0.9820932550572371  0.3684558410310621  0.5231744930206255
  0.4034645434624269  0.0872723744848132  0.4355737304118642
  1.0074799360059778  0.2890759423331663  0.4909779200093327
  0.8682658165693637  0.4115258978559230  0.5865585417487954
  0.0241541337569998  0.9293742077586880  0.5299616769045927
  0.3998311323782175  0.2902541645505450  0.5088886959591455
  0.9650887241580745  0.2510476826589384  0.5377130126578284
  0.3103909195253580  0.9735831865772095  0.5572656633276166
  0.3974901637176816  0.5776313600754615  0.5414853307427704
  0.5920084205606766  0.8897744017362417  0.5612138304413150
  0.8119309250191266  0.5665407766810250  0.5184756100389258
  0.3287687139459196  0.6551338664568787  0.5551534814730900
  0.8662158389959286  0.4879056339682637  0.5002583189235446
  0.0760236924899350  0.0266704948178386  0.5770139400208737
  0.9784450457297341  0.6085682389503104  0.5080112243348480
  0.1945670022341102  0.5073389393020746  0.5473315162427905
  0.4468106366404132  0.1774609375391319  0.5474680605373671
  0.9513747274808927  0.1360022856458881  0.6084152331731014
  0.6546622303550641  0.4617448560241030  0.4897403363723897
  0.5456249445264130  0.2205450428308091  0.5646889711982804
  0.4603465151595422  0.1676643608177810  0.4925357633932274
  0.5674553961863453  0.1630904439003338  0.5869329978647788
  0.5037015399598080  0.0701586497988728  0.5312610748880063
  0.7192794199227547  0.0385608100505936  0.6707300148738696
  0.9754576378898834  0.5422685198051368  0.5257000112131024
  0.2067835912747509  0.6223150659609630  0.5221209256954841
  0.4908099719249542  0.3710692044421395  0.4645979885970409
  0.9131301502908132  0.8786258548894267  0.5926728806506625
  0.7062502432323686  0.3240707595282071  0.4909169768491826
  0.9967441913008609  0.1322273851465352  0.5724876030792710
  0.5802576619904406  0.2704385171221448  0.5642713303094995
  0.3203156672605681  0.4982979164315333  0.5864375402759723
  0.4960677793635366  0.9590827194653916  0.5057987929101435
  0.1432450422793890  0.1252544913132977  0.5082250664818255
  0.0336184705856090  0.6412933833991323  0.5165462078460936
  0.7536128117642177  0.8721332657234734  0.5670290770623448
  0.1054937786827555  0.1427005885517866  0.5454209865867976
  0.4989977564642614  0.6695461295208509  0.5070328332535970
  0.2299824524290577  0.8600947039169562  0.5002093812119732
  0.0219106861511480  0.8874194016955794  0.4832536599085552
  0.6543862576666527  0.0309901503347376  0.5918601130159636
  0.1227846288347173  0.3123713726350892  0.4670855677171816
  0.6695885888120279  0.7543969241283845  0.5393307758517315
  0.8274801042287157  0.3292350483235362  0.5366880776191534
  0.7187448657989346  0.7435980139165499  0.5052918012748521
  0.0229469143556527  0.5622511174938263  0.5898492507185804
  0.0224319766094189  0.0263175146859196  0.6122236847368836
  0.3864867793067490  0.6484784401400407  0.5777975473567043
  0.3459125889901569  0.1878080318472610  0.4729879207404776
  0.2964045334273525  0.0289453747309965  0.5374622143437892
  0.8438889386113139  0.9220507125039532  0.6722161019653105
  0.2462115680375520  0.1291008530434861  0.5926153668552491
  0.9800654783858085  0.4116874315197546  0.5662218906266658
  0.6131705452167828  0.4336217481189405  0.5359145651654295
  0.1394979041042274  0.2446099072439872  0.5420164951152151
  0.3830918482789227  0.8968257425770093  0.4836046852879577
  0.4460637156098854  0.6123309232097125  0.5524313928854274
  0.7084932119684074  0.0632604606489080  0.6031316495049265
  0.0999965820715389  0.6623627563816422  0.5900669057555422
  0.3066395671287810  0.0861608509720378  0.5157400293991337
  0.8706185738664829  0.2376789247469938  0.6059419131813127
  0.3561640391861903  0.8572401082200874  0.5983462713965632
  0.8158672775541504  0.6258847270568813  0.5011711615167089
  0.7744185762909168  0.3016376020917844  0.5162959621820674
  0.4419813551884595  0.6453115982964772  0.6025207735381666
  0.9298128242477137  0.5143023872881338  0.5679155318071499
  0.3310189588801399  0.8689692380138229  0.4752000720066760
  0.4881061099292276  0.4043424991871277  0.5085560381520534
  0.9207152161769779  0.3046572876764767  0.4609758755553838
  0.6552855138413781  0.9891950477941022  0.6686933096477743
  0.0328424916709538  0.7020460494359045  0.5021488606475255
  0.8530416780525677  0.0234473356818941  0.6913379932319251
  0.7108054832422024  0.9823878509412519  0.6894265615857633
  0.9374060304149889  0.9724428289621767  0.6533982967573594
  0.2498530770452091  0.7266238161276979  0.5099960040378145
  0.3756205769354620  0.7659298070808843  0.5188998697138971
  0.2800307447197966  0.6144191542031121  0.5486897845002826
  0.1392188728943059  0.1875794505365107  0.4948305378108731
  0.7409999254133858  0.2557432817162584  0.5597208333815584
  0.1010067251946670  0.3576718675248380  0.5073064239049997
  0.1852009339563742  0.9962055467021087  0.5053397408187540
  0.8642971378692483  0.5501172936180830  0.4843470966346888
  0.2881221032168890  0.4184003597068828  0.4404921912011404
  0.9833819062109798  0.4756819454649849  0.5459906475216328
  0.1934130571818290  0.4023369170240326  0.5275030009099293
  0.8900697633433116  0.3546236924562540  0.6038278737614818
  0.2970037268272734  0.1357517385441097  0.4796532869179428
  0.9836670236730436  0.5133138350512194  0.5904385965626499
  0.2126088052127431  0.9251961768807956  0.5837866290893843
  0.8281702679195334  0.6274753670941952  0.5642211359866497
  0.7626634896278091  0.4648020868017095  0.5260866361043255
  0.0897656809862980  0.1571327709639514  0.4825759755343410
  0.9961310480077173  0.8049008131320059  0.4614567717939039
  0.1812669446607738  0.8808556191542503  0.5380814341137861
  0.8809980431041232  0.7192683269602945  0.5006552144043543
  0.2344464337823567  0.9809949813580922  0.4701942668837691
  0.8727573603324251  0.6791060387420419  0.5685635952630950
  0.1655500851343941  0.6126413904779152  0.5671547057387794
  0.1543691769902211  0.7789977149081826  0.4613404083914455
  0.4898473032281946  0.4921301992227136  0.5861821761310698
  0.5102268084718063  0.3256889329472438  0.5936579159894688
  0.7048982940532871  0.0949538275572525  0.6508627350768056
  0.9263348512112450  0.8398985013575000  0.5454610861431556
  0.9658171109261219  0.5729218842981588  0.5717165663425376
  0.1456948366594881  0.7191894837785706  0.4789905454500963
  0.3193078547861607  0.3951674944601285  0.5649399294900036
  0.0877407825968862  0.4007618100840432  0.5501611130696837
  0.1540654774500790  0.3544338828576414  0.5292818159856069
  0.2264858445970052  0.3237111757713675  0.4428377830715481
  0.4843325385608789  0.8348337906507197  0.5310964044564166
  0.4669407366599893  0.8565289817801877  0.5797116199679309
  0.5930690795796989  0.8241523763880751  0.5771455641836650
  0.6211556982420263  0.1896165581934190  0.5403430944440570
  0.3426530362276540  0.4979817067328342  0.4901012568888627
  0.0258790035309704  0.3625572207580409  0.4841315621083083
  0.5663175809171560  0.7520508821663788  0.5742608392177069
  0.4832505833084564  0.9619312782547254  0.5622531255900588
  0.0876771676545316  0.0979646936447986  0.4946297565571481
  0.8301507761808405  0.3633942848522733  0.5857045635040378
  0.9203478239709799  0.9776186425252597  0.5942573016523109
  0.5571649079244204  0.0509697290132797  0.5039677317410645
  0.5403211166839343  0.2751068886724052  0.5045457768192585
  0.6254573948199433  0.1559774717249739  0.6063270820839610
  0.7710158854119394  0.6359171668907863  0.5418143136757431
  0.6031595036750838  0.2140590090712367  0.5884101437347043
  0.8039214993875717  0.1317617479495966  0.6762104775452205
  0.2491309157874927  0.0963986048467959  0.4223031957983937
  0.2287789028300856  0.2563777455711922  0.4647976047876100
  0.2458612242469758  0.6095536904095806  0.4824425060079985
  0.1263745725192793  0.3731008829469012  0.4551193122350669
  0.6713456410536000  0.9317691252889023  0.6863171687999570
  0.1339362691355443  1.0044404846182904  0.5420391810245559
  0.6824556808962186  0.1482494375412421  0.6292415362820262
  0.7040465067479387  0.2547788577338012  0.6067098547780061
  0.7323728918727482  0.2666658343398315  0.4973895080471489
  0.6042510847612963  0.6583240917885870  0.5398327773604094
  0.3479262022305050  0.0549587315185151  0.4271903773694544
  0.3370216929338039  0.3788250645645306  0.4645364666484824
  0.6195420221488812  0.3199093007715306  0.5718165521046841
  0.8581675943256069  0.8803243748683376  0.6260301984176244
  0.4117798936275303  0.0137361641550076  0.5806298440734036
  0.8144079718972581  0.0128622562736267  0.6031421185791382
  0.3031555214516230  0.2421339148383609  0.4836603940994846
  0.6022197627595436  0.3783971174310094  0.5570814181428906
  0.6533833656493782  0.4005978515654394  0.5084896816685185
  0.0214920548923474  0.9169627293835096  0.6014512597204903
  0.1070684869307526  0.3466565867003042  0.5694439704843983
  0.1366384956866291  0.5223198924762861  0.5242544215746903
  0.9950060755382676  0.7807416382088562  0.5254676168325841
  0.6643833162327142  0.0959847236219759  0.5784045767593274
  0.7575604543858253  0.5235007437916098  0.5632427206667835
  0.5195594975407460  0.2805354498427470  0.5545451463255071
  0.9587727022249223  0.2599853093283238  0.4790347187312682
  0.4329443354585402  0.2783143835708384  0.4651096450492903
  0.7023662099723296  0.9582310878096454  0.5762680988300140
  0.9767857693171782  0.8708540514973595  0.6200314207992891
  0.5745015321606570  0.8898401450395573  0.6670604762565032
  0.5935651468722022  0.9941651330286361  0.6451971556140372
  0.6056232732202909  0.7254801165328688  0.5281220916650775
  0.3521583388401279  0.0228677864001206  0.5592373318093712
  0.6116690323227758  0.5958008899935628  0.5568742805796052
  0.0756127998306247  0.9178428780511486  0.5626726361065184
  0.2264720408683367  0.2084339621490175  0.4175099432629237
  0.9383901808563084  0.3576117364960037  0.5654665423922618
  0.7105509248084457  0.6253327838421360  0.5245853286915846
  0.1464674086655194  0.4006754541641862  0.5679183770376776
  0.2996698672573292  0.5539356391085116  0.5716665132643601
  0.6697760580150934  0.4323676576481118  0.5573188982136899
  0.6540716033013508  0.4900930740471993  0.5387880285920755
  0.1910007417195059  0.9821896390859727  0.5699461110236401
  0.9322580677970812  0.1006377286281289  0.5587080579304807
  0.5548040668467306  0.5775878782336521  0.5399783777465892
  0.9979452944101612  0.6209975219454529  0.5688544267449945
  0.2503773584115287  0.2452354612676187  0.5231538976774884
  0.6596021693718198  0.3746120459570431  0.5744951776495062
  0.8314210207237970  0.8067766291441701  0.5331212313698046
  0.3616337287141018  0.8080148919953437  0.5548378835874584
  0.5926895967697964  0.8664891209146999  0.6191854105679020
  0.8345841671295319  0.1257691719220444  0.6300453215239044
  0.2036663276299689  0.7498665977205232  0.4837176400664174
  0.3179053116667150  0.8086101030966995  0.5931888070817128
  0.8741469019875626  0.3691497516969337  0.5422539514428921
  0.9976613237054911  0.1832127509735713  0.6151744116295161
  0.0453617422311112  0.3587231401643525  0.5445962619961501
  0.6589208230350750  0.5267142724910983  0.4817425044436898
  0.3712647772736192  0.7017441515401485  0.5492129156058491
  0.9438088626223304  0.7990802150625520  0.5009661272798939
  0.2425872140819686  0.1445514955345920  0.4563262964093215
  0.6443703351528570  0.0987722818418570  0.6302948163838049
  0.2376588372357512  0.8752069056962517  0.5566255401472787
  0.3329429886092976  0.3424739683454422  0.4187461329993931
  0.0291128518751040  0.5183452334470564  0.5472494199346816
  0.1310140139649663  0.4810672386347416  0.4810116825719294
  0.1351437754020252  0.5609900077476118  0.5677289665381078
  0.4896370244281552  0.3838476781893140  0.5718080846205856
  0.3707739742009036  0.3989852700469206  0.5257641454102036
  0.4944742841289413  0.6513996710555116  0.5646494477724580
  0.4467984688680971  0.9105876723106491  0.5577871322220169
  0.3354466914727250  0.9327186615546230  0.4593789860868734
  0.2842978072046407  0.8907204662614445  0.5091833642089602
  0.5073874667916005  0.1712537881339474  0.5653117983368343
  0.2800594781277583  0.3573144943841301  0.4507479444527013
  0.2667856709797934  0.1525516664551955  0.4004217584415557
  0.9855976053242846  0.8281629176238490  0.5726583580433143
  0.7695968078230201  0.0945781995868504  0.6146991027279689
  0.7869462716952851  0.3079614290338017  0.5767626089298011
  0.1179538346419582  0.9193813988923923  0.6157748654424732
  0.8221792037841154  0.6921356050066482  0.4862952111384464
  0.0254225491794607  0.5348659214300449  0.4853479749593804
  0.7937839430796461  0.4119981746730111  0.5840641063249995
  0.3645960268498288  0.0798343641705391  0.5389854366945942
  0.8895289078722041  0.6197961616655295  0.5875303237883178
  0.1372508222610391  0.0642409521889217  0.5194557571554581
  0.1125615632147406  0.7733792491532289  0.5731194624169108
  0.8413365672115269  0.7433562436283450  0.5405413477996809
  0.4848182995675044  0.2287159750097661  0.5500116548082419
  0.7638294259665491  0.7017436092054949  0.5263877020008831
  0.4094514878368359  0.7030697940857142  0.4987649033378800
  0.6115735162217776  0.6355916178469125  0.6055316096108893
  0.4029019586117151  0.5935960656865054  0.6000850436900741
  0.5327211743815855  0.5360221290354360  0.5941181162955211
  0.8639608548049684  0.8815197903600304  0.5479862560900087
  0.9722627586339425  0.4972318416561340  0.4842260784355391
  0.7770831491460042  0.2103608258244016  0.5868985926487942
  0.8157386999891275  0.0618028888337741  0.6420073676996549
  0.5852324601623086  0.1065066866647833  0.6050262300016244
  0.7620400990890043  0.5967356946286995  0.4906555903900135
  0.7968911468681303  0.7333907781552369  0.5831977589228550
  0.4783356181571043  0.2434620954056837  0.4910203721245238
  0.1537083926025855  0.9703894771522744  0.6167579887003304
  0.0455670569912997  0.9707282737877674  0.6327709032458901
  0.7811205323650900  0.7642766068757630  0.5188141612129866
  0.7959371589240756  0.8858370953349642  0.6240617134186350
  0.1868610456001197  0.5643550057119923  0.5285558160814020
  0.0759735943172262  0.8728977845171479  0.6072186929449886
  0.7576917030534709  0.9787361753219722  0.6471143302755230
  0.5064657508639206  0.4423547077862386  0.5536386747651006
  0.5295196077067348  0.7498272747451733  0.5216826394132758
  0.9721006283017553  0.3346492395827922  0.4678898277663476
  0.6603306496322516  0.5842860143689516  0.5213305198345164
  0.8659163901123906  0.9816845656311013  0.6272810076658349
  0.4911916650566028  0.8965169871468427  0.5184040521238866
  0.0747211474737716  0.9280366629552300  0.4911855862404647
  0.4695101962190865  0.7292277399277296  0.5031636924171715
  0.9879287458435055  0.0755087152182533  0.6397718393180984
  0.4216437022362792  0.5367250618557292  0.6176568476520031
  0.1857670583445269  0.1368699803666265  0.5746250321919776
  0.1891501943872877  0.2215928078568411  0.5077608381384061
  0.5499726728956230  0.5210946968726325  0.4975723945927947
  0.2476366905358299  0.6723134828937591  0.4647319103383463
  0.7759310503897237  0.4698591256151667  0.5852555983662633
  0.3246473731642620  0.1784548802118241  0.4074063142092986
  0.4407380139063386  0.9273621210954035  0.4944135597920306
  0.8349960661473265  0.4592472927230517  0.6075070255070019
  0.3509079266584342  0.6763941653382098  0.4956398760592906
  0.1886508370524995  0.5788441076152041  0.4688063089345405
  0.3989426148496396  0.0188850591747369  0.5176373277811100
  0.5429006848983827  0.3873176592737334  0.5334817749172981
  0.8799671881004021  0.1064477305879501  0.5942987777504128
  0.2163033469275928  0.3481711980986791  0.5466588933883069
  0.9578428538924246  0.7307921760949529  0.5236211223662151
  0.0807358355335939  0.9734215936547853  0.5332639027054452
  0.6352729664825523  0.8811873490782945  0.6828532735712418
  0.5345052158384905  0.8036138910890192  0.5588366693858686
  0.3356756344598631  0.9145209787997682  0.5796207775435539
  0.2690717417527068  0.6548521564700257  0.5951779037925209
  0.6460667028304400  0.8609673154845807  0.5815071804840481
  0.0319453183729410  0.9780709706696012  0.5703136816692644
  0.4284957364419360  0.3975649281019686  0.4933187048001317
  0.9266868327450021  0.0775008565749345  0.6184303684298912
  0.4986848358089790  0.4359515240493752  0.4499902019407689
  0.6611010258582517  0.7961703604438162  0.5913115408725707
  0.5030007413489890  0.0201901022741015  0.4916507668404457
  0.2572608777725114  0.4991603069113978  0.5694237268600094
  0.0586317926519337  0.6119836319895610  0.5857362024408902
  0.9896453081312756  0.7401035840737484  0.4719942873537120
  0.7088040073571000  0.5651454364380655  0.4844002000299460
  0.6958755749144510  0.8525897470916354  0.5441526147506538
  0.6871885835563034  0.7356614123021021  0.6042053554010512
  0.1391099465339109  0.9424555466387174  0.5606712193644700
  0.5232631178113303  0.1143722340119128  0.5844618372472410
  0.2338527284369540  0.3720878965301991  0.4903939403726339
  0.2798115956984325  0.2975939877886628  0.4664675890310044
  0.3269334766527218  0.8060199635419619  0.4946150991629832
  0.5738439474322777  0.2216798024172277  0.5110562307661833
  0.4217945168010699  0.7617822005028692  0.4789871097833638
  0.5502028940496575  0.4454075268924647  0.5124355035131271
  0.0384558063978269  0.8238915146400185  0.5159394850445003
  0.4456805733529033  0.5064156085583114  0.5211160457903720
  0.3420933097099286  0.2994642505615137  0.4862740054999711
  0.3656631371385986  0.7315678751013998  0.4680471025597971
  0.7669810024182182  0.6593559674467508  0.4778665270828571
  0.7120040935857689  0.6804163589411191  0.5032446523559035
  0.0817018808402459  0.0351260637255783  0.5129416402860822
  0.9097990699505053  0.1284746285263963  0.6540791732013463
  0.0121993771058180  0.2280465568943228  0.5049103982612150
  0.7079473482980598  0.3755988532405601  0.5351602728085215
  0.8816945724962481  0.4690436781093855  0.5643273778999198
  0.7931778112433902  0.5772940003616230  0.5725802849296977
  0.6119771662882790  0.7892467693447757  0.6311505346272362
  0.6066393071313292  0.5511669138076833  0.5055868470142041
  0.0751734249560743  0.4046614481831141  0.4865780430032147
  0.3902610573927661  0.1852527176495594  0.5222313626528930
  0.4281902422990609  0.0692102858326149  0.5543810473493113
  0.4540137409949594  0.7505334760322419  0.5993460288544753
  0.1927660630416704  0.6395391303663430  0.4564537982312248
  0.3839518713209762  0.3114899461785904  0.4403178802810428
  0.0184444998079149  0.3112991405696648  0.4339042603240454
  0.6476917059526266  0.9700875076762568  0.6112555631308375
  0.9791685301000346  0.0701468807947472  0.5813630256684396
  0.0888196433780033  0.0827531583760198  0.5549329233501742
  0.0876375627820516  0.2420427815655184  0.5802929771167352
  0.4428353934784116  0.3422690561588588  0.5127477824438619
  0.5658572209803272  0.1611206450034511  0.5271269296672134
  0.5484690132267740  0.6356070253525292  0.5227152495138414
  0.1194247505550544  0.2996566997330393  0.5261438565245974
  0.7098434103234125  0.4942055766075863  0.5001435497143671
  0.4034644410173651  0.0760877156416502  0.4945896395107462
  0.4992352099131880  0.4816540713484439  0.4997670166113237
  1.0088335589779285  0.3098191705447118  0.5456910211425644
  0.9398600780904174  0.7678003592545719  0.4461130074554220
  0.4825636435711074  0.5309542374765809  0.6342640102794099
  0.0399342411446253  0.1116277219646220  0.5336052481189764
  0.2376371799342743  0.4873817337262111  0.5100647099907658
  0.7229394664432054  0.6294276982006373  0.5859184103826185
  0.8010604745864126  0.8640095446262549  0.5244383222987880
  0.7093799471064784  0.6874884281102263  0.5652076696362216
  0.3316587582974057  0.7493035817364169  0.5608740216800322
  0.5622657393208709  0.0988797274298903  0.5426508425507603
  0.7085930756326388  0.4344913401737878  0.5142143853811831
  0.7641400896315810  0.2507300264987398  0.6312097746719945
  0.1490036743158748  0.4610478395805473  0.5459292338121349
  0.6078436845978489  0.0640124981712032  0.5656102728547467
  0.1502155120505355  0.6700260714129422  0.5506755086605003
  0.6558205351316596  0.6945823109295988  0.5413029311762433
  0.0777128011009151  0.8696376776044784  0.5133209424652551
  0.5644288669210078  0.4319220221527599  0.5728380129141531
  0.3202731717664655  0.7459558510496327  0.5024998941808940
  0.5316369079553133  0.8522125054920217  0.6012635994101087
  0.6656730764374933  0.2045816002611809  0.6072226938849111
  0.8162723666371012  0.5192138799971422  0.5875203953158610
  0.9298579102960304  0.6704375336025389  0.5894249472465926
  0.1321338360934142  0.7273374277228232  0.5381725016100521
  0.5189756297395780  0.0148037038129777  0.5613161019968150
  0.0394958167509641  0.8233116180080282  0.6017698919143447
  0.2082833080567800  0.0787468860830870  0.5933360305957872
  0.4608925347471475  0.0179867286646877  0.5386335166685128
  0.0271712664521674  0.4726200609820164  0.5035273247267539
  0.2402043207688353  0.1942103218742994  0.4919787236653321
  0.3813686134593845  0.4874151743819599  0.6119228201673225
  0.9167386014417257  0.9233830867956568  0.5487003165480853
  0.3946665129289196  0.4408832846054492  0.5692475939855239
  0.9575670032775248  0.0240981716483742  0.6148150053609951
  0.5611054821561304  0.6914706047981889  0.5001382438509548
  0.2930659431710396  0.5746888681597359  0.5050341989935655
  0.6272352902446774  0.7444489020013215  0.5861806842982787
  0.0843866016711072  0.7347375868788468  0.5069573297221338
  0.9551292312932083  0.1995357439028165  0.5005327366491830
  0.7352399714155368  0.8832755907055473  0.6491558276923163
  0.8986863459151851  0.9262493743343000  0.6398548886098655
  0.4287991884366932  0.3890831256089309  0.5545776287510061
  0.4878826744437416  0.3077947945282835  0.4782506722642139
  0.3448871407929281  0.6100993803105935  0.5136448230209580
  0.0438497779601313  0.7704867745746020  0.4831485651341040
  0.4049927036560970  0.8557322908196989  0.5590244554540227
  0.7578676275612696  0.3590328134472413  0.4991417551729245
  0.8892215064357775  0.7857471704520114  0.5449114891002819
  0.0765758032240435  0.7204774034317210  0.5710128534177134
  0.5522371037479460  0.9876555761909039  0.5193214520678795
  0.1472043072409012  0.8210965441028665  0.5887624301812864
  0.7631646150354205  0.8344731052665199  0.6182931911895375
  0.8923837474231709  0.1857766762200167  0.6356552329604526
  0.9653033286205374  0.7220812920817213  0.5891928681911447
  0.2960746973278293  0.8667561842382906  0.5771658716675677
  0.3274343832725436  0.2811988365855368  0.4301979867002735
  0.5161504878552391  0.1951705729641646  0.5061870432949066
  0.0408008163830922  0.1709221605583625  0.5169524852004362
  0.2313743933961760  0.8002056639129265  0.5151703116943994
  0.1484549938334274  0.0866040516721871  0.5734363997799764
  0.7042850987402214  0.8399349122720806  0.6024888003002736
  0.7241357404094770  0.1875519915240084  0.5719637071864518
  0.8174015516377241  0.6844092695212010  0.5462730346434044
  0.0926937100631542  0.5048270749730877  0.5678906723187266
  0.2085862681047120  0.6613409764268533  0.5721446436549175
  0.4557616499945954  0.1051260884967299  0.5049708693176458
  0.6159500583775569  0.1275974794804841  0.5526623320896360
  0.4375253783310182  0.3423817531359164  0.4524542821722720
  0.9062892410757497  0.7297001611381738  0.5640818713631246
  0.4462996399094047  0.9910979506105263  0.4814384391015891
  0.0259278268204988  0.2482824427370235  0.5603559719247080
  0.0461534420819161  0.4602359613644639  0.5646729927195920
  0.9719649452377168  0.8885215930731692  0.5620225341377529
  0.2390332964164313  0.0310492495096686  0.5132068080854173
  0.8290359696465969  0.7535696601440437  0.4757816507406370
  0.6489011823146594  0.9057043399505857  0.6275402192874231
  0.2925806743520369  0.5133797174644398  0.5232976215976433
  0.5111106353261112  0.1311953983837733  0.5178878612971648
  0.9036890854829840  0.8355029077374250  0.4591799690573862
  0.5971387317676400  0.4880335523612216  0.5164335034483535
  0.6406309328022911  0.8166615282053091  0.5363328530739689
  0.3435535865036122  0.5993202708825608  0.5750927482090541
  0.9504030327913372  0.9250875936380486  0.6060573105307981
  0.7394239917035972  0.5789473862024793  0.5447762916582499
  0.7472143518222063  0.8311839199912738  0.5152888258244293
  0.8664432879479994  0.9349436674301065  0.5858077714046308
  0.6995766973990951  0.8978960248363096  0.5921748322752756
  0.5526616252093610  0.7968583523210973  0.6184613585884625
  0.5080805050179499  0.9068786791405583  0.5795824748865701
  0.0946067370043624  0.9724102751079261  0.5946910469360083
  0.5451289769876964  0.9595138878902070  0.5809520782466756
  0.8647208819655324  0.1252085932725822  0.6975996543838946
  0.4181045601749624  0.2150004670338360  0.4747772988714862
  0.0179712059001211  0.3747615205907386  0.4203405651059785
  0.0153998916826105  0.7271182213689577  0.5535729714221860
  0.4078412391669433  0.1274748503443930  0.5417611285894662
  0.3440527925816440  0.9845508735522175  0.5065829017150421
  0.4281936285544257  0.8022469955479268  0.5805089110279726
  0.4427317490861067  0.4083805809350038  0.4347143684369003
  0.1187008918477914  0.2470425192156086  0.4828559858769258
  0.0397909612231204  0.6703069509984435  0.5697547693253193
  0.7642972746277048  0.6796351774038728  0.5873171454527010
  0.5713511869993215  0.5830638843597475  0.6021197636642672
  0.0285605714540386  0.4147078244824671  0.5260923138478605
  0.2830711395451215  0.7755215231457461  0.5384211052008790
  0.2522411031841064  0.6653785704002193  0.5283199174421669
  0.3724524051761225  0.1438471694098797  0.4286976064237439
  0.1564161784279975  0.1876895360189237  0.5556110814058611
  0.5448565816650764  0.9251058778962438  0.5301992662986644
  0.8856696148942189  0.7811270764191267  0.4838927132825085
  0.0821208259584310  0.5694743312770404  0.4935875231764576
  0.9900035254966896  0.1932400230060231  0.5535109035833821
  0.7139864370453726  0.7957681848636483  0.5540116191722483
  0.5916099217585575  1.0036674945744748  0.5826719560681872
  0.2562374567368903  0.8165976962042951  0.5766489752896814
  0.5991005849108432  0.9540089532367914  0.5433022105614715
  0.8642716954558486  0.5289446586815164  0.5448222242723886
  0.9169136638343888  0.4754330134299207  0.4648540779379989
  0.9373986349810424  0.1977358047626587  0.5912388227411581
  0.6835991541825147  0.5820914512585387  0.5814197951086422
  0.1888771765583528  0.0542418071054054  0.4845904472265909
  0.3796714754167443  0.2055607107981321  0.4147489536046544
  0.5480048294818768  0.0571505420814412  0.5959810031150873
  0.3091536751838634  0.7017207757518803  0.5990077213285863
  0.7217912473299276  0.1256374097982030  0.5904445678439860
  0.4308803653534973  0.4902541118821754  0.5762932671445040
  0.7709372309374299  0.9729801383530379  0.7094526849114976
  0.1906763891011021  0.7187670017966954  0.5507302927202399
  0.0940205727785781  0.2014685706177431  0.5326490572408694
  0.8104777940607576  0.9489600422599237  0.6149201780323164
  0.7840326888390036  0.0275320727299474  0.6847505151996431
  0.0715521567955832  0.3429574274465743  0.4464205902928133
  0.7448727213357796  0.1406930986087931  0.6519148241124735
  0.1912951837460529  0.1137933073540740  0.4692546114900652
  0.3355242543053529  0.9253173244971069  0.5200294967773210
  0.3853025729794622  0.3495285653190982  0.4882528230951357
  0.3875071300150243  0.7544308389311827  0.5817483956053904
  0.3625056529522440  0.5448711323919376  0.5942284298147753
  0.4281769828594676  0.7426834536844942  0.5423469737204429
  0.1860839886008102  0.4571048159227012  0.5020198337482461
  0.2426017499416311  0.0233595238034490  0.5761899334360582
  0.4796271131449861  0.7761224763360181  0.5472200951632239
  0.2438780405921293  0.5610879415748180  0.5504108508115854
  0.4611341821779263  0.5878408425992064  0.6185837288408601
  0.9514437205720366  0.8242655615884310  0.4210564362691689
  0.2328060108968899  0.9208683857048661  0.4880232302026073