Cr Ni
 1.0000000000000000
    38.5728687227392371    0.0000000000000000    0.0000000000000000
     0.0000000000000000   38.5728687227392371    0.0000000000000000
     0.0000000000000000    0.0000000000000000   38.5728687227392371
 Cr  Ni 
 220 505
Direct
  0.4054517343906953  0.6208185026807290  0.5165965942072949
  0.9563383527308854  0.7853558456851930  0.5503286735777457
  0.4524859963508716  0.2860960722327724  0.5352629803837263
  0.2703732007922291  0.5140111991175714  0.5472876002910412
  0.3283843377761629  0.7769267664922483  0.5544443051103046
  0.6595662009243979  0.3791319533822803  0.5838385483669770
  0.4572562617386773  0.5122502656297909  0.4520052452579347
  0.5990725326292947  0.8893309710070568  0.5696030646100301
  0.4411604480195482  0.9023287366069440  0.5645325514122825
  0.0172232050467594  0.4114015103359496  0.5250730581586314
  0.3322497626980258  0.2716857812678388  0.4981452434662759
  0.5615075817883818  0.0334952184771524  0.5635163557880132
  0.5457495630746858  0.9282352020519764  0.5352074573644841
  0.9702567280286511  0.4200712876116681  0.5637084634961170
  0.8079443492911966  0.2075663165640700  0.5593266356254545
  0.2086347350718118  0.4999933002110287  0.5281410569380883
  0.4857628400900581  0.3785692483657299  0.4691376691587573
  0.9335371952978552  0.0729378713039900  0.6714068574166875
  0.7627553628302958  0.9825516220463169  0.6506332559443824
  0.5678183901821683  0.8019030504203868  0.6311686428605651
  0.4670916478462989  0.7149403657142105  0.5655994638850423
  0.5430366647427664  0.3917961871568969  0.5382426917092629
  0.3018342906343356  0.4497097990781264  0.5565733091533974
  0.5339138613452429  0.6762297325899014  0.5390702261493442
  0.8518272472219558  0.8144368954245813  0.6170473345788796
  0.0311260412636683  0.1555803399660018  0.5770873941568149
  0.6810364007002857  0.8566397294208568  0.6517431329958341
  0.4047922334446987  0.5890759938782030  0.4711893785501428
  0.4574804540916000  0.1402378852002500  0.5555370770256397
  0.5626760332251272  0.1567831015168905  0.5327122101150373
  1.0109198618169437  0.8594053316549259  0.6575076728737466
  0.5719129303718472  0.6339650848959992  0.4560741203371195
  0.0770748176458379  0.0258042418383971  0.5761448296236685
  0.7524346602532582  0.1015518539710937  0.6029553270806742
  0.4271766768572353  0.7519667218808324  0.4842255905755402
  0.4806061274290000  1.0014448549976163  0.6676785880307441
  0.2943620028325120  0.0431186755145290  0.5288957737082720
  0.6811134994587129  0.1068838805809177  0.5818876512933193
  0.9832860775449260  0.1132568703302312  0.5688466389647120
  0.3317299534301276  0.9566864657109813  0.5919162630828371
  0.0706989051275039  0.1847766542916282  0.6163452499349651
  0.2035071343004930  0.6187115541210477  0.5176533516256898
  0.1147096647930036  0.2944778708999966  0.5295608756093557
  0.9361221361160255  0.5511953649479184  0.5497550340358169
  0.8077706594496840  0.3949733968272456  0.5167185168175223
  0.3137955478836022  0.2343624331971624  0.5433223100564523
  0.1456573313042254  0.4105254799444990  0.5717896992772499
  0.0889616089064946  0.4112637836365945  0.5489663562886404
  0.1631208249122829  0.3764986448676697  0.5281841202455642
  0.1112684564416967  0.3537861158797057  0.5115237746311297
  0.1068251255334070  0.7233175955857807  0.5088471036009536
  0.4564793113908790  0.0323403283798326  0.5280709404380787
  0.8691743316549874  0.9835755096743306  0.6234937626441039
  0.9902491582506892  0.6645936806115651  0.5806076587363619
  0.9606576360275653  0.6680302332072008  0.5233792506639723
  0.9763090231046289  0.6047070585810136  0.5547093149412666
  0.0489737509379738  0.5116506609389071  0.5914875967003117
  0.0827619487318333  0.2448309389661358  0.5833865163543196
  0.2521139644957137  0.6630656957266806  0.5362458414980009
  1.0094526618467554  0.8842611613261927  0.5356712913853821
  0.4039915097915194  0.4826713316532393  0.4397615136779202
  0.0242078798818077  0.2229528220327026  0.5662226276308782
  0.2252701925779690  0.3940035136534873  0.4307477811629812
  0.1123038162037507  0.3518462287686561  0.5695039646256919
  0.6226680719698733  0.7547527957997807  0.6028103575027377
  0.1277148920382619  0.1237928497697611  0.5273302796382322
  0.1033169161765861  0.9142907541432427  0.6187147625838251
  0.0260426853193470  0.6430276845136429  0.5236615100341051
  0.8256332949590697  0.9795221695133901  0.6711924790724031
  0.2068455870990504  0.1979390460524831  0.5691906150392811
  0.2079860542491955  0.3979387251832654  0.5938028469748520
  0.1040622885139406  0.9263381183256816  0.5553637275211402
  0.1293363240785406  0.2905485002372783  0.5867756958775182
  0.1571451844720853  0.9228678662697268  0.5776435663050770
  0.2428842394619515  0.8667183888580354  0.6181776580868240
  0.8604918077636660  0.6984259209039236  0.5825187813532147
  0.3174854867138575  0.5056874373429370  0.5178451072643779
  0.0961013026131928  0.0780763430832180  0.6166567613716506
  0.6175542877331710  0.1429682178229806  0.4959728891866400
  0.0682984020017965  0.8163629897336487  0.5755306976827993
  0.5670910935195084  0.5774729038977738  0.4737968137915352
  0.6516867992445292  0.4019490311080207  0.5098551057575833
  0.0850808414202135  0.5648871360530131  0.5906682474724237
  0.7033571880974240  0.3843166989606670  0.4697206718173447
  0.2568909643068672  0.1390162994872990  0.4863008740814474
  0.1935359108518220  0.1157856867170015  0.4789636417894025
  0.1226954591756851  0.8658050652923925  0.5768520280813874
  0.2682387708718641  0.8096493541635544  0.6326421653388139
  0.1689850964669260  0.3174062993099583  0.5431135272585431
  0.0883841878644209  0.1362911803142926  0.5797515198056900
  0.0645160915223435  0.2561884635326748  0.5261105357864742
  0.0453792695363053  0.9116571760058109  0.6519346391298740
  0.1160519768843051  0.8127306483684601  0.6084126245632255
  0.0148985333345452  0.7622211013879755  0.6466499438473579
  0.0966809235775781  0.5312060260779680  0.5508802311458006
  0.3829991243634936  0.9608873366289403  0.6441507713062863
  0.1628394268363698  0.7558405974479389  0.5204323968409319
  1.0106862702488784  0.7661270726894384  0.5751748525290920
  0.5113809005210908  0.8998418721864786  0.6463483204279948
  0.3007811458467357  0.5638223540508788  0.4969587568275887
  0.3316476370297491  0.3412438590569991  0.5381132851776678
  0.3138179474681765  0.6952290568052686  0.4588487285591935
  0.5559373494741213  0.3377784600792299  0.5599143395092187
  0.9167195482764782  0.2591048233086993  0.5821485503216866
  0.0114630082700966  0.2806690925011423  0.5511561784648539
  0.2786685054643672  0.4264102727574520  0.4363061765137712
  0.9580381978628807  0.2021173453347743  0.5031208304189397
  0.8193937532293856  0.0770513926300009  0.5772684356213688
  0.2157940627119730  0.7887327476965039  0.5173021888269016
  0.5998809253296168  0.5024821679649503  0.5520740570597837
  0.9760126382618521  0.0545005442827067  0.5823792293261146
  0.6160824828515002  0.4929985201272604  0.4624284138726171
  0.9615363320118733  0.7610473008037844  0.6790601757067882
  0.5056894205592806  0.8151117558208785  0.6070017711944723
  0.8019277712911732  0.6815448376263583  0.5272290356311521
  0.9090219997111149  0.3491457024493894  0.5060120135556719
  0.5808544116350260  0.6761544312963024  0.4998270179926498
  0.6953699110206424  0.6697923621894106  0.5451241009940958
  0.1553799794764293  0.6319854579013543  0.5490747987148643
  0.8608818233044156  0.4212267625515186  0.5858020060490482
  0.2040080372578266  0.6652985388577013  0.5719045647985846
  0.1576464219983890  0.6642293741944748  0.6107748770345331
  0.9632010728596493  0.3829666515046549  0.5113598162625571
  0.4247875706472876  0.4056691386087481  0.5001253253593517
  0.9366720632217939  0.4883970093662153  0.5631827682037359
  0.8599214751286227  0.2353155315854513  0.5690357925986335
  0.1332661564556304  0.1777294737801887  0.5732428472063091
  0.3249192587064833  0.3317821652105136  0.4803795258750081
  0.8612588695749407  0.3607638303033353  0.5370726045078830
  0.6746512846769128  0.1756879984269561  0.5066674306349098
  0.2972768428574313  0.2845751266304045  0.5924435409530021
  0.3956659829240667  0.1716576537998876  0.5757739576792105
  0.3317309192777012  0.1815265758422119  0.5615498758929044
  0.1914906681862665  0.7112299962446270  0.6197106900186212
  0.6228956182972238  0.1256383564623582  0.5566958517272051
  0.7182150925084332  0.4997909041020518  0.5419324292991543
  0.8833984122701504  0.9651775032641019  0.6837619106519690
  0.5279847274207867  0.0645439729108716  0.5963428612889130
  0.8367339261927572  0.4799631421997053  0.5862925517582125
  0.2321872488260820  0.1380785959569009  0.5383954886500667
  0.4711656666628231  0.5105699283264444  0.5103712456334392
  0.8542049601564697  0.9223481434540516  0.6408665146289595
  0.8726562422868555  0.6805549377127832  0.6431279444565724
  0.6987592540791353  0.7135490948570014  0.5876044236760148
  0.5741864723965677  0.5181047736406549  0.4884292888113786
  0.5713940564386432  0.6188240259956779  0.5218855587651287
  0.3226052352489858  0.7375643462508069  0.5088378891322578
  0.8018499483116719  0.7283301737873673  0.5725233249393492
  0.3388237857342794  0.8829019010007607  0.5902077646414406
  0.8796802691479618  0.5315858291994857  0.5339842926235207
  0.2047195373845196  0.4146962238645090  0.5321759924505679
  0.4205915198000266  1.0082294472551394  0.6434006047821150
  0.2233186732905980  0.9213900788963053  0.5976223699399829
  0.8793893089355537  0.5291730853095886  0.5894751396101590
  0.4938007830911307  0.8751010133235942  0.5889473601507208
  0.6418954107233442  0.2706178597080117  0.6024926903743960
  0.2054173586868842  0.0780527437286673  0.5962419547620972
  0.8305470494915299  0.5565926048522164  0.5113060630819453
  0.8430771006204720  0.9213818205832820  0.7023819224268836
  0.7932776996624875  0.1507941807217297  0.5982264731424148
  0.3806909424713520  0.4277841493295483  0.4668695616328634
  0.5234291049664552  0.6095939519247200  0.5610155354056566
  0.9888244413916003  0.9666095952147453  0.6707624106230893
  0.7929247692888594  0.2222834617115718  0.5000417219975354
  0.7137992005952181  0.9844504498054888  0.6915405700946278
  0.8493713713583998  0.7203705603884167  0.5272019401296645
  0.7011788146427732  0.3835459098243777  0.5425368952268610
  0.9019908686259077  0.9015230786063273  0.6724627667553242
  0.0838479011164603  0.0221329013031033  0.6381398235603539
  0.2530297618814563  0.0823254320366181  0.5582956572791929
  0.7877826162543105  0.6442406398686479  0.4721115266406163
  0.4517423934468309  0.7611365504183792  0.6001098191315277
  0.6557137414785454  0.9691593070833072  0.6182192230031459
  0.3528384072054154  0.7189973641077331  0.5709797000372261
  0.8552545215374279  0.5905472403339667  0.5644103731225170
  0.8173273320829597  0.5402697905764892  0.5655193990631859
  0.9328707643208753  0.9555694419333272  0.6450567750184448
  0.7404551121092092  0.8326803838319611  0.6225504052324019
  0.1695673874375326  0.3493931036604108  0.5932438647890389
  0.8724385851507085  0.8758952281499306  0.7232637883029777
  0.8506280760431096  0.8627608981674443  0.6616674192170804
  0.7990083854117964  0.8227544386192455  0.6529891808372361
  0.6754083120474353  0.8119507250401016  0.6101868766868599
  0.7332453774195247  0.9299613981668509  0.7095046583469767
  0.5253070722857628  0.7110459790210115  0.5817733291005303
  0.4956784360900781  0.9601410830178196  0.6268917070206733
  0.4520602833235321  0.3319788432780589  0.5812008215366860
  0.4815536747809299  0.2528118616603174  0.5006172659443724
  0.6688353327333749  0.7697507045735715  0.5664963751433678
  0.7199457822741390  0.4923077503290553  0.4900748084823880
  0.5793189752989155  0.2829611692505108  0.5800030973190275
  0.6542846975018501  0.9945082384650757  0.6696193547207331
  0.1745973966130635  0.4062664684980957  0.4653950074411595
  0.1845793094294486  0.4545017490016061  0.5812340608502219
  0.1964723811447192  0.9755929225172844  0.5761718994924422
  0.8865704816072337  0.1253058757582010  0.5234101348311510
  0.0978474032591096  0.6586780556787344  0.5217760854844801
  0.9634686878377292  0.2435365047734450  0.5460380174858143
  0.3087223874209666  0.1725012394863570  0.5000446971133804
  0.8098631950593027  0.0969558445364885  0.6273173809554198
  0.4305045373436715  0.3879378011484365  0.5682897228841430
  0.9610030981791282  0.7738315277687028  0.6152887860126726
  0.6541204206047981  0.0395768978337764  0.6265714191486104
  0.0249919142605633  0.7174381468344724  0.6007310124611321
  0.7808180743297454  0.5848547181910085  0.4867994509824811
  0.6851965947133329  0.6876196981645758  0.4804687667508862
  0.8618092269652409  0.7249819437399375  0.6867553494241243
  0.7939453892298131  0.7781226112537258  0.6111212901975254
  0.4644912615221910  0.0809706557502549  0.5715873835227043
  0.2591847087852391  0.2389877950669087  0.5834524116116190
  0.0679163322863742  0.8757041665663776  0.5569121212406707
  0.3274048137810781  0.8034335730672679  0.6600660687744345
  0.3720921254275659  0.7232747604945140  0.4783670948155118
  0.2150283934297584  0.4450343231503445  0.4802423613184471
  0.3263442892101273  0.3925735453558792  0.4546630295544096
  0.6178921534532470  0.3275960679207619  0.5828143052879211
  0.5213177857107257  0.6368404066885288  0.4921161854402020
  0.6613917037517728  0.2119384606462748  0.6178610239380322
  0.6702720754061325  0.1115371652012673  0.5184886190070080
  0.4100442354081764  0.1063037904177050  0.5451949377292541
  0.1478080843951359  0.2335650270693933  0.6052096847089927
  0.1204046323098859  0.6129026343813661  0.5957463716648607
  0.2277965797967821  0.3397076268160645  0.6148174830715053
  0.8000841976278149  0.4324857604312338  0.5685747145873890
  0.7070256776867625  0.8887924039615743  0.6042065060446181
  0.2424478809986144  0.0246820692795601  0.5809366561113181
  0.4780386006240889  0.7272109746286899  0.5091880698108414
  0.1366984940888225  0.9864437392849383  0.5528013611673852
  0.7658023274834049  0.0421865254554042  0.6257778062239528
  0.7510949155598173  0.2700562897913131  0.5853612678943545
  0.7575377053773817  0.9241494502758218  0.6093806527064525
  0.0394362663018417  0.2423736672647807  0.6253725219932442
  0.4473572216088411  0.8279177247282739  0.5854692924048178
  0.7856490016977080  0.9306125780211576  0.6717513589549542
  0.5939496621997161  0.7804161840884413  0.5344085399250990
  0.3451168720364501  0.0179836656751743  0.5589325894130367
  0.7754357819846260  0.9777843194022416  0.7151314745952734
  0.5281426435503405  0.7043526523191901  0.4780752059542848
  0.6306866430187497  0.7974753043577913  0.6498212250386302
  0.6093246699562211  0.8156643104145740  0.5871672453528474
  0.6957191873777830  0.7993014652654721  0.6720678997726351
  0.5620014625089135  0.7592868802484596  0.5849302420437293
  0.6550513178940299  0.8640477149044431  0.5842525611567324
  0.8100748607531247  0.9549127460625385  0.6151197787237572
  0.2639080848438642  0.4134427994817050  0.4962126536950118
  0.7759851978559436  0.1090408110218162  0.5456089656719191
  0.6173280178380710  0.8574944937052681  0.6321304979400031
  0.7996856948048214  0.8844636144170707  0.6326296547696381
  0.7671216195391631  0.0464376645156158  0.5654522297132617
  0.7739685864775713  0.0327286899391565  0.6865337146208289
  0.9815273172685254  0.0761551742345991  0.5165327471588992
  0.9762582500381107  0.4368217669615436  0.4851334234934124
  0.5450666774724776  0.9144977662598051  0.5973991993618400
  0.1846089836297911  0.8682078116088370  0.5961492178836502
  0.8319299365822621  0.1356617819657575  0.5516256441781199
  0.7082946608158907  0.9985771746330022  0.6231224528295800
  0.7411289135580221  0.2375187344316473  0.5334326384127506
  0.6582638314684472  0.2282412328342129  0.5568372800844653
  0.8738867112534732  0.0618799395818344  0.5417699732084131
  0.9238549124792822  0.1375656852483102  0.5817407419001631
  0.8486651132736569  0.1457890352076047  0.6350534523873632
  0.8704129843374883  0.0453471253578943  0.6044764839255344
  0.9298261942726410  0.0878212816196460  0.5474144665092324
  0.1351391840782266  0.0555121325850483  0.5277682478577299
  0.8716936358065871  0.1073443125968566  0.5899228224545860
  0.2933046422049628  0.7108885172062146  0.5564416134827915
  0.2122748919522184  0.7214328184831609  0.5381969083810677
  0.8536296599987174  0.1901974131082507  0.5255077272103545
  0.9527935175902117  0.3069027530782211  0.5284650748996247
  0.9793184151883108  0.2484066928140541  0.6047574403713768
  0.9347937729913463  0.2002314802050217  0.6032833998900032
  0.9750125455411188  0.1810387890675445  0.5644788916269379
  0.0519216051528278  0.6940461648749466  0.4942664701905782
  0.0279121234765555  0.1363009309978993  0.6353721939682679
  0.7918559528719731  0.1630313412830574  0.5161512721430076
  0.9146856683012715  0.5845924375715607  0.5923198055315120
  0.9369812008393907  0.5221734975231088  0.6112502428569933
  0.2040197916635343  0.5584384039451213  0.5745089318608413
  0.9325389940367301  1.0023775575189364  0.6907835009482631
  0.3826253923892993  0.3137124907396632  0.5076527346067436
  0.3201565836616627  0.6593995507053068  0.5736362199038431
  0.2826234251370539  0.8615186959713380  0.5753487006275320
  0.5128560491053031  0.7540795988430659  0.6237334954220641
  0.2845317330932025  0.9231612102303495  0.5606654297470567
  0.2294511901005385  0.8907529914258220  0.5484997131502223
  0.2929868862287045  0.6169857725669692  0.5331538521471310
  0.9556553195514291  0.8231345913986834  0.6577050592617302
  0.9869148530315255  0.0860704815305336  0.6323820925839303
  0.2346249379429923  0.9530297353235484  0.5363686716930911
  0.0530108754288850  0.6850103322124493  0.5576187504141928
  0.1042900729430071  0.6696397471162330  0.5827925476338166
  0.1738312098202686  0.8636430014557370  0.5368063931587436
  0.4863694772406089  0.6557871820326709  0.5797920120028189
  0.4118491267581419  0.7253457656569452  0.5390437999263012
  0.2273652270839996  0.8312991449824552  0.5637297468555484
  0.0844356780130986  0.1270773625802112  0.6549895121618617
  0.3044839274590750  0.1037510155278543  0.5126783566122227
  0.0346738490933047  0.1101214348798436  0.5318915889120083
  0.1848392439433034  0.0329254971807260  0.5563416425897935
  0.1352739724946882  0.0291987590337503  0.5980767501935249
  0.1869792712706857  0.2898977294901381  0.6109722070547908
  0.5728657838822206  0.8930474309856217  0.6611714912246616
  0.1437993067684641  0.0885121143789188  0.5780301468974338
  0.0257196630622312  0.9868679410867788  0.5684019819433617
  0.5519396413826143  0.9512394797796228  0.6473960422012144
  0.1737758706812436  0.1809656756414602  0.6230118564957394
  0.2832030464330405  0.2900969629725798  0.5328271712344809
  0.2483302702729923  0.2824329203978190  0.6306942055550238
  0.2324283931684404  0.2949985382425189  0.5694364817975658
  0.8791532276005295  0.0278419585248558  0.6683653005281684
  0.2072206645942838  0.8138249865661719  0.6171120532757801
  0.0227823570666732  0.9414965907813654  0.5217326653844795
  0.0920874494395511  0.9720980079601467  0.5960278565690764
  0.2226853546348153  0.3083880013512905  0.5077735024896703
  0.4906482489313090  0.8931029995508445  0.5259474297658319
  0.1834159718925273  0.1373665805602363  0.5804432369499642
  0.4523217961109607  0.9058617857702992  0.6252820245922908
  0.4374294945933989  0.8559451184550378  0.5215475060450886
  0.4400301127953104  0.9608538023607665  0.6052376043561684
  0.4383448573207594  0.7864561343394588  0.5385876365924236
  0.1754812141978401  0.2193304176324896  0.5116118297672381
  0.2315182101782388  0.2470713658145720  0.5270207970603666
  0.4806000429137194  0.5512412472396431  0.5574985469591324
  0.4991242220641491  0.4937462909002092  0.5788224108379175
  0.1350436872076448  0.1322553065147810  0.6199529214544652
  0.2102765360524134  0.2323223157946382  0.6234362864311611
  0.1332508480837260  0.7226102649794488  0.5878160055863177
  0.6128045529784711  0.9425609020370878  0.6692703392206351
  0.0253478582677345  0.0321928275644266  0.6134068490969492
  0.4980130319849038  0.7713889858556475  0.5620396411250751
  0.7612037118740854  0.9855281071673615  0.5879235509868411
  0.6322221888005359  0.8857485387854491  0.6876225198557712
  0.3563188700887457  0.4512275056246727  0.5257319793453581
  0.0425060411463876  0.5828709929865972  0.5175380106002452
  0.6527410899472065  0.9091536392198761  0.6317960425492782
  0.4916790189723325  0.8306907833088278  0.5427509065535907
  0.6703522890339665  0.9355105526657097  0.6908041453206104
  0.3465837562838835  0.6066046261120839  0.4981167899318125
  0.6110326900312182  1.0037344367404779  0.5892028456947571
  0.6326063208456959  0.4359226882287864  0.5797319418225495
  0.1667203056046839  0.8085875407058121  0.5618235839647250
  0.4815411879001960  0.3958401690368119  0.5280739421032218
  0.3861636307955621  0.8781906607887182  0.5511929353556680
  0.8235330816592353  0.3710616914745358  0.5846925656836350
  1.0091132287786275  0.2381485347875881  0.5012014015232689
  0.9133119034856271  0.6985497079023847  0.5483693846418670
  0.7096873925364676  0.0559785818684358  0.5999700343836412
  0.8855447223952798  0.3651366555611967  0.6038400027442957
  0.7489475575165289  0.1803174445155489  0.5513443642387237
  0.7815117906791039  0.1967356568464905  0.6602757207633594
  0.8025448938687854  0.1397906304186279  0.6744038986432599
  0.0536146134208544  0.3642057929737867  0.5484800446346508
  0.7501387940473714  0.3613992594725580  0.5046272075298923
  0.9741849795298894  0.5688881766064735  0.6103272749176971
  0.7264362195082058  0.3316348477704723  0.5640154000251627
  0.7152560647421567  0.0419015893419494  0.6650186959947613
  0.3441734249107789  0.9112488757908407  0.6429560271543154
  0.4424343830316708  0.9517602830724512  0.6675378120195989
  0.2449387564799411  0.5362015296523027  0.4863620292262481
  0.1547319940394590  0.6921672752001642  0.5363188472079705
  0.3049028097438536  0.8594747781615240  0.6396277141376667
  0.0249442357306231  0.5688219730210589  0.5714865264697534
  0.3787809743283230  0.8082396621938648  0.6231758759250826
  0.0358696747840169  0.4093074234582100  0.5886067907321090
  0.2234393167363782  0.5020369136267260  0.5896839894963697
  0.2438429842067074  0.7137388318448847  0.5895810778840374
  0.0985459486206234  0.5982107666320045  0.5352912404744595
  0.0584949002696414  0.6238950416743624  0.5726895694613396
  0.7276872789039547  0.7762429159855733  0.5978680762003747
  0.0688102348513968  0.7656591584034214  0.6080432189985053
  0.9233908876936421  0.0186203361501475  0.6287668262205249
  0.7505303160064807  0.8287714026359043  0.6881707733510293
  0.2368015369541056  0.6133799548061506  0.5736379998677056
  0.0319158359504474  0.4670099531940754  0.4922206704413307
  0.1376004835936612  0.8648398880236835  0.6360209354038663
  0.2512635844932256  0.5718438405042010  0.5343376693104454
  0.2777373801329139  0.2343776449246383  0.4904708672615710
  0.3139603243977031  0.4497435644175009  0.4842458006632708
  0.2507638576947751  0.6010325329321115  0.4772380116570707
  0.0672956211396743  0.3049923576504908  0.5680047857058819
  0.0591883673971577  0.3200363170794495  0.5059906522271808
  0.9240766092564514  0.4121165096454141  0.6090761516925078
  0.9079080769538581  0.4020400289112462  0.5487625381319882
  0.0192635555751478  0.3004978161947506  0.6083239141976103
  0.7649402816655202  0.3798035730400658  0.5645521378990952
  0.9017541719280729  0.3183711129886230  0.5675964390114319
  0.2659124804046099  0.6578275142544251  0.6045443811940212
  0.1834273690078534  0.6072977725096943  0.6074720697080364
  0.0786641885817998  0.2912858360186987  0.6275560654669279
  0.8882610783833859  0.1961604147420252  0.6405310918221019
  0.8641295472841055  0.4232887169451061  0.5146464621648178
  0.3581667956805518  0.4956786371394049  0.4770682345726032
  0.3200977165950712  0.2281214904682387  0.6076964562238407
  0.0584008905564758  0.7443194943421138  0.5426413909179622
  1.0041140737172589  0.8071974341054360  0.6925488170056043
  0.0582541667528000  0.8108937374492819  0.6554307601311961
  0.3932360022465885  0.2587954109194606  0.5225629758810554
  0.0534936267929430  0.4596847578793811  0.5475056736368001
  0.5522129280164304  0.0499926512503744  0.6694124322581795
  0.3646972692889560  0.2036230118394738  0.5104772681217288
  0.9374683760658001  0.5717458249348422  0.4871425897508727
  0.7426259131192721  0.1469225384432943  0.6553183441368892
  0.9576579715750546  0.4624147951328170  0.6203774537375774
  1.0001359070977114  0.3598071784536522  0.5891268819567753
  0.8973507465124037  0.4691972738254955  0.6066965405972958
  0.0140006055197360  0.8144374769044646  0.6140720110599878
  0.8019284815778936  0.7351669624316599  0.6624594366771305
  0.6390867444794467  0.1014091462498227  0.6264179874262641
  0.5888743591096900  0.0531703856772318  0.6223074399395860
  0.8465052527231945  0.2973803799652497  0.5512682548175935
  0.7377979254191680  0.4375565190056504  0.5599296364184334
  0.6217188878262825  0.4552193221381080  0.5238999799791376
  0.9151548763290768  0.7277645477294773  0.6517816800606823
  0.3642744084391609  0.8538480513657494  0.6618919034964595
  0.6952427494925270  0.2785691982489156  0.5648122689984242
  0.6168101737019892  0.1857770390074602  0.5450595353530259
  0.6234364745726778  0.1619578250226834  0.6096231209008391
  0.0757621277965436  0.1920221205626516  0.5474377094908583
  0.8115193271922436  0.2620727193693278  0.6026322412354296
  0.7956410269686787  0.2672986095883628  0.5426712686869355
  0.5388163562978336  0.3463751834650719  0.4915461205711296
  0.6783751211872470  0.3226340057146942  0.6050756740613528
  0.9452580143550078  0.3602963300566683  0.5652760071920953
  0.0149374679033908  0.3594588399137158  0.4760472515398334
  0.0459637979346544  0.0753165268486594  0.6543340664642947
  0.9872925588702425  0.5217881675854522  0.5714558114007137
  0.3414156606464215  0.7589555775977763  0.6178560947343664
  0.8498413908695223  0.3139622960467338  0.6082179453815391
  0.5084101507625701  0.4735870863726205  0.4820572647590265
  0.1423680092314309  0.5221436992549141  0.5109156141307412
  0.0883302873028416  0.4900575285335885  0.5056593106742018
  0.1462592891910811  0.5882767656991850  0.4965560281777353
  0.7266911386677610  0.1363592709424581  0.5160681710187784
  0.6205436541242307  0.0662906503547463  0.5727070676420194
  0.0914656826553770  0.5541839215646900  0.4899593484976152
  0.7680007159537932  0.2105984544428333  0.6022820444276433
  0.6742679074438075  0.1661663897708213  0.5670450688338707
  0.4461169529593235  0.9724142771390960  0.5461683953261923
  0.9295936770712475  0.4497763552241041  0.5188047342840882
  0.4594936736244472  0.6235937132236300  0.4790981799005136
  0.9892594800365130  0.6053713457015426  0.4933303242892217
  0.6795845326860954  0.1542188833547477  0.6339830363017528
  0.8269334943800053  0.4901466043954811  0.5268455096315339
  0.7543162772343550  0.5515670386308665  0.5438303228573628
  0.8679917749540351  0.6563783073762489  0.5357476459662753
  0.8216172016032404  0.6464576236307223  0.5787991237277499
  0.7763800145385668  0.4928911410846368  0.5629210640215394
  0.9860582380649705  0.4780974101535220  0.5294031798378890
  0.1636407779358827  0.4591307897592397  0.5199715725562101
  0.4070197026561981  0.8621686043688712  0.6141987786415766
  0.2773037248727816  0.8170474850466664  0.5298069241084511
  0.8371400381264406  0.6171114038030122  0.4991983872791328
  0.1218242586334499  0.4191623816370402  0.4981913913053051
  0.2831108953600589  0.7642452351239528  0.5956761666383259
  0.8503751370595510  0.7686465984491762  0.5713652822897192
  0.1833646067297430  0.9850760330645713  0.5106106339489667
  0.2430255623241118  0.0788301604376399  0.5007771728765643
  0.8812982365093335  0.4697325731068098  0.5492822321815279
  0.9252149071864161  0.6378370654398889  0.5613435742865065
  0.9637079095837272  0.7237630570072330  0.5741857684071956
  0.8973176208493887  0.5983406107196267  0.5229001912886815
  0.0380716917752181  0.5181711837636004  0.5327302505514389
  0.7725016581336954  0.4577727372913111  0.5155069123478180
  0.8161812832438718  0.0141577768791620  0.5941417901492184
  0.3899889291876648  0.9198615946189487  0.5993166633852242
  0.9070272834744397  0.7426966337008318  0.5935851458073758
  0.0124934945943709  0.8760986821369540  0.5980727466518091
  0.0687655566688439  0.8606090606838102  0.6173036706510129
  0.8422210930463691  0.6770870004009688  0.4803181823670546
  0.1501910836896965  0.9699700114680955  0.6188314341007878
  0.1262426078933075  0.2343487548490429  0.5456522835682627
  0.5581498864869848  0.4660151733329329  0.4464816601914817
  0.3717725593858549  0.6749636626554953  0.5377975080835405
  0.9510085969247398  0.2642851541659793  0.4854526347057106
  0.2656249311413336  0.7588251090655286  0.5387115879622837
  0.7298977531217536  0.6163938635737750  0.4605705019227715
  0.6376830973955966  0.6564121637649769  0.5231379678030983
  1.0071522898575631  0.4640321174879040  0.5858884530929859
  0.5367624935023431  0.7490582144516341  0.5223720607043465
  0.2611485628076450  0.9682255656598385  0.6002814225729575
  0.5423434752289662  0.8703250021840315  0.5505386266748673
  0.4210676743671889  0.5592196686567700  0.5388294055139379
  0.5806978556311053  0.1113054621900635  0.6039484404395730
  0.5501582560262489  0.8132224544340282  0.5647553416511762
  0.5082009706191433  0.1786775234628683  0.5676681879483573
  0.7404979886845260  0.6631100850154336  0.5041225743724842
  0.7977156608554810  0.8739107657272331  0.6948871797728166