Cr Ni
 1.0000000000000000
    38.5640849524990585    0.0000000000000000    0.0000000000000000
     0.0000000000000000   38.5640849524990585    0.0000000000000000
     0.0000000000000000    0.0000000000000000   38.5640849524990585
 Cr  Ni 
 206 500
Direct
  0.2375753943793511  0.4447176298568325  0.4162875981255253
  0.2464612775665586  0.7209954448406043  0.5054874390848304
  0.6634984245619213  0.9402666820482474  0.6275583820285227
  0.7357083840643939  0.2120296997948765  0.5248832227970012
  0.6449935759124724  0.5058188114273410  0.4782779051242281
  0.4128474194543341  0.5407498095698843  0.5558490673782545
  0.2427679789327168  0.5663155995363711  0.5485466108590561
  0.0493331973217967  0.8754149148441683  0.5403718067313509
  0.7000214968493003  0.3871810837727441  0.4746516354656899
  0.2955431641366312  0.5712247500503910  0.5063544514917668
  1.0042834258404361  0.2903769194606072  0.4910459018477066
  0.7812544071009925  0.5985771490676118  0.5038861785625351
  0.9391405102511043  0.7669240450563997  0.4602764008794608
  0.9771347723506348  0.6209586238683130  0.4471816556423788
  0.3269612583593438  0.6598719335145135  0.5556668084933595
  0.8711957024114616  0.4821875679863789  0.5004433977497437
  0.8709033375054935  0.0641816069755862  0.5468311797638431
  0.4893537256529528  0.9625329393933545  0.5336142580198697
  0.3516299098635840  0.5052694570274665  0.4876971086091216
  0.8741809204470409  0.0890098124738246  0.6487386549580230
  0.5920436650972876  0.3904973895607685  0.4951786235718231
  0.4150737191598615  0.4914161258747358  0.5141826148468654
  0.3806713593309581  0.6509719220324660  0.5815750592632309
  0.5900109919994070  0.6967662917105810  0.5908950141967654
  0.1311750931340511  0.1448325352338593  0.4825771145760310
  0.3233281247576751  0.8029482669498160  0.4874753752312817
  0.1007438733848033  0.9229717598836871  0.5444426374745147
  0.0857533995708988  0.6309348076983214  0.4807657192668696
  0.5818277699746045  0.1181833632352401  0.5436049469711393
  0.2244119503826986  0.2776142988805823  0.4020797370726795
  0.2284115301216983  0.3039001259627122  0.5051393060486804
  0.3232811640501767  0.1931178960221120  0.5027141707544862
  0.2393290611211130  0.5541255706896163  0.4451785426359439
  0.1457310320443417  0.7220961984332401  0.4777710883235703
  0.7292643021241850  0.5869083068457455  0.4853970606090280
  0.5038292803160314  0.6702437756790081  0.5007627841607246
  0.4428543262523645  0.9287282578507680  0.4959809631704289
  0.2904008218592881  0.4198340240760587  0.4403818445195902
  0.5036308248986401  0.5548280684535034  0.4743414385036795
  0.1886858881737322  0.8693087891487297  0.5877278721232209
  0.7634507585409394  0.4028391513340550  0.4954409744655590
  0.9685737300948652  0.4273132345058311  0.5001854538309619
  0.3347555013958640  0.9187102841933806  0.5738139920561897
  0.1347884621635353  0.3708771294578875  0.4598765166122846
  0.9355035848971933  0.1542209533434561  0.5436960164200401
  0.7726629239308181  0.6405328606864114  0.5473049891225378
  0.1304202035680579  0.4327833289778918  0.4386194864022622
  0.3670494687265345  0.4972606966701429  0.5484768642382438
  0.9498051446358020  0.3095288344628649  0.5240791256630147
  0.6082884502190881  0.6634203492458851  0.5410669676706347
  0.9191809919441809  0.4169182808917281  0.5473944864734032
  0.6006426028392146  0.9589756121660336  0.5402032614966366
  0.8939050265341827  0.9281819642083434  0.6414132354609556
  0.4395116021196403  0.6470817570449596  0.6013329126386648
  0.4557772108670884  0.5145421807013687  0.4692326492132592
  0.6859162303836004  0.7545048733902278  0.4621490520588692
  0.8709723087568471  0.9851516289971887  0.6264388162270885
  0.7901221887212302  0.2073549278200288  0.4942897089479498
  0.8794924391313541  0.7377614104426884  0.4451262635109494
  0.6361040966057304  0.2785811998344576  0.5307060470792067
  0.4973459135824943  0.6562070261600429  0.5637826141128816
  0.5427623469732632  0.2890543278249569  0.4464534572158496
  0.1368920452241854  0.4132653777805202  0.5034621400263137
  0.4643226063195148  0.8604964756787619  0.5797994593273923
  0.1959177335232074  0.6252037937751127  0.5184966150999489
  1.0117258507598168  0.3057392475892066  0.5446259373856936
  0.2969809735764801  0.2466777507371847  0.4842026114199017
  0.3819852640162940  0.2031133696371351  0.4059387768758364
  0.4318927900835952  0.2305142806010056  0.4243749755540615
  0.2496695578106771  0.9762332002083176  0.5335949965994161
  0.4407440790136321  0.3436332120866732  0.5073586263855184
  0.9240782526094913  0.0282104733318012  0.6301600792750037
  0.9517545323828023  0.2576422321406822  0.4822117075493864
  0.4296472125826720  0.8079158607151566  0.5810857569772335
  0.2041248526278664  0.7509528494575909  0.4896215658375563
  0.9217523298292387  0.5966262492953622  0.4341534719150240
  0.1375959337028620  0.5920968804016865  0.5083372213494163
  0.7744837510138358  0.1087788020970055  0.5596452278013894
  0.3620254328666125  0.7094965957840821  0.5502039353241143
  0.3956496275735330  0.6533504789806520  0.5264836599706522
  0.6830363834376061  0.7414254260021286  0.6021098262975706
  0.1413978265418704  0.4772535862273228  0.4824675063619344
  0.5417354064986102  0.3541309207462791  0.4264047970063410
  0.5033583466604209  0.6087565363037143  0.5182625941176507
  0.1913317105534434  0.1728285634483317  0.4593909732663871
  0.5506296936634024  0.0614042108752033  0.5224468444122613
  0.3462178589157472  0.5652564854892392  0.4691621470700863
  0.9390975001369336  0.8109176117315556  0.5100420890787389
  0.7016980788745559  0.9686742987436551  0.5756937405754657
  0.0270121600772905  0.5937906762386247  0.4710118204978279
  0.7713245295060788  0.6769156033547298  0.4179963448621674
  0.7568298513944218  0.5415174953765781  0.4484938725815182
  0.9887818144526003  0.1925631863818058  0.5555450296892449
  0.0995066512754127  0.8181591569940793  0.4506399672406216
  0.3092790296062776  0.8224758190086447  0.5336595251025231
  0.4788822887696668  0.3987686387391787  0.5073453433346043
  0.3408510063570438  0.9901582245635137  0.4484587559581390
  0.6413813969871142  0.1088140605468099  0.5687419564100454
  0.4869297302253883  0.8359028239562923  0.5355024428571080
  0.5942090926496845  0.8387404983740541  0.5874413695061840
  0.7739819030955623  0.8005568333252787  0.5689194683541550
  0.0978851787625900  0.4579320650954005  0.5233978858152173
  0.8608195145136878  0.2588555904354342  0.5603131425191692
  0.5140095885453922  0.1428318774470573  0.4554300475588172
  0.7145904207560766  0.2110905932416166  0.5729098143497060
  0.5929197432110282  0.3238110622408276  0.4526315310084833
  0.4356061137189293  0.3396894699569443  0.4515876813942405
  0.8283339048382621  0.0927510627301854  0.5886768518505784
  0.3754357663280657  0.4494630735415562  0.4967084993939208
  0.0874147916992952  0.4056840876200462  0.5492442505313538
  0.9233729203629022  0.7041778526189013  0.4636465128665972
  0.4029424436733801  0.1356815615313087  0.4791261867985399
  0.6096430184194869  0.6118902568552245  0.4984309610361549
  0.0988940463129408  0.3576793846330843  0.5057304250353596
  0.3317110049951478  0.8643216888495974  0.4731361429563000
  0.8470339688830320  0.2391489434595663  0.5004997611817896
  0.0827758995342517  0.1429331687998112  0.5179779675710627
  0.4799089874664230  0.7911345471004156  0.4891746815275558
  0.2270133322910539  0.2089396267775966  0.4205031160316898
  0.8613791729130490  0.6978443322389301  0.5021258413780991
  0.4233637387752971  0.2388251694495018  0.5196709134750016
  0.7094615367286830  0.0955211071116291  0.5782869093451966
  0.9485188336868409  0.7830507567646761  0.5698208689298179
  0.3131029516030986  0.1106477784827005  0.4220829618557236
  0.6369239934446365  0.2850997037013721  0.4768065847319922
  0.0793429476037949  0.0347455508320179  0.5075946062859089
  0.0797594219455189  0.9773951297389326  0.5307238724118781
  0.3481169146171399  0.1380032649780698  0.5182466832006865
  0.0822942984914440  0.1564037059639320  0.4538952212831194
  0.6845990261248227  0.8870823876516274  0.6436632014162589
  0.8607796077513720  0.3751963105138071  0.4772774811772680
  0.8306695220218924  0.7059187104121170  0.4278079531404769
  0.7181450819357386  0.6406049137065478  0.5244182516095053
  0.8234735729422422  0.9953151077602903  0.6733160563593036
  0.5992642428061630  0.8992517866403282  0.5587421830728376
  0.5403006860943460  0.2350000001004333  0.5078790183762292
  0.2884819034419737  1.0032372811445764  0.4843526373105163
  0.5635960352783612  0.1730903801037023  0.5228491016888855
  0.0963536415566617  0.8648824405211505  0.4996390494674288
  0.8989004103801331  0.2684826939924999  0.5157663904645805
  0.3969041838645629  0.6043727733743693  0.4765484217288601
  0.2978522280303668  0.3609775728825987  0.4570114720729278
  0.8667192430793063  0.9356654268002939  0.5826587043781130
  0.0283100040182795  0.9844244905016436  0.5672446496445706
  0.6536954054705668  0.9982370240295066  0.5487604286737893
  0.9965806449335568  0.8958713208772721  0.5670051548498540
  0.0280707694059512  0.8731810971696747  0.6334819212442261
  0.8259638249678548  0.9462926733617142  0.6227904659466633
  0.8550694471768858  0.8834309204496466  0.6346568160403117
  0.0352025062290924  0.4703172652179182  0.5005625086116384
  0.5903890398084741  0.5009020704724794  0.4568043535198082
  0.4175977618900633  0.0829388171379516  0.4952067106701102
  0.9299922702536920  0.6568075671375848  0.4199893538311218
  0.7409432582705130  0.3485990344751476  0.4958420665192643
  0.9808518118264726  0.1107658261516406  0.5665819033088788
  0.7542177455947563  0.6981951565719714  0.5276274484838428
  0.9387523620007313  0.8540001088804806  0.5509038692251297
  0.2467375769229269  0.5306053122553990  0.5058882260783669
  0.3501912154162145  0.5539920373043716  0.5304797133899182
  0.7643894933487566  0.0474898817566946  0.6727802015917635
  0.5511175944479483  0.5390261745723720  0.4379318895472573
  0.0797208367973701  0.5734852855019273  0.4943714171829124
  0.8172586282032090  0.3762143033787800  0.5139860302087089
  0.5322710551099926  0.7563999668589948  0.5210338811748667
  0.2360925119119546  0.9724529422969359  0.4736804624849810
  0.4815919351534381  0.7780500908934531  0.5489761981335533
  0.1395591981120852  0.6543860264074529  0.4935546725540569
  0.2949657637788803  0.0315623022146682  0.5362517945993817
  0.7921294675504713  0.7648148563510225  0.4439033474836517
  0.8112068888150737  0.9690575664387665  0.5577235261914602
  0.1881044320416775  0.5653513717975829  0.5284898136130605
  0.0488873923877318  0.3581150838531440  0.5431003352978389
  0.0337813040078463  0.1254728611453177  0.4681803641670392
  0.1497266266853552  0.1356417119182914  0.4282835290222258
  0.5360608200790464  0.6905682998880782  0.6208449345455624
  0.2954961321022570  0.7003381405631189  0.5360605668597229
  0.6035647255935180  0.4450668012041785  0.4751828370085944
  0.5059745690469530  0.1846101812874145  0.4997143468690339
  0.0447187400715817  0.9736374931314458  0.6299762718591300
  0.8277896132290070  0.8026188997777606  0.5329466785563421
  0.7501336296514440  0.5329717139459713  0.5040810752455755
  0.0501163933487260  0.8216418612723096  0.4932933636775578
  0.3971085042838446  0.0213236255221352  0.4558985645955699
  0.0238375082078353  0.5495895378222978  0.4250081455618096
  0.5424912779289991  0.9608884667270920  0.5798652104594108
  0.2434824136617066  0.6024784895257307  0.4910423305785207
  0.7620171729961890  0.6555647199578156  0.4815934575305794
  0.6499045877657250  0.7063976557189506  0.5562399874708887
  0.9007262103049024  0.2255723556275063  0.4705309363965154
  0.6996902281720718  0.8593521999989738  0.5436474617366484
  0.9642813532586085  0.1397875767980852  0.6096580300011125
  0.1824229883498909  0.9321761801707734  0.4664575216383711
  0.5473881684772187  0.3428351613619077  0.4880453316532374
  0.2095693691858513  0.8142635837748671  0.4661097076735985
  0.1293520550861402  0.0340161300790528  0.5313046526385476
  0.5931837984688265  0.3856071467277026  0.4370104638386763
  0.4876677936517252  0.8044708961077592  0.6006337945027161
  0.0814209895134855  0.1355975098374642  0.5913189101898718
  0.0908510611259669  0.6910577467243358  0.4679430863574748
  0.3485474065021973  0.4012838835763477  0.4649921503666697
  0.2625251807353723  0.3541526383052208  0.5035766261531689
  0.0234540827237426  0.4842489726646542  0.4415743276527309
  1.0026420023516764  0.9315904676642831  0.6221987411957054
  0.8755649448973397  0.6662168249395632  0.4582287448511954
  0.9047407934042820  0.5780240039818949  0.5483544890289401
  0.5124025901939546  0.0829937440173255  0.4695786737432587
  0.0829456972330488  0.5133721549789481  0.5062242632631756
  0.7555514117875708  0.4769338779663018  0.4651832698325769
  0.0252344875797394  0.9364983276723687  0.5247844377178625
  0.2967511096027677  0.9440720907603221  0.5009391651022607
  0.4782272480604309  0.0749831223362033  0.5172538943207609
  0.5211880859349181  0.0162091993703604  0.5598876914956733
  0.3245516886120117  0.3477207989649492  0.5230645219494434
  0.3593014788034081  0.2414580709165642  0.5059044911993678
  0.2033674865022251  0.4625594180327225  0.5013786226780860
  0.6438458331523828  0.7170982270360274  0.4987323164919153
  0.8435538529031764  0.3005305892370431  0.4848195927918311
  0.6566410637300381  0.2207657258382165  0.5496125154260810
  0.1087113150525536  0.6199802324138465  0.5506897066229094
  0.9909587403413631  0.8023285644906456  0.4695646338931377
  0.7958645866979080  0.8151299000034827  0.4821780772112879
  0.3763316554295278  0.1384427894132298  0.4228162347470745
  0.3741899628385416  0.7697194228800590  0.5162973892841196
  0.9303092031432059  0.2139404754833147  0.5285889065597994
  0.0904943316624224  0.8287132467966473  0.5520592298619157
  0.5548197661165410  0.6427136005595371  0.5821813323231704
  0.1871976771106365  0.5805283515566468  0.4692452092082559
  0.2457512421834694  0.7128300063267490  0.5740992832750234
  0.6318536698402861  0.5504901224236614  0.5166644421910689
  0.9161668978577518  0.9216660992589666  0.5457468648428279
  0.6115968088738086  0.3358739304677620  0.5134385736701851
  0.1116819762580133  0.3095058071341579  0.4650447612078770
  0.4913414514586081  0.4311302408328004  0.4399458348107467
  0.5630159751202973  0.5917997136129761  0.5417377129339405
  0.7382412131578219  0.1523951687074730  0.5907147609861533
  0.6080470745199096  0.6257656189374924  0.4287209095710153
  0.1496024771738712  0.8990559285486945  0.5109656984156394
  0.0283806115035841  0.1319503218884622  0.6328608969629745
  0.1712813926602328  0.2945839303546652  0.4321174427840257
  0.5600489644927239  0.3316472274119818  0.5513805237022495
  0.6678760438340652  0.0500033596881902  0.5899818936930545
  0.2937129772752978  0.6417417890967697  0.4904001516836429
  0.8430519326804965  0.3178081007301192  0.5414948464323133
  0.0777664283150556  0.0301879780163695  0.5730396873438637
  0.4831282931202951  0.2433337454464799  0.4854632969353241
  0.0970307105659265  0.7539467213104877  0.4520128533423605
  0.9175361118692880  0.9745058738230714  0.5881126768882523
  0.8089689008999402  0.4444147214914143  0.4933008021976230
  0.0231351981291959  0.3605300545569370  0.4792786514198632
  0.2484796635508618  0.0900833411290773  0.4891557981389913
  0.7566633113886246  0.9926170485197842  0.5868038536896242
  0.4565281436781104  0.0500121698497752  0.4615510485481762
  0.7550165144290871  0.9413523145676743  0.5452790094983401
  0.6495337062372389  0.7678852910246531  0.5464742756694460
  0.3389023594715944  0.4054653390408822  0.4019198103482536
  0.3839151748331164  0.1934516915906467  0.4666256297731585
  0.8719556977943790  0.8315633745980694  0.6023252060425622
  0.4477200212435399  0.9912258508759892  0.4829417541537427
  0.2500419357620342  0.2464147564119779  0.5235753717837449
  0.3436736751453356  0.6150137116997944  0.5125873730679809
  0.9112312942916476  0.3556394539553410  0.4431506517511717
  0.1812813363261357  0.1445376656698733  0.5161041910828582
  0.3939860900306505  0.9582622964439316  0.4730298893702938
  0.4609270124799121  0.2869065081640259  0.5263480906690989
  0.9679650077374072  0.8735688153461327  0.6190073992244348
  0.8021806101684459  0.7022226850834755  0.4810525358646571
  0.8798452596058500  0.7989127577562739  0.4965941710265160
  0.0934294239589776  0.9740379771643505  0.5919245900012593
  0.9720651358191559  0.9526783539833983  0.5547296869179189
  0.0401101070266041  0.0863837389684348  0.5882096751814587
  0.0780390202626906  0.9846565375993687  0.4660488750492806
  0.5365357990678999  0.8080085873256495  0.5610872125827874
  0.7234520111768579  0.9380900259542967  0.6475391843164758
  0.5464375516308508  0.9461667442812446  0.4703623636642215
  0.0509609441968548  0.6249486258677691  0.5299889713274414
  0.0543629885225390  0.7800840662377835  0.5506746725892449
  0.0247272455367242  0.1457728108922837  0.5725175077200844
  0.2881917518129621  0.8791150217187781  0.5121660098255579
  0.4992556578359161  0.3397173466015178  0.5292869781020280
  0.6484688903809174  0.4125843717042901  0.4466521299790350
  0.6187619609546250  0.1444812934592394  0.4920673814928787
  0.6574237461721159  0.6004836706979084  0.4582512449262675
  0.8507210192678936  0.7420555958060479  0.5485308797521438
  0.0863661038280677  0.0939594489180404  0.4819545968068141
  0.4822734184412881  0.1975438962361044  0.4410737344371033
  0.4417889496124270  0.3991472836991651  0.4350672460464880
  0.5887519790779264  0.2471344179745717  0.4660820475284390
  0.4739374513127391  0.6956083323742855  0.6122232227421541
  0.3604774939758012  0.7332175298750029  0.4676598240653076
  0.5037499020051619  0.9108570054665267  0.5786435245350512
  0.5896407205267955  0.7939723723542799  0.5347681354723232
  0.7473521069258796  0.7783617108788595  0.5182516791669635
  0.6092035324231889  0.7927190168281377  0.6368133840180425
  0.5557642240125565  0.6508451802755717  0.4588413140867573
  0.7751636131054553  0.2057840316757765  0.5896850671456224
  0.3752400785976195  0.3501180672471503  0.4854816073234857
  0.5040382948476805  0.0215794259137054  0.4934169347798685
  0.7028300189310320  0.4469506529934674  0.4524719409096791
  0.6138481106743759  0.6738723220022941  0.4658695056678077
  0.5456672387058528  0.4605468198728010  0.4510194661284438
  0.4038232098495901  0.7081664953166281  0.5012423662708054
  0.0563010795321792  0.1947799661617981  0.5768694345444174
  0.8029725703636919  0.8642127511616285  0.5240194864297186
  0.5211439561784087  0.1233952748894610  0.5206498477122795
  0.3845119908792312  0.3101932295944351  0.4402065167754796
  0.0797223586982675  0.8729460203122423  0.5989742157153914
  0.5319631632926788  0.5041914651847533  0.4914969715033027
  0.0823703357366029  0.2554931787585952  0.5247575193511558
  0.0261251049858084  0.0308946937220787  0.6127403963233149
  0.2840411365236735  0.8982817594316562  0.4492728976812572
  0.9661239906789328  0.3878602155085266  0.4525735551361695
  0.6650947636058318  0.0567102276967981  0.5307862201424092
  0.1177725801103038  0.2621785133904725  0.4241040619991017
  0.7193823489055230  0.4365257941220136  0.5119974111916490
  0.6985578453647577  0.7431875990158252  0.5256700591986596
  0.4467954573447497  0.4445505307842119  0.5311086347702118
  0.6433300515070551  0.8276927097740873  0.5382782782598413
  0.6077375344612089  0.0609724943746884  0.5632165191055092
  0.6028772346006499  0.0212230972278727  0.5186293573816406
  0.8604636914116479  0.5417777208532035  0.4838413058480431
  0.5013139805714139  0.5004772403456224  0.4318442591066322
  0.9263006880651631  0.0853913191473915  0.6102689032226559
  0.9618335961816129  0.3017571019214945  0.5831678750338988
  0.5453784001316341  0.4166620855992565  0.4084326964334442
  0.7633828640504454  0.6088462960292498  0.4364983677743000
  0.7571687690127844  0.8736062711824166  0.5682139634786729
  0.8370228159733123  0.7553093342655820  0.4859264799464109
  0.2324291881393608  0.2589447157931385  0.4616365288636948
  0.9228407517886890  0.2533893526541641  0.5759893333748207
  0.6465587841751440  0.8871928183246613  0.5208868693536576
  0.5522547418743674  0.5949387167770041  0.4789532890794042
  0.5969461398438254  0.7326211635447228  0.5379448923070260
  0.8639227191407695  0.9565395647227107  0.5190976513743120
  0.2731784404266984  0.9229679114422734  0.5545693218346082
  0.4442759851416667  0.9150961436966573  0.5569357129804430
  0.1162814613775823  0.9205872271514500  0.6099695704061089
  0.1629431228954801  0.9238507832588903  0.5715276813196342
  0.9308882347613098  0.1703391865609680  0.4802666904527109
  0.7686335517883609  0.0926718281209831  0.6208552041835013
  0.4729222617231055  0.7306448789230100  0.5045239781006909
  0.2029402854251827  0.3620701910081707  0.4840392628064634
  0.7076566400703331  0.6355630655056835  0.4628308605873675
  0.1847287389740752  0.9867251240351852  0.5075407364240333
  0.4283641693236341  0.8069832716189262  0.5236534049457047
  0.1852768918532869  0.4151623103646803  0.4623890477661499
  0.0334856895960477  0.6852397434677010  0.5080086192768164
  0.1213005113874318  0.3031605818758679  0.5266002871219481
  0.1290782986346572  0.2548169290782660  0.4841519923958787
  0.8104031762109496  0.5692085077722168  0.4611569355260563
  0.6505563056815781  0.4765544817658734  0.4285526705736688
  0.1571803896232734  0.8511508065246247  0.4570316735701612
  0.6735194556020808  0.5957443222325493  0.5204291612447326
  0.9722867016405059  0.5554670864460958  0.4604097205690249
  0.6350538917673233  0.7803620858557871  0.4904059148709532
  0.0917414908591288  0.0864181804457829  0.5469014933628278
  0.8502003045493897  0.8509315173511770  0.4872225674816117
  0.9264242801104987  0.0911801314003187  0.5512516806729810
  0.9757606708671989  0.0528155057278467  0.5816404518188789
  0.9761612267104758  0.4902682988563748  0.4805735748832037
  0.7520710201083616  0.2625021314806724  0.5730149086384783
  0.4163469237461115  0.7020014442164842  0.5840872970978506
  0.6940168482757891  0.2713122322003966  0.5507767269782780
  0.1316444506361227  0.5459261477501837  0.4659672665268909
  0.0734031260508596  0.9236564300857674  0.4875870121548809
  0.0172217415909055  0.3117738045428250  0.4355255143726434
  0.0727580475279540  0.3506682532507955  0.4454764911200234
  0.3471625828937193  0.8734710149447102  0.5343822890729165
  0.9871393590113540  0.3621584951195763  0.5254504772673887
  0.4868256959795549  0.2625055236348658  0.4273021030317401
  0.1285276920854767  0.4973117207897651  0.4226753894361054
  0.1530599096207960  0.7850838880195096  0.4667878569811060
  0.9755519511015396  0.5278845287972619  0.5267352457785104
  0.2841524995148091  0.1832823271171202  0.4381908019284705
  0.3330561077931282  0.2182623902173145  0.4446615742135683
  0.5219269511652272  0.2810467532070631  0.5454973455083062
  0.6998557798645830  0.9183188461323706  0.5303959313547909
  0.9143162105024905  0.5334220857815806  0.4467915338233753
  0.3291464203007629  0.7625688250304227  0.5580659957821412
  0.8076871223310479  0.4008501735175165  0.4492364444527690
  0.9970808680868094  0.9700130550248377  0.6715136852570966
  0.1437004290985596  0.0913078559732021  0.5102301545574501
  0.7485573166406454  0.3030357747356319  0.4529889967770763
  0.1413827826598288  0.5209585552328886  0.5250281040082266
  0.2688360607786874  0.6578788818155407  0.5931533648440285
  0.4613940690666015  0.0196153149144835  0.5397398566635565
  0.7478763021996472  0.7318354033313901  0.4778718381715034
  0.1314455737834671  0.0147322178589758  0.4731192469533074
  0.3975629097716450  0.2949868371456317  0.5051061676551113
  0.3157490908809487  0.7442267018444944  0.5028730205291002
  0.0253486785659011  0.4132283006133789  0.5250024162839059
  0.6571120037076809  0.5453624387605049  0.4171448334788925
  0.7051088755122112  0.5084458052262459  0.4376208107605388
  0.0653284803072005  0.7372804867102851  0.5052331670219683
  0.8014620048902168  0.3406583512462927  0.4628278005943765
  0.5698534695672253  0.6980044528532404  0.4973604226116453
  0.6187659171399866  0.7510068040888828  0.5946064132765559
  0.5852974179518706  1.0065097297374712  0.5797755837095298
  0.8044932864123117  0.4222650531047794  0.5586563317857939
  0.2844665937119926  0.6137605880777421  0.5487521020082530
  0.0413658640613613  0.7188494690981361  0.4423881741614444
  0.7012315556788837  0.6918614452785505  0.4967997761716682
  0.9760667674335191  0.2532837274014290  0.5383909954920909
  0.5503004954950507  0.7980210925528196  0.6197988215336314
  0.6626479803496083  0.6599375049564531  0.4330968253006147
  0.7765967300403320  0.0505483953022029  0.5761540071959067
  0.1530095158456911  0.2001272194167402  0.5000904478459816
  0.9969588414381727  0.7882820908230613  0.5296645091070501
  0.0287169416190739  0.2353408116891585  0.5051396538120603
  0.8789591616957418  0.3695297818867731  0.5415619896121934
  0.4523597078721111  0.6111145462540075  0.5559876209461295
  0.0830978442046182  0.4632361716295393  0.4631539007830497
  0.5978344381236140  0.4484764010785577  0.4159734856190898
  0.8903267606532195  0.7889726454387813  0.5561977708893424
  0.3876269627578577  0.3726970771243719  0.4270218009192023
  0.8084203761475897  0.4638227448281659  0.4316580101842324
  0.0915774849367412  0.1050898941661443  0.4188937202268055
  0.7663763400962669  0.4743464465228084  0.5257006790454596
  0.9207108490416120  0.6873203422802215  0.5267419203768963
  0.9045739837934419  0.2895194658279482  0.4552115704191753
  0.3862636184251819  0.8942618607014854  0.4832254261311125
  0.2048564990940594  0.9294755744798746  0.5301730218221219
  0.0830704101133753  0.2081454007844294  0.4859710685894325
  0.3297686827911198  0.2791575718303563  0.4296373582073336
  0.8650377417606501  0.5620535784114660  0.4238224386608090
  0.4629267281893748  0.1347415922382462  0.5001477334463316
  0.4016421056061790  0.0251406086967596  0.5182373871447035
  0.2493739430750366  0.8258227815383467  0.5140999471342406
  0.3793492505402764  0.8339972227064719  0.4997417561401978
  0.1236531984797872  0.7260692908235004  0.5322051583421095
  0.8007834067432830  0.2615943880176427  0.5357219924108616
  0.6141760818069955  0.0828038645477898  0.5054045881062622
  0.6698496237393942  0.1175117020586537  0.5192070315573526
  0.3355630793623287  0.3415278637222708  0.4171749576981658
  0.1319735261747640  0.5625058387985715  0.5689706745753479
  0.6223035000487696  0.1693325985211557  0.5471307937321249
  0.4046652195261511  0.8632227112770132  0.5585198751943375
  0.2480449213130512  0.6601528312862518  0.5295681132335492
  0.2859199217154370  0.1438175218498066  0.4944081833510753
  0.0649696053823781  0.2666561434823822  0.4620393378907893
  0.3966314404841565  0.5947807181601464  0.5369864716127538
  0.9370483028456025  0.9738094016348394  0.6496355104463134
  0.7096050190158331  0.5783592483679069  0.4238479808462474
  0.6193759902320041  0.8944692426992710  0.6236021328232629
  0.5449139623377247  0.9263402985735524  0.5306337241412724
  0.7065069200706653  0.8454929962439000  0.6016733560619193
  0.2779817110185755  0.2467739338255260  0.4235521386587360
  0.0742557917197755  0.4069134296275762  0.4863462366477467
  0.2391798326413637  0.0331297986591029  0.4532494290065132
  0.2627301952651644  0.4619693844870662  0.5238774534746782
  0.0752110898228712  0.5217050646057696  0.4479001348678511
  0.4939159234005103  0.3062100638286868  0.4771002624428934
  0.6910085435099553  0.8070990088992477  0.5012026181368953
  0.8823166534985569  0.6371740047667700  0.5225343827371985
  0.3353424103860195  0.1544723685863766  0.4597600932270828
  0.9900029348134403  0.0836143818550130  0.6305586557100858
  0.8268416482582556  0.1551159424273403  0.5040225982509199
  0.5969923322537527  0.2290064452505442  0.5284825484791269
  0.4950538293120967  0.4582325301211962  0.4916471344584827
  0.6740163745668094  0.0437586357913847  0.6488747875300109
  0.7425846518666541  0.2731522440642152  0.5105711170431135
  0.4493551073265390  0.6791863832242340  0.5350792613537130
  0.2004335753981417  0.8669680849139622  0.5023860641639727
  0.3444286579002997  0.0365883030353554  0.4935745292124590
  0.4915983476288222  0.8975466138821325  0.5193781134344655
  0.5736157248577144  0.5461227289602284  0.4999740200376789
  0.4129875862128545  0.3975831876989195  0.4901906848627112
  0.0600760906378131  0.3118424027855784  0.5017604622339740
  0.4425232270897809  0.1936643720493321  0.4863704900830744
  0.4570513010959587  0.5640348170806266  0.5144140986561829
  0.2547425401761843  0.0849400696269062  0.4193899623278861
  0.7938568056339889  0.2675481184506225  0.4749560839356785
  0.5694099791681086  0.1776392333721923  0.4637190791274871
  0.8102456805259307  0.9085534468244686  0.5696085040433182
  0.5110354177912066  0.5959987198521052  0.5798819304267229
  0.2014901293668365  0.0869377302732127  0.5312268885693321
  0.9838453808985099  0.1390126327842552  0.5070631127370749
  0.2299425058491451  0.6086341371220972  0.5898074859874217
  0.8260445179985533  0.2070021676959392  0.5489146034812963
  0.8350852601094652  0.1988557012185064  0.6116393394973110
  0.1944566331292311  0.0593297017508717  0.4185881290152528
  0.0264223812545933  0.9983550397927891  0.5022415931886048
  0.4905441492264593  0.7200406741526092  0.5611906040467695
  0.7089070596003867  0.9086656983844046  0.5909033196235547
  0.8997619662887058  0.1383467134428203  0.5902369353611763
  0.3427330650523320  0.6016109491636976  0.5740607883626843
  0.9073722598259633  0.4219104224155916  0.4878303114099275
  0.3039488164585400  0.5097743154087048  0.5262228813808116