 C Cr Ni 
 1.0000000000000000
    21.1200000000000010    0.0000000000000000    0.0000000000000000
     0.0000000000000000   21.1200000000000010    0.0000000000000000
     0.0000000000000000    0.0000000000000000   21.1200000000000010
 C   Cr  Ni 
 173 259 605
Direct
  0.6541037372918465  0.4142072184746430  0.3326295366520244
  0.0015540617179269  0.9169051385373267  0.4976770678131617
  0.2382490104005580  0.7621210202562774  0.7470849056581748
  0.2417619253626554  0.1598240668156117  0.8455723775697914
  0.8300177916852874  0.0768221593041664  0.4911591994308630
  0.4875238811758041  0.6554313852792435  0.2408590453099869
  0.0003188974940828  0.2238557321867460  0.6607335733029960
  0.2136042595992701  0.8721019156622397  0.6603838865508141
  0.6534810290136992  0.9959265606925912  0.9185868157943941
  0.7343316991052106  0.1484621898466978  0.6778316288889632
  0.5395035284604665  0.3909462441208006  0.2593020600114629
  0.9212232925435843  0.0912688760398855  0.7458151105763063
  0.7264411705333774  0.0583124800219941  0.5848459508814319
  0.4034485954552435  0.3266879125398383  0.1863642684419964
  0.0955804417056092  0.5100637310603618  0.0033470970419250
  0.2402111388162741  0.7631342407849827  0.5750720726235399
  0.4207648831086953  0.3452003171888230  0.8419009045252420
  0.2641128509707537  0.8196053617753604  0.0091556008456196
  0.8333375489158927  0.2442775546215408  0.3385402771158338
  0.5787284349937085  0.1684560173137195  0.3384807789247171
  0.3954928179991492  0.1496515365169709  0.5068309862804798
  0.0032145823423570  0.4081059099154246  0.3476669373380575
  0.5024777393735226  0.7561853722797255  0.4939387947952902
  0.0893372897475305  0.5020968151600137  0.3363807658370581
  0.9085256199309225  0.9169784572448764  0.5904170463810122
  0.7511701789604872  0.8351220794414288  0.5025185706276118
  0.8288866929464161  0.2451557296675524  0.6704103580096139
  0.3271576493548496  0.7586610379753429  0.8424285505616703
  0.0007637977893259  0.9891093523354629  0.7542220016542144
  0.0767898407086021  0.6725298366475440  0.3349373360612308
  0.9179157810336843  0.5006856900984423  0.9887334948319603
  0.4185955123630615  0.8426536970784752  0.1645293341500147
  0.5677163928782224  0.9211767580986868  0.4280864762115084
  0.3264562810892432  0.6675889674747033  0.0772350627387284
  0.6818267790080380  0.1720851168166830  0.0976341745910154
  0.0035375431437394  0.8915421885499872  0.0178140298695877
  0.7369169301373167  0.5065938492518361  0.1664454704325409
  0.8239288407500431  0.9067216835212953  0.8268666773452051
  0.3363536056155687  0.4408120482092783  0.8621846531796363
  0.2376166872387641  0.3493304442675872  0.8360128241772490
  0.4870231085480514  0.0080563588208388  0.5650649518368935
  0.6740209976827909  0.7383248871911376  0.3360329878800998
  0.2356830790883732  0.5522991997536698  0.9174835420554225
  0.2311501402848030  0.5767642806394973  0.0980438504121206
  0.9031541675738451  0.5855454482517152  0.5717189600634325
  0.6699609539275244  0.4216280959056078  0.5114500256721664
  0.2525179113211242  0.5754102032760814  0.5924397559657620
  0.5814110448519868  0.1790880900144346  0.9938783409422238
  0.5017507453922992  0.0808520471835533  0.8506495136803667
  0.0032021197485643  0.4842444937445629  0.5671643719289932
  0.7585333633933746  0.0037415407553285  0.3336101589452283
  0.2586274761139735  0.9173016327977966  0.0982703329271359
  0.8497451221354206  0.3180404772393405  0.0654756335480188
  0.0849155215384124  0.4100279325065484  0.7338041614718553
  0.2424676992842719  0.6665875057489221  0.8358300004079718
  0.2554252581040061  0.4110381786754442  0.4027522743177063
  0.6567902059234170  0.2443494879964107  0.8313326979501722
  0.6616562891818659  0.5868419804364804  0.9956078516105854
  0.9846756958445662  0.4958123951607248  0.7482291128924361
  0.9988495935234314  0.9959007654645446  0.2532386756985917
  0.5752369987344658  0.6540334533284965  0.3376692501863768
  0.5133228524869620  0.3540297668176700  0.7325376200067486
  0.4066748305891202  0.2387072273935246  0.0840946190026479
  0.2445005313771330  0.9983435497137210  0.3343845994941496
  0.6593999029039262  0.3370059193261624  0.9214513408922700
  0.3197501661333043  0.4279550520436863  0.1782820852386905
  0.5944630243001416  0.0941152599353590  0.7548443916031660
  0.4132360979059773  0.0064385802268504  0.9968709174351363
  0.2524087441540318  0.1677605973904876  0.0227961236214085
  0.1381523771369129  0.3176397184338663  0.4286236602275784
  0.5765841170924000  0.8304974764776903  0.3350091247703006
  0.1662882469692644  0.4286512920590965  0.5079983928693094
  0.0802185152007840  0.0777555124927520  0.4168985128470846
  0.7552607651325353  0.8281237127703553  0.1641918468801877
  0.4345674940467299  0.9351144890591604  0.7360343772268235
  0.5825858496845143  0.0844235036168724  0.0883796353519830
  0.1689015356421109  0.9211718207309366  0.0040800582629157
  0.6681776284498914  0.9174993633654521  0.3361832810800581
  0.5098611125142272  0.3476831923243710  0.1179595560057610
  0.0620865042812898  0.6747679325634742  0.8404370169893446
  0.3385588731558408  0.8433753635918338  0.7415271713237301
  0.8286487628505033  0.6645802950499892  0.2448062803752534
  0.3319395996942470  0.3430965866545959  0.7425775599103609
  0.3192809934854950  0.9955066421601430  0.6004680154383162
  0.1691021959830347  0.2771402447242149  0.6558943776855329
  0.0076472375043622  0.1573111297242379  0.9143982759300794
  0.5098649530917752  0.3486537449210702  0.4011834276879916
  0.4234164255166139  0.6770440276574303  0.8318930276906981
  0.4933154919039882  0.0891972778772734  0.6699410617788603
  0.2392896657695317  0.5531909009818692  0.4087678625029110
  0.9169355435796960  0.5051331567572176  0.1727088799524381
  0.4979002002896166  0.6546761477841172  0.7560301528601229
  0.0008631103550340  0.2621741790442884  0.0067587152367931
  0.5814559015537007  0.9966007211030492  0.6641071094903677
  0.9154235633104651  0.0033832466207211  0.0067609339416281
  0.2557495267332158  0.2616504152177088  0.9336973721584312
  0.6653508146900263  0.8321798734284011  0.0780242509752210
  0.0121286726254030  0.5754369774258161  0.6584424524943783
  0.3464505215301394  0.0994672199095582  0.4858896998134258
  0.0765246980254013  0.2445191701433627  0.2519865843975262
  0.5899582938660204  0.8430070296381752  0.8187716242610257
  0.1589919019144015  0.3386815264590517  0.0851578213388673
  0.2635887756283257  0.0693238500548530  0.7401664997238171
  0.8163720789683475  0.0048482062049953  0.7309897401643780
  0.5859043183889538  0.7441791622800491  0.9172327807911185
  0.5810088722453388  0.7422391654920889  0.2395101956065174
  0.7424621043553884  0.3206848873641832  0.1602866082796276
  0.4139058421281176  0.4221889067414066  0.0895685113065006
  0.0769087614178807  0.4062439807579662  0.9190103473350386
  0.7419474425466416  0.4960308256276916  0.6689553053340782
  0.0993761059817124  0.0836871795764487  0.7818827821905011
  0.5773410218613967  0.9228388486830272  0.2445021478148545
  0.8252174295037149  0.0000796327022882  0.9174567232635786
  0.2401196502889707  0.6700275270955720  0.4934582763353045
  0.1034841701676590  0.5029394654575500  0.8194099935285968
  0.3262526009512773  0.2828639026586747  0.3115194015907263
  0.8181768814412280  0.9008241724662482  0.0132530472446529
  0.1709626829636057  0.6632301208205557  0.2409740566085891
  0.3218901598190340  0.4167864139641744  0.9914651441790956
  0.6464420453572487  0.4096082683853680  0.1592509902176706
  0.2456020753168044  0.2509722411188701  0.7477851297638636
  0.2563274343037574  0.9196952796036182  0.9171730110400811
  0.9094063283728083  0.7434671932977281  0.7467533677497941
  0.2361780073746415  0.0771148256005686  0.5813341006233084
  0.4105421572750762  0.3388129072216752  0.4894972025819627
  0.3443503755204291  0.1671874159123015  0.9350348073538103
  0.0057696472571940  0.8165034917972175  0.9087243383744841
  0.6697707681756550  0.0068898882914175  0.4305629705918968
  0.7451090647573331  0.2419422328919011  0.2506321908597151
  0.8325361815415877  0.3343691864598259  0.2510182878595588
  0.4137448956575335  0.5788384418272611  0.9121928034445513
  0.1566560867499538  0.8291776478199469  0.0916744199575436
  0.3350624889942238  0.5671148118679562  0.3312704839010712
  0.3116072025780701  0.3387451540873971  0.5664799372688996
  0.1823837199144393  0.9233506302381883  0.5191264855252729
  0.4048877779117809  0.6715471660783479  0.6594271068447528
  0.7919439574626568  0.9031007552584784  0.6425256456019858
  0.3233615010522751  0.7484613861434721  0.3284141619520483
  0.0729759197001488  0.0269079407114801  0.0166701088332710
  0.0831329804963919  0.1764144479903080  0.5164544287253054
  0.7424717613465812  0.4133267807820238  0.0684427790581519
  0.1374759774637515  0.3219759656481285  0.6093022300636542
  0.1482508130512650  0.2465347575841216  0.8453487152656429
  0.7516019763019608  0.2433708535067272  0.9181656744981272
  0.1085583542040344  0.9826462548990359  0.6610625090012640
  0.1609383297833230  0.9326685182590585  0.8110806679305533
  0.9140422288673841  0.9073560273112118  0.9162337900525956
  0.3072020221365940  0.7681813986038351  0.1478384554278991
  0.8149022273384531  0.4845833089740508  0.5646396143457669
  0.9919573571989718  0.0881728899294233  0.1541207684835383
  0.5733690164902235  0.4250647569627051  0.9092395485509168
  0.5963734538968526  0.2683675366063255  0.1040230721628833
  0.7450550389286377  0.6636472377766343  0.4915559085981621
  0.8342223110997320  0.3427936748916254  0.4299726838661405
  0.2587355139402877  0.2408648017699770  0.4347892566071764
  0.0962754930635974  0.4947606292906779  0.1720366111358342
  0.4191134188068977  0.5071779941112017  0.5021158724011230
  0.3396945391172729  0.9321842453092206  0.8358806944452950
  0.4246807958521754  0.2360023666267464  0.4013172794744690
  0.8325777728965037  0.4136524478336979  0.1668085836699519
  0.1621520586584013  0.3675416118890966  0.2648790079705842
  0.8315995618704204  0.5055082307453359  0.0772155644575838
  0.0006215821884412  0.8252474984968946  0.4079974977388731
  0.3370202887709380  0.2535957256974690  0.8348842713959960
  0.5866115965397763  0.6624498247104829  0.6637695474462789
  0.5770119239920624  0.5748763875217386  0.5766567265191873
  0.1618749927628056  0.0146042903238747  0.9199028529671325
  0.4221358016988694  0.5122599396774197  0.2020201960762018
  0.9013493862740990  0.1795765205915638  0.0169626666548535
  0.0904664366000063  0.8215471414812215  0.5068559992515849
  0.5004459733452404  0.7682388939283346  0.6814601358836783
  0.4182497846405074  0.7531603875272236  0.0736952131764888
  0.1550361558742098  0.6498966413315977  0.7383268080983734
  0.6701887019125151  0.7480646471483258  0.2444574542373880
  0.8253415721656254  0.2384474693379757  0.5802440576911533
  0.8334984752815414  0.3245624947964990  0.1601711427904664
  0.2490814904087658  0.2373476232679343  0.6607639904267033
  0.4971859436421874  0.7559838782722732  0.5846572463016300
  0.3905293991793725  0.3380680327145258  0.2732347800063089
  0.5826429121496656  0.0861328645928520  0.6656419974781546
  0.4085890376094566  0.7538010477280894  0.1614325059666530
  0.4967684905377621  0.6721917911407185  0.6685118586765718
  0.4038138629362015  0.4924352612587414  0.9141412674960779
  0.8343059835322758  0.4130385539363254  0.0758944341274954
  0.5811435401219860  0.4227980540468864  0.8220632756429416
  0.3399126691593773  0.9303964348243918  0.7485837575932415
  0.9937826205400132  0.1714283726935321  0.0055825006882588
  0.0028486638833502  0.9057145360110728  0.9201888142991836
  0.0571284458547916  0.1658931440399607  0.6057060740105181
  0.1558266844271137  0.0201196013850454  0.8333535959013937
  0.9917038718523981  0.1686486922277979  0.4993712176435459
  0.0780562940817515  0.2623020796237557  0.4825861298532795
  0.0766292794154032  0.1676611521269393  0.4176813010848120
  0.0575514179655042  0.3523746213180501  0.4127682304191816
  0.9106117048437531  0.9982629045578618  0.7515329456168921
  0.0719965168994316  0.0855452030269402  0.5045474900820049
  0.9966519870511474  0.9138544648468048  0.4099134317672055
  0.1695080759871668  0.1658411090438854  0.4878100962910413
  0.9890505705609000  0.0827098780559078  0.4136509046079391
  0.0070147132381503  0.0757246023563390  0.7631239800807798
  0.7477436037464499  0.2315294411958642  0.1608530797483569
  0.6731121390999869  0.0818147756215173  0.0857331055262556
  0.0776832775760175  0.5177075649098370  0.6028161784426390
  0.9877990311905915  0.6656619681825595  0.3296038393393205
  0.3318187893239145  0.6690021289062786  0.8370865496558437
  0.1520199259961822  0.7418524740007091  0.0830346780687948
  0.7486158779422321  0.9196294452809053  0.1681781230791957
  0.6676813519050124  0.9172143727756952  0.2462985795223603
  0.5025250717380469  0.1726704140600907  0.8354712033037675
  0.5898871964383828  0.1742674510029609  0.0867510704071374
  0.5740780073531253  0.4104664299337759  0.6713392097629099
  0.9079333806006862  0.5814810597825867  0.6620017475136341
  0.5592428604325362  0.4122349633435507  0.1717131256282450
  0.2521077697295838  0.0095924667397084  0.9208729061126628
  0.2457061862901178  0.2428995863474892  0.3294607728058924
  0.1643187707222685  0.9191264055290096  0.4165928712551193
  0.1669911857785623  0.2342040529338742  0.4117133640799664
  0.2430138570735829  0.3394956538759218  0.7445960743422592
  0.9914252380233229  0.5834540734389267  0.5726465318971355
  0.3242392360185415  0.5807829374912791  0.0878599577856919
  0.2468166621973800  0.3257528802300363  0.2606789115310135
  0.5820626019626339  0.9959586778789501  0.0836625582777752
  0.5785957779615118  0.9181538782042701  0.3358963632510019
  0.8295182497594560  0.5027025581291771  0.9888469365911449
  0.4157844907425230  0.5823183148302707  0.0026612370835503
  0.4155653820487404  0.6678763973979900  0.9212508284409242
  0.4160975485778089  0.4315818340697657  0.8217414010008002
  0.7590039067915607  0.4201169649326974  0.5020453198983456
  0.8306223974572698  0.4958150381248352  0.6612227896634478
  0.9894259749748753  0.4089249734682448  0.7473280502984400
  0.4081510239457864  0.3317717384378637  0.5791815674286096
  0.4271560292614831  0.2537510734086743  0.8320353377657402
  0.3301576702799418  0.3416164761300337  0.8286438553556361
  0.3298260785819619  0.5154753145870520  0.1730656802556720
  0.4903725768153557  0.7435034942966716  0.7665408931794302
  0.5035761807781239  0.8380443812567944  0.9960066844054555
  0.4197029297282786  0.3291863995379801  0.4025448693746356
  0.9947503857045664  0.5000331903435290  0.3390123638512741
  0.4271925730887254  0.8384964555458502  0.7454389257925882
  0.7459310714175148  0.4062112734633204  0.6694463967441361
  0.7446020776451281  0.3347837700851634  0.7523840918317625
  0.4141627322519680  0.2432896605782926  0.4918455579973637
  0.9205133812089907  0.2442252766649917  0.3326247170390870
  0.6648332102076151  0.4246352038329602  0.9093929951366794
  0.7498063966995857  0.1551321703310852  0.2531719362086927
  0.5032152939566668  0.0906972233615436  0.7575456223137720
  0.5029624936171267  0.2549595611102576  0.0966238925007017
  0.5816808334597553  0.8349220919402385  0.9168687037558994
  0.4081512387547120  0.4221702259882124  0.1782552740720597
  0.4920186935933262  0.4388281421065993  0.7441371073558174
  0.4184189071407985  0.9291529945149610  0.1662070508504446
  0.9152528093310150  0.4117375497179079  0.9983098317718444
  0.6495088134556194  0.5007899722254717  0.1649067379606617
  0.3254787301766235  0.7602235835275247  0.2411840044744360
  0.2775055388399640  0.4702521502118127  0.9241624113922653
  0.6747659790313933  0.8210886728664882  0.8358664789249391
  0.7467325316331789  0.6659727539075819  0.5828797320842788
  0.2451462786306393  0.6719881603852489  0.5820821292166931
  0.4328574554682568  0.0663115774413460  0.5024488881730625
  0.2447092392912527  0.8509703948147146  0.5764792350203187
  0.9132962046909107  0.9101393164037588  0.4947001354202914
  0.8253679343097744  0.9969325932390916  0.8271402766434675
  0.6685357105215913  0.0047801629804425  0.5192986974632077
  0.7397574099547143  0.4129086900895864  0.1596721318798839
  0.6539179066216504  0.3210495013372659  0.1646395554701440
  0.8329855397845042  0.1624178276701205  0.1707527468190858
  0.7439542601592809  0.3313766904508489  0.2511280190405395
  0.0917797471646229  0.4166643966053563  0.3254504031634384
  0.7146005015064342  0.9124371684520788  0.6806058605737917
  0.7415136083186592  0.2445298082225374  0.6673965369279946
  0.9903863631296176  0.2523208527190440  0.9148964388115202
  0.0796760049987355  0.7468280421466461  0.0010794758052782
  0.9153204586698261  0.6667034521296582  0.0832251347474185
  0.9902497451273767  0.5838899879270332  0.7456612313096692
  0.0795823200421239  0.4986337006585155  0.9126437357696253
  0.6672868333506757  0.8292637815377626  0.3319101733291593
  0.8305191258376431  0.8251466265029036  0.6650445652610488
  0.1660815589016934  0.9175395005818945  0.0932001054206334
  0.9970647739144500  0.8280549718225316  0.1689167300439390
  0.1569030398280252  0.8319571334696584  0.1807751245784198
  0.1644669168155752  0.9220579816196355  0.9118995414286233
  0.7662678095605175  0.0613611667548705  0.6701286883717245
  0.6802648094528984  0.0902599975168795  0.7359635700634747
  0.2438662446402139  0.8306908219425206  0.9183467989194103
  0.0752332400700838  0.4160981805733999  0.8281512200872897
  0.1659517927219593  0.8303842544390126  0.0013596752119853
  0.8298380627993870  0.9981226887468200  0.1699160865508625
  0.7471161864585766  0.2517657677810234  0.8304019067457703
  0.8275397520034908  0.6654892826299470  0.9967844871515795
  0.5018169325573250  0.0933396087766415  0.5820664620094025
  0.2563665999347251  0.1731264542258077  0.9338262441967410
  0.7486926812812287  0.9971070351348287  0.0871147568931925
  0.9094140615268655  0.9949112997051165  0.2509358484067657
  0.0727718121864197  0.4997735783796839  0.7334482158138834
  0.9123586490777537  0.9083085663042403  0.0059176001326817
  0.0968111652998126  0.5982470385160045  0.6777415075622578
  0.6701558598408064  0.0090238556475274  0.6519893769717702
  0.0645586621825723  0.4276408186480153  0.5127409051437816
  0.7444341292860793  0.2447048974395453  0.3402815106083270
  0.2490396873125031  0.8495139443691470  0.7404190027298534
  0.2405086190514199  0.6592292065487583  0.9227391686276911
  0.4711979541819291  0.4430601017274188  0.2577243673892927
  0.9986849893079350  0.8258351414622966  0.4987740969675977
  0.2402781389800268  0.7562012198004913  0.8360040945757499
  0.3123317474674151  0.1873928429338479  0.4917687116485833
  0.7444177352609240  0.4180929636761872  0.3316736803616404
  0.8163737000864865  0.5785615759075958  0.5771859400214043
  0.9059193911618619  0.4944386718091033  0.5698649778357859
  0.4932002882523340  0.8442174201827112  0.4956865921281098
  0.9743349118232681  0.4923243303393912  0.6568990072397111
  0.3256655631131951  0.4206070962734508  0.0867132651642588
  0.3411677321159328  0.1796452696677475  0.0236482712878567
  0.9196262424079246  0.5024150633295280  0.0810968505695937
  0.4109227322536451  0.9176115068372013  0.3277563292074191
  0.5010312609515766  0.4281869336073924  0.0796015528853027
  0.3316756725562894  0.7525623151221411  0.4160778331206916
  0.2982561796080431  0.4863989361915912  0.3600629152598745
  0.2475071276462180  0.8261527665666504  0.0972367225305791
  0.2444216811423021  0.5827152979621016  0.5000852661660912
  0.4068604807274532  0.1495463817988515  0.4149821473698562
  0.9135098448946584  0.1679372781651435  0.9188201083948274
  0.0072745387216442  0.0777095348739186  0.0672492572625687
  0.3299616348712455  0.0784348166787490  0.2450091839636221
  0.2447111004456178  0.0806283210617286  0.1710045979118190
  0.1379160923727008  0.2321162680053585  0.5735650636642384
  0.0836156663749436  0.0828817261502919  0.1670235406066758
  0.9121924795059865  0.9115671598008543  0.8272766642629455
  0.9962174363080448  0.9134182957701390  0.5855322441936390
  0.0901552086325895  0.9137125135429242  0.5042734309904993
  0.0930705312577285  0.8327024521666896  0.9191462012788881
  0.0673582701163428  0.8348524665572893  0.0816141777357736
  0.9925347990718602  0.8083643367006458  0.9972138691252829
  0.1618049565315937  0.0095175927885150  0.0076150764613328
  0.3277375078561473  0.2467520686686895  0.5843059966725692
  0.3298274712456652  0.0887200417751373  0.5775242511708920
  0.4875514042632003  0.8313331646483382  0.3287847515179841
  0.3348948675164126  0.1671690140555201  0.8444368423916750
  0.2307055336402750  0.3303332538934816  0.6087682227435001
  0.0674195370142013  0.6695722070250308  0.7511893670993838
  0.1527946409400455  0.1581024234674206  0.8233471812822165
  0.9876716123352004  0.2491429684963339  0.7484157403851283
  0.0782341398337510  0.8311605161536496  0.2500978898306962
  0.9199639003678363  0.0833850739981269  0.4971022104695166
  0.7503524431348564  0.9997662519932495  0.2449678579485199
  0.9100934950370063  0.8279065741053493  0.4129286999418104
  0.9904225338234881  0.2481020037407381  0.5738659720380568
  0.2427751763548263  0.2531758115697777  0.8392569866947651
  0.1491478581612951  0.3389538633337292  0.5157854887221787
  0.1537670136123587  0.4109137317895278  0.4202609897226048
  0.2422707795253764  0.6724984630810690  0.7481451593677184
  0.1534288448821075  0.6643586270927238  0.8324785971470476
  0.7440615124511977  0.5042318843957169  0.0770634017575678
  0.4887369341546877  0.6665435095130061  0.3325035058087735
  0.7488777977174935  0.3370226929106824  0.9096441849798315
  0.4828508451022632  0.5671623746506924  0.2532478134988340
  0.6633959707100541  0.8291348095499153  0.9906059721449597
  0.6605251661737045  0.5051484821626299  0.3322185706091428
  0.3257628603612044  0.3094113831252981  0.4841056019141266
  0.3313748602570374  0.3369442656215375  0.6567963416617575
  0.8344609485782231  0.2442269954509684  0.2489305886866715
  0.4210676422461986  0.3409910849587566  0.7452052407986450
  0.8281350198836337  0.5012776209619169  0.1653498410744271
  0.3436738211713998  0.2600536017271404  0.9245229382508704
  0.7443850407540765  0.5791429490550897  0.3302037140914292
  0.3349764597156143  0.2515051951853682  0.7454467658105088
  0.9968418361298411  0.4161406468159968  0.2532600471684422
  0.4103727939577081  0.7605545274275923  0.6620603600826906
  0.0802969615845228  0.2615478796821505  0.6664645673153619
  0.5820019845114124  0.0088081798431492  0.2548494077092678
  0.8288325480984003  0.2494395701616523  0.4249849510770000
  0.4147550052836100  0.5943645583681526  0.4967291305087865
  0.8466420681646927  0.9783896312311887  0.6497788332512487
  0.9976724972897272  0.0846562103825280  0.2488908590812796
  0.4116295891678738  0.7540124679971570  0.4963008701910367
  0.3265082221579277  0.6771234422685025  0.1650207026600816
  0.9124076791959728  0.9962460887769091  0.9173961476154310
  0.9116199238126951  0.2667201058740181  0.9994124312360748
  0.8442233203830324  0.2305062195120134  0.0819175303689363
  0.4197224296770188  0.3313981105304702  0.0981422136397859
  0.7554983765766277  0.8367224341016973  0.0747455675812555
  0.6673353343243084  0.3295948409593741  0.5038806223275462
  0.7442712416851618  0.5773886234516733  0.4942285410303881
  0.6610383624040899  0.9178218650130158  0.4250501167495037
  0.5659876422002530  0.4148255839075860  0.3437306607067339
  0.0640185684957807  0.0953148108556195  0.8620602922315469
  0.5832442897626401  0.7437099258482319  0.3298310581901315
  0.5767933274274132  0.6543987898341054  0.2458788405583240
  0.5014530850347180  0.3349090011446169  0.4964407796768430
  0.7466304753787805  0.4164533026204238  0.8306255259648787
  0.4915002959374043  0.9968133195719323  0.6676655934112984
  0.7562456677371711  0.9141007516134235  0.3333077687079006
  0.5801800674837015  0.8323558695801464  0.2442382542333264
  0.3195073351753022  0.5136699351801838  0.6555093306277651
  0.8248575577754476  0.9094496000361264  0.9181847402615413
  0.4154843322188579  0.6773273355394267  0.5732449131439549
  0.8284090454809790  0.1566077465278590  0.6659580491863518
  0.3294430582736504  0.7544282536933896  0.0628407101565298
  0.7490371955477584  0.5851137021302851  0.8295987999937126
  0.7448255252664489  0.8324489300994442  0.5931345976120073
  0.4906779384951880  0.3290436626633459  0.2026311955105931
  0.2556459992378708  0.9134247283516127  0.0064175690666127
  0.6660536358011819  0.4183625912128172  0.4202892211375135
  0.9934583120640746  0.7445484808532228  0.5809636397778887
  0.3262022134974810  0.5852480959031096  0.4210647174753401
  0.3306195442618053  0.7567667553422663  0.7490972979888917
  0.7419680320781663  0.1596104821379217  0.5855847587678126
  0.6609662283305439  0.2494607270406497  0.9206614307931130
  0.9094665247780308  0.6672336016704244  0.4104929287840372
  0.8207354234336061  0.9108734922772702  0.7374536286816848
  0.9128705304956958  0.8186684683233371  0.9117961615958213
  0.1560626341916218  0.2483528138222894  0.7476218617440255
  0.2500994491575087  0.0744749080350013  0.8307709271410776
  0.5838722082738768  0.0877736168512318  0.0003768904557386
  0.5862486510276642  0.7494232393006039  0.8289404936895499
  0.1622559964459837  0.3384279528646305  0.1765898042037413
  0.1540746898699635  0.9182172103014493  0.6039997915992696
  0.5902039960364728  0.9096164712642025  0.6644928134433534
  0.4148692985818502  0.7642592184706989  0.8406531788318876
  0.0773161708857826  0.6635519835141802  0.2459586270415536
  0.5850189471367605  0.5816478744907939  0.8296119992397825
  0.5692770360523157  0.2531576881694363  0.8364997647034267
  0.7470506429055156  0.6622649054013366  0.7493443605545734
  0.6635586955442325  0.8240494938480827  0.6671070259192312
  0.6662385060179381  0.8325965644425475  0.1675624605761912
  0.6470314972822923  0.9002966392566993  0.7627540100558218
  0.8260456821337603  0.9943717459014753  0.0072101437300827
  0.5769387586694064  0.0004627674010936  0.5752859191400427
  0.6681784605405484  0.0052777677890625  0.3379319178841311
  0.8318149365421545  0.7533332736987839  0.2464565066906894
  0.4964281282625985  0.0779969775357880  0.2518986696397503
  0.6456238880375125  0.0959797953769388  0.5773277256396826
  0.4142817159628410  0.2423713260501408  0.3135818425452604
  0.5821817411183727  0.5103037804115094  0.9139918989121619
  0.4943009652603055  0.5039507166497306  0.9967943945689349
  0.4974975110060952  0.5867024920602056  0.0797034747165575
  0.5781373137291675  0.5055620020447699  0.0790550804446286
  0.5812337268722404  0.6659643761255055  0.0803034721008319
  0.4926919146547296  0.3304618375616957  0.6524513011575076
  0.6572842472597102  0.4957053271991477  0.6699800653119043
  0.5742462407512956  0.4977981232646750  0.2512520902058393
  0.0763571325536007  0.7573015921456832  0.3356093625765438
  0.0777468240671679  0.7469143637693318  0.1685108202432566
  0.1534651248513081  0.6560745522486767  0.1563667862622060
  0.5053157898944467  0.5054378875760019  0.5075388843775691
  0.4991885209729954  0.6694637561194207  0.4977297983810420
  0.9920417699686609  0.7406224740438287  0.4134122726726916
  0.4882020243910635  0.4216787535446933  0.9152987591571652
  0.0757361899056580  0.6652696566231869  0.4193627292939236
  0.5818847488603612  0.5774871046223506  0.6649202117772078
  0.0747945717728857  0.6641760914026625  0.5825955948717635
  0.0726826858599028  0.7388378526597303  0.4975063184423308
  0.5717612238937733  0.3355403803336910  0.9182329014446692
  0.9919055182107691  0.6637918354746241  0.6625697515644065
  0.9945991113463850  0.7478058721595590  0.7496145252981479
  0.9802672511734492  0.6586580236234171  0.8283406457158445
  0.6657966426968301  0.2480170877281207  0.4202156130777716
  0.3313151277675436  0.9995460267502562  0.3281802404092526
  0.4127076637774734  0.0788204815670533  0.3288412855506117
  0.5914607958282180  0.3275466352455957  0.7502270905359095
  0.5066751886016321  0.3456302527072217  0.8239457621040404
  0.5835794042767304  0.5015042135056798  0.7490725457055715
  0.6656277270765062  0.0015848533358548  0.1678735532819959
  0.5156637487459741  0.2377880217993262  0.9304489216092651
  0.5000085934748073  0.2584115672589199  0.7445495635193204
  0.5779462534332283  0.2556308431306806  0.6613615924419799
  0.5809870066632018  0.4158372542648128  0.4990157790906758
  0.5903697337311693  0.1616395623231967  0.9101811863616475
  0.4988670032037602  0.5714214908674029  0.7442073072216631
  0.0730664545478657  0.6639944208744678  0.0813428603422254
  0.0019988679541934  0.4987490474902233  0.9971707320486395
  0.4166477821135976  0.4206359441177276  0.0037676956773554
  0.5868674953169254  0.3502915611625158  0.0777993608747371
  0.5785447412894743  0.4257001985026257  0.9958780110822062
  0.3820885212538021  0.5075651069341309  0.2821389750211275
  0.5927748964874379  0.3254356572065348  0.2558240432334625
  0.4947476947219814  0.3294473340133395  0.3163613114908150
  0.4997699722114774  0.5042859774696554  0.8356647247767005
  0.5011300234553032  0.5833617205405159  0.9176600631610896
  0.6679683337579180  0.5827173982744597  0.9085436645744778
  0.5012440507323869  0.5062610437031334  0.1610336827105925
  0.5729265961930881  0.5710737596519836  0.3322756268154590
  0.5787575967271608  0.5003282073961078  0.4181995423268733
  0.4906680224786730  0.5019930191377914  0.3451332337942261
  0.5812201794124625  0.5862960423551331  0.4934776411033632
  0.0852652309753352  0.1058406240523282  0.9884279461379629
  0.9850789861202270  0.3319006803032589  0.4965604088196500
  0.6622860165810504  0.1585255176369848  0.1802347929882255