 C Cr Ni 
 1.0000000000000000
    21.1200000000000010    0.0000000000000000    0.0000000000000000
     0.0000000000000000   21.1200000000000010    0.0000000000000000
     0.0000000000000000    0.0000000000000000   21.1200000000000010
 C   Cr  Ni 
 173 259 605
Direct
  0.6590555747345103  0.4226838464535489  0.3430038720750443
  0.1611993667511940  0.4125027918772354  0.8327870027810743
  0.0886744147686291  0.7400068230719534  0.5902744480877279
  0.0836884675210017  0.2659866651520432  0.4083920359591235
  0.0862339486450041  0.5053124079201827  0.8322559340195735
  0.3350662397206479  0.2854515440326650  0.3127465783289236
  0.8060409453485230  0.9100509114536983  0.0134637784648990
  0.1675909460889191  0.6610514352346460  0.2516479723723218
  0.2424746076952748  0.5640588197043678  0.4084377827063136
  0.6677196981924880  0.8284764694101080  0.0631717298331507
  0.2376278565039499  0.2476520499561091  0.7379082919417403
  0.2591574815396527  0.9199514163036786  0.9063227499861153
  0.6485595413920893  0.4135653840351687  0.1661339967866101
  0.3203172951692779  0.4172109611319701  0.9841436353486179
  0.0679416054078426  0.4092060423671798  0.9279690373593996
  0.4184064922490274  0.4174277068709794  0.0829208352667887
  0.8426060347485853  0.3341079616257699  0.2583269397878599
  0.4039142765445713  0.5823157636411078  0.8943461311125942
  0.4962214320442169  0.8310009936796771  0.0811199307463625
  0.7441323323565249  0.4990519227268190  0.6675183919769330
  0.4844485971741377  0.6507292244488464  0.7561209169131171
  0.5742440588252147  0.0042161891406914  0.6542240144795241
  0.0538967826178785  0.5147344938435798  0.5245932484169374
  0.9087108684191362  0.9093765919776333  0.9118886813083279
  0.4808279308928323  0.0995260788616398  0.6664988829554951
  0.8167256980580487  0.4867578296775483  0.5668947432013552
  0.9131005625592727  0.5056033274145648  0.1706385135962400
  0.1711496843435540  0.8205286342407310  0.0877865921737693
  0.0034117834770477  0.2639389761313599  0.0071541483794231
  0.0943947077501889  0.4962562838247855  0.1704126124660161
  0.9227626598358792  0.0127532004626267  0.9992877560670247
  0.0113162024914755  0.5799334690488366  0.6590750473487198
  0.0066971356403617  0.9033188469213856  0.3294618713078067
  0.8168926454234938  0.0104349601370789  0.7317809366250425
  0.5938382555934338  0.7595774992772863  0.9202501359314318
  0.5750297698923738  0.7469056641093414  0.2418359134019381
  0.7485812585164486  0.3247218841272094  0.1666383164603383
  0.3266854676429022  0.1057166881316210  0.4759331159000615
  0.2511396346514312  0.1655565964478195  0.3308249844969112
  0.5830356016706417  0.8442396022041567  0.8165272151423467
  0.1668304307063767  0.3358665763617638  0.0841581645468713
  0.2517265751069782  0.2636082625651507  0.9202765278996580
  0.2493746016101615  0.0040244986434486  0.0061801128368688
  0.0948618939036897  0.0804748437931286  0.7820676271221156
  0.8454015523434448  0.1536400748637441  0.2638540563333503
  0.4143874143673333  0.5092287542140741  0.4969694966303800
  0.1740030540381788  0.3511556304807745  0.2692401722414829
  0.9097640179822707  0.7430552900783378  0.4151474810617248
  0.3294322757452670  0.2518986066105153  0.8284716944687658
  0.9107853710713784  0.9134185658124047  0.4131616990406761
  0.4372574833227075  0.2284948924136730  0.3994963334641767
  0.4265173298638633  0.5060095982556119  0.2047444811213055
  0.8335146391208401  0.4187605587182823  0.1693190549097708
  0.0808633404340816  0.8284899654367700  0.4953751538040398
  0.4025386211356597  0.6788485215188993  0.0013322927240454
  0.1568692404962010  0.0100978400640906  0.9184075351725242
  0.1519091009905801  0.6540261477335971  0.7396207059203581
  0.8964333107423796  0.1836687223242850  0.0211209283544960
  0.5722160342664573  0.5089068591593063  0.6726475624388004
  0.4940158915341509  0.7662827376535747  0.6797872276378062
  0.8249468951245551  0.5072361378584588  0.0779126957696909
  0.2677166458155993  0.2434230903466575  0.4393356738408687
  0.8355366133449982  0.1620491204484973  0.5799356909451595
  0.0817519270610886  0.9900862113976786  0.6640330817258391
  0.4193227916247049  0.2522419194878763  0.7419401197182014
  0.1766815649026456  0.8157401758123710  0.8969756147258369
  0.9939717311419894  0.0900056365035143  0.1630735590882105
  0.1540486787461101  0.3005846804394595  0.6024122893112204
  0.7383622557391970  0.4142375262405478  0.0739890272729119
  0.3389731796298523  0.5674619830369810  0.3312993808937338
  0.3195484424722406  0.3459596163470052  0.5684143899349330
  0.1763140607018083  0.9259970936095387  0.5108505959108585
  0.0026270161790659  0.8192825859697309  0.9074802303039077
  0.7934296925172081  0.9062544132343110  0.6486532522103838
  0.3272986152400869  0.7498946745595180  0.3263923165139403
  0.3208422043607950  0.7614983528571448  0.1441298646215760
  0.4132073532694625  0.3433498526801947  0.4868360319140470
  0.1507337237362440  0.2368332884129439  0.8407878330273689
  0.3416848941548041  0.1676985061140813  0.9241323255856360
  0.0859867764410078  0.1717584856647290  0.5097724327211183
  0.0800853559925799  0.9101681049570173  0.0918630840201167
  0.6559887273818313  0.2520927567744483  0.6622903916435208
  0.6770518482513506  0.0136747914460181  0.4341324843118270
  0.7413077828274008  0.2454668439267557  0.9232650301747705
  0.1455270582813179  0.9343900506731634  0.8106566505074259
  0.9936115775378485  0.5024895271831415  0.2560349998265404
  0.6641335561526311  0.6658346869837803  0.7459464572256793
  0.0032650002379835  0.1583116950011159  0.9195856330278940
  0.3377536784618391  0.8447396190854293  0.7444077634326662
  0.2503749231744707  0.9944296641144735  0.3337587940079388
  0.3245833106595863  0.3467004073424603  0.7408851273760557
  0.0886695547817097  0.5039428815729583  0.3449339825715262
  0.5004063661143197  0.5799880423942744  0.9954678144145195
  0.7477887959344528  0.8272175878110124  0.5063007649656110
  0.9054174437127236  0.5857382673716498  0.5764626129340723
  0.3197140383922075  0.7657583919965826  0.8506805029310188
  0.6509445269789258  0.3410113974417831  0.9238053633663201
  0.4992597237463140  0.9996259323475398  0.2512678506322522
  0.7318798454383494  0.5094621154269041  0.1711586998422127
  0.8190901710263742  0.9105738597013260  0.8268431010689486
  0.3248046271890264  0.4396630061792058  0.8420629255959388
  0.0916724670121499  0.0796531190767520  0.0702440245059263
  0.4788272307415789  0.0134086231800255  0.5553954365156371
  0.5700430447289977  0.9241720433573657  0.4287131198626180
  0.9268543233243025  0.0313613287156428  0.3447722280246851
  0.8433079901325852  0.2370136926318882  0.1653845389941945
  0.9900812397564211  0.8207236931479801  0.0918417780134874
  0.9952378449921688  0.9884057675186601  0.7577751447376562
  0.8343476172719195  0.2496142923246380  0.6705869495295962
  0.5780790343944487  0.1711209320316151  0.3320759189606305
  0.4137441172855378  0.3265098463879689  0.1772678212085615
  0.9971283822004919  0.9167903476201421  0.5087675953832634
  0.2364383385749732  0.7579281063980677  0.7471988861419686
  0.2497961869761331  0.0180767107051784  0.8225012662024010
  0.8294980003080109  0.0710538114647310  0.4850220863762775
  0.6666631750877999  0.8299907391845319  0.2471776760287646
  0.0070571754193209  0.2288334562085227  0.6626466683578438
  0.2337459770012134  0.8460293610371568  0.6535622194367641
  0.6625032060150045  0.9781882924106021  0.7355194273535796
  0.5016379684515895  0.7567053094014771  0.4956212789767122
  0.5531028977167842  0.3975886629433121  0.2661393429996968
  0.9173477192420277  0.0956961299587235  0.7329791943596604
  0.8163174940154823  0.0045527011933951  0.9164575732647744
  0.4235138770327197  0.1517572532463170  0.5143007461145260
  0.0043119513327528  0.4051741916819169  0.3478055234329309
  0.5832780460883766  0.5677998746990232  0.2403885970458691
  0.2308767199274864  0.5517303181957228  0.9194407869629251
  0.7273883607724597  0.0600484807709847  0.5838086636983361
  0.0750878194698398  0.7506777784965462  0.2507512331164409
  0.9158258123672285  0.4970933742221845  0.9894147373173248
  0.7468076387682383  0.1548946518732653  0.6733692527971803
  0.5135306668948395  0.3526441225005477  0.3992797404411631
  0.9957505064261103  0.9091119472354297  0.0023602142227745
  0.5880657027887379  0.0761191532269191  0.0898407335297615
  0.5839332251957287  0.0937256092699161  0.7491245593042326
  0.4215394317607294  0.0020469149090353  0.0000155589084754
  0.2475633968428206  0.1744074750795786  0.0168125078035434
  0.1322943693290306  0.3113840307623764  0.4364922468536287
  0.5729192993607486  0.8345389117779486  0.3380301186773952
  0.1715870968533765  0.4303041549064393  0.5107578290273554
  0.3110173664498029  0.0114716161933048  0.5801730441823415
  0.8308787140321338  0.6649206779047552  0.2478962169226345
  0.2470046307930624  0.6717638015327150  0.5001289065158159
  0.7541517677142849  0.8264316871595971  0.1593614757816426
  0.4119891482980216  0.3492123940508253  0.8447050451269207
  0.4873525191634570  0.9985412744227364  0.7529232132999387
  0.2649365643949848  0.8153592850446100  0.9967340023399427
  0.6691112562217936  0.9177370579995495  0.3377095655245169
  0.6633495760053442  0.3195817579692092  0.2618921659831167
  0.7430454887819877  0.0103759494597905  0.1442850696173282
  0.0814016429774520  0.5849763383804878  0.0792518385051176
  0.3282650485963439  0.4183463477374044  0.1763363080592024
  0.0757232912626438  0.0794283147229535  0.4114403830686157
  0.5624448767335641  0.1068179026506560  0.5643869144172229
  0.0050697075841043  0.4847183374070990  0.5678103491839867
  0.1677331574456572  0.9141974072316340  0.9974691438141816
  0.6791812148812757  0.4360925729203378  0.5189376455942868
  0.2613012918698779  0.9113610538411862  0.0934242344157526
  0.9114143896399551  0.2580602182507188  0.9181302402525483
  0.2415724959289899  0.6649550792268228  0.8366367504737551
  0.6583646363462756  0.2474887728279430  0.8336537352075584
  0.4926942047405456  0.0984006140156980  0.8470665949130802
  0.9865851885216009  0.4964521757998518  0.7499802676466051
  0.5808257544172515  0.6589532474755659  0.3389787637951299
  0.5801524490270396  0.1717725081589102  0.9958404955159709
  0.4974247424316672  0.2719504560067667  0.8706031438174712
  0.7425110949192537  0.6654023504471616  0.9939545048629879
  0.5000927988131918  0.3943538204848844  0.9806967212687511
  0.0047789520547715  0.9991943997882968  0.2478724183033779
  0.7627540158338787  0.0071421572949421  0.3287704577668760
  0.2694949095050779  0.4115153665797534  0.4135930520315053
  0.8491207517569664  0.3237273372442884  0.0682796623973901
  0.2548222476414816  0.5741728441347261  0.5967145287030082
  0.5863244315716566  0.0799136351882882  0.9997308545652566
  0.2461892878677282  0.1054677118903008  0.8344375688216485
  0.2260462277935696  0.4855409372793520  0.4480981154039239
  0.3284536236350550  0.7559945591515652  0.7550859753558524
  0.7454521313997714  0.1588671531501530  0.5817438180932127
  0.5799005986957163  0.7512702148926124  0.8298672442981022
  0.1715361044155157  0.3340597676893109  0.1748966928356748
  0.3321543266753649  0.8384710857605335  0.6551835211749268
  0.5801153149484212  0.9151397035316076  0.6551557796531398
  0.9112293514629275  0.6574491932796088  0.4102102979959342
  0.9092808015551698  0.8200299451312291  0.9123039486699883
  0.0844720156493480  0.4984703080913583  0.0817190449553913
  0.8216695913246135  0.9147464055900474  0.7387009236998097
  0.7371327960708092  0.5040582912244569  0.0808754715017695
  0.5763055341728529  0.5742810869857284  0.3342114551656030
  0.7432556450947401  0.3376198023103435  0.9148451574501560
  0.4884493537064595  0.5747198026556419  0.2511477222316491
  0.6528318964207922  0.8222927687836218  0.9757536583343879
  0.6528813617654875  0.4092598711687242  0.2574162926767254
  0.3289794617454592  0.3105620385304562  0.4866654267493963
  0.3336201282810898  0.4354517604961067  0.7445726206408700
  0.8329079220196405  0.2457876951777224  0.2543825327859277
  0.4161390134615182  0.3466635311808067  0.7453583692231450
  0.8241603841282396  0.5063931731344395  0.1671926579714730
  0.3403299644133028  0.2575928110507689  0.9192594483177713
  0.3276700615508491  0.1946813776924211  0.5030837577078184
  0.3190172863495541  0.2560996684084555  0.5944283889574643
  0.4895147261266047  0.9228768093423732  0.5760057230628866
  0.1508560142558392  0.2458427113781063  0.7481768322491962
  0.0032175576560637  0.4135283849212300  0.2538147578288402
  0.6789240950134195  0.0689070122281061  0.0854753740163415
  0.3269490573546661  0.2560239101148264  0.7381689601988076
  0.8272662500068343  0.4203198467825437  0.2579662459622563
  0.3340915128183138  0.1648251923816269  0.8341190608847457
  0.7500493869618922  0.4179962718771978  0.3377370247872426
  0.8184796728194297  0.5820490306111993  0.5782104063016379
  0.9066567290218482  0.4944900513195071  0.5793858954832252
  0.2475378909198082  0.9070080835262213  0.3291709449156313
  0.9810644867986790  0.4928964868794270  0.6616704585788802
  0.3287213791205070  0.4193452132536200  0.0837791057810087
  0.3373068827132363  0.1679472044001921  0.0130906598633500
  0.0010961141869564  0.5028814027160189  0.1670390742612552
  0.4138972350011215  0.9909327467244734  0.4059317688014303
  0.5063993885263185  0.4138616865912528  0.0797486755190867
  0.3310219310382336  0.9320820933337253  0.7459359154275628
  0.6590842738790804  0.3402458014227494  0.8309109376611301
  0.4000136857637803  0.3393151118695782  0.2647999402074912
  0.4953088277406006  0.7533001658977060  0.5850776586084760
  0.5703659013387260  0.0947240555404691  0.6599803965793295
  0.2240046421083055  0.2504233685072475  0.6499027584701685
  0.4127289433390469  0.7474005785820659  0.1631501661057431
  0.8371278519250056  0.3290884349491474  0.1645712410945233
  0.4960816187381638  0.6700833786629760  0.6651245939232601
  0.8300349299289327  0.4156260906880899  0.0802526482267170
  0.8316447336633500  0.1632614168198502  0.4917526324503764
  0.4113664871107038  0.5832438232717823  0.9960171233027005
  0.6651096693414390  0.7413604326055975  0.2469602915619531
  0.4722240189113188  0.4361724493572562  0.2567942117447735
  0.4048556023759217  0.7526831979904521  0.6607728021457289
  0.2450480455424951  0.6636113901628811  0.4129030978274745
  0.3040833370369890  0.4872610698069938  0.3624363110924866
  0.2600628943061412  0.8219616215265089  0.0857184516323385
  0.2445327890509609  0.5821968040664789  0.5029811771357012
  0.4049363090769820  0.1472477197890394  0.4233351785195135
  0.0836310576248955  0.9923284735300888  0.7531125285046928
  0.0761418343184039  0.8278847361823772  0.5863513487825593
  0.0873970043394530  0.0841417628379499  0.1665761574685540
  0.1707305976341870  0.2524202654443342  0.2516926830544626
  0.3384965122691583  0.0975799143596270  0.5684446036157049
  0.9949612907978499  0.8194157231657196  0.9991798917918392
  0.9094086420763651  0.1687147489251947  0.9248102158320090
  0.9870787357213079  0.7455844559245398  0.7500856735946961
  0.0809104088669175  0.8218222030558358  0.0858667935250122
  0.1613347904959468  0.0040783204198721  0.0058272051125532
  0.3357039959684629  0.0780604993613230  0.2454049059540586
  0.1441387380290673  0.2191002928703764  0.5685980735722213
  0.9105567671647012  0.9130518379672063  0.8222349493105590
  0.0858026995933210  0.9172697629258045  0.4998500931311266
  0.8200752175507557  0.9132245328463107  0.9167715728537215
  0.0004891581654565  0.0828894798740607  0.0759739885545642
  0.8375049220136012  0.1604160595580301  0.6687664550823690
  0.7478750565160949  0.5813384649827352  0.8306059486016700
  0.4891628842193104  0.1654988892469354  0.3432524857674893
  0.8404239525131755  0.8279778049005332  0.1671730989591723
  0.5683069343936356  0.0136358203906909  0.5681474403843872
  0.6719810119137428  0.0064754804823122  0.3378486097604093
  0.8282674562643367  0.7439297527405168  0.9121765683897991
  0.7399564238914316  0.0819246801591203  0.4938360231758168
  0.5774403953389857  0.0025483818632437  0.7421799599082023
  0.4953235773709672  0.3338837055917399  0.3112949262015409
  0.8309845498014566  0.0008731285911464  0.0030161218281609
  0.6645873679665543  0.8307880685843283  0.1576263710445283
  0.5813184158544019  0.7435941323506285  0.6592698117419831
  0.7557494317094950  0.9745188219879011  0.5906138708891925
  0.5773622171972979  0.8340291015836730  0.2469775153245400
  0.0910164485590931  0.2562513801803783  0.6627063518563646
  0.4847072199622457  0.0071892239967866  0.6593657338557251
  0.5042237207126710  0.3403169241322565  0.4965951247201530
  0.5040431886595860  0.5118115911505428  0.5090327875474779
  0.8423499624413326  0.9870261429771494  0.6505973209701300
  0.9998084034971421  0.0873880337958547  0.2517509648865546
  0.4110918345557085  0.7544648303961695  0.4967539420108340
  0.7440853204975060  0.4172838877770551  0.8336354125790810
  0.7566531048085532  0.9141774680893134  0.3310222558806546
  0.3194404793541297  0.5165817049966612  0.6591913286675289
  0.4977867389162602  0.5928254062209116  0.5831448489193950
  0.3390106837015061  0.7423057113893147  0.0595948058311791
  0.9100939550896983  0.3298105631059932  0.4174009174257792
  0.5696847062238045  0.4163374240170803  0.3537948753252865
  0.5015815038093455  0.3240326640321224  0.1723132585746326
  0.6706340978388999  0.4234656094750626  0.4288991325343587
  0.5801758786957835  0.7475213385301276  0.3331301391174110
  0.8270054039371173  0.7460127411524862  0.7467087304327177
  0.4110035240847783  0.7524396885914953  0.8390596241571530
  0.8339995836095541  0.2353825528944785  0.0776375390128789
  0.5823435261874488  0.6653299660806770  0.9146138976525413
  0.4182996880330935  0.3264240109919406  0.0864155584685500
  0.5794263945167228  0.4175803823416315  0.6663656550806490
  0.7543384378832335  0.8420180098794577  0.0708074424581695
  0.2321697553926996  0.7549888154957648  0.8382119978687166
  0.6723274262197139  0.3387219463015710  0.5061254531192669
  0.2567125831274699  0.9142603924117103  0.9999566773045124
  0.6695456811214257  0.6704526573241778  0.3334338841943821
  0.3317367952470963  0.6678176029155112  0.1610363268698017
  0.6644182363646026  0.9221063561159563  0.4272635503836841
  0.9071489080278556  0.9984517860512491  0.9115760542885751
  0.9137074868527978  0.2701488648491422  0.0066806649916454
  0.5755047461888803  0.6590231163569081  0.2477161142880643
  0.6542545291445816  0.2515197282827402  0.9215297595608518
  0.7145976795735607  0.9186876165071980  0.6843246001805254
  0.7467155260792028  0.2522540662150044  0.8336727029100368
  0.9845883411227683  0.0850513012079706  0.4060256526511702
  0.6648987244954487  0.9191950305906934  0.2467111008815415
  0.5813895788409469  0.0823433848215552  0.8375086905541123
  0.5865932583476429  0.1645574362546781  0.0880413825001948
  0.5711087896150973  0.2628489703774452  0.6656544554620213
  0.9094347199340791  0.5831159393663963  0.6663306190793817
  0.5607049742906162  0.4116011738528542  0.1736052744956559
  0.2478623404474407  0.0076452316971377  0.9155577520561695
  0.2504370900194283  0.2519060380948372  0.3381387008887018
  0.1614839649342665  0.9996147165235686  0.3293525679045046
  0.1722769799115807  0.2324867874982197  0.4233852556210795
  0.1513129060378862  0.6650000023989239  0.8340584859403657
  0.2423864560984685  0.6705068966447368  0.7493634153943844
  0.7457293966307066  0.9950704487519685  0.2414967359914793
  0.9203221276622747  0.0846158472422380  0.4982733111802822
  0.0003355688160986  0.7471480614533796  0.4159509189843991
  0.9983874642397383  0.9111476189853105  0.2439631986233192
  0.9894999812799774  0.2577200164647310  0.5774021427491567
  0.9943388386835768  0.2516575326620100  0.7517141721304644
  0.2414939108150864  0.2388435461530312  0.8297928044703254
  0.1774057810356265  0.5055181136133217  0.3453348840597067
  0.1499167056050388  0.1498071422111118  0.8230230300410336
  0.1554842021055302  0.3396971040945577  0.5176922747285509
  0.9920766093801002  0.5020344751499953  0.8366411952402873
  0.2356570017132578  0.3441118369789424  0.6002824775240362
  0.0784986372737813  0.7405536486449422  0.4993504148112107
  0.0763971507288316  0.6691715869158792  0.4158041667738474
  0.1570484308221622  0.4284590339931981  0.7455145977607465
  0.9925799141661473  0.5802216494655418  0.5719785620594093
  0.0023304443242757  0.0784046853886728  0.7618345527468804
  0.3305818792294528  0.5820109317668383  0.0876577310116902
  0.7527454773748996  0.3269949873887507  0.0792177364867719
  0.7478573225675590  0.9168950685084629  0.1638374052739637
  0.4236808254216586  0.2464258385656495  0.4902300360300851
  0.4186954068304489  0.2375573456359059  0.1730003803353605
  0.4939104034176637  0.0906063175949026  0.7541249601800558
  0.4253247021916213  0.8300975568568505  0.7389024398165583
  0.7307665490452699  0.4997065989944819  0.5784033527742831
  0.8234086025919604  0.3372861047274271  0.8342950244674943
  0.5674236278064129  0.8442902189075354  0.9094469850225753
  0.4171179074134545  0.4172624806463988  0.1709290564357694
  0.4438382576912646  0.3223678691783954  0.9284771031479687
  0.4180000714026840  0.0004298014424548  0.0908237536901704
  0.0870999284143783  0.1696769045296203  0.0853001322896005
  0.7498152290506842  0.1656149724291545  0.2579459267052668
  0.6445751232037515  0.5029960987890353  0.1741415486384136
  0.6619055699081099  0.4280206912281212  0.9114956379808747
  0.9965413562825682  0.9074571099645530  0.9149678705012589
  0.0537657546472649  0.1687444076920028  0.5974196066967761
  0.1588777473657978  0.0209242849817513  0.8312126558151735
  0.9924746302956056  0.1687887580693938  0.4957644262667037
  0.0692324507422070  0.2606583599556188  0.5011172411879381
  0.0789066841693217  0.1700408664492747  0.4153863001507108
  0.0557778613339954  0.3550321842590904  0.4169972368429175
  0.9928489443378580  0.1723774287828390  0.0102030147572287
  0.9084742609005750  0.0038515060195629  0.7478327292195862
  0.0737526765085939  0.0832443907831057  0.5004939319825615
  0.0005257083227338  0.9101618406700119  0.4173438350935462
  0.2614984288320149  0.1536811035153448  0.4193237967658899
  0.1625091500744958  0.7343875485233365  0.0814454044232989
  0.3315425362623294  0.6678560125323357  0.8392319150748226
  0.0786942149659896  0.5164193540044185  0.6168053618407549
  0.6574847460330201  0.9953420149024776  0.1677203783509311
  0.2229467248821903  0.4124221316642416  0.3314910236084542
  0.4250509034915418  0.3259050632036901  0.3998761335472251
  0.8325122711928093  0.9954321701959724  0.1683266969743853
  0.9919608866124420  0.7344983008205126  0.0821896518071695
  0.9120359869800079  0.5870461715485180  0.9980196830524074
  0.9901330097655008  0.5861003414977021  0.7485364482457617
  0.0761014873070675  0.4992361443342282  0.9213071628887328
  0.7485329643576890  0.9760180995362863  0.0639527613534407
  0.0767325463851643  0.5017753443927948  0.7430629366749119
  0.0963286490841130  0.5985275897552910  0.6843212348004819
  0.0681024770865934  0.4221107188345318  0.5130790681022684
  0.9973559957089057  0.4978062531035220  0.3428223586072980
  0.0731428786859119  0.4138890060567567  0.8353200171482346
  0.9982456485398045  0.2524655134311157  0.9190136345652193
  0.7459969143719267  0.2460828908981353  0.6696288310743250
  0.0925672093432094  0.4163754601216049  0.3289769981670377
  0.7440155028025131  0.6656228534126749  0.0832322764382605
  0.9120823626353067  0.4102086656899535  0.0034097598291353
  0.4158879514389059  0.7480332093907105  0.3296294570047514
  0.1659358232059335  0.7496036139438321  0.2526400334283917
  0.2727035140617697  0.4723471989334094  0.9145704807075981
  0.1657425831223134  0.9157530403067706  0.9065776461995144
  0.7503130933228178  0.3319017283504983  0.2561029006862892
  0.7604021018903637  0.0655806514152358  0.6730029336303145
  0.2395904461479798  0.6553566570510857  0.9233285688742686
  0.6713823380890165  0.0797812734079940  0.7456474423043132
  0.6648815687707686  0.8285904686076592  0.3358999470431189
  0.2633807800847904  0.8325614601710349  0.9096614356633438
  0.8238720535158252  0.7463486000407571  0.5832875503504775
  0.1723332801165664  0.8247359365268737  0.9942508415451207
  0.1696574313580574  0.9099680937040244  0.0872594861089767
  0.9927003702664036  0.9088092393527001  0.0908509708927096
  0.2514498440868406  0.1709191943400699  0.9247336476471613
  0.4766297118896351  0.0999957701096973  0.5779527658187527
  0.9156344976800869  0.9970367002450321  0.2541102741768285
  0.9074252463348962  0.9153761653618168  0.0015040675153400
  0.9907324063007000  0.4086484479992727  0.7529396042526311
  0.7656020800189132  0.4204747903480268  0.5024700194405577
  0.4149026473771832  0.6688157583016164  0.9121685272416590
  0.4895412921417011  0.8373714908318266  0.8286183194468817
  0.3353698143783845  0.5076165508500908  0.1727102327195185
  0.5806502795375029  0.9204315139689162  0.3375106088387291
  0.4172727666098869  0.2596200069800140  0.8299734933841609
  0.6601659690001538  0.9981017421632177  0.9957721353799651
  0.3237206102714843  0.3391462060417779  0.8264796112010440
  0.4897991905340477  0.7414748646617534  0.7637063841081143
  0.4985705202525241  0.5849614462106913  0.0833137685896309
  0.4155289226908192  0.4347419671793062  0.8183636403948118
  0.8315766887083668  0.4979989373828715  0.6634160135889670
  0.4125323061294541  0.3370381657749417  0.5779231710571060
  0.6640925918427675  0.0114967315531794  0.6478975483407063
  0.9147024921177271  0.5018787428639238  0.0810044698543555
  0.7448728071128197  0.2510239410811535  0.3363457971699278
  0.2478199553851237  0.8439984421739604  0.7420077971522157
  0.7471440387620991  0.6682843220623567  0.5818137461987177
  0.2604555899043781  0.3991317427685894  0.5090993933503987
  0.1702823674915525  0.8336113135097472  0.4931411234830699
  0.4184263629321178  0.0611064043151526  0.4897435806126437
  0.8298074363866902  0.1519932585074452  0.1736677120521322
  0.6670122386008616  0.8180654680033352  0.8409237821762031
  0.8295071596996907  0.0008006936469745  0.8282375739931903
  0.9121431389069600  0.9054767528430721  0.5010254741309496
  0.6687032976015093  0.0001804856250654  0.5216811723613155
  0.7395088672384911  0.4176397050263378  0.1674912305445667
  0.6618253906769443  0.3252690125587508  0.1693054338249125
  0.6642236430487778  0.3373810631736315  0.6717258399154650
  0.7430615793722993  0.4232042326185465  0.9892908417036479
  0.6644671427052442  0.6678722811542597  0.4995680490303241
  0.6594221689252814  0.1641870840070146  0.6680932274196234
  0.6672389112258021  0.7503228314141348  0.5823507564975923
  0.6626334004474361  0.5079566233140808  0.3374692133875636
  0.6649225041925516  0.5036007470882059  0.8324809796039339
  0.6515299099830014  0.4204399201455270  0.0804519715526410
  0.6618348011790102  0.4118479080133673  0.5969034446008840
  0.7477282431494385  0.7521959975351798  0.9986121526407681
  0.7452955613298948  0.5866608626562756  0.6648560915317324
  0.6699593219364259  0.3339756159070534  0.3466826831093711
  0.6593093097059682  0.7514017513074068  0.7472010169546079
  0.7454093373364461  0.7429496723317475  0.4972148920993691
  0.6616947759490375  0.1609756628917585  0.8293163603647222
  0.7478111452454294  0.3312042492749749  0.5872626159543737
  0.6594027916781162  0.5158442480487130  0.4941810115647469
  0.8293440467292165  0.3298294001728265  0.5017049463673283
  0.6652358598273542  0.6690250043227945  0.6600492033087602
  0.5798530383202336  0.7477097109336744  0.1567130193673589
  0.5957702285530181  0.3358046001204038  0.4266686128705754
  0.5826215112060159  0.3352811088121063  0.5820326133369624
  0.8400995006035310  0.9007598610945525  0.5765277748016081
  0.6651341681129288  0.4188112502511049  0.7510210289675112
  0.7451809349649864  0.5876516498471661  0.4959506733147947
  0.7479882258698475  0.1656817456814764  0.7584559535994772
  0.6658903742587138  0.5899374089857333  0.5800371295722568
  0.7434601108312180  0.5789497313815257  0.9961700611903013
  0.6653500998180613  0.1734719643026270  0.4983521621080583
  0.8324453162009403  0.4177978634553314  0.4132156158086576
  0.6611832589835649  0.2538822355611038  0.7491372930515970
  0.6607399141820067  0.5845263461662057  0.0817508049352297
  0.6692000332202004  0.2517256110935835  0.5782030065548631
  0.7443011142198752  0.5854584749255990  0.3341461876541873
  0.7438745963508261  0.5932458649178020  0.1659250404091245
  0.9059285938712296  0.8246963873446500  0.0794537136936086
  0.9135981309521217  0.7449329452170655  0.1649396632714027
  0.7456358743451167  0.5000928751541933  0.7534602789181879
  0.6640062192973448  0.5806139846570079  0.7498761783485753
  0.6641688557351968  0.7485897007816529  0.4160435099601484
  0.7501781075034500  0.2370920031550959  0.1679444582239696
  0.6649949077787891  0.3361445252246921  0.0097611465049166
  0.7446136900239190  0.6666258035277783  0.2486590400732663
  0.6676060443769999  0.5871189757762533  0.2522760247798639
  0.6599526304140031  0.6656037003691458  0.1634200233017344
  0.8298504278279698  0.6647896476540198  0.9963886854520527
  0.7397308815097016  0.1596009430926744  0.9138490218052073
  0.9064912409851964  0.7443591247766652  0.8290706609538878
  0.8257572496004721  0.6665848194799816  0.3338762459121108
  0.7463654027322439  0.4120094854965156  0.6702515227314196
  0.5847652807641800  0.5828260972848835  0.9964212453708551
  0.5641812002771490  0.3358197762290314  0.9183252179015032
  0.3337972791373811  0.9954257078425301  0.1686858937291013
  0.7496032668382305  0.2500938810609948  0.5021494548165825
  0.8302926581174123  0.8295142293766622  0.3322883008926142