 C Cr Ni 
 1.0000000000000000
    21.1200000000000010    0.0000000000000000    0.0000000000000000
     0.0000000000000000   21.1200000000000010    0.0000000000000000
     0.0000000000000000    0.0000000000000000   21.1200000000000010
 C   Cr  Ni 
 173 259 605
Direct
  0.6696456102963598  0.4227811930305073  0.3435338597791789
  0.0011231384931337  0.9189761229797351  0.3337756894785266
  0.3361749876693471  0.7450610717549221  0.6545471994821780
  0.2349610721157602  0.1597008346511470  0.8309102027372854
  0.8255591973248296  0.0865211155734409  0.4973316009389955
  0.4798454516256393  0.6704529471786341  0.2467837614036289
  0.0173917451648833  0.2729642075738068  0.8417760478116152
  0.7281145835151692  0.9188720602757371  0.7590851778923302
  0.8384970993741682  0.4345297097982935  0.6736910946161616
  0.9426488892596792  0.9307154275316192  0.5802297144020805
  0.3199517037632575  0.5095735064509991  0.6038309828561113
  0.1254274621401140  0.0909413732045027  0.6438342869405719
  0.4038713419586277  0.1727044894266508  0.5090308416353049
  0.9969262460978169  0.4139305605725729  0.3319787732942044
  0.6657853146678386  0.7467503478333920  0.3395287882479138
  0.2438832353907162  0.5734907838436861  0.9185184499648084
  0.7318536175352377  0.0697656295376327  0.5923869747783377
  0.4123020427614623  0.3266180881232671  0.1791242237027499
  0.1448686810245061  0.3505577444318031  0.9513618800668533
  0.5785911784408546  0.1628329819609892  0.3361985234300904
  0.9956737394190175  0.0079876121177188  0.7262780946063798
  0.9224950574529789  0.4787724985031417  0.9882020815837814
  0.0935752054485876  0.5037542471734479  0.3227163841517544
  0.2440047122209318  0.5572424945276461  0.1002701657710207
  0.7469130866420425  0.8293278466697128  0.5046149292128196
  0.9260986995058137  0.6068525968059532  0.5608819267070085
  0.3122770673258681  0.7610871183640877  0.8548557722309500
  0.6708895003257607  0.3374357784033749  0.9241699158447613
  0.0933407777664523  0.6796153045124225  0.3389874705563922
  0.6696262430058049  0.0016540591584258  0.0812762990206827
  0.8277817670987616  0.6648650840753394  0.0860931745521212
  0.2442222525696291  0.7391530225533602  0.0873242839012480
  0.2346074836158374  0.3417668108706869  0.8235173933728182
  0.9211282637561334  0.1637612394703440  0.1744606437204373
  0.4134737719455577  0.8348660826743989  0.5012002990822912
  0.9146173507125476  0.6645472963967539  0.9955571751950825
  0.4976540464343451  0.2266718271269804  0.1947932044688409
  0.6488329461827028  0.0946786534738548  0.4890602090523875
  0.5014166311893233  0.4188693576636919  0.8319354103897368
  0.9134665082801607  0.2654920279287955  0.7475112983423725
  0.7401188137379374  0.2405949288337078  0.2533446058992631
  0.7429525798317247  0.1748759504040482  0.6732081252064240
  0.4993456302156242  0.0859719690591687  0.8281019486639285
  0.1767677673789319  0.8155334880266782  0.8956237440241726
  0.5004287986684317  0.4160977739796032  0.1736781828300115
  0.6684040289935868  0.4176513826161697  0.5133668226185951
  0.2373813802784240  0.6662684750640456  0.8277661568196736
  0.6735061751212341  0.2431279792385941  0.8338182367105494
  0.9899158893619783  0.5015440127729560  0.7487660203136148
  0.5766967526217746  0.6637018386066588  0.3414187971829516
  0.2569668665191691  0.9219237086891146  0.0957749588070876
  0.4168281810934178  0.2472008240566779  0.9179530331613344
  0.0806414429381365  0.5061286102979382  0.6589068171798973
  0.4797788406056225  0.6580827378693132  0.5683848232325218
  0.6730252896842371  0.4234863362904480  0.8256748282235079
  0.0704424131420712  0.6642488787202028  0.5088190048647940
  0.8423266536919137  0.3390725072136366  0.0690898556657937
  0.2577649100849531  0.4205245141191138  0.3894182162648709
  0.4148519855722115  0.5145445575395361  0.5073344823335793
  0.4136830099710916  0.9971448350025913  0.3290952169019514
  0.5690714487873463  0.1539435288147744  0.0098583528303073
  0.9137343942590610  0.1423595465677311  0.8180615430923459
  0.4964626408215150  0.5020672523079824  0.9178141993056075
  0.3313439587396361  0.1707924179085447  0.7419787465811138
  0.3307320033526506  0.8394421693868853  0.7452077486611497
  0.3151112284846393  0.4093381534141010  0.1643042862549650
  0.1594792558846499  0.4245676981380423  0.4986652834060553
  0.0803734756368496  0.0791283796418932  0.4080581321878628
  0.0493873791806165  0.1166929032123623  0.7659218538776513
  0.4444400897382595  0.9324434938781010  0.7314637158808004
  0.6635038883483062  0.9173721647725358  0.3302661993343248
  0.0596485613130037  0.6615413555294337  0.8429087397754710
  0.0007249764912444  0.6702881396121253  0.2426597242540584
  0.3313550922983654  0.9974737010918889  0.5802402283854143
  0.1779822763326817  0.2694534972863156  0.6500204057264409
  0.7519785512860764  0.7468249556385821  0.2472080166068300
  0.4071035285159942  0.3469625036485710  0.8238414441322314
  0.4893900504065087  0.2602127829263428  0.0061855143126791
  0.2624875320393055  0.8266305466314632  0.9977719554160021
  0.3364112295519874  0.9252488801119941  0.8355544612384908
  0.8325851320201995  0.2453467878839856  0.3426258187604858
  0.3290596434519334  0.8362050010921688  0.2561137050825191
  0.4180432117621374  0.0834414051974751  0.2432226635126424
  0.3301410161736258  0.3138316146440538  0.0655731086587904
  0.1551433161858387  0.3280196970759797  0.4128632509993319
  0.9987447243878331  0.1641932272208948  0.9132603513467208
  0.0722530282462925  0.8380432134458836  0.5063090514072490
  0.4049346660602310  0.6504300796165291  0.8532579044817739
  0.8163820299092749  0.5205707714476082  0.5638440812240115
  0.9165523214839653  0.5050854575883486  0.1637331016548674
  0.1625068209494454  0.8308494581214413  0.0851027532546345
  0.2384717314179848  0.2547411741126830  0.9263085980369332
  0.1015790000329285  0.5015007394275435  0.1722403262585293
  0.9201930090005904  0.0018140328992733  0.0098374048573426
  0.5848202581593080  0.3325894891340099  0.5060250535943195
  0.4955951455294357  0.0080216937240561  0.0838988303501677
  0.1598936750011341  0.0765347584761065  0.1725086220790713
  0.8249873607954599  0.6738967944771348  0.7502185707515081
  0.7593439890027593  0.6599865340359113  0.3402912652726901
  0.7404129909745049  0.3287882371202592  0.1603930116542455
  0.3314695352020916  0.0875256229063013  0.4890606307657777
  0.0774441571585043  0.2517358052645557  0.2512765521738679
  0.5713475196689664  0.8443854804352080  0.8146747702786930
  0.0697291888304442  0.2481599363165722  0.5767026205395596
  0.2369621526811438  0.0780199986145759  0.7357255454606316
  0.9072182939673973  0.9122927528105157  0.7531001660121890
  0.5843346884911379  0.6704370870738234  0.0033056834491155
  0.7576964340305143  0.5634806111829654  0.4265806916001462
  0.0943364127811202  0.2573516670032676  0.0789612993323940
  0.5820632224875617  0.2476908551020413  0.7445992840255826
  0.4063441719844913  0.3413948734489053  0.5091510741305549
  0.6520876659108598  0.6812496943757729  0.5905328902975163
  0.8344288812748604  0.0045199113197649  0.9071280803177256
  0.2487407887984393  0.6842831822591291  0.5280186686693455
  0.0580320407208673  0.3270317880401208  0.8176801910655142
  0.3315693262686117  0.2855235144679957  0.3112425383628437
  0.8268088618862406  0.9093277846214496  0.0039057501113651
  0.1826087437856637  0.6440529712323856  0.2404699321550592
  0.5807356577409976  0.9978836841894643  0.6680138879772221
  0.0573475653148537  0.0912415652115424  0.1022559842141231
  0.9898443001356673  0.5186204495413247  0.9255414799234366
  0.6556126025991377  0.8301524983983755  0.9252943966323248
  0.9963078045756544  0.0785126728331923  0.5003494620544675
  0.4145678272169616  0.4187596244982666  0.0763740610300882
  0.8299891203116651  0.3332500037323161  0.2521061830630797
  0.5003273969569165  0.8381898439504292  0.2522530052146045
  0.9070578784764569  0.5907462444422534  0.7451429160587187
  0.4245966940861541  0.8797739331026505  0.0656211973878710
  0.2485373710110114  0.5844523324071772  0.4124949809866599
  0.8277065574463737  0.5062662859470297  0.2583019567897998
  0.2934044760012654  0.4310735685829947  0.9919108832190324
  0.2721323503028447  0.4256196280317503  0.7342792472226675
  0.1518037022573228  0.8217340598460220  0.2672661651862939
  0.0750415198506120  0.0805945483865279  0.9306188954641732
  0.0910358771261811  0.1716765546197874  0.5032019611830021
  0.7743467468806972  0.6617615682095023  0.5160285423507543
  0.5812453925185145  0.1612826302086211  0.8367044471669243
  0.8383564234838776  0.0798251316196004  0.6737302221613872
  0.3445010772165853  0.7557798600251421  0.1622543319765840
  0.0058114688800398  0.0103850201503295  0.2427547930152802
  0.8088034641393198  0.9033735720374232  0.6544305562653627
  0.4185754831053640  0.6617047157965303  0.6746485521528230
  0.0946465030321281  0.9254531518127570  0.7664948468914377
  0.5774059166496180  0.5028744849417103  0.1668281697331579
  0.6635800448408331  0.0068915681105577  0.4158273140947699
  0.3484235462216999  0.5710448331695340  0.3122598761030695
  0.1426426091174330  0.0623887851383456  0.8176709746678755
  0.3160385040773968  0.3110586909157008  0.5974655038473489
  0.5015917291723451  0.5048927001429951  0.4192709517681698
  0.1766298724048428  0.9108590257126847  0.5182685294804982
  0.3234333870578879  0.1565746974690129  0.9238380672060512
  0.5926262379766498  0.2595395966148609  0.0903503365349026
  0.3320539788321392  0.0690858160102442  0.1623126193432629
  0.4274613857643421  0.7586201491817273  0.7703064172182404
  0.0733755902568358  0.9184806361010780  0.0836365187853730
  0.7435277644267726  0.3420314042016913  0.6703464169296554
  0.3237903398666347  0.2477719079302095  0.8288570856456379
  0.7410438815553861  0.1530880480076829  0.3551251778365354
  0.3927298705990774  0.5131339137998454  0.1758115060224017
  0.0819319094374001  0.8550510471317035  0.6512132194575597
  0.5661403307645871  0.3269832067082267  0.3260299826331516
  0.7531607828239406  0.9161757727008528  0.2452714396416175
  0.1843846755347223  0.5994720245793348  0.6677914200608795
  0.5756886202020252  0.6693525251880650  0.8239642045033791
  0.1794009809847082  0.3564132695564596  0.2413700390463366
  0.7496225530096485  0.4835172029283813  0.0122604621306948
  0.5183567648803790  0.7599315996386793  0.6716845321177547
  0.2587436191969174  0.2348406653141610  0.4226015366381712
  0.1653116511682586  0.9923891030822862  0.9167949802209259
  0.5025224410494173  0.9932615266916734  0.9107246482008434
  0.9048699984972642  0.1724301135558337  0.9998645624699112
  0.4286710640986793  0.2676606152708082  0.4018465853539300
  0.8259421767443724  0.4217418090615421  0.1598271527028349
  0.0843405380964375  0.9249953710009359  0.4971633378493379
  0.9932194327692062  0.8270850372175931  0.8372951001968754
  0.1611221555301491  0.0803204097298827  0.9168964058646651
  0.9113008013783161  0.2488815540046653  0.1682523642948580
  0.4982772350603884  0.1668018645586259  0.4998834921261199
  0.2452650067449672  0.5933747471222381  0.5046598972170239
  0.9106889630385954  0.1625422861824162  0.9101353934483515
  0.2475053897007418  0.1625581226939357  0.2533511403185062
  0.1575606986475080  0.2432802166435275  0.5681043640256745
  0.0266957209887882  0.8958848298532894  0.5811546286562093
  0.0745069777238618  0.0711955178991226  0.1851193467409512
  0.2509268985163556  0.8308160348965627  0.0855616458023542
  0.3194896040187036  0.4874052897358932  0.3397089756256543
  0.0800951157178569  0.1696020412889379  0.4118769402921922
  0.9916642009311546  0.2490120340819194  0.4137795832259352
  0.9932029184116392  0.1648808426391280  0.0027583113439862
  0.0748944734521512  0.9902089138776917  0.9198211971256405
  0.0465978768910647  0.0764295911019239  0.6807562613411295
  0.1646223293667627  0.9777586469110546  0.8290902377042566
  0.9972936044251558  0.1710878541435687  0.5013635832284236
  0.0796671497310867  0.2503304560232755  0.3394005614597461
  0.9687806005705105  0.0825015198335924  0.7725171306141848
  0.0842076848523064  0.0802611443372693  0.4971683179436666
  0.9938432659273100  0.9887555003103592  0.5125866358093126
  0.1689967674644879  0.0755301807664395  0.4066893279625298
  0.0025654113589377  0.1799363833479516  0.8241109385916046
  0.6767545006856645  0.2400258952926319  0.0778206721554875
  0.7466966631219254  0.9130818845825605  0.1587438830658361
  0.3324375723682932  0.7522627566317059  0.4142197751983658
  0.9922099572596899  0.0837709467295169  0.4127386833626247
  0.3520016417089887  0.4089134815919880  0.7693876630449916
  0.1608193540544288  0.5901609849374536  0.4217165659495318
  0.2411056929747546  0.5769002333346873  0.8315117241134330
  0.1564000062735617  0.7424279050349626  0.0831148299316788
  0.6626678601699714  0.9149880851186997  0.2419461265122782
  0.5767932336244529  0.1591973373078958  0.7494690391453975
  0.5847902153407398  0.9155552004942275  0.1668362537974215
  0.6578597327655429  0.5833174667409761  0.5858957835137177
  0.9169962818938941  0.5963261336466132  0.6559537664215033
  0.5893946415882793  0.4161365004769398  0.1669985766605874
  0.3296505439596135  0.0106718858117265  0.8306151152941170
  0.2505148134282303  0.2411696501959054  0.3291191176412922
  0.2492156920177861  0.9978222921159476  0.4105098842805637
  0.1679417754012990  0.2413395481536527  0.4144469235738147
  0.3057813856194067  0.4960051922064880  0.1516089876626004
  0.5802722210042183  0.6665342670649335  0.9163443111792748
  0.4912103313361980  0.8335741169560152  0.0091856620546829
  0.3200310060865641  0.3323562107358196  0.5084028839948654
  0.6595480169651318  0.4256199455599002  0.9157039215388851
  0.5864553854634824  0.6683694455902204  0.0905578242771877
  0.5688468374949216  0.8319918739938373  0.9150346021233843
  0.7488448158703221  0.4280075510390888  0.6686955554807741
  0.4083256520254415  0.4190611395054148  0.1669849649047960
  0.6621298159380010  0.4189975730321356  0.7414184273200749
  0.5813883445554731  0.3358285453152849  0.7481933874512724
  0.4196821916054927  0.8438122967681280  0.7398903454841956
  0.5063344537075890  0.0927106743780396  0.0655628520535389
  0.8297322849437758  0.2457546103365192  0.2531093695216949
  0.4095318208821053  0.0820649355385087  0.8327920111523035
  0.9210283681066156  0.2492308603254588  0.3362685340682173
  0.5793502078903685  0.2455039006662914  0.0029010750153057
  0.4074963904376823  0.3313754985788092  0.5963738972761418
  0.7218855664566347  0.9192960187143826  0.6715960917230650
  0.5705952470358909  0.1632463931349131  0.2445046505867000
  0.1635762301415932  0.8252329907336956  0.1748781314253043
  0.8287831759364416  0.3339186467563026  0.1604707913738467
  0.3341497804190847  0.1628990648978167  0.6551530978738086
  0.3984663920329810  0.6852492013478493  0.5896652958020497
  0.4091566499165782  0.5067356783470642  0.2654452843175280
  0.4090140935143531  0.5059596537484320  0.9272104924793892
  0.3254703032687433  0.8338877230156692  0.6565277147890487
  0.8125636845019624  0.4260975948694110  0.0713480135370045
  0.8347896587219640  0.2580883038914066  0.5806718428195428
  0.6619651070702464  0.5857325967694992  0.2503367914793075
  0.4012243962477268  0.3338666092656872  0.2664195110998328
  0.5775300231797441  0.0861715420262849  0.6653971831174480
  0.4256548182078373  0.7280378559209012  0.1860485938525279
  0.6010526887965632  0.7410706658401569  0.6486944628122366
  0.1683642436903259  0.8285097332521983  0.9949734687529485
  0.5867326125127384  0.5064496235800915  0.9189416197688642
  0.9105854640133627  0.9100281061721932  0.1686877625796494
  0.8257105407153785  0.6657468364103463  0.9976950884916618
  0.6688208454378270  0.4212520551907362  0.0800348134129617
  0.7347653366892943  0.4186689987956826  0.1641871681019463
  0.6602193928692687  0.9994768567406979  0.5045971820753133
  0.4175823928341285  0.9994752136156548  0.4173720964713731
  0.8265984917146441  0.7515174429000493  0.5768128581349572
  0.7496701556059722  0.0802650103356419  0.1679354802755389
  0.7434838818570337  0.9976191098326481  0.9153381795714997
  0.2367120420685375  0.8420378005831427  0.5739142157032917
  0.1531526177662317  0.6818322510346391  0.6727648232487949
  0.9163130932511623  0.6925733274781588  0.5864115653154237
  0.6599011167514357  0.8266222716856074  0.8356351954518149
  0.2349358179765197  0.1642133313168191  0.9197360232577096
  0.2637921488563715  0.8274098440986886  0.9114077812381285
  0.4258949156696142  0.7532645886554589  0.6771590461737133
  0.8397273448125524  0.0868445965045137  0.7616192335735315
  0.7484588397807412  0.0871455040167449  0.6762247889132300
  0.0763529238266210  0.7519686549352219  0.0031576940157208
  0.9162390207211135  0.6660237476645696  0.0846529909700333
  0.9968065593281591  0.5913062750916335  0.7500015621303107
  0.9973067518006790  0.6021545271090228  0.9043163043848188
  0.9157097785870519  0.9067114059905613  0.0029920067499954
  0.6686874490996069  0.0108455914785751  0.6538335298307644
  0.7423368326221524  0.2443652292869002  0.3429451109989132
  0.2431267682440601  0.8343080637918359  0.7487455279323240
  0.7594629944191579  0.2529644526469925  0.8322303047972504
  0.5714247352698006  0.1685777496761634  0.5824766805181768
  0.6643996406851856  0.9990998715893964  0.1699714730014748
  0.0778933014060886  0.4998045330538412  0.7479872866986086
  0.0783967244397973  0.5953790677142025  0.6687695193038273
  0.1670507428695127  0.9050743271562115  0.9194986607590909
  0.9929461432421536  0.5033296494500816  0.4955829750923838
  0.9979195212912779  0.5039591497859005  0.3370648258906271
  0.7401021640591146  0.3304919136036993  0.2491241355941119
  0.9835951275331990  0.4223172479735753  0.9259741458257560
  0.2408476182470054  0.6628588971177246  0.9204941242456414
  0.0653481134348819  0.3341697526334733  0.9111284493855842
  0.7534609692672176  0.7490769655542974  0.3375209882400196
  0.9906293908212953  0.4240309346820424  0.5717112182548085
  0.8313685227200753  0.8168286787463765  0.6638160930562264
  0.0860591715926629  0.4157374376597949  0.3322223221356952
  0.1651262606679557  0.9194846362784236  0.0857680670504561
  0.9029765488762760  0.3983852145915093  0.0127785880605130
  0.9141925629186531  0.8332664285486390  0.2485676211742966
  0.2500481594896956  0.7477808755719125  0.1736419549844506
  0.2431234883533789  0.4862455422160499  0.9293688924201290
  0.8403952143079531  0.9153751362626088  0.2501158216715692
  0.0821532157565560  0.9066686732959532  0.9951568327967822
  0.4168164917107514  0.3304520928280827  0.7361471181702615
  0.4973228756252792  0.9983284446399013  0.8235429201927638
  0.3439487482829709  0.2283116715984485  0.5706697020565479
  0.8244506907254119  0.5061452253319990  0.4761244937844096
  0.8344489141392366  0.6076122154981279  0.5746634098550560
  0.9136380903485201  0.5121574604524999  0.5731997683456613
  0.5026164803150349  0.8335355671842783  0.4998235591939513
  0.9025123552716717  0.5019028724024694  0.7418309445814799
  0.3261556284622665  0.2323595878692976  0.0909307226549631
  0.3299197164551603  0.1602717328662092  0.0110949439253788
  0.9260574380278914  0.5763182583693292  0.9910050819760796
  0.4983372468333502  0.8359854965925239  0.3408220236088745
  0.4098467295865050  0.4186600820204683  0.9895170552526171
  0.9966975975721960  0.8258314380317741  0.0001606435389581
  0.1612401078480049  0.9958010516918574  0.0072152232796863
  0.3352841620016322  0.0880757297343795  0.5776333427946057
  0.1673538587451964  0.2571024412865298  0.7386492790611686
  0.2412960601718835  0.1687926527734684  0.7414822128938415
  0.8189149927486138  0.9051859111523263  0.7461361407041770
  0.1505361812261973  0.5612751141607044  0.2469428542160512
  0.6667407718623264  0.6657254770233585  0.8344768757887219
  0.7436262933817371  0.1692779988098569  0.5831529154636936
  0.9940049505135724  0.3388578883276920  0.9978280064883818
  0.3314875456066023  0.7508253463747595  0.7554091469636920
  0.1499130567200792  0.9163981350975638  0.6016541184365973
  0.1613783534400653  0.6700335513775160  0.4967541247972701
  0.5894064761145972  0.9104095877848700  0.6635195729864698
  0.8275531053320148  0.8221012737486848  0.0012360386283046
  0.4832486228968986  0.8191155631650874  0.8291653642395326
  0.9242229247294665  0.6726882120070899  0.4053535912718581
  0.6677881386589234  0.1641044373126994  0.0009474053509246
  0.5789602826537350  0.8361194695930202  0.4187594428360975
  0.6618099936277639  0.2483293641238686  0.9232157194164017
  0.3235859125409351  0.1585400918855786  0.8321639661665021
  0.8356936407414975  0.5917230438268315  0.2567347225612553
  0.4188851777144572  0.4177141082312092  0.6680836525770852
  0.9105191876600657  0.3407279047527925  0.5759826991489679
  0.8323173066802516  0.3371208412680930  0.4999444790609157
  0.3324476016781783  0.5848704444400328  0.0915767910621355
  0.5744620643851523  0.9166644692583985  0.3359167177467773
  0.2292806289980860  0.4026911496498116  0.1758196637687264
  0.2410104175373554  0.5783763239116729  0.0061697543313806
  0.4100477388051499  0.8044482005953479  0.1060358600761206
  0.8342610856435424  0.5056261385874249  0.9962452051995099
  0.4146200261404560  0.6622342498093100  0.9375436616455222
  0.8337513206569532  0.4276804564897528  0.5791801473939149
  0.4184383408297578  0.4344476193444523  0.8489735089303867
  0.9820493793918578  0.6688229639578798  0.5012410072078978
  0.2377445603654689  0.3378278613331177  0.7372259634854174
  0.4118418141130611  0.5013569973901377  0.5962294066944966
  0.3342879095234875  0.4827176448082052  0.6887698853504974
  0.6608311496584761  0.5883903012961428  0.0886687232445906
  0.4907990232649070  0.6697595816482539  0.3379812576965644
  0.6640196301136870  0.3347518725680623  0.8309160435736133
  0.3957998486479670  0.6498108379431752  0.2636377484125765
  0.5820485371058324  0.7498017599700311  0.1667694301295053
  0.7346800212287684  0.4819948228589826  0.4092719295401592
  0.8309876197424891  0.3339455244236614  0.3400721262178327
  0.4119214102821681  0.2539199482647702  0.8291503192808544
  0.8282666441559234  0.5081716838423288  0.1679316847216963
  0.3266430835507964  0.2448095584260232  0.9192098499453965
  0.3271414554935953  0.0803108491614708  0.7427898051139739
  0.9191583321789576  0.5849293777654292  0.3306367570662119
  0.3178318456470964  0.1751447857040063  0.4793348721751698
  0.0744148685664833  0.8289841424742568  0.0861828798347895
  0.6644393990488894  0.0046105035016572  0.3271334254643423
  0.9999319321819735  0.6715586643183342  0.3317520767592268
  0.4965914554923850  0.3458056233964739  0.0020774974524397
  0.4983691434678129  0.4983151641774889  0.3317145154698195
  0.8360011758501873  0.9987589791212415  0.3322359237550295
  0.9092417384937451  0.0769946777143837  0.1658220625324802
  0.3049086003802020  0.7506316322609700  0.5713810057706110
  0.7472035116075729  0.8270319535006437  0.9209663094355652
  0.8304081175300169  0.9964314656262518  0.4930118482492658
  0.7479079424186312  0.5037298536855245  0.9191147935351056
  0.7536491057982881  0.8451375123635262  0.5920481083060196
  0.6668551379666336  0.6590655694383650  0.3383641266845895
  0.6677959173055451  0.5110242504423971  0.8338486853376186
  0.7513647369266346  0.8351812223826358  0.4140013915983333
  0.4994883725183671  0.5017051405413295  0.6716173841897957
  0.4205321017744485  0.6019643691836859  0.5081014653741592
  0.6638285849265109  0.9114971278551732  0.0843439863328469
  0.5018398907248024  0.7476191232325627  0.0878193423412438
  0.8303079690938866  0.2541722692620333  0.4305114474441938
  0.2272662422767183  0.7561888651459086  0.8314600298239955
  0.5786053066486471  0.4156627810182025  0.3371515463828668
  0.3509882582659248  0.8316378268911127  0.0081136886872993
  0.4993183735907339  0.3279734584136221  0.1747403108482515
  0.4147080511332356  0.8307855450761629  0.2425552402137456
  0.5772649087242508  0.3303162306601559  0.4181452816332197
  0.9197352470934983  0.9830490002997705  0.9236225301944861
  0.8230705538718274  0.7609565004632032  0.7535402441019927
  0.8171365107431097  0.1682843982241721  0.0028090912607390
  0.4119212022622107  0.6648334895226286  0.7617697711999823
  0.8277835539716133  0.2468879240599491  0.0820126822447683
  0.5839351753544558  0.5808026541749998  0.8330611684817638
  0.5826428737281878  0.2501625186414508  0.8342317504744846
  0.5764139329807251  0.3341478320024479  0.5921190521480922
  0.5846151808103901  0.5886542434317781  0.1705566821939504
  0.7444380085480132  0.5779754972936498  0.5139497827429553
  0.6636143292083271  0.9163552467760333  0.4179419237673346
  0.2331725704997450  0.2512353818089712  0.8331078222915523
  0.9845707197642554  0.2566463949504000  0.5810213980891350
  0.9178622035063361  0.7572883933738959  0.3307725449453153
  0.9989330709816326  0.7617857867830554  0.5820859840998884
  0.0739834277160318  0.6718912880749063  0.7512190595064044
  0.2390374226254942  0.6558794888191187  0.7393448496865846
  0.1493873326910114  0.1535745121599486  0.8249465349808128
  0.1508651548620346  0.6629440047105322  0.8339681069531908
  0.1601304909821414  0.3345221041594006  0.5023066798275914
  0.2302483709897053  0.3361502558285347  0.5880038204522113
  0.9132310006611424  0.9181659522331498  0.4939921968621154
  0.9947482074016366  0.7584841354192230  0.2478178495648338
  0.0026600487362880  0.2676304553587171  0.7503400345330579
  0.1674656784197164  0.4168783612850985  0.4113939618447894
  0.8963034319448866  0.0617543937136688  0.8555537200283270
  0.6629407727828273  0.0784377312279120  0.2443656827980253
  0.5879521271143310  0.8337385559668774  0.2476405563726199
  0.4964155699535935  0.3372582182894612  0.5024677546583491
  0.6475583363621437  0.0930518488289961  0.5804907428639640
  0.5058543030223831  0.0786068714141118  0.2475585897798251
  0.7469626187314150  0.7491237888955076  0.1611419945904261
  0.6412098225566183  0.9030538580261734  0.7601937832205905
  0.5777274859251432  0.9192055643136381  0.4968708597860921
  0.4147287756578019  0.2418448163792044  0.3210443943969101
  0.5739310103436519  0.9985516652056549  0.4170181140280588
  0.8270333214594171  0.9978541976505542  0.9992964577186162
  0.5757721856675516  0.7591267578358645  0.0018943209230656
  0.6631377555402594  0.8299531792563952  0.6621975616915559
  0.7449291789157564  0.5866610111822896  0.8359297726930138
  0.5847090746552699  0.4213369257860646  0.8286302436872580
  0.5847035489631900  0.5019718575764462  0.0809138021379693
  0.5832061471212293  0.5823671572107056  0.0027195459340481
  0.4987402664265885  0.5015599680293402  0.0058903225695259
  0.5021009336564654  0.5825308051760227  0.0863907969366639
  0.4984352131824183  0.3324252562184234  0.6664381911482131
  0.0818193213074049  0.6844170778268001  0.5903626588868880
  0.5784256675943802  0.4995381056503821  0.2546447383031917
  0.9962413600495349  0.7569886561219054  0.7519418853353188
  0.9980656982027352  0.6764676683016372  0.6663341116015116
  0.0746052060160611  0.7507881310656542  0.4930130626330422
  0.5024025746964879  0.5028568892667817  0.5068459646104340
  0.4995218121450354  0.5758462339170841  0.5894898602509054
  0.9799454017163165  0.6787720016226301  0.8261273370431614
  0.0708344418840325  0.6655171285137469  0.4204651396662943
  0.6669405551799213  0.2531400989178412  0.4247498695343668
  0.9917810546797049  0.3366356961938517  0.4971597422569705
  0.3277411015289879  0.9963638732048193  0.3310410027124970
  0.4163127945420948  0.0849009372969514  0.3319944763751492
  0.9976340146942611  0.7541233758363964  0.4117289853211780
  0.4994460351970730  0.4158852954677251  0.7465063457597841
  0.5001848099042873  0.3319055693068911  0.8304701937718683
  0.5833195189486400  0.5040337425019557  0.7481363192444095
  0.7552377832501128  0.9979075083776617  0.0858640734085231
  0.5022779641205485  0.2558558866221002  0.9139654648342693
  0.4936747354667315  0.2485802011891316  0.7486521623498920
  0.5754566287365549  0.2485183185904604  0.6599722978769000
  0.5776545429912382  0.4213918161067681  0.5075824228084219
  0.5809560241431345  0.1631643728120657  0.9217540494784888
  0.5812349432275442  0.5817005314172146  0.6665768070541599
  0.0757826633817589  0.0801032537702702  0.0131103709405908
  0.9878968882898997  0.0925450564430343  0.2516414868091209
  0.1609929560127529  0.0819244370848930  0.0841934545093353
  0.9738881070361799  0.3506552814592858  0.8354918652646541
  0.0073967903265127  0.4958633554056309  0.0099697669533328
  0.5807812074576253  0.3337849060067463  0.9194591282722656
  0.5834014460462463  0.5798530835692243  0.5007853693596896
  0.4979624107579237  0.5833189985627404  0.2554942533191468
  0.5012736147900609  0.4237505742400784  0.0846225380485917
  0.5754771683593588  0.3429331808622413  0.0822959868466921
  0.5841138738553663  0.4218582718637323  0.0016559662526409
  0.4929963814988876  0.4117124358488015  0.2600979230893308
  0.5901105657947084  0.3387287060440755  0.2451563833482898
  0.4823233151307601  0.3350659193060145  0.3480681705581342
  0.5060293781276701  0.5070609424613890  0.8287468101068383
  0.4984855567412416  0.5877358543469579  0.9237185056338197
  0.6657098072225492  0.5870923760889947  0.9198592045812164
  0.5071466048397774  0.4150844567682648  0.9204325118198996
  0.5775174367064846  0.4188681185498498  0.6687205759934882
  0.1538552982516654  0.6665798918942213  0.1607509055720087
  0.0777325612256582  0.7491466242984540  0.1683798893012965
  0.0819597883315532  0.7628749995207700  0.3248131901598284
  0.0739945258465866  0.2586211535145349  0.4884739029105534
  0.4978283571008659  0.6644068759906899  0.0076988608647596
  0.5029199471342020  0.5906850252831791  0.4231969631534190