 C Cr Ni 
 1.0000000000000000
    21.1200000000000010    0.0000000000000000    0.0000000000000000
     0.0000000000000000   21.1200000000000010    0.0000000000000000
     0.0000000000000000    0.0000000000000000   21.1200000000000010
 C   Cr  Ni 
 173 259 605
Direct
  0.6586896931706320  0.4184132132948937  0.3418822584370486
  0.9982248796076832  0.9186590552550190  0.5002660554602211
  0.2354405510425747  0.7602492604017284  0.7478486535825614
  0.2402072296074726  0.1604438598194571  0.8348837360288506
  0.8304838336476961  0.0711002786933587  0.4865255515603396
  0.6663669652163366  0.8301167179353688  0.2473515235003836
  0.0044787167297343  0.2293673278123020  0.6625533378717418
  0.2330627108565297  0.8489695173264292  0.6539985039092281
  0.0057413836174659  0.4067643406950098  0.3474501753869648
  0.4276411165145291  0.1527493122278264  0.5140438741484364
  0.5536486089531097  0.3957009595959367  0.2618349842161798
  0.9183481143632574  0.0899802133917496  0.7413929976026375
  0.0720693438723935  0.5795205921495380  0.0792155162026797
  0.2435933346667374  0.6736364667783953  0.4999457132261468
  0.4138994302629662  0.3452746066494943  0.8411782555959924
  0.2683407157299671  0.8140402222470030  0.0000513267306592
  0.8364312820510232  0.2468442086253213  0.3427928699667692
  0.5140463947696653  0.3519478867648069  0.3978311572069561
  0.1685794346691801  0.9134053807962806  0.9993499376334458
  0.5766611402156946  0.1725457545971278  0.3301821592009418
  0.5837638839878709  0.5672757567324522  0.2390798347107761
  0.2384267911200704  0.5536984734046808  0.9145034667023727
  0.8288840019327668  0.2534762387586675  0.6641840402409674
  0.3196151789164816  0.7681211298033573  0.8521072866629607
  0.9932664305420611  0.9889887434668947  0.7571049348643490
  0.0771050247063308  0.7508065052952659  0.2505821417205150
  0.9188332564966810  0.4953300180646151  0.9882122930026251
  0.5024010065574220  0.7556634778787145  0.4950611795406955
  0.7294082541698210  0.1466771807293371  0.6646641217332743
  0.9044067106007079  0.9178761458172370  0.5911186558055852
  0.8163520535050006  0.0006097261450479  0.9139198753012103
  0.4957972364790583  0.0079010338011034  0.2529440659348222
  0.8397002009866898  0.2385026326323270  0.1604031118700537
  0.9883078416018620  0.8200561545405948  0.0929065872044420
  0.7335490810250250  0.5110571643256246  0.1716837212333510
  0.8166891552772589  0.9065998712762370  0.8262646317306817
  0.3313189326669180  0.4401036221355449  0.8611143180069059
  0.0898747553837937  0.0814131781480456  0.0731374266879599
  0.4818676520294769  0.0151959960919519  0.5594284074616375
  0.5677260282937918  0.9248930460558897  0.4279353733136361
  0.3314485651348767  0.6607268472205334  0.0808118699580375
  0.7282443170673975  0.0463192648939790  0.5782094297606970
  0.4176844388363111  0.3290192132438955  0.1794488098657331
  0.6539087775918990  0.3382346719326098  0.9203613768242593
  0.2516270761815738  0.9971283935648116  0.3342635825641685
  0.6756177347573050  0.4371486464044726  0.5190514256434720
  0.9864103166640056  0.4958397105037160  0.7495476412684191
  0.5813592261632958  0.6583893902925014  0.3393165120841159
  0.5025276791650184  0.2697090008994434  0.8649823956998031
  0.4132424881408099  0.2354870660757141  0.0837253972842136
  0.2405368893117053  0.6668650317846070  0.8365818621702764
  0.7610976630237956  0.0065739799354794  0.3330582447616202
  0.6651972711070865  0.2446681639269158  0.8286356186499876
  0.8485077743141403  0.3264329607144518  0.0677746423531980
  0.2544047547717052  0.5764410561205783  0.5968665912032438
  0.7420531500096682  0.6648956356081875  0.9943337268470066
  0.5773756969852444  0.1726134423337045  0.9973210481550644
  0.0012977453811535  0.9957658642306205  0.2553906990375854
  0.4900439919535982  0.0977600400270483  0.8477584464356477
  0.2643816798082953  0.4123588469718506  0.4113929746036770
  0.0039389881522011  0.4864037529446594  0.5674674892337346
  0.2630015873038054  0.9108039875939092  0.0944139126586093
  0.0874216923768544  0.4070699156758500  0.7385460529229665
  0.7570535544490524  0.8311636237578039  0.5108715057928923
  0.0895306058063436  0.5042825920179099  0.3448341983791406
  0.3295990017996256  0.4197292042114973  0.1769049515922645
  0.5726077836099712  0.8339550743496236  0.3392982112827400
  0.1697872735060185  0.4302325290702672  0.5104784466293382
  0.0837059535647048  0.0811170780012683  0.4162521746663277
  0.7558871697683571  0.8272948705821668  0.1582582890024266
  0.4942934084469089  0.9988465510294364  0.7538635301896671
  0.6689920787162106  0.9184146467719942  0.3379413963165919
  0.7413038968678185  0.0112719896659479  0.1464472998601777
  0.8298315800481620  0.6642436278694317  0.2454170364874017
  0.3127628530087413  0.0076310265169628  0.5814389354363495
  0.1345269494559841  0.3119380403553826  0.4358727136902447
  0.3385631162814308  0.8461170805473804  0.7446589263232321
  0.9961655663479216  0.9081195966959763  0.0010428685420275
  0.3279273788859381  0.3450819379323576  0.7410061660951592
  0.5890010463941766  0.0772408719472517  0.0897687678529938
  0.2401259753068547  0.5683257473071619  0.0982830394460999
  0.5876386614580799  0.0929373376662167  0.7538127334699993
  0.9036723030194747  0.5865610480488421  0.5752084663862770
  0.4217742556826281  0.0020139150140429  0.0012945022886472
  0.2489972132046962  0.1735702107172524  0.0189370690613623
  0.0028198724142511  0.1545367145172354  0.9152660184241648
  0.5754868450657982  0.1014438981626197  0.5710283787919377
  0.9933205937082550  0.5027296089649274  0.2550091561151077
  0.0027557363894000  0.2605109545307258  0.0059410339435922
  0.5783063105958003  0.0018370873070706  0.6582656359697864
  0.9215836029968962  0.0127477349392523  0.9967207426576885
  0.2512924245839909  0.2614381256136086  0.9251739283207008
  0.6640520154365970  0.8283812971946215  0.0642992954671399
  0.2501154889081013  0.0035145933047646  0.0076950424161600
  0.2416075323529821  0.5625373134118135  0.4078791910398304
  0.6501524114334017  0.4164566253259693  0.1639403392350061
  0.4807475139908239  0.6482638138340004  0.7560355969863817
  0.0111883837142202  0.5808823356110207  0.6587546185480779
  0.5817226269943914  0.8436655473578730  0.8190470521099917
  0.1662642077896088  0.3344287233955687  0.0801610473197728
  0.1591636840083319  0.9116093249572489  0.3316651837540437
  0.8089719630900464  0.0040329578353735  0.7285122352761791
  0.5947274768071569  0.7595819681849724  0.9200553933909476
  0.5748604346625589  0.7454914131995771  0.2419325141813333
  0.7455589071708519  0.3264514936354450  0.1650270285506461
  0.3297141676278607  0.1024270978968425  0.4777244564537279
  0.2495693749953573  0.1662563451009788  0.3306426657885985
  0.4200914117764906  0.5729895302224284  0.8975895003969331
  0.8345625815844533  0.3338881379841784  0.2531437738699097
  0.7410935829189469  0.4985912768485964  0.6685994197303450
  0.4215160041523860  0.2504497833540111  0.7415624888343160
  0.5796726360065290  0.9257301176004397  0.2415045369134451
  0.0872684714823920  0.7400561464958972  0.5899321400891165
  0.0856010017433597  0.2671606650712444  0.4070560834806339
  0.0971234308247226  0.5018065253222020  0.8282722094288819
  0.3342367524966328  0.2832896252191665  0.3134816003541985
  0.8064632681985467  0.9094571233498162  0.0137647917981684
  0.1707695062417671  0.6614450812131429  0.2502817888277211
  0.4229151908635436  0.4188681419040838  0.0828914838665523
  0.0728626268099284  0.4034893707395736  0.9245364477772587
  0.2385068678356476  0.2518313141643632  0.7396853105999700
  0.2627204677223132  0.9201479970122080  0.9063507261698676
  0.4124907366903912  0.3431978457014504  0.4856095760937532
  0.3414993572301523  0.1674499251958319  0.9259243531963499
  0.0796864121794399  0.9099749953920541  0.0920664890329020
  0.6716566644426889  0.0108482160415457  0.4309135483415463
  0.0976205916897026  0.0832139958270475  0.7840209655847687
  0.5112583435420363  0.4394811801958818  0.8212562716235647
  0.3234457892991870  0.4170417090260354  0.9918647094144523
  0.9071495674311716  0.7430011958279014  0.7466930240176097
  0.6620165029631532  0.6617424127303033  0.7472391681733146
  0.0534869855808199  0.5141848386545329  0.5231422701582092
  0.7881699644373424  0.8979849489743721  0.6482235176838809
  0.3293690067655156  0.7512232170894575  0.3306088774579555
  0.1471761140316858  0.2571839062407751  0.8412125598331704
  0.0875498247984083  0.1746129781747944  0.5127439130076140
  0.8190241665884648  0.1751329137203668  0.7646066378396599
  0.7504557185826443  0.2408106821565444  0.9218583398887982
  0.1540155572861672  0.9321003879162774  0.8150304659682593
  0.3197421031480681  0.7650028640083602  0.1459380170033321
  0.0061219688420854  0.8153201433612404  0.9067930345264292
  0.1764325731761882  0.9298445273813147  0.5161866894708272
  0.9091847330312061  0.9076606308782675  0.9110750471032381
  0.1508820735519048  0.3066571365520818  0.6099819962259019
  0.8138876517051876  0.4887399172445974  0.5661006091860544
  0.7380283853321083  0.4167055540049212  0.0742530436398335
  0.1701613524038000  0.8197986122802804  0.0890154982055960
  0.3412383837631309  0.5660451368739562  0.3331463284368242
  0.1014662551200105  0.4919827408522733  0.1724637405201388
  0.3152187432357768  0.3457336721467471  0.5628725930671352
  0.0806821062304531  0.9923146948399729  0.6637142745144282
  0.1801069207473094  0.8162573876221745  0.8984630540051827
  0.9967360242582919  0.0846330427741253  0.1635254572509066
  0.9152782865496952  0.5059704756196505  0.1695834694524301
  0.4278835037136748  0.5074385838161931  0.2065202049640256
  0.4855001362735919  0.0996068395095773  0.6664486236851034
  0.4138894824783040  0.5098962543638758  0.4979113268627390
  0.0831414851622014  0.8287572296675054  0.4971772939694293
  0.4112881807571739  0.6751480198053941  0.9962583262042713
  0.1522561656564750  0.6516175491060459  0.7404260183930000
  0.5668250690197224  0.5060632327862091  0.6835103715677507
  0.9105035917395293  0.9230390982572689  0.4077084539705885
  0.8255934928903688  0.5087399296344148  0.0766428967714541
  0.2680683406391813  0.2436653014963347  0.4389409470122334
  0.3302412225662232  0.2525191595367500  0.8298020925084847
  0.8345304559593699  0.1598008018739610  0.5798249504636538
  0.8936969488997160  0.1849519206549455  0.0138617528481413
  0.4356512099011668  0.2301141732926182  0.3992151528300664
  0.4916762691944062  0.7645900917171702  0.6802117097041029
  0.8339627733196829  0.4194878436205346  0.1684950156617293
  0.1583857997461544  0.0092012568573758  0.9189914186651764
  0.1686776545090478  0.3553501061025172  0.2672906302278047
  0.9088792343708227  0.7500936160090006  0.4200177770837217
  0.4161427037622485  0.4313323808609775  0.8228906400657154
  0.5005839305427242  0.5845080293203723  0.0774041946232751
  0.6599434482154392  0.9980437685616030  0.9972413821370407
  0.3303611491902166  0.5734811234482527  0.0889617692251811
  0.2402006152127877  0.3411261157483881  0.7404866977412066
  0.0775345210932397  0.6690809633835508  0.4149444716166811
  0.9911065705170282  0.5831601885473968  0.5710732326742891
  0.2208871592572992  0.4122791762774690  0.3271731485621120
  0.5795034296881546  0.9205326352480869  0.3355106246371033
  0.4148582881603477  0.6627051023179878  0.9100836523112626
  0.9151317865121859  0.4994331872047440  0.0801004210941541
  0.9942582793289023  0.8266972651237622  0.4990353497649831
  0.2336581632020976  0.3456397238339806  0.6022435619804343
  0.9918692214848043  0.1706032029811637  0.0062130652681197
  0.9975722351743321  0.9049862788292357  0.9136154080155321
  0.0564603679440151  0.1703104528300771  0.6006900210615410
  0.1568962405422895  0.0199100751415519  0.8318908147070271
  0.9933999050913901  0.1712796823679763  0.4978027889496466
  0.0700828556276628  0.2619606243631301  0.4989638489015703
  0.0810105134285632  0.1710326671557189  0.4173538988540452
  0.0578962429234675  0.3560773302269302  0.4155748685332247
  0.9046580758581798  0.9989787380215017  0.7488946680516138
  0.0746689154614849  0.0863023576418144  0.5050829679837493
  0.9985572433837274  0.9141405143945553  0.4116913866381094
  0.2641380457754731  0.1540595331358508  0.4184766479089916
  0.0778968372816059  0.5202602478669837  0.6142246791081870
  0.9918432403865728  0.0888078535850225  0.4151740215386501
  0.0030388369457683  0.0764846277759681  0.7622849954005446
  0.0716910604585590  0.5866483565289093  0.8325079042438547
  0.3299918543303645  0.6728812828929316  0.8382681065759828
  0.9951292836931499  0.9112295914294669  0.5882155387456972
  0.1600598435172075  0.7340638237064431  0.0797604848136595
  0.7484150318379647  0.9182844630536394  0.1642387026826781
  0.7511255736460424  0.3294278135098933  0.0769155463811957
  0.6682791865479842  0.9193109022438358  0.2477184854570475
  0.5804021885940204  0.0812510594435847  0.8410250498523855
  0.5863046489793605  0.1665422651820730  0.0877820822838137
  0.5775374799606383  0.2644663124595930  0.6631089370470701
  0.9085307338685149  0.5825687411761595  0.6652935415915056
  0.5635779830721113  0.4139033886253299  0.1721768307830119
  0.2498285198298349  0.0072749840344072  0.9175999634676341
  0.2493205562287300  0.2521334680717475  0.3371888356451918
  0.1653699521217895  0.9188591959360579  0.4198052054791395
  0.1733512624900649  0.2320399329677139  0.4219194872087590
  0.0858181188282040  0.9174680866360772  0.5011420177833604
  0.0718319447320757  0.7490788507294918  0.8404806227201745
  0.0796426055747029  0.8208717706785816  0.0856263963757696
  0.9950334263033070  0.8181568054398841  0.9993407488413067
  0.1624845336925099  0.0029392429614607  0.0062285383868765
  0.3354218461804171  0.0955540744604460  0.5716467511776208
  0.0898666278772486  0.2576607035989934  0.6659212264036855
  0.1516816705154318  0.2457237080604049  0.7509128576514837
  0.8153421978437785  0.9119188057216528  0.7378674561200165
  0.0789805996926407  0.5831954767183049  0.1679878964630874
  0.5782762267660951  0.7495180793897940  0.8306276280491534
  0.7438944795118307  0.1750131188790485  0.5778276923275449
  0.1660315426097319  0.3337003084489307  0.1743041638452451
  0.3273694089260910  0.7579645376695557  0.7550954026443495
  0.3309449201048204  0.8400397272084594  0.6556575570551890
  0.3290216929972042  0.5911664785878765  0.4194551434308095
  0.5818745133884421  0.9129151799440298  0.6574362627694570
  0.9106867700684761  0.8186830570505959  0.9129316667066094
  0.2492923411771544  0.0741692266380864  0.8306898028432126
  0.9119221089064594  0.6628400754499142  0.4098923098225742
  0.7487157236420467  0.9777370822962491  0.0650300122448928
  0.9134361690779780  0.7484625378729155  0.3292098209035015
  0.7521521886884696  0.0008090207719134  0.2436200977033127
  0.1504807709565414  0.6622824443919181  0.8341097574222340
  0.1507261201188013  0.1579674271938701  0.8273773607101594
  0.2405079537475505  0.2499538941863856  0.8333010542867774
  0.5863885343525043  0.0809678366112377  0.0002954162529918
  0.9885420713521141  0.2566537950900727  0.5769956216996276
  0.9900849230281236  0.2498621916885772  0.7512112007506533
  0.1780621661497671  0.5060678336801907  0.3442372585544616
  0.6572701234399221  0.9954577377021809  0.1695455976472053
  0.2414684612343224  0.6724470397958964  0.7489182074637668
  0.9197469943776506  0.0886266664442848  0.4993600188830212
  0.9947005499679552  0.9086274564437773  0.2509151961137453
  0.0788448216541848  0.4137175103100851  0.8325531484557265
  0.6605452818242712  0.2489740847433019  0.9177731525262918
  0.9899341186785492  0.2509803210888044  0.9154109204995072
  0.7404240172436674  0.2508278606326435  0.6634581107046811
  0.8318302810389416  0.1541252844399902  0.1699471499641938
  0.6589046369583661  0.3277013346386876  0.1658272898748740
  0.7403047765697711  0.4188528210216111  0.1665934476242877
  0.4209862950365256  0.0637688939364814  0.4943315810649659
  0.6682135345508645  0.0027135885330155  0.5195103332334271
  0.1707341519875250  0.8361946621519039  0.4914824029618068
  0.8185072405471404  0.9971449106597666  0.8243125300159611
  0.2575353563309330  0.3988684600780346  0.5074176377467180
  0.7462870209749981  0.6683384629265704  0.5817437247802677
  0.6649164470987619  0.8171954886627011  0.8422823334753106
  0.9114504535789492  0.9103679530704264  0.4986482867558144
  0.0945159980775248  0.4168224700766544  0.3272733289675321
  0.9979961149257514  0.4994457355263805  0.3421743610429718
  0.1543105276100371  0.3392829620295492  0.5183783661003195
  0.0678638774455764  0.4216145008824882  0.5125955864324883
  0.0968823249525424  0.5973647028691627  0.6852865293190088
  0.0786291536671049  0.7445735360395743  0.9999542405107230
  0.9111381129624559  0.5855896131101492  0.9984201299626168
  0.9928206250411961  0.5846634759429442  0.7492889420427933
  0.0792203031336512  0.4965549290158584  0.9183393191935028
  0.3328177255174483  0.7572319851039712  0.2410176591134489
  0.2729080800222015  0.4700914701875468  0.9251208568188859
  0.7429859179125752  0.3327873219650069  0.2543210731319989
  0.2418287948341931  0.6543401755871482  0.9225265329001240
  0.6651194882684114  0.8290719608986866  0.3368881639091854
  0.8259659677275365  0.8844304325042002  0.5674024734168537
  0.1690555288078309  0.9094058799771655  0.0888939076920891
  0.9919071802156467  0.9084838515534198  0.0899277096071728
  0.1661881461569296  0.7492302535805923  0.2535021417203779
  0.0755522042253326  0.4987455816659986  0.7403912252115655
  0.1698276203616520  0.9158234813796622  0.9085340410009939
  0.7602807111451093  0.0590523932895020  0.6674057842587218
  0.9076215228337341  0.9152701505893489  0.0006496494276986
  0.6728983282721752  0.0883064953189554  0.7301610910814839
  0.6667228010575470  0.0040885370342439  0.6480627585726743
  0.2666304097589673  0.8320761628531963  0.9123673661786939
  0.7456192575823292  0.2489369913445628  0.3357069259443591
  0.1744953551020287  0.8239686050456538  0.9957449584080224
  0.2478976630977206  0.8465530901893451  0.7421929814578838
  0.8327525275230442  0.9990278015136781  0.1663581961516953
  0.7526680692304183  0.2518438891012792  0.8333005241704420
  0.7442717023008664  0.6655502392658089  0.0832184845023525
  0.4867033528418617  0.1027985943923574  0.5771105976490500
  0.2520714861556570  0.1705707020801482  0.9271812136608503
  0.9108603459938087  0.9988250542306245  0.2483735302863813
  0.9149785808644072  0.4079053655125197  0.0030790472250362
  0.7628644882479783  0.4231545681794613  0.5015250798417548
  0.9069326973179350  0.9122514032700643  0.8217704099140190
  0.8192210806439719  0.7433886633411506  0.7479865294955722
  0.0011635677642288  0.4136222633924242  0.2537919369166632
  0.8297031191063798  0.3352232794078549  0.3410429803431528
  0.8167398499983084  0.5827692033440761  0.5780108137796296
  0.9048083394826588  0.4959761753822374  0.5776298316907914
  0.2497838418948161  0.9095617342453390  0.3306833049478299
  0.9781829873955343  0.4952238200297869  0.6599427142896661
  0.3334469776569974  0.4164981844543196  0.0845373871150621
  0.3395462214047271  0.1714725907223763  0.0156697105735466
  0.0034684247427269  0.5009966308026680  0.1661462156374271
  0.4834175169670583  0.9070825446279587  0.4074714723106005
  0.5104763124936704  0.4168667062411969  0.0804291319460747
  0.9926291284003963  0.4082083171323504  0.7516112850375115
  0.4100752705767518  0.3361826046705774  0.5766880144839180
  0.4189047390828430  0.2563757360432868  0.8294619080786440
  0.3261859720388034  0.3407665909169710  0.8265555272474785
  0.3373341748459596  0.5082479599156819  0.1757825726382711
  0.4901048966207118  0.7392501336076824  0.7645187278970612
  0.4887970367872678  0.8363375445669665  0.8293707048975921
  0.4257656751447247  0.3270075033744549  0.3991701778635326
  0.6658303192516302  0.4259106200718710  0.9182578264419039
  0.6458403758320967  0.5056559048350807  0.1742409024372333
  0.5645992136320862  0.8426931377523239  0.9119453452493395
  0.8269556547081094  0.3374733992796336  0.8351477663859186
  0.4191588623456802  0.4189812866136702  0.1715507134504298
  0.7279409871871729  0.4996322743069385  0.5800284538605011
  0.4936793581616175  0.4299478492845116  0.7335680744395382
  0.4262112294991088  0.8294339345034285  0.7394639648330321
  0.4212360553688051  0.9168441778325455  0.1641964199397714
  0.7496155412734977  0.1692057837506772  0.2541658307759632
  0.3269017749828949  0.1926001291448276  0.5027876478305767
  0.4969340359087417  0.0896858025588077  0.7548880160523541
  0.3201826878360994  0.2561287767938364  0.5929434069736046
  0.4902723026833401  0.9229838702479454  0.5775995236490268
  0.0868526594062703  0.0826356724506801  0.1672687222801887
  0.1439524944198255  0.2258633700113367  0.5714526351497500
  0.3355886134997807  0.0777192810324776  0.2450533844000558
  0.4036683265988016  0.1472124534957203  0.4239181143631878
  0.2586498936205026  0.8220219964693258  0.0884835375408243
  0.2463214421963237  0.6646154949540536  0.4124808029912642
  0.4037081236683150  0.7533730808171940  0.6601627150459051
  0.3019340118666396  0.4871054196360510  0.3632550953049985
  0.2439683995339262  0.5845900232392610  0.5030090686099458
  0.9102647650803427  0.1692609777298525  0.9219628011266126
  0.1657984614738765  0.2520090903266701  0.2509003395063489
  0.9983977041501320  0.0826883546295003  0.0760212896887959
  0.4731066367614455  0.4363780250611625  0.2575655483976680
  0.6650698798199970  0.7419794383199166  0.2460481843325017
  0.7379137082336449  0.5056649175363156  0.0813391837348238
  0.5758484678239554  0.5737137984388783  0.3339767396513109
  0.7466831995624166  0.3350177554698661  0.9149362237304520
  0.4892347189588550  0.5745695600125529  0.2516549832821120
  0.6528158063610535  0.8225304213103890  0.9764455270250915
  0.6575599321116075  0.4124449478190650  0.2547200990156390
  0.3285414605175052  0.3097016576161756  0.4836064960330272
  0.3300013862361679  0.3453098252400371  0.6552569851979122
  0.8327074615167508  0.2449215900828847  0.2506124870879041
  0.4170376215973692  0.3438604137652917  0.7430506928503064
  0.8255418432746412  0.5072536620702518  0.1663766256659388
  0.3395813469535898  0.2584419842283449  0.9198229504166396
  0.3309916835006505  0.1648587661776716  0.8351864583771287
  0.8278770853190153  0.4214794643639747  0.2568186490362082
  0.3283433531342040  0.2539125196023606  0.7396732563240284
  0.8298155052985736  0.4978035858125251  0.6631188785239180
  0.0868045177485412  0.2492255121303718  0.1723739779275876
  0.4033039849246837  0.4887125412932476  0.9164237405484761
  0.7566645854934499  0.9151579292230261  0.3305246962406048
  0.5837293132240241  0.5056895962501083  0.5831749851762319
  0.8428557768947577  0.9778617844181486  0.6465378913436468
  0.9980048026825358  0.0847427340852062  0.2525780426254293
  0.4113739760450700  0.7533994665483741  0.4992106437604057
  0.5831198450847409  0.6649345749638563  0.9161883039687291
  0.5780541383419369  0.4170405177793327  0.6669501883618275
  0.2326075519044033  0.7561776619382733  0.8383938705371229
  0.2576593647577274  0.9134188972873357  0.0013004974919164
  0.3355104044329129  0.6736232530016867  0.1673940678279647
  0.9053870825126102  0.9963261832334354  0.9088135790508082
  0.9142925956313595  0.2706732397725636  0.0036470634007113
  0.8327211188473068  0.2383165740812908  0.0727696224629099
  0.4215603865744730  0.3278292286003940  0.0887687396919335
  0.3200138930046720  0.5161426846245593  0.6587302648928232
  0.7527185026211027  0.8418465789726725  0.0707876572691494
  0.6693540310606443  0.3405805501879633  0.5049357367453918
  0.8199842615038663  0.9107544376532922  0.9160582641546783
  0.7436704942187634  0.6663381869354579  0.4146353410774651
  0.8229920242038369  0.1634631593835916  0.6681476095772308
  0.6603098741683553  0.9209486525612164  0.4260821628387740
  0.7474263171312069  0.5792330002445603  0.8319542385331805
  0.0602805322574093  0.0908080066159322  0.8634033407539374
  0.7555958982826360  0.9644057274404692  0.5896993911013139
  0.5817627761122152  0.7472066363996059  0.3334667207850501
  0.5750408721420078  0.6581297210656080  0.2485525411486894
  0.5037902929997757  0.3399649192698230  0.4960000856642341
  0.7457778739926663  0.4165143937033386  0.8342632997300173
  0.4885686274679159  0.0071552745188275  0.6603328555573154
  0.5775772841426696  0.8337614843509493  0.2476484229435066
  0.4131674635606118  0.6749719028930444  0.5831889894207725
  0.4114717724076142  0.7516827195672060  0.8391329158130032
  0.3383396893359032  0.7466976088836943  0.0617712636524613
  0.9107831354710331  0.3310761160730176  0.4146974386942895
  0.5759447156228170  0.0926754343634247  0.6632817929939395
  0.3971093524771575  0.3376151082253456  0.2664275462516849
  0.3320804151839452  0.9334740449058707  0.7464762220869552
  0.8289694230570516  0.2503152510953362  0.5760737573083449
  0.4950793319081817  0.6677970797533225  0.6665042958349158
  0.4226295970214000  0.2462381626121123  0.4901459806836337
  0.4151817786011391  0.7524929932402765  0.1620905851220406
  0.4205247491220215  0.2405291324286011  0.1748251266426560
  0.8344323355228790  0.3295050503011315  0.1627688661123131
  0.8304906278419119  0.4166127357606921  0.0794851536268536
  0.6790279251070298  0.0699661462449958  0.0876215682631648
  0.6667250249280947  0.3373454669527696  0.8295054905603954
  0.4943861777729176  0.7521914671237211  0.5849272622252267
  0.2249313806943984  0.2529462868748473  0.6518827618567156
  0.5696169634093892  0.4156310222816420  0.3502081935056008
  0.7086724868404533  0.9118338656694176  0.6817651999857567
  0.5062261772419694  0.3270274078729935  0.1824557460570168
  0.6696856411632531  0.4242882516300692  0.4277477533417777
  0.4205592636884177  0.2456580626132754  0.3110903984521183
  0.6643535992283561  0.1041144823836191  0.5910591510570217
  0.4881109731279137  0.1658518242612445  0.3451508612250409
  0.5847548938053403  0.0008748073808406  0.7460138459149249
  0.7540258644119739  0.8326288175229969  0.2488682262723445
  0.8299024066396210  0.9999390981217601  0.0016939509351740
  0.6714618295524102  0.0074029038956011  0.3373632335138302
  0.6658809506869803  0.8296276560015281  0.1574219330936659
  0.5785623640905858  0.7404998399821188  0.6620443521265361
  0.8287729806115233  0.7425151257731356  0.9133493926499494
  0.5728877928977567  0.0105905532282571  0.5709992370898155
  0.5812785568352795  0.5023941337166585  0.9152618549860362
  0.4979224909529665  0.4999175059790979  0.9976174976737370
  0.4169002489828945  0.5810683623760715  0.9987737572013861
  0.5792693737216568  0.5041646002564265  0.0789605428434304
  0.5771094243937733  0.6667915862180755  0.0807196328558233
  0.4954163678767074  0.3404778445092448  0.6607867184357147
  0.5022570326556718  0.3483755888812635  0.8219303807152405
  0.5717430613183837  0.4870730531111558  0.2610384171147450
  0.5128551987680650  0.2333050219717323  0.9398276934219933
  0.5855904607898541  0.0102373689516631  0.2585353982672566
  0.5817288252682805  0.4931085336195877  0.7678081464168693
  0.4996257692157649  0.5884841270823541  0.4199957494582829
  0.4968141421818266  0.6690773923702040  0.4997713426365595
  0.5058135523271093  0.2631804670314477  0.7468286133590245
  0.5800641479732499  0.2577406645925787  0.8295410061469990
  0.5818457111013913  0.3438109178693874  0.7462086902590050
  0.5832822359371427  0.9923315962042604  0.0824501235622711
  0.5832009601981707  0.4239719714570551  0.5024636284943982
  0.5881117237946419  0.1627370320869562  0.9122514649375667
  0.4181320525967469  0.0781658961625195  0.3286248501061101
  0.5813630070216462  0.5898171623234493  0.6597162026003507
  0.0768321182785022  0.0869062249344140  0.9882786280702294
  0.9104519095701565  0.0796262372387105  0.1665485654122587
  0.2506457660746890  0.0789967182813611  0.1721738141420928
  0.9914566364637377  0.3324115490449041  0.8358114583930599
  0.0034074854487697  0.4969171764159007  0.0016021818551598
  0.9851948181432363  0.3371304507473242  0.4996094496922985
  0.9936891192488869  0.2519386209385385  0.4149257205065838
  0.8979832938701119  0.0948070932604756  0.0134210211858027
  0.7437715029540791  0.0756349230577229  0.9967764391235664
  0.5018358818049512  0.1805485098763626  0.8325762569422949
  0.4900696541037057  0.7509243805919675  0.2462773389001357
  0.4999142783468275  0.6663811110161114  0.9991204802927844
  0.4998734870165289  0.8369335497106253  0.9996403084182678
  0.5807755491610191  0.9155676787786181  0.9974827277290171
  0.0784949811419010  0.7428693563964349  0.4999889279798359
  0.0762703575619951  0.6559323356081165  0.5863792318978058
  0.4946013319401225  0.6706907184652725  0.3333676757535513
  0.4249317261600956  0.4116401418187576  0.9976375338784998
  0.5803990330399545  0.3303498727506517  0.0907474150570550
  0.5780156525673522  0.4177257432442696  0.9928119988850189
  0.3898459875458538  0.5074729969805351  0.2862973682993879
  0.5928997085702495  0.3194207662641240  0.2509311199597651
  0.4999080446392236  0.3320269575240360  0.3105743058715766
  0.4885384614150385  0.5189539137293734  0.8405287354265528
  0.5039003557972487  0.5853789377097398  0.9234984206619647
  0.6639163975433049  0.5826446340458002  0.9155704200408157
  0.9962517861695942  0.7436189282076177  0.5829283862653205
  0.9917797133695098  0.7471820810076379  0.7505213712129875
  0.9893061499455379  0.6622160961307484  0.8347430613631802
  0.6686900641160236  0.2531690161935808  0.4199010582936413
  0.3367736736508127  0.9935186022699092  0.3247338066858577
  0.6678103769974159  0.1648723544166208  0.1665505437629460
  0.5775132264283358  0.5041855065200751  0.4204375438799817
  0.9957169094613655  0.6673540636783390  0.3334187343781559