 C Cr Ni 
 1.0000000000000000
    21.1200000000000010    0.0000000000000000    0.0000000000000000
     0.0000000000000000   21.1200000000000010    0.0000000000000000
     0.0000000000000000    0.0000000000000000   21.1200000000000010
 C   Cr  Ni 
 173 259 605
Direct
  0.6583569422285036  0.4200584125709554  0.3359104760694525
  0.9809150620129110  0.4101176382160170  0.8458075892276299
  0.0840499674512630  0.7440960278783613  0.5862069746868328
  0.0806150131013440  0.2646450010439552  0.4078758358117137
  0.1004415717657220  0.5011636204400837  0.8190914259186654
  0.3281460859400040  0.2868302155387088  0.3146918790895966
  0.8073427755190298  0.9089855212440091  0.0137345327428123
  0.1670299419763190  0.6621424073801533  0.2523628589683501
  0.6691709391329750  0.8261466833296898  0.0628872658535683
  0.9233102050611639  0.0144421497765864  0.0016671106904758
  0.2377255238992753  0.2573589088108469  0.7376296354489411
  0.2649140977826235  0.9094932221110532  0.9009352236937637
  0.2504257002783134  0.0009776390416219  0.0028138377087403
  0.7485158804298317  0.2466275520122590  0.2556299895827189
  0.3227706230803080  0.4176177771241946  0.9851100042629977
  0.0809941193571178  0.4148001399417364  0.9264729141459404
  0.4172135976647451  0.4153513564148918  0.0856258205983186
  0.8382129794080350  0.3359578344219718  0.2553194727510799
  0.4062666518407793  0.5817942271530958  0.8976168192693028
  0.7438245636014097  0.4982423405934290  0.6676512645979493
  0.2422774034116648  0.5659201047233081  0.4090728943733878
  0.4872353936469535  0.6506532807179629  0.7558355719513652
  0.1616147679523015  0.0749634644200778  0.6595347117185495
  0.4099048096403058  0.7568867404256703  0.7534543007773189
  0.0577435483224331  0.3509481901133580  0.5060247891372374
  0.9089288753431437  0.9079015172872617  0.9137230011627323
  0.4769202705718936  0.0977835805154228  0.6686380920446322
  0.8175527630414645  0.4864940072572383  0.5676310841192814
  0.9168920918024185  0.5070151534524736  0.1677919271209266
  0.1709467649247214  0.8181974235163043  0.0917026178952352
  0.0036540353379664  0.2614754348318061  0.0087627178663391
  0.0181329930056872  0.5759256419988699  0.6641245361572691
  0.2484842196161662  0.1711461729520865  0.3300205505488155
  0.5906614476761609  0.8439011299200452  0.8118994982905401
  0.1677831965113566  0.3316910463120461  0.0833704780343688
  0.0071787934408432  0.9035885698355802  0.3340214483632670
  0.8097015163153121  0.0062176526995163  0.7311016555566411
  0.5925524926766756  0.7586166282955809  0.9211257437048400
  0.5749316305165549  0.7470545387629044  0.2425162254718737
  0.7470325654877921  0.3290235605562277  0.1629863106204006
  0.3257687648616974  0.1127491015933369  0.4754478869085782
  0.5742572007398884  0.0070053392391486  0.6559395362804430
  0.2431374188467968  0.2650729262793239  0.9231711608758670
  0.6731754549082916  0.0170158928075152  0.4361350670927326
  0.0946883991404109  0.0846497105161042  0.7877835321733401
  0.4126184673832036  0.5046826721693884  0.4952717949745190
  0.3290152288073633  0.2572514213346843  0.8286238669421545
  0.9174172094944399  0.9123725489487691  0.4200207975352563
  0.4263938580086126  0.5054303664480740  0.2019014318988909
  0.0691475799352492  0.8379750838138160  0.4887605696348439
  0.1759709724616176  0.3430565542450379  0.2770486886030185
  0.4030891866698065  0.6806573124366357  0.9999834228456580
  0.9108787724978581  0.7422637786272828  0.4170816109054659
  0.1511195416861254  0.6529227617340654  0.7363589173456966
  0.5702501692225316  0.5084747368292761  0.6732123754377719
  0.1590993857626725  0.0044240339518715  0.9177707568012052
  0.8249726400654614  0.5087954844595299  0.0752986976141665
  0.8955587004367364  0.1844903256996316  0.0205718730682662
  0.2635566291752107  0.2501060830586243  0.4459094188361381
  0.5051216693495958  0.7652513366402626  0.6736977780009630
  0.8338641447004728  0.1611762305061673  0.5812582884273503
  0.4327352331616798  0.2319525862493954  0.4008820273179928
  0.8338211668689085  0.4206430709400543  0.1682637733555782
  0.4197878350081315  0.2584079707198428  0.7478318011024951
  0.8456327356516349  0.1562134635842117  0.2631911334180626
  0.1738746961516067  0.8138769303870419  0.8975139079262661
  0.9971990076417542  0.0841299475957620  0.1720790094126827
  0.1615111054015152  0.3117795059587767  0.5986828309612451
  0.7379198116809237  0.4155794175523109  0.0741363769625375
  0.3404626703225594  0.5668456095087788  0.3307463386594659
  0.3169042269932282  0.3514507809839778  0.5687025392065121
  0.1725256262668352  0.9276976886407909  0.5093180403330634
  0.0014361989711480  0.8192549567863057  0.9071902590040011
  0.2313509405549610  0.1738076811539492  0.8308724610764580
  0.3278796415056371  0.7486643004157837  0.3270118368084827
  0.3159785169100036  0.7591522902492329  0.1444658595139991
  0.6643831478766333  0.6693859476272752  0.7446029395723012
  0.4465166303711867  0.2926097104904626  0.2425729284732707
  0.4160157846352527  0.3461257681821299  0.4892457535437866
  0.0836479678519661  0.1708553952887452  0.5102594559361315
  0.3346130179413357  0.1671739265858689  0.9202475121278515
  0.6577624303390617  0.2465409773896965  0.6668665470300785
  0.4162359139321720  0.8354327115514260  0.1681490174542755
  0.7556230342408720  0.9132432511958170  0.2490469139977534
  0.1458585808812991  0.9316326664422856  0.8074846501409176
  0.9973159021829771  0.5008817114182351  0.2507668575098812
  0.4998420636072853  0.8292247361431850  0.0749705957400899
  0.9982769367432270  0.1576761862765186  0.9205905410063169
  0.5546751848047340  0.1101494670003822  0.5596328036925037
  0.6532787086574137  0.3360738996551120  0.9215890423694727
  0.3280805403697508  0.8502200650789111  0.7476848289192218
  0.2479040436813850  0.9981426987308493  0.3346713454032774
  0.3353001114952279  0.1520197920169058  0.7368120760500116
  0.0881739129373728  0.5018265486147481  0.3409495252761526
  0.5014306948126652  0.5827395807378762  0.9969416821495550
  0.7471918680536674  0.8274195816056967  0.4984898907680781
  0.9065691990065323  0.5858796002530019  0.5772349765470182
  0.4937149797578348  0.0022143829771411  0.2502248956345733
  0.9339345515934200  0.0343138951558883  0.3341973301234181
  0.8446976718921479  0.2387661626149150  0.1601557222050605
  0.9909033734290194  0.8180458904675518  0.0929253187335639
  0.7337492707458158  0.5107459615902850  0.1710858602049373
  0.8178997240616820  0.9063336843127427  0.8254697882961182
  0.3211408987337895  0.4403340288654777  0.8349643445156988
  0.0883960836489339  0.0803477243481667  0.0771009377171404
  0.4757800636985454  0.0131009579706972  0.5561868035701396
  0.5680444990181159  0.9258000730200089  0.4319797590791458
  0.8375417447834954  0.2513300213307199  0.6717533566562151
  0.6646089355246020  0.9236854937589382  0.6765439271445839
  0.5726052305062677  0.1753297262259148  0.3260272114599025
  0.7235552249276683  0.0638075997985953  0.5838905475027504
  0.9097331604108553  0.0039251555313884  0.8261420662435052
  0.2316725584480701  0.7569824777936019  0.7439630068808277
  0.2559678406888916  0.0125290462468277  0.8127578279060861
  0.8246837901833556  0.0724962987544246  0.4863532348776118
  0.6641606862423765  0.8267481594649537  0.2483368019946214
  0.0162632557092810  0.2210339683701123  0.6662955973534681
  0.2284237927469180  0.8461079770173143  0.6508844396537159
  0.5008590582892830  0.7552672706620106  0.4940961725521795
  0.0746773055326461  0.7508857190472868  0.2506467976658291
  0.5518253573571724  0.3958474564860997  0.2555178042718814
  0.9168662419175720  0.0949172505522533  0.7311528950167876
  0.7477867475755524  0.1550007000712782  0.6742887834906336
  0.8177708608910742  0.0038454760412879  0.9155769234171339
  0.4196276057978015  0.1545157833014492  0.5174264399725231
  0.0019407444795361  0.4045679794643516  0.3488222813013266
  0.5836146062842217  0.5674488950001273  0.2407523996428532
  0.2333563508200376  0.5525147707973149  0.9227666029111694
  0.3169969424534138  0.7679966094070823  0.8541190355448233
  0.0009921229475660  0.9928485651972705  0.7449798020371854
  0.9269488467667515  0.4908127950332671  0.9865341897565494
  0.5116960365841259  0.2353945140359322  0.1651323131519432
  0.9964010892179713  0.9079033394098932  0.0030046958473311
  0.5841762542650736  0.0777885614228895  0.0911065543496984
  0.5918309581266773  0.0951642277111479  0.7437350511094425
  0.4216616578956506  0.0019103060595409  0.9971004425072768
  0.2453440184110288  0.1711569665914911  0.0147895776917121
  0.2279721897828240  0.2031573318288156  0.4938395692279153
  0.5726202993905428  0.8334648357919681  0.3393296571370723
  0.1696660738645395  0.4315953012015877  0.5034648009430343
  0.3049702924727787  0.0205567969761888  0.5813866496048771
  0.8311514058094065  0.6626083417898820  0.2473153717272386
  0.0707570409788942  0.5739772310969781  0.0822585880142489
  0.7539681572693877  0.8240257051782407  0.1584030178890172
  0.2440033602382619  0.6729612389090580  0.4983254486301421
  0.6618453558242381  0.0098948141047100  0.2451278222592529
  0.4137408522607705  0.3502771460178563  0.8481491360021611
  0.6663856807198888  0.9173744002552273  0.3412511632268909
  0.2680090250221364  0.8128057668131343  0.0041513444974865
  0.7540701349928602  0.0091742323025618  0.1456610456736018
  0.4178663091439200  0.3256532184754845  0.1855092950901544
  0.3277805641954667  0.4126348732268008  0.1844625306726546
  0.0784370338945066  0.0796483679440120  0.4120947939734538
  0.1685941888081085  0.9101298835614926  0.9978561862425660
  0.9055579186514328  0.2631398662572793  0.9191983171833439
  0.5134875686951021  0.3526910505238822  0.3976108048738808
  0.6762464431187218  0.4345967552092440  0.5165826315652411
  0.2401468214759511  0.6680844829515737  0.8365594717109374
  0.1315947794661240  0.4516771281335337  0.6781780400895968
  0.9847304940140118  0.4959889305008334  0.7501861290094227
  0.5831860245719577  0.6582040943363966  0.3392190839626908
  0.2617262391603438  0.9121311264961032  0.0936599789407264
  0.5080049908649729  0.2647519774134295  0.8534203117317569
  0.5036575910674764  0.4072455966533088  0.9910099916893805
  0.0074107992202139  0.4873848115874460  0.5725746469119281
  0.7597143340652013  0.0071527194739120  0.3343972087209601
  0.7440550585600475  0.6639964737168659  0.9939753248224457
  0.8517451341284126  0.3285549834560318  0.0641195149029317
  0.0808003206638334  0.9090978193513681  0.0930628610217240
  0.3899523030421160  0.4896749612752724  0.6648965259088919
  0.2759746231124586  0.4138913472947393  0.4207666927378875
  0.5810999433542772  0.1705086715049957  0.9996537549092740
  0.4933077819121238  0.0879470237163697  0.8433612696477170
  0.8313080561498144  0.4968838132075886  0.6627551205153173
  0.4161875964118964  0.4352432422039865  0.8212168269374305
  0.9142915897374561  0.5008362186233015  0.0782987134882688
  0.6599850111409645  0.9986834843903553  0.9964747107322699
  0.2473732617478138  0.5006044575812758  0.0899447307104233
  0.9942815031691461  0.5824988311062960  0.5779904568717810
  0.2218717090482497  0.4084265156115146  0.3380030826409460
  0.5776143993763997  0.9194308307552282  0.3400892879193145
  0.4977470274460852  0.5845878355519650  0.0847847481003520
  0.7634768233495957  0.4192382640543690  0.5033076741464563
  0.4171835917831231  0.6692477786446946  0.9111202144131924
  0.1556190521562292  0.4342076232734506  0.7641907215210344
  0.1651491405999803  0.5759595451258993  0.2513746405608257
  0.7444549600327711  0.3359339749693511  0.9115042943985140
  0.4889072553046102  0.5746480118416412  0.2485495986484597
  0.6541863069166783  0.8223130903011603  0.9754172053865284
  0.6597364220348715  0.4144539831885898  0.2483734407576742
  0.3305652841733143  0.3188849330912341  0.4854445474341644
  0.3381120879143314  0.4359269012252933  0.7396261184432944
  0.7371814185167097  0.5049756009926641  0.0810870123829504
  0.5759200495979405  0.5737187829300281  0.3335181429409887
  0.8372458387305247  0.2474314448873320  0.2496049568298069
  0.4193745547916400  0.3483488260237386  0.7487994942651535
  0.8263077804260105  0.5084075678039247  0.1656728506034272
  0.3351475800841985  0.2580357513384526  0.9190055211564760
  0.3287590281776284  0.2480248569404737  0.7376447776126163
  0.0032054337459356  0.4129515207823168  0.2534898388721022
  0.3248829789278329  0.2003566144203159  0.5067921380983482
  0.0781281492533182  0.7467801512896737  0.4954042097218250
  0.8289991212567926  0.4225090713207682  0.2573137596668487
  0.9871317083930305  0.7449880758223926  0.7493444278702007
  0.3256126508115360  0.1681431458848457  0.8297807652596507
  0.4856981257152824  0.9229871949852021  0.5770461483614030
  0.3235724581434078  0.2635690079557626  0.6005434883846800
  0.7493685665116132  0.4176666621909575  0.3365357333913139
  0.8190155847863335  0.5817038559266836  0.5777149169255521
  0.9079271827277136  0.4958849277467786  0.5767773377371470
  0.2467438606070961  0.9097189173848823  0.3308690917618386
  0.9769877983945766  0.4944485942826113  0.6615666074334190
  0.3268497272828556  0.4188289434586581  0.0869642495545110
  0.3351633583500185  0.1663824230751446  0.0095512992782315
  0.0048098490182336  0.5033841572210503  0.1613069568233331
  0.3334764912221728  0.9959455646060336  0.3260766836845235
  0.5065829714911443  0.4131544794222698  0.0849804446247722
  0.0814895570714946  0.8204274565140736  0.0856334156596639
  0.9965083558116380  0.8183007847346105  0.9998006330054305
  0.1627445920199067  0.9998747472190148  0.0050066528594999
  0.3428129844491768  0.1015633102853228  0.5661089003888962
  0.0957322731958754  0.2599720948047176  0.6611212641514276
  0.1498888807225089  0.2489102216184975  0.7494342197722743
  0.8300042990483302  0.9136781240863618  0.7374137793342673
  0.1648385207641174  0.5786254595502622  0.0839800864589849
  0.5832514631390895  0.7524656479872488  0.8294469361825264
  0.7434901831398499  0.1592298353356430  0.5821685840550875
  0.1706989458251109  0.3321010069793475  0.1754540737011962
  0.3228065797456326  0.7595489412358338  0.7586351898914262
  0.3308509075702452  0.8397403338496632  0.6577095681785315
  0.2252455763127145  0.4855526326831134  0.4448550700756584
  0.5762590036341334  0.9188979358486109  0.6550274827364925
  0.9106353474513211  0.8192060707811111  0.9129396310136435
  0.3133842445251146  0.0668106389324143  0.7545967365877775
  0.9132037789836930  0.6563825351030996  0.4115278532915204
  0.5864377801896649  0.0802688178761623  0.0000366092047808
  0.6664874741209860  0.2474323306697799  0.9156757205017710
  0.7553117094731649  0.8400157780097807  0.0707673645556082
  0.0734737780842412  0.1679254185491043  0.7397840446258076
  0.0812402688291481  0.7416350071476748  0.3395178594666460
  0.7506474170140532  0.0009752790229028  0.2445957316900991
  0.9969903055358544  0.5000319207374919  0.8360677695988348
  0.1429259294435828  0.1597507133683491  0.8308998447953565
  0.6650765820263244  0.9917926705632786  0.1576980215408306
  0.2411055436483688  0.2608387183230342  0.8306657090514137
  0.1767774352650600  0.5047296152183883  0.3441184101786470
  0.1478604923601777  0.3415313081813514  0.5099265810389491
  0.2405339779077824  0.6695212593784353  0.7482389557691143
  0.9183100746619032  0.0811454254748643  0.4962832515520655
  0.9207629008082536  0.9938370686404051  0.2513437203202982
  0.0003359128167304  0.2502602550741116  0.7523616243834220
  0.5810922515464227  0.7466564596409092  0.3330843502076080
  0.1502048625315446  0.6645263802318951  0.8324845431818430
  0.5061464641074551  0.3390027754017038  0.4973264817418571
  0.4835928124413590  0.0060304340699193  0.6587377936917961
  0.9082148932385231  0.6612481955971448  0.9135417194865315
  0.5901876225416578  0.7414838328928505  0.6641889095342386
  0.6641664633762411  0.8297074144685942  0.1586138203116720
  0.6701180711028633  0.0069812662520254  0.3374576689666302
  0.8315812562286866  0.0005380326879665  0.0031188655557009
  0.5648393841032729  0.0164244908587430  0.5686445135831623
  0.5854927896507359  0.0030847290127550  0.7443390515965662
  0.8416186829228612  0.8245098537023759  0.1669048702710400
  0.5086384267024630  0.1686127092103690  0.4974326496519727
  0.7348517723327985  0.0833980994602334  0.4936167237362975
  0.4959937510031768  0.3369932061033630  0.3085029978206613
  0.5761049529777491  0.8346804166035585  0.2483091336559639
  0.0885639556642119  0.9952796093595195  0.7491431875155002
  0.1585587289698337  0.4274142968891206  0.5934102044626710
  0.6608325166186426  0.9243514540228188  0.4300143731400426
  0.7445856247761272  0.6652626241558376  0.4147175927492476
  0.5851208089463514  0.5049483170586085  0.5810208128451613
  0.8304931026150313  0.0901121779171623  0.7591125326025017
  0.9950738246827685  0.0802849338009565  0.2600590696178635
  0.4106295443811281  0.7525674013295724  0.4980242258775420
  0.8368452161880989  0.1612592846078577  0.6705727072388752
  0.7468925855571913  0.5820063535672451  0.8312551964893837
  0.7553700393045034  0.9803163159451391  0.5782389884101079
  0.5769907667828154  0.6591590735315551  0.2475514647611098
  0.8249426179623759  0.3335958607937715  0.8354358683913210
  0.7547711636385979  0.9150641867566935  0.3369415848977122
  0.3095135471188900  0.5231683268967626  0.6691977210224607
  0.4970899492655635  0.5931755165081180  0.5851422877851217
  0.3399448089343977  0.7469140437662491  0.0595187100932187
  0.6716099535001571  0.3380101829109409  0.5055332100749476
  0.9114377930662320  0.3317374437689754  0.4145156959378817
  0.5691917788741090  0.4150373990626356  0.3490563671850099
  0.2573691424183039  0.9107252077886788  0.9993112449271937
  0.5088390164737243  0.3304192607936585  0.1768169657216203
  0.3278595831684775  0.6670121844329598  0.1606829956254565
  0.6691749452380215  0.4220342057011587  0.4240252316908604
  0.9071603898312097  0.9967880442288944  0.9136066920923431
  0.8278879139084353  0.7467767772075472  0.7463368145798193
  0.9145101891281517  0.2708048862490201  0.0064640620020863
  0.4091267627057524  0.7586154228881468  0.8434791567033058
  0.8310302762724022  0.2400339081626188  0.0728045345873838
  0.5835754040191163  0.6655217754990889  0.9149938160104630
  0.4199731494597554  0.3235919959910316  0.0895838689923153
  0.5823805131990949  0.4167814117490243  0.6697492561161410
  0.2283888999456005  0.7567765065226670  0.8352236323191065
  0.8201729865158367  0.9123915369478696  0.9169734628580901
  0.9871239722931664  0.4084572865248984  0.7528327511332007
  0.0830119476786376  0.9233950678881474  0.5054478212764721
  0.9081241978492507  0.9145248248167730  0.0025435003864694
  0.3304883327619146  0.6713371041370099  0.8404602393336986
  0.6638108079509197  0.9169090788195630  0.2498187606437561
  0.5840365886073549  0.0836850093748030  0.8351960837903097
  0.5874516352600145  0.1660049475802025  0.0886055764776396
  0.5729636611235424  0.2590185576662384  0.6700334659656517
  0.9063076181476523  0.5830747359609452  0.6673484137075547
  0.5797291831069455  0.4154816266357800  0.1677440604656900
  0.2498196040281376  0.9998217306082482  0.9124952891203001
  0.2447198734699378  0.2577302978355975  0.3426033496117220
  0.1595682885179143  0.9989017604739611  0.3277586968831308
  0.1664972123361789  0.2437154174942865  0.4375102851855254
  0.4183165341105760  0.2601469585829654  0.8363106792722979
  0.3286939692226967  0.3451397795629526  0.8124934998599430
  0.3333544551459390  0.5033484589967824  0.1732144022992424
  0.4956186193943325  0.7442916765291884  0.7589086490106917
  0.4961677584240337  0.8403875958263850  0.8268230697466684
  0.4255724145846312  0.3279345099206273  0.4014776542658796
  0.6623742333262237  0.4253596156928663  0.9120315801530973
  0.6461686987291613  0.5037391200768363  0.1736867546703332
  0.5729741078247360  0.8443993934317643  0.9052221593255563
  0.8249982998709979  0.2511253085710299  0.7623835913379723
  0.4156095530467223  0.4157536305532206  0.1727326819882354
  0.7308646762202138  0.4980057547964266  0.5780281677022663
  0.4155060417456928  0.4171156868145488  0.9995462836845068
  0.4165120393895587  0.8451790271958078  0.7481714373507817
  0.4176623874109600  0.0011880491211303  0.0879278861366661
  0.7534952046093860  0.1601084563592283  0.2550441307492434
  0.4980839380154754  0.0881066702711831  0.7531073328841910
  0.0856472756706436  0.1697025385467233  0.0860780722500536
  0.0844440495032788  0.5134192626540495  0.6131064545024885
  0.4207773873504668  0.2368150364506435  0.1686364373995163
  0.9862364683728093  0.0848559252024791  0.4040915749980030
  0.0041123239823050  0.0806197314889877  0.7610167431307167
  0.0715211756218583  0.8314680238783583  0.5821550205205122
  0.9089755547502860  0.9114311562314314  0.8244318526879107
  0.1439332118462260  0.2278403704438867  0.5607751318869074
  0.9978584789913454  0.0824985316383264  0.0821618223963734
  0.4019293644482189  0.1501112252095345  0.4241849857226359
  0.2582234373734694  0.8230880781394955  0.0901773880276948
  0.3045676504821067  0.4885689277153555  0.3647058414950634
  0.2441415395326928  0.5838965768541893  0.5023969041041532
  0.9077806848128214  0.1714873301453778  0.9264642528517566
  0.3346431716937585  0.0800176079585746  0.2455129568559291
  0.0875513076794083  0.0809934297704139  0.1706343636492288
  0.1703496827351792  0.2503886864845998  0.2533756567078604
  0.2452287420168885  0.6637106860685271  0.4119375202298567
  0.4106007083472800  0.7569788243423239  0.6617747974975755
  0.1558195164849702  0.0172119363721823  0.8312890297855995
  0.9897670308885967  0.1668900715499352  0.4968528693578975
  0.0618044186243622  0.2591881829499948  0.4981190008454507
  0.0758478229361003  0.1699752183085442  0.4155354850576592
  0.0554082695639246  0.3500018829282879  0.4171070887021385
  0.9921583975591469  0.1714108917561811  0.0122306639713364
  0.9972303004099178  0.9072456209118298  0.9154695480621788
  0.0579335194136049  0.1673657362669207  0.5979663717930483
  0.9096680763365885  0.0014199852588408  0.7388344554215280
  0.0653647861208066  0.0811059549981071  0.4998898788199571
  0.0065925217815774  0.9032123351465994  0.4238866559153542
  0.2587608780150020  0.1563684682726151  0.4185450074637452
  0.7535596157167942  0.3275112794991471  0.0746685823215940
  0.7488568065148490  0.9146105651078126  0.1606650852364103
  0.0780255340876278  0.6644414203378738  0.0847244707180629
  0.4084666045989934  0.3321329275887098  0.5798122963891474
  0.4237587998585017  0.2482200317097048  0.4919360178593779
  0.4732014935900165  0.4374376408774230  0.2552488308849791
  0.7582804999930591  0.0654588864707771  0.6723979935577021
  0.9943829594454113  0.7311199265155358  0.0821754910945437
  0.9121399810163754  0.5835717010007831  0.9969598055249336
  0.9863135436029483  0.5854528613424702  0.7501620727261427
  0.0806950168817975  0.5038422176201865  0.9159426994381636
  0.7458909633374222  0.2549318854824396  0.3444261303017530
  0.2410245683854026  0.8430950655708899  0.7399288562485729
  0.7414231363034750  0.2507272137384186  0.8365762250583433
  0.4687086070219019  0.0990381473784310  0.5809030879476160
  0.7486682008617958  0.9770627115484357  0.0626996806619828
  0.0735227534740934  0.5066210578219444  0.7314994106171889
  0.1583604121190834  0.5692963314917134  0.7715091918696805
  0.0702475825812075  0.4376349660068898  0.5196162548348868
  0.9976198600853103  0.4981935756533476  0.3401456242191749
  0.6587721833563535  0.1577775290342733  0.6761049130468618
  0.0743247449447150  0.4137322280338619  0.8368713739252921
  0.9971978985065695  0.2526361522113495  0.9199359936235202
  0.6640384908976454  0.8281070035293597  0.3375347487383968
  0.7471039529068937  0.2461543862576080  0.6712127114424736
  0.7491582872172881  0.8271047085663644  0.5874465177383966
  0.0897464098842323  0.4142005093436281  0.3284468784883958
  0.1696286943161624  0.9094981114065991  0.0878648321222314
  0.9100644896460228  0.4063897965065378  0.0073046281401858
  0.9939312048318557  0.9066261350637425  0.0916310891393152
  0.4157534869167729  0.7460400624558390  0.3304954613159046
  0.1648885512968690  0.7499894814262794  0.2550817219358896
  0.2756502218336617  0.4730494566483345  0.9147280591494370
  0.1682378289803668  0.9100809536839903  0.9075271245394246
  0.7465198296866975  0.3359911807838825  0.2524520614437523
  0.2441788375437872  0.6589762119915457  0.9238983916578455
  0.2599026474778073  0.8223698632814085  0.9165384867351180
  0.6652418947605020  0.0094146587602527  0.6465592334556054
  0.1708413008315583  0.8209864308925686  0.9986942713037358
  0.8397405915326078  0.9924875932421221  0.1686965241403284
  0.4100509786636257  0.7454984873053073  0.1619391908223004
  0.5669123100733203  0.0957670878590025  0.6572582324388120
  0.3830478538499061  0.3472410119308185  0.2699657658806455
  0.7519673515510682  0.8255515119754785  0.2489219763835546
  0.8301967748825448  0.1638471155981925  0.4931246658931870
  0.6755410368978044  0.0733321885707359  0.0833778034884596
  0.4970075698238182  0.6687017282600665  0.6641318905491127
  0.7508930426252846  0.9100105903463469  0.6608774473222951
  0.8288679502839171  0.4175162552268558  0.0790657198354581
  0.4120614896291149  0.5834445295588073  0.9973696643766821
  0.6617326510924588  0.3396327390830496  0.8298358526240083
  0.4952267681012569  0.7532702980903536  0.5837297009755170
  0.2221225099587028  0.2538357099883108  0.6514425196206457
  0.8367359726576655  0.3309598308759360  0.1616747831340249
  0.7454628880587724  0.7365317170459048  0.1613767649303371
  0.3301168745400374  0.8566336461234600  0.8375149074375425
  0.2451118348291296  0.1744178726373967  0.9226554304643263
  0.8461730736679888  0.9953465460515846  0.3325565186511558
  0.8292765639909808  0.1533715276718233  0.1689417206237646
  0.7499047609822083  0.2409963925082513  0.1642895596516044
  0.7414932664483560  0.4194022393786487  0.1674167142050861
  0.4167600231689031  0.0640318315448072  0.4890404425143016
  0.6648852852151210  0.9999834407255097  0.5231377996917875
  0.1636520486384886  0.8339607110975000  0.4916933135713301
  0.8196609024314094  0.9972684657616380  0.8251273953683640
  0.2602434704904059  0.4074811189327338  0.5153922054155919
  0.7480740602078860  0.6673608396150740  0.5808896969663874
  0.5636591708693873  0.8269137796583154  0.7279750899153041
  0.9143535505195673  0.9063956000411463  0.5068207352779818
  0.6645254737517950  0.3336543484059666  0.6723968440009144
  0.6761115530261468  0.0779259556532477  0.7529498400887151
  0.6660747327976444  0.7493683332693236  0.5821145065864184
  0.7446208238832692  0.4216349115133313  0.9890867310840588
  0.6638617997236438  0.6670084753662335  0.4993352507044818
  0.6622627089612433  0.5066112584431965  0.3362532197803402
  0.8260779638693742  0.5875985263119212  0.4121070483746371
  0.6535626760826637  0.4197978198995306  0.0847806295228985
  0.6622090951114201  0.5020527932450354  0.9964676066334401
  0.8247841454752864  0.3343056321069645  0.6748921084873674
  0.9106792324366537  0.7414751747658039  0.9966029389434603
  0.6680117457239143  0.3326168701377121  0.3388859480253312
  0.6650159832587818  0.7554229638410735  0.7498913612801232
  0.9127065108394362  0.5828325443757896  0.3322583665609440
  0.7494070074946251  0.2513876587031414  0.5016447390921288
  0.7508034233628483  0.7443697544055932  0.8280108988214882
  0.7457650481946799  0.7418354854716110  0.4974939622294680
  0.9068580401803913  0.6646531175062044  0.7480851391628833
  0.9084972559102958  0.6700453346737631  0.5833633114439686
  0.7446704319453089  0.5000656889693653  0.7533695156703281
  0.8338256356235125  0.8245792891086307  0.4992926444939624
  0.8305612383444403  0.8283499803195364  0.3325789698322432
  0.9156315992848209  0.7441469894657977  0.1663856318043413
  0.9071249621650843  0.8223945762456873  0.0789365821524001
  0.9090377405764503  0.7438823577941635  0.8293415695634697
  0.8280291184706566  0.6653914426266246  0.3348619680138712
  0.7450428992305700  0.4110924364969131  0.6690033730016457
  0.5858742081026903  0.5828316039901600  0.9967686173379529
  0.5682153513139618  0.3336878404886986  0.9163101324774323
  0.5800940588099648  0.7462630993861328  0.1574699169398258
  0.6625376656585484  0.1650079212105029  0.8316034211146681
  0.6652181116254418  0.5031906648797139  0.8334623712085478
  0.7468030470100109  0.5855514874843122  0.6641632649754098
  0.7472407815951718  0.7504847006999288  0.9969620093866074
  0.6616875128844573  0.4104522296961984  0.5964197744774121
  0.7454927570929550  0.5944964779452164  0.1660079357523895
  0.7454320257464814  0.5843207485906866  0.3350581513582834
  0.5855127835473218  0.3318472742803998  0.5835408593097514
  0.6647024905635632  0.5822132313803853  0.7494630998925246
  0.6641250566430766  0.7474954214586993  0.4168928533512567
  0.6622937177822626  0.3337360337850036  0.1627233662168909
  0.6661131643415112  0.3362145811558162  0.0067924512862587
  0.7454354879630510  0.6662559723933621  0.2509877468646194
  0.6682776463020574  0.5862997869448618  0.2522960736574423
  0.6596971163643753  0.6639772543968828  0.1636298482117304
  0.8308774452970072  0.6645705262583399  0.9963188227287328
  0.7416717975207064  0.1639464535547827  0.9133215377089237
  0.6600847055344445  0.5149913087226002  0.4916382659703348
  0.3323732546619729  0.9962605402869329  0.1674527075237854
  0.8265295869453155  0.5781808546385163  0.2538947033115726
  0.6691724084655225  0.6676400816563443  0.3331783813170431
  0.7499945660460809  0.3371783472225244  0.4223371947291928
  0.7484567583680957  0.3311214856229619  0.5865712546086211
  0.8340591898278364  0.9027537462371132  0.5801274653825151
  0.6700431219677025  0.2510331566208652  0.5805658993250821