 C Cr Ni 
 1.0000000000000000
    21.1200000000000010    0.0000000000000000    0.0000000000000000
     0.0000000000000000   21.1200000000000010    0.0000000000000000
     0.0000000000000000    0.0000000000000000   21.1200000000000010
 C   Cr  Ni 
 173 259 605
Direct
  0.6561357132502272  0.4187718278531907  0.3401501339778665
  0.9970751727116478  0.9188988464511886  0.4989256002636230
  0.2385456798373390  0.7583169027833928  0.7485813587590163
  0.2385154645498739  0.1604507252999798  0.8430282707113196
  0.8348079477766498  0.0774581807232873  0.4911324584663618
  0.6665342302020884  0.8275573679788357  0.2480049455371985
  0.0075950742824709  0.2294787994539149  0.6648350729501923
  0.2291045386836852  0.8484450881155099  0.6531805682832200
  0.2410011980474543  0.5692596896399128  0.0982782924492998
  0.3316756434412245  0.3453174261774603  0.7494574678810061
  0.5428702516236331  0.3938552493087292  0.2604599257971416
  0.9175717582759846  0.0871157927772248  0.7437543548722970
  0.7572257898135775  0.8318364742094780  0.5093675843951998
  0.3299577773019809  0.7522453798293317  0.8422713226659152
  0.0747930660293265  0.7518001652118104  0.2504488324717284
  0.5046528228855958  0.7581144892249885  0.4930851301889330
  0.9044796600831305  0.9187833154045716  0.5908365051744198
  0.8305505339182158  0.2511337294522817  0.6643704324504666
  0.9946858301857278  0.9893830446369071  0.7549552310125706
  0.5773590392337787  0.1724842679755917  0.3297226460110632
  0.9052448685824502  0.5847857214189218  0.5753700840698641
  0.6571669180292989  0.3391861110617118  0.9147538129432006
  0.8340338009152303  0.2461922202741686  0.3417717004087863
  0.0721644748444598  0.5830103033218808  0.0796943645349811
  0.5138030704043262  0.3517248690327271  0.3985448030293738
  0.2429753157676517  0.6749374539245605  0.5004813355995006
  0.1692946414081019  0.9175366695194368  0.0005597300390070
  0.4208537351528986  0.3453271717844427  0.8408240141138678
  0.5778750626877270  0.0977314288490429  0.5707548007147420
  0.2679552871897024  0.8167796827006178  0.0044212740361722
  0.3389825701744999  0.8375162347157764  0.7400489874320684
  0.4946395315414684  0.0073635610700977  0.2516647593880038
  0.3315680894159570  0.4771505227971213  0.8831702968199494
  0.0894400215468637  0.0854054243945858  0.0738854207645181
  0.4829060829414821  0.0131442648761695  0.5574474688247578
  0.5676601738652338  0.9228183860287580  0.4294816544263271
  0.3309208942195797  0.6618220221545285  0.0727277638347485
  0.6494330813924630  0.3214190143625316  0.0796041787702868
  0.9876355803597505  0.8213905854944539  0.0936134372262395
  0.7336782059538024  0.5117642788315195  0.1701973156967785
  0.8167373867253415  0.9056464754557512  0.8256440185535184
  0.2470044420196780  0.9942676759990746  0.3339554505455485
  0.0900631855957938  0.5070574074813582  0.3450766733970476
  0.5845146456997042  0.5643776964269369  0.2379843799880758
  0.2308504572708450  0.5571884443835390  0.9154399018452520
  0.6777815825916307  0.4348571972128638  0.5185464734157719
  0.2449871109086774  0.6645931827432748  0.8364431735490637
  0.6571138064798693  0.2463690834234199  0.8302357782592856
  0.9881506330190729  0.4946517990775628  0.7494426190014463
  0.5797046832956885  0.6560058669998935  0.3383965467406081
  0.2620482527383619  0.9163665437986549  0.0953135093569858
  0.5124608914932164  0.3645844997893763  0.7355269890164904
  0.0924863289707307  0.4066383999103219  0.7422330829724600
  0.4077907773798594  0.2359679260962640  0.0821838405198784
  0.7603919168748585  0.0033011045536793  0.3323148827436155
  0.2609512460052735  0.4130341112504063  0.4069389500954921
  0.8433653665775230  0.3204535192346610  0.0700210208642207
  0.7428633778708464  0.6657902231109013  0.9949523290305985
  0.2519327227959758  0.5740625549372935  0.5964747876487732
  0.0004939230528424  0.9967579258251555  0.2551221447632740
  0.5871947357859749  0.1745890971471943  0.9971925798595936
  0.4992107685928964  0.0916391842086937  0.8443211625020920
  0.0044584701232171  0.4842772388501734  0.5671821531890275
  0.4150216128745461  0.3294799689831160  0.1782390615084457
  0.7335471025880573  0.0471092419828920  0.5768678937690100
  0.3285172793067968  0.4233359861381901  0.1747979816841499
  0.1389267932812417  0.3150345371540310  0.4347840059023500
  0.5724346250061604  0.8311927235904404  0.3391007202181598
  0.1697738365162317  0.4279415431053308  0.5149450506051126
  0.0841165664325945  0.0817604159326830  0.4174136471407818
  0.7562457700337956  0.8257514859056512  0.1590953368968587
  0.4282487583147705  0.9305542509280046  0.7349014109281718
  0.6687512867765752  0.9154334249621274  0.3389766126729816
  0.7402392424874955  0.0103742256890961  0.1468131845690541
  0.8311174888506548  0.6649592278705903  0.2457512218760187
  0.2476916654658730  0.1648958447129024  0.0214462735205923
  0.7310824827990952  0.1459827560990221  0.6649197144100595
  0.3048336554079460  0.0139999115430846  0.5846476276923166
  0.8177727314965535  0.0020526690705148  0.9128211653079362
  0.9966284572749385  0.9084377784995189  0.0010854037747194
  0.4251292608571655  0.1496092751174741  0.5131923141528829
  0.5893028185644612  0.0780445671915336  0.0877793254750030
  0.0094272371637511  0.4077466495281419  0.3478613163944549
  0.5889049998476442  0.0929267814900682  0.7509981232347168
  0.4171197031735636  0.0040853485427634  0.0002473022984846
  0.9998538248593676  0.1542941363135331  0.9156740822999009
  0.9165949547396688  0.4936804735339631  0.9877807838665044
  0.9955105154125804  0.5011304228227162  0.2533976055940252
  0.3744745668084588  0.1899371824563187  0.6685255262197636
  0.0984790334072827  0.0838326183029696  0.7824246598971936
  0.4125815249866586  0.3431515264766274  0.4862982610523768
  0.4359192700179695  0.5115924843738804  0.7878711282132509
  0.3437696274056595  0.1653185071202713  0.9316766654224067
  0.4246898031031305  0.2552669641052188  0.7509929255511135
  0.0779835456499180  0.9133250001634531  0.0922531766862262
  0.0772481870238753  0.9918811316734192  0.6621254560941006
  0.6703256976199042  0.0086643834557060  0.4310518932565662
  0.0132758469579896  0.5797552069928069  0.6578214123357762
  0.5983537853412612  0.7592978259271215  0.9187164401586700
  0.5741924512041604  0.7431166336542012  0.2413545880710681
  0.7447226831195624  0.3272265343544450  0.1666075202164504
  0.3263353023847531  0.1036685844196276  0.4768072730101165
  0.2473722514829786  0.1638367458378830  0.3322357520033160
  0.5858833913039733  0.8429595706471863  0.8167069157951921
  0.1631931740171823  0.3426861102639105  0.0788202149842713
  0.2562469485751622  0.0856778196250638  0.7223068966653536
  0.8090697311894155  0.0020338528636102  0.7274215285426847
  0.0533112649118793  0.5127890632071583  0.5221064862180920
  0.1027021147454993  0.4872854306694043  0.1655547987898839
  0.7416455735533258  0.4978939114179399  0.6680610616236992
  0.2493089077757767  0.2616700677175433  0.9304231624850415
  0.5800356388802599  0.9221283937176654  0.2437110850886788
  0.0867909806786773  0.7396883661765636  0.5899592240337410
  0.0884714099272875  0.2697140258797691  0.4071495237850643
  0.0947558689125697  0.5020070920894718  0.8308114797371811
  0.3306356031323720  0.2844093523825608  0.3119108497559197
  0.8090437334912914  0.9104580477356354  0.0144644538439690
  0.1704479715130464  0.6659097878826634  0.2471745318847277
  0.1683724470403170  0.8232162996539971  0.0889689881740051
  0.8152209611306171  0.4872807816720321  0.5666318763219960
  0.2402220106298841  0.2553568535870610  0.7443528991802554
  0.2573526221546129  0.9242000949756815  0.9127434059621611
  0.9985535797450433  0.2613256552230382  0.0073732115281531
  0.9213632184224161  0.0117533817126523  0.9965217599714791
  0.6651318617967890  0.8296199485016322  0.0652173252009255
  0.2394829612012563  0.5745759449504237  0.4125061182352096
  0.4894501744202630  0.6506205626951364  0.7578713111944324
  0.5753559134477528  0.9983975987465307  0.6598523007368854
  0.9090813733092448  0.9078390111826913  0.9112771420247134
  0.4871823254995212  0.0952394947453009  0.6639781090125271
  0.9154167524584201  0.5053201068083857  0.1696020850472282
  0.8358777375752321  0.3353350400435409  0.2547871817559825
  0.0050739448829408  0.8165848970480920  0.9075261974567367
  0.7890310367504672  0.8986446692105358  0.6448171033092013
  0.3254979427286884  0.7480279194271551  0.3286100215289565
  0.1472413530556462  0.2624079968267995  0.8439572539349536
  0.0877040453503925  0.1768415414223992  0.5135396478428061
  0.8243831114079480  0.1712650481352070  0.7563082938711716
  0.7485027230713724  0.2440135013093213  0.9207081615860404
  0.1543349621473391  0.9327712452050742  0.8149906192993749
  0.1748154040607654  0.9288413575740474  0.5090734575873075
  0.3229304258906360  0.3366404363383709  0.5719362253762434
  0.6497394637581951  0.4188501601311546  0.1689184746541258
  0.9946495007989822  0.0862053117804416  0.1635318349696934
  0.2996392766741438  0.4133252939320576  0.9987352421646409
  0.1530939278147046  0.3094560776162728  0.6133868162292651
  0.0685628177534940  0.4005672120865807  0.9286369132498569
  0.7382298993805646  0.4175952559755490  0.0731292970435211
  0.4197166253781450  0.4192909061507558  0.0809664880324002
  0.3399078484805595  0.5640870183670459  0.3333812169771116
  0.7455104852655968  0.2457884380163158  0.2521060734438886
  0.1783423451022608  0.8175365746501672  0.9004512473346442
  0.3141386607903561  0.7649261393068808  0.1462448741310539
  0.9079353609882439  0.7426708412842412  0.7461981850345101
  0.3340562566249541  0.2500474440850401  0.8322271910412004
  0.4054232479807549  0.5907377487404589  0.9041427367521974
  0.4132279570624148  0.5104132437222202  0.5018945958535852
  0.9082434811836557  0.9276663294690705  0.4064279407677922
  0.4255419399281432  0.5098859577702890  0.2023997155879858
  0.0816644220558874  0.8286628610145194  0.4961067275967091
  0.4200551977001599  0.7540021652577689  0.0754266498387704
  0.9088683748828296  0.7477956953437104  0.4180576211633248
  0.1543272087052156  0.6494270744779143  0.7396625357131292
  0.5667282444699924  0.5050874341299234  0.6767015073257875
  0.1638431514736814  0.3574822857007020  0.2668520774141242
  0.8260680070521668  0.5072349050766390  0.0763375640464385
  0.1572328026071724  0.0116540919708710  0.9201169584612442
  0.2690002116913802  0.2415725111665078  0.4414488185379231
  0.8946656761322500  0.1833148972436417  0.0150478079912610
  0.3374011690810808  0.9265643758147531  0.8324738245736372
  0.4968469147456910  0.7679953288195549  0.6774305937448559
  0.4349530860843183  0.2309270571790138  0.3980338847092254
  0.8340925307942606  0.4181824818913425  0.1681485343070528
  0.1578085507105513  0.4107839665922365  0.4250400570800677
  0.9914004034456237  0.2507030804532775  0.7525631997395461
  0.9176157953261083  0.8347604450794975  0.4101438796881174
  0.7499654231000784  0.0004133176811403  0.2433540708361174
  0.1530011751419019  0.6623341031566556  0.8337149790642593
  0.5849808738151481  0.0081332430727839  0.2572490049461615
  0.2423550958264003  0.6710821594239499  0.7498639454935291
  0.9230723180863983  0.0909692333239948  0.5005847239515857
  0.9961178996003436  0.9094593661677485  0.2532264125062274
  0.2429102087364933  0.2508856302764959  0.8388931257769188
  0.9887982743069297  0.2536577563823362  0.5786969607293397
  0.6582539099007670  0.2493070575951632  0.9191644325955431
  0.5860268123974370  0.0823726341285496  0.9987479651564151
  0.9904633106703050  0.1702324810724836  0.0060121199571215
  0.9974579536860694  0.9056868571311935  0.9135165331943843
  0.0597321847266931  0.1703045249309140  0.6024740235711790
  0.1563779583748536  0.0207198951627864  0.8324228944738485
  0.9934542040197577  0.1736371295465901  0.5004740983037052
  0.0725486661651466  0.2644982887165580  0.4979324291273314
  0.0806665123320935  0.1723137805841999  0.4181512540831594
  0.0612460425786044  0.3588346795650612  0.4162368456359215
  0.9050792467422403  0.9965782920061685  0.7493057027025853
  0.0717048039106712  0.0881323278944573  0.5057192373649583
  0.9975350223329399  0.9143254491676336  0.4098644846034338
  0.2636159388932791  0.1525999685055062  0.4207344330894707
  0.0031275362283403  0.0768654763238800  0.7608605785327558
  0.7460975810698893  0.3295044453810682  0.0789632459170082
  0.7478127077269474  0.9177867632758853  0.1654325084712808
  0.9128325127140439  0.6609624417292814  0.4097379344441083
  0.9923288724015441  0.0893799785477029  0.4145816706071537
  0.4177683744189233  0.5009129770097865  0.9152482952860996
  0.0796287234205012  0.5158071287874855  0.6130287375299402
  0.3368318499946679  0.6608587183382364  0.8454657000781836
  0.1598197012455207  0.7368021689951044  0.0794538245787708
  0.6692216811617037  0.9163564145051315  0.2492731798970588
  0.5860542334915900  0.0801621029904109  0.8379212714559917
  0.5834976518588142  0.1667057596273155  0.0873423945068652
  0.5809546297350087  0.2615127385065570  0.6607766573757673
  0.9103010390417084  0.5816166551093933  0.6654092674242603
  0.5625597211014787  0.4147167212852119  0.1713733427020784
  0.2491056064871865  0.0113252306144678  0.9205703473869014
  0.2491622764144006  0.2499792346141142  0.3384931824394068
  0.1632338875360826  0.9170464565933587  0.4121966981885424
  0.1739397666239861  0.2320781727119884  0.4249657782853336
  0.6648942228631294  0.7396473546584268  0.2463012161775197
  0.4678478231522167  0.4378763327778952  0.2566601395026915
  0.4078031250998229  0.7541254931290738  0.6595066966893414
  0.2442906811358224  0.6685550438331177  0.4119962567795608
  0.3054192956826901  0.4812409936962447  0.3570782945568517
  0.2564055333201772  0.8262058765935894  0.0927972570025739
  0.2411427628123205  0.5857990665111610  0.5037851614099605
  0.4032544928278014  0.1482264400193358  0.4224141321022911
  0.9082231797462932  0.1693852409522189  0.9202502124462331
  0.9985231759519094  0.0823560097427528  0.0760113007260991
  0.3347182448057853  0.0781009203688881  0.2444779489856715
  0.1606457258554428  0.1675286734029068  0.1736096554560367
  0.1439292533598322  0.2286720547165253  0.5723566362770491
  0.0856392739698524  0.0828782161712421  0.1682874827802085
  0.9065844758127939  0.9106956373438995  0.8221088060863703
  0.9946634281182477  0.9111474973376124  0.5870884849062843
  0.0844706540304478  0.9172429281190309  0.4981464254509519
  0.0733982183618932  0.7488124382331786  0.8390396207324942
  0.0784029180210890  0.8240456291721575  0.0860036170385750
  0.9951148709607582  0.8191328191054092  0.9995658522109165
  0.1618379246097034  0.8315675814899778  0.1776932705809024
  0.7497856707758750  0.1721773304503499  0.5776940333249067
  0.0784935121293526  0.5822478955339968  0.1684963680011836
  0.1531164814368964  0.2471086906066569  0.7548965308310592
  0.9102185128185830  0.8189386002046178  0.9124552717543088
  0.3294319074096972  0.5883907918930444  0.4207301081997394
  0.1648414254773499  0.0065381913023955  0.0071807908100776
  0.3303982460809882  0.7515981188766110  0.7512002173144623
  0.3289277039915268  0.9214370200640558  0.5721771308523987
  0.5854362260406222  0.9109581287317299  0.6571698417237655
  0.0921709103667493  0.2595178130148992  0.6682340988612719
  0.8151157851511280  0.9107165503331215  0.7367090332572467
  0.5836274803327047  0.7491722072677282  0.8282584674213798
  0.1629502580685852  0.3326654582330641  0.1744699769586434
  0.1726431971858106  0.8266714100652014  0.9975741988486474
  0.3405511564941121  0.0986317919843339  0.5682454541742691
  0.8325432227593724  0.9991881396724752  0.1669233967040357
  0.8326474334414432  0.6638239318693063  0.9968394317534266
  0.1693384817946609  0.8359140035718154  0.4903142832455199
  0.8347915048577038  0.1644780663165135  0.1707755751549473
  0.6570397668251090  0.3300124969662915  0.1664909123139643
  0.4201668443702359  0.0608196095932717  0.4908607599470388
  0.7402389154231097  0.4200040563001640  0.1658146553453229
  0.2330556284972500  0.4890251066923110  0.5712415478947787
  0.8176632415212765  0.9958857521058074  0.8236102265951692
  0.7461019522996385  0.6660270406075123  0.5822336060550557
  0.6684253095210998  0.8163011354150648  0.8412418014367928
  0.9103963126046095  0.9140806546376815  0.4975596224336524
  0.6700595540958846  0.0036389068938271  0.5198660237852593
  0.2540391100505977  0.1685657204787228  0.9320340384674037
  0.2620713685049103  0.8361011434448470  0.9160541841491908
  0.2471947601824602  0.0748348007714427  0.8298941898013082
  0.6748434359651204  0.0890582687321532  0.7302126067232845
  0.7611478323332882  0.0584924143648428  0.6654317377171103
  0.0786389373174752  0.7457041206419173  0.9998992950572524
  0.9124164783185282  0.5842471486718241  0.9977653301757431
  0.9945411309557519  0.5838445565262423  0.7484851697643706
  0.0766107098505577  0.4943735542317642  0.9201485018131265
  0.9078043870557091  0.9157325983249064  0.0006868259706617
  0.6654722133081440  0.0044084725110439  0.6478486164094178
  0.7450982623078121  0.2495730955423141  0.3414987394429109
  0.2491770751545463  0.8441958050541635  0.7407099733916821
  0.7468065706930249  0.2546668022593777  0.8313463959455815
  0.4881940459312739  0.1004233283024556  0.5752464974844771
  0.7507933963032488  0.9795461547336731  0.0660103025189566
  0.0776988119636080  0.4967114626156727  0.7420324882830608
  0.0987137880220242  0.5943723103467244  0.6846452248405762
  0.1671977686891271  0.9189183208353217  0.9091221670627549
  0.0676066223839498  0.4207380283484475  0.5143359426783628
  0.9978801576641697  0.4980147954801127  0.3405275608382018
  0.7455407944187817  0.3353182926539015  0.2553392637853028
  0.0797448557920477  0.4134708892324138  0.8350578551865160
  0.2398815857889083  0.6527807820320990  0.9218503993341972
  0.9895011889530460  0.2508955381056958  0.9163568527157480
  0.6648538510802938  0.8263944814650903  0.3374432084909929
  0.7421323866206050  0.2481983610584323  0.6646404548094386
  0.8255386190829488  0.8862464214930542  0.5638404413053985
  0.0978057386314326  0.4183725186655294  0.3269242440848978
  0.1678754301484536  0.9135529788451521  0.0901036433560354
  0.9139521131453813  0.4065496117081810  0.0019241425946466
  0.9903130185903266  0.9097267574942670  0.0902124930665422
  0.3309318138411681  0.7561446118091298  0.2400093762590507
  0.2543347257133228  0.4719682306865622  0.9383553380056097
  0.9102186947479398  0.9991578811895304  0.2489570901367248
  0.1486400905505499  0.1576324121861347  0.8277783335603839
  0.8285387282391258  0.2467542208366776  0.5760970469934507
  0.4849178459619368  0.0044088354404829  0.6599569343482526
  0.3205605714041700  0.2479074124795499  0.6041661824746469
  0.7488825579928129  0.4200235159350511  0.3377009971771135
  0.8183165919242953  0.5816538512972164  0.5782111156169113
  0.9059307215107321  0.4941730086205896  0.5795496614698993
  0.2467650776516067  0.9072507326269438  0.3306873283975308
  0.9810203519384100  0.4936762210572625  0.6603247106129578
  0.3310880246094008  0.4137031164538871  0.0839309155437306
  0.3389064939662719  0.1727827312614634  0.0211132387985393
  0.0031079478989232  0.5004914745811357  0.1648188066801257
  0.4098334690290084  0.8328787523007485  0.4130513173768419
  0.5080103754828650  0.4216064409532641  0.0794969877796243
  0.0720703619184143  0.5874526131388743  0.8310880034120998
  0.2379575791353054  0.3449392950480827  0.5979606479242149
  0.9923307027394276  0.8273463057929362  0.4973883558382444
  0.0772763567564588  0.6686725897961922  0.4145358574934923
  0.2451161962621634  0.3434764959119948  0.7500108625269400
  0.9925943343051012  0.5808425058333265  0.5707205178430154
  0.3306526507806863  0.5749431728549818  0.0818768229590656
  0.2508333031087594  0.3260634888844512  0.2576526434828442
  0.6611924734042016  0.0000557395417486  0.9980476301171783
  0.5792943471610049  0.9181210854673807  0.3369562381519726
  0.9150530716795118  0.4983949282855744  0.0797683717409220
  0.4992787154181151  0.5870051382130186  0.0755028075527612
  0.4214651569198299  0.6745036011941238  0.9188668468432993
  0.4118809142406207  0.4330523401802277  0.8319154704653990
  0.7646082639957112  0.4223334684113252  0.5022626063796722
  0.8303703742311375  0.4969367731363476  0.6639866754451570
  0.9941994050333786  0.4068550843014517  0.7534001562521651
  0.4134320584041429  0.3315735419420725  0.5765689580756352
  0.3987743247206598  0.0060269088698621  0.5822982587111901
  0.4233620410402298  0.2559108500335560  0.8379362238705612
  0.3315756991875723  0.1634988947895193  0.8408354469564163
  0.8281399281681258  0.4222037931285058  0.2574984693667650
  0.8304347570080449  0.4145427478944628  0.0786309368012644
  0.4973395988152481  0.6697264841868950  0.6670328147670354
  0.4121232408877675  0.7524065453873371  0.1637744278751800
  0.4976877621676786  0.7528738306628621  0.5834056665387466
  0.6634940543156310  0.3387974283206969  0.8276216846677077
  0.6794095407149251  0.0705777633854495  0.0871551606337917
  0.7100139215648832  0.9115229993164267  0.6813733182242009
  0.3369453606303538  0.9254764818675461  0.7444161099767144
  0.3958111213379444  0.3375992006537274  0.2663922843978300
  0.5768581783716145  0.0886354756014355  0.6620344913878454
  0.8329931346715078  0.3298448635679830  0.1633639304088371
  0.2245816468314707  0.2555374881055503  0.6560124077353425
  0.4236997307740628  0.2466212440855055  0.4884199356642012
  0.4204925506184555  0.2406915031190161  0.1742179316864034
  0.7384709874206220  0.5056618250666498  0.0802428187915675
  0.5762532427503102  0.5706870437967845  0.3329354540649421
  0.7475058402299266  0.3371439083442697  0.9108430712426928
  0.4884374730815640  0.5740923064933611  0.2499119456612218
  0.6556475664573425  0.8228877896261846  0.9775246126519088
  0.6634534413051690  0.5083507180980233  0.3369764561627466
  0.3286112229581986  0.3094953168266738  0.4897503538217535
  0.3318144850141844  0.3437196263472463  0.6619343369426379
  0.8343116321248799  0.2463851933696805  0.2504332758360750
  0.4210740282512649  0.3460764149728451  0.7475563648733562
  0.8260300558319124  0.5060149852069998  0.1662100195939680
  0.3377713404043726  0.2556535065516901  0.9237065124839764
  0.3305917560395290  0.2518710843051316  0.7378143905879089
  0.0835271171872700  0.5074857135719842  0.2532045410768060
  0.3295095310728261  0.1937799595385402  0.5039250137342957
  0.1570166805688482  0.3369318569778900  0.5199422696175576
  0.3316483194992187  0.3378498759131144  0.8358309527692215
  0.9211395282178040  0.2473048654926348  0.3317707092720679
  0.4226026057670929  0.3285267435214732  0.0878452171567654
  0.5030164621695752  0.5096907050576328  0.5089780688397971
  0.8444959460149435  0.9775381788179197  0.6460218267481755
  0.9973067324407695  0.0853499522819308  0.2529452246551335
  0.4128266484559689  0.7539907229902345  0.4963125605609964
  0.8200373933476249  0.9114842961630008  0.9157132578749260
  0.8257132964221219  0.1607011049862562  0.6655794817973263
  0.7467644323655006  0.5818256536969150  0.8296322083362032
  0.7392854435041964  0.8284679542351651  0.5975406619925102
  0.5741389991347682  0.6559845575172716  0.2475989259938786
  0.7459167494508920  0.4182950114863869  0.8327539597787713
  0.7566037720226801  0.9128506532937984  0.3312699947033926
  0.3068928904755607  0.5176216257652611  0.6515306083035891
  0.4141903342809737  0.6790891444692139  0.5793757347855895
  0.7541832468284196  0.8420616508478977  0.0720834137171454
  0.3326595446292356  0.7488227482255904  0.0610534547865289
  0.9110540483088795  0.3315404708289180  0.4178323114472527
  0.2402420107252065  0.7550606382566124  0.8405501528064340
  0.5674314686404465  0.4146104418839602  0.3487449028434277
  0.2575683119984840  0.9142721404807456  0.0040607172618777
  0.5024501867888472  0.3294080001842835  0.1914806364438504
  0.3342685554672329  0.6733242594540346  0.1625737123958669
  0.6696588260164659  0.4235965997392934  0.4266591195944319
  0.9059276233236452  0.9963596587650393  0.9080000240314483
  0.8200139704027071  0.7421272292833144  0.7472049541425123
  0.9102560789619797  0.2692450054333432  0.0035432098262559
  0.4196036594471075  0.7503928184475821  0.8390259351674290
  0.8343848188695103  0.2323592723620821  0.0815109927863771
  0.5856081438042925  0.6648074855654400  0.9170556492670399
  0.5759842490310465  0.4159318049088219  0.6711304722627603
  0.6717741193146288  0.3388769422122121  0.5051092328267969
  0.5778187406786631  0.8318987825408741  0.2472578147688346
  0.7439843785929846  0.6652934427067214  0.4152923824253320
  0.6595288850304354  0.9189621332574217  0.4269323086715210
  0.4172220527268513  0.4200138885746893  0.1698546806240946
  0.5710091762421219  0.8437247032082132  0.9126087978872419
  0.6627349254452123  0.4281430530426036  0.9127142023041938
  0.4986907907536647  0.0911821374685384  0.7524399772335008
  0.4207934700895722  0.9177156430486608  0.1647171174804503
  0.4917189802519314  0.7409826285987912  0.7612266684737052
  0.4883503886071199  0.4477228433139601  0.7416876206296299
  0.3343589194637164  0.5115761296974521  0.1711660183197415
  0.4275849933963509  0.8347731293059631  0.7379886748640544
  0.7492483007262839  0.1594564526029001  0.2529070050602089
  0.4248035453610168  0.3284410046035822  0.3996732072656227
  0.6457345247700820  0.5075822172951923  0.1737782694307092
  0.7451036276437373  0.3373080770724949  0.7538577397778207
  0.7291954617455777  0.4992809394864047  0.5794191934767829
  0.0598294740567468  0.0898132624674091  0.8615383691894319
  0.4966472850623911  0.9226140646158432  0.9177001182609950
  0.5812696210765580  0.7447383325602430  0.3325407778290881
  0.5045222696265484  0.3393209721752606  0.4955301229943548
  0.8301255350180878  0.0011240359489975  0.0008735112648765
  0.4183479721070408  0.2458761186212288  0.3106818884720919
  0.6668688705493013  0.1029301693105271  0.5906907378413058
  0.5933993997815962  0.0008637568215003  0.7470125755388770
  0.4882748849185097  0.1656383196963137  0.3452792884781733
  0.6661139111504880  0.8299130038219834  0.1579413801656989
  0.6694929043613999  0.0046022930633105  0.3365577498081234
  0.5835493680298346  0.7371333461500368  0.6644741053824499
  0.8284233150171948  0.7413721783899053  0.9139326131747767
  0.5731957337607322  0.0075570241862818  0.5709560642270755
  0.7541856210760751  0.8305421296464046  0.2491601589793462
  0.5822469023652089  0.5041632583019345  0.9165090658183681
  0.4995768735299563  0.5035394419768544  0.9975121330576161
  0.4155338234750390  0.5823480565729576  0.9978722682572916
  0.5803768419582407  0.5052478954185360  0.0790398716806119
  0.5785445186384334  0.6663585442793539  0.0800594972516042
  0.4982308466543143  0.3377849159082766  0.6539853120163446
  0.4992170418631107  0.4226836324679579  0.9141056338971766
  0.5696736925802267  0.4837007727158046  0.2596172351477390
  0.0795727814950158  0.7441036185824539  0.1646879224887821
  0.1596532199697918  0.6586381548610363  0.1618811371517474
  0.6570525058296905  0.5045324031915542  0.6712514903446068
  0.4993479086649952  0.5871749184651354  0.4209286246884684
  0.4981355949343148  0.6705801836460051  0.4981940916416446
  0.0793303137438496  0.7490110893366879  0.3372374177708102
  0.5852107980250262  0.4233013275280074  0.8327607370626247
  0.9983697636394595  0.7484838639957327  0.4146091439075917
  0.5797138856672588  0.1668732993785383  0.9117353189411528
  0.9956985835931113  0.6672015566058546  0.3332622377811679
  0.0756435794711987  0.6556491797885329  0.5859398673907296
  0.5791889625639630  0.5890956430868283  0.5018790575592658
  0.0771254908388403  0.7429210541291801  0.4994801254455107
  0.9956660347582345  0.7434670143410568  0.5825765963562111
  0.9926253488174870  0.7467825049679273  0.7505788837574868
  0.9905128847485473  0.6629833281970031  0.8330112685938909
  0.6686779621981924  0.2528982560352042  0.4209510936924888
  0.3336195227077205  0.9932666297972016  0.3243580379301635
  0.4169110199365616  0.0778005683322074  0.3283067868291950
  0.5729822627466601  0.2581976949145756  0.8351265237681718
  0.5057319437887019  0.3502973975230966  0.8268787949632791
  0.5869908639090476  0.5032401559214380  0.7595243269238776
  0.6576521315097098  0.9944709794848836  0.1693501617457889
  0.5048843183517303  0.2506182017188325  0.9221836662242388
  0.5090891865314537  0.2649894838411282  0.7455846556737163
  0.5915416517303281  0.3375442082515295  0.7485186980184146
  0.5852028023781096  0.4228109328370686  0.5016203319904338
  0.0748273780861148  0.6677513457964346  0.0816953420598095
  0.6671838487294440  0.1614501334323915  0.1665107531885121
  0.9917053394435742  0.3318658479111071  0.8373318387663858
  0.4255058821731856  0.4175507990000575  0.9967252194302758
  0.5644663500811676  0.3305694986641581  0.0939526948412385
  0.5785955398507810  0.4217155365209705  0.9948156646708473
  0.3869407113071672  0.5079194684827737  0.2816051684146679
  0.5944295372043766  0.3262966232546839  0.2551036370556598
  0.4978739659531783  0.3303091824098108  0.3119537022543687
  0.5056949478912038  0.5049310671546160  0.8389550957805841
  0.4997735072809167  0.5858426270830287  0.9180273099516572
  0.6645664830525388  0.5833420749552923  0.9149731571521756
  0.4982819571868053  0.5678445369640023  0.7359165355652527
  0.5027558008860564  0.5059448215107590  0.1597987655383364
  0.4929163997784911  0.6692504010264804  0.3319553236400906
  0.5769236155608529  0.5033190957014088  0.4208020792188841
  0.4916245110301827  0.5031922616619408  0.3433381980680674
  0.5807288895885888  0.5899389321589974  0.6610245551877870
  0.0015010838105775  0.4938522167548896  0.9994935938000140
  0.5830694310833815  0.9933999236778264  0.0822980075661352