 C Cr Ni 
 1.0000000000000000
    21.1200000000000010    0.0000000000000000    0.0000000000000000
     0.0000000000000000   21.1200000000000010    0.0000000000000000
     0.0000000000000000    0.0000000000000000   21.1200000000000010
 C   Cr  Ni 
 173 259 605
Direct
  0.6614070887129510  0.4175415459370528  0.3302813724769604
  0.5716015095132221  0.9238831522989113  0.2472363156671437
  0.8213297051487832  0.0014261162063490  0.9152120975347583
  0.2442832813531195  0.6694726855984471  0.4918746485052474
  0.0950538690351199  0.4984690937920936  0.8259166134275173
  0.3245236900484816  0.2789367963578829  0.3176357704694294
  0.8262029414454979  0.9061885065339057  0.0021134424844610
  0.1735791932253489  0.6576008431260304  0.2424576946872026
  0.9196776959266874  0.5153946175549068  0.1760470854956536
  0.4968271236780438  0.0904729831330541  0.6657588924822365
  0.4076632366176622  0.1680400759399814  0.8050464764535979
  0.2625209180856294  0.9186903161515645  0.9163040139786508
  0.5906176711648151  0.6578550366008759  0.8286301926715071
  0.5839231041010625  0.9957473103412480  0.6632402215354248
  0.0804123734149346  0.2466871602118209  0.0834657182100094
  0.9200498190546640  0.4839548132299202  0.4849496779916704
  0.6518662023351458  0.4096137819490960  0.1571917699084186
  0.3134106637407346  0.4261539025882096  0.9911751685977309
  0.9938808833259838  0.0770094910249821  0.5008420360720123
  0.6567833487150282  0.4164229249310263  0.6708253297914286
  0.2390532180936853  0.2547837331084885  0.9248042275281509
  0.9159258590931065  0.0019014837846701  0.0049347599505299
  0.9136933033513855  0.9080183829875655  0.9108507385906138
  0.0971460088627431  0.0961235418947616  0.7685910760266127
  0.8231087314423967  0.4945237401980829  0.5780070452557814
  0.4885518672185463  0.4926506486884081  0.4271446691191278
  0.1624012069839795  0.8335547812485085  0.0824090987218326
  0.1470175926457328  0.2445824662037463  0.8285426355671680
  0.1042446853608599  0.5023430455905187  0.1790978721016209
  0.0002354731423289  0.4001911258966874  0.1471922059601996
  0.8452977503498467  0.3415624306472294  0.4292526801645303
  0.0086488557996270  0.5844753028600506  0.6569814025940308
  0.0606401497099664  0.2599604302081239  0.2556816668784621
  0.5900814101722294  0.8389827107952210  0.8153381086277199
  0.1640986043446608  0.3352153985140506  0.0790366755641011
  0.2685924154119331  0.0743461520595818  0.7345085627476424
  0.8094055222398333  0.0086824571935453  0.7320359973991717
  0.5861954428086258  0.7462341401751447  0.9190889597196025
  0.5819605574861534  0.7478677296880220  0.2435396567187323
  0.7431434895486783  0.3243793099790203  0.1624877604052583
  0.3434537893861305  0.1019217275955544  0.4825544186219524
  0.6654772435534159  0.8276254191689820  0.0845112367633197
  0.2394144099826236  0.5536830865569013  0.4053870342751615
  0.4129106636130090  0.3424792120430663  0.4927454744672116
  0.3372555564578810  0.1622658797483761  0.9310907684145361
  0.3521651571555736  0.2793424773609886  0.6828658508111203
  0.8260535535326611  0.5061638054399310  0.0812899244436240
  0.2511700705005344  0.2354276663086776  0.4365377258546191
  0.3468692524929656  0.9351025321502912  0.8337198054755521
  0.4196788352292369  0.2397094693761077  0.4110597054097341
  0.1517455144436085  0.6525825434203566  0.7407856076924727
  0.8309458240610446  0.4195859496828849  0.1678155825066097
  0.7499894398128661  0.9115440071210337  0.2550949928827972
  0.1773974614050972  0.3689031629585785  0.2500588564263062
  0.9275454266978335  0.8172183196999556  0.1772603576257755
  0.1692662812019082  0.0035715222808244  0.9211365237520263
  0.0719122912904618  0.7473661297967498  0.0879984590569713
  0.8932048967530340  0.1864429141675875  0.0106030841282524
  0.7440787848245123  0.1617310514948986  0.3370461290711726
  0.5010277793611339  0.7650527430285919  0.6840822689694228
  0.4141893079830932  0.5075271929225853  0.2023798994026587
  0.0747063499923511  0.8634580239659370  0.6485590375234822
  0.4196776313033175  0.7584124428122869  0.0771109062291007
  0.6616215292883774  0.0067584529015470  0.4276159021523747
  0.0020939390087142  0.8182660859728672  0.9051873481952950
  0.6002981759146486  0.2675303580527795  0.1027354326580977
  0.4073092773854992  0.6658114011906469  0.6607170456729813
  0.7953256973723732  0.9075994633528374  0.6417741377278581
  0.1643002391432532  0.8344280561841094  0.2609655067381073
  0.0024977891413422  0.0049878370318348  0.9116247296281356
  0.0958982700795289  0.1815468718194387  0.5016501172165878
  0.7500662837255262  0.6591163422679078  0.5023116105500770
  0.7561725069266209  0.2352968736483089  0.9263336073617793
  0.1619038025734306  0.9275063027575101  0.8164289776049399
  0.3141379225432185  0.7680571852118215  0.1570112979555656
  0.1724353928721654  0.9080010542871262  0.5186916494356116
  0.8308557089483068  0.3335217504699756  0.2512991258915200
  0.0830270382013011  0.0848411142137869  0.2443393742985031
  0.4165634831920864  0.5802177983414313  0.9108972511783439
  0.3268801581886862  0.9970023925963474  0.2473150550787017
  0.9050017749274141  0.5877892758110013  0.7537339507966669
  0.5757521720903784  0.5009105420216086  0.1616867838999730
  0.2464051620237309  0.1197730408874553  0.5645496930359842
  0.3332336259172788  0.5695242753339381  0.3302326596206989
  0.3072278545311550  0.3453120801510177  0.5715021515643139
  0.4244044753260360  0.6799488817887454  0.8252273215584057
  0.4142570819830738  0.4202357789978269  0.0854045437660810
  0.9967346532037882  0.1759400480980617  0.9170182216350419
  0.8334737325141499  0.2468289988877096  0.3347292181832363
  0.3204226480333127  0.3189150827125171  0.7365665365798090
  0.8353549054811423  0.9104879963205961  0.1708595921965120
  0.2406891973380118  0.5681591368680486  0.1048356310035476
  0.1806968972391952  0.8158837579635086  0.8984491512576392
  0.9034941679725160  0.5913956785587130  0.5717361622688465
  0.5101725114881548  0.3526970779463217  0.1217046347679327
  0.6641112414852839  0.3361735427420081  0.9187943526805288
  0.3389431831735797  0.8411012262523231  0.7408531045994966
  0.4132502467064892  0.6723644439856498  0.1669800565353248
  0.3255931660894953  0.6694780729928919  0.0776640475711730
  0.4973433415974416  0.2402433799400272  0.1855577685791029
  0.0135984769270713  0.9016714708593385  0.0084378441767680
  0.5004226900726577  0.4293476384462183  0.8351317260441109
  0.8195974390090848  0.9088762226098400  0.8227850471636688
  0.3343939573545548  0.2549490370413910  0.0169659855124668
  0.2345063263123776  0.3459710425508202  0.8321432594322642
  0.9208730078652687  0.1773146591741563  0.1815174271012709
  0.4093829551655396  0.8427553982757493  0.4962381073243149
  0.0776866674231418  0.6702568432325317  0.3349575770823127
  0.3200187388785571  0.7635125169531151  0.8521528315182744
  0.5700645780923476  0.1729586637890047  0.3339158944081521
  0.9942521087157512  0.3975739561796782  0.3504425912269095
  0.9988763971878694  0.9103300294711606  0.3348187924442058
  0.2393898742390144  0.7601295905409807  0.7477900041470389
  0.2394933745596063  0.1628197535538285  0.8340339263161931
  0.9896476012242822  0.1680503775810371  0.5862754282902567
  0.4932971415805578  0.6581662327716029  0.2509132251963760
  0.9901663839923195  0.2506417716433749  0.6702823471968129
  0.2080669804238349  0.8815445845740085  0.6614134420160919
  0.7481268146036361  0.8321992144567363  0.5014197095700534
  0.0885014176593274  0.5001348034519024  0.3355065704355082
  0.5353070150297867  0.3839357849935012  0.2551471136617126
  0.9122008422751680  0.0890443292512691  0.7470649551230278
  0.8278463758166906  0.4097375111869644  0.6702286052834157
  0.0047519710001593  0.9933857196511444  0.7380932168089741
  0.9095205798805285  0.5003487977963349  0.9932366606845129
  0.7354563422450668  0.1531329399925906  0.6783589487664289
  0.4951501825418095  0.0700117420807196  0.8476867275722216
  0.3846512500264426  0.1546376362060577  0.5117623596223307
  0.6613135805124145  0.0094829152194174  0.0803480362875088
  0.5015986734552306  0.7531397868107749  0.4956934096466258
  0.9274926250016786  0.9132540891024623  0.5773484977829322
  0.2422252780841680  0.7656310002827029  0.5759741694538625
  0.5738886000061202  0.8343123934634241  0.3397084189151247
  0.1649881293861180  0.4313278270364889  0.5034977955026623
  0.0829696046279962  0.0763290000120946  0.4152368025990074
  0.7498095388424307  0.0033314862795356  0.1694600209821200
  0.4390905534669475  0.9321912320910237  0.7330850258679927
  0.6634271812458340  0.9183489556051991  0.3384699947129374
  0.0602257824444102  0.6742351658423161  0.8450747901476260
  0.9863601882328195  0.6704484840184074  0.2423758314486843
  0.1349456440170998  0.3165569590270161  0.4250166697735871
  0.2393094279955756  0.1616302609800945  0.0174391424087869
  0.2375811574613665  0.5641674878235239  0.9117996164000658
  0.1750121895400372  0.2598472580149644  0.6538169598704517
  0.7299823654891536  0.0596726253396381  0.5805068654129254
  0.5053673784945022  0.2549343483390161  0.0076549184532037
  0.3999034071331786  0.3269966370149988  0.1840557030536521
  0.5965451967286947  0.0916511446377650  0.7605691299646308
  0.0739689665385062  0.4886720678802672  0.0083709200403802
  0.4158489217997308  0.0062116545989558  0.9915700704862748
  0.6725091541704110  0.7445800534236531  0.3373318798521578
  0.3130823486963046  0.4242974399494664  0.1719170698359989
  0.3326290333145154  0.0004850000565524  0.5913458662981183
  0.2699981344409522  0.8177540884492367  0.0087506308338505
  0.0630144992546393  0.7639087845481238  0.7427870527900811
  0.4117564282615923  0.3365982787483977  0.8358304464187573
  0.6601123878831566  0.4165252972497200  0.5000484185145936
  0.8634120378758620  0.3206668529074835  0.0748992965894243
  0.2505989816909313  0.5797977998618832  0.5882517398723434
  0.6006856076856928  0.1600509343198834  0.0125969701893248
  0.5014708805023183  0.2502294340797497  0.8345679134952488
  0.5033343072584486  0.6674610286023773  0.5842983257085060
  0.0156389717154762  0.4710597901242358  0.5802170588439396
  0.2619679953410832  0.9190615997775017  0.0974036831987186
  0.5023823551016474  0.3413003947799806  0.7383681152492630
  0.0856886235536224  0.4053001487280236  0.7311691402009904
  0.5076009688760168  0.5836725026328586  0.0055333213127843
  0.2422407316331886  0.6660104901459846  0.8346462622317363
  0.9957359814311334  0.9959987539534405  0.2489322620777120
  0.6787208300136774  0.2368495332815059  0.8240505617588891
  0.2515877045329400  0.4125876003723435  0.4000098802820455
  0.9899045096626564  0.4952091362776358  0.7523428802564446
  0.5801900290971105  0.6568104979245868  0.3399277674331669
  0.4229289267730165  0.0029249277682638  0.0865965768531237
  0.4960392338239928  0.4284488727603510  0.7447420140486590
  0.6642786132409912  0.3277859417338076  0.6633398234788465
  0.5917948691384305  0.5831760212825521  0.9985038646955990
  0.4143756165622504  0.3307958592903498  0.4059949917250990
  0.5061628725721379  0.8352912758791516  0.9993446952760991
  0.6643776026321023  0.4243676192181777  0.9159787430888624
  0.5843224323151585  0.8347266217614512  0.9186107775782451
  0.4014537002304557  0.4205956843546773  0.1739407046910498
  0.4287414165636300  0.8344908078425339  0.7447401257961365
  0.6661699392280210  0.4193006212655901  0.7574436338875316
  0.4841230685510002  0.7362236087541283  0.7682935652830941
  0.3210867778221864  0.5120501802179963  0.1691648217892269
  0.3325802996794057  0.4237928413188582  0.7468416659607550
  0.6641679604811457  0.5013303309380333  0.1642402263447215
  0.4930228494066440  0.6677277907559518  0.3386561383938566
  0.7527528633831883  0.3346361414215511  0.9159499765093886
  0.4803980006954790  0.5691814912364717  0.2498693328313446
  0.6651280886415171  0.8304917589499139  0.9949879866465019
  0.6628770240691625  0.5072493439741698  0.3300124382459858
  0.3394505927860102  0.4321793434647808  0.5722530821820755
  0.8358865702993414  0.2427729323327064  0.2444900656779157
  0.4998436387725226  0.3386074807019260  0.8300613204500723
  0.8297095576187271  0.5069768051206746  0.1690013744125058
  0.3307471567222197  0.2540218732942031  0.9247068600441820
  0.3489924408370309  0.1055927420177893  0.7541757101314291
  0.9977169466123050  0.4173043937190151  0.2540121037540172
  0.2990388245544456  0.1835063361149333  0.5045067102984482
  0.3253362785806123  0.3290018973662567  0.8268440975912061
  0.7458214391974018  0.5814544613251096  0.3308412165141513
  0.3407403197759166  0.8464205382149165  0.8313093855180163
  0.3276650833825958  0.1671800624394362  0.8446816168750394
  0.5804145495691332  0.8320104927888318  0.4265711427448834
  0.3313227755253248  0.2597291274656474  0.5903069909572283
  0.8257373364043923  0.4986615672366845  0.4900271971954166
  0.8176252700838115  0.5846030434694570  0.5783028291678812
  0.9120426612606674  0.4985140104656751  0.5751053538002716
  0.4991555784045128  0.8405661463545191  0.4995767955060535
  0.9024150966197119  0.4976660472979858  0.7504376731975754
  0.3136797714606400  0.3337032276107931  0.1753445864461177
  0.3323538374153268  0.1658829438624272  0.0177386620109398
  0.9158693516858568  0.5055390197811648  0.0828913306664813
  0.4140200341677871  0.9186467560500919  0.3361417368457048
  0.4110499060975742  0.4197047999393819  0.9960850362956483
  0.9101095206408264  0.6659403953637089  0.4122811068704143
  0.6847627890067547  0.1664558511815759  0.9890079345628692
  0.6663308966645949  0.2475496257297697  0.9132535140503789
  0.5812630227167702  0.0113017514733733  0.2537826468751918
  0.1530354360062776  0.6634114696997652  0.8338011126277517
  0.2421622126382681  0.6688420511136552  0.7470168537666437
  0.7475183311483717  0.0028325883016811  0.2577346906445041
  0.9041803417627807  0.0844531894455932  0.4977574931734058
  0.9120665836437476  0.8285835678510757  0.4146443353891367
  0.9890809376456622  0.7598116792480224  0.2438274791379132
  0.9938861077614086  0.2561192543937533  0.5802663533786513
  0.9859322612205105  0.2524654296480690  0.7577933511859181
  0.2388709231270614  0.2521128992185527  0.8333526488341223
  0.1543480105595229  0.4087447684519662  0.4168947265231215
  0.1513206687129504  0.1558887839853583  0.8257082063595896
  0.2308793122646783  0.3255514928236065  0.4227877394984714
  0.0652946739597131  0.6737461361580818  0.7551837559615788
  0.2222796241940086  0.3254912645472779  0.6097614190012322
  0.9936928935042898  0.8230093635777024  0.6671429681506961
  0.9885504150414921  0.6688719902695427  0.3334905825144487
  0.7517548174978578  0.9169050480818463  0.3428988539502910
  0.4176736501287256  0.5825316154455795  0.0006300235439973
  0.5745882377790998  0.9212591054354216  0.3371002487852744
  0.2528629139072064  0.3192743069385397  0.2606729998085161
  0.4090723217190568  0.3405981194413927  0.5807265871958865
  0.8276649908893989  0.5018823630249956  0.6667459834392372
  0.2357208126584890  0.3483394654027790  0.7442303897612865
  0.4115491927855187  0.4243574604252099  0.8247947222520996
  0.7500385619102961  0.4165329515664196  0.4991351357194168
  0.9129852781153593  0.4117296085160703  0.6692709262775902
  0.2423676681913911  0.5790404487874068  0.0016221169240340
  0.5729108776447027  0.0022983046995256  0.0848288655367883
  0.8231378939074546  0.5019095588608959  0.9939062235090671
  0.4175708378555814  0.6686277182634730  0.9171726089918877
  0.5726485604569129  0.4194318950416588  0.3283931984725123
  0.9887190392318547  0.6695366060640954  0.4913895581069596
  0.4859475685932190  0.3276406171447016  0.2027248210757153
  0.5702012421927953  0.4188085780130807  0.4984077462521806
  0.7456466974500479  0.6663489077650528  0.7464329360608665
  0.6617927738555245  0.8237456122191267  0.6640865863960502
  0.5762959184303841  0.8351243246394006  0.0838243409251856
  0.6462597783463102  0.8953775482038945  0.7581993098774717
  0.8280644433323113  0.9969709371289953  0.0028385187704811
  0.5773993519921704  0.0023162991501138  0.5736148011037000
  0.6615743455439833  0.0066521430228679  0.3352680736133564
  0.9915170727836953  0.8231557113291316  0.3343788778186935
  0.4947120302582981  0.0793007520806123  0.2542573683228970
  0.6482576596548393  0.0969201815342330  0.5767718526985418
  0.4124062697398366  0.2423938758822988  0.3229151557208168
  0.8238040184768001  0.7469549132836351  0.7470165131033959
  0.8316672755405717  0.2509538351099814  0.4227438223375310
  0.4107804567163061  0.3360097888799170  0.7400038770362072
  0.3314303947795694  0.7560355607446283  0.0678611332477363
  0.4977134202471028  0.6654664451143341  0.4966270335071296
  0.4900773005454116  0.5030005801185666  0.3362804200303869
  0.8320014625879234  0.9991076417601517  0.4962702111966877
  0.9146667288535083  0.0810783709640523  0.1692738725586992
  0.3320628732512786  0.7536333482617897  0.5780159656361005
  0.5880539560079699  0.5714393269222209  0.8307070811877191
  0.5875240203224668  0.2502367388971805  0.8321782287844856
  0.2335285448337495  0.7563002159774278  0.8367325257882843
  0.2547958122811523  0.9145019950042065  0.0064398528728660
  0.3254010477293756  0.6768258639475335  0.1656943484269602
  0.9129549565816553  0.9996636458105524  0.9131363837243340
  0.9176692578661738  0.2714721229381881  0.0098467177825512
  0.8304207296162508  0.2370615011212981  0.0770722393686697
  0.4193659547091931  0.3322681076047425  0.0954081343221571
  0.3268344618806719  0.4995721439472041  0.6605390895388206
  0.6643828948102452  0.9176767384456179  0.0849982785687882
  0.6638411152777230  0.3279156965018581  0.4978150056465392
  0.8252901523566541  0.9120459853522973  0.9131105154515657
  0.7434331927580772  0.5730747779984819  0.4953207893428387
  0.8269535843589134  0.0789131552041834  0.5776106577447875
  0.6622733844822553  0.9171714347181432  0.4263699725407050
  0.8251708433171553  0.4979135382914108  0.8327030213799681
  0.9130844572926065  0.0820426760791921  0.8372503807965072
  0.7476887056410412  0.8382789380082885  0.5902502913257993
  0.5833887944950891  0.7472126711266308  0.3342010180550829
  0.5817661226669354  0.6588167488999622  0.2486819761053779
  0.5036542146316595  0.3348512032562556  0.4955571116106200
  0.6672986516667957  0.5021134421965621  0.8309610611465176
  0.4946628711564184  0.9955234272453990  0.6738974746104145
  0.6709926017044342  0.7445797629552818  0.2455459382057828
  0.4120670805229665  0.7660675802303037  0.8446083842375072
  0.8323656793596776  0.1586576025450747  0.3367713946480884
  0.8321515000024106  0.8176342576926866  0.0004969941666437
  0.9146286324616680  0.4117789498950916  0.0009524927172244
  0.3310840971753350  0.6738211370191531  0.8385680725472389
  0.6616352658796334  0.9183483373737236  0.2487559951002852
  0.4983019573618098  0.1635701338964127  0.8344498647747004
  0.5009558487198174  0.0822115233555099  0.0877768134333174
  0.6615828865809525  0.5061599422404849  0.6668720448605820
  0.9081909431053856  0.5863541467415320  0.6624554206567083
  0.5653257903222585  0.4113786337872653  0.1720480925569539
  0.2559675904454837  0.0069148771953452  0.9201292781817216
  0.2417952917345017  0.2404662421676091  0.3359060191131408
  0.1648243670254975  0.9156677699901723  0.4192718626221926
  0.1603836436146154  0.2303445803536996  0.4273199527250739
  0.9316331965104445  0.3346720739352296  0.4020962472809320
  0.5066748985366036  0.2620907861481832  0.0975003318378388
  0.4110511793737643  0.2446908380874103  0.5005327530441906
  0.7146172210441821  0.9118657835301883  0.6762517940436756
  0.6617021215407585  0.0975063948693291  0.0785493560756707
  0.3441906845050352  0.9291094496379294  0.7459695170792933
  0.5891084709789084  0.4224498325655788  0.8329379341676124
  0.3880930486788748  0.3342198001019808  0.2734132416062089
  0.4968415315922968  0.7559338611959858  0.5869530085276058
  0.5861618088111413  0.0848919799402780  0.6667760308958485
  0.2620385545909507  0.2588594197588506  0.6909365510328292
  0.4117665080462719  0.7601493909794059  0.1657098680291556
  0.8308065975088019  0.3313686494734062  0.1608388097829545
  0.4961694389185873  0.6691701482556474  0.6721813352911142
  0.8343390474878705  0.4151255327666245  0.0774452096874258
  0.8212855177471748  0.2426754243160793  0.5841136440463848
  0.4151579083702561  0.4929036668918689  0.9148660484167235
  0.6685007402503643  0.6560221536557131  0.3328258692724858
  0.0747710573016771  0.5318857563113116  0.5982612486993278
  0.4690117956325431  0.4407686204048666  0.2570116079801766
  0.9936475959050329  0.0808856900831694  0.4129118325705153
  0.0008596287476648  0.0821978023188063  0.7515757110208967
  0.5899433602075758  0.9087499017701277  0.6626513151380704
  0.2441751761600904  0.5826231108099277  0.4982620415140425
  0.3302309440039550  0.7538344548247232  0.7536236068731771
  0.5837940293345998  0.7470261704449721  0.8298925321838696
  0.8186986327387196  0.9157069636813988  0.7352364694606450
  0.0794770040374994  0.2517668809741460  0.6643184833346022
  0.3342581956869443  0.0912723732539578  0.5750421881936747
  0.2505673704047882  0.1657775411393461  0.7450329921627222
  0.0774237636423046  0.6636385322307671  0.2472131079106920
  0.7424849290674286  0.1602814684503953  0.5848953028856647
  0.1434418475049309  0.9146392545913890  0.6027102735341781
  0.0735928568475993  0.3364048452441676  0.0882836512982276
  0.1696234082085588  0.0035271881004551  0.0090506544582916
  0.9887096890832775  0.8174864262420772  0.9941613083058605
  0.9905004230614576  0.1690432409637607  0.0072072396611923
  0.0036108448827777  0.9955347437524500  0.0017494356591764
  0.0781217063619802  0.1588421636119524  0.5906167061277583
  0.1658518793719159  0.0122974607629280  0.8334475785185068
  0.9971594054190164  0.1694182159964654  0.4974584385557926
  0.0695712481164361  0.2672870467440546  0.4846800312157549
  0.0759439170393749  0.1659045017348752  0.4130532982234330
  0.9910414500002434  0.2458943215203248  0.4149900659452689
  0.9077346771898526  0.9984758300412314  0.7465141440171982
  0.0838464047671653  0.0845023005359076  0.5028431416564255
  0.0000189801863476  0.9882980905563028  0.5007067728246833
  0.1704333509012330  0.0770165932225535  0.4132681121389983
  0.7514174691160855  0.2361816912387063  0.1662639399065955
  0.7470472571506995  0.9140845891037527  0.1665498204492017
  0.1597607742010324  0.7449368565502715  0.0801824824436162
  0.5064188459790628  0.0822818509466686  0.7558878082863358
  0.4089986798428836  0.7551821319999793  0.6644500848548206
  0.0741209927269157  0.8377049635635696  0.0679623131421782
  0.0766166038615473  0.4983279870259836  0.7399551700080399
  0.0730175198342081  0.7461949015712602  0.9957545576351897
  0.9082894235248480  0.7399940999171908  0.9965999366799523
  0.9936199296376125  0.5845268303763130  0.7460890113585547
  0.0810676806730650  0.4957172218978039  0.9156180916029951
  0.2560204799742696  0.4803139925809266  0.9320137920011654
  0.7431297999524527  0.3286970648172263  0.2522991962260361
  0.2424736492863175  0.6587845219412202  0.9224737663118874
  0.7589371710152258  0.7467121319166453  0.3335496066977715
  0.8292993385273117  0.8255796464898495  0.6636042929587266
  0.1687040229038937  0.9216968946980254  0.0867493290535403
  0.9944917211757580  0.9076854481295968  0.2457402809369930
  0.1579923522867523  0.8338976723325833  0.1713239503303803
  0.1722521470763717  0.9127642672423235  0.9089605250361552
  0.0938406868922980  0.6002620125225820  0.6799539193404045
  0.7638521338074721  0.0659906971489904  0.6672583017040363
  0.6800551798980962  0.0928817281234143  0.7323910073500338
  0.6716356574993616  0.0093108426904749  0.6469569262718773
  0.2663551095220255  0.8309647704139834  0.9171480117792318
  0.7449038459806289  0.2501197414812373  0.3345131964217600
  0.1747098945821753  0.8298156893441910  0.9948086264043826
  0.2488569986196042  0.8477178884487362  0.7368485833954246
  0.9218585980259486  0.9092395385667863  0.1681962284455615
  0.7614014666690252  0.2583333315076195  0.8371811233614641
  0.8261392316923266  0.6664997073912905  0.9977439308423055
  0.5066806007855780  0.0834574170424434  0.5767255821749624
  0.2451287506387000  0.1650670331837602  0.9251402961624319
  0.7489736938595870  0.0013796373425484  0.0821841078905238
  0.8369262267006029  0.9175562018613004  0.2581029581948909
  0.9175093599850548  0.9101735999125237  0.0006111545377433
  0.0688209902829667  0.4232690020940842  0.5117519749388474
  0.3302075248049332  0.7591574007012932  0.2516026161654753
  0.9934895127072564  0.4970739338757374  0.3382054914282933
  0.9969313647522113  0.4986967164348103  0.8414144016636554
  0.2509938907994238  0.0744641400779944  0.0074517047921268
  0.9043330850419392  0.0919184071099275  0.0029189185783377
  0.4033002951041642  0.1525928704598609  0.4196469592501298
  0.0890264025502200  0.8326362731020008  0.9221366150567848
  0.0132689534391094  0.9104926141778517  0.5874076488216513
  0.2965674511297062  0.4877841729190566  0.3590840804167834
  0.0825439048362141  0.0790046886373608  0.1582686420955932
  0.3303596119653351  0.7518539786365355  0.4113337522231366
  0.9082999600399021  0.9122558561223676  0.8227706695233232
  0.0802797793737940  0.9116213679671549  0.5000439560750484
  0.2334661768457993  0.4810889104283407  0.4559289252425108
  0.9074685149441349  0.1690166052929638  0.9193039860451041
  0.3290181262738732  0.0853039691318343  0.2492192278668052
  0.1362134620971356  0.2442067217499440  0.5705883235634609
  0.9871723568888681  0.2631837450996888  0.9218542882504588
  0.2516519504655391  0.8292880839274077  0.0967206065481900
  0.8256192917580017  0.4159838820837141  0.7582378891717629
  0.0842666331315060  0.4148211913248857  0.3285992411408875
  0.8313833750296328  0.1625340966650166  0.1692313329543108
  0.6560559229284101  0.3215096049309867  0.1603148502336846
  0.7419348453810276  0.4159130843028268  0.1638300791729699
  0.8237122428551716  0.9996415844637632  0.8254312189577065
  0.6714626059857867  0.0062016266637927  0.5162034799714085
  0.2379121211048613  0.8531919397800946  0.5779100960853291
  0.3346739084973655  0.0031155142988125  0.4944446845267155
  0.2491711524016462  0.6721584012321131  0.5806082801322536
  0.8275766230836388  0.7528945856352789  0.5839864546469016
  0.6738135057326134  0.8225986154271976  0.8383419749086443
  0.9190091522835241  0.8228233002162783  0.5809772325902941
  0.7458684768818583  0.3323438789222858  0.7500893083148367
  0.6674826650129807  0.7494322437075986  0.5813045019655247
  0.7481065638712751  0.4197737991572341  0.9968839745880366
  0.6636740508056229  0.6639490041969593  0.4999485333069436
  0.6521465125025747  0.1767164251322614  0.6584569428275249
  0.6619852430781971  0.4180599686912673  0.2454566708079233
  0.9073352186313035  0.6767204242175242  0.5817488262133556
  0.6659769650221354  0.4226060262506420  0.0732425287213238
  0.9080589149876802  0.7351425753416549  0.1629982205070171
  0.9067959869150710  0.7479329265842871  0.3336601388005845
  0.8346878814162672  0.8279124634943641  0.4956793217944173
  0.6644720716320640  0.7470093593023533  0.7482606414404359
  0.6681333282203397  0.3315953961261988  0.3376957181321912
  0.9131453858274881  0.8261477100935225  0.0828767704206575
  0.9087922628633740  0.7477576979520029  0.6651480418084000
  0.9031258452415321  0.7457735303138769  0.8303241522207111
  0.7436319285538130  0.4164391209114228  0.6672388006853857
  0.8265709854496007  0.6633782312456312  0.3337286818357575
  0.7375505001195771  0.4981371119995284  0.5826013662947648
  0.8250072274336746  0.7447783053451591  0.9146580974629086
  0.6662489413940713  0.5841380196452028  0.0827985014661499
  0.6663926312006822  0.3342364107570632  0.8296699993789697
  0.5836961421592173  0.7480885182308424  0.1586809597937416
  0.6541069942445663  0.1537861783743748  0.8273217478377501
  0.7461278329436122  0.4164306472524161  0.8347482372081027
  0.7447124768299230  0.5824977826671641  0.6656267183661502
  0.7473177250331257  0.7462958720919975  0.0007133060132829
  0.6604585778623430  0.4165201571330952  0.5848370952831959
  0.7495711353850071  0.7462188520470590  0.5006225082137427
  0.7419604987657622  0.3298623653392248  0.5852349465361231
  0.8195819584818792  0.3240429368589895  0.5097983113630004
  0.6658185050950173  0.6645067483124043  0.6662424645040373
  0.5822266764270245  0.3363083536506217  0.4136186156528902
  0.5806292226989100  0.3358686922224687  0.5782994583738580
  0.7436265961222895  0.6673387217470498  0.5878073903235194
  0.7443890378076212  0.2461571933826705  0.5024254376195361
  0.7458848920658352  0.5005807930778146  0.7492548894884095
  0.6629349767872229  0.1713645181230898  0.4974225502949157
  0.6654669250239257  0.5829504422624360  0.7478410943654230
  0.6651244530503706  0.7483677433580469  0.4232792247553815
  0.7476849385992678  0.3369515022830835  0.0774304967765547
  0.6664860446968253  0.3350459281945313  0.0044135794533614
  0.7466816950740452  0.6626136979398370  0.2486820814534786
  0.6645088058610660  0.5814143702163215  0.2460321407874873
  0.6650565396572343  0.6639533083927976  0.1656226917091450
  0.7458234794109989  0.6652389459112928  0.0821372081215416
  0.7428392962865461  0.1558225717510234  0.8952484181822781
  0.8244952572564376  0.5828172203854861  0.4127310057495133
  0.9102573881070037  0.6642437026724979  0.0773894024691607
  0.7445336498199586  0.2462017777027168  0.6674192887393681
  0.6670840556449129  0.5022769163775956  0.9963025219747850
  0.9100824561510255  0.5858481124552315  0.3328428715338757
  0.7467067659355472  0.6632207396808677  0.4138674054812252
  0.7468787450990206  0.4175207647431834  0.3306450846226277
  0.7479420448115834  0.3327864326551108  0.4195059978148447