Cr Ni
 1.0000000000000000
    39.4589736768681263    0.0000000000000000    0.0000000000000000
     0.0000000000000000   39.4589736768681263    0.0000000000000000
     0.0000000000000000    0.0000000000000000   39.4589736768681263
 Cr  Ni 
 1596 3725
Direct
  0.2909905431677878  0.0591185089081216  0.9020441812848510
  0.1076419868904433  0.8200333396672952  0.0414966620279138
  0.1607632483241966  0.3814368413750193  0.0564378619714411
  1.0268785291149571  0.0084269086134455  0.6655267379852484
  0.1820233114349209  0.3405489220551997  0.8052596892483900
  0.2794991563038577  0.4072743228254892  0.4259780327765050
  0.7441663747737449  0.5964296447834124  1.0074513601947679
  0.0860635031334022  0.9079006576468939  0.5296422115807540
  0.3319952305469825  0.5178189235133956  0.3533856450051284
  0.2996820002890251  0.1338887288591598  0.0567742249323829
  0.9381680825711632  0.2943129996994879  0.5114566542394415
  0.6816739913313803  0.8750720673738444  0.1788612441852559
  0.7294981610934242  0.1747810489109993  0.2423862137426726
  0.3191598262136282  0.8237423772967556  0.7512245494987658
  0.4321315850986431  0.4692878255813945  0.6217097703007265
  0.3283087684533801  0.0408098455012625  0.6898402606878197
  0.0455271506626657  0.9514646696587535  0.6823829839577108
  0.2582035707432517  0.7956118413451372  0.6240610259797819
  0.4891318681433504  0.0795454161740340  0.7359274549050324
  0.4162206924686314  0.8282085957308905  0.3894648869869817
  0.3655349805583522  0.3169806238615103  0.1412918554511153
  0.3136483859237242  0.7926128553401515  0.4736478128367040
  0.0743807287313233  0.4453508951701794  0.8397676980200408
  0.2315960972660734  0.5569641967929884  0.5363509778403485
  0.9532999811539234  0.9171620407379133  0.2041462477540884
  0.3997175688073644  0.5262717516615267  0.5431928694549050
  0.6311477161204722  0.4918623149129411  0.4687579385861669
  0.0312872956738214  0.7147267843227347  0.8339798144619691
  0.7253065574042380  0.2000626578744024  0.5111461001415548
  0.6486384643738139  0.8491395101413806  0.7948176096351066
  0.8324322077903442  0.1829987728327142  0.4473858851700664
  0.1298702664614163  0.2351132235708105  0.5333375038182746
  0.8554460799693901  0.4194223156400092  0.7738414743531502
  0.8793050270527190  0.3862072629165498  0.9038160823460584
  0.7661009772360668  0.6498947615378240  0.6989632601562560
  0.4855572419789434  0.8790204839424460  0.9633385396842302
  0.6525380411631690  0.9281112509139268  0.6167022172461086
  0.2277218084756571  0.9679102031159913  0.1446537853643082
  0.0235586440720579  0.0691253176281714  0.4092880244486595
  0.4147392150196035  0.2868546957038620  0.1648652619317664
  0.1551782257728059  0.8570491431472620  0.2937824588275932
  0.8765577468839928  0.0689885482170143  0.1547578465548918
  0.3620380125451784  0.2568186897632349  0.6567413035561318
  0.2352766898909172  0.7082543161414172  0.4969607422361145
  0.7698177732485127  0.5870585723224808  0.4935185618512675
  0.5773331740005385  0.6080303312657754  1.0019541540329999
  0.0639834150543474  0.4391719802548922  0.2311581056910263
  0.3378253347552990  0.7996618622365128  0.8767858690844886
  0.9704384946137161  0.9287048060315729  0.0565244989176221
  0.6700856267318123  0.3529429333284269  0.8906569005944073
  0.0265005935909047  0.6419102136525540  0.2129386866860134
  0.0588050240405277  0.2345500889250656  0.8390398780347758
  0.2753788542439812  0.9674657387381654  0.8216730449509361
  0.9886291396998270  0.8633407778560984  0.9055606088995010
  0.5810538085469810  0.0968639509101388  0.5948549436846369
  0.1236058910480494  0.3587124455171886  0.4474608685154752
  0.5735451839911028  0.8291217642630792  0.3285913776282959
  0.5325295371606040  0.3933340593332402  0.2304010288914415
  0.2238906790660892  0.6835328631428207  0.9628707664517803
  0.2493449914263127  0.1349533113558604  0.1552259563656878
  0.3924292432314340  0.4229385333906611  0.6117976202616063
  0.1717859266184936  0.0372128973453350  0.7513466952479212
  0.8343246946741386  0.7954888765936442  0.2042092306246886
  0.9522188050974707  0.3298653138841954  0.3943097529153792
  0.3231610682522763  0.9072516719740412  0.5633977643863743
  0.9569782952223045  0.4147241240496396  0.4904566537512478
  0.7813974668472562  0.0527418100224060  0.7805587943670422
  0.8648709454673965  0.3038751198929096  0.8155220650153675
  0.8031462741012017  0.6989566293834995  0.6994935329296190
  0.3821527694196372  0.9017228302417314  0.0973639181314957
  0.3783045575496703  0.3783103999436123  0.3546910612000448
  0.9254947155585277  0.1425350656403975  0.5326269777008856
  0.1449464825426290  0.2915903672439388  0.7999692975825650
  0.3564258844636999  0.8718824653663620  0.7543631435454455
  0.4434090269563413  0.2243282951797459  0.8030990112545798
  0.8318834979093337  0.7581139328507410  0.6452126809804822
  0.9223492253375108  0.0239046203653787  0.0108571063868255
  0.4083491271331895  0.6190749710286116  0.9920222527304015
  0.8295829338649038  0.7015113710177674  0.1162380546959538
  0.2032482935415289  0.8578230832016308  0.8816149322149296
  0.8803054635923163  0.9821199654966665  0.8477491498507161
  0.3308902289158211  0.8327989686523949 -0.0181808505407923
  0.4440940124155597  0.4955299757568008  0.7882491006342566
  0.1240165366950035  0.7031753131422801  0.5841972496810619
  0.7597653062501672  0.9918795258046234  0.9558553873337531
  0.3558644106950283  0.4838848757642996  0.5362343277096698
  0.7448367759373703  0.4084086623146196  0.0151095295994212
  0.6556768577948288  0.9652345952717400  0.7203880536368239
  0.5331377518624957  0.5137521341731230  0.6468304670785407
  0.5721237020096808  0.8764776048450192  0.1429319279079586
  0.1186829777184845  0.4203335327576375  0.4273746424904603
  0.4572474672005318  0.7218346167457705  0.0352578095431057
  0.5010530175850975  0.8171431644374422  0.9755405375804764
  0.0109103093014454  0.7389581540036291  0.7095055426567685
  0.4684406817871268  0.5548318218603420  0.7321585048740862
  0.7608493036441032  0.6293731270078281  0.5339336214155842
  0.5174769750859937  0.7673085726952861  0.4430174401731418
  0.2978863793791743  0.9484994998621659  0.9501382988202559
  0.9254000765396946  0.0533022427502868  0.1204239096881758
  0.6906905067323941  0.3756392371815639  0.4643311418442170
  0.8638959694755510  0.0775389252055061  0.6354838454638613
  0.9600995637978420 -0.0218213266542826  0.1892665097147961
  0.3449533340925005  0.0120988978215720  0.2220620685959391
  0.1159827803129856  0.9116632178836335  0.1340715663052107
  0.3406740453024083  0.4953135932512723  0.4772111724147934
  0.9445884335452810  0.2209062838487920  0.3658897476979750
  0.6997181253014200  0.4934581734666790  0.0329654383841579
  0.4768302460610995  0.9492289913269685  0.5218317016856232
  0.1136742191475819  0.3918398986643119  0.3216671335151115
  0.6048272673625110  0.6110299625504025  0.1879036495341862
  0.4129937971201069  0.2273170204637850  0.1805876790687738
  0.8595047710851709  0.0517054491675983  0.5329442122654267
  0.5695801004512674  0.0127445596403835  0.7748809567922421
  0.7367363538462164  0.9028141054682262  0.1906994904198806
  0.4482782354509766  0.6260555829917275  0.1829479204874516
  0.0998613494514206  0.8275863606528833  0.2867327516847141
  0.0371881788448067  0.1453798088515193  0.0199051492052662
  0.4664372583327480  0.9028108723205395  0.8384954009173718
  0.8580477243191312  0.4715100107566073  0.4895398485774374
  0.4194727808759476  0.2346095107968937  0.3488178622995884
  0.8654770500003516  0.9773156007996738  0.0579545437335742
  0.7497991381515989  0.8915627135438965  0.8189147855769570
  0.3666090862206485  0.7936169182832143  0.6074526688842239
  0.3631153823661524  0.2740829455604280  0.0998137848049198
  0.7425287610704996  0.7406343505853760  0.7875533487728232
  0.5490244691180503  0.0361880357290161  0.6480410294728030
  0.3113307964609481  0.7028770442469719  0.8238255679060782
 -0.0085889380032667  0.5127489043820103  0.7993765631212624
  0.6403280640601404  0.0960080447242075  0.9502024628618879
  0.1831505920020492  0.6949331403259745  0.6066904246226051
  0.3698121452135611  0.6403735047831371  0.5706200410930793
  0.2048883041643603  0.6404323847409409  0.6247356781571972
  0.3408945676457584  0.3133389535839703  0.6379945173242296
  0.4132086403293442  0.2088818649778285  0.2415800788714332
  0.6498875691992037  0.0796196204141868  0.6789913200425098
  0.9046041820964431  0.1224239161935412  0.6418013077834217
  0.4021392413742789  0.4801058621878340  0.5035723436819981
  0.7151116920428424  0.1890799372144940  0.6203840973946040
  0.4353622814483406  0.9940895052529019  0.4053723713176859
  0.0463762033483652  0.2083628785113291  0.2350695364462418
  0.8487916767167092  0.0814191741916956  0.9140155292109726
  0.0541792415385758  0.9074878987733729  0.6358912177987585
  0.0025239643266509  0.9698867874495716  0.8921818240780861
  0.5793464593605090  0.3784051905624166  0.4832830029300551
  0.3689591157627981  0.1619668735883090  0.9028536393162498
  0.7460451558402431  0.7061829467596231  0.6804260704590901
  0.6647842288412673  0.9198783441527647  0.6777752104713091
  0.8552394456767342  0.8788471002810450  0.9732872741765295
  0.0333171879049916  0.0384112108016759 -0.0162068836836138
  0.8168576918148970  0.9912589863711323  0.0960862748707240
  0.8711726624268024  0.3260581954185321  0.9206046603376896
 -0.0083335555060147  0.2881661288993367  0.0249605725757452
  0.1457928733259407  0.7255315517837637  0.0986029307941513
  0.4560865438892563  0.1169509471237333  0.0519983432504931
  0.5128347057612908  0.5744551819934302  0.0360926953517637
  0.3169401757509725  0.6470978403978013  0.5443226799798698
  0.0591073818835029  0.6302310413951352  0.9811869208790842
  0.1523839289436016  0.8511228834942841  0.9250513656343343
  0.9656439249437035  0.6067471170285739  0.4366351780747468
  0.1684548860739678  0.9354910017202697  0.7307829134197430
  0.5808409458853823  0.6842253430296775  0.5785285479353853
  0.5580020775310273  0.6760083447429442  0.2629054405142284
  0.9266833049144760  0.7543473316014956  0.4481524731049792
 -0.0085984703714257  0.2774443291691066  0.4798658106712278
  0.9296180704519255  0.8355117917603673  0.7731386267730935
  1.0163765428097282  0.0026492330899487  0.1931013950844502
  0.9035302230269441  0.8602687743524423  0.6461917382007616
  0.0895036905227930  0.1013776142788301  0.7041498310625804
  0.1204270378444868  0.1347797760169241  0.4694929758651348
  0.2429763679467929  0.3013074117683746  0.7188104721955740
  0.7456197008500288  0.5158506905244239  0.5517029430143867
  0.2844007665740100  0.5580959183119383  0.4953495320609201
  0.3613856889728661  0.7833818377395561  0.4396766511168355
  0.5454835004438751  0.6535829730897103  0.7399104911659106
  0.0778536114338168  0.6254434362929013  0.1789359776703062
  0.1391646402952291  0.5614934760747721  0.7835944153223866
  0.5093716901217730  0.3502026643792398  0.9481764353704225
  0.0395598670814433  0.5517264561512853  0.8602563179785347
  0.8818744113962981  0.6694302853929852  0.8491975221991678
  0.5018107767712684  0.4875623814339333  0.8089812324202682
  0.8094131582884098  0.5643884008019265  0.2225661064611898
  0.8081940643701114  0.8494815699913536  0.7340213207219648
  0.3583927616897313  0.2060419524584173  0.9464543074957892
  0.7346800651836627  0.6198794492083406  0.8679352520603043
  0.1885830102927055  0.0301504975353104 -0.0081891198981465
  0.8995610400624204  0.8843939504558530  0.4265250997842363
  0.1119315023158405  0.0785286537269858  0.8322636450289942
  0.5698231382369715  0.5645610846912380  0.6522642204315144
  0.2615338394701793  0.8329391089156687  0.1549391512860809
  0.4948116243590456  0.9447354682815827  0.1701474593015760
  0.2623976472385963  0.8725418844978865  0.2650948827830924
  0.8164768367890766  0.3540598086788486  0.5686343462711962
  0.8107600642021396  0.0838912844184206  0.5142425691745759
  0.8034145110759425  0.4883228393648293  0.2984747430440384
  0.6937807973918478  0.4513832480556472  0.3813835459549246
  0.0576600806455707  0.3950680103066817  0.1882680129121512
  0.8396505807158570  0.3272133918031859  0.6957702582262666
  0.8314507849370528  0.0914782206091872  0.8471772279172517
  0.2209002549088034  0.4890804424783733 -0.0077314963341287
  0.4637587187967325  0.7828428954332646  0.9288288176473739
  0.8562364263941193  0.5347955678886701  0.2473177958534633
  0.9132839582320933  0.0335780213200453  0.4972682392659146
  0.4773578781636992  0.0391128482293517  0.9641579865968720
  0.0696093975901926  0.5346602996594217  0.3185376997527155
  0.0010935068507822  0.0810862551164240  0.8494405681592022
  0.2929826659733871  0.4770325892264177  0.9030624283405970
  0.9943646253731568  0.2105415066666348  0.7127832085471493
  0.9091034958613904  0.4064252610935324  0.5368546092216636
  0.9505642820321418  0.6475565019031979  0.9329865848221602
  0.0113004504204179  0.4570656762459707  0.0380798702991211
  0.3143921697614620  0.7382310347085663  0.9407167662867633
  0.0468890460426739  0.2230792800221828  0.1742914778599328
  0.4978263186235191  0.0864353899141336  0.3985456359024470
  0.3793066387185599  0.8931813164178030  0.1616983414211196
  0.4379879724486168  0.7738203844195356  0.6903017543915144
  0.8092588866380149  0.7816821514202886 -0.0247404538146934
  0.9301871158025363  0.5195244899937416  0.7780677941659201
  0.3763792848367060  0.3287297109990062  0.5356777392351729
  0.9433944677617293  0.0538919396936111  0.7218418717613367
  0.0429018195398946  0.1801503207082008  0.1288469833777772
  0.2447216051588552  0.6889899169690984  0.6275706765583309
  0.8347052161088864  0.6648652872502727  0.0113180299965448
  0.4590513371061593  0.7336116100051017  0.2040211857606785
  0.8191812642629066  0.1022586477694060  0.7859112374256092
  0.6585105913665316  0.3498922498835622  0.6253089319737977
  0.7878972618293681  0.2719911883472033  0.2415012428069026
  0.0928785027045505  0.1654508125423410  0.9198190344746237
  0.5361682417674613  0.3646634823523866  0.5850535406095064
  0.3767857947222534  0.4099976192241239  0.2308333495817097
  0.7205425032906824  0.5124277511437858  0.8745093181287382
  0.1008981437913958  0.4749518130549701  0.6772370471255307
  0.0802084597330395  0.3330679608281532  0.8831707401042738
  0.2025196274506837  0.2274072238435139  0.1110611639149782
  0.7411607660777484  0.3967353368845732  0.0764143940264666
  0.4393885360465408  0.5345854958368704  0.1043794764132482
  0.7173591081722241  0.7050409639341626  0.3070661648873356
  0.0949957595638291  0.8450218454365456  0.9729336875752091
  0.2166390941833971  0.2919716930652497  0.4943198482295759
  0.8723741129485196  0.0600025651433515 -0.0204715535684621
  0.4270930919715444  0.5719158865453324  0.9507104622757210
  0.6704594328255211  0.7352159490720814  0.2803243248938315
  0.4862922235506843  0.6612830067413134  0.7207616433681523
  0.4092695149061045  0.7849912543845939  0.3450120253404818
  0.7094882173696339 -0.0066792998704851  0.0588807952815976
  0.2133986201188788  0.2644537698808416  0.3905397236960387
  0.5727161101158799  0.1060152039132767  0.5337810527229280
  0.0746007817638410  0.6194885253222249  0.4699639236008120
  0.1717306347973542  0.5669638718971329  1.0064974151988375
  0.3518411324808163  0.0822983617894912  0.3719146635444724
  0.8487487510371405  0.2473195989438746  0.5487042141332994
  0.8072713090246810  0.8836226317766357  0.8388452676611726
  0.5380986522829627  0.3815520854683729  0.7834251764733078
  0.7199186357608908  0.6641928193445950  0.9093916276789539
  0.4096892133382436  0.7155062683914747  0.1389538398152985
  0.7470241080757852  0.4578436694049939  0.0556532810241437
  0.1728068667314530  0.5488252107345065  0.0682220673696970
  0.8731512872689626  0.6798225063530395  0.7879717125962162
  0.9249708051553029  0.2137354440094746  0.9093034748887161
  0.7026069242525885  0.8364698428855613 -0.0184856768057472
  0.8861953025981403  0.1767780680581058  0.1831609776768112
  0.2873058879912982  0.6108369368857789  0.7706983099854721
  0.8563937790212445  0.9577213972818766  0.4442370147051495
  0.5254490977343597  0.6789002801632462  0.6072939171996365
  0.7041028198607624 -0.0353628661169596  0.9541815857603644
  0.6721759204411090  0.7664601768153513  0.3878234169395645
  0.1388718221358680  0.1239772038187806  0.4170978639729624
  0.0705005579202482  0.9610350969840289  0.9766092845479100
  0.3751384202767391  0.4150051191933970  0.9458041731750817
  0.1480999871328394  0.1328449700651484  0.3510227483191021
  0.2992467240423153  0.6990527152181254  0.1633728399253097
  0.1398129355408800  0.1703079640135375  0.8820412562348743
  0.8023068677216982  0.9644687160376914  0.3073756034455444
  0.7918819835572262  0.3149611037674326  0.2851192102490564
  0.3569623599384695  0.2917775901568608  0.0395517242322113
  0.1233385861279458  0.9694926834352064  0.1144765939091607
  0.1201856782890258  0.2797600171171450  0.5759582916363660
  0.8198405596538961  0.6934829669723828  0.4182825450666492
  0.7024585071290121  0.1991473726908640  0.5622824104155569
  0.8191241985373454  0.6433468637654254  0.1371197902232375
  0.6393792178857515  0.8602235811666257  0.7330585080216369
  0.8023758221318112  0.4544309889762227  0.1956901393487578
  0.2556019661563634  0.1474773985978999  0.3206289366423268
  0.4063531248629701  0.1757005984367989  0.8004834952869069
  0.5946537300188952  0.9185776970625015  0.0943642560472207
  0.7911979402993907  0.5582811430512462  0.6165544313695972
  0.2230331280889740  0.8270375145772670  0.0083983692296934
  0.3649206449456286  0.2237219104666302  0.2774562862966823
  0.1102271131171669  0.3463211274413562  0.2757107555134973
  0.8938437847249023  0.4685555971771492  0.7761606032302896
  0.4178298311940079  0.8132019640210975  0.4495911098719034
  0.4260146450617135  0.3783949107048560  0.2568989452101852
  0.7316072356916287  0.8427750759659336  0.2077775719907065
  0.0331499549517833  0.9635245258582011  0.6204872033130873
  0.5917126120446259  0.4338177747101561  0.4629366885333155
  0.6622624034169945  0.7342530195802449  0.9839668725705840
  0.2835433267904383  0.6889713891192558  0.5246087787539836
  0.0399159200883022  0.4459841542263261  0.5512136677247794
  0.3943978945061364  0.6268200824883471  0.2813486781568670
  0.9672034184357708  0.1821003575878554  0.8736267305294743
  0.6831408155926453  0.0442789503632239  0.8662080803325652
  0.1781125378933396  0.5795059182647173  0.6821763512923954
  0.4920977024251391  0.5445481055031073  0.4627522988009160
  0.2349070195139294  0.6732368573451178  0.3883281107745329
  0.2865368505596693  0.9576895264720003  0.8830862693425939
  0.6792283252378229  0.3021639711240453  0.0790333407040114
  0.9309529241819652  0.7040535396146387  0.9154445509810430
  0.0817398203399998  0.1784292851838543  0.8588519438820228
  0.3816755970652495  0.5037886599470937  0.0947664736386979
  0.8509770707296633  0.4088676047619336  0.0548072370241884
  0.0149640831203653  0.9892016993742135  0.2539787411929773
  0.3697064015382629  0.5115769410471794  0.7050422069901074
  0.8822145213300177  0.1825703217470333  0.9517973001969908
  0.2800245632771996  0.0709302268271631  0.8378107108606541
  0.4986933226748912  0.2952940326238749 -0.0247590053401741
  0.4116745717174939  0.7618989119139628  0.1804826708759160
  0.5943880521300032  0.7227699178981287  0.9114356661393207
  0.0979279938348246  0.1801724135894964  0.2629515294606720
  0.4328916728895097  0.9174225335948533  0.4838900815953512
  0.7660513676658987  0.1012769517227075 -0.0048571608356115
  0.1772376760521915  0.8914102845348483  0.6865137447712044
  0.8045447744318214  0.8410490027986398  0.9637132849999316
  0.5921354909367732  0.4704716213484599  0.2864661114263810
  0.5873791908592927  0.1521467334828352  0.8647243909019763
  0.9378624726593066  0.5410940596900412  0.9378415338345939
  0.6609372181177453  0.0673433481610317  0.7391168470465098
  0.1753852099512944  0.9731874463500776  0.2501654575209203
  0.0776510706058943  0.9159213776717526  0.8719336467128876
  0.7521607011502041  0.3921256120217304  0.4830152292143834
  0.2952070796125777  0.0735711660096879  0.0677611454685062
  0.7971147337809530  0.0221895920466227  0.2953620610239233
  0.2049221148989800  0.2862521167636486  0.8224358376164070
  0.0165259693206079  0.6079379356212995  0.8476456640570472
  0.1249464292997781  0.6044154867474214  0.8300223269109909
  0.0537269937347397  0.4709433805642593  0.7150099086125760
  0.1765499767372512  0.8553767206283972  0.5758195866393150
  0.7651209790205959  0.2961693056607327  0.8893236883400482
  0.8752993526131005  0.2912820727859121  0.8731017311219774
  0.2058880209203109  0.2706295949031577  0.1583406414936610
  0.5900328099871447  0.0804020171478838 -0.0109763402683759
 -0.0081501043897972  0.1765607453623118  0.6042448086316653
  0.2732197995841592  0.3619528118019549  0.3827167750522709
  0.5984950275083374  0.6501534380507842  0.5311963742469978
  0.5413762457703611  0.4696770819343866  0.6040231494085905
  0.1047502576459960  0.1738285531176199  0.5895764473323233
  0.6687198305807728  0.7039863092538827  0.1737622802425003
  0.8483379093091309  0.8997682761114560  0.4596709680026592
  0.5865482421009617  0.3864630494605595  0.7448759776040023
  0.2949775056785398  0.4443122670247856  0.8015337076346667
 -0.0056921006927027  0.3716238378085455  0.9443750570400835
  0.8662041129072581  0.0847777060581968  0.4113485173631237
  0.1147213901857339  0.6485370806433608  0.8763559504296753
  0.5669154685781437  0.6649601767739917  0.0330106957728562
  0.8923979812679225  0.7516582232301210  0.6663109134289600
  0.0599121152664852  0.4437533448518487  1.0002285231162606
  0.9798992525425170  0.1925634250903874  0.9314505668381655
  0.5583476573384510  0.0250103457070508  0.7131999814332028
  0.1636355678274407  0.8998549688568751  0.3369242448729707
  0.1977622752950076  0.1326523124476967  0.7953770186270422
  0.7327025944684480  0.8695630883772747  0.6494022021826861
  0.8851247327074335  0.1923080127535696  0.1243565771038855
  0.9875671620745629  0.1084107439414179  0.2413487235244295
  0.2286072958103101  0.5413691220937100  0.4331074330192897
  0.2972783181562245  0.0539748390426196  0.3677075010734254
  0.2392214540835838  0.0533074871747286  0.9422290595187273
  0.3112925197181211  0.1818127850107558  0.4917610124876118
  0.1227771225969281  0.9401447725482829  0.0051405573636748
  0.0404935676301409  0.7474924558167504  0.2351080022211301
  0.1389399095929214  0.1043847909142310  0.6680960833377160
  0.8098183622119606  0.5315939127825869  0.1192836292186641
  0.5642151098270226  0.7351055591502492  0.2424165839968492
  0.1430939074125440  0.1482142254834702  0.0545757986765325
  0.8851918621082770  0.9490834191683175  0.7376285210776247
  0.9401746811749174  0.8096791764422119  0.1780855046544414
  0.2814618966463001  0.9537754023463451  0.1070302777064229
  0.4793990916317509  0.5426280637794407  0.7925540139077697
  0.5366260156718975  0.4405043441187327  0.2777808735648631
  0.1238270700031790  0.5655799229474257  0.1031758020524175
  0.8291501522044409  0.1106990020419087  0.2971902730432877
  0.4984955893573401  0.8324559338495168  0.9180027567466672
  0.9608912017821476  0.4718001984286937  0.3018731404295222
  0.1019470773782779  0.2242281871731323  0.3081520931277952
  0.4929135690997242  0.6596503759904622  0.4887407908693371
  0.9011529731784388  0.4894037125509300  0.9345925677947095
  0.3953799649666441  0.5947888021716619  0.1778687737198259
  0.3429554053235211  0.6431446943483329  0.3160781803717950
  0.8577647926731446  0.5696876228609477  0.3510554332027578
  0.3124339557340579  0.3027965224331832  0.0777705080523624
  0.6046670743730299  0.2269273034328434  0.7440126223920265
  0.7183795160168756  0.5752869732483898  0.4738985433488252
  0.6520596064045543  0.6337396851515331  0.5523635763443395
  0.9326307712483156  0.1553168985650205  0.9247557512696274
  0.2910854439031150  0.6413884572673857  0.1847842464803488
  0.5972467939212577  0.5614928752279379  0.9512729883775384
  0.1351212602008767  0.7086646002777827  0.4660791777188126
  0.2512485978358490  0.2225867220974563  0.5746920693182526
  0.0077161887367969  0.4082491879046381  0.2226528063974169
  0.0374823486393530  0.8609830252541739  0.5270982958177530
  0.5616515495369875  0.7216369117532873  0.3030529115884122
  0.4702554237230315  0.2055147071000737  0.3700750824544631
  0.5886271331209317  0.9467470029419017  0.5287707398575768
  0.0878975195532581  0.7187598597686902  0.2645190501470978
  0.1456763319414059  0.9590313299395417  0.6045938430714629
 -0.0004294170418467  0.5011285369448971  0.8574506937330030
  0.3629037021336894  0.2563985693110383  0.1578002203481639
  0.1029212845949178  0.8398589149430122  0.2212762343168719
  0.5545519272128129  0.6744140073414724  0.9091974319567480
  0.7845665032772247  0.4706838314139302  0.7935747097656463
  0.4884708834645364  0.5033327869116475  0.3565043272828822
  0.9489833746303952  0.2830067424620931  0.3505652886057116
  0.8314724772296804  0.3866997398141028  0.9392014615624165
  0.5980684564219940  0.0110747393917476  0.2747373110712786
  0.1027154428575083  0.1224678122397442  0.8765225180138113
  0.3223364821126440  0.9517055006287782  0.3231789673685769
  0.7267227059871677  0.2198665785462523  0.4526274362227934
  0.2054546061211777  0.2856797102511426  0.0990149965400384
  0.5245629332232156  0.4614941058452230  0.9309615234847252
  0.8082396803230582  0.4153657319625968  0.8109971275691704
  0.2743706965171820  0.6553053261627407  0.8162803437861176
  0.5531575000541188  0.9243372914084454  0.6953248860102939
  0.4820509198836398  0.4763639630223526  0.5819177389371964
  0.9488670978525158  0.4955768435229090  0.8952486666558710
  0.8922198584737765  0.0368679724108381  0.2724734126060057
  0.9044738813896480  0.5747518365781642  0.7607796632439893
  0.8500216818334340  0.4857529099502434  0.4299097140999324
  0.3235999110396484  0.6589458518050153  0.7771321153670355
  0.7228765640414421  0.0925409809410172  0.8659704044618298
  0.8632137595439586  0.5933944613398187  0.2309748487453039
  0.8534760031321739  0.4856910999620184  0.2051740811537447
  0.8628559565970939  0.9283623988637139  0.0172546860735384
  0.7493008879445218  0.4085207960266424  0.2443908378883366
  0.4851152026897087  0.6442421239828779  0.5531060264246066
  0.6239379624240308  0.2676678669111747  0.5194746288939706
  0.5789421172341579  0.5831968774060300  0.8190509075684824
  0.8683879836024466  0.7244379322151687  0.4309237362267800
  0.7789792832196463  0.1954581748734387  0.4817448992700500
  0.8604661455883609 -0.0269206253489951  0.6155900116861991
  0.6743103273940868  0.7435777352092798  0.4502076296545484
  0.8263250573632240 -0.0434290513011795  0.7177906514901645
  0.3952521163372883  0.8881488125613084  0.6527877968720698
  0.7102355628491017  0.0059336795861031  0.2295821476184998
  0.5228079265748278  0.3025332138349267  0.1400799171733511
  0.4447387903636747  0.5018987784216132  0.4597233661113158
  0.9143638603461590  0.0905733364529631  0.9346576724370894
  0.9475911547469792  0.3303524110570234  0.1691553692327530
  0.3354424164689242  0.9825335207225901  0.1138242054176326
  0.9313504336884102  0.7032769201741240  0.1561685802396767
  0.9039521065505004  0.9255335161809490  0.4702507579382808
  0.3437605044504939  0.6894015558509847  0.3574324708974970
  0.9437118927912631  0.8239480397057711  0.1153130094089543
  0.7031630886102731  0.7207706393765146  0.8917942158297302
  0.4541259566273216  0.8459037251514715  0.5675217863610109
  0.1452753615380724  0.4483165759117648  0.5296449455344261
  0.5527108331618108  0.4557945304918291  0.6647806912073183
  0.6392567582174767  0.3939982220100650  0.2682297052092348
  0.5391054400464130  0.5680574999068860  0.9222826061825786
  0.1474234489436785  0.3788639324472061  0.6205315278197906
  0.2159141138827772  0.1713311770096976  0.5705805062980726
  0.8703156345687865  0.5248672403135252  0.7590321327812573
  0.6964473341239377  0.4173224715088006  0.8268010663149481
  0.9192259867756527  0.6661017696249978  0.3486773732985730
  0.7951381653489112  0.7107501827538933  0.6420144049694482
  0.8405078358544734  0.4988911115942280  0.9186167870926945
  0.0939695059439176  0.7434561930554405  0.1326570505903817
  0.8798258641544731  0.7324340135896366  0.3574505616412351
  0.7609592125429703  0.0963764616265094  0.5485302660674536
  0.3668238244655216  0.3007533289631816  0.1999073208954441
  0.0887542623508833  0.0859488996788483  0.1722636754482723
  0.4612257684233865  0.2631502906649861  0.5763691538860940
  0.4888554515471806  0.3761133275883198  0.8241736529894325
  0.0179750464225693  0.5818108050970411  0.4584394073346494
  0.3681836760253027  0.8718693869358923  0.3017940741080702
  0.6422222000086633  0.9261992859962515  0.9487712716735653
  0.6376219290147942  0.9077669155773721  0.3863725174776230
  0.4272338371045289  0.6356668958065822  0.5895098897455608
  0.4957080017252615  0.9614110628547489  0.1102017627523648
  0.8367841521839646  0.0969021059773620  0.3583153273799450
  0.6275593241392486  0.2222609898857984  0.2514581494428628
  0.2608909273854502  0.1605126651820246  0.9226153786685755
  0.0512063080913404  0.5066825432714220  0.8200394897541928
  0.2323865345556843  0.0644538433480638  0.8797789320561157
  0.8573917478381344  0.1516291467005398  0.7869548358805334
  0.2110925127772055  0.0539959623523728  0.6450627828977257
  0.3707382656055457  0.0574415350531511  0.5856011731339226
  0.6421697279537343  0.4440175845997348  0.9714437641059300
  0.5168564699555538  0.6251078670240736  0.9048309889317738
  0.4177082584790239  0.1944666553833463  0.9731304746670707
  0.7768655043984038  0.2412069351368153  0.9088360974419865