Cr Ni
 1.0000000000000000
    39.4785359270087284    0.0000000000000000    0.0000000000000000
     0.0000000000000000   39.4785359270087284    0.0000000000000000
     0.0000000000000000    0.0000000000000000   39.4785359270087284
 Cr  Ni 
 1596 3725
Direct
  0.3763329199949065  0.9924360855650786  0.9385592518445235
  0.7843700150675986  0.1929690441657899  0.3138023337041410
  0.6241633885331573  0.5666289593656160  0.6149428169651487
 -0.0070373460354434  0.7963733306826363  0.6092937944819844
  0.7195704026218763  0.7659494374134204  0.2857792620669224
  0.3192914871981921  0.3630873692799259  0.2788643641505001
  0.7406570392942642  0.3791748707431792  0.3617928231153629
  0.3166245716739332  0.6672807548812245  0.7182458872363813
  0.5068482087290521  0.7005750781748528  0.2298111654727400
  0.8035813037483226  0.3419887796339836  0.9008209972282322
  0.7286761974308409  0.2407975555052551  0.0030394093482434
  0.8766377180736009  0.7158845446174691  0.1848451848781308
  0.4763418826974293  0.0514909091228457  0.5528297487811982
  0.9302023902448567  0.0981372154100104  0.7713773745286128
  0.7988466689527758  0.5774477826367295  0.7786797880776676
  0.4750182732943306 -0.0121862891943765  0.6527324295242253
  0.2227271347854374  0.8689114192723800  0.0486084005829043
  0.6863509132236483  0.2840154211255674  0.3721335496778980
  0.1784852080861362  0.3918941066583694  0.5147604024402176
  0.6263018133200926  0.2407036395200305  0.1936903878504513
  0.8597412325774684  0.4728040478628737  0.0359726973996060
  0.3555683848675981  0.3328644830501382  0.8047176769931671
  0.0871525979580440  0.1012957908004770  0.1016587923480954
  0.3970680309839384  0.0924341382079698  0.2930852903629853
  0.7261835066317253  0.7816697783832787  0.4499363566249092
  0.3243073384353645  0.4553936409472256  0.1397959000904536
  0.7434844473710339  0.9662759512861652  0.4032441063619590
  0.5871657541749405  0.4253486886280808  0.2389051190123530
  0.0741259157061895  0.2732385200951811  0.6150189911266417
  0.8777640062941909  0.6831453657961171  0.0763376820726218
  0.8465328444107482  0.3797165907288232  0.4006994233663868
  0.4685288367888993  0.1322233230600990  0.7169026713058378
  0.7341786397092711  0.7342689698453599  0.5605751538444997
  0.2435630897391790  0.7350140403234751  0.3690554645903524
  0.3471915894571238  0.7160943900299679  0.2321352007592039
  0.4734065276135466  0.3146171156503745  0.1749533584106795
  0.8803398487082198  0.1505444580229864  0.0763446327275727
  0.5664797564235362  0.4740245214994638  0.8264321834445695
  0.0686781230372464  0.6084483942025556  0.8087967499532543
  0.9575000111059822  0.4561326640332267  0.1349015976159984
  0.1292129212730187  0.9037879714391726  0.5714471271132232
  0.8725084031576410  0.6275396676000935  0.1002073798048745
 -0.0122450810276360  0.7943984964457145  0.1406679445329962
  0.9816657339848195  0.8385063105927089  0.7336449898813554
  0.5178427721114917  0.4354824675976977  0.7652705167001177
  0.1696584993849094  0.4559517762812934  0.4286623245813342
  0.4036806294414356  0.7245758298321794  0.6841028262205280
  0.1611721015392441  0.3654994003541785  0.6813808758729748
  0.0710595662705685  0.5364586472129621  0.0934817789837335
  0.8310811803017152  0.6066844014977748  0.6153823565256062
  0.9314768566322270  0.6642033192068768  0.0439476628042840
  0.1569793886514946  0.9331808181538430  0.2164278105824477
  0.6964621549942881  0.5183394062903365  0.3621701074960975
  0.2067239518194887  0.2366618519916086  0.2812815851505538
  0.8820535657454177  0.0685192991731487  0.3829501209977809
  0.9508004474260161  0.8158748456390462  0.9053790550993012
  0.4460436051099104  0.5898097004979341  0.0758312510609782
  0.9560745887732279  0.4396285434870210  0.1950477811766208
  0.8879012245515644  0.3809140245401393  0.9607526561481238
  0.2612553037499358  0.8603979891289877  0.5044218037962254
  0.8130745878934208  0.9962658373141996  0.0977111703558077
  0.8029116723036374  0.4099327101827768  0.5483394783337047
  0.3697219647936060  0.3612825611543931  0.1879998885119915
  0.9535451494943988  0.6508128406650009  0.9413446985410994
  0.7593093003736905  0.8795454416875257  0.8830049706641608
  0.6559526276259960  0.6251959405719115  0.2540666073137466
  0.5499836667280457  0.6257225376391997  0.2164919812479388
  0.8103691980187360  0.0733437698872685  0.6204508281423584
  0.0138304451300733  0.0078962687411610  0.6085897762941064
  0.4295399709692385  0.8477230679137046  0.8340504343096942
  0.4353931938410046  0.6160045603375368  0.4824089609653429
 -0.0155121925068409  0.7663567439003894  0.2682780938867625
  0.4887052741338542  0.5162894326569663  0.0646032609813952
  0.0898910466117378  0.0534788492074508  0.2908053272380643
  0.8636306784500133  0.7072078993763362  0.4847728176076018
  0.6160253190538127  0.4792959166030398  0.7892605028226098
  0.5502154381273853  0.0691994786868112  0.7580260458573304
  0.0737632335834382  0.5451960296596365  0.6010542633284798
  0.3077082732989146  0.8398428213281124  0.2971698180049532
  0.1820682164123918  0.0963302066141360  0.4605478907405895
  0.3193507965786906  0.3758716022948377  0.2209159001796304
  0.9393878774017663  0.8406664944648642  0.2836726067371367
  0.5015032151199774  0.9753997453073801  0.0517903271578065
  0.1619127830357405  0.2809291929027316  0.4261302910770937
  0.7853088760211216  0.7970046125816030  0.4719458779411079
  0.2293977106837022  0.9612674631636873  0.8606328058757504
  0.7789202395158868  0.0682619746162815  0.3443086791940563
  0.0477060941869633  0.1600411722348964  0.4168766926970341
  0.9314603855428111  0.0555618727705274  0.3514196667436997
  0.8837382684755277  0.1964320763301152  0.1215093333790696
  0.1002087730253918  0.7934016170406252  0.6754355122470658
  0.4362882186388756  0.5793560370330872  0.3659275864375755
  0.9783546524622211  0.0830339276658713  0.1312220628703219
  0.9404148707404749  0.8758532835763747  0.1591057920414105
  0.6885384519392174  0.3638688554387792  0.2945564778706286
  0.7332147354907977  0.9304913000688860  0.2947066104652179
  0.5383531059523164  0.5662077053990799  0.9309451450074928
  0.6901253388058991  0.2675904691576675  0.4310179671033872
  0.2309663501382615  0.0660250086806549  0.8781120909771755
  0.7982086970476273  0.1222602714765177  0.6612297218574301
  0.4252129653610046  0.2195860191788674  0.4161378554655734
  0.1839350071798381  0.2593758356793378  0.9889032525743197
  0.0769597562390808  0.4459862447359104  0.8387432594049337
  0.7447772704754370  0.9900130316085320  0.5118957274711867
  0.2468827265261886  0.1373880318977727  0.3950632245856253
  0.3699109600323343  0.8824330830256665  0.4743666244147908
  0.7314478971381420  0.9465911504516189  0.2349317604558683
  0.9124226133057841  0.2723204156101688  0.6725800304273687
  0.7897629249486586  0.1895099164387377  0.4845568924334386
  0.4228158895793163  0.9068385857643325  0.4856003780603933
  0.7113517091453049  0.9229102426637826  0.6390996645808308
  0.9040846756226986  0.3985512724633307  0.0170574685077447
  0.5907930654064293  0.4523007160706360  0.9463195790689328
  0.1940639746231811  0.7159469215584525  0.7790341154494195
  0.7745080319926197  0.2109647973073273  0.0279477836205624
  0.0165497382186812  0.5978164263794083  0.3957536899796368
  0.9011822631058339 -0.0181882664556362  0.5256628573568065
  0.9230400208279221  0.8808813789552318  0.8170538531302365
  0.2697762929018792  0.3452429043962331  0.4383843585317889
  0.2893960099090103  0.1477354034642381  0.4793842072352685
  0.3007085075315178  0.2506465687514340  0.0289322438600172
  0.4753770667075711  0.2594994442161741  0.4195165958488441
  0.6398206328705984  0.4566366428650816  0.2496228833962620
  0.8552835292745740  0.8660760277303597  0.6342077840421178
  0.0412515289860624  0.1474462365036927  0.2459578267842772
  0.9574333825549866  0.6134437924034633  0.8288097652449059
  0.9123485895422341  0.4586377225357465  0.0014525825264703
  0.9634315863908262  0.7680283610467239  0.8611961868998235
  0.6508406664451186  0.9817890688694968  0.9230886034851913
  0.4095676106996728  0.7776604990265897  0.1140212518651916
  0.8877864205421455  0.2387915605332946  0.1677709407660017
  0.7971721886984541  0.5398138173538810  0.5066920193999329
  0.3274770142711116  0.6251059073891956  0.6740573882291139
  0.5785567147015174  0.8982997683620907  0.0113767527068293
  0.9291658306063684  0.1332592128386683  0.0421393125535101
  0.2787218970942945  0.6191795516393720  0.7106434269816680
  0.0983491142902554  0.3896435073754234  0.8562742786883729
  0.4662423845056634  0.7814059061518992  0.9120071005596498
  0.8075766777811120  0.9514819088375784  0.0564470712611350
  0.5345993123135202  0.4746568382509210  0.3811897776633563
  0.8474796141281870  0.6159507749156896  0.8483506282005245
  0.8904205984509684  0.3292171818803920  0.6537759360887331
  0.8809730249464636  0.3418109236432063  0.5948651583578574
  0.1569875308685318  0.8879677259685601  0.4043465981560048
  0.2373436924588538  0.6521881417269695  0.5189473749118010
  0.0549119345675351  0.3110334492282106  0.4906259286377995
  0.0408415711949022  0.3940705141110769  0.8363988442518906
  0.7550582031570446  0.5482704135583354  0.1455603950586856
  0.3050754925163868  0.8112370417715897  0.1887733289202270
  0.7183006331856642  0.6082665941571623  0.6324552254704747
  0.3945679375004474  0.7999092566104773  0.8331172346134536
  0.2758166127906483  0.1992287966977214  0.6972650869149447
  0.1293832520053162  0.9900900312269756  0.2076099326754788
  0.8827003391260091  0.2120434663948635  0.0602868513225783
  0.6342514883647727  0.3627902905138367  0.3928755006030861
  0.0060463076156086  0.8446663635361921  0.0276987906183346
  0.1721020465774219  0.5799115076152588  1.0052578366978691
  0.0313519625620026  0.5602324300369756  0.8043563916392532
  0.8680472474840192  0.9067466643214614  0.9070478641908111
  0.8635230938301119  0.4280422151931930  0.9933606650812541
  0.2713084976091524  0.0807624444370772  0.7732851191123118
  0.8182092968473614  0.0305546305381933  0.9689583120211419
  0.6956957782313131  0.0803147072098150  0.6375060436421355
  0.8842811355013844  0.4778776537100623  0.7158173360543746
  0.6582545132032526  0.0309049120647925  0.0282534787042527
  0.6523221509499700  0.6283849220654727  0.5491985691417391
  0.2315679912187809  0.5643188699145166  0.1380877470421746
  0.4941827249684365  0.9274918763097015  0.0115759114384399
  0.1514335234404496  0.1295750448341470  0.8361506356859392
  0.2874368526962024  0.1878630175765168  0.7570129239131880
  0.0164382403728536  0.7345886351678865  0.7112995599638268
  0.5398060773071937  0.5871733733877829  0.4065829703373039
  0.1717450817151474  0.9683087247925752  0.8392038966495218
  0.2308134376842495  0.6382885280289546  0.9243658326243525
  0.2800540598906439  0.5606646467648391  0.4934787440889306
  0.1114618731350262  0.3917411267255773  0.3194467522326632
  0.9582537591644488  0.4854189073068632  0.4631155616843529
  0.7621198069897515  0.1927650579287808  0.5833281811537708
  0.9370830461738104  0.9617270765541941  0.2492343938544616
  0.9754224435824820  0.0614570934097044  0.0206987048700881
  0.3902414331285839  0.6397882122489991  0.2159900945042375
  0.4862759454751021  0.6558623482142220  0.4958968208378878
  0.9591683822218683  0.5783842226410626  0.7198283302050636
  0.6648787794210465  0.1846700373661710  0.6616194792706324
  0.1039183160372964  0.1238690923731245  0.8773876607989552
  0.5899842363723898  0.0419817958624774  0.5481237601261622
  0.4119444897975898  0.6257683120015969  0.9269236188614635
  0.8373681022775455  0.8842052637587022  0.5215865154061264
  0.3306994742769002  0.5313025558216292  0.0649561338633800
  0.8858980086527203  0.1724999217591250  0.6261438245925433
  0.1208904795525256  0.5308834982860757  0.2233274167008057
  0.7988540592825072  0.6120442691786460  0.8865271636369749
  0.6431993307797825  0.4513583957205181  0.9700602434266016
  0.9992475089735517  0.1926977420364059  0.3893132468954588
  0.9898214104581485  0.1778131981166965  0.2204012524868074
  0.4229309013118139  0.3782834763754833  0.2528886181565416
  0.6161525845724770  0.1322782463067322  0.1592408630239186
  0.5587355243083365  0.6996017418433946  0.1333212274357833
  0.8689434650455189  0.6775750301045719  0.3753560846100285
  0.4848452288509789  0.4862078464889956  0.1852140015168622
  0.4693036125819481  0.8711891379656820  0.1072780585538826
  0.3607952019789740  0.4341534478045411  0.8216093351442761
  0.4786157304323940  0.9245453080479543  0.5518483359367363
  0.4415790629792410  0.9481398211316562  0.0391859902758167
  0.3778333567705132  0.9433230922283239  0.4610206651830318
  0.8132689492483831  0.4376119579233992  0.9716442017757912
  0.1697234874680042  0.0067217715431757  0.3690588882108632
  0.2317220661988540  0.7972103563491809  0.8946807434115646
  0.1579356566550918  0.9035854525677841  0.3426598097070405
  0.1676637049609252  0.4560105230180392  0.2067227122777011
  0.8228568813679338  0.7529271956989882  0.3840880838317390
  0.4889264718777288  0.5020807564391919  0.1255172972338748
  0.4695118925318294  0.4993359842019499  0.5079641914378600
  0.0670373932121907  0.5003193914707140  0.2143329829687964
  0.5901313772666636  0.2588293931313415  0.4596054533435880
  0.4276862775656437  0.6303753589414929  0.5988652519696921
  0.5622138635588920  0.3049693760479772  0.6026001279228641
  0.2031186293558647  0.8741812121647402  0.1344373296122275
  0.2697979954678408  0.3778357926529804  0.3174599334505103
  0.7652278557283718  0.6573391284692609  0.1677491516931511
  0.0438436499516337  0.3476296470093281  0.5355052427541673
  0.3864930294178688  0.5949222664130129  0.5233754200885357
  0.1239033197942444  0.3693893179410185  0.9833961609227593
  0.0239318645984861  0.9202877766945649  0.8508988196841780
  0.8929863301537194  0.8875681274585359  0.4279897447637341
  0.7365659150858307  0.4631653518337149  0.8336041997993151
  0.6592179560389829  0.6156367165396098  0.6115559932655877
  0.1818108585997089  0.4476452093271100  0.4857158212133246
  0.9715409259706628  0.8828967366435152  0.7735747487716433
  0.3970661437190060  0.0818611478817867  0.3593405458778530
  0.5928986599126287  0.5607783654666032  0.9558898011391492
  0.9436218383710112  0.5451462408205848  0.9397876708946343
  0.6756194834487451  0.5744187171960834  0.5739404206722154
  0.9290732546080113  0.6488304711381156  0.6414753146238127
  0.1220995994005703  0.0408339545751202  0.3427474263559176
  0.1219060532968333  0.9608690121366792  0.5443635546641317
  0.7526910823561000  0.6959528235380966  0.5104262328101214
  0.2025753462483376  0.8249940269097248  0.3237350647059015
  0.8566842183899301  0.6070909607590003  0.9157125659428165
  0.5589352963526304  0.7042263125611240  0.3620956419925127
  0.2298891116123617  0.9280418348525519  0.7540209792245219
  0.5572307510259903  0.4521468153165032  0.6618839277544372
  0.8760618408780874  0.8079149364696347  0.6504171583333226
  0.6518304128659639  0.8133451548156466  0.6892354866358088
  0.7535859084524306  0.8733730404392809  0.5552418520999776
  0.8368522543370502  0.2400849611276874  0.2663840058077071
  0.0526139005757554  0.3161657895206243  0.2638018939625582
  0.7365400621912432  0.7175355818253081  0.6181374024356107
  0.8652645320341178  0.4393391921538243  0.9359968834642013
  0.7417669501064864  0.9313646491457928  0.5345697801547884
  0.6213237057638981  0.7644413324113245  0.4768055158803445
  0.0946480832003689  0.6718929345937465  0.7519485309041199
  0.8809608397416265  0.7499756670598429  0.0561138164354252
  0.1905933522853273  0.9431144287000582  0.9699678883919830
  0.1024700958480709  0.4271069162840176  0.9598846988275791
  0.2540689625085786  0.1457155486969129  0.3207506680085539
  0.7580378467298013  0.6128405301562317  0.3543686932972304
  0.6026598592367393  0.1608360158530073  0.5267194947288237
  0.4591604479290962  0.4082553153730700  0.6384265873111847
  0.9154039059598069  0.8071729087538376  0.9510551789311159
  0.8087943253914340  0.1109323647460307  0.7259750318860119
  0.7261479070967208  0.2452691929780443  0.8880323660614822
  0.3133901908711508  0.8833124478803389  0.3406575720426445
  0.1293587182460893  0.1856741649849546  0.8145245530290515
  0.1642351189542788  0.3441464717130818  0.4098264700629685
  0.4759427170484944  0.7377891206412419  0.8666691631748218
  0.8116825891050466  0.8488261161068772  0.7340905666607117
  0.7070732520420084  0.1038800076381548  0.8034880236470868
  0.3011582471185529  0.1597816295249125  0.1630929855305258
  0.0659508723438431  0.4556564377456608  0.1732517186723671
  0.9755249992851884  0.7213743804923640  0.8174806004108126
  0.0985991476361516  0.2685332456193104  0.1250646600575000
  0.4946928162335211  0.5931735357989889  0.2088024441124286
  0.1321325293322246  0.9197129356598137  0.8334420098160871
  0.3323743542922477  0.5636316178394831  0.3964573165710276
  0.4274074888587228  0.8880048935087345  0.5472004666681766
  0.3229313280388903  0.3850245554871820  0.8185431253763535
  0.5774163004305378  0.2859502184172971  0.3353123866594124
  0.6396928745869597  0.4564416326769440  0.9100677176518339
  0.2385253894749280  0.3531599410218421  0.0295786156473778
  0.8362098278138145  0.9023429215449343  0.2273657399969252
  0.9561432604370617  0.4415864190752730  0.4200869716555669
  0.5828417931222666 -0.0192292196201943  0.6334494421671000
  0.8330999116764142  0.0570678447732536  0.3100714230365494
  0.8698009535178913  0.3863175075092892  0.6365471643131111
  0.9858721004752876  0.2883945216854683  0.8605389366170161
  0.8352243018901953  0.8267194422727231  0.8640603888823151
  0.7078360556627764  0.0690854483219562  0.6982737806277058
  0.8484527110046908  0.4405054032652604  0.3824328221862799
  0.7846075391567974  0.1757145546546243  0.3732418824628944
  0.4600176912138119  0.1456152427502389  0.1600814152667207
  0.3640986134881139  0.0043158457438296  0.8784982563123865
  0.9241153018173076  0.2603338232190425  0.7329603677010346
  0.5596777260966386  0.6768633879748008  0.9053933495204862
  0.8478459215899424  0.1221332027424057  0.6264603650949476
  0.5415686347195938  0.3625304751375943  0.5869494772615564
  0.5531005914899780  0.7246094154860937  0.9475892883304768
  0.8936409297835352  0.0806619832030099  0.8761027273690624
  0.3698556901627647  0.1241943712215923  0.7979745402482995
  0.5713324921246922  0.9148260149348515  0.1753897383639172
  0.5655133711665364  0.1469011738319911  0.1932372033408735
  0.3302274838664639  0.5470322037556070  0.2284329275277684
  0.0260086578780339  0.0219539125207884  0.8749004247854602
  0.1081995748708925  0.2790066534113272  0.8998130870353982
  0.7618390050606376  0.7553293351056646  0.9543552665440473
  0.9576190682855743  0.9016632823840702  0.6365663076199000
  0.3562898490185766  0.7914023358477152  0.3834018549499346
  0.5685593496160163  0.2193005407222113  0.5102867970383956
  0.6523273339699700  0.6117884826976585  0.3150987151600472
  0.0286628276357928  0.7218465712230216  0.3621181529180318
  0.4323680819003765  0.5344952655958567  0.3254124574131346
  0.7374998794034154  0.9034975655002321  0.4229380774427720
  0.3423093221559304  0.6718795187893791  0.1884982003363611
  0.0623664204568424  0.4558975893180314  0.3976307449524825
  0.1823718598767197  0.0131639575143735  0.0455262251871425
  0.6373997194485505  0.0871785868460349  0.6157084134918347
  0.6456057684747092  0.3838274054879689  0.5031832145211619
  0.2602440711679703  0.8884318315331020  0.2070798628701210
  0.2407219639600056  0.5694024339095780  0.7044916245032833
  0.7662813488384873  0.0552505024223647  0.1787116622841268
  0.4860269673951650  0.4892356382102261  0.4225325637615861
  0.0625534571650220  0.3550516920849910  0.7616565545171307
  0.9715233706619433  0.7286563782502187  0.4579580579142716
  0.4192946665204098  0.8938998328797215  0.8783725807080153
  0.0556777275051975  0.2477812445626940  0.5067557348445106
  0.1486290586244573  0.8434322909699454  0.1251350164055274
  0.0548639501796017  0.9476533498084410  0.3494802601134350
  0.6760768374247315  0.2615699842131708  0.0359594476603346
  0.3737166977547222  0.1895665642917502  0.0088637318426816
  0.4899684715198213  0.0768825604870790  0.7366853043910995
  0.4737466238381901  0.3452211783807601  0.0484558777602556
  0.9972018504965348  0.2069275215800279  0.3299431661269887
  0.4021066503868536  0.8462539752155114  0.6046766137947049
  0.3195871466663789  0.7255334468134744  0.4897005519740684
  0.5675117630760045  0.7944090093067768  0.2205766534561619
  0.9545850203796041  0.4261395592609905  0.2556863897257772
  0.3778012874551230  0.2902945774338901  0.4911778855929632
  0.6922456358120843  0.3812247535601335  0.4608119517295237
  0.5269540047544575  0.0907206549417897  0.6337879698618687
  0.8529430211744368  0.4139474079872012  0.5103875277173272
  0.6172852867697362  0.7948879571654108  0.3545271269356365
  0.5515346342907503  0.3513451442105789  0.6447209783914032
  0.5680161097663122  0.2505199068624520  0.0531538644823726
  0.1921993001380957  0.2621705449350089  0.6552377183615680
  0.2721037350601641  0.8140227888582189  0.7902378458593278
  0.4603301477626678  0.5953543253431240  0.7781848081579793
  0.2021050191804880  0.8042602563720416  0.5970886843421123
  0.7040875426347535  0.0655458603992471  0.5271845723344621
  0.6174678937412706  0.7808694831602283  0.4135819783975286
  0.1837602051333324  0.5400139335114075  0.5783073069280668
  0.4666868234757585  0.8449355867989772  1.0099717073337136
  0.5514928761972430  0.3665517534497716  0.8442787809954091
  0.2238544422613249  0.5498102584289587  0.4319308123038199
  0.5578557881465854  0.0713856357568188  0.2772447977691959
  0.1891474983909876  0.0773599285818518  0.5201751897607975
  0.7270767046435404  0.4429696638542504  0.6691094323904999
  0.3803206361593608  0.3775763151533789  0.8398161795467186
  0.7684419949454874  0.7020026809790237  0.2092089580241634
  0.0483818331720241  0.2841130941933466  0.8782826799064708
  0.0485766006656904  0.8876937392507941  0.3688267280947026
  0.2288444884133672  0.2298060135258471  0.8432057391674668
  0.4393169371833809  0.3039240872885971  0.9500706602006278
  0.3859476787113533  0.4950462437058412  0.7636334907829110
  0.9058659996101501  0.4566460005989155  0.8342610836347182
  0.9206888164044993 -0.0057784507281877  0.7591750150433333
  0.2572792430582907  0.3776166495043407  0.5992150574383761
  0.5050028315596208  0.0234345925108776  0.0989742186618652
  0.8653709258661568  0.6307487584674365  0.3297204950043752
  0.1430363381481597  0.7560633869239999  0.5081898033111023
  0.8123114126255602  0.1699517060461541  0.9407949695260661
  0.0019402243839992  0.7318600094823201  0.9981507042629185
  0.1458084310134734  0.7835775396622621  0.1445897493468633
  0.2796826651546259  0.9056473656850740  0.0558792137187589
  0.8942569744596254  0.9124426854271175  0.6227755943631104
  0.0367397533910802  1.0050333074630382  0.9385633810609990
  0.4285595388273469  0.8208065974966960  0.5639999768698437
  0.2292332523198736  0.9541722542773516  0.5241440570771166
  0.2252315034772619  0.7092965997906362  0.5074696030946283
  0.2858290728709650  0.4214829745036568  0.6325549165852195
  0.0247587683872228  0.0454196213659530  0.1583605039893474
  0.8186536859453983  0.3822188461343953  0.6749733143885801
  0.5196268091442491  0.4016209454676747  0.6588584483799946
  0.3192667556153406  0.8981410636723310  0.5107905011208637
  0.8908417186864356  0.2083476893574490  0.2894524284496926
  0.4240681072427661  0.5131249955394530  0.6626643357383376
 -0.0013239954169337  0.8234323396027380  0.0846516033829465
  0.2806758565848860  0.7031911576568753  0.5276111598977056
  0.9695225300215113  0.6133167939173302  0.2013382036084414
  0.8961424636538956  0.2686853778201213  0.9508228185016181
  0.9155266628321578  0.6135777680983185  0.2971312493754668
  0.7669199625587453  0.0885066866645754  0.0525624844692670
  0.8755463170919883  0.0889165562232982  0.0898550524661741
  0.0837345376362720  0.0145901410818818  0.8970164508793855
  0.3917568282842722  0.5833965172987328  0.5848363263667691
  0.2116025198518169  0.0877572198910306  0.7504651395118381
  0.8086478939880524  0.1968169833178000  0.5446032519217459
  0.2813651453613747  0.5775558945542868  0.2026050815434221
  0.6131260944313626  0.7365015911228850  0.3703408728753804
  0.0267713489207788  0.6620072498831591  0.5559386876006915
  0.6021523500766148  0.6098128981725285  0.1845484557636910
  0.0726212050862319  0.3451625151692803  0.8212841565221645
  0.2855049544269075  0.0650379768886214  0.3872526675981880
  0.8946220433852189  0.4666540225930403  0.7748762122093743
  0.3337675312723379  0.1567925154690262  0.6129918454636951
  0.3435442389390141  0.7007175136297228  0.5439454268910179
  0.1536126163512427  0.0932576514885780  0.7296084646857068
  0.6410403639283586  0.4558086345964331  0.0265713312679143
  0.8398971339446807  0.3009473675411455  0.2507907818237939
  0.2999132667282768  0.7488428792859541  0.2068693137793617
  0.6498212671938283  0.5676639281986826  0.2737246363797873
  0.1700437909629205  0.5690237436726450  0.4594441300552777
  0.1712895332026925  0.3734715857717382  0.9431153605926775
  0.3575507996649645  0.4849652710817491  0.5371963605929759
  0.3925994832670250  0.6302677601030182  0.9818532881750448
  0.3609586009620733  0.2022870768226483  0.9458054999399397
  0.4393906177562913  0.6201418500354977  0.6566063484302417
  0.5247809586223298  0.7412390447312899  0.8272463031698207
  0.0872306655494336  0.0108688483435085  0.2464772761696254
  0.0868692958461922  0.4350316251178645  0.8977530710573649
  0.4651543111741376  0.3490128631200780  0.9894305330277644
  0.1104439794510059  0.8510212224706637  0.0697336314144891
  0.0730622296078293  0.3087961480362247  0.7191699918360437
  0.6511455311331811  0.5817919019852380  0.2123047109285519
  0.9414060720671944  0.2968683383858784  0.5100131917140888
  0.3720414182163009  0.9454295038293157  0.6296366317729400
  0.8378117600284838  0.7597889654226306  0.6398455449583155
  0.0912433267674192  0.1320112598628823  0.2104970684618089
  0.2789513924860234  0.5849891527722177  0.6015119142472375
  0.7403953868966925 -0.0222393885540667  0.5763091030954116
  0.5528017566340838  0.8027163559153671  0.7692961003432132
  0.1244740417494611  0.4106197891642833  0.4877079877426486
  0.7744855294958768  0.8066392953704514  0.9928335997002042
  0.7286713740020695  0.8886184494161009  0.2490089578039862
 -0.0173822883341895  0.9946046572623771  0.2684577543181957
  0.1542923917419414  0.8924117407264924  0.9586887864615887
  0.5303605723589774  0.4799937835806022  0.5399823108812410
  0.0240238017250592  0.6418180353924501  0.2098437312500649
  0.1769148672298919  0.1392585038195759  0.5023796264795506
  0.2137654046674534  0.4807176458735500 -0.0161680036794828
  0.5930645248829869  0.0402900345046442  0.3893300156130005
  0.2684848227255636  0.2813305063797015  0.4573564059159117
  0.8621757413371067  0.5155232123056025  0.0788296119065995
  0.4808293520155516  0.3683802468876162  0.5658649278530820
  0.1369384522037106  0.0839062701284960  0.0675450567981780
  0.3442982843930478  0.4145138157006601  0.6540972758234304
  0.0352781169816839  0.6745224769851074  0.0836147244613314
  0.7367984577800454  0.8701475170975721  0.6375144253686998
  0.0551767777394125  0.3639089985443440  0.0811753173993739
  0.6767907105444622  0.7304335879903950  0.5911061029145259
  0.2610142745515627  0.2503431296689940  0.3498846520150466
  0.0058028679598806  0.1269783491998298  0.5599545868456955
  0.8409956498754703  0.3339868197217166  0.1289959890100074
  0.2762654250961974  0.4680223226515750  0.4041832736919405
  0.3157914421117578  0.3173954736370894  0.2360890915803004
  0.4274112315527303  0.3941019273351614  0.4169358845169873
  0.1241623497591751  0.6412176338424762  0.4787272643113335
  0.2771669743098788  0.5164920938086633  0.2221196275905716
  0.2713112997056115  0.9270733275602074  0.4888313274356074
  0.3627739159324004  0.4711390631836733  0.9229214044102736
  0.0571521032841494  0.8509638348497551  0.9334214027782225
  0.4970877494997969  0.6424338257421036  0.7808349745385138
  0.5409452671223497  0.6124723295951220  0.9754361970986412
  0.2212860089089379  0.1118436290706400  0.9188289357630243
  0.3731239867277729  0.4072876716520308  0.2305759809142978
  0.3482731733369255  0.6509139551010256  0.0176731435353102
  0.2515690833672799  0.7950318484339628  0.3500517100178866
  0.6076254139720275  0.8283673417508289  0.9202011898297853
  0.5183792590042003  0.5885659315876741  0.8018421809525595
  0.4932394936828966  0.5603101707041710  0.1033760475814597
  0.3594775829868306  0.3512016164252804  1.0121291163065289
  0.6358886423036877  0.9466413025904665  0.4303993122494495
  0.0490374594613280  0.2701703873629213  0.2198539336186146
  0.3959608969485534  0.1521240159095131  0.6340153257223032
  0.3402524712337986  0.3117982907150067  0.6395577768759173
  0.1088631518403718  0.9482413017692646  0.4869716421213234
  0.5373506583857314  0.4860948286517673  0.0897898382590669
  0.8016344166174061  0.9131878171747888  0.5604213096582775
  0.4015764673079811  0.6791221407158032  0.0284316530098247
  0.6998004798030211  0.5149442079161168  0.1369045092701330
  0.0736424580685038  1.0051739402871391  0.6303009334370032
  0.0594465605671094  0.9789880525766497  0.4575549834742328
  0.6465507210184238  0.7263518234527870  0.8673336963533457
  0.8976791014949747  0.0106320167877972  0.6401767785685230
  0.5272073177111933  0.8319590416626244  0.6393478979112694
  0.9347321265866961  0.7819295265653421  0.3007179846560127
  0.3294306801568425  0.4997893990608962  0.4173559180896178
  0.5174010158620677  0.2408108971586948  0.1560244855568952