C  Cr Ni
 1.0000000000000000
    38.8108709713383604    0.0000000000000000    0.0000000000000000
     0.0000000000000000   38.8108709713383604    0.0000000000000000
     0.0000000000000000    0.0000000000000000   38.8108709713383604
 C   Cr  Ni 
 213 1596 3725
Direct
  0.4160746073150323  0.0453857538825003  0.0094900387112535
  0.2383167845512254  0.8710077936877594  0.2392223575743850
  0.2795084947695404  0.0399086336849020  0.5643108660043065
  0.2673931670474041  0.2554941935766547  0.5444694191449779
  0.4821138050557744  0.5586602024710543  0.0577300076084691
  0.0427622356736858  0.9236767922838708  0.5406217187657127
  0.0684018909571554  0.9663341430609688  0.7111777711711909
  0.7863631519066503  0.5330185421503280  0.0040709887514935
  0.7441464782472504  0.8666891909562395  0.6852705590571780
  0.0025862477120373  0.7189910953952954  0.0242790621981493
  0.7325572172668793  0.3842605000319375  0.0423205072492737
  0.4921598956808794  0.7294332318717437  0.3079970633124139
  0.8175346138140828  0.4551574031372309  0.5441177683738589
  0.9723504358697149  0.3354728237435966  0.5631592194661358
  0.7405507623828946 -0.0103781386438302  0.9449198534655351
  0.6206400739010084  0.7408614002165937  0.6010378747903178
  0.7001265125897845  0.0556454755395692  0.9219690545519775
  0.9625122583543158  0.8734111930028948  0.3368246129588275
  0.5143945515457150  0.5562799406386614  0.5490295951095148
  0.7540930880512708  0.1498293743552656  0.5000244499673785
  0.0695356198815485  0.8534206993271282  0.3672314577822638
  0.3570872255824436  0.8516881084102600  0.9724975716842873
  0.9439006433694006  0.8935321281526095  0.5526080673080181
  0.2215164117295303  0.4932143314581241  0.4254970081453745
  0.8439583616768724  0.0535871279058812  0.9633580547697400
  0.9529275323276800  0.6958136199635754  0.4366890999295659
  0.2363363602868038  0.7766356397115813  0.1462025568206281
  0.7243744370665384  0.3251744990013822  0.9926157584743716
  0.2765218469429618  0.7859682803090251  0.0560604798462982
  0.4948977400744672  0.8928921265900434  0.0673684172931986
  0.0670965498916930  0.7910427484361967  0.9307869614067519
  0.6860218394387129  0.0222880319732344  0.1576280057647759
  0.8710208586662205  0.2914845326534697  0.9534433848700583
  0.3701924967784097  0.3721864623595387  0.7992820842523237
  0.3616667754069928  0.7741732079348472  0.9988982158645499
  0.5575860729576995  0.2043089577383851  0.4713162707793995
  0.1506473147336947  0.0519383587826146  0.3912255302538944
  0.2907204564554148  0.2833115711537918  0.3370670821851242
  0.4227972445206785  0.8413494132481809  0.0476602220549434
  0.1151331779681628  0.0444291636050260  0.5625793007958437
  0.4214675421612252  0.8035522645312959  0.9801531339349833
  0.2636578099605281  0.6744976989992494  0.8936916718015089
  0.7775697529554150  0.6909426573190951  0.4975050885615194
  0.0116590376653302  0.0421790908552794  0.6599310705501724
  0.0634772313788514  0.3315261510006643  0.9950930084689941
  0.0255379076213283  0.2666560504627092  0.4252166029970221
  0.3338356031764167  0.2287862998988532  0.0269316392882656
  0.4206381906528899  0.0991967271762357  0.4035356861557717
  0.4600871270864743  0.8909731792930005  0.0038390733205993
  0.1583456460377538  0.3415488416173169  0.0218154277165742
  0.5112325108442618  0.9629514683597671  0.5422319251952852
  0.5331381514143124  0.6127607195267397  0.4832380254006715
  0.7142990788358557  0.9239987824081665  0.9719940118487579
  0.5864050013521562  0.9327943341689827  0.7826035124613200
  0.5668519963096528  0.9194752853904725  0.0896379071679216
  0.8635561611632475  0.8676084912922710  0.5761657748282288
  0.2651215027969548  0.1669843279198876  0.9863978376633529
  0.5251173442090031  0.9013631034809751  0.5749080083782476
  0.2055892722918617  0.6832444268735172  0.9878320770133813
  0.7086994799495113  0.8789590790967817  0.8587023408612103
  0.5725859132401362  0.0018835245151598  0.4805861129039051
  0.7375375431127629  0.5552839333200490  0.9217049827854499
  0.4494600289023528  0.5697975696233841  0.9287151053420059
  0.1235270257237786  0.8486678267755782  0.9404750048279548
  0.1360061935375420  0.7084001675167586  0.9612050006192292
  0.7646281520492110  0.9290256920029293  0.8838562535880984
  0.1305106844912860  0.2825739962525112  0.3951192267956840
  0.9934209472692732  0.9733287126076084  0.6805831512213709
  0.2431814356686991  0.9294569893909208  0.4603174916840648
  0.9328393887448510  0.9309933488831673  0.0303394271177553
  0.4329779294623375  0.9481706739585876  0.7988610962487771
  0.3443382807219244  0.5191129230711820  0.9501164724486386
  0.1785726446559584  0.8083556621641548  0.1230164539773883
  0.1956846006231890  0.1676141125895171  0.4118199553284028
  0.0537183628316086  0.6051993772966535  0.8322118416397688
  0.1645930287176270  0.7550054334442078  0.4931896232316973
  0.4897048002499653  0.2186419031238320  0.4995212910263562
  0.8568415135242169  0.9440377558818218  0.5662832853574549
  0.4214085351146845  0.6400689620556814  0.9126326098631137
  0.1898743312388170  0.7365839389226299  0.5712747870785164
  0.3352058758625521  0.5813444375359748  1.0029747764418333
  0.0175596154760792  0.8959422266576058  0.7005992548056424
  0.1194075126124351  0.4432282788724194  0.5780597371284776
  0.9433771387115879  0.9063027270684777  0.3443934060930603
  0.5504246310365486  0.3336706466774961  0.0461912826686350
  0.0218880063290640  0.3453330205672493  0.5112594393215190
  0.5378525694560575  0.1898810729301273  0.9827085358418963
  0.4614625851183272  0.3375644625132387  0.5277900708649057
  0.9258120475480817  0.9849048756549733  0.6608908940962244
  0.2277771302802498  0.9808385700843191  0.9819819852540916
  0.0634217205982408  0.4358848694651257  0.5099425127138110
  0.4170851823945648  0.1559299005879385  0.5077205973283636
  0.7179845866408940  0.9433332469184524  0.6569446201497889
  0.4120112963475482  0.7939024573561626  0.5751375875052287
  0.7214359605483972  0.6048915829080761  0.8415336272466956
  0.8160599221733386  0.6847535785478583  0.0223645111923706
  0.4925915256583470  0.7135173546995881  0.6257284556007503
  0.4719444856918695  0.0961555836434378  0.2324177328009202
  0.3886019629434914  0.7235407047757105  0.0366554279798831
  0.5983426388278386  0.5506617718621727  0.9156393307971571
  0.5760781518769568  0.3351639380315816  0.9469429266882057
  0.9216437842007561  0.2683819333840319  0.3890402679154532
  0.5195377630292366  0.2042408127836934  0.9517464396316171
  0.5757558337147464  0.0315533970003490  0.9532672736826819
  0.4745932614291331  0.0171910057665089  0.2114805401457529
  0.2917731827858316  0.9863306276718787  0.0123533975429354
  0.2683421216338028  0.4642872554583647  0.5140644524385602
  0.3732194308755111  0.7255670339045998  0.9392137673812188
  0.7390680568246358  0.2489506482848113  0.9663058437429272
  0.3489450069079729  0.6860066850138393  0.5721520188050337
  0.6211851248465947  0.3861494989721915  0.0053741065768406
  0.3694669142946708  0.9471404472429165  0.1288517873274093
  0.6292132393197616  0.9358254486441220  0.9497574556204766
  0.4624586028521319  0.9674544920632872  0.0046655551643406
  0.1435795841223969  0.9547918923082971  0.5494174790986958
  0.5350613560043008  0.4972296831046806  0.6742761289524245
  0.5720918772295295  0.8565453404894329  0.4320130592843316
  0.8472793210376263  0.9705520563591840  0.9233079924034087
  0.6284081737781340  0.8288743689587468  0.9520241436557390
  0.2421073072458298  0.6921511163527456  0.5323025004430982
  0.4190730901314587  0.1846545863852773  0.4352687806850187
  0.6320245984332146  0.0893430883061793  0.9377253019611570
  0.4283487117893949  0.9627907777523316  0.3205007868952328
  0.1578932189050984  0.8512097516319492  0.0804017774989685
  0.9297019136007063  0.7644279368353102  0.0368099874578501
  0.9242998689110632  0.0030564663530784  0.9357802020895332
  0.2156347311785497  0.4223954909398195  0.4609767442867171
  0.0062625407354813  0.6689844073959069  0.9705299510653507
  0.9310025495295204  0.3592505624521796  0.2438427564651062
  0.4235665331132833  0.9680740119375085  0.2847202407336406
  0.4870342974980573  0.3858259581822998  0.9503037514738786
  0.0608551292052973  0.2741669439652597  0.9436679075435438
  0.8645374814599683  0.3914177751206284  0.5133186870165921
  0.0361822802670001  0.3444882208878706  0.1105188369688007
  0.3835929598499338  0.6964208522682752  0.1669336579916649
  0.9246661030348649  0.1036432723520246  0.4556145108400338
  0.7890102997734143  0.9532784709124256  0.6051456710333016
  0.8449646703520373  0.9109763661568456  0.0642149439266738
  0.0689976170828412  0.9670860668970761  0.2577701875214815
  0.5701500043557596  0.6749952364299281  0.5405064803727860
  0.7928616606691248  0.1680433964922309  0.5732831967529312
  0.0476953223917915  0.9366681605474547  0.8999084688639939
  0.3756005410613155  0.5788225837712165  0.9023505548256573
  0.1726770463611833  0.6812554912415275  0.3894914633297152
  0.0940147904023978  0.1714149440682533  0.5646731719347045
  0.4284552569041226  0.2455120133506204  0.5499565739114930
  0.0107572462660660  0.9643168036154255  0.7552775295811676
  0.6513775454070918  0.6233143012756486  0.5757120910364087
  0.1576071139243242  0.9075157650655066  0.4977004506226390
  0.9891964062453765  0.9337213849294237  0.5995730795451331
  0.0635919754351479  0.5890685924795790  0.8992637001153136
  0.0542707892563838  0.8603152821407120  0.9771597420340541
  0.4246158840916992  0.9303236115555537  0.0826636445502993
  0.5690683525406182  0.9107426668375458  0.4840734989315174
  0.0672995239523050  0.9515199594259970  0.3809703264055101
  0.8610361217323681  0.6709289518225976  0.9472288780690554
  0.1864692742621542  0.1783845874457759  0.5627985123673538
  0.2681987558828225  0.1979884816301723  0.4323835324279715
  0.1961398873298998  0.6274247394331299  0.9347811779955058
  0.5661079164790916  0.9160910604114781  0.7546862677748515
  0.6197605474499847  0.5445293365850359  0.9970789905680834
  0.9382089814797153  0.2640581672483201  0.9744404202723063
  0.7207402674190150  0.9503003791052113  0.0951004366258598
  0.9663144439805670  0.6279768794866359  0.1564408940772840
  0.9818926307113155  0.8849727042086806  0.4698730346176695
  0.5805231546528449  0.2088890722283569  0.9082003443371033
  0.5751389411578475  0.9063477409383606  0.0043724539713668
  0.0498670064303432  0.4169627496238309  0.0255935734577684
  0.9947329910486478  0.8436798189776936  0.4075313115296316
  0.9691398991942634  0.3980279693591611  0.7776433296462635
  0.7867202966472363  0.0143221178342821  0.8982431408957151
  0.6979326256708627  0.5927269228270834  0.5091095879991940
  0.3681186304384431  0.2047805886193259  0.5339245215378217
  0.6770228175553574  0.3748201078719491  0.9574113823825333
  0.4945810502206803  0.4156310873771198  0.5518945637701205
  0.4811780157662603  0.4213630164178362  0.4789977269280019
  0.8061562961310446  0.9308567594558291  0.6941827471639058
  0.1778476841305325  0.7598599274490807  0.3089241536085726
  0.9452818127059278  0.9927037473158040  0.5766560850178611
  0.0916965387339507  0.7170361921048162  0.4805264637613016
  0.2899687500071343  0.7905921764831927  0.9745726340668623
  0.9088128565733012  0.8861676237139917  0.6368230797732068
  0.2212036018588377  0.3706760887143571  0.0370191372543271
  0.5189774617887315  0.0832709929388718  0.1750508096689132
  0.0676415905671146  0.9758566644251585 -0.0086767039450093
  0.6669140030379518  0.4064602125682553  0.5524471871998206
  0.0326141850029242  0.2746477024532641  0.5153061105064314
  0.4171897128383848  0.7177790705574537  0.5909785872739436
  0.3513532729699129  0.8876336295873646  0.2090650189921003
  0.4567760339147216  0.9617387649825072  0.1668524906338751
  0.8027711396093715  0.7435429087344784  0.9677957402847133
  0.8310386205588947  0.6151761009036442  0.9864152598447083
  0.6363869676340610  0.8647610888653406  0.0762257750957768
  0.7909458364775503  0.4789189680473342  0.9362040195283829
  0.1123426746572341  0.6070838145569906  0.3360515917837889
  0.9932798299576686  0.3337463709796942  0.7961073343519829
  0.3150465690508596  0.1557370197579952  0.5166035897665456
  0.4464372756252905  0.8372570210531505  0.2019769920230808
  0.9176011993256360  0.2368506753523053  0.2797414230914400
  0.5121869781721017  0.9426148138867708  0.1267892692172026
  0.8184655378936496  0.8780760305424397  0.5028755299582919
  0.7754771666477253  0.8832141605684767  0.1268134369716120
  0.0425536781423579  0.9431829915783703  0.3519332085147805
  0.3687206674615443  0.6725403992589080  0.9909944962811346
  0.3465096327932660  0.8155951096362304  0.0542250424414356
  0.9948388262907840  0.9839045317753921  0.9648006628581836
  0.7138613059014418  0.8622150612457993  0.0489744089030413
  0.3535347820359442  0.0318116653768201  0.6596507547863628
  0.6438914745976093  0.3176889673567998  0.5134207808070516
  0.0709694000339527  0.1575973262605338  0.2964423811736350
  0.0903208739200976  0.6779941577927676  0.8822188704510946
  0.4276279344775301  0.5321640376930287  0.5331029658910958
  0.4674289048670404  0.1880367444611653  0.6311724873546533
  0.7541930631274040  0.4469267528136325  0.7259912856847066
  0.8382344994219008  0.1993434416325707  0.4620627601316927
  0.6435271967140318  0.4489111592224307  0.7444030079481490
  0.7374893093623761  0.3403829729887100  0.7341412679364417
  0.7265412110939198  0.5346584209646461  0.8156739362961879
  0.6501036856650517  0.2860642502034856  0.7686744437800013
  0.2442800038740402  0.6113098275760445  0.1786805913732384
  0.1309770429960838  0.4567359609429971  0.0731614093322059
  0.5379919748386259  0.3893276400376565  0.5413997646519628
  0.3628944918129255  0.1900997915802893  0.0173073336629431
  0.0256537429741940  0.1218795282312527  0.4720471968691540
  0.5466893776342282  0.5597869360873987  0.7533584045573017
  0.4568109488314246  0.1082550737422935  0.1266023767450689
  0.1190376331805615  0.4294504608246138  0.4235322829493666
  0.1079254362253369  0.8922244599143729  0.2794516604702905
  0.4453571048809444  0.3327405726391018  0.5768792198866267
  0.5105156789892713  0.3249555983979575  0.6041569162573042
  0.3197308025418315  0.8742240712103208  0.4076831495652597
  0.4520313788684944  0.5663786182120901  0.2040261662405313
  0.4977946367391980  0.3687079113074709  0.6468054744145966
  0.5699512040613287  0.3195743860695792  0.6250271852130495
  0.4660380158304585  0.0905718755455347  0.1814194738952264
  0.7528288802197565  0.4771720573600709  0.8312921152893484
  0.2671432687872918  0.3259921345898435  0.3453767654281025
  0.4287792251602806  0.9177453049988321  0.4906056651955289
  0.4241643177987479  0.8091393417094899  0.4604186666059340
  0.9204439674003388  0.7694624726729777  0.9180434986018627
  0.8187128902570419  0.7888794167241766  0.9884126291248526
  0.6469692398423056  0.7377876342337107  0.5573167154965181
  0.5735417181766533  0.6878498430617506  0.4931709896834199
  0.7638987445654415  0.4623459425538614  0.8937294392459396
  0.6922310309067945  0.4864033975362503  0.8099722416913890
  0.6156132565226046  0.3866997743318032  0.7996973881566143
  0.6987289083084738  0.3226168216903179  0.8336133032220928
  0.5001472906009805  0.1568012909510893  0.9623429032516087
  0.4758483273979682  0.1753918725318023  0.8370523433744198
  0.4046136975031114  0.6420972197811581  0.2208171080119549
  0.4975278908798223  0.4894492367499531  0.1901950256093626
  0.6557587412590321  0.4055889515712542  0.6988082097421895
  0.5989511152898899  0.4435690530573465  0.1844949285997273
  0.3312293348571266  0.0141764201531959  0.3160775469299686
  0.0796125720198343  0.4892294314757263  0.0467818756286623
  0.3063242901058659  0.1350354845632744  0.2961479253689066
  0.2113288335713245  0.2907695328548608  0.3345540342415692
  0.2585715954290620  0.2108746354402806  0.3172796124564178
  0.6335294401608541  0.2128077874327130  0.8827352058923692
  0.3023733259640030  0.6904579013058180  0.2299195670940842
  0.4463237568298270  0.1134698309436878  0.8949411418852761
  0.3990517571339449  0.0757656827181008  0.8307486651790295
  0.6736385349806341  0.2295267764763220  0.7846751573793814
  0.6025007983708260  0.2493074594958207  0.7024486156316532
  0.2368824637153592  0.5294019147771591  0.0346159404990928
  0.5026508899119745  0.2069926250331775  0.6724075526913075
  0.5930787376003169  0.2268122329884166  0.5419233962208907
  0.5976756949299107  0.1120352154695673  0.6016478077434758
  0.2892398211609617  0.4868134668874508  0.1193653779117587
  0.5403411270635440  0.1051604488734916  0.6467180032307535
  0.4460101276720124  0.1499579492714401  0.4683426852246969
  0.4948857658894129  0.1158953226348092  0.4936884702784218
  0.3905363077542309  0.2721040361363250  0.9019824752473073
  0.5194623733536092  0.2360212632872327  0.0020142787301497
  0.7588170380727773  0.2934766642309123  0.9756113560533753
  0.9423375752078261  0.9057802889821861  0.6036978657549783
  0.5067133665051057  0.9426785130846682  0.6814927782067357
  0.8881882203555007  0.8458612042574022  0.6135462959667272
  0.9645284653549657  0.8537203596773664  0.5145864711299061
  0.0271852410216343  0.0016837590587790  0.1884019863417600
  0.5161742613843827  0.1640768665483714  0.6273929934162151
  0.8289479884627022  0.1374803572113958  0.2532719100736891
  0.5248191191483044  0.2121233685079484  0.9009016644158502
  0.7103960956665208  0.2768378637941566  0.7912642233310639
  0.4815268504126203  0.0133618821429934  0.8719451330161305
  0.4102293195069717  0.0311738175728191  0.7866840921584825
  0.6427308645049785  0.3850310396063559  0.3352448184269461
  0.7834278022593494  0.2151881081993978  0.2716701835927859
  0.9081111282855819  0.9363035968782124  0.6531549737976419
  0.8753298305967053  0.9107673860401274  0.6013306816403359
  0.0221187319557669  0.9462887339030674  0.7096933167332640
  0.8644972847743955  0.0078506276118049  0.7758092588663047
  0.0078677173557311  0.8682335949995564  0.0634512155447757
  0.5040400171245508  0.0646292282929073  0.5848890146942051
  0.1520227140588618  0.8016128620535252  0.0820386443396887
  0.8705537143001441  0.4906551623891180  0.9785615305777811
  0.0969421277561037  0.7184401046821093  0.0345885458430979
  0.3625627592106036  0.7521586281038971  0.3415285863066352
  0.1381086624481103  0.5805436385091391  0.0422299932113303
  0.5014914101088392  0.2394063916610476  0.7790599723740138
  0.2435059196394757  0.5914869167370213  0.0199022405017627
  0.4673465018019046  0.7534745331606352  0.3803518842210074
  0.3665825084676814  0.7975610933937738  0.3861806002246456
  0.8411882469378309  0.2773758999096555  0.3856898222904647
  0.8043107960413070  0.9599985037124201  0.5544130419119796
  0.9076672104526590  0.9846006556614908  0.5269854670348925
  0.8521269800353417  0.9515273324177413  0.5136886326736895
  0.7050483727334065  0.4763821899146466  0.3255664058512920
  0.7376419686639669  0.2913223450327310  0.2869457051761156
  0.5504956454406402  0.0823911485203868  0.5371455873717186
  0.2160188808337008  0.3879991327879960  0.4229004560250656
  0.9421358200100454  0.1501376440428252  0.4534282784601714
  0.3530008029940662  0.6443165691627364  0.3170600472845264
  0.9858060032882852  0.0869904043485670  0.3735357076955231
  0.4470957846693835  0.5390004520717633  0.3276894823034303
  0.4392267992071351  0.0935817829299680  0.7272346848088191
  0.6975988243148474  0.0021259661966918  0.9124717460043897
  0.7074594345435133  0.9800247890907711  0.1417694506636047
  0.7501119791352884  0.9757576676907213  0.8961560030156041
  0.0169100857450850  0.3915638110716538  0.0523061709409478
  0.6186452883270797  0.0736676039406804  0.7937693165872037
  0.0330160255033551  0.5644837834296197  0.0678259189002100
  0.4898047523338029  0.4475895194317458  0.3721864092104020
  0.4013486388995490  0.0351891764697962  0.0604296550631530
  0.7822100005286334  0.2593223503902795  0.8718488024206351
  0.1473196841232435  0.1691676739033706  0.0052172227397107
  0.0121746947601203  0.8390887164998270  0.5531197213929832
  0.3384576585376159  0.0850137327480713  0.4660240267778943
  0.4436827150551257  0.0539916371198033  0.3919918938270597
  0.3076061749223347  0.2681569347316338  0.0391048051283651
  0.4886940093628022  0.0103045677567408  0.4811229403603520
  0.0789417377572188  0.5516529524445074  0.4819292746043540
  0.1869247103892155  0.4465237236318835  0.4967928767338619
  0.5490808684576108  0.1643656856104211  0.9230449503492313
  0.4881255225960165  0.1314608189680985  0.7930673953792462
  0.1296216931250388  0.5351803443490463  0.4502088383053537
  0.1764881308054013  0.6160352149804946  0.5557682177414717
  0.5671988633659246  0.2249287118819238  0.9567602522471129
  0.1824986636112484  0.4580189731157087  0.4346844245789885
  0.6121785254052783  0.6147803694963737  0.4193170239946029
  0.0300919038551911  0.5505951910871090  0.1280715288791378
  0.2708642507821959  0.9231668843236226  0.3222288305697373
  0.2423393131370973  0.0502834237955482  0.0730042406099663
  0.3175953962154802  0.8457149699958055  0.2998835726818822
  0.0196446135181366  0.4126118923092742  0.9867306672472181
  0.2654795589116337  0.8453795619190732  0.3989748522841592
  1.0005510792392092  0.2883907706488718  0.0348064632602945
  0.6008131681625334  0.3115863835060099  0.9101441415325313
  0.0398885040200743  0.1531555687196860  0.0310371143768989
  0.6505324648070275  0.3474939896976186  0.9945258233140272
  0.3080318956890110  0.1831228300593196  0.1153261769602538
  0.2695592194603164  0.9066426310659726  0.3843402494624661
  0.1972250883130696  0.1238030210857301  0.0921579319378183
  0.2761753877683288  0.9524460416973937  0.4308478871225301
  0.4454048400172019  0.0873849112667423  0.5025614235584138
  0.8715839585573275  0.0473199027295986  0.2981580261865483
  0.3972449114967979  0.1019811399721237  0.3069127094579476
  0.4672742536217978  0.1561440906651620  0.6695016851158231
  0.4718095108216685  0.0248207368368325  0.8085433142211121
  0.9624333382345942  0.4405633751825834  0.9635155069891824
  0.2023024693270194  0.1679586976678629  0.1380071760470550
  0.3676430320448810  0.1526549097902020  0.5262164697648336
  0.7242030091851365  0.1389311758146652  0.2181952218324036
  0.5370751526002586  0.2194789676756223  0.5195656264893731
  0.3335986450660913  0.2019473846547244  0.4983632044639900
  0.7091995540262951  0.7133161839240778  0.7327388525386211
  0.5113896976013766  0.6641080199114453  0.4247998501904798
  0.7775476272191992  0.6907283831136460  0.8183768366296363
  0.5966235027926613  0.5659339483504404  0.7127344147427188
  0.7374137904895844  0.4239489061189327  0.4857296947460949
  0.6060406859206694  0.5385898504579342  0.5494936705297041
  0.9048361841044645  0.8619115648546026  0.5514214570444801
  0.5947330695374387  0.7027954825013804  0.5781124381345951
  0.8265779916192382  0.4272729446232590  0.4997777151012407
  0.7331527456175850  0.6751794789630149  0.9177121298883327
  0.7755037061736810  0.3950543413775639  0.5099796853984695
  0.8899131671755039  0.2941496320976311  0.4602547873309240
  0.8368563501089102  0.3113317830344006  0.4913622510634612
  0.7402513746939654  0.6428533530577029  0.8104101455033434
  0.6426504624189795  0.6008927598734056  0.7822356634884141
  0.0684719570128271  0.4284359546782855  0.2944497744625296
  0.1203903839325672  0.4445696768970065  0.3616974554410073
  0.2815654368859905  0.0468291550920250  0.2903347201271071
  0.2495654596209629  0.1111241555388216  0.0551923050406499
  0.1629244159807151  0.4029778893646068  0.4561200077120345
  0.4582826805677724  0.1649877065354958  0.5889176488968786
  0.6713457637233302  0.4141580336305197  0.9228928090901410
  0.7227137078964212  0.3982293325170092  0.9471667825994532
  0.5271807430610893  0.3331608954887046  0.8315463655973172
  0.6361272360945757  0.3062143565166260  0.1886861429366889
  0.4304204693319895  0.2596706639370581  0.6990078607401909
  0.3337030031173560  0.5312941111031375  0.9988751058806503
  0.6007518416614952  0.2811033998554073  0.8064577210337298
  0.2646953200636512  0.8304545880087323  0.2284961070478231
  0.5669915967973064  0.3498385018482977  0.7308379338594090
  0.8123532491820443  0.9858282489967017  0.1832805550316178
  0.6716556072721750  0.6661922599259035  0.7245714130175306
  0.6619501305605624  0.6800275651651747  0.6635475209242211
  0.6173499240368566  0.5969237878105486  0.5495389591153077
  0.6780772113529941  0.6384949637604797  0.6163380340483147
  0.6382097746612925  0.5880658378889149  0.6128607839216883
  0.8494208228258220  0.8242829755109656  0.5530649805600993
  0.8435686329348193  0.9619379215148918  0.6156330012798277
  0.4538052538096943  0.2877510478022050  0.5336881092670038
  0.5143904392028635  0.1943146050073052  0.7349757303869596
  0.5138912885767086  0.6759830957343885  0.3638702222953674
  0.6141850757057352  0.6283765324245197  0.3560575553926837
  0.4086685479599882  0.1638765888813594  0.6484539095628639
  0.3637636971759561  0.0105043585462087  0.6158628567966362
  0.5818276879253078  0.3076110768213727  0.2849545299247934
  0.9382488649637377  0.5467392358456099  0.7170608255242119
  0.4134012027886237  0.1852825494799616  0.1519762112578958
  0.1585562800824143  0.1021176665277173  0.7436834898211188
  0.4134151707422480  0.7574114280056791  0.0095005938096167
  0.3638961710660620  0.7656297023661318  0.0492698962401123
  0.5494193646101245  0.7980074319218470  0.6137327351608618
  0.7054767911865836  0.5093235429979975  0.4296162092986615
  0.2222715578701012  0.2151683009581744  0.6887950182409509
  0.1872376751861909  0.0644940751343333  0.9314143128200215
  0.8484199357387828  0.3857926001749117  0.4102275356700750
  0.8423924969153560  0.3730319289517096  0.4714352941196704
  0.5254348974286959  0.4344643281796466  0.5920055108657808
  0.6578733995233265  0.7096208254208805  0.7698736452827242
  0.5873429885305961  0.7306368671973864  0.6877520403566795
  0.6453697219803665  0.5278247402762960  0.9524758182172158
  0.4074667465234301  0.2840589154847629  0.5759677780202944
  0.4539719772278022  0.5934577694193248  0.0811378644779188
  0.2553690159636385  0.7734977016098432  0.0120608990451222
  0.6615937476227555  0.5764150995236034  0.9934312657029543
  0.5747860677635884  0.4693751791961207  0.6627526426278021
  0.4646569306920909  0.1775230756309560  0.3488352918740776
  0.7075178992895454  0.5639167460870314  0.6946607366910175
  0.5622653875334926  0.5170363794953415  0.7111718362889216
  0.7183984525124831  0.5489952871728649  0.7540545424887579
  0.5758716737805678  0.7436826700372962  0.6257808991452986
  0.5156304189455211  0.7564842438911884  0.9923132892935164
  0.8944227720656704  0.3090712357002510  0.3978729876414360
  0.7961521106635546  0.3692904162728107  0.3400343740908928
  0.2183645272919682  0.1262934270001220  0.8694028965620704
  0.2290053967961257  0.0821736320076942  0.8266233580981700
  0.2503308685543069  0.2135409116329384  0.9752459761672386
  0.4423691607511736  0.2388482509436695  0.4976320662274271
  0.1920931405390748  0.0330023369453024  0.8252394142950699
  0.3558241347075856  0.3382557788753318  0.8306052879021145
  0.8093485261232929  0.4774765936413630  0.3634282168643836
  0.8004307805670628  0.3826051717218584  0.2763394121905317
  0.5547344432617588  0.5015915598507569  0.0320869317597356
  0.5745942918199841  0.9013411562464145  0.5865081730152097
  0.4834158552857514  0.9507048410610744  0.5001447887762984
  0.9963094629617946  0.2993571840469199  0.4918531123675117
  0.9492879265492165  0.3862290172633572  0.4440705833983953
  0.8877437864500232  0.3438484758128164  0.5056528285158454
  0.6712182474938132  0.9395972838663019  0.6282457644284005
  0.9191855374401723  0.5109944575547822  0.5010715455611641
  0.8164260775351720  0.5560596457304976  0.5140627368085767
  0.7111510511033131  0.8661550765597350  0.7697424115863213
  0.6767168941609539  0.9671897585202320  0.8023177453121956
  0.7176009868453939  0.9782009848870759  0.6956023325066395
  0.4279381793686982  0.7894907999534877  0.5253695382779255
  0.2895756471191908  0.5815506954966557  0.9792747141320222
  0.4768940507290146  0.7818629260447598  0.4866330156333742
  0.2703884585711812  0.3376248114321733  0.2823355267817452
  0.3236696155956621  0.3364113600465947  0.1864045845206580
  0.1782377572616268  0.9396270148384023  0.1401847960940790
  0.3346138735456668  0.1796242702674382  0.5664837877865139
  0.2528561523777480  0.0143293359051234  0.6418429412193010
  0.7213353108185969  0.1222893777268626  0.0498380535636417
  0.2679105894281617  0.0651795006173358  0.6160837078193678
  0.2961444577094237  0.1635630412540534  0.6669730718341859
  0.4041443040507731  0.1946036063994038  0.7544765477792094
  0.4294568220839470  0.2896998633848308  0.8024157803369151
  0.6952715440676203  0.2770938301474109  0.9852779742381829
  0.4900804524893089  0.2830417841671009  0.8229606505545268
  0.7054676590944554  0.3744047670573390  1.0016634862170910
  0.5285868526124394  0.3559900579092581  0.9521022737982776
  0.4978982174122340  0.4568382643866250  0.0875005058076418
  0.1908119147025650  0.0877919710166045  0.5326697739302299
  0.4808196089251260  0.8251444231879435  0.5294491320862312
  0.6282313765670975  0.7191699280846443  0.4461290275325476
  0.8598315724271594  0.6200473537187350  0.9412959747913986
  0.5938602172196000  0.0067997872747873  0.5856970057870521
  0.3407370551542894  0.5030908284690221  0.1876434378765012
  0.3497415272702398  0.6114766003197835  0.2131918215614453
  0.0778138632517784  0.5362280990431006  0.3178461000352243
  0.3906505627661283  0.0887263963801574  0.3668388903149091
  0.1735796940668301  0.8972780507965611  0.0914048164272995
  0.4508050182041503  0.5340008369152874  0.1000710850928336