 B Cr Fe 
 1.0000000000000000
    20.0899999999999999    0.0000000000000000    0.0000000000000000
     0.0000000000000000   20.0899999999999999    0.0000000000000000
     0.0000000000000000    0.0000000000000000   20.0899999999999999
 B   Cr  Fe 
  27 206 480
Direct
  0.4236073473293218  0.5225148841231709  0.4251012855617819
  0.3875396737009558  0.9932349682886771  0.4993938668963074
  0.3018259736070241  0.5819475900673396  0.5008260401285255
  0.2354024333927220  0.7104404241196068  0.4262744252899953
  0.3810593255918049  0.7133157519870831  0.3573912333175600
  0.2174640786099031  0.9211098260395730  0.3098052424648822
  0.4074369560209765  0.7617608782859654  0.4937590717662864
  0.1425636450971481  0.8585788417665789  0.4868171135599386
  0.3181970911867043  0.9366424594065771  0.4905737140063233
  0.4956381423732187  0.7196423093789595  0.6061855269663889
  0.4635071515342081  0.8297233603480669  0.2908307568341391
  0.3628668088011628  0.6460392356723942  0.2892013934826902
  0.4823383133701403  0.8636898657258933  0.5680462315601918
  0.2255062353483821  0.6579091233191593  0.2842808229662309
  0.3063349320959993  0.6459670473198629  0.5592213537089993
  0.4328700654842984  0.8437937132616554  0.4993371045634796
  0.2867134863737838  0.9117241742864932  0.5646045919793083
  0.2216981625968540  0.8439190517341888  0.3463035389112657
  0.2193218067105259  0.9812321431929029  0.3732836213459862
  0.1093875231301819  0.8134273942771755  0.4212734583553626
  0.2969817913268419  0.7840057562055472  0.1712993822447818
  0.3778107728107316  0.7892659783509329  0.3052642446239690
  0.3600057587180527  0.7262803819261965  0.1663569111989572
  0.3554313365543816  0.7844249725211073  0.6923286607133790
  0.3701874195031193  0.9778536459458567  0.3589403840336799
  0.4840733999703029  0.5875592324552483  0.4300737959167754
  0.0762582185117978  0.8574226988831385  0.3540593967178279
  0.5830900273687092  0.7093509506673863  0.4342402872481293
  0.9297528651950980  0.0748009390712273  0.6433861603755671
  0.7880134207806836  0.9313526727955063  0.9254830526263920
  0.7184080164115002  0.4275759701202432  0.4279037753630106
  0.4341524135216898  0.5575805361814428  0.5887758316704608
  0.5716040147404332  0.9987414254859770  0.2868338033438426
  0.5740348327338577  0.4268813250735159  0.8569698044816949
  0.9294872862824858  0.9306608506016076  0.9265055368952022
  0.8591727715361547  0.1446605350533279  0.5706697507474693
  0.7880864538288398  0.4993870317656613  0.3567579483164331
  0.5749808523748748  0.2877090662154284  0.1415371904426921
  0.7153802022946738  0.0016104062493689  0.4268038408154222
  0.9296153163158531  0.9297163261354285  0.0705914278087138
  0.5728994574227890  0.8606202855383587  0.8562233202725913
  0.5725386917920775  0.0055537507550340  0.5715336372144514
  0.8598874616016584  0.8590773657526188  0.8586034361079841
  0.6466257233225813  0.9346263173033332  0.6414827383897377
  0.4428398824281048  0.7122163191744023  0.2705882276652689
  0.3599116426616013  0.0860646647631927  0.3517903264543612
  0.5094869797426109  0.4974279078005217  0.2101777848751925
  0.2101835479130711  0.6273001058793725  0.4986250125202327
  0.5853176477716077  0.8652499165566616  0.5695576248718274
  0.7886418343467624  0.0733197291452579  0.6409656827068586
  0.5041996347939608  0.0787374136422203  0.5020897995657028
  0.5748637580582561  0.1425586905466323  0.1424113615225919
  0.5760533848986678  0.2857479971434886  0.7146468645818403
  0.5737145958015013  0.1462110329317519  0.5708775086489939
  0.7171137155417648  0.5710369214490122  0.9971744559413613
  0.7191611223675402  0.8613620703177873  0.5726944600399875
  0.5797075399018052  0.8669299457898730  0.7159892243163798
  0.2874521633137986  0.0044555311592462  0.9982962244032906
  0.6487691368065004  0.6394450363596468  0.6441682437856581
  0.1443955501548290  0.0057736778899014  0.5710563647220561
  0.5016364804596916  0.5072533686569736  0.3554691240810252
  0.5065414638594948  0.0798170845779814  0.6475091428901095
  0.5737411832649472  0.1446668115455857  0.8570409294354956
  0.2149062846117410  0.2140617040801660  0.9282595496528742
  0.6477286269826534  0.4986548301167754  0.0671420935608503
  0.0005100057466058  0.2848887239013408  0.9996019009736251
  0.4309765561831539  0.2878491258345219  0.4291724788016005
  0.6497599148057392  0.6426461017922153  0.3564124668412891
  0.9989305747265995  0.1454608488052929  0.5712226352224841
  0.2148642357977525  0.0729867953292439  0.9305674095472817
  0.7861005627766456  0.0712940374771659  0.0717727033343745
  0.2856887419271706  0.4238591253888398  0.7181039774210285
  0.1427765149173290  0.8507061105836140  0.2739792714900899
  0.3593651920552373  0.0748354431757466  0.7882638073258664
  0.8575161629944246  0.4290745800874746  0.2868908186819741
  0.5138385765821407  0.7886738014528134  0.2082469367571372
  0.1425487172670820  0.8610914224359276  0.7178703845954758
  0.9995305095003978  0.2868301267059857  0.7124158586941824
  0.3585151779617868  0.2162074682252377  0.7880285033093073
  0.9989116127038525  0.0039881294538911  0.7160764564440616
  0.8561974375825145  0.4270282269667439  0.1403124517916611
  0.0722313074547972  0.3554378676104202  0.6441456438846034
  0.7856832397053564  0.9299482286545795  0.3578844220244899
  0.7884743789872410  0.7878082185330170  0.0691133995451988
  0.8579974227240216  0.2861819894701482  0.2855730169611206
  0.4997053293553504  0.9364896754225709  0.6434953882793006
  0.9979929152717539  0.8604060356737673  0.9983777647369113
  0.2148037418629290  0.9314493935570731  0.9301116239191412
  0.9967505916653847  0.7142251989533301  0.9968304124147452
  0.0732460033080051  0.2159632708744783  0.2122711441540295
  0.1415278445895738  0.5683493174172753  0.5755608013796341
  0.1456107174526539  0.1457563244971108  0.9990539168418777
  0.9993451691364729  0.7108360819535029  0.4328217310390200
  0.6453189276153348  0.0697194674409965  0.3564786559190465
  0.0689120169680285  0.4953469598814503  0.5054090294320528
  0.0642164679556698  0.6358652821124824  0.2009896401252493
  0.7864052304005799  0.9309971644838791  0.2142448294629603
  0.8578183964279414  0.5696583188242119  0.1392327329041290
  0.1414893871357210  0.0043036825187017  0.1420590449544052
  0.2392460136963112  0.7310581581326027  0.5312777768991340
  0.0717356194778245  0.9353722848725908  0.4965591203133400
  0.0717826816252674  0.6410799558847114  0.6446385325115587
  0.9291055785563922  0.6428014685140881  0.5006320516496539
  0.2142853817138871  0.3559387043863081  0.9281855730385740
  0.2845959436041356  0.7103368965870012  0.7232118270403168
  0.7868899674301448  0.3554952110980569  0.6431089120893321
  0.0718192206081720  0.3577748726902202  0.3560762870378343
  0.3598558567136653  0.3565239196775726  0.0699595475274467
  0.8580087462511324  0.2841981001233894  0.8558589751308827
  0.8575768342915802  0.1436904001953879  0.7127943432133548
  0.9287381983106228  0.4985115736738026  0.7856560800880668
  0.7869419160114052  0.2145879487447047  0.5004961762388718
  0.9292828488876708  0.2141516539804305  0.6431823911114640
  0.0713245516541881  0.0776006369665531  0.5025335673518769
  0.9288676731993168  0.3553812025487552  0.6434474075210335
  0.8579639013879773  0.2861554362526083  0.5710135791111552
  0.5037849771799517  0.7879342711272522  0.9248097334536677
  0.0695985596640394  0.6408060569253512  0.5047390172693996
  0.2142790139433633  0.3567566480492246  0.2112700749652850
  0.3538304005208712  0.9479023270792999  0.6585542996253170
  0.5735498135792589  0.4302480529245684  0.2855114255221659
  0.5034480979159366  0.2188669074667244  0.4993179756804107
  0.9295285682681403  0.7886379855884857  0.9293158181694482
  0.2135110341768117  0.4964842593137536  0.0666882653997642
  0.5750186016357087  0.0027446690181798  0.9967121071902979
  0.6518790196836303  0.7935206586870138  0.6445085597043552
  0.8600065876029724  0.0039493970050587  0.5718848535131521
  0.9999413769607728  0.4268173871360001  0.1411950898900022
  0.5061941737065210  0.4980469441962113  0.9260314879531470
  0.5757453831252691  0.4283948738478002  0.9980216712709206
  0.7877995620694969  0.3575335110001533  0.4987178429238565
  0.2137289561522309  0.2137700992134883  0.0728604239085108
  0.2873247309521946  0.1495981386906583  0.5715913260650429
  0.1390887070003115  0.0187925837056307  0.4314405020261241
  0.7190445802574493  0.5715306043632956  0.4276619892594803
  0.3245770434477623  0.8273480291955053  0.4925952748247067
  0.2971474483879945  0.0138200114496006  0.5660442177878302
  0.1434533956039386  0.1451304434576660  0.1435847523179816
  0.9999751654724879  0.1447129321635881  0.7133894297578215
  0.1350370376699498  0.7115215305942764  0.5768784081102287
  0.2892433565003572  0.9050610907468282  0.3908034941307363
  0.2168824838964447  0.2200097528772622  0.3553927350921960
  0.2180360458938688  0.0793736425301928  0.5021199888013882
  0.3566440478364585  0.4901453617634021  0.5061615236476825
  0.8589779415240115  0.8599942576908282  0.7155510646153970
  0.2159854982965221  0.9328289377123529  0.6426740522336415
  0.0647534599584280  0.6363624546954511  0.3591936745022968
  0.2915278171233167  0.9970237455862228  0.2917244423590093
  0.6452095851991212  0.9291021834665709  0.3571650008255625
  0.2177185599096995  0.0832416017001857  0.3571867718193715
  0.1359370353079085  0.7100147090214469  0.1333520764619365
  0.1442980641885950  0.2850034571703165  0.8589748406120642
  0.2871489227706677  0.7135682839923665  0.8608817206955568
  0.9295413216479812  0.6427880606203705  0.9275762534315716
  0.5748266110228654  0.0045750305942541  0.7130782257517349
  0.9283696386646069  0.7896333775599005  0.7855630651258482
  0.2115195756632483  0.4977645312637313  0.3568559915568867
  0.2170553326570684  0.2190449444141732  0.5008693545054274
  0.5747014976265498  0.2865941037869135  0.4280306482296554
  0.4320685727100702  0.8598362102223414  0.8569020744180394
  0.4314240725052673  0.2886257008734399  0.2828025338617915
  0.6451340048028056  0.2169462243496072  0.3568587767510267
  0.3585373726347750  0.4983241217412184  0.2065552331896233
  0.5031913594793435  0.2145184016736729  0.9281312112920690
  0.9283869077260902  0.2156342131703044  0.3561240839544614
  0.7161390044498344  0.0042651554211594  0.5720823242422292
  0.1254714519090598  0.8678858160233766  0.5881669593528109
  0.5078196095995691  0.0783116709659057  0.3509889680660200
  0.4994234762739980  0.9232744361970073  0.3571734050067584
  0.6458677258757139  0.2148937998873617  0.7858368953061756
  0.3589384303673337  0.0740058569367408  0.9288623164855729
  0.5744776321248168  0.4278738743429988  0.5708654823715190
  0.2870129769428408  0.2869989244389000  0.4276638509428351
  0.4282444563896445  0.2846323266893705  0.7155551042399246
  0.5029542841361037  0.9327382406024228  0.9251461238448973
  0.1434699537756436  0.2859609908820253  0.1417125335066951
  0.6454929529637766  0.9327443123258649  0.7857432092624289
  0.4254378181486079  0.8078374846074783  0.3994133641985124
  0.2863282182663537  0.1445594975618648  0.9998774376651004
  0.9997152342179219  0.5692684258473993  0.2833385297943458
  0.7877683954342062  0.6441353145704288  0.7854985510634257
  0.9978177636077640  0.0085391918763644  0.4329933911922557
  0.6446947713202789  0.9302367884250835  0.2167422897430550
  0.8603875867237648  0.8595764250911326  0.5703447329489771
  0.5063593435803161  0.4922247656099397  0.6463695093765851
  0.2163303191835431  0.7867020973656811  0.0730011455763210
  0.7163224346360746  0.9999808127670872  0.1431703160497255
  0.7158293956109081  0.0014463638785975  0.8560000435294278
  0.2184573692605242  0.6472407744891359  0.6392211981661144
  0.3643128421690640  0.6445612288224422  0.0695986428264012
  0.2849136702289305  0.4248352572924349  0.5724327814395841
  0.2010917742425348  0.7477326618003235  0.3314178575088471
  0.5790444770480231  0.5692996131629855  0.2826157464784919
  0.3336399710089129  0.6917507450392228  0.4631357046073571
  0.5178724929927220  0.6431126834900515  0.3443574892912777
  0.4247572722614499  0.8617041584189854  0.7114122646964265
  0.9286255727631944  0.2161355276405914  0.5012753749905710
  0.8590400959209523  0.0011428287090779  0.8582902920085935
  0.7178124346376301  0.8602584792789369  0.4278350589133545
  0.8588925131657322  0.7138042161109874  0.2841967102293241
  0.0678509311138104  0.7806639522081890  0.2073615410402297
  0.7182390549140553  0.4262225032335342  0.7141757996647841
  0.9970663112612103  0.7130808800874365  0.1385289742355312
  0.7181872530086195  0.8606625852344725  0.2850410106847923
  0.5720127010680733  0.0029492344448461  0.4263589625802879
  0.5745761079602165  0.5715121295846578  0.8562338789079480
  0.9276801794756779  0.0748208236475804  0.2132097719990772
  0.6446652551156525  0.0743723018513309  0.6408588369691336
  0.7877462276337642  0.3567449272619601  0.0708276988300347
  0.9274605324347844  0.0751128566704313  0.5018946996292669
  0.3588170617302764  0.7870307599704722  0.0755785366166386
  0.2821842021142954  0.5672094434001786  0.7189426969750786
  0.4322741154998841  0.0084694912678998  0.7170834397348965
  0.2876564275277825  0.1435496909213832  0.8590732574223756
  0.3577836845099307  0.3560969597619403  0.5002383521173035
  0.4128830389597773  0.7926004929583754  0.5969157209884248
  0.5125539223480784  0.7761993910980063  0.5101737908536766
  0.9996969279415872  0.8555550533545155  0.4262390992136568
  0.2122490469666062  0.9413853027193373  0.4940598883137195
  0.4336423797720931  0.0030814034391879  0.1408610099813157
  0.4306220739466108  0.4250992849347238  0.5730119599778233
  0.3544195858015727  0.6243713760036195  0.6537956751052915
  0.3013639995006128  0.0198434624917499  0.4298439470384304
  0.2200098658762325  0.4984636880265817  0.4981414766861225
  0.7157185846811144  0.9993419619146008  0.2857666620609162
  0.3588589635277546  0.2177234054435741  0.6434553084426941
  0.3605658345706450  0.4906886720900132  0.3471933299210364
  0.9968145322833318  0.5704422636712974  0.9967149205920596
  0.5005911297281787  0.9390221634293493  0.4981899369514579
  0.2877732752862201  0.4278239484624985  0.4257686828052299
  0.2827652971123173  0.8489484038456313  0.2634699205933805
  0.6477856130399586  0.9344714333560374  0.4990385938239248
  0.1260872081908884  0.6958275284565042  0.2708417117021213
  0.3060443555781008  0.7248055866918850  0.2556741534717944
  0.2142039167042253  0.6419937722067575  0.9283823310298238
  0.2927764882221902  0.6648821770268384  0.3580485747119111
  0.3138741732528574  0.8430320922883208  0.6246304514495585
  0.3574212168860784  0.4913489773352829  0.6498121344804497
  0.9996740411684131  0.0015052463290518  0.9998590938602955
  0.4329599735662142  0.1477864959428073  0.2824324455893599
  0.1371544721618253  0.5636151100483828  0.1340106158902077
  0.2870367601789193  0.8594825212453763  0.8605355289873818
  0.5183235392110229  0.8055362743566608  0.6466290489712919
  0.2873199800046725  0.4266954902522135  0.9989933007245241
  0.4317572259827800  0.0039140647156579  0.9972067558795185
  0.2122872206052014  0.9344302472442551  0.0684631407101589
  0.2865415931811050  0.2882282840574996  0.2828802673910593
  0.1474914781855219  0.0017988720910967  0.2924381934041567
  0.0677964448014323  0.7627495290540945  0.3453304429611564
  0.6480435891509055  0.4976061090943156  0.4990413763113326
  0.1447778863098844  0.0038117730439628  0.7149640280414991
  0.3985001086460282  0.9149120986348399  0.4338260118222689
  0.5130018854665488  0.6392095497259975  0.2062916890704825
  0.0694477240848835  0.4976377166811721  0.9270115571651254
  0.1433999164603712  0.5710695771894484  0.7148130196504164
  0.5082197303712069  0.7887503905716443  0.0651828740321727
  0.1393810959172617  0.5667924336621095  0.9956683565987723
  0.3890210433009823  0.8134643898962342  0.2100975195430623
  0.2864017181177828  0.0056892449350649  0.1402616395467093
  0.3593655629107803  0.7863495482984203  0.9297371293132107
  0.4390722675235255  0.5659035433697681  0.1351177643480890
  0.7173249951926366  0.4269598341452013  0.8567089394797266
  0.1319241347757592  0.7102196202340338  0.4385472364134205
  0.4312467116433499  0.2874417943413732  0.1408748945427023
  0.2853170514578259  0.8727123507662640  0.1367708930305278
  0.9276916928986519  0.3576472661961766  0.2131529892884539
  0.2144285656167385  0.3558832884648157  0.0697088706954366
  0.4349071759615621  0.0216016536011507  0.5835369610433518
  0.1429742538759500  0.2852774144156525  0.7151339935101897
  0.2869379248741473  0.1454334823355146  0.1416522091493286
  0.4338711984485686  0.1511276795144642  0.5765203978921767
  0.3568032725521454  0.0814100837926963  0.6479360597207626
  0.4312016266580125  0.2854989428676753  0.9992900300952445
  0.2149787364139267  0.2162995680081639  0.6438320818023455
  0.6454858117820889  0.2140541752293549  0.9280212466297405
  0.1418526912542158  0.5697665433427530  0.8573531694202108
  0.4305539591486003  0.1477342962046998  0.7166553355104273
  0.2864479777318268  0.2852970697965513  0.9998653823350503
  0.4327867108153299  0.4284377960754119  0.1403884634956075
  0.0705940110503389  0.3554256581497854  0.0698279425413968
  0.5753356399402852  0.2874881777930412  0.2845002247967647
  0.2123027134198475  0.7850968420693859  0.7904904638304127
  0.2157595079677460  0.3579003301737890  0.4991259325752225
  0.1293754496467748  0.5580472459737643  0.4384571706763082
  0.3587710859669819  0.3564596890101208  0.6446244806125049
  0.2868104460975248  0.4261715502654099  0.8583606736377146
  0.2868118762884329  0.2853779370232384  0.8588243240585776
  0.2886269953154652  0.5705592416503522  0.9987641773122121
  0.5744610973452013  0.2851564561330425  0.9989478752022499
  0.0667338505219376  0.6400357597459848  0.0646791364249967
  0.2869157224208379  0.1483619574774850  0.2824304893044933
  0.2153009345681687  0.3580685945535510  0.3559477296189775
  0.2130662849516385  0.9329319004158455  0.7895096122235444
  0.6462938680871509  0.6435643111624694  0.9254230569033203
  0.2870235408550301  0.2851367699461575  0.7160353166886716
  0.3595200786273586  0.3584130502712350  0.2118881954044503
  0.2868737717026567  0.0039173443054155  0.8588909392335591
  0.3670204616885621  0.0923432602532766  0.5007328447392232
  0.4305428684022852  0.1453526151368764  0.8576066848508610
  0.1434723769228129  0.2875142025588942  0.2840260711837736
  0.4314720557712381  0.1446718494652146  0.1419008567832521
  0.2019162453937642  0.7714871293362796  0.2043664043580838
  0.9999238961622314  0.2846352543155140  0.8566138392498742
  0.4315097462080602  0.0075487056476983  0.2836918237054223
  0.2141963005252943  0.0744312027850959  0.0704317835758656
  0.5033046917517495  0.0756556318737338  0.7870637177574643
  0.1429387646988454  0.8582016587980067  0.0006585086743608
  0.2740046119948416  0.6968044683752639  0.1289788743792918
  0.5219457263927523  0.7740152939916112  0.3577937562910773
  0.4500299805924398  0.7149213624497872  0.1364718412537298
  0.4290019004590873  0.4227777962390774  0.4274441494678566
  0.9306998403750489  0.7877996657490904  0.5013903483076603
  0.3584750092931003  0.4971213273228319  0.7868562825492561
  0.2084070953439599  0.4911533480910499  0.6505037368365353
  0.4139597931941569  0.6814208599115575  0.5627495299616390
  0.1403164625627772  0.4244428314931524  0.7176938632455491
  0.0007367422860149  0.2866323571862959  0.2846164841266573
  0.4313323488340675  0.2871119271460070  0.5720799666986334
  0.7168499663673644  0.2861365651921299  0.1422302321146478
  0.1434622123978688  0.4267284096887222  0.5711582638268027
  0.5733405656622022  0.0021852798466574  0.8555626135349547
  0.5011385847241286  0.9319963123858411  0.7842149947214587
  0.5031941713997473  0.2158101058738739  0.7861876213573936
  0.2135510866734028  0.0756444996878226  0.7882163339633207
  0.4352737482621817  0.1517772048626280  0.4244938447922332
  0.9998845200501175  0.5700605541301802  0.7151983032002267
  0.0671465069542362  0.9395277356154055  0.6490115970018709
  0.4313184411713957  0.1445354308501029  0.9992018214340744
  0.2876589481540444  0.8584943385793108  0.0013582565199057
  0.0710588080648092  0.3546329737413135  0.9282515559328061
  0.2135416437317288  0.4969468763965349  0.7876172753735530
  0.3594781558050119  0.3560423394215102  0.9284394234610489
  0.3594728995122475  0.2171525456431269  0.2121666178096271
  0.4397400270581910  0.0242636407792109  0.4179934750710594
  0.4305138499882367  0.0046062579872989  0.8579040139207286
  0.2202106154814685  0.8369337423865375  0.5542405575126643
  0.3599934381322903  0.9340989370334326  0.7897898437655357
  0.1448418245708021  0.1503185297474995  0.4287864803260438
  0.3918336669109377  0.9124456140242921  0.5590790151636664
  0.1433953485053955  0.1444909447043941  0.8583654476409178
  0.3605311202214667  0.6415343501860409  0.7858465386599958
  0.4318871681044453  0.8589218255178551  0.9967342805592381
  0.3586460860349275  0.2146508130265280  0.9292257022414209
  0.4310269889156612  0.2847898906181551  0.8580537426416398
  0.5069475577181929  0.9352453280601478  0.0641702414902678
  0.5039619608586711  0.0739860346453419  0.2123918596469013
  0.6452345233193882  0.0726687325181163  0.9269288760340827
  0.3599582167788111  0.4989731864820882  0.9278590772710067
  0.5043917721578337  0.2187717824655175  0.6456253217716921
  0.2879392940953716  0.1514803814224281  0.4283849565629313
  0.0561753441548442  0.9519273707624348  0.3581744947234109
  0.5036129094950664  0.2150653298738634  0.0713676413052400
  0.2862765883272353  0.5714748508146534  0.2778915542510533
  0.9284872692930775  0.4980453321214148  0.5011113905713293
  0.2138810924817575  0.4984840195447328  0.2092679361330922
  0.2062818982048763  0.6357982389744035  0.0618242807756313
  0.5725511192935131  0.4308863648964705  0.4277152203230625
  0.0674257373697672  0.4956764381762416  0.0668841659905242
  0.8585304892592868  0.7156469649729611  0.9977562773391587
  0.9281299278488950  0.2157065207583820  0.2141498911017648
  0.8583035242549444  0.4274515570078803  0.8558119837110905
  0.1442686712815381  0.2850556670880052  0.9992957330833112
  0.9271626685206958  0.4977577214081870  0.2127620346014816
  0.8592687679108796  0.7164754958797845  0.8566206809028128
  0.9999614780590494  0.1460010053360974  0.2841383782092462
  0.1884270425355848  0.6263835091527955  0.3721609664341869
  0.1428410111236718  0.0032790539081044  0.8583526922686863
  0.1445612757820957  0.1469018940269116  0.2848046779466639
  0.0741786459545041  0.0737237071073331  0.2156409521368413
  0.9956498273924106  0.0075061218124622  0.2804284985726949
  0.9285617176452320  0.9327003450823882  0.6447471970619939
  0.1445115415402193  0.1467281301160579  0.5718545990405958
  0.0005944060449547  0.0021787436965771  0.8574609491069676
  0.0721192485101101  0.0736493800941981  0.9290175089559857
  0.0691241941542891  0.6426669432054719  0.9279666037268413
  0.0711291865284865  0.3571238149802662  0.2119921667616058
  0.0719963298447315  0.2164753957967734  0.3561783285167780
  0.9997586415850429  0.1468385715181091  0.4294079891080684
  0.6453113635601520  0.7887787139899163  0.7838161779124520
  0.0001065115704868  0.0025428948925773  0.1422173659453107
  0.8589217323657087  0.5703352629235600  0.5722720219597303
  0.5747504049903651  0.2870565024575750  0.5704774885319245
  0.7898357459008287  0.7897887906411656  0.6436870836933338
  0.3597915621928973  0.3566092020919173  0.3537501719625832
  0.4320978826550351  0.4247844891951268  0.7164839388094633
  0.1429466188482705  0.4274802472107794  0.4283624487972145
  0.2161940153360241  0.0733723583451073  0.2155810886503834
  0.4329510258223685  0.5652392283736599  0.7186742620605003
  0.5081937803248759  0.6412443796398499  0.0657759771560650
  0.1423220240883810  0.0026319542773857  0.9986869598637500
  0.4327311608406448  0.7148968051117225  0.8563555851242928
  0.2833777364446626  0.0080220784119529  0.7208187638630010
  0.5174363869044390  0.6407624390617134  0.5198594926613149
  0.4006869310126795  0.5970998373216250  0.4865079915177589
  0.5833403350071097  0.5727586134153262  0.4290904511762457
  0.6507532493300383  0.7889900944107270  0.4999573073771418
  0.2141196297733215  0.8091947099514679  0.4407988867925037
  0.7198697225211081  0.7163616414736368  0.5735188423542518
  0.5066971272462319  0.6304153817442786  0.6465331602907737
  0.0679423008428346  0.7853792079010210  0.6476901591821822
  0.3594360265864674  0.9320707545247782  0.9283742348371585
  0.2124510959229347  0.9360702464681729  0.2071567548848785
  0.4400646462664747  0.8659699900957881  0.1260322094032772
  0.5758022225979031  0.8603152352288399  0.9952638661587836
  0.3613894716038500  0.9372950614208666  0.2036551993233476
  0.1559492430232584  0.9042424461428592  0.3932272058967602
  0.0010868964181416  0.1440046169377939  0.1434361011596156
  0.3067323680940598  0.7842518444467025  0.3731992785104514
  0.2086801786419518  0.7849478319335551  0.6567802627730026
  0.3157197257137035  0.7290116195879121  0.6142813101975696
  0.4326520344445792  0.7165681279862122  0.9994093653670693
  0.2148039657145657  0.2163918553860067  0.2118504009343921
  0.5025543900982549  0.6436435273493107  0.7829030056042419
  0.7171412748162913  0.4279734724760705  0.1405776482350564
  0.8580441407953254  0.2850012146859403  0.9996784992304794
  0.6454900891052616  0.2152993533636471  0.2129993668113997
  0.5041088683608181  0.0732886996486293  0.0703354052230632
  0.3582677228741866  0.0742722531095425  0.2127896789630423
  0.7872978545255807  0.2150656864678421  0.3561710207469748
  0.7891639531154928  0.7885369719121339  0.5003468906173829
  0.3589389968092978  0.2149014041271232  0.0710029497596830
  0.6460676274064832  0.2160349893277685  0.6421897616346993
  0.9305286672977054  0.9313445320379314  0.4988548494082354
  0.0711497293596464  0.9323138185476127  0.7865110156644777
  0.7190460591305740  0.7141852366434698  0.4294532039092093
  0.0712317556906421  0.9305808434175310  0.0704378882902399
  0.3603472578100126  0.2193250781685140  0.5002825786851453
  0.6453053926592625  0.3582097420442441  0.4985911253443337
  0.7172943391856770  0.4285704206171692  0.2855461102335041
  0.6481978998296827  0.4984140652066589  0.2126593815733016
  0.8579108472238663  0.0015306629434133  0.1421822049244000
  0.0726894149684614  0.0742613649816977  0.0705724196873437
  0.5033496546579644  0.0739577308882625  0.9272147656296728
  0.3598463393775069  0.0738065161946119  0.0706045824526840
  0.6446293982254855  0.0710446789622997  0.2140318129861308
  0.5742283269916588  0.1459924663082547  0.4267948071204615
  0.6447024548984270  0.0743248667827986  0.4989604319610711
  0.4986964304580323  0.5035144761046743  0.4975432298233355
  0.7169039869534204  0.0033409818569034  0.7136363740733118
  0.7892677921153137  0.9320112648523370  0.7861612350272359
  0.5742258103106265  0.1439383430272456  0.9992639427722987
  0.5804037660868726  0.5625419331057417  0.5752957216886738
  0.6502510560724629  0.6414190419978140  0.2102394411622435
  0.5743494863537643  0.2850594113545378  0.8573307337198488
  0.7172082379846346  0.7166722765689338  0.8548695352107635
  0.2867763167882468  0.2872324900571403  0.1407984878774927
  0.6485354989546253  0.4950050386909850  0.6453915488827733
  0.5032458395936751  0.3584195400450564  0.3556387959201438
  0.8576270316808852  0.2855990004717341  0.4289178081092960
  0.7177739298865959  0.2850397369127388  0.7136866824551791
  0.6457713528803818  0.3564584496431140  0.9275887375042177
  0.6465603097071533  0.3557709274269356  0.7859697399845454
  0.6458910951320987  0.3565844109764214  0.0695647998574876
  0.9291321882639060  0.0733850127689483  0.7853617821230109
  0.5771837288713644  0.4281757261624838  0.1398907011375927
  0.2867024953374981  0.4274739453700349  0.1388413534092235
  0.7170874892644483  0.4274607290626668  0.9985259147106416
  0.6460610902273016  0.3581912142387627  0.2138084312967157
  0.6471667969285858  0.4991378445720257  0.3568954515372202
  0.1412615222042467  0.7114001878271745  0.7176504405405273
  0.7189997532809704  0.7158589880487152  0.1397238525785790
  0.5723657586363015  0.9993007789297427  0.1449995752559427
  0.7876936348148036  0.6427092044575140  0.0682514601412523
  0.6455907819149926  0.3568497080252131  0.6425203098178282
  0.9989965146488318  0.7142345532274667  0.7164664636153502
  0.5037396284047149  0.3565471706836750  0.9281715155517457
  0.8574164345026947  0.4268583489797120  0.9982062624795952
  0.5066890152331852  0.4968001256553638  0.0665407067047837
  0.7170951223204566  0.5720203244803200  0.8552007248145180
  0.2927719432872338  0.5608988938086034  0.4091941436822015
  0.7881014631568359  0.2140971820702837  0.7848562812711665
  0.0714268179489724  0.0741280034466356  0.7853048381235608
  0.7890674999623897  0.6425234701455068  0.3568010763017738
  0.4928982520595843  0.9204237682120999  0.2222831142227326
  0.0683365436751120  0.7870344670878452  0.0682285799743103
  0.7171156908808174  0.2844713717524323  0.8565685451646234
  0.7878815267559962  0.4981144061846183  0.6436570281586609
  0.9995026028484062  0.5694399641955731  0.5740543666069619
  0.7166706871969337  0.1435983641279225  0.7131966304752932
  0.7875575109174386  0.2144875048087370  0.6418379144299947
  0.7878105296343384  0.2135803625322472  0.9279975892534643
  0.2873352304086312  0.5701666532919036  0.8578025192003805
  0.0698867747997889  0.7873272704132827  0.9290871128291609
  0.5042744048533861  0.2169407568901518  0.2120717218876928
  0.1413972004896814  0.7141764138429855  0.8587349245661133
  0.7161913213659905  0.2863809267812849  0.2857455192609018
  0.5762294706909536  0.1460371906183929  0.7152644621748684