Cr H  Ni
 1.0000000000000000
    38.6440714022689704    0.0000000000000000    0.0000000000000000
     0.0000000000000000   38.6440714022689704    0.0000000000000000
     0.0000000000000000    0.0000000000000000   38.6440714022689704
 Cr  H   Ni 
 1596 213 3725
Direct
  0.0250890510172124  0.8813933405342368  1.0013978602127789
  0.7484889429860050  0.4305000077226128  0.5493039793331752
  0.6421736783537969  0.4092195191177746  0.5158642294453790
  0.9949495166984157  0.8397629224937601  0.8185892699098574
  0.9484410591160556  0.6724026901360782  0.8836148047642901
  0.4709364345277955  0.6735117455372018  0.4603376438553324
  0.4610958399890587  0.5499035712458988  0.4965402407012133
  0.5048418797929689  0.5064937300939807  0.3541435143864843
  0.5140138413451224  0.5241724844169162  0.5188969901507802
  0.8652851407765825  0.7555874992013845  0.7022218321705419
  0.2675598817808042  0.7580941574532990  0.4881511561496004
  0.8322181751819178  0.5304234828042934  0.5634586713438571
  0.6047995962073242  0.4448181521521788  0.4061365161542216
  0.5426102081874660  0.3992245647381258  0.4632089124159431
  0.6343233451618872  0.2548572254830457  0.4363142987281192
  0.9554095773084184  0.6388364780609626  0.7778365042679747
  0.9217642031741424  0.7081542209803992  0.6951316349133212
  0.8074806549719862  0.6667759177511853  0.5315472430106352
  0.8201246935994674  0.0535090344842006  0.4030612620980921
  0.6718447928332923  0.1308354321114745  0.3808146354645482
  0.0619661322989801  0.1818746977678872  0.6445136910453675
  0.3732462344751223  0.6897890805234940  0.6959162651774591
  0.1868225072252938  0.5424482955548702  0.9521034514028633
  0.9547179622068276  0.2175929995319704  0.7693361169633730
  0.4677718936771708  0.7666659421833193  0.8256247745006452
  0.5335033188338660  0.8779799276530970  0.7629962696061565
  0.2396991841811908  0.7809249543134424  0.9625916451277252
  0.4592006717875133  0.8097449024899829  0.8685619208705017
  0.2893289939568969  0.8149941989770951  0.9399237430398167
  0.4326113421746592  0.8352018723449652  0.7440400557807404
  0.5016180822534866  0.7821423159832501  0.7210268384636855
  0.7907889632547906  0.8112220224814037  0.2476219013541266
  0.2630703924199561  0.7545507724568511  0.9220446795089794
  0.2735680494337462  0.6698091115538415  0.5701393053787563
  0.2793870985886742  0.8141874040591737  0.0006737126786279
  0.0420615940901740  0.5581314648399688  0.6307696152268562
  0.3652975107794437  0.7047649518534291  0.6346938314242425
  0.3070764178684921  0.6971626387315603  0.6743739805740374
  0.9992179170824943  0.6561335332575078  0.6518720182895096
  0.9608928256887997  0.6063179343516126  0.6732458839841010
  0.1844970729678630  0.6401396918581612  0.7164280663581222
  0.2494421280668242  0.7687273545468738  0.8641952350029191
  0.1984021554597766  0.7294381487589878  0.7983810443835228
  0.8371291324977956  0.6898489325594144  0.4141627167405559
  0.6058587842954101  0.8998032645487509  0.9521765124218159
  0.4036991989974569  0.0473377148411534  0.0162323730297496
  0.8851434477662478  0.0706101878322664  0.7156081336811805
  0.2955546531928739  0.5403444734581877  0.9374493295903437
  0.1410651832707056  0.0506025658823250  0.2823346647651895
  0.1342036150900126  0.8995037894572574  0.7461371988772111
  0.8011309970367050  0.9012725582962481  0.3399074613477732
  0.5908626524436152  0.8879709452043133  0.5594322947660737
  0.4314649270305981  0.8894729346318955  0.3905200334603851
  0.5338675954939183  0.8597147494772702  0.3176654201466480
  0.5402990656111647  0.9962051466628175  0.6832977225796942
  0.0964790915769732  0.6034045544937858  0.9136681216195022
  0.5802836126773396  0.7840698594101881  0.2976562657635369
  0.2032432169464820  0.7186256996962149  0.0776509922122000
  0.7094843605665904  0.0091148430210105  0.3265762534631858
  0.6772681416065639  0.6898918892880603  0.2426219133878167
  0.8714867984679219  0.9986942672200623  0.2576651336533161
  0.9693870925624807  0.5142672720162829  0.8882890591616222
  0.2046764161424327  0.1540665331879855  0.9767827804187144
  0.9474275321556651  0.7343064559435453  0.4980777820697599
  0.2814002984961693  0.7771079266218646  0.5977223027937765
  0.6860323032456039  0.7973990954981747  0.2727321472545482
  0.0133369759249590  0.9039667716028494  0.4136502952994392
  0.0711273598910158  0.0860062508436258  0.8907737259466852
  0.9030133494199679  0.8567170727741373  0.3305245359842167
  0.4920919862970713  0.9811183071622104  0.3833173835863667
  0.0601954166926391  0.5325872875344235  0.7490718973921726
  0.1438502047092451  0.0172513969426605  0.9373552387454380
  0.7768010026954089  0.1316018196185140  0.4157992405663311
  0.7045541866503305  0.0157688818574253  0.5548837990439210
  0.4742677818475102  0.6376434885125754  0.9652797722044572
  0.0931939805713770  0.5958141819381676  0.0777354721506063
  0.9041740972762408  0.4602685558654296  0.5966465390070484
  0.4695212884726499  0.1849604604853667  0.0566199219818204
  0.5155123599868237  0.1064186839611563  0.0355285089773947
  0.4384493390830097  0.3516590358344324  0.1579096005249831
  0.5311472556851218  0.2429948004776843  0.1705494004376092
  0.6984567865159880  0.9452445214008931  0.9173341763533734
  0.8823750545718019  0.2711401083939286  0.7934599120864513
  0.8983146928305720  0.3447893256612756  0.6730977436470109
  0.2437430195186299  0.4701197611652184  0.0503488374007110
  0.9171498575974951  0.9839588643438555  0.9366844317284267
  0.9682268191320363  0.0396339956365081  0.8638226190638389
  0.3123623305429073  0.2679218949426658  0.0354553609894453
  0.9263074335497863  0.9941204845491660  0.8558844035310682
  0.4038712979270107  0.1193621104551376  0.9372988099220640
  0.6973159597211007  0.9437229927375043  0.6404065988555768
  0.7985162726879291  0.8726575458254877  0.4643808740463527
  0.0928984066402492  0.0899329627173037  0.9557222559900109
  0.7313757945993429  0.7347764712107505  0.1919752853985534
  0.1696085329488692  0.7674660815541414  0.6130356376642864
  0.0129755519228895  0.8055255552142493  0.6202864723036169
  0.5093553005483835  0.0294841308741038  0.1123941872707115
  0.2865447796826901  0.0513021234911460  0.7454119075038602
  0.2550499853448099  0.3379741023262710  0.9082442609056561
  0.8382459448362434  0.7371396665118168  0.2296504023061148
  0.9944903677673901  0.0673699506997024  0.6980389694266945
  0.8842339952542630  0.6283142652660495  0.1045765180594762
  0.0167783123451680  0.0443433995349632  0.8290174790617040
  0.8576716060119213  0.9524780085921782  0.5191501351222909
  0.8554188434476356  0.9192429432616094  0.4122846828051834
  0.9498552245328840  0.7946145338474020  0.4815725039798232
  0.1784730368128963  0.8783682391996608  0.5960865536874023
  0.1609109184329241  0.2939421431460156  0.8811657623445326
  0.9189731186718549  0.3773611159433215  0.0792517958214292
  0.8663264687035750  0.4294476018654307  0.2192781804066362
  0.0714238612551539  0.9649022715024312  0.5329518769461845
  0.9153079019007783  0.3978518979347418  0.2496928649675023
  0.0969634516754405  0.1463565287732690  0.8311143621292495
  0.2303796838898708  0.9547283697756954  0.5400923843454115
  0.7976861908370063  0.2919893576006186  0.1890597769611946
  0.8024992371869938  0.3378001924416560  0.2304160769105624
  0.1453392495036333  0.1526243461126556  0.7898083598055822
  0.8666529994181755  0.8969823203486699  0.9980794894507407
  0.2374368664177559  0.0220297616877089  0.5805318810903166
  0.9544877063957790  0.2761543323157692  0.1946861511819613
  0.6606864142781022  0.9845774659612523  0.0051444512987144
  0.9516810567449367  0.2623830865816980  0.2556051262883989
  0.1449015161818917  0.8561211403741849  0.7010271526551989
  0.6759509099958929  0.6586068999555378  0.3653437159802284
  0.1131867062386748  0.2211649421099422  0.7093431859653110
  0.7240021683809416  0.5978890611380410  0.2853722948094050
  0.1770484919940638  0.0507637816225832  0.7654277911502770
  0.1870562169890083  0.0389535079431230  0.8291305189372720
  0.9486857282853354  0.9526817647557388  0.7820202600321464
  0.2281796236975920  0.7594000928249469  0.6355572764227498
  0.1315091343891712  0.0574804535658336  0.5246607519653527
  0.0096899521597103  0.7629620172401551  0.6664203141063612
  0.3435635800532483  0.4097795769427233  0.1037912213220597
  0.2577475096205769  0.3203086499346616  0.9631459826510285
  0.0964901515920648  0.8176042956742455  0.6338524038161940
  0.2709492791478602  0.2914566633850476  0.8578280211797434
  0.2338013956086275  0.2401726108701993  0.8556365833511260
  0.8608686919811240  0.6208888413841007  0.9253706157963503
  0.4324254143307927  0.9412869076582485  0.2057797945857430
  0.2109732744323455  0.2659294046275762  0.7332685503598546
  0.3091548973709350  0.3096572955267212  0.7599631730921145
  0.4788350425252790  0.8620334839863899  0.1877787252401667
  0.0744198344773865  0.2039846655993310  0.8119708963058857
  0.5835779090378314  0.8441656842575727  0.2822803019323114
  0.2330648632168655  0.1744437406405263  0.6456808786943633
  0.8360364014554262  0.7216127918890201  0.0624626190258530
  0.5961027516798407  0.9053328673466406  0.8908949177886828
  0.6472114270016553  0.9495240899611924  0.2128324232588847
  0.7411632954405099  0.8267814775814977  0.2827776405200375
  0.2089703962797219  0.6648495469767306  0.5536970330085442
  0.3973892227086371  0.9690546319761136  0.0955831854824758
  0.2564864422117930  0.5878586291880246  0.6965902116588107
  0.4428430625274536  0.8915633419390233  0.0736802758161134
  0.3306690454465190  0.5690000217011517  0.7773606879256360
  0.3430187368553995  0.9430665166865695  0.7489092429132184
  0.2670967684432746  0.5763231684292756  0.7560223505226087
  0.4233400708788681  0.8494043576902954  0.1162764376175227
  0.5203967018787699  0.7562962793730821  0.0626814936338095
  0.3587327782383885  0.7254509653045154  0.0190526801683381
  0.7273257670909126  0.6587207950008039  0.0416179104867361
  0.1697184019509308  0.3470617694813223  0.5931664361992921
  0.3035510656636909  0.9245262110322303  0.8542112058064730
  0.9281399963145782  0.4872243985919993  0.1060698157816022
  0.3064152228513621  0.0079163959513427  0.9412680907416283
  0.3424506207856656  0.9722729707882680  0.9616826554724863
  0.3368999331958066  0.8940591367100098  0.0416789603872603
  0.7995193918730049  0.8875707684159376  0.4019159357614658
  0.4680746891106277  0.9625151371477005  0.8982281362871757
  0.8484000156349044  0.8612085475932173  0.1984187905200817
  0.6882520786176821  0.7959910331507040  0.5038405827363887
  0.7866845389569174  0.7192317346397249  0.3879157556016081
  0.5292728251019673  0.8650187889434616  0.0906394559398368
  0.5547121886072647  0.9700448954245844  0.0312364702541119
  0.3485886778459548  0.7456831482722099  0.6804508005872527
  0.8466830646816798  0.7962528972073936  0.4442325556360043
  0.9978504648684690  0.7051910445348246  0.5251166888040565
  0.0795824814561523  0.7101757911478545  0.6478387874736097
  0.9296669244698126  0.5349873288212911  0.1509282825879551
  0.4422941673420617  0.7029992102137574  0.8847531971125936
  0.8277187973439057  0.5825661628245206  0.1542681265280773
  0.1291020836890442  0.7470009472582834  0.7135615884797174
  0.9337872505522907  0.5680215393599531  0.4913073486563987
  0.3063098141640025  0.6093813876895646  0.8533730950989586
  0.2699561286203260  0.6763198131059718  0.7768801324862973
  0.9251874746519118  0.5276177144371036  0.4435324390840704
  0.8965369441420236  0.6120855120551716  0.5874317682470422
  0.8359483626348152  0.7061638769942210  0.1220215310201957
  0.3676612081147307  0.5694038233060212  0.5771752804516218
  0.8804010882688778  0.5261721815007696  0.4828349493839367
  0.3392353367973354  0.6486805231860072  0.6674112191415421
  0.3158857189547714  0.6741205947587523  0.5284844857803629
  0.8662405230694304  0.0262732086883011  0.4330160260046519
  0.2026570574552024  0.6035535844498683  0.5170606310725347
  0.2124833731757963  0.8714804590394372  0.8951705962869112
  0.5503492261502033  0.9251734434796783  0.9851353073753538
  0.7423168414481005  0.6612457500548259  0.4949702181661418
  0.5751633420151093  0.7533874805220184  0.1914423512497742
  0.0910471472454912  0.3297752999225750  0.9619389549255298
  0.0438258320307810  0.2303539273869308  0.9595240986150179
  0.0972646887033561  0.3985253767416501  0.6155107632864962
  0.8723036408977268  0.7094700885592933  0.6630220865488703
  0.2294479240637465  0.9679353474317349  0.4735707393741806
  0.2186144687258903  0.8577882950527549  0.4448592003490611
  0.7917113863173754  0.7893364423175750  0.5426978416829187
  0.8430433132502106  0.5052623964167819  0.6808356164677309
  0.8507391156045061  0.5286299580872122  0.8447411356816489
  0.9545649699556950  0.8585364827288904  0.4672039269022098
  0.8323526036567719  0.5508153274328594  0.7195857389215827
  0.8401550980441865  0.2085739595350931  0.4630269765452472
  0.7383278640009394  0.3456693908154093  0.7316418353860278
  0.6659288357492580  0.3981897445815728  0.7552593334976702
  0.6389391900068726  0.3041387924422234  0.7084978906449438
  0.8828213145707425  0.1294614604286190  0.4515756487012793
  0.5899282397859617  0.2667367821775440  0.6444227175355914
  0.9271120238821035  0.1089308580444932  0.4860950589707935
  0.6402046617286079  0.2709067191573363  0.6042889357900347
  0.5990967240777502  0.1872101280115707  0.5438411846321916
  0.5618305849122108  0.5220847845968890  0.4238163862232778
  0.7727938634904219  0.5620426140211807  0.9654845457697410
  0.6617096703742487  0.4576902128926469  0.4769645277283424
  0.9349231612466252  0.5641616055455186  0.9689787326588557
  0.7372841011852707  0.1954499998732545  0.4897092630171890
  0.8202814841587678  0.4654124091545350  0.9040075118825504
  0.6367482492721709  0.3149104299842254  0.4191199528697989
  0.9881730528359648  0.6102024660217441  0.9717608634324726
  0.9359815540555807  0.4559719249980074  0.9437890393212593
  0.9072229331651794  0.4009486852173710  0.9464063526036178
  0.8188545088725379  0.3117588634757636  0.8766853324756014
  0.8072795263289602  0.3575686485047021  0.9217153245019222
  0.7585624315163407  0.3211635141692477  0.8548721058590261
  0.8356981669267106  0.3862810767961658  0.7564681767099426
  0.3962699734680457  0.4579880572524025  0.2781850805483326
  0.7434444012948843  0.1479111733844895  0.6485265406966471
  0.5842010094513543  0.2482131961830258  0.5344327260092755
  0.4441766455133819  0.4292092633966823  0.3044128311497358
  0.1358086585471255  0.4082411430766584  0.0279333848988470
  0.9222114686319025  0.4754706313359829  0.8232812925302033
  0.7721661445862380  0.2409803503216204  0.7091400772322846
  0.6860114141740129  0.2502903665193025  0.3395289335306071
  0.8461120101039280  0.2711816358936069  0.4438745134179754
  0.7755362289902784  0.3952829517698300  0.7366214499539708
  0.8459878163278047  0.2819934644172256  0.3836561493848424
  0.7282921225757064  0.3572613159842190  0.6709032971250967
  0.6797082641638195  0.3180072150800551  0.6083915293140156
  0.7426581624399680  0.3084554377812481  0.5105108859919392
  0.7379565134292192  0.3173173744230609  0.5673997760934059
  0.8694833908998043  0.9859543872382799  0.3208351877447196
  0.3641628061776247  0.6894140758992260  0.3676962159503059
  0.0291454191815295  0.5027838593739004  0.9105749473236491
  0.3713836727903305  0.7967146741883659  0.3974086333881044
  0.3980758593497301  0.4909329718309950  0.3809661684722388
  0.6486084687836849  0.0540395568024571  0.9229748238460933
  0.6713310558885551  0.1009003008452918  0.9752973814783907
  0.6170772907758102  0.1076491154759656  0.8983043925447247
  0.4986083712072386  0.4456161534730058  0.3732789810818768
  0.6255443582449123  0.0334081701689541  0.7481777722596760
  0.7260976008587362  0.2027153509390515  0.9626487831886007
  0.6670166260295123  0.0423851356855504  0.9879593272420206
  0.7679183527833413  0.9972070110172715  0.9217365415026622
  0.4097923792562222  0.5962447990816805  0.4096783209431198
  0.6429469749966559  0.1723990273059345  0.8416532187669455
  0.7553778723061227  0.1351681802971961  0.7149092362727189
  0.6046155611681864  0.0907578099869959  0.7319039843799302
  0.7073444249532876  0.1025188374503809  0.6496363373260875
  0.6239476204560658  0.1233441193277511  0.2431703151469689
  0.6065299430880339  0.1251776602532570  0.5468160749527341
  0.4406360715644260  0.9536577690297974  0.6636352990885470
  0.4476259149292209  0.0268103903746932  0.5260079796743665
  0.6438678898125645  0.3388800898035349  0.2898147470121915
  0.7884865870170711  0.0959197168154976  0.9053933827811961
  0.8047602762200816  0.1713069896958155  0.7837919028719655
  0.6935707072591734  0.9035411088861712  0.0668346623893707
  0.3235547415458769  0.8558884659888986  0.4813106648766856
  0.3080289253968319  0.6590717019889994  0.3582901234171249
  0.3488818144200744  0.5199077227078941  0.3552629926929526
  0.9278662633903489  0.5776878141550960  0.8408279709134105
  0.8826019875264332  0.2358650596209182  0.6876173512069568
  0.2690788413484267  0.8212133956737093  0.4736183038807402
  0.7016611162885222  0.2625213127392765  0.6263621489905066
  0.3697569868077583  0.7176185975501115  0.4736283397624596
  0.6932714717004764  0.2611652178477736  0.5696667383596828
  0.9189900692494326  0.3211966505647411  0.7953419386638662
  0.6133626605205776  0.1421350066081171  0.4866668512245695
  0.6712159131991227  0.2014173839113577  0.6833088175685639
  0.4914677795390878  0.3669955252232963  0.2270490429041336
  0.2618265865653588  0.7525755208096296  0.3166410091732443
  0.9316940800682637  0.4632993169002448  0.8843058614996098
  0.6118326566477771  0.2094454783615954  0.6607692358304883
  0.4833870550969065  0.3056761486043639  0.2475928809919113
  0.6248264562666145  0.1624216467378041  0.6026578256295040
  0.2163766638861860  0.8279734677771367  0.3370688627294047
  0.2155353977059113  0.8112938355152469  0.3984351065024890
  0.4062775971786510  0.5832613432473726  0.2426577272920256
  0.5625928651504138  0.1159504472087744  0.4118975918670715
  0.3499592188520613  0.5357822130117856  0.2940817854564626
  0.5544108757849547  0.1536526877028825  0.5213979446152630
  0.1653919282434406  0.8424185307459712  0.3718160479259495
  0.8334174775748882  0.6443269407188872  0.3682304534946682
  0.7735552857351125  0.5755677379024827  0.4821064652828233
  0.4554447789112689  0.1743014492407269  0.6053466283399116
  0.6091117430269640  0.0903509198469276  0.4409546427584759
  0.6621534994730705  0.4918873342037093  0.3537512224016870
  0.1916364428378674  0.3855136922355054  0.9960860823681275
  0.4190249916957346  0.2772558824741186  0.6339481359460100
  0.6354324584562856  0.2348720977793599  0.5011396411952671
  0.5247427524365259  0.7210819395245176  0.4105554944738718
  0.9316590858327896  0.2407737721746037  0.6461494237578833
  0.5414532385284171  0.9157558900597271  0.5349915927943010
  0.1864539192388121  0.4245352417759821  0.1020305155220934
  0.8267961686061208  0.7287277033205565  0.9398986229295906
  0.3704821980149561  0.2357728770793206  0.0659840558359961
  0.8218741032175485  0.8619426812436110  0.9770687564886104
  0.8546651742415297  0.1744952671320361  0.7439052999518720
  0.3851237735689633  0.7488037580289201  0.5813357427932165
  0.8448274147326670  0.1544671662147335  0.5758469865246635
  0.4350328431606972  0.9168171893989565  0.4994795449560831
  0.0033299418813981  0.2563685872749605  0.8356208366863186
  0.0272647038737929  0.0240869774518547  0.3738050649510869
  0.9346846844231159  0.1104374368630081  0.7832537139360544
  0.9652596422282527  0.1436330596827157  0.5441363249174511
  0.8321364120671602  0.0312853073743539  0.6506026458118438
  0.9957725648075260  0.6943134183775734  0.3544969002454894
  0.6527712285902246  0.5781015566472014  0.6619484715986512
  0.8232487461650442  0.5378510771232189  0.3400969195166093
  0.8259576078126589  0.1464218015404717  0.9056393345519336
  0.8907316306114924  0.1907140240770782  0.4292594697406583
  0.3765567325349491  0.2741897435540074  0.1118100996650120
  0.7116465360844229  0.5687475966259142  0.6808545156739512
  0.0353470060354072  0.5203401575728333  0.4710998875447510
  0.9006252901976132  0.2986519413376627  0.4578130915806404
  0.8746757684043798  0.0182851092607794  0.9580322505067713
  0.6309841945300734  0.6181349391094668  0.7388739370828548
  0.9864107608389884  0.0766005149313481  0.9814410374078398
  0.6390122881345952  0.6026686875452089  0.7996537386423029
  0.9958708269821622  0.1839074087118457  0.0107940745722026
  0.7366055917589350  0.6449457787970244  0.8211557709735799
  0.9864898445743818  0.1478082974882275  0.8477573485756469
  0.7970738514423629  0.3494492137307590  0.4656269481820489
  0.3074363156685734  0.1388812408709414  0.0741461069478835
  0.7960622940814340  0.3346755097880779  0.5281776107622813
  0.4608744262409835  0.0770580461816472  0.0243862808343689
  0.7909232689767405  0.2390612776213834  0.4384025938238489
  0.9332856928413004  0.5127094556137286  0.5139134657899308
  0.7288717796851143  0.6816689379475224  0.9204819408906826
  0.7724301228574378  0.0569574428631578  0.9649091880776116
  0.6914133264939730  0.3955646917201959  0.4788422085332718
  0.1491380032013990  0.6073939641100663  0.8973677487181710
  0.5621112523981763  0.9727695299344606  0.8129653001906202
  0.2254583500288989  0.7051945449658746  0.9195677475331164
  0.6803170845153435  0.1913391643383901  0.3583229017830009
  0.3812514506143783  0.9033071329924387  0.4281722309016561
  0.3379100330725661  0.2699759864135848  0.9477026344892562
  0.6077203845375097  0.3655196946295851  0.0248311720579847
  0.3296798236625921  0.9355752369573918  0.4033042689747264
  0.2797895028714149  0.9509275539521411  0.4391154123177806
  0.8271766092322552  0.0803337329292883  0.2745908837548234
  0.4955225401575763  0.0933924315731663  0.7498755175732548
  0.3857468278265325  0.0943313800622074  0.7688383749322172
  0.4840485393551141  0.1384600309743090  0.7933688098215393
  0.4733888441016927  0.1817546396413522  0.8370614113436183
  0.5654950705006987  0.0762574466396573  0.0602792400254259
  0.8351112788325483  0.1402529040442970  0.2557393824729801
  0.7448040573591695  0.2113785635051656  0.8771978549395668
  0.5215815000514162  0.1721100667054312  0.0207309552383844
  0.7274714618505598  0.1273497328091406  0.2819174113881688
  0.8883618560745495  0.1568877791261904  0.3260693314085624
  0.4200145966795303  0.0246118719481740  0.8517322337669381
  0.3571390695385874  0.0302395153397148  0.8287280042167479
  0.3523663490144461  0.2046460299932306  0.5032349938428420
  0.7296482053734155  0.1399214819410416  0.2181697967588731
  0.7476356984918173  0.3395581154002995  0.3255600745122584
  0.3213049971640683  0.8275424165634062  0.3739987116124122
  0.4852826923904137  0.8711664300030610  0.5841867811888443
  0.8704810173139547  0.4759212953131201  0.2622112706016772
  0.3320603301641594  0.9871677067197373  0.7925538971416181
  0.9110219347964942  0.3531303413807214  0.2071741332131186
  0.8973886790726838  0.7814342705545906  0.4094811379481367
  0.9066501828161926  0.3391696579594664  0.2700328304449177
  0.9575240886329819  0.3228654366609498  0.2374782737231793
  0.0573696008447087  0.2615554395816949  0.2948511494088870
  0.9645705533159844  0.9332391474433247  0.3864954713176726
  0.1110708990557644  0.1309337068243991  0.8979285962772948
  0.2871009317448145  0.8184158689774605  0.8719079923856171
  0.1736418033960606  0.6513543923222549  0.6564043703010956
  0.7365837356087065  0.8125090567572800  0.1135980086007119
  0.5838294847238067  0.8934351968566218  0.0979449963881438
  0.6404700528886881  0.9068144531566380  0.1683621127947024
  0.0679092311126379  0.3360868348454639  0.6754896369535569
  0.9162069707858815  0.3259892527045776  0.0294362426708014
  0.3980410784996520  0.9877495484699237  0.0327234815800788
  0.6485190445571277  0.9654837983921098  0.1506845743066771
  0.5612240044929181  0.6256068684427378  0.9925585360703888
  0.3386069524013632  0.9215022981588026  0.1471832319838424
  0.3612099528578214  0.6197292015465475  0.9885433139081062
  0.3587209301424693  0.6739269425198011  0.9717877749721603
  0.0592510590892996  0.7692311211060658  0.6263260806017622
  0.4995180116344866  0.9216988750768513  0.0828896093088498
  0.1060273717853477  0.5723909426417270  0.8118348336376308
  0.4869766261079995  0.7114075573986511  0.6198278725004015
  0.8424342195659590  0.7810027967640879  0.2748963141229956
  0.8711704591991232  0.9861721856221023  0.0882072539076041
  0.9459592256549457  0.1837359738693939  0.1071010582233839
  0.4183222850302442  0.8043161718935709  0.0716509244607306
  0.1779171126785513  0.8202073830057245  0.8844685674397387
  0.4696990877308513  0.7547098331722292  0.1568987173565838
  0.0054063483189870  0.8573627007982971  0.1395317849569170
  0.8447153205564838  0.2282336472219764  0.1141490955012179
  0.3711946113082168  0.4868869427487940  0.9197732675766673
  0.9428205348680783  0.7035972069471466  0.9894212990039689
  0.9392287541434781  0.6604196384339275  0.1141900294597807
  0.0271780547656044  0.9442952902955444  0.9829589911097772
  0.1447920579869713  0.8868459473443309  0.8069784460945336
  0.3465878424586279  0.9668990745350965  0.1908400976640841
  0.7882972734621098  0.7822258928537958  0.1397966546461123
  0.7979105424688151  0.9039515708205323  0.1041868057388860
  0.8905244540017944  0.7370472569635902  0.1325466666903256
  0.4405131578882988  0.5681804971887460  0.7594531201257438
  0.4497830258827757  0.5560895849211404  0.8223057907636017
  0.2238438222661773  0.8383828644053963  0.0404394163759741
  0.4602233418291676  0.5443568925170841  0.8830154722575908
  0.8829737423357141  0.0924979225130210  0.1139108730256748
  0.2804604915985233  0.4642143368635329  0.4776942789099954
  0.7636392010517216  0.3946345025046453  0.0753328563572251
  0.9275475864680816  0.0294378436752968  0.2700738550372928
  0.9418099062549427  0.7405383800816655  0.0341727681769681
  0.0358680823119502  0.1179363386489733  0.7013540563363092
  0.9676394086962278  0.9649458887865535  0.2593333658875155
  0.0505800454862597  0.7090436590440711  0.9754726059268255
  0.1042314652002146  0.7038746065651735  0.9378353865054982
  0.1636228258067720  0.3592622256592615  0.5331097208274653
  0.4520628801814431  0.5251638728618057  0.7166092833064470
  0.5205413610990772  0.7384179151524709  0.1208809615962899
  0.9786974691940663  0.8624526400755571  0.9233494283456477
  0.8328312087790603  0.1345604501494825  0.0239795556902064
  0.9781290493635391  0.0022083501522265  0.0630841783006491
  0.2455755569673668  0.4471960330470712  0.5957861356806563
  0.3215385358178899  0.5505237446136790  0.6157545285912661
  0.1832149240492738  0.9273164098895105  0.9804592172531461
  0.9537741085938511  0.8597712072591278  0.2336253082922459
  0.2380411191178004  0.3276189323586385  0.6763288792966560
  0.2369357639502887  0.9685037352190178  0.9354713487046757
  0.3852046889713618  0.8165220356191050  0.0198487222538718
  0.8942252162701462  0.7969465764735025  0.1181168750335024
  0.2880154758093985  0.9254900739654727  0.0204405018187827
  0.9332076901868593  0.0780321281283153  0.0794095271206550
  0.3603672797571184  0.6083176433103846  0.6160449498945560
  0.8948088698715608  0.2134462861135159  0.0780900446751427
  0.1452959281151248  0.9182295269924572  0.9178106952217335
  0.4237392957200989  0.8143905157486101  0.2400606440652847
  0.1825334687977788  0.3905264643280096  0.9297873692288733
  0.8777650140359612  0.5190425926711291  0.0765279629343499
  0.7679243087444221  0.4113982328505074  0.0010166951670961
  0.8724737759700808  0.4084795831261702  0.0501240399011853
  0.1495331066917115  0.3060619445309269  0.8200433998034132
  0.8268774721732970  0.7966568058814285  0.9842314818930459
  0.9335023019127948  0.2752448224994261  0.9754960514856146
  0.3869209827839853  0.9796090769976704  0.5825264665372610
  0.9761902037697189  0.1254053115023518  0.6810882149232785
  0.7690429544554547  0.4619115119568695  0.0457322293833302
  0.7626789948096255  0.3561638624931758  0.9619270074019340
  0.6299317750836394  0.8156173683016993  0.0791016201417798
  0.7807394048581369  0.8290779963960889  0.0065448910549365
  0.0968608943558072  0.1398451804624533  0.9973697687001002
  0.0850799231654887  0.3449975911078856  0.9042338408843479
  0.5687452060164429  0.8006679299342491  0.0072578619930242
  0.4472319937578077  0.9360512644483552  0.1198807608547414
  0.2215722792156233  0.4390944821371356  0.9328931862977019
  0.1619509941804174  0.4459009925368757  0.9119502063224542
  0.0934803010817378  0.4637852574771613  0.8276541343682787
  0.8230577775326489  0.5209209925989065  0.1725813586188016
  0.1178410966190330  0.0915911893996147  0.8518895985018846
  0.1364234551696775  0.2333197102459626  0.9362826073569915
  0.2807206030746316  0.4319687832498671  0.9552069063725787
  0.5029172530004813  0.5328978819286356  0.0072202362286228
  0.0807853704911151  0.4245287274536780  0.0647106639725046
  0.7586029720027883  0.9614139050017854  0.1823722749938967
  0.9281556324711120  0.0346865309280065  0.0345366103120495
  0.0678677899052388  0.3061667123122838  0.5689778443051280
  0.5395228212841435  0.7142346569080164  0.8018094799611010
  0.8499075574876721  0.8906882082183218  0.0721820897788623
  0.5039876288171627  0.6644823777039469  0.8010250715520955
  0.9387441168306336  0.8115918909369659  0.0149134928906967
  0.0390488454441319  0.7252624456704738  0.8515125968685489
  0.1060729258483945  0.8382769403490747  0.8010264539276661
  0.4434013485281684  0.6701955318341843  0.7803751088658563
  0.1143400043056539  0.3016708935182545  0.5300136970541496
  0.2772472052020650  0.3787868198203889  0.6813906016762787