C  Cr Ni
 1.0000000000000000
    38.6542185159316816    0.0000000000000000    0.0000000000000000
     0.0000000000000000   38.6542185159316816    0.0000000000000000
     0.0000000000000000    0.0000000000000000   38.6542185159316816
 C   Cr  Ni 
  38 265 458
Direct
  0.5637579128860809  0.8348386413717531  0.4758291245066337
  0.4044207218711336  0.3305570570628992  0.4171497983880596
  0.1915747035431232  0.8843412516806604  0.5221186364913901
  0.4438230825885674  0.1855520109156723  0.4160542027673023
  0.6911154791877161  0.1679620361621599  0.4701165902686809
  0.0841857907862209  0.8432389761653420  0.5795692369979438
  0.1723432750803187  0.9445924590706652  0.5887394434743227
  0.1061125130204140  0.9864920440645611  0.5089203247341600
  0.7216420641761446  0.6454738407198499  0.4899793039869937
  0.1978834290305360  0.8282295883253954  0.4742523409296986
  0.9117952048877103  0.0227828243924679  0.4898015024880245
  0.6709490398328052  0.8618466696875122  0.5390691110863555
  0.1450912484098957  0.2373056654243509  0.4385329700977951
  0.9368624793824902  0.3012026799022188  0.4934811224450951
  0.3377618089319302  0.9645810284690466  0.5424834109201118
  0.0639215198833977  0.8613331449697068  0.4964528552639161
  0.0631165382958633  0.7270307431883407  0.5236959001750384
  0.2671706646360303  0.9331312253112265  0.4856567821136193
  0.0386250548394223  0.2240602361303573  0.4599637738424820
  0.0546621423644174  0.0681823144292013  0.5330535158937176
  0.8408240478699947  0.9558348826888622  0.5746644042268266
  0.1907317171112867  0.9527088803380337  0.4918531211174335
  0.1384153001126897  0.8339430752964602  0.5277309887056227
  0.1052855933986209  0.9188455107602889  0.5298923540475446
  0.0358749887586404  0.2851338259746272  0.5154110757891494
  0.3940936957312524  0.1182743521672836  0.4484459901373988
  0.5805080865465438  0.9017203814277456  0.5472527186240840
  0.9179103413327758  0.0145169965135980  0.5653738950548115
  0.4932589347412481  0.5967851349820905  0.5191885522949327
  0.6420232500459896  0.8702944137790454  0.4438365195606142
  0.5235591757122019  0.8158973844421294  0.5627205451407270
  0.2815720354668217  0.8568684819760564  0.4933571810327209
  0.8700942973525166  0.2998926479835524  0.5270427644181953
  0.3722017370836217  0.2506036249276825  0.5159874811890203
  0.0292852089129408  0.7767731122289152  0.5781807630974182
  0.5564307681303344  0.7649445532894147  0.5075454553493808
  0.4876355790577385  0.7893392973317940  0.5018750159959126
  0.0139142268325840  0.4103689054082987  0.4404063027493322
  0.0480571474263872  0.8154188222788241  0.4714644175164406
  0.0366556505319554  0.8278256289257740  0.5789436923817687
  0.0241077908597185  0.0552872962355887  0.4890998467658930
  0.9683284312157537  0.0032121439926387  0.5478599162272040
  0.8310757128456330  0.1469721609931434  0.4822467237644291
  0.2387853505611533  0.0201696774721016  0.5200588773556745
  0.5322887160094548  0.5649751620322903  0.5168659112274120
  0.4826669796365202  0.8347660907251120  0.4761347236057303
  0.3715825674494495  0.7784636509472990  0.4530018741272876
  0.7407832590735071  0.3113279514222201  0.4543556241246939
  0.0472890796187556  0.7499423720900273  0.4754364384989749
  0.0713655725451555  0.8858699544883025  0.5467138335660859
  0.4215679330551586  0.2510501116821024  0.5281661804949465
  0.1369977547173868  0.5343944198605762  0.4534543083928560
  0.1194151207240599  0.3706885037850898  0.4603434421037578
  0.4281169783138414  0.2888282100449585  0.4049434756295646
  0.0331176832642393  0.5837810117735998  0.4579257386637152
  0.3888974542276032  0.0696868384678832  0.4414111714271600
  0.2236422635906775  0.2629060743388136  0.4652279536433137
  0.3779876316818636  0.3713679144594998  0.4262268682246522
  0.4313481391631800  0.3392951811496295  0.4577120895271593
  0.3782759141072042  0.2389916354538948  0.4659550343462168
  0.3286874761028237  0.3945572332518197  0.4669503396292341
  0.2440267547378595  0.5462955283113853  0.4302268438208682
  0.4848628999414352  0.3151272125393347  0.4821207718045429
  0.1665801604194817  0.2848747261418917  0.4428351473443102
  0.1996227834264420  0.6821846984245769  0.4850840736316828
  0.0693024461382713  0.2052246314819063  0.4935885834610327
  0.9215279201062002  0.9717954059084607  0.5912774970977588
  0.3001694756250908  0.5817631083169080  0.4349466659065488
  0.9828814709521383  0.9921270772557749  0.6122920125818302
  0.5983065559808337  0.0707806006200397  0.5595289377692234
  0.4834996189648370  0.2433023751430365  0.5518552196092825
  0.4369771951192493  0.7880159914106559  0.5201575406840477
  0.3866475514687301  0.1973942307054864  0.5189198303489463
  0.8006455792088092  0.9742050982953386  0.5509749314690358
  0.8639574220051244  0.9988225098007147  0.5636914186821387
  0.2212262395072958  0.8576443944025006  0.4397627195409218
  0.2352412958027612  0.9719375973340022  0.4737616619903899
  0.9750387252775838  0.9429399684345363  0.5688071172217622
  0.8595044333944176  0.9479886517075843  0.5244213840099418
  0.3598847396155568  0.0914682938842155  0.5352393383487497
  0.7893298150430172  0.3384880292566947  0.5204980696303707
  0.9512061300905275  0.3347906464333230  0.4616339063802403
  0.4745163231050096  0.7378179065326640  0.5027752386545427
  0.6600958740264564  0.7631174692144805  0.5484532756703848
  0.4966620413652572  0.1296416153505196  0.4582322568557857
  0.8110904167740891  0.7616540746946348  0.4871893712524608
  0.5756734159879987  0.6128964347000042  0.5210121643003111
  0.3943484037267242  0.3035742565512443  0.5107945412617086
  0.9200058745202342  0.9219066835138764  0.5439383515808128
  0.8286971547237189  0.4377338720283174  0.4816929051142809
  0.8133465517055033  0.9138322486963225  0.5647187238958957
  0.6573209097394239  0.5481768973493042  0.5631099940449479
  0.6665266846622938  0.4487884222780132  0.4787357294720144
  0.6825412075689785  0.6133476971686550  0.4999900556213154
  0.5759864087955590  0.6861303946513826  0.4376460783729179
  0.5209184296662298  0.7643391725197174  0.4680341850450357
  0.4932057907793157  0.7724509436261755  0.5509490923202571
  0.5106258759939637  0.1367489877907865  0.5220847286867167
  0.5307742765284806  0.0829289200990200  0.5334308211479438
  0.9755572846544386  0.8572607890668424  0.5939515682987150
  0.6179111871637243  0.5002948065679316  0.5599029877080187
  0.4325977673039855  0.9170662320534911  0.4965080856912712
  0.4218782521594314  0.4112476238656061  0.5096826319508440
  0.2113852077162670  0.4439383639207088  0.4892985048055514
  0.4824761535512135  0.2552267036724082  0.4915871327313808
  0.3083172935521380  0.6898445227574667  0.4599325130685790
  0.0153027471883025  0.2385146249189027  0.5070947162535867
  0.7067277906553150  0.8259446636964128  0.5547085818996679
  0.6498880339759953  0.8176766984500033  0.5285224347716813
  0.1774654382057118  0.2151465751152100  0.4709694966090837
  0.0222531306617162  0.8410034212814328  0.5232571892996625
  0.9533853785124778  0.0415925633973094  0.5944336971282100
  0.3552535439180717  0.6096795493459319  0.4462590848976329
  0.0327752590741263  0.1241811415828451  0.4695684517676783
  0.8984841825336722  0.2250639767806626  0.4805671160010416
  0.0737218090262847  0.1549776876938231  0.5298498147553520
  0.3526107490916537  0.5544473076520817  0.4611010989106887
  0.1702763546988656  0.8709917486599910  0.4772864298784685
  0.9135080205634628  0.9825328506280694  0.5243694127637812
  0.1982021871764627  0.6245089186005822  0.4421949660339726
  0.9774939584540081  0.1011093093497758  0.5747738102172283
  0.0554651921843382  0.2736787131586815  0.4658449643101423
  0.2597028558655962  0.7143896713371424  0.4336742826104431
  0.5317052501092974  0.2907177051532397  0.4513166060201014
  0.8969679145660123  0.3398028864811100  0.5045091916297418
  0.9100568208288944  0.2723211586198811  0.5233473279491325
  0.1704185067212719  0.3307050058104194  0.4853710908556155
  0.1050922304342867  0.2045227524356577  0.4447140798245316
  0.1259876011582332  0.2466459993248953  0.4873289325425154
  0.0505253033077107  0.3994209041472599  0.4805644316115629
  0.0065249700284440  0.3617660059069990  0.4736496163880782
  0.1057213312946869  0.4921650577642387  0.5025909089084376
  0.0289035119125295  0.4674734487181915  0.4346961023630634
  0.1376646195735728  0.1175327652979047  0.5071100530985756
  0.6217671241537744  0.8759970662226201  0.5574185520392868
  0.2332286702355380  0.8503862386331760  0.5053765138134930
  0.2409780839045007  0.1515939854515752  0.5350238982152771
  0.1102481142849320  0.7439120935012093  0.5405545743385524
  0.5864006856571774  0.1996002186289952  0.4867253728063390
  0.6867460551911609  0.2185797817014835  0.4610965548384804
  0.6060026636799142  0.0924997408228153  0.4381249014656566
  0.1319700133546970  0.0153875644309779  0.4796647664430396
  0.4939542015835700  0.0101486466800520  0.4934647917737530
  0.1383812025977021  0.5870999677117859  0.4979216691872790
  0.6510777484262755  0.2310453378522521  0.5578028347639046
  0.3608312120706053  0.9922566679937801  0.5093089689502232
  0.1727466745532278  0.4005561736994034  0.4612249307986339
  0.2748981391327546  0.3587313878002294  0.4513239198440315
  0.2716717919840825  0.3123563699701018  0.4089971269463215
  0.2534586911028189  0.1938878869552684  0.4527212081012466
  0.5051377526600399  0.4603862353804403  0.4787657624230746
  0.0030981335531025  0.1868758350995121  0.4670651661948598
  0.4930563157254718  0.2000291025386024  0.5088140673041167
  0.2216413298466623  0.3262598175182791  0.4471332523997815
  0.9477425025451615  0.3882690187696728  0.5063315349274066
  0.1479727150782219  0.4740139615375736  0.4697256920945074
  0.5527431939642329  0.0563341308322094  0.4344180346764697
  0.0863996055330574  0.5488654829082146  0.4887709546329452
  0.4668330709480544  0.0924403693324929  0.5132872094198057
  0.4467924077046679  0.1041136575414361  0.4492107361455143
  0.4113219130887933  0.1646535463380520  0.4475985784629126
  0.3335365030999653  0.2141579415141000  0.5095861511217032
  0.5416001203805965  0.6662703632167564  0.5435301387682250
  0.8783167493331459  0.9249189876151924  0.5863466200554860
  0.7207019669984823  0.9482936342987128  0.6434710258605670
  0.7509695376718303  1.0006894638380428  0.5259559701754789
  0.5224917922854276  0.6334130090226299  0.4978378576838825
  0.1867694929560320  0.8390644038955135  0.5458084882831117
  0.1447865353126059  0.4241172150224626  0.5050220192048621
  0.9946981858046345  0.4292789072081750  0.4834216274130654
  0.5537525317540628  0.8588520122656201  0.5509641601659028
  0.4809615896409766  0.8302109264284311  0.5362060285948651
  0.7603984390831712  0.0600142437305267  0.5030789381612201
  0.4836145436304182  0.3710744092367526  0.4625296134052423
  0.8586647211635189  0.2687284153521898  0.5662942111129744
  0.7507133127237552  0.2434472974546201  0.5347802401777558
  0.9009104261446732  0.3206880177037129  0.5674658689568403
  0.8816742650933613  0.3785018039692889  0.5514848522106371
  0.8407597044943946  0.3337125364904608  0.5481707663906742
  0.8811885324646391  0.1328028138509305  0.4561145564650653
  0.2725716424846321  0.8867910486448025  0.4548640002266798
  0.7062702061266863  0.3920749243504968  0.5467313366928259
  0.3278358987070358  0.8531544831294157  0.4756693296001788
  0.3007381449534455  0.8336156000058789  0.5325675201363617
  0.0298218110662888  0.6921330298830605  0.5403338453269009
  0.2208995963412556  0.9110590834174426  0.4896235407518874
  0.2702769707229596  0.8169072115963443  0.4657294421952627
  0.9400050241241292  0.7596459825682342  0.5332940641428020
  0.8493366468367134  0.2531353275123462  0.5067449392117364
  0.8030593633045033  0.1577211509019403  0.5311549547009891
  0.9171635591804728  0.0487259982183384  0.5292062813156085
  0.6075987254161163  0.4838366513702707  0.4538625612934650
  0.7065769351965147  0.1421221773674167  0.5168189816568644
  0.7705430060317685  0.3833370167243332  0.5630027933385023
  0.8590187290118645  0.4404543379103679  0.5392476485715747
  0.9199467195986196  0.5984817596787312  0.5301748267128238
  0.9402828533623536  0.6577061063978079  0.5134807676211242
  0.7561829701094962  0.1089471468520386  0.6084098806698111
  0.6569643403179435  0.0689922317737436  0.5799231382744802
  0.7517830095102349  0.2750687064101512  0.5825882118125315
  0.8100309275815316  0.2662615414300986  0.6039780537522746
  0.5918940286182346  0.3809960148701985  0.4287565908235489
  0.1360364064408577  0.9477424761719168  0.5016127576222580
  0.2017933534429704  0.9871531770258881  0.5720603352532720
  0.5097210934762026  0.5376582344562177  0.4594803265798010
  0.7739399992318577  0.5070586103067319  0.5024110950081243
  0.6996629092568518  0.8485016142830643  0.4951326186775290
  0.8434285314371274  0.7453860658121191  0.3983957388978721
  0.8046579971528358  0.9231386502583115  0.5061178515611011
  0.1550137587057858  0.5327180601769860  0.5100386579261722
  0.8541796022439352  0.7222923235523719  0.4678102054222032
  0.8582526047720682  0.8344478397497972  0.4954287591068580
  0.0914691616083573  0.6879511944744815  0.5581807390403807
  0.1015809349066357  0.7141543237040522  0.4918265310110110
  0.3820251714236973  0.7673494003659311  0.5731616886024818
  0.6996975112044777  0.9023811969611719  0.5365032756054543
  0.2149086187917703  0.6353810555761208  0.5017526538921818
  0.9967606423340843  0.4800968118571616  0.5281320826145003
  0.8369777206997537  0.6878036229896859  0.4117349556383558
  0.6561530300302725  0.1679590465697825  0.5072473957948441
  0.7913398843945363  0.7074751980778262  0.4477814249924669
  0.0517520418918350  0.7790423942907255  0.5314688450567847
  0.0571449857224625  0.9373602834114141  0.5926458187759035
  0.0723688146666691  0.8838491941869133  0.6087027650108289
  0.0591202825687835  0.7354028950289626  0.5768626399644113
  0.8301439883203611  0.6213892817863649  0.4247577641324304
  0.9262719052943594  0.5650438819442474  0.4842433977555676
  0.1865904167627499  0.9947022223109715  0.5150778937600465
  0.1830737601269720  0.9330921423984875  0.5406177060457295
  0.9669607287200305  0.8381110683136109  0.4794256376863464
  0.6871314556195987  0.4467344768645602  0.5355869403270946
  0.7692364081092143  0.5488533815875571  0.5454329873923256
  0.6177911655616745  0.3404323819021526  0.5175509463696233
  0.4697781991765398  0.6725995993937731  0.4584897593477493
  0.5129030757232551  0.5943955891025470  0.4511060272484838
  0.6842831835938528  0.6820580588588847  0.4778463975587772
  0.8431762776829157  0.1636694031711700  0.5767054948154322
  0.7092111193053110  0.9616499844114338  0.5801838640570339
  0.7332623220779048  0.1647687102282519  0.5946337652992219
  0.7961228770517018  0.8284913542657394  0.4121754576094289
  0.0887747537603287  0.8289724498667708  0.5306920823923695
  0.2917265085591261  0.0500121268557231  0.5305629954776393
  0.2306580627709239  0.8900251692650752  0.5535008260740212
  0.3328580436851575  0.3608223534457894  0.5365032808347348
  0.4661247102290315  0.5586480612235609  0.4978318352323972
  0.4838927088023787  0.5597696075205623  0.5593447959022776
  0.3810714965785769  0.5146107676496121  0.5368698014775359
  0.0816986973627190  0.2672478010842565  0.5233976826077218
  0.7667748408075069  0.7629180095215059  0.5260173025719105
  0.6109686996679509  0.5162208038194709  0.4970519431892818
  0.7096594386475141  0.6591535619291643  0.5388443474296172
  0.7463778491729406  0.6086158167029465  0.5234848142945809
  0.5364210660534490  0.9197429965293527  0.5319408036346357
  0.0306412040558406  0.4273449339575686  0.5409408651156138
  0.5326220665267044  0.8220833747124461  0.4403528589034514
  0.0741562622567173  0.0241669378973749  0.5176280844073288
  0.5601150505340581  0.9126392856513689  0.5935597103218737
  0.5361638759588235  0.8100015990145226  0.5107594164981090
  0.6918125985508458  0.7411279756196727  0.4604627583577720
  0.5809548123859900  0.7303776228990249  0.4819182293961753
  0.6444293265468986  0.9847337858222620  0.5514789361409344
  0.5939396253593688  0.9501112410631424  0.5438314895643455
  0.7668670655502838  0.5647253733224776  0.4839024568606287
  0.9957864340670914  0.2995413596347458  0.4896503611502435
  0.5400510105280595  0.3994304868673234  0.5410222607698218
  0.9605650592328515  0.3922724992292144  0.4446163957688921
  0.7691017501577098  0.5276399629504307  0.4391001592758282
  0.8113686314536090  0.0286432536729642  0.5331878657620893
  0.9750307369040975  0.4448792358932059  0.4210610620315494
  0.5861617113930804  0.7901921138661679  0.4667116865535534
  0.9980066395073818  0.3774612349328989  0.5319150562233432
  0.7687212868231122  0.6603055823201763  0.4979435165920587
  0.1342872438708762  0.8407724080994902  0.5819469161617783
  0.9560226155696021  0.4796411834317620  0.5663945327450810
  0.2796424223764801  0.8984345538964665  0.5202444731561729
  0.7529215226954429  0.0075455569235530  0.5840704439657861
  0.8491235098242050  0.8508395823315600  0.4313849736920758
  0.4003764616435820  0.6284264447442592  0.5232880461155514
  0.6496706813023173  0.8797660032597387  0.4933488519887381
  0.2973305589994268  0.9945881894574126  0.5500071521367923
  0.1215505916066339  0.3178504227430327  0.5285966982436967
  0.9699953703765164  0.0728659313051148  0.5223322745501594
  0.0563397036756296  0.3305171428161149  0.5045288882119831
  0.1224574930612768  0.9309321004348671  0.5798793705402786
  0.0203811702145859  0.1728199801017930  0.5220966515714476
  0.1396151921742272  0.8837145526383340  0.5302141308481896
  0.1679140318814679  0.2043217767098392  0.5482382016929541
  0.0116305992974856  0.0477039429388809  0.5539264327980417
  0.1598060241948027  0.3684132271222140  0.5286448708590415
  0.0780198059194196  0.9587318390803817  0.5384123094214435
  0.4154627043996469  0.7097133708178289  0.6021517334661426
  0.5152084442404437  0.8638721138797248  0.5917210019474157
  0.2078618283323710  0.7891272140913088  0.5072853341235337
  0.8064418222950334  0.8657818873242069  0.5173032847305704
  0.6909370838249353  0.8693710965539336  0.4324240246039248
  0.9959922045628996  0.7194436162109262  0.4597537580430153
  0.8921300747226746  0.7164590974196419  0.4265367891016576
  0.2685822914364311  0.4789621231658963  0.5088804198186783
  0.2576366473308304  0.4099159579245132  0.5561188158376603
  0.1457377724827930  0.5769384588715981  0.5586857279450878
  0.5389451304932851  0.9671747721849643  0.5787736268003535
  0.3450715419022768  0.4675923402563876  0.5292584050093146
  0.2475052584332471  0.9559375142860029  0.5346292797468115
  0.7702281267922145  0.4610001969473990  0.4595057457730431
  0.7342509001339332  0.6710232971678659  0.4436402074223644
  0.5833614702430435  0.6722976598540258  0.5007970666838896
  0.9470678702773075  0.2165365171330832  0.4389108913943899
  0.8021377610984465  0.8180723095760026  0.4711048617071962
  0.9256853904948801  0.4547281436479360  0.4536864819417834
  0.8693707128748343  0.4259260420144279  0.4434758757132762
  0.6694932004185810  0.5803651900820218  0.4455455176564514
  0.9224973822135847  0.2158937776752413  0.5423394559182981
  0.7956171564039940  0.3412539852616920  0.4588062040820991
  0.6633209716848703  0.5125715423653356  0.4608925182713167
  0.5700183002784938  0.6268652029178535  0.4566995635071917
  0.4784343830809578  0.8142181333678133  0.5950975133284061
  0.5248997139166452  0.6962459938765471  0.4742711369941751
  0.8470896762648237  0.3735885320693281  0.4774599680883522
  0.7327059659209969  0.4264038965918129  0.5000587692343619
  0.6418233481610740  0.8250821933464008  0.4676584138540719
  0.6348404347766838  0.7147622265657942  0.5082373400384944
  0.0201889076350924  0.0395659559184258  0.6162986817510917
  0.9767094154599898  0.1338239578545400  0.5004725015278446
  0.3052518729695282  0.6323237844410599  0.4752469859385314
  0.9013340257134945  0.3629759518708078  0.4429141074158293
  0.7175865296278809  0.4856988292428069  0.4847174415648323
  0.2523429163849042  0.6551795916102838  0.4512103420010786
  0.6165048674007443  0.5478248492500787  0.4377041665981330
  0.3882398968267798  0.4185407371161732  0.4616235079744558
  0.6014376680297751  0.0757228888290801  0.5003849590129131
  0.8730734554190395  0.5323141061418686  0.4715951335443929
  0.9975926416548206  0.7465680288141858  0.5542389640073888
  0.7040354108629139  0.0287013956069455  0.4952360239205923
  0.1566356451991372  0.7641781110873400  0.4431147349442642
  0.5511995930273408  0.1158216961481084  0.4147645692161854
  0.5262463612109854  0.1765756068403190  0.4129795515547022
  0.1512624799703620  0.7030984122215976  0.4567712827595374
  0.4784547921143041  0.1900596998733366  0.4491740257601459
  0.4968484498448776  0.0868591280232662  0.4122234430413179
  0.1921551664785552  0.5655564014724107  0.4620978788516439
  0.6097349906242153  0.1365978403398710  0.4915132051808289
  0.9914194058492580  0.6585215395164412  0.4759718610853473
  0.9963469228027398  0.7816668680872410  0.5034379298421926
  0.2499787504047889  0.4795197331925662  0.4471831543950540
  0.9399260555154447  0.7781038419620088  0.4769354363690089
  0.9136496147240036  0.7211960546116298  0.4913043181202491
  0.4790999874581033  0.2587582230780525  0.4303980610954348
  0.5529450275705764  0.1081470251099635  0.4784469472104674
  0.0976258609534937  0.6697486124461940  0.4503307247513851
  0.3756396734879138  0.3059248066263813  0.4493144625458889
  0.9033032450797404  0.8229422001975015  0.4563252166567924
  0.0163361118508678  0.8921902246017526  0.5754334932039091
  0.4307440300160069  0.2759907211845701  0.4668704216911336
  0.8581057528414184  0.1925782672363594  0.5203864681923749
  0.9470708289962818  0.7436536960003616  0.4312417523782300
  0.1499463668832045  0.6434775392086475  0.4763720581616733
  0.3815779760733077  0.3647345273131901  0.4926965906251812
  0.6350778448573651  0.2942782436606967  0.4770582456814909
  0.0419197789756830  0.6430240653761394  0.4388764952809257
  0.3207084177386349  0.7316648142328653  0.5033040951243336
  0.0190091642443395  0.9929038117708566  0.5085516144130918
  0.5706430793546139  0.5648376406228740  0.4736742308445264
  0.2409095666822489  0.0780671527640606  0.4971745735514839
  0.6381081975443476  0.3586174090286826  0.4627817454327412
  0.7395516612404912  0.2487772390576384  0.4721277658421691
  0.0896806649429157  0.4461691239172507  0.4575384592356480
  0.5602917189223986  0.5196415557442080  0.4248958832456503
  0.2759523337523728  0.2973506756492358  0.4720433017314802
  0.3994048966487076  0.0417678119140762  0.5152807317916964
  0.1837910277524573  0.2684271156756347  0.5069058802923494
  0.6467471001556431  0.7691258970088152  0.4862943606037441
  0.9215235651759387  0.8609088138377525  0.5622464349372053
  0.4226889096203323  0.2289161686548933  0.4234677855222940
  0.5045374343869984  0.4886093190134367  0.4186654409446490
  0.6691419004460432  0.5028261292105254  0.5210356644224688
  0.4832158752978872  0.6768641032276576  0.5207351405064800
  0.5951018000196517  0.5574238989949624  0.5385109720474672
  0.6971731969529738  0.6002787894595533  0.5647006276057365
  0.6738153569507102  0.1737862150747257  0.5683746212542050
  0.0420234111163983  0.9831276590863861  0.6341506581519014
  0.7171706527901999  0.0607261585529917  0.6017253758353316
  0.1051716190042668  0.2119030265763982  0.5422916265441818
  0.5429359480332195  0.9801737687764608  0.5171354405014087
  0.9234120488805596  0.1030911335489515  0.4891818479088908
  0.2926525858880754  0.1699614523470160  0.4921184828415974
  0.6870314693661869  0.3269251090652605  0.4876363873405679
  0.5852544504959566  0.3840262097060384  0.5032517711531008
  0.6916618517734131  0.3885233452299579  0.4742632498661778
  0.2432121230526396  0.1367796263222638  0.4758334635694302
  0.8623392556781322  0.0120164242757642  0.4991737423468327
  0.5862229279005970  0.3227649790479356  0.4529226496416320
  0.4585198750524179  0.5019023693504842  0.4604720990147890
  0.7120500114106005  0.0885702281958036  0.4748278838499079
  0.7382234496996880  0.1869649337936695  0.4859945006462086
  0.6332778636363072  0.1864876085197112  0.4518203964206664
  0.4081303036606378  0.5859597494621821  0.4748955317730396
  0.4960851680329560  0.4262410499225881  0.4312005379267931
  0.9257035951785390  0.5183337686617020  0.4383060983314714
  0.2658854204243428  0.7539414403211588  0.4790213208670732
  0.4107095822851454  0.5274875112782992  0.4883156577303235
  0.4479199159043961  0.4398020011264234  0.4651605592320700
  0.5380607552293613  0.4011039891366753  0.4678430688714363
  0.5813763445504230  0.1558411573594672  0.4426215195242018
  0.9406377943804366  0.6838239013885802  0.4509623850377384
  0.2690412092666836  0.2505152254381337  0.4262925845081659
  0.7949122179879561  0.7661822183127914  0.4283193167798285
  0.6941634414695894  0.8040225788326680  0.4451445889114165
  0.4249270761568569  0.6845414098611139  0.4964162933951058
  0.5842944796669348  0.2576058853978573  0.4690636671339548
  0.7457694990809609  0.8408256520061443  0.4511376531675187
  0.3215578556663505  0.7908377698068682  0.4896003145738932
  0.3675583477135823  0.7160703841372982  0.4679385932304644
  0.1830962772259827  0.0444402858767425  0.5558021428270266
  0.1708640002825060  0.3523514923689152  0.4204285824545691
  0.6089022141511277  0.4243168097915362  0.4678851050554150
  0.9153611855168322  0.8730289061750917  0.4993878587581379
  0.6351878791176626  0.2863577384493631  0.5375856306737541
  0.7520176277400112  0.9506938472712934  0.4820566912770198
  0.7278282803477363  0.6084538099452849  0.4579354136130715
  0.7757370273410235  0.5933846389489765  0.4229157030743260
  0.8231821083649350  0.5615682001400699  0.4465702331441583
  0.0815134233959878  0.5046232879540455  0.4430758725421910
  0.8722634928532258  0.4869779787365658  0.4278119335888755
  0.8210525613823667  0.4994853351903543  0.4637273625812866
  0.7999755954646746  0.2804391231771156  0.5420289799187975
  0.8240073918043246  0.3928626889917086  0.5321518286817846
  0.8505219246177185  0.3162801785342766  0.6085373579611454
  0.7534128179474311  0.1208853455695356  0.5471197714628808
  0.7532938905198585  0.1850438189260915  0.5445435885376637
  0.6350409575693420  0.2474270872279525  0.4336107683264418
  0.6974955775584700  0.2100365167862717  0.5230058895476964
  0.2085746946060213  0.7356978336872554  0.4638897410399103
  0.5348545363144198  0.1701769545553501  0.4755365127825310
  0.5020681115148560  0.0696592745646828  0.4719619996457600
  0.5497121585277225  0.0399121510284184  0.4967675948990939
  0.3268748818109533  0.3339025299914040  0.4803985733450927
  0.4349312738817231  0.2129266389922655  0.4837172623767639
  0.6477653538229819  0.3976653558493387  0.5198990795800774
  0.4867071507687627  0.9476056505421757  0.5053880571008668
  0.0802142610875887  0.0879346580951492  0.4939310936814557
  0.0889275794416416  0.0994234541013791  0.5539215354914058
  0.4787504312481590  0.9781132332805968  0.5566331394905230
  0.4435793120998749  0.0440982117569169  0.4700114880599237
  0.2887986134267733  0.8760440270777443  0.5771540319956959
  0.3760041924011309  0.9332664647101711  0.5313740137371169
  0.4167160941482013  0.9832798706425139  0.5356314324603885
  0.3482073747927812  0.1071231010695867  0.4763275155837720
  0.4209164022156711  0.7458966768283155  0.4774231832785958
  0.3104544450307076  0.9506786947048405  0.5040230437253205
  0.5973265642971074  0.0131014736783720  0.5232126524055695
  0.4593644397358006  0.6205783500749893  0.4871813631735959
  0.3816098603648893  0.8846800678116159  0.4877290812747638
  0.5972273454330159  0.8402925087825930  0.5091854599184910
  0.3138266370006481  0.6769349178552924  0.5261526037102342
  0.4750544639849914  0.7165731381760673  0.5682024085177075
  0.4226350386804408  0.7307649521234616  0.5399340174323244
  0.3170396342673258  0.7480215253790387  0.4424414729615491
  0.2257865748904041  0.9187582223809319  0.4241743013351286
  0.1728026474181466  0.9307123800383301  0.4540903952441854
  0.9121276205333809  0.1608082688294383  0.5118099317500567
  0.5538981928268624  0.4559723008685491  0.4411025187214820
  0.8275033894707793  0.6644870815897073  0.4685352087410816
  0.7445211810143324  0.7195759296750622  0.4864321747690438
  0.3851306208352300  0.9472645100918889  0.4712508485947783
  0.3356138558140508  0.9787352641694388  0.4493810521395686
  0.7391777276538369  0.7326518036539623  0.4227192238611713
  0.9292473804114927  0.6243296659365514  0.4655422615809450
  0.7818458726438852  0.6561330343733539  0.4068165401746883
  0.7490980024136515  0.7790793621311329  0.4666121271560418
  0.9197415893231825  0.1061324954749238  0.5527527378128296
  0.1331536582595753  0.0751542375029112  0.4605426072971917
  0.3215804423356007  0.7768056344335543  0.5497181928055948
  0.3735901283360503  0.7615483040304217  0.5144620670722213
  0.5732007566558236  0.1283400589335174  0.5405760581457650
  0.3964287848539373  0.8779453816180763  0.5524491335355964
  0.8849456961887529  0.6629031374005528  0.4923713114988728
  0.4417633100776907  0.7651345999297033  0.5875358769046704
  0.7110659806810355  0.5549912764615139  0.5255421961863707
  0.0467290473313418  0.6888968197214487  0.4841474348320800
  0.5347037635811441  0.8718696661921591  0.4876618751314631
  0.6780486989382009  0.8680713500738728  0.5890627204505852
  0.1103488229595100  0.3074984406588027  0.4708918307948340
  0.6025641540850185  0.9621879265136656  0.6018064834465525
  0.2755614707953504  0.3650887383113463  0.5130501448629006
  0.4019271580985795  0.4774241778738047  0.4391481637823401
  0.4385596797329154  0.3960801700101481  0.4268728184939805
  0.1081975254929825  0.8448760745007314  0.4725085224484416