Cr  H Ni 
 1.0000000000000000
    21.1200000000000010    0.0000000000000000    0.0000000000000000
     0.0000000000000000   21.1200000000000010    0.0000000000000000
     0.0000000000000000    0.0000000000000000   21.1200000000000010
 Cr  H   Ni 
 259  69 605
Direct
  0.9144741183770054  0.7488964930410061  0.1658908272453577
  0.1666450620223803  0.9149397643268958  0.4111124519383979
  0.1625388572164082  0.6669858087415841  0.5016378554810704
  0.3294602853162065  0.8339870637621969  0.5051608186693138
  0.4979180433177087  0.2505225232288633  0.7526818859462872
  0.1639376865345245  0.7495090174524540  0.4177788193352268
  0.5794269289670899  0.3384438354318116  0.0831150608500016
  0.2475476546981533  0.7509978485768546  0.1646372642522463
  0.3313235575348735  0.7501094507024183  0.0825941886277196
  0.8298273718973610  0.2512088503441874  0.2479622746557145
  0.7477341215501175  0.0824241644899088  0.6695190205879624
  0.1642808426076125  0.6663106910152787  0.0005185019477204
  0.1626012316838009  0.4994725686062147  0.8339332133797627
  0.9108790090993354  0.2497609159647337  0.8368777613867320
  0.9147302951132387  0.2485183017773191  0.6685100291358664
  0.8309221038772195  0.0838486965723817  0.7530035813349637
  0.8305428969747446  0.1669288264671453  0.8367594639597720
  0.4972788878983753  0.1656173961152886  0.0006779272434374
  0.7466888117858640  0.0831741615666809  0.5014698474731644
  0.4993915926782256  0.4203565759763215  0.0834753218422794
  0.5801046394655547  0.9986914385859033  0.0809724101550087
  0.2477440771034901  0.7535429861728169  0.6652052256927039
  0.0807685149323916  0.7492628248708564  0.8337338872231836
  0.7449832563841892  0.2477349717626517  0.6686576506413877
  0.2463799999379995  0.7464058079264538  0.8333402168005031
  0.9143177211829386  0.1667519281565532  0.2444088277245672
  0.4983656051342253  0.0827225582919628  0.7503277774012574
  0.2463285382692971  0.8317724559559667  0.5838700919753606
  0.0807510814471441  0.6662535758868485  0.5828933074116182
  0.5797106481891247  0.1645537897950057  0.0835455319343038
  0.9146058752410262  0.0015626480120606  0.5844309518702817
  0.3322853795865918  0.9166833710157881  0.5841193025342306
  0.4974081631103757  0.1660322525356985  0.1659457622535508
  0.3308144349789707  0.5848397800510442  0.2480133389175749
  0.4149427754465320  0.1666166883422939  0.9210515132393724
  0.7460569120799497  0.6650563785973335  0.2483161147896503
  0.9173987774737472  0.5034705120805412  0.4173784579317423
  0.4972858009363164  0.3337014217894154  0.8332793538555654
  0.2485373985147370  0.3333296207935020  0.5803379755463378
  0.9141133825528908  0.4997537640476929  0.2495040636459334
  0.7429233997185881  0.3315295208093210  0.7512747320253961
  0.2485691264253714  0.1655803161769266  0.5830498036722223
  0.2504016486761196  0.2515659528434036  0.0000687401783921
  0.5788159797571335  0.4184747536344271  0.1658512957119735
  0.9127327519235738  0.4177574016866344  0.9987133813376282
  0.9145898034101920  0.5833541090862380  0.6685263394724759
  0.6630943110879024  0.9985799974837785  0.3315191962013984
  0.9135885848078782  0.5845190632243706  0.9956058058773632
  0.9973559519141173  0.5015760156748601  0.1652777646623788
  0.1643557185722709  0.6679363792783020  0.8331916746654776
  0.7463503595580626  0.4987226772025339  0.9182622474585479
  0.8312015046750628  0.9997162438580304  0.8342615019598334
  0.9159333782728337  0.1654205399826012  0.0837101871111558
  0.4930810711421186  0.2471862444680850  0.0815876911037164
  0.8291686952493241  0.2525811434397410  0.0816120188560179
  0.9120838853249459  0.9979832529395790  0.2491080418737555
  0.8302242649992213  0.4201253712404767  0.2482476008680908
  0.4975172880080896  0.6671643192375222  0.9981287955180195
  0.9990121793409007  0.4133004525653931  0.7488600977324285
  0.1648560661370873  0.2502132432350269  0.4152458931191496
  0.9112881334819261  0.1682177371986300  0.9182082017063570
  0.6634702112090675  0.1652073441649982  0.6671349546676035
  0.8302135302950523  0.4201972341457859  0.5866858210280810
  0.1638179644376122  0.2468216262917383  0.7510697555306730
  0.4979647625414902  0.9141511762215396  0.7498066090799239
  0.7436874274345745  0.2473226415780544  0.5014630512822633
  0.5799818319676299  0.1674535782054578  0.2502514316730527
  0.9143058555396651  0.4197921942168136  0.3320560399298700
  0.0821737489392478  0.4173435184795432  0.9999807941853485
  0.6643454140422592  0.6669224574735615  0.5004980210661292
  0.0795410903397504  0.3341556399664739  0.7508069483238866
  0.9963441887945917  0.0823431765070611  0.4097416677979658
  0.3324114001800321  0.3322386784682814  0.8328596271065661
  0.2428428005506691  0.5839242795008638  0.3339697097214948
  0.1626829239245786  0.4203357985233463  0.7516002766267543
  0.9131893882149094  0.5014081801561978  0.9178429531001365
  0.6618880439021450  0.2472322507946764  0.2498827286815022
  0.4942383497409509  0.4158942114770673  0.5828424862757474
  0.1669208380341077  0.4186896166069704  0.2493316948206784
  0.8323239095331190  0.3342223504267494  0.3309541587624584
  0.4961713793156469  0.3330255520074895  0.5004713610475575
  0.8303202396009177  0.8369135218099931  0.9977370239226008
  0.2490028153264176  0.8277412216156446  0.0829970446063424
  0.8298987655127347  0.9120247559471201  0.0811318925588724
  0.6628643923146689  0.9158687720036736  0.2500234073482996
  0.6622484659703411  0.8341777526347522  0.1659129931883943
  0.2488852336609677  0.5006667818348851  0.0816214455080936
  0.4115149435828005  0.4189177976338864  0.1715401268015350
  0.3302258846101400  0.5830284697939183  0.9153622198973487
  0.6632745736726392  0.6658488482609134  0.9987075165279913
  0.3310902141611713  0.9169051781885357  0.9164284663156431
  0.3302276007605269  0.5850492168054744  0.0811089654930067
  0.3310218302782725  0.5012930916064500  0.8325841382413131
  0.4972651145845012  0.2497976070732904  0.9175310216860710
  0.3306242284726782  0.9991069398035581  0.9996063026510623
  0.4146568845483390  0.8315309823623522  0.2510500588681734
  0.4138052842817327  0.9973054318938808  0.2515415184243748
  0.4129120927243830  0.4178448590713977  0.9964444930895143
  0.4153203862564966  0.3343235979908795  0.5827110407316514
  0.4132125557671480  0.8307227688678694  0.0822568388391798
  0.4154066275147474  0.1650875264237146  0.5839584020360973
  0.9972256665434612  0.8318604333262967  0.9999537324453454
  0.4135927995689908  0.5013407564112662  0.2479921007184504
  0.4146299358561642  0.6659112950127338  0.5828367885430128
  0.4142436404551731  0.7490029732078513  0.3330991909821345
  0.6618049200598090  0.3345243086022228  0.8351549054616697
  0.5783461591161568  0.5010279335398058  0.2493169745142691
  0.7417201599941577  0.5046070033162492  0.4180108399439363
  0.6628440350933200  0.5834958106065271  0.4162347811816806
  0.3310249284249865  0.5833639637142495  0.7504035160591986
  0.2468762883829370  0.7490643310895660  0.3331092628129894
  0.1643485150081474  0.5839097606278107  0.2481353695585901
  0.7471075033793522  0.5007535605199206  0.5837476096050412
  0.6622830471561865  0.5021844490372454  0.4999706304477498
  0.5790523204064716  0.3319485738299609  0.7545104108838177
  0.2486225636368259  0.5788167633019188  0.6661643421249906
  0.3302787719031778  0.5022608952353912  0.6674011467685657
  0.4146941011489233  0.7489119670540308  0.8322510732487017
  0.3309698659310539  0.5010976988175838  0.5005550362348921
  0.7476875996519630  0.4989890984708901  0.7500915307088136
  0.6636310194436910  0.4231240090718793  0.5828271631073244
  0.7469440786656405  0.4995238678826490  0.2481791039027415
  0.4136269641031966  0.6677164682710611  0.7493429812912363
  0.3307822871531223  0.2460096404711843  0.4201253555536829
  0.4152844731602789  0.1677176717350193  0.0820693196256669
  0.6643099299829073  0.6650809227408934  0.6677817751383697
  0.4136561650969227  0.3338006490296001  0.7512778086947809
  0.9098691950584780  0.3348684963393215  0.2510649416197549
  0.6634091553856467  0.1651888225911485  0.8356518514829028
  0.7459538378087638  0.0820498252512774  0.1667361932755854
  0.5013135289091204  0.0862650357512460  0.4181389626490952
  0.6676162213120774  0.9148807968048126  0.5884156490448779
  0.4939165967236262  0.9147038488321242  0.5848282272073477
  0.7469529858219854  0.9999659754552450  0.4157883738689738
  0.5788336792658159  0.0824944697177443  0.5001202045942428
  0.6662087594336881  0.2482711942224496  0.0824411079445260
  0.7463759990989834  0.7480338037982002  0.3342409290073353
  0.7465832461477193  0.7471450007108354  0.5013164832649171
  0.4183845752235202  0.1667506336288760  0.2492495484464373
  0.7480687674790688  0.4201966612939555  0.1669210682721893
  0.3322207885786569  0.4187161211833738  0.2494988012578095
  0.7454081094325630  0.6671223959147083  0.9165336514525524
  0.3289413706993747  0.3339477308024205  0.9999504139412948
  0.4972641697777608  0.9987996553667023  0.0004626748618322
  0.4971629732483914  0.8324735423539574  0.6688811686806244
  0.3328455150241360  0.0006874607105533  0.8334121124684951
  0.4965023304852700  0.9154317338378730  0.9175592061119574
  0.4143447105529666  0.8331306741471889  0.9150658902910324
  0.7459949814762363  0.4188828129596205  0.9979351930501374
  0.5783585353060924  0.3324570522340922  0.9152752192333652
  0.9966997618587202  0.7487737443017919  0.4167149043154223
  0.7494700459134815  0.9192186440511243  0.6702764863365658
  0.3303826064954410  0.0016955392614592  0.6691770091912944
  0.5809389396371101  0.6670564481195104  0.9187561294484362
  0.3320863466725013  0.2509541549490428  0.7509356009965015
  0.6653695458728929  0.9154399227206568  0.7486748980386032
  0.6598631400498977  0.4196655777789723  0.4162778082352897
  0.7489281306714304  0.0031270730941504  0.5825751614309442
  0.6650732366896372  0.9158134504872916  0.9172945629267655
  0.2473658314188830  0.2502178584289291  0.1641905055790536
  0.4985208475931862  0.0845661485912608  0.5823812387611427
  0.8303311911729466  0.1643533721425840  0.6687764248066113
  0.6607919164609203  0.1673311760112882  0.3271875150264176
  0.0839874437637712  0.1625298045851128  0.9200046406645026
  0.7451465248869958  0.9156912893017036  0.9992889556368459
  0.4131777265572783  0.9988129547794982  0.0818533560372529
  0.4131897959296907  0.4179898757718484  0.3332360790665440
  0.1631620079898131  0.0846078967587880  0.9208160312912789
  0.3302919426713629  0.0813719879517548  0.7494731088165317
  0.8298314164349083  0.7492526928740963  0.0845699079514869
  0.5795411004779877  0.5833865345441612  0.1658600244751617
  0.0822541510901517  0.2496488793054217  0.3320912109304397
  0.5801312122156920  0.7494486741614547  0.3331942846028771
  0.9988122502952266  0.2487993240624832  0.4145035546717093
  0.9156380232810533  0.5816670197640086  0.5001977568481393
  0.8310690195168061  0.0023384065188805  0.6692589272259738
  0.9139724746053285  0.9155679607150553  0.4990810288946201
  0.4981353707587179  0.8330188366700481  0.9984069145809339
  0.9965123280696695  0.7487156869556826  0.7492264097256210
  0.5796948487906393  0.8312639845758020  0.0812093100959633
  0.7467929326615034  0.8343496785407166  0.7498753426097580
  0.9968536335873198  0.1633000175977884  0.1658322053990656
  0.8314202015523977  0.9154757959730981  0.2493149266549723
  0.4967692485743239  0.9143602822982922  0.2489619105683397
  0.0796358134112784  0.8321788738054493  0.0811385331425056
  0.7468990486559969  0.9981755935014834  0.2493282176630033
  0.5810631079233332  0.7500697296516627  0.9991811299140058
  0.9127703676867804  0.3340265004692194  0.9195876014524331
  0.9120056125958926  0.9164162294071531  0.3302007674516915
  0.4968274571135620  0.6653066460763549  0.1668234129874914
  0.1648366002846366  0.0832458277281152  0.0829331665828898
  0.0812578490356178  0.8319325640202710  0.2494992132100764
  0.9978965902141637  0.5860272294630429  0.7501686144361744
  0.5821891650849589  0.9971366258939207  0.2510603328320527
  0.3300446210831748  0.8324811721047117  0.6648789958929231
  0.4139064215865352  0.8335072905383771  0.7507196686626901
  0.9139922844681788  0.7482428037629480  0.3301882862193673
  0.0810232963462078  0.3333629408397210  0.5823969653284337
  0.9956040240458376  0.5834064151694734  0.4177171151461386
  0.1641201549198695  0.5016661187045061  0.3321581036383410
  0.1670707897730330  0.4186198949738073  0.4180480012355395
  0.1605308609981366  0.6673018027919685  0.6652685327822285
  0.0814534751637453  0.5004859544474800  0.5835316050586152
  0.9145242255992893  0.8326298422714093  0.7513268342511639
  0.1640470869559859  0.4995326409807400  0.4987000375927805
  0.0840942847500116  0.4995685757843933  0.7503824993721288
  0.0821486540251223  0.2505629407007335  0.0037010735601442
  0.0795256547243484  0.1647107323295135  0.5825143741272577
  0.9982271191243861  0.9144527116678740  0.9165830930730181
  0.9170880319739503  0.4185406592673495  0.4998567176020250
  0.8299372963730491  0.4193220699094316  0.7518721153880985
  0.0823497245485963  0.5008290288396955  0.0829108749704775
  0.4960439557110875  0.7477291367437454  0.7498766691225915
  0.8308316091118318  0.9159080161380163  0.9171271879994817
  0.5804728503327241  0.7491863446159461  0.8333688274031017
  0.9969983864024122  0.3375432961117608  0.1619164299736251
  0.9144416694581453  0.6654811477079147  0.9161945043249863
  0.6635291599500792  0.8319845752808416  0.9991600132129006
  0.3312069806513480  0.9993452644432819  0.3319298242911018
  0.7464295338781087  0.6662397877077196  0.7497111581235755
  0.4973092584421351  0.5837426939830732  0.7502782519811045
  0.9137110405369653  0.6681742710032303  0.2497032617278354
  0.1643709668226949  0.9143143022844717  0.2516180456652855
  0.9969025954162694  0.0824945058716711  0.5862154190138567
  0.0821586884390498  0.6662253423139207  0.2497784445481473
  0.5808440729814136  0.7486398278874528  0.5021831786447731
  0.0827865061726466  0.5036546442977698  0.2501999313531339
  0.0818839451955897  0.5841611448092470  0.0005955500904257
  0.9923032708607437  0.9964289257284848  0.4997063447657257
  0.1604287337849004  0.2500838080272605  0.2495376470351237
  0.9971007866702386  0.9987288747233001  0.1659639146423940
  0.6645800649054112  0.5817210107666829  0.5834016882559158
  0.0814268871592890  0.0836639806486270  0.0016608192409851
  0.6641436975701074  0.8321395642302225  0.6684501771719390
  0.6628547391702432  0.6653061708782311  0.1666477697160811
  0.4965537878435253  0.5001939255626835  0.4999019048126040
  0.0802438888930200  0.0848493148265101  0.3325467783087161
  0.1627497177763069  0.9151982502557287  0.9173325072331358
  0.2437711238847258  0.0817975757315706  0.1654915438228043
  0.7460779962957108  0.6662877915002126  0.0828734189909849
  0.4141883207195849  0.6685597561622842  0.4179628439912215
  0.3335455243576484  0.9991229621127509  0.5005993601757874
  0.0819206373629066  0.6651887204253227  0.0798542785517424
  0.0835995167085044  0.3367716915467010  0.9216105793626805
  0.1617075161273255  0.0004900501948420  0.6668779476236943
  0.5770735535854687  0.5024033131851569  0.7493346125825208
  0.5784481108457890  0.5017619992817005  0.9170095231279027
  0.9150025941403291  0.7491305162370595  0.5000048063226079
  0.1632571250037871  0.0853955483190005  0.7513480704071686
  0.9989381986799535  0.9953573222617337  0.8337319110430962
  0.0796524169376738  0.9162539416690110  0.8333658241521926
  0.9980389974353263  0.5023811060626265  0.8361442199741799
  0.0830325678415611  0.1671545436583521  0.7550852222497605
  0.8372503352625603  0.9168410557522603  0.5827177507816251
  0.9182732343353891  0.7496722691228570  0.6699966291600379
  0.1587346698331528  0.9185484782854035  0.5883940622733319
  0.0774473172953279  0.9991057388672078  0.5863304044315228
  0.4945943459026683  0.9109589526980280  0.4167115269514477
  0.0806955424814341  0.8334834028673721  0.5839374438238848
  0.4930190859269069  0.3344933435183033  0.0849040377739320
  0.2483903883281666  0.3344345438272566  0.6703585706847559
  0.0823667783125903  0.1682193270098755  0.4932861374560898
  0.5843213568951041  0.9142115737996764  0.4166358103100127
  0.3322282048223023  0.2491298181016790  0.3296108194365655
  0.4134621636462480  0.1644928019798228  0.8309972740561150
  0.9972379240293577  0.4997916360548412  0.7498982942743396
  0.0786695765172270  0.4174724512543760  0.4175967200654528
  0.8267789275740178  0.1637282210331820  0.0824839241972211
  0.7466947934745551  0.7525246962943959  0.2466346077325277
  0.5807828428961479  0.9160877630721836  0.5832519692996602
  0.7518459415414015  0.9152948531776420  0.5835858155194042
  0.4141580515312294  0.5052149457828223  0.3362928314447096
  0.9136653514253814  0.1682323241249955  0.4998171690139497
  0.4156232049117435  0.3278327126184334  0.3335423846705736
  0.6624039357901874  0.3379710087017138  0.2503374969463608
  0.5796140014236482  0.3334666114961499  0.6641179774355352
  0.0006910947710078  0.2499095673564030  0.8346878220786333
  0.1630738637167474  0.9160888377561107  0.5001277517591373
  0.9973095953212439  0.4149384540379192  0.8367330926181242
  0.8349200848780782  0.2500705434046701  0.4977469291843893
  0.9994971368303365  0.3336680014660429  0.2512225501427584
  0.5796149350187445  0.2511035473554225  0.0833872540269432
  0.3307444870080211  0.8329209251671563  0.4139241572717517
  0.7463119144492014  0.3367198918824838  0.4988387389514972
  0.4097243994255242  0.0830904582226946  0.4167838656502655
  0.3319811686260661  0.5851973187092311  0.3374454405422871
  0.7481281587703075  0.4161521764301844  0.4144921422555178
  0.2471177171795728  0.9188087635470654  0.0830066486733864
  0.6644661455391316  0.9143531240097873  0.4980280070229631
  0.2429515396267096  0.0011421123928030  0.8347439116680713
  0.4118525866657290  0.4188040325907438  0.0838564315024657
  0.0807231081362772  0.9993959211879567  0.4973944104499806
  0.8285285559243483  0.7487017035511347  0.6676949480878100
  0.4969323790262374  0.9990316189179804  0.4167891738359137
  0.8292937226561815  0.4166732272628722  0.4984210291022050
  0.0793520046594894  0.4164649595413035  0.2489699127525252
  0.9980173152880354  0.3383584322446015  0.4181044885341452
  0.1637299992639874  0.9157818686791602  0.1623831481624150
  0.0799948294468394  0.1673552450745825  0.6692725693758259
  0.6621845843001547  0.1684764140274141  0.4196996850452194
  0.2462960368667360  0.8364765167438897  0.8332134864698467
  0.7485755941761425  0.9096574570720724  0.4154891457647448
  0.9130339613240173  0.1658206435961453  0.3343835616666835
  0.6626805058060252  0.3305695569521140  0.5834291752350970
  0.3309054161991012  0.3375331949738256  0.4169796046670819
  0.0809442632677366  0.9950707093100746  0.3301182621289606
  0.8319299113096084  0.3292342490089815  0.5841421944734979
  0.9975701470033287  0.0860920745401508  0.8345482566119458
  0.0752012179051178  0.9146654744482090  0.4149786304233157
  0.9964588252387891  0.0838156656189928  0.4986786176833787
  0.8308268833485161  0.0014547600658196  0.0825858703243117
  0.9978486403367293  0.0031222821424807  0.9216306451577381
  0.1666385953644912  0.3337666638209279  0.7508005503940788
  0.3270934509156670  0.1655822678053614  0.2501608254040554
  0.2440157694946488  0.0020499708144469  0.4982145297478330
  0.3344707730733643  0.0808199220529805  0.1653982801727215
  0.9123316398852611  0.5842286086653524  0.0861312250568739
  0.2461659106119958  0.9183596583825507  0.5842301381985148
  0.8303304038541841  0.5024320296998690  0.4160660168191525
  0.0822441832963881  0.2496757377586211  0.9179986602232734
  0.7476117310024926  0.0871472255861971  0.4115851229178000
  0.7477519083756928  0.2510724605186608  0.4106731356547487
  0.2489096738783096  0.2502619901491162  0.2526007480833602
  0.9982697062803023  0.2498779651809109  0.1646874581061753
  0.8310175693736281  0.7478756868828920  0.9958462541265257
  0.6675922368097843  0.3379035627515526  0.0816539964688160
  0.8317445811468163  0.3303829353730155  0.7529231289000651
  0.2485891370847462  0.6659244965191725  0.6658550779970425
  0.5801203992159767  0.0815926292437510  0.1663069541295920
  0.6619856486555957  0.0823339612010136  0.4156788109513262
  0.5810903333285461  0.8289098435943864  0.4171173998338596
  0.7457789848287179  0.0827328737600724  0.3285892628243547
  0.8300099238588239  0.0827879104552441  0.0832055434546589
  0.6641295916966284  0.0007089298649118  0.5002556353667599
  0.4970204556188327  0.8311339573111871  0.3335994791737361
  0.6640883619904390  0.0008230126021403  0.6677003657631391
  0.5799867946812577  0.8322647443666495  0.2490377748013999
  0.8321802900591264  0.0007567557521132  0.4991619999771389
  0.7451493364937479  0.3346861716711095  0.9169709972045536
  0.4973701141494462  0.9978132543083048  0.3315022149478088
  0.9136557784737842  0.8318082228147444  0.2490643933783901
  0.8309473427893285  0.5002197403347208  0.6679480104763948
  0.7460524072461920  0.3337822620297179  0.5855239196008756
  0.4978728359854895  0.9987637041156854  0.8330419424474287
  0.7482749439397034  0.8273836275497508  0.4168390927269941
  0.7460590170370045  0.0824852763223207  0.9996445330934024
  0.6614457368835788  0.4185967540746593  0.9159342596571614
  0.8330892203123231  0.4180504483868633  0.4138854323101551
  0.6633526586234268  0.2474106948915614  0.5842987949118089
  0.7466582392110430  0.5002009581762475  0.0821221198590102
  0.7444988053319201  0.1663479508652667  0.0829949817078866
  0.4973932416068591  0.7501945937216805  0.9151663045223362
  0.5807285512265123  0.0001023283429741  0.7506309693736208
  0.7458102898885143  0.4178689230468256  0.6689314857588969
  0.5808505602264146  0.9165588593555025  0.6688820804635616
  0.5805760800224068  0.9163131537529411  0.8331504151653417
  0.4968270561820027  0.8317442378613479  0.5010030789971209
  0.6628334282875579  0.0817065936458290  0.0833379819370031
  0.4964397184367424  0.8319739871266431  0.1652711497647575
  0.6632295987097726  0.9980663170710216  0.1665346037571188
  0.6632747956898699  0.5006287740590507  0.6677707533795206
  0.4976876852800186  0.9994631764371238  0.6674452813237274
  0.5805925247714080  0.8329661098514629  0.7503684053162764
  0.8291054899749684  0.3340512415394170  0.8360614352002246
  0.5792167598487303  0.3351174774570376  0.2490230584333037
  0.6622252543412919  0.1654525560951072  0.5022312581292441
  0.7463794210750317  0.1648592531945043  0.5849662464044981
  0.6617058409515973  0.3354274539953081  0.4993455582310956
  0.5792433512612998  0.9148808447069028  0.5010730667797983
  0.5795943053195658  0.2483487015084233  0.6686098199002144
  0.6629717326443599  0.4209525442891508  0.0828529062487365
  0.6625031727709975  0.2482282822538610  0.7523554615356945
  0.6627741951705399  0.3354130819466795  0.9981852244183848
  0.7452927024099456  0.2494851097269342  0.8350009793454856
  0.6640600661472651  0.3340816893170411  0.6691320941002256
  0.6630526264740958  0.2495826180788388  0.9168615038752240
  0.7487039569025156  0.3351736302686578  0.0828884276267284
  0.6640382872901844  0.0840843705546750  0.7520258995578079
  0.7461546447296261  0.1679603423999797  0.4146974406957839
  0.6613561676128017  0.2515394545174872  0.4153672280317668
  0.7460046414256892  0.1666902924796894  0.7522752501336911
  0.7486280685622367  0.3349040435804679  0.2486388728679634
  0.7455477951417072  0.4183785311760103  0.8339431790813094
  0.8301724036128115  0.6660006463330826  0.8332146990787891
  0.9130678420328129  0.6686383290914302  0.0827525156456914
  0.6632617714791613  0.9986732168832766  0.8338429688417461
  0.4969869331697125  0.9157053083105581  0.0824893832612783
  0.5807716552281280  0.8332422574597382  0.9157468970540685
  0.7467506669444612  0.9993519948868759  0.9161890214772003
  0.7471656706450854  0.0828625366890912  0.8347881116375140
  0.6624489596640325  0.3348009342784393  0.3328869874193008
  0.5798211797654304  0.1660118004009710  0.9176161256167243
  0.6626450562183990  0.1660229006757001  0.1666216972776332
  0.7465248542923962  0.2506396217447215  0.3288181287413868
  0.7455577252798089  0.3340496007068360  0.4140577668816773
  0.7460786879362932  0.1666380510528472  0.2478985557443239
  0.7462709950373487  0.2497424127041563  0.1661252013667989
  0.6622063636470290  0.0818044732267077  0.2484784405103648
  0.5804298906076462  0.2508274142170934  0.1667134729791569
  0.6628559998564478  0.4208574488448315  0.2489879362017615
  0.9171459233955084  0.2512734773887708  0.4996894121992062
  0.7455942958215910  0.4194255267225286  0.5006082242193493
  0.1657034747758300  0.2511218815233648  0.0832563546983281
  0.8299115477025714  0.3325875454825327  0.6684725935708657
  0.8295768506809974  0.5007899542507926  0.9991597666322708
  0.8310846458832293  0.5022932400291126  0.1652105222798038
  0.8301397850585539  0.5834853529696269  0.2491528836421754
  0.9143764021964815  0.5847722629516704  0.1687034070398311
  0.8310531242552079  0.5855605475241209  0.4164053116694064
  0.9149405120483525  0.5835389876661113  0.3314360227313541
  0.8305040337943864  0.5024888880002641  0.5010654632757293
  0.8290564358462942  0.5835835856378466  0.9160288160036753
  0.9151940288228655  0.3330731963359138  0.5847334713115487
  0.9981979927952024  0.3334781766147696  0.5015569095015506
  0.9140398845707021  0.5001218339252005  0.5840324204792602
  0.9147272319168569  0.2505878857743592  0.3315335970773083
  0.8285021135212854  0.1654758709627087  0.5001442823175214
  0.9147501047313740  0.1663220221531165  0.5861235854671442
  0.9138708874867123  0.4166352161060512  0.6678267982357317
  0.9973884736886119  0.1673352466860649  0.0011760511095377
  0.8293356309079344  0.2467194346919701  0.5863380144930883
  0.0781699967586245  0.9160438495198389  0.6689284138763975
  0.8293216762492371  0.2471863503226342  0.7518141610164635
  0.8303794147406209  0.8327252862785699  0.1654876979124754
  0.8296145116999150  0.4189281626282770  0.0823249445965479
  0.9985763891309118  0.2499217542624410  0.5837110969166409
  0.8301692873494082  0.5026828641433408  0.3317263767919675
  0.9141529910797240  0.9148312157095733  0.1656560502836820
  0.9139669186459294  0.3345210253419937  0.4153673853582663
  0.9121501078063688  0.3352898759146686  0.0822896532827804
  0.8310113171234375  0.5836677205652804  0.5845171804098976
  0.6645607938854328  0.7481964674822182  0.5849688501533442
  0.9970405416996064  0.6666062202962663  0.5003436350947568
  0.1644885692550561  0.5833392047195370  0.7495270107762600
  0.9142077198694528  0.9154829519374033  0.9998375332993216
  0.9131550266247307  0.0824803755811591  0.4987292420232779
  0.8282198656560658  0.2514870615628550  0.9185972612383703
  0.0804984398787480  0.0826038319435627  0.4982639410245398
  0.0824741515459142  0.0831668159807741  0.8353189069471399
  0.8317648920394461  0.7476494463580440  0.4162148691438659
  0.8287529859435288  0.6651419720415284  0.9983423353218326
  0.9962240014175867  0.9144830559155719  0.2479340120274624
  0.7451972966882449  0.7502985741412804  0.9992123558777600
  0.8317196416445043  0.8340667174704399  0.6679144144185923
  0.4983173438305443  0.8334878909724839  0.8328474602452978
  0.8307206078170511  0.8329432491786326  0.8332698520323035
  0.7464765061530090  0.0004383418501265  0.7525787618763945
  0.9142544489565458  0.9160610640574607  0.8342963115296202
  0.8295181941146963  0.4175488867546455  0.9167894088848452
  0.8294645177809802  0.9978337453352586  0.9984216260206789
  0.9971923649892963  0.8331109582745214  0.6667759313106975
  0.9978696631172539  0.7490478801847255  0.9166274183302358
  0.9966551981698981  0.9997001866002909  0.6681255838703829
  0.9127278773413167  0.4167942443401121  0.8354208001624737
  0.9149501990799620  0.8332149847454285  0.9162740767612607
  0.9143673092267266  0.7493769513750690  0.9990814076906231
  0.8320285757016351  0.8302881674451835  0.4995721505911684
  0.8312065226735528  0.8306042472853793  0.3329242944298717
  0.7458700958995780  0.8320936791065143  0.0830296423416384
  0.8328827379098304  0.9149662663708173  0.4157005578188972
  0.3315430708678715  0.4170275146334596  0.5831470608512190
  0.8319820992308116  0.6664725877035445  0.5002931334717629
  0.3326831038987251  0.3326586760813725  0.6665951787530646
  0.7472034243018998  0.6657817684671439  0.5848837481057485
  0.4135894433640949  0.4173661346391179  0.6673494745243901
  0.9146744871982706  0.6661625174998425  0.7505659183660798
  0.9148202509166286  0.6661737240440951  0.5835291249067860
  0.8298908719797690  0.5828066702161230  0.7512200434204179
  0.4131366079306508  0.7496779494069881  0.6662521190246204
  0.9120634634235574  0.2513317074459105  0.1647784778554587
  0.3307483831845657  0.4199913366044898  0.4176145436128273
  0.6636741625928495  0.7478358031183265  0.4167633747994755
  0.3305168577409469  0.6673712583132383  0.1660698110070906
  0.6638881553537193  0.8308542723108557  0.3327371949155064
  0.4980975235713935  0.3350369979044661  0.3326784744336355
  0.8313296649763732  0.7491249702860294  0.2485501951768736
  0.9969150232233126  0.0817997073574339  0.2481823362812037
  0.7468352113407681  0.7491616467406296  0.8325869356473772
  0.7461392765469169  0.5835419206369479  0.3316641907528061
  0.6629815648423154  0.5010636616344782  0.3328018664397387
  0.8315119977801080  0.7483930039367536  0.5828253417588156
  0.1656792668772627  0.1666897626553174  0.4996310000123717
  0.6642605950503104  0.7501039422519286  0.9151256186991077
  0.2449850788231446  0.2499635854860956  0.3355112341291061
  0.5809206105401414  0.9155692000526686  0.9995050631608353
  0.7490246019616744  0.8303591272430995  0.5845266877241438
  0.8286504089286140  0.5839175140228839  0.0819664071177983