Cr  H Ni 
 1.0000000000000000
    21.1200000000000010    0.0000000000000000    0.0000000000000000
     0.0000000000000000   21.1200000000000010    0.0000000000000000
     0.0000000000000000    0.0000000000000000   21.1200000000000010
 Cr  H   Ni 
 259  69 605
Direct
  0.9133652461956315  0.7502781796488524  0.1656505096872793
  0.0808197237876987  0.1666522412358870  0.2505992620609298
  0.9977589573763898  0.2500022935845662  0.4175969326140405
  0.6613717482670455  0.8344013268743491  0.3309718114241541
  0.7456373340061369  0.9989860200519266  0.5827007891311385
  0.7455286903794014  0.0865169951184316  0.3346126313479227
  0.5803130124999915  0.9170676515348146  0.0007868614707879
  0.9158939894153056  0.3323884135802572  0.9163560340543804
  0.4124816938107471  0.9993926888354948  0.0836374976093132
  0.4946101198495912  0.6670904861798034  0.1645734798450285
  0.2450416851070938  0.1676608101199946  0.9171395166929405
  0.0764919549578550  0.8361995505205027  0.2485109258365731
  0.7442622830919708  0.7493160800476791  0.1653714655665750
  0.5791689477200935  0.9974200460283453  0.2507475875250299
  0.0822334595645598  0.2501441707184727  0.3323383081096670
  0.0814329768556627  0.1667754779333410  0.9207513716454008
  0.8298159344880520  0.0802828251403467  0.0849699880161559
  0.9965723291841947  0.9981902602422106  0.3361532834234684
  0.4137861941768086  0.4177234908776784  0.3362687677078002
  0.0793408686327898  0.9995144600381769  0.0827770253119388
  0.3287068990645451  0.0817538792145920  0.7499424241895024
  0.9970457221858746  0.5858736325940134  0.7507506037957524
  0.6601012495357742  0.5028391188309259  0.9984425610094873
  0.6635420877173092  0.8337951729214036  0.8331370578192823
  0.4947692708915907  0.7447324681330284  0.4171510625028484
  0.8299729994529552  0.9151907100199266  0.2496996701169944
  0.9136648554595702  0.5802348660831740  0.4963169715866694
  0.0787611731978951  0.8337291856308143  0.0818018642259637
  0.8310984911170461  0.9136493333396435  0.4171624443496368
  0.5782454343243805  0.7496655471359582  0.9987567822632464
  0.6608846620981591  0.9153381416453329  0.0824395080167811
  0.9949764147199566  0.7514778876009031  0.7494226898814556
  0.7455475777688002  0.1669850531609702  0.4170919961919141
  0.3279643836707593  0.8354169670548397  0.6680091603973765
  0.7467926990293884  0.4173117384151290  0.1668829112604493
  0.3310397101848256  0.8353418061360780  0.8324103857139353
  0.7467135756884883  0.6686300726495216  0.9162879709185854
  0.7444779098143247  0.4159875566809022  0.9985035961450233
  0.5800641384560055  0.0798785499709612  0.9979371976253857
  0.8307821024895021  0.9150346390778568  0.7478865606809704
  0.3290443776972363  0.0000440071835539  0.8332261886982042
  0.3316730867482907  0.2513577849703210  0.7498152545222477
  0.4121705641597128  0.9983213881273290  0.9137624630567625
  0.6645336378116241  0.0817318509094952  0.5813162219400188
  0.6620000961051674  0.2493977900638827  0.9173535194522030
  0.4951294776172577  0.0827605167974107  0.5825731971570736
  0.3293687068040128  0.9998189611249136  0.6681476602609542
  0.7475786685584211  0.8374372795598701  0.5829807327394502
  0.4121851891452573  0.8346077720746133  0.9148782199835830
  0.5813447442219499  0.9993901698241632  0.9167256621491443
  0.5797777668087907  0.1659797564437166  0.4183672230704067
  0.0806371446287774  0.7497103186689944  0.5034169899552856
  0.9133049311937907  0.1661521157969072  0.5821401009970247
  0.7454633801744088  0.7489898346617117  0.3330308819907319
  0.4970768554879610  0.7508656505139691  0.9163531998059746
  0.4969523815346891  0.0007768126162461  0.6663733782169722
  0.4130195324906228  0.1674029398663309  0.2507401906027500
  0.6618466795300081  0.3333697682416675  0.3344300216450308
  0.8328965443639752  0.0008913679167287  0.3320533811698229
  0.4918366841104718  0.2491361017483367  0.2485186744845361
  0.1641422017592985  0.2460970654019809  0.2512379647470722
  0.6602673434595197  0.2488448480650681  0.0810777148169802
  0.3299323081986344  0.3324167176788502  0.9964949742939093
  0.7497307558578126  0.7518381638950846  0.4990289872546859
  0.4967475452830484  0.8336278553935245  0.6655742156907941
  0.5780499057613873  0.4993737430113095  0.9173833849551054
  0.9140813205708418  0.0849041420829976  0.5018720885362608
  0.2462497708302132  0.0811120260986373  0.1667840632544249
  0.0790148500581355  0.4162142398943947  0.3303719920684661
  0.3284290621299809  0.0008135634121000  0.4994146925003154
  0.9975775080724160  0.4997670368538701  0.5002940917169268
  0.9972706238736734  0.9994268107235779  0.1616225431368978
  0.1625150937334673  0.5818426896624069  0.7479832824130604
  0.9949765648976737  0.9999603056939741  0.0001385960652258
  0.7451007430343425  0.7503408315518129  0.9987181924242544
  0.1627731252157489  0.5009240944045982  0.5007524299326310
  0.6637896525524860  0.6687041564504800  0.1622733543376970
  0.0798922286165798  0.6646793767994085  0.0762675011975032
  0.0816214154298695  0.1671936953312967  0.5815756122467403
  0.0790957231100324  0.9962942308475249  0.4127903411379102
  0.0786025322929359  0.8338598389139930  0.7519664919939102
  0.8304440212839227  0.4144972084799460  0.7507221734000453
  0.5782114473866963  0.4981093756801104  0.7498385886069862
  0.9983294261819636  0.0812208832312683  0.7524519654509825
  0.0797304543176471  0.8323842326869018  0.5829217427865248
  0.1617316364439048  0.9170440562058336  0.5828894057953350
  0.9135617828986792  0.7521351037831275  0.6696023334064242
  0.4953540125748967  0.9196415086683601  0.4188775369763149
  0.9939105710456583  0.0007101699654262  0.8339730069579423
  0.9952694449171894  0.5824955602007283  0.9171624587714171
  0.0803035765928824  0.0014348187767572  0.7486047399637692
  0.1620915031507829  0.0832297606764048  0.7468481398434432
  0.9130593301511208  0.9158245170831320  0.6689363091424301
  0.0814899474500808  0.9973145180075420  0.5857376519458862
  0.9137363777173384  0.7491180047931205  0.5004769069903584
  0.2471864764879689  0.5015410949385851  0.2470807044343447
  0.9976980108035300  0.9166792174629248  0.4154452595572465
  0.0794440774654160  0.4997485026593991  0.5825298988766303
  0.2467217885654885  0.0808368331611639  0.3346901234389074
  0.6681584060074068  0.8332658762252027  0.6663259470454721
  0.2467583567459591  0.2488922277918404  0.1666598788248749
  0.8298538363857790  0.5833520140902186  0.2481154771063298
  0.4955981365074750  0.4993632426092094  0.5018628559473474
  0.0814195072860138  0.5841273772343607  0.9994281134173004
  0.0804159819465609  0.6602956134979990  0.2526746427721723
  0.1634653607539453  0.9161924756561044  0.9186939199869106
  0.8279385880892838  0.9176254152207757  0.9156023740183922
  0.9103046177108814  0.7501634854316686  0.3321919244790082
  0.4128055949832330  0.6657826565020118  0.4170550785580779
  0.9137855082144744  0.7524498138663892  0.8329042965013914
  0.5800475960966818  0.5827178605372612  0.6654048291435269
  0.0831840956774363  0.3316625715297389  0.9181767136012219
  0.7474888682837864  0.6664397948335756  0.7512600747308193
  0.0846495405840860  0.4985248049923960  0.7503943330543417
  0.9139039982513292  0.8345384353476168  0.7514435379262735
  0.2463658428370142  0.9174184416353868  0.1632628939617869
  0.9961823542143089  0.9186877272770063  0.9181960265939939
  0.1646459663334958  0.2486361355434976  0.0848389340931288
  0.5752961376703485  0.7474877815418548  0.5028434000354508
  0.1641317507778270  0.4170456585300643  0.0818043442611461
  0.9979529334521028  0.4161179904687010  0.5813597256719762
  0.5801569029056931  0.7510036021832861  0.8314195887904678
  0.9963465260963444  0.3320259903855067  0.5005370236681617
  0.5800614206566591  0.6639538161778686  0.5846881657629027
  0.6633069124104151  0.8338880095324835  0.9983269311724917
  0.1653773922999703  0.3311819590405023  0.5004305385566282
  0.0789694082665244  0.3338142051967166  0.2502265210063701
  0.5788777345103611  0.5822894756912207  0.8312130790409499
  0.4957667497806723  0.0831041774158916  0.4171236749214295
  0.5806830994309755  0.9167987786063057  0.8329892891351107
  0.7480802893661344  0.1647755754202122  0.9182377014143203
  0.8302559537525430  0.3310492687439816  0.8327920262159090
  0.3300846513243625  0.9173190430620334  0.7501969930840757
  0.1651040936985408  0.2483942476012267  0.9183545442524127
  0.9995647061044584  0.4999905693241772  0.1630150041938662
  0.9181081664044375  0.4138474751614367  0.9983734727142087
  0.7488307776353895  0.9995578230381873  0.9159116026550040
  0.6593304383631650  0.9984513563027035  0.3352012540648464
  0.8277579007226549  0.2545279909846209  0.0809412681258065
  0.7473217752776498  0.0825412348763720  0.1656270810356146
  0.4947958890360012  0.6687195345992925  0.9968008523055356
  0.1615897890104445  0.6704844010117387  0.8343753043127795
  0.9115068821525077  0.1650247765853286  0.9171616881475801
  0.9125806765532420  0.0830135457671056  0.1653623864090399
  0.4941682023947736  0.4986461724406880  0.3335350720582730
  0.9135162618448156  0.0803806869175849  0.3334806563092484
  0.9986719093909677  0.4104819475400325  0.7493701457225407
  0.6646139707274965  0.6683725764346156  0.3377054366238127
  0.7456064096138465  0.4997874334049876  0.9148606423302750
  0.6624668011596930  0.2495592046566867  0.5836134792044972
  0.4943798780368795  0.4158004551223645  0.7498143039576179
  0.4953389366193512  0.2471237510443670  0.0829865400193361
  0.1634537268465372  0.2515296510892831  0.7484320813314879
  0.9111360954853297  0.5845009900538771  0.1647442817547098
  0.7454742874689474  0.4177400296473799  0.3352066392406149
  0.2471243655518415  0.2479832936977663  0.9999070630060731
  0.2476794356242590  0.1661639687976776  0.5827666826851073
  0.2474380562266573  0.2482693263764799  0.3343499103584747
  0.9129744946672638  0.5006128737173285  0.4209802024587240
  0.6662588869477625  0.5018286704558556  0.1646868783347635
  0.8303903992715771  0.4158184290973878  0.5823720425734739
  0.2472982819425724  0.4162650457396186  0.6657325037025185
  0.4961091959914020  0.1640260228975684  0.1694939351566825
  0.8308213041627628  0.0838107837006474  0.7484641504557956
  0.8291681255422229  0.0840046158400706  0.9174985967675708
  0.2463346735437780  0.7517376466716743  0.9940077360909138
  0.7447265263638596  0.0816076717996272  0.5013822963754139
  0.6631295998656943  0.0783025736491303  0.7487327137299929
  0.5811442394150176  0.9987710632682811  0.0813214271178698
  0.1611493516170185  0.4965289259898067  0.8332794816159139
  0.1640657039006840  0.7521721372653374  0.9166932666768839
  0.9168212376979121  0.3308284130264885  0.7487336774779191
  0.3284218077921408  0.6665217668670209  0.8328839067608869
  0.1626694145165329  0.6683860336965304  0.5040081414613118
  0.4969768311184734  0.0818726767184335  0.7488398584494791
  0.4910560725912830  0.2508638397945799  0.7501025611911682
  0.0802042163298586  0.6679753683530064  0.5823805932613468
  0.4945573831261880  0.4214066405886372  0.0814656493333358
  0.4114479098488165  0.9194404962114022  0.6663263156889200
  0.8307799407008944  0.9158477290068846  0.5836461788181110
  0.7456635278279380  0.2498929380469170  0.6639330926093346
  0.1626165573507616  0.9161905892863679  0.4159301952245799
  0.8274223098569615  0.1655168012118028  0.3351781519045041
  0.3283347300703748  0.8325697576046986  0.5001093300430131
  0.2473379446013680  0.7510720259893662  0.5007524466971304
  0.2486945309068500  0.7498037117540126  0.3339563151703058
  0.5831885829486094  0.1662584344277715  0.0831860943482305
  0.2495631439072251  0.7500244126361180  0.1686456703298368
  0.5784655087312197  0.2470264287133930  0.0005478347136836
  0.8264544066013565  0.2509514394646840  0.2548891798065854
  0.5736823427977397  0.4175368499639692  0.9985260568105294
  0.1635700549628893  0.5837486805089532  0.0805197011498905
  0.2464497846649133  0.7517274672397786  0.6684552486761639
  0.9136769960967550  0.2499607962886289  0.8335784302630761
  0.9151736869299804  0.5824608675986969  0.6713520512017767
  0.9142311522784577  0.5826138211707521  0.9980706566156550
  0.4110697405024687  0.2491925518996067  0.3347167329587699
  0.4132095483747796  0.8330101176788034  0.2475672520486107
  0.8279737151579804  0.4992247060634129  0.1661980782202536
  0.9965563191839411  0.2513960710162969  0.7487904361532920
  0.4120573584374760  0.4166105596658763  0.9983120988897842
  0.4108357339705653  0.1667199170495152  0.0845976660292350
  0.3300438564624728  0.3311062411275751  0.8326844170402888
  0.5792422556571170  0.5825071786689994  0.5021032799325850
  0.9128304570745182  0.3375771842916107  0.2513657481120288
  0.9156591734465049  0.5826769019371778  0.8339173898714427
  0.3287319337757330  0.4989003232586783  0.6658404875900659
  0.5781902950035602  0.1647564920856545  0.2489781320471425
  0.1637211720136190  0.4200953808403149  0.2485448918269231
  0.7446588142416605  0.4978410227224638  0.7503940721008776
  0.0819247349435827  0.4151869684477730  0.0003090485145724
  0.9129625812077579  0.7523443402196134  0.9971610525898817
  0.4111217141187675  0.6658566757253852  0.7474059524994395
  0.6646099289272747  0.4986489934367824  0.3355611179444924
  0.4964312261237824  0.4185646217284470  0.2524596130843325
  0.7474100855995585  0.6634998380711536  0.5865372689009098
  0.1637590979256486  0.5835734090616158  0.2498142882849573
  0.4125740449786785  0.5805058239655233  0.8320153898661390
  0.5789455818712816  0.2493557071244715  0.6619885419007053
  0.6624865823002704  0.3324977852373364  0.5014979515257995
  0.8293057627041173  0.3324573320076266  0.5010653299567818
  0.4119300989568214  0.6674167005224564  0.9183356735142282
  0.4121488370279389  0.1647654137574254  0.5829595152799379
  0.2461118191989162  0.5778919286549703  0.6665593685157648
  0.6626345135557118  0.4159778129719263  0.5816527649279040
  0.4118830927096996  0.6659008822434995  0.5848545107424511
  0.3293124039929980  0.5004404293604292  0.5004854913022023
  0.6617282153467074  0.3319632218197229  0.8359113222703541
  0.4119306398597677  0.9993330009274486  0.2520437526329573
  0.5774767520280445  0.5017786032051079  0.0786148879606373
  0.3295232603927637  0.4163867699723832  0.4184326722430362
  0.4116257623286704  0.3333121485036428  0.7491968158091505
  0.6647673425709599  0.2499201302549925  0.2510682862350159
  0.4137809237673354  0.3336001460796211  0.5813771631100612
  0.8298874953318590  0.2500577879016783  0.4173694501698843
  0.9946467938819266  0.7511065325453232  0.9171182914886641
  0.9126062517334591  0.4136228727639524  0.3351435294144881
  0.4942814456841148  0.6665149813901631  0.3352106450661390
  0.6630820397717981  0.5829370582338637  0.5845584602114815
  0.4946007392407138  0.4170842728630732  0.5832141590776311
  0.7454379708975731  0.4987088280755064  0.4160182991247325
  0.0797885034555499  0.1716068251959327  0.4137280331174042
  0.4943551058925217  0.3328018928789185  0.5021964036401724
  0.3265306768739353  0.8328839557123507  0.3342409586857761
  0.0810627049550386  0.3327823638034649  0.7488604054522393
  0.2468459646743946  0.0831930661098132  0.9995185471600763
  0.4129024591855980  0.8322740758179247  0.0836556980238696
  0.1634932869657503  0.8336632907721906  0.9990081463245848
  0.4141691941716412  0.5847120874713481  0.1656000700409315
  0.2452164535777561  0.5840070944275532  0.9991432930019368
  0.5807651583374493  0.8328076823541498  0.2513568735529729
  0.2475041730948598  0.4157678281913347  0.9990642750206137
  0.8292274838819124  0.9149561415802718  0.0838706836612950
  0.3296495555845147  0.5001709914940995  0.8321934283361910
  0.8307482843565264  0.5837427307880472  0.0829183034661034
  0.3309581044986462  0.9179261699190854  0.9131319170644578
  0.4122497950493406  0.1656497100044680  0.9161142253984416
  0.3280301843544248  0.3334239192033113  0.1701927687670663
  0.6615678011751532  0.9123626139459802  0.2486912088420432
  0.0816834910586411  0.0836130399436218  0.4169069079645244
  0.8331362526123409  0.5028558928973765  0.7505667625998897
  0.1638779929213419  0.6662455071274902  0.4137447134883720
  0.2402486955771737  0.8391531760466827  0.6678997662280690
  0.4146621285051539  0.6671128841275463  0.8327533294009896
  0.5784061762831770  0.2517572852291881  0.2508934557594889
  0.6654440478986088  0.0005252055807721  0.2482058769117616
  0.1647499110974323  0.0833198790304495  0.8383652265586850
  0.1590591030999459  0.7499245270519249  0.1645394321033832
  0.1669346297851114  0.8337389819915263  0.2497464577932045
  0.2476266665158095  0.7499629718590362  0.0810083625763433
  0.6633382207298415  0.1689358179412515  0.7490155512717895
  0.9152852833059822  0.2485770680709960  0.2502533278684558
  0.9963356736234853  0.0832162688766400  0.6625720653789712
  0.3290745059054662  0.9174851402971179  0.0032296331008708
  0.9997607943933057  0.7488220297732459  0.3333840156686310
  0.6628374189485599  0.7500833735988505  0.5010223366166882
  0.0784805587142686  0.6668209740206432  0.1647044417039074
  0.4146574376730011  0.8332185662074441  0.3358196033410151
  0.6586831418281034  0.4140812846293137  0.1674303291425394
  0.0790054846393159  0.1671360056247445  0.8296256066951573
  0.5789583546909608  0.5836814379258688  0.2507803540217685
  0.9182221810636153  0.2509506556398578  0.0841369720210358
  0.4984259869602853  0.2496391632083977  0.3368563613725992
  0.4123277411273994  0.8317668447906389  0.6659063477449322
  0.8296561992307082  0.1671364382369968  0.0838313427600155
  0.1634826379491167  0.5830574315301350  0.8348445241088296
  0.4944898307897854  0.3347803518761627  0.0830928640146728
  0.8273659105123853  0.3313666236442308  0.9194362386451516
  0.9974083530320983  0.9988171688060034  0.2488297217032291
  0.9974454939203198  0.4987900863577663  0.7512249629695409
  0.4973467288925228  0.1619825242463258  0.0824953920567705
  0.6621149496049509  0.3343498878412646  0.7454272718071396
  0.4956122093755349  0.8321620007765834  0.4183669457341911
  0.7464802594379221  0.1662149417872046  0.8289777626113415
  0.8314565564079720  0.4175204029654007  0.9995365940715475
  0.0798678466802786  0.7480984016540319  0.2485142616847724
  0.4085248739797180  0.4179525000130265  0.2475606265760100
  0.6631726767279031  0.6662688161634875  0.2500290646596601
  0.9155138060619347  0.1691571337731278  0.3341025343085035
  0.7484225012224843  0.5035759732241353  0.0017213193880459
  0.3295289786185479  0.3337469718759967  0.0828813617685738
  0.8300265867610095  0.2508127991531083  0.1680597310165471
  0.7479104409042455  0.6623149109776895  0.4979609478732470
  0.7480054906065670  0.7508171786088421  0.5858663723381611
  0.0819019806476568  0.9999842163503972  0.8373068017993117
  0.5804269883336123  0.2493981003294007  0.7520302100564281
  0.5765752356217146  0.5007763935553795  0.1677427800505972
  0.1655881981277791  0.3329483517544247  0.2504127383012973
  0.0819673126202463  0.4167745052234340  0.4200654870190083
  0.5788165351367767  0.1651650423133170  0.8339362962467910
  0.9133545876931685  0.4975098268925147  0.1654955837748685
  0.7464890911677058  0.9987986220335984  0.3336080003173960
  0.5824842114585758  0.8326795375085918  0.6659435221937069
  0.8282833992910413  0.3278325293620649  0.7457209509144006
  0.2474070024218999  0.5016904194283149  0.3375419095350823
  0.9975367948353188  0.2483303107439003  0.0026017138667517
  0.0792201810258216  0.0012050787066162  0.4989622341123504
  0.0798366980632371  0.7500563181477118  0.4134434024986427
  0.2457024461129980  0.6643965661110335  0.6673653115533864
  0.9134547199673039  0.5035493283972049  0.3319667648668629
  0.9976258607465689  0.5008628812006507  0.2535128830515965
  0.6591184192747095  0.4161245423687100  0.9991469923770653
  0.8301727898225458  0.0019823417609378  0.4199494335733681
  0.2471764033520594  0.9172106307790998  0.2542741179419457
  0.3302364923083046  0.6658668003382939  0.2489051677087339
  0.1667838488320600  0.4167783114805392  0.3368891190236937
  0.9127996127432095  0.5827746086306241  0.5836261501539252
  0.6629686208802369  0.8341286561423098  0.4208796803122271
  0.2488734335626883  0.8323296307370808  0.2497149845835045
  0.9971783107967869  0.5843747329660745  0.4176640989144073
  0.9978195110982443  0.4982334777757669  0.6657183902616403
  0.9964231877041642  0.6677620475801606  0.8341604885818140
  0.9977497222384953  0.5835819955008529  0.5834446357570124
  0.8310065026042636  0.4994160866464215  0.8345705089163997
  0.9985045801810308  0.4977012800467135  0.8346551937511043
  0.1623160611571814  0.9178041716145855  0.2483486732396554
  0.0779884440016837  0.5839920670024539  0.8346239644552089
  0.1638450213000731  0.4994031051438669  0.9987704956998643
  0.9947193520872664  0.7501703803714584  0.0811321300979397
  0.0789325579209749  0.7512912999952530  0.9985688275743113
  0.9955037068711252  0.5834283023820839  0.0803063801502141
  0.4142535265230681  0.9165582433583074  0.9997701220564805
  0.1628761594963897  0.8343567270380322  0.1641903841606363
  0.0804326604775390  0.5824447576610906  0.3341126169755879
  0.9955438727236127  0.8342848781962868  0.3329322573636217
  0.9121205258663018  0.4985203886429913  0.2494941828267860
  0.0788009842715089  0.6677454794119443  0.9170227636936780
  0.5790944805907133  0.2497566736693751  0.5013527320429099
  0.9941264519447310  0.6658745462578635  0.1644169430609990
  0.7470538235256292  0.9175286209159783  0.8321353843717865
  0.9990814606841308  0.4151102675532765  0.9170958188574784
  0.0800609392593883  0.8349194565135936  0.4167445279161204
  0.9977931420544141  0.4993213080098053  0.9995469587417156
  0.9957647092204197  0.8328373444436451  0.5008780375684777
  0.9143691239341331  0.4988360923147351  0.0804006535346608
  0.0773273864581270  0.7506408650132570  0.1637365226410997
  0.0800893624195239  0.5822119243061524  0.1642280952198337
  0.9941783453076793  0.7490467350021200  0.2478184269897173
  0.9127373699902097  0.8326964948366049  0.4162882213743969
  0.0813000646265169  0.4134999803558227  0.8335847961453395
  0.0801649437353534  0.9151314015333618  0.3319912252855898
  0.9947464457597428  0.6672636886600374  0.9987041031533088
  0.0800831656833244  0.5005720031430768  0.4190030325187648
  0.4958639198935569  0.1657049799209477  0.5000361897947536
  0.4956444251496054  0.1652320750537364  0.6659369850607526
  0.5788799022822285  0.0827655161176414  0.3337539656739296
  0.4952489360499176  0.0811453305302833  0.9167130929174326
  0.4957785126364426  0.0010873418421860  0.5004294418909137
  0.1622053256408314  0.7501165558932243  0.0803834984225877
  0.3304394222736117  0.7510419678816636  0.9152129326662302
  0.3308704562257060  0.9168016023151322  0.0854640938884625
  0.4140163474496051  0.9170492257643830  0.1670096166040498
  0.4109804990600134  0.8332896311341663  0.4195921033387802
  0.4136503073407652  0.9176110104252514  0.3338006626070720
  0.2465824517281186  0.9995990323968895  0.5831646980936682
  0.2460325696504410  0.8346493435805931  0.5823480751712622
  0.4116904490520503  0.9180471292658647  0.5008849066741784
  0.5795094443003899  0.0002226130527587  0.5831483179997864
  0.4136248303795150  0.0009576344102124  0.7502974739376238
  0.4137915937028429  0.8331509302577710  0.7508979720348393
  0.3304051841648005  0.8334250675080991  0.9991605330450408
  0.4153231414788879  0.9175242598830049  0.8306479256716129
  0.9125417005042377  0.0003548044212580  0.7499525019425235
  0.4960512436451524  0.9987091336209318  0.9992842416003054
  0.5783490468862057  0.3340720844545673  0.5825554638722351
  0.5784822937958752  0.1648852478013118  0.7478438120762182
  0.6639408550919067  0.9166275545862481  0.9164034158642312
  0.4120438226412091  0.2480595028449324  0.9991079171976258
  0.4952650321968796  0.1632045690591463  0.9984674943036388
  0.6642039597363942  0.1636231321701117  0.9991255678833877
  0.6620526883036687  0.3308548106248842  0.1665259078912562
  0.5800924761636244  0.0802241109774855  0.8329162829197446
  0.4116185124501203  0.3321305166461850  0.2509373996085461
  0.5803918786953000  0.2494125256679425  0.3353365830093809
  0.4958120479118561  0.2489261656850572  0.4193148441343143
  0.5788035912672589  0.3353423434816896  0.2506839943381863
  0.4123553773365909  0.9997977592255830  0.4176312101195050
  0.4953374997070172  0.2487693500054020  0.5827755905501238
  0.5792310970513945  0.1650645300835707  0.5828849351879233
  0.4968684842643308  0.9169848084282474  0.7484924940601269
  0.9947550090496562  0.8327962786738758  0.1649586682027274
  0.9974651495112073  0.4996694346810412  0.3358703655210094
  0.9970533460121213  0.9172637828481028  0.7505788959334113
  0.0802971404028717  0.1670986927117730  0.7473572778152896
  0.9971231937202938  0.4157742646906251  0.2501735720648680
  0.0812013428359688  0.2495993230622346  0.5000687079472128
  0.0817681012737537  0.4170592665777950  0.1662642306239925
  0.0803868158123799  0.2506187759928928  0.8329952163831521
  0.9959406925862044  0.4153549008982903  0.4184532204710050
  0.2473247449073701  0.1656201396370106  0.4160363554020566
  0.9131971784999801  0.4160062879235212  0.5003513105848292
  0.0809980744146144  0.4988198398285182  0.9173667102563565
  0.9953887385329609  0.0829962770350060  0.9177394879957403
  0.9983750180530506  0.3338790816537466  0.1670448180360314
  0.9978412580495418  0.2489846514365743  0.9164991001851335
  0.9971325248463065  0.3333995865963260  0.3338711164237974
  0.9994040407135836  0.3330397978264476  0.0003498399041534
  0.0812230396451209  0.4150129067293833  0.5011695870241211
  0.9984855536781496  0.4159698978379486  0.0825515749745327
  0.9140961271773774  0.2492524167403968  0.6648833359029106
  0.0811586852608603  0.4150362558814596  0.6653751314626409
  0.1630682335706142  0.5826667346423747  0.5837639055819205
  0.0800537881800373  0.5837629839169881  0.5012755988953178
  0.3299315838394055  0.3321435506251014  0.6658488543779842
  0.2459101919386525  0.4989836433765745  0.5824946344577898
  0.4119860936506916  0.4155977419301592  0.6657874704317216
  0.3288190128847603  0.5828361842792963  0.9158414272725938
  0.3292147027750683  0.4166544459408091  0.9154900737471602
  0.0798879820516143  0.9149459435776056  0.5002276477639421
  0.1628078934797023  0.5017346762686022  0.3330695285768714
  0.9980196345785757  0.3322389438328310  0.6644322608885170
  0.3296190967624236  0.5842185445788513  0.0811129283552588
  0.9973287318437477  0.1673946413541813  0.6652770580316706
  0.1631779194080420  0.5007995300095895  0.1650406381208756
  0.2462781603617391  0.4177627681157943  0.1659080160991323
  0.0818093803323315  0.5011873375064898  0.2491485458283443
  0.1630130849225704  0.5824300242802958  0.4188363922259962
  0.2471858797109410  0.5002536524422436  0.4206312555258845
  0.2460463068304773  0.5833207359506629  0.5014148413988737
  0.0818234659039469  0.2491950754643344  0.1681211810134386
  0.9994974825165318  0.2502992502700497  0.2506273773677417
  0.9975414070894179  0.1663957247222067  0.1674301420197614
  0.9130195601087393  0.6671022780594944  0.9159379086503128
  0.9960426967036398  0.0831958309471731  0.0835969515602034
  0.5793996613878730  0.0826528342658957  0.6656990073910538
  0.1637742324112743  0.3315662258545898  0.8331820104460970
  0.1639324386744487  0.4149941544621528  0.7494347953177969
  0.9985670809436059  0.3320693824849007  0.8346666042065269
  0.9943568898795363  0.7494555889224023  0.4186842233300357
  0.0812114213678529  0.7502156432784809  0.3310662718171741
  0.9957388891911073  0.7498199373251005  0.5842340798343646
  0.0794211641817850  0.7506704476834896  0.6673390941418623
  0.0794742984078791  0.6661836121998164  0.4175596521490959
  0.9961878029279663  0.6673174724571489  0.6674699089653942
  0.0793752372759995  0.6672354638590687  0.7509345073803571
  0.1612719403469844  0.9174033876297506  0.7499474277488206
  0.1620225676623241  0.7504779132966705  0.7508915734394539
  0.9114846434114214  0.8329476134917956  0.0820057616172486
  0.9946685179194076  0.6653919993348979  0.3328317081094024
  0.9995585207781361  0.2497543185019711  0.0858072341892107
  0.1606140892567988  0.6669222298618167  0.6669722408959756
  0.0809552004568745  0.1656003292357226  0.0848181990635916
  0.9975209706739692  0.0838729493669836  0.5810105381935858
  0.1637801537857716  0.0825074494565875  0.0838435226037989
  0.0806120325517600  0.0848246436978457  0.5009331128110053
  0.0791639063593780  0.0825432282295652  0.1659752683399741
  0.8292467064542769  0.8318697094512995  0.1658617354461182
  0.0794390918240627  0.0835411942966658  0.3322855369908209
  0.9976215303668037  0.2491482722154264  0.5816677742074753
  0.9127921768797090  0.9161281187623317  0.3333053955193276
  0.9125049092660307  0.9159726911583774  0.1653110053915288
  0.9980156883780390  0.1663892132557182  0.3327526600090548
  0.9138960158671413  0.3356977516684392  0.0829090478886503
  0.0814488185863908  0.0840689407170380  0.6650135390414327
  0.6630803018572167  0.7483140145254625  0.5856291066121622
  0.0792150159276713  0.0824239074961982  0.0012440084711683
  0.9970628350537577  0.9162186081790242  0.5839255633965016
  0.4135344637465897  0.7516320262349321  0.8327525998518102
  0.4957763247638747  0.0791069771506217  0.0827396598624139
  0.2463811546248003  0.9990271969314882  0.4169542907475988
  0.3294198310841335  0.2481591162252084  0.9161288796554949
  0.3315023818253988  0.9164950749358277  0.2493270896039063
  0.3279698441760789  0.5816352858095662  0.7493857655726389
  0.4130708133951622  0.2488830222206911  0.6654310061503023
  0.4116912660315480  0.5821854295441476  0.6665165013741123
  0.4127803332017981  0.0831098020323067  0.8324737613451499
  0.4109587391264365  0.5004696084200382  0.9156132234376695