Cr  H Ni 
 1.0000000000000000
    21.1200000000000010    0.0000000000000000    0.0000000000000000
     0.0000000000000000   21.1200000000000010    0.0000000000000000
     0.0000000000000000    0.0000000000000000   21.1200000000000010
 Cr  H   Ni 
 259  69 605
Direct
  0.9135789191898802  0.7487402293915113  0.1640904180257597
  0.9987611822728487  0.7486813518304313  0.7492941071488864
  0.0804542868232536  0.2486249823661791  0.3358567779174300
  0.6621947539177808  0.9154167501271071  0.0817318990145117
  0.9958951769150097  0.2509135692884496  0.4146876488792417
  0.9947230133461421  0.1661381973591845  0.1699262969678504
  0.8283828028230117  0.9992242607373679  0.6693695980459482
  0.5768286211757599  0.9150045060755058  0.3314983509520421
  0.5788302723987357  0.9170251121779820  0.0010943488365681
  0.8289946702416886  0.0004561498944163  0.3267826759153784
  0.4111117480739831  0.9983866058307458  0.0839953573340959
  0.9140904555078012  0.3329304317020715  0.9146522348311961
  0.1653150223736543  0.0837733748983261  0.9183024625714866
  0.4951900250783444  0.6666207155555740  0.1661976229690097
  0.7455389431620804  0.7469700321862176  0.1630435983722747
  0.0837458835389119  0.8324073847085746  0.2496512473439295
  0.5831238063621567  0.9966029137348825  0.2507474414343719
  0.5761237400429491  0.7494653125502504  0.9988480911926452
  0.0836154352978284  0.1677984544843524  0.9142048201866825
  0.9108251506975891  0.9178471125866293  0.3241245111571754
  0.9134122799130950  0.0793722481663445  0.9988066557985382
  0.0765951933283311  0.9995197927209347  0.0827945262999713
  0.4136828732353512  0.4166970265870207  0.3332368543303609
  0.9997376860980368  0.5832910655900893  0.7497690326116755
  0.3295100977212068  0.0811539292925341  0.7494862120992758
  0.7452826246406931  0.8341444359388476  0.7517301314062317
  0.5805510136486757  0.4991016542384774  0.0802776697660778
  0.8293613574636545  0.9151029612759722  0.2485077805838495
  0.5790737806433023  0.7485132313347123  0.3317747280496742
  0.0797919507713581  0.8326377510394305  0.0819734087446057
  0.9155260254443165  0.9213252324024701  0.5015424196091856
  0.9159389580816939  0.5811839282225404  0.5003915908688974
  0.7463688215059242  0.1677027117345384  0.4169350149070937
  0.5771876075322689  0.6686367071101748  0.9177625518248487
  0.7496680516100226  0.7464569232925459  0.4990262622840693
  0.6638448170828956  0.3339265256373494  0.3359925677927118
  0.7478759394253548  0.4187978657781090  0.1659451641237021
  0.2468281962470146  0.2499237750100085  0.1677013807085512
  0.7466437283074421  0.6670926846034625  0.9181332678078018
  0.3297796035015825  0.8341803357979699  0.6677911348346428
  0.5785711533561567  0.0807734694103070  0.9992460234220736
  0.3302631460654860  0.8334181635850345  0.8323651003800917
  0.3296601272436578  0.9990532183554015  0.8330449134507406
  0.7479998931644956  0.4187448424466175  0.0004376085746867
  0.4106000749003702  0.9986253832531835  0.9148505970827338
  0.7453812288372744  0.9164953248228881  0.6699193864203155
  0.5775330400210362  0.3288653582257889  0.9220783595167945
  0.3314191667442863  0.2516458949653765  0.7497890165073179
  0.4130790854044662  0.3356798827302890  0.2516131082491581
  0.5783595462126685  0.9179804781899712  0.8361823709762429
  0.6635749269965106  0.0877113483581684  0.5856742418523004
  0.3287610863531978  0.3333094867259505  0.0005354872867951
  0.5799768187339086  0.9997864231595767  0.9174437895059538
  0.4961541063625842  0.0875059801267321  0.5827794350503189
  0.5001357074238328  0.8321865539708960  0.6680298245470196
  0.8300319981679218  0.1651906659098859  0.6681629942157904
  0.5798881676827906  0.8307768589370493  0.5873109763036168
  0.4097649087907912  0.8344680251604831  0.9159129746951861
  0.5793078798345835  0.9152586229821905  0.6706093588070018
  0.5805042479392588  0.1675128421288066  0.4167053621544916
  0.9992152598787536  0.7487164002928668  0.4167257803453316
  0.8296213339276639  0.0872404140111760  0.4124329364011656
  0.7453310118728463  0.7451784546547440  0.3309826766509197
  0.6648817619665792  0.2466278133812546  0.0776877693356489
  0.4145271457409235  0.1678406256493056  0.2484842913376573
  0.7459679511028658  0.6674837248701286  0.7510977583202078
  0.0807846117415631  0.1652606376241177  0.5841194183811694
  0.3289522487576752  0.9987312118057480  0.5016799545075209
  0.8328158731525286  0.4158682692826393  0.7495064508324064
  0.9966785819272885  0.0001572297228099  0.1663339568479046
  0.1623336760595462  0.4996663555036932  0.3337703940505231
  0.9973885080101794  0.9993213209915202  0.9996607494235855
  0.0814851419072289  0.5002482792790980  0.5839561497494044
  0.6634648906174250  0.6676974298616796  0.1644646212781986
  0.0817053340168830  0.6647679719496667  0.0812547710632720
  0.0825818986660239  0.5004820430027815  0.7492603849733244
  0.0781290511530782  0.0849530117216186  0.3330969109480826
  0.0802543410816210  0.8315129083280549  0.7530420030336520
  0.9972284802935418  0.9163171239089699  0.9168209688553781
  0.2481095052483279  0.0821002236308803  0.1665710816151647
  0.7468295508348094  0.6684983769568982  0.0830416554089195
  0.0812881581543114  0.4993555042671888  0.0813093420315918
  0.9144660216250028  0.7451489239344573  0.5040401822418297
  0.9137900292477680  0.9159393396792226  0.6725967703348231
  0.1633360635137281  0.0829059556062401  0.7512654546291554
  0.0819012668419020  0.9999140154131033  0.7527336177760080
  0.0009896065682295  0.4995913284351667  0.8284115571430825
  0.9992426739217533  0.9993985212108056  0.8345187225023933
  0.0796074679229387  0.9997976283056134  0.5834503361038526
  0.9159947487448714  0.7505609763775432  0.6710922297111791
  0.1617331025198949  0.9157242510637811  0.5811494063803065
  0.4995098271852777  0.9127867369313889  0.4153818816255175
  0.0816412245810718  0.8335122239048609  0.5825582812769177
  0.9991525979742123  0.0805623202977379  0.7529104377255865
  0.5768695012551454  0.5004589071263005  0.7483428093936881
  0.9961280744231878  0.3362882663968267  0.5016859866323554
  0.9991358409771263  0.9973277999308505  0.5015817092153383
  0.1646642187283789  0.3325541832546439  0.5031810350065646
  0.6614277639258361  0.8326377786665019  0.6697468241402044
  0.5771129264252968  0.5027939835992530  0.9182861212952874
  0.1634769652971987  0.9157602815759807  0.2516653019414199
  0.4962101614717842  0.4981047678499376  0.5007409278366437
  0.2451153212348516  0.3345466753338914  0.2482575625683017
  0.5771031039845554  0.7458129755489087  0.5005025085140334
  0.1644067626443812  0.9149674570545829  0.9186872411122785
  0.0825847533492509  0.5845714946032957  0.0005775844225645
  0.5784204962592197  0.7489026508932221  0.8366526980479262
  0.4161471293597744  0.6655657131563976  0.4163858710831316
  0.8300395899518741  0.9166998769529560  0.9157309811346049
  0.6634646204999544  0.8343000266128223  0.9991915094951006
  0.0828942791360057  0.3329981816475929  0.9166204754986725
  0.9149699269606923  0.7509993482486601  0.8319084231603370
  0.4960414104580645  0.5825474412653561  0.7501253874270983
  0.9141272105509409  0.8321950738011645  0.7527436004869220
  0.3305159782584935  0.9969635319848625  0.3311770717129248
  0.0023370167797048  0.0823780661165179  0.5860426576201798
  0.1658700941096089  0.2531681622010246  0.0850648361075599
  0.8294253807026976  0.5824388813175656  0.2475281887139414
  0.0814191618498001  0.4185814858314000  0.3335531781376471
  0.9137159457881067  0.4181405206568575  0.5017764534374356
  0.0769907036373722  0.6647442020664117  0.2499150797554810
  0.9953072603512610  0.5816233659619641  0.4192157607801270
  0.5792024084425205  0.7498342193506836  0.6687507015374945
  0.9141975915778955  0.7479495662527854  0.3285255594565846
  0.1644214994660648  0.6678511257640601  0.6657925157607473
  0.9995780436557401  0.3342532932195263  0.1628954465121430
  0.5786878454299109  0.5807682455153272  0.6680998992808336
  0.1631585262628945  0.5001181720819888  0.4996708950383614
  0.5001820804788163  0.0883178439906155  0.4154487193834954
  0.3294978119891422  0.9993624973831031  0.6678498022513304
  0.6614116015483050  0.1656096648590667  0.8383975588152809
  0.2464132547463946  0.3337101456503759  0.5818659121483266
  0.7452660202932250  0.4183116261001781  0.3341106370770804
  0.8319274334486547  0.3316480609836863  0.8343165615117125
  0.2475260043366726  0.2479954499046327  0.3344978941047438
  0.1643035470738381  0.2496787262902475  0.9174668580136325
  0.8297573798039549  0.4171564490431296  0.5857187787791347
  0.9141353149074118  0.4153630103000903  0.9974467329835560
  0.3307942208901357  0.9158564068849684  0.7494045415281522
  0.6626408430846149  0.0030096084892044  0.3312911891235520
  0.9959665032201709  0.4998776380150580  0.1654840113386083
  0.7464582128744794  0.0831599153839613  0.1658988560031146
  0.8296059702087093  0.9990678142574833  0.8336205817004296
  0.1648389274271276  0.6679512744180766  0.8330593742619483
  0.8294829949584132  0.2500598806327551  0.0810995808664930
  0.9120481873530297  0.0832518802944367  0.1654780182585584
  0.9140025019145436  0.0026673283883140  0.2472122379574657
  0.4946761533925114  0.6676027031476486  0.9996490730613791
  0.6667886234518552  0.4998383922227843  0.1647603828961862
  0.9990251008743326  0.4178388967773772  0.7505173602143929
  0.9127152566364866  0.1668384801245839  0.9115045657214088
  0.8306096691852429  0.4971961608747514  0.6693155330239369
  0.6629913588573777  0.1656378265650308  0.6632138077178680
  0.4140155198930442  0.6655058142122154  0.2502884136212663
  0.9179060572852045  0.5842115748481356  0.0014841021124301
  0.1647359568082352  0.2509619173414861  0.7483713242591510
  0.6642274511624128  0.6673996015723551  0.3325135592083187
  0.7479101463739196  0.5035573654723389  0.9163181910586652
  0.4105645743624390  0.1658581760903349  0.9168948394317253
  0.4950390927428537  0.4161453395080587  0.7488203873955290
  0.4914851755768204  0.2497139824804178  0.0834761438766153
  0.9132585403730367  0.5013340930556888  0.4191207279401691
  0.4956809523505810  0.1658996639216457  0.1659732006285921
  0.1641502217694841  0.6662314714922664  0.0005269479244526
  0.9152227494068221  0.2504219569571308  0.8343233241092917
  0.5775000549718190  0.3372115756194566  0.0805563639834818
  0.8297430212745872  0.0824036345214094  0.7511794696142780
  0.2472648706188205  0.7496771861391907  0.0007930655419584
  0.8308092866980206  0.1661119944070541  0.8346719355556310
  0.7459130881832035  0.0830631922952212  0.6690379712795821
  0.8265354827194289  0.0827760465455364  0.5904134924907063
  0.1627136683825795  0.4991618246772837  0.8328947974292837
  0.5808804060198501  0.9991302775721277  0.0807645837979697
  0.9150953795491971  0.2488745692752924  0.6688002246965243
  0.0802695884636015  0.7509906161918235  0.8324012177607155
  0.1635660422561832  0.6672476842351867  0.5002175694144531
  0.2458847383174865  0.7493739973279215  0.8337930205064270
  0.4956760608257209  0.2509703568904881  0.7472341043094127
  0.4967071487504110  0.0831015959186498  0.7509845798968481
  0.0813487466674245  0.6662326315139961  0.5826501656803680
  0.2469067055300996  0.7497765492775080  0.6660432452509625
  0.3293285963663505  0.9163326007839251  0.5854112952138230
  0.7469701957079149  0.2484445647228523  0.6665535870017416
  0.8275862277805929  0.9161715900942028  0.5878798718935301
  0.9133329642830486  0.1665243126987027  0.2472745574246684
  0.1632967398847673  0.9141357985075479  0.4151579623105607
  0.2459664194979574  0.7500552345739554  0.4988361471749295
  0.3286565828498101  0.8326776351802336  0.5001280055801265
  0.5793360283553403  0.1624361700531367  0.0829492309337347
  0.1635781866875197  0.7486399310636490  0.4169442339384137
  0.5789508787568481  0.2473149487158642  0.9978471192050766
  0.2475387838747704  0.7497814546391733  0.1664999858760081
  0.5778792969602918  0.4167128784178841  0.0011125336828852
  0.8286666447453305  0.2511048925422381  0.2492267740247175
  0.9975973793705559  0.5837025051081025  0.2482102129163833
  0.2476998471001137  0.1655863372961494  0.5840950713633168
  0.7471609874175156  0.5008265249350629  0.4174331829708126
  0.4124928824845365  0.6657516442188702  0.7493873277367975
  0.0819276830985892  0.2498553668263061  0.6676335172715273
  0.4125461001280891  0.8321844825548720  0.2492501918149812
  0.6624577799826568  0.6673983912474970  0.6699545767689852
  0.3305245427783027  0.3313509488388691  0.8323393692370203
  0.4091282699217261  0.4164127141987349  0.9993396772750321
  0.5749238254222289  0.3317051695917974  0.7467933046974680
  0.8308774171002830  0.5001638672071972  0.8296402283094310
  0.6639097855974577  0.5003252505841659  0.5009673861428079
  0.4117534002249568  0.6668246959142597  0.9166271869135605
  0.1623804811844252  0.4188764305564213  0.2507586458978189
  0.3288116813221576  0.5017060085916049  0.6673127452204651
  0.6638902230139339  0.4173430175651755  0.5818363434063605
  0.9141513908775383  0.7511504917918892  0.9990365141005156
  0.7476940217721191  0.5017011753166872  0.7498111886190750
  0.3268509833465617  0.2502758926902308  0.4165285804015942
  0.5808060314588896  0.4136800429554979  0.3347828165948394
  0.8303681258203479  0.5002801018350607  0.1653543884423082
  0.4125275236610845  0.3339465676771375  0.7486437357598371
  0.3299176049801666  0.5840548960204538  0.7502940901164724
  0.4137945078047602  0.1674917633928720  0.0849240446301540
  0.4127790265491490  0.3341134986685085  0.5812054538085892
  0.7454505862566034  0.4204344637155694  0.5014021045487115
  0.9096532657138511  0.3338961323194388  0.2523570626504626
  0.9969142004208581  0.8335079288139928  0.9988828768247049
  0.2478440570283189  0.5809874449742165  0.6666110880995642
  0.5798815518896451  0.1672644110434495  0.2487398072459823
  0.4954193655154809  0.6663788912622060  0.3317539921876102
  0.3301320732372183  0.5001942989645523  0.4993242238018080
  0.0827992157292964  0.4163035074597529  0.9995117377172252
  0.4095570861243076  0.6629831748617646  0.5829245493264941
  0.4112706839192358  0.9988731407318665  0.2517877627182606
  0.4131100330529529  0.1645928687369171  0.5834610655873291
  0.6622832587354994  0.2468385181252434  0.2521607030220653
  0.2467458590632384  0.7498221439833084  0.3335681419083923
  0.8299114894968799  0.2489545191823932  0.4176106478145883
  0.4117597776063817  0.8324673191753470  0.0833290582077839
  0.9131173746650636  0.4149867152234534  0.3339497206264796
  0.4130299842502312  0.4983240669232609  0.2531028926264949
  0.6648456183736988  0.6633942664958129  0.5008258670020440
  0.6635761732295875  0.3295756210342594  0.8365706721376066
  0.0809496059994315  0.1654975249748793  0.4152512246767319
  0.4952098095934340  0.3331186571123690  0.5019087874522510
  0.6669872774844124  0.4979209066760513  0.3346360208941380
  0.2454047749832435  0.4973349373508368  0.2511812538821512
  0.1626475208113148  0.4176001939300869  0.7497228131746019
  0.1616688411569585  0.5787394687228504  0.2495555202892750
  0.4953146405750588  0.4163110464478414  0.5810271201957644
  0.1637162175942430  0.8321688927749522  0.0012538023724440
  0.7476946429393704  0.2455288321670393  0.4978827031025927
  0.2474723714559941  0.0825568635030730  0.9991792971114094
  0.4120947933041246  0.4137703465198279  0.1695727398290691
  0.4950707577975648  0.2489304127858146  0.9228614636398067
  0.3304734611070043  0.9156128245689438  0.9164728671886441
  0.7438363661272810  0.5850369811006063  0.9977564542111076
  0.3298717543692187  0.4998290643702301  0.8318575097855816
  0.6631659510089186  0.9143661266328600  0.2456543079842723
  0.2481725857691793  0.4161181805709382  0.9988450358011439
  0.5814213235778558  0.8333608607087062  0.2485804918101013
  0.8298546811627117  0.9156312351832929  0.0825774385934400
  0.3289122171312248  0.5835730161590574  0.9162639827043675
  0.3290433662374990  0.5838675808559173  0.0828745478803099
  0.8296249021623077  0.8310272889930911  0.4156294706752031
  0.1681192432637202  0.0830862826115092  0.3322000937673456
  0.9960358262729204  0.2477859692677408  0.5035148363104228
  0.6642056553030340  0.9147260676728128  0.3328875937990252
  0.7475519652133911  0.4140900290473943  0.9134167199684061
  0.7474783474692394  0.3330395298857294  0.5011443946756017
  0.4954084897226823  0.0001493291711380  0.4160143487668829
  0.9973030505560773  0.2507916880438262  0.9993419657967563
  0.4957451422328834  0.9971826451504423  0.5842901595967788
  0.3303736616533648  0.0870250102777819  0.3332951439650904
  0.9148925055929860  0.5845794447838285  0.9106188483233070
  0.6611532179612436  0.1660537589723284  0.7504180094269280
  0.4996495518468761  0.6650072384489497  0.5832631644010495
  0.4092617862715606  0.9147716768367061  0.4156659383269699
  0.9142849884681470  0.0839820453872742  0.5836500760871504
  0.1642115047015945  0.0041537264741610  0.4166469342605094
  0.5798027935917509  0.8358842598735019  0.4982679994505588
  0.4132473663417052  0.7531764614842245  0.5832961408989110
  0.6633364299715194  0.3356405289799089  0.2477198342558855
  0.9103576271502427  0.3348399201821438  0.1633692075316319
  0.5762801572939603  0.4158273916579348  0.9148119984151039
  0.3265849718090445  0.6644024216609682  0.4160891169788143
  0.6667590503972839  0.3355445469478630  0.0816203331061691
  0.6636628093457879  0.2502872692398688  0.1648123777736182
  0.8295681735960033  0.9985602015241105  0.4171423431400238
  0.6611565269590814  0.4207748255177436  0.8320559338645500
  0.7457217767239973  0.9165638606028651  0.4170725824939503
  0.9932804020293245  0.8324969658930216  0.2486817218712115
  0.9961757670929674  0.1673380873285110  0.0803359921417037
  0.0812222053366897  0.1662399142487428  0.0039345233370527
  0.5782990155929014  0.2502011275801145  0.0832898629379631
  0.9982369206004829  0.0856463055359950  0.4966218256101422
  0.9982570778396639  0.0002358740764579  0.4106980415134986
  0.8306413912170378  0.0833022870849675  0.5007482946780490
  0.9135001186654335  0.5036489714984491  0.3303365420053455
  0.1679861914196122  0.9992262856226100  0.0834232011715742
  0.4172621023165303  0.2508331699492783  0.4161833494629715
  0.6642603389200803  0.3321807525111854  0.7462270635459268
  0.2496922985012066  0.5858351824651918  0.2509638661325900
  0.4115745473693097  0.5025193168099206  0.1646463568162298
  0.0830173259812731  0.2532062516263092  0.4218445623128020
  0.7452200340519068  0.4132307566335893  0.7483233289745820
  0.2467369662472006  0.3358158784541900  0.3368438760827759
  0.1659899774696256  0.6676654218803642  0.2501243951853592
  0.1653955237822146  0.9158479684379899  0.1629701524864190
  0.1633390554099145  0.9163430183150203  0.6713802564178974
  0.9114180951971088  0.1689924407801310  0.0009977901090333
  0.4945508314364651  0.2475181617326755  0.8350773120545353
  0.7448849348282215  0.9989392095400197  0.4996059953564496
  0.0803816975071029  0.2492836904329498  0.2449749220946160
  0.9152475650911077  0.9151088232628005  0.5867655290976761
  0.4906440147197645  0.5014234040475173  0.0828934791735057
  0.7480703435585685  0.7483246981730428  0.5892324783273283
  0.6632742354619167  0.7501948536816084  0.5012687797406625
  0.9144528796093109  0.8330685075560594  0.5003275631820076
  0.5771774026045131  0.3332718519865919  0.8341209825342625
  0.4089398767864603  0.0839777738415054  0.4168346183694893
  0.1643241374665212  0.1631356226049519  0.0853164154671579
  0.8304620433468037  0.5843352440662054  0.9990887695135601
  0.5778446113957268  0.4999902282656009  0.1688080058453599
  0.5796386374579966  0.9186474134241298  0.5813385312408041
  0.6618766062564079  0.9973100855314584  0.5833769859041928
  0.9142128748382971  0.9145965398063959  0.4129678832225414
  0.9984349358215449  0.3339916999009732  0.2524972765867698
  0.8317712373438427  0.5875206603713338  0.6665027231382308
  0.5780415149233538  0.5023337819695654  0.3339050982520957
  0.9122376464632325  0.7481810654743379  0.4160995138582904
  0.9988092520143030  0.5002559721020332  0.9190754304737671
  0.6641094617553492  0.8325547040665071  0.4164536568995151
  0.9148352896059707  0.5825431316693350  0.8291949322522388
  0.9999193957075116  0.5845241102349729  0.9162893931846521
  0.1647496388763321  0.5002585275969621  0.9996550645978020
  0.0814054756603031  0.7497932962622064  0.0002482154777140
  0.4125862426399772  0.9162683048079321  0.0003975847002295
  0.2462825325522230  0.8321079731607558  0.2505285061054930
  0.9978655536064660  0.4986000058290028  0.5020169859262524
  0.2482156513221444  0.9156714725731956  0.1671598916379967
  0.0830229841525248  0.5842547738416325  0.8331909230815766
  0.9985183368462636  0.5001974549737347  0.6674499321543221
  0.9973750014720461  0.7492186937742300  0.0820205655474781
  0.9985627180831321  0.6671880184380274  0.8326630858623073
  0.9977618668648609  0.5829632430392889  0.0828668679048946
  0.9983330405192222  0.5826224052608734  0.5835712409987549
  0.1635555379628829  0.8309241253376149  0.1662450514838966
  0.0793672351714100  0.5822644256956143  0.3338636388190654
  0.5798881130366945  0.2500440514230679  0.3333453585326576
  0.7462204384661970  0.9161886176795727  0.8347428896215092
  0.0805173112664796  0.5821056283684644  0.1650348077267934
  0.4970570430910041  0.2507304705172564  0.2491212419244253
  0.9140958363182674  0.8314131176927768  0.4148477018942818
  0.4990775712012032  0.2502862145367831  0.4164569008614383
  0.0809556390914793  0.9155102059465299  0.3314816805481080
  0.4969662396139940  0.4160697917747760  0.2505839067277151
  0.0817177650164219  0.6671285107458844  0.9165949818895710
  0.4115713598292012  0.9990589786494739  0.4165368773263131
  0.9974479760449169  0.6657679503824341  0.1651838017155697
  0.4948226537858583  0.2498086740181461  0.5828601213460211
  0.9985816512856347  0.4156728696769050  0.9159921402229745
  0.5787184890004445  0.1667318860977399  0.5830786582771990
  0.9983279739918182  0.4995148491631395  0.0010764473522180
  0.5793542354710933  0.2496945965724721  0.5005759216254828
  0.9142063230694132  0.4996638541916588  0.0822072062663523
  0.9969581568699875  0.8316332500779110  0.3319669915834613
  0.0801582213905413  0.8324712431070436  0.4156942589704398
  0.4970079382245983  0.0019410730396161  0.4992562167139002
  0.3297762907620104  0.7499296352332756  0.9168393188659268
  0.3308066864354305  0.9154902855503199  0.0836895204421784
  0.4131576795204885  0.9160732699243610  0.1669027996094872
  0.4128097339819188  0.8314741306105502  0.4166677120042743
  0.4140398835405891  0.9150531113733978  0.3310559752512581
  0.2463499311710934  0.9986962004059744  0.5835128854661522
  0.2460584375683623  0.8334408293327339  0.5828717290133298
  0.4121878120826772  0.9162983359080838  0.5016240699023797
  0.5795118934450493  0.0025511966494629  0.5845485298139090
  0.4132371610372221  0.9998016291529257  0.7500283669376349
  0.4136432927222498  0.8328443904366656  0.7500135010895618
  0.3300583103243532  0.8329827174055162  0.0004126735712621
  0.4138464866300822  0.9166619078436014  0.8319515214921075
  0.4964175523134371  0.1674172692506027  0.4998498765418645
  0.4976111286342057  0.9160647869172569  0.7517679646143629
  0.4953892183781855  0.1663255307271691  0.6671115378881785
  0.5798042611209561  0.0845688890003567  0.3311306626379146
  0.4940789695051047  0.0819800898485526  0.9178242542322335
  0.0815317508436990  0.4165764798362894  0.6664536938901446
  0.0799541194363945  0.6654960655109076  0.4169082617557945
  0.9975840663033458  0.7497750506068915  0.5847537000491047
  0.0808312033423008  0.7497720080061443  0.5000576255601392
  0.0820701037828658  0.6663704652929965  0.7498526530742416
  0.1641907987493748  0.7496664712117072  0.7499984855190036
  0.9154761858900639  0.6688367671777666  0.9159733178959384
  0.9143112807443660  0.9993097089135398  0.7522229085344116
  0.4948432318929810  0.9990331809594540  0.0002600961690736
  0.5793471974569419  0.3337683291509470  0.5822447389361142
  0.5773978785748847  0.1662612561762545  0.7502651757612706
  0.6624780057361666  0.9159857293301306  0.9172993981841493
  0.4111387869019873  0.2490812251866904  0.0000077362132514
  0.4937413049394175  0.1637414727623281  0.0013592871654893
  0.6634020721060021  0.1633843528260774  0.9991374340482890
  0.6643411364914442  0.3343944806944592  0.1640908431533723
  0.5783529751475913  0.0831074158176867  0.8351629888910965
  0.1635785337874973  0.7491201116376038  0.0836071987594044
  0.9967214966602954  0.8317157648644220  0.1641927380723181
  0.9983247099292045  0.8326214326798274  0.5004983879096979
  0.9988760498694480  0.9157718902561602  0.7524854420957573
  0.0818691508925768  0.3350832589546049  0.2504180692881725
  0.9988937238316652  0.2505628278190175  0.9151186190469027
  0.9964503849387397  0.3341836953581245  0.3357132366314033
  0.9981612586160629  0.3351217606117293  0.9989955412514724
  0.0813397567596297  0.4166134726396472  0.5015277737395542
  0.9970758587655668  0.4172535711692574  0.0817417520291161
  0.9979606478274051  0.3329466981560268  0.6676076630292334
  0.9973122865194864  0.4177233751542631  0.2498866923512593
  0.9143838828531572  0.3323823935676683  0.7504091294687094
  0.0801939091432664  0.4182531292098416  0.1656138577910349
  0.0820755336105816  0.1660644270073055  0.7507232277004413
  0.9968288585753722  0.4173476811693145  0.4181099341356433
  0.0817345856679647  0.2496507493081157  0.5034239399572525
  0.9975728140835707  0.4163246284299314  0.5840977385588345
  0.0825000259189916  0.2502150128241306  0.8322954813200224
  0.9974851387312359  0.0821302851853744  0.9155077459772735
  0.0832425622114824  0.5000223993590047  0.9166822632326097
  0.2478896249581535  0.1669131540369931  0.4173288927166803
  0.1645162799234979  0.5832367884516696  0.5827226274529939
  0.9990920867324478  0.1659918731434027  0.6692282191445588
  0.3298177694053568  0.3327142239362248  0.6659100321278426
  0.2461447698323427  0.4171148311854066  0.1673024136021945
  0.4117574606402053  0.4165133000296183  0.6654010831058689
  0.1629521060014842  0.5824449073799781  0.4177606517081878
  0.3290331602095110  0.4164848988264658  0.9161041792960783
  0.0805831130793331  0.5827772608097220  0.5005959206035973
  0.2464201739267761  0.5821571907278533  0.3346747951288512
  0.2468082098713908  0.4995035549492926  0.5821246905490745
  0.4128207105492864  0.5850723590900764  0.1667957990335354
  0.2472272913791410  0.5839686907762308  0.9997239758795886
  0.1639545363394099  0.4996269148705165  0.1661100305629140
  0.0804788306476180  0.9153123772550877  0.4992169437130347
  0.0789603459641743  0.5006581347773087  0.2484822967258011
  0.0815096172715299  0.3336972513808159  0.7496651480882707
  0.2458839355246004  0.5000060780355157  0.4177661384071488
  0.2460182137401351  0.5824999288391017  0.4999964768946545
  0.0804543963261468  0.2513209365649467  0.1643190718591306
  0.9975441607747695  0.9154249062548369  0.4143695283987903
  0.0812970461266516  0.7500023885663349  0.6664863019203737
  0.5788143329947740  0.0847646922280300  0.6671566690947814
  0.9987314786770762  0.6662425252235772  0.6663165706343596
  0.0802580013612466  0.7490940211781979  0.1655308078413847
  0.1630168088191276  0.9152470045191198  0.7531413303600543
  0.9967808874595780  0.7474596777753371  0.2479198444456579
  0.9964975736857490  0.6658734126095531  0.3333494001280379
  0.0822036759205025  0.4149875376846044  0.8336255549330416
  0.9131579775632229  0.8328977725714056  0.0817578234165350
  0.9978691575330272  0.6673347028058034  0.0000535777706710
  0.0802485509582740  0.1656377180542413  0.2498776169851138
  0.9131419779033658  0.4994728374523307  0.2479800863243665
  0.9959116905269437  0.0820058076620901  0.0832779451889188
  0.0795658391175798  0.4996221724547561  0.4180245223805519
  0.1644431072898290  0.3324609713281585  0.8324652563295230
  0.9979135800699674  0.5000067191635417  0.3331923842528129
  0.0799782733226307  0.7485840788590050  0.3330890221086587
  0.9987808992032623  0.3330835042171755  0.8329885391435280
  0.9968987540031459  0.9993983213353662  0.3287063090916710
  0.1650095422791771  0.5838227885742709  0.7495142000684346
  0.9954705054285860  0.1672496678946543  0.3320144430267894
  0.9142405798120736  0.0823882687060792  0.4997084282046822
  0.0819240403321058  0.0831527942252428  0.6682785014202630
  0.0826142440094182  0.0841462908548680  0.4994402631619679
  0.0807072819776070  0.0812449340825214  0.9987945294473431
  0.8295513764107663  0.8317085364185288  0.1647308890501297
  0.9966762821381164  0.2522905182145574  0.0848157450681453
  0.9979298594875896  0.2497532504391427  0.5869115655549065
  0.9953481420936964  0.2500629798601134  0.2498453985322419
  0.9128814335843646  0.9163739079501618  0.1657251039396485
  0.0805936726720724  0.1662735122332968  0.0861388881113478
  0.9124588171239228  0.3347357096086983  0.0806079753046057
  0.1645077844326552  0.0816863656909128  0.0835435571377975
  0.6629450854216954  0.7480109654615323  0.5863127914931821
  0.0788532351806493  0.0821786682950207  0.1669354045074375
  0.9999918522878984  0.9161397622734048  0.5854659354137141
  0.3304142851628398  0.9153968793060271  0.2493643230015434
  0.3297384804348971  0.6669133166084319  0.0002024382524037
  0.4124605987508836  0.6666135515780028  0.0834169308033385
  0.3309582067332767  0.0834920203255391  0.2478138928202620
  0.3307565710052415  0.9989897794140726  0.1670689917400124
  0.4133688142981453  0.0819570793570346  0.1671101148280464
  0.4121671004148637  0.7500391271714456  0.0001415009510450
  0.2473790430019684  0.9161191271203983  0.8337880612256124
  0.4961894285282774  0.3336482757977569  0.1665448415179370
  0.3295920750534748  0.2496417914325232  0.9165217750316862