Cr  H Ni 
 1.0000000000000000
    21.1200000000000010    0.0000000000000000    0.0000000000000000
     0.0000000000000000   21.1200000000000010    0.0000000000000000
     0.0000000000000000    0.0000000000000000   21.1200000000000010
 Cr  H   Ni 
 259  69 605
Direct
  0.9135683464619394  0.7499033779995280  0.1650781999203523
  0.2459494745956146  0.7505403890866418  0.8339402811502521
  0.1632885430549135  0.6680707498138048  0.4998075810048032
  0.4966489340290628  0.0830086981459809  0.7512573629060376
  0.4948534186456815  0.2473177674349716  0.7517900140248180
  0.0807515017607586  0.6666742535700323  0.5826552054005841
  0.5763639822001506  0.3360505530406032  0.0810725789406892
  0.3299238587258872  0.9131422973945934  0.5854827617462075
  0.2480461768318997  0.7514170216654346  0.0003552925906250
  0.8304233329872832  0.9162054303769515  0.5873104003520003
  0.7460847700328487  0.0836202629292627  0.6682561073002184
  0.1658795900164118  0.9134063611142709  0.4152651051135404
  0.1623557452671738  0.4997630027437693  0.8342773551401956
  0.3302890538443828  0.8330774059612324  0.5000828601203022
  0.9197291507110569  0.2500187607323071  0.6710861389555968
  0.1636771152535001  0.7485445067939286  0.4176977526386439
  0.2469382534030832  0.7509730658806274  0.1638652387556610
  0.5785822681174606  0.2479281285739560  0.9967598208614982
  0.8291245941930497  0.2515930146652324  0.2482995166483293
  0.5787753339975518  0.4181326836604650  0.0008893731876566
  0.1646346778725642  0.5844764327983658  0.0808707805627153
  0.2469868437985326  0.7499601941925548  0.6664024747193609
  0.9156957729389988  0.2499825462290790  0.8339282011535381
  0.7429738119799955  0.2502331617863662  0.6670332691949796
  0.8298715492931542  0.0816716025504376  0.7509358866696364
  0.9137090535716300  0.1661444524748328  0.2465650488942356
  0.8338365377235479  0.1664353954309733  0.8347015013937876
  0.2466339542962202  0.7504959529985344  0.4998798616399269
  0.8294031037877534  0.0830757213456264  0.5874941408913676
  0.5789993596985362  0.1630585597582767  0.0827788093265539
  0.0796676211800084  0.7513215331791191  0.8327836819918171
  0.5814558897062103  0.9989675550827460  0.0805051441751737
  0.4955974360643398  0.1650737067040456  0.1651921374718919
  0.2466633337863162  0.2469772218622613  0.3330606649145479
  0.3288604463007855  0.1650337873335027  0.0006968761579991
  0.8342567634450982  0.4185995121141178  0.5803046893737437
  0.9134424451677369  0.4997065952816788  0.4160955626138209
  0.3307115793122034  0.9155621946316326  0.7502253328971640
  0.2463350546064997  0.3332682135750865  0.5819942002465219
  0.9967046412420526  0.4970760169822704  0.1654761318868572
  0.8303010342989128  0.3325319710028295  0.8348052272565458
  0.8298743972744759  0.9990445645567101  0.8335275804610915
  0.1638527294604314  0.2486298475664323  0.9181579708560305
  0.8294563128051804  0.2507530018384995  0.0814848757980967
  0.9136457136999301  0.4149411634144314  0.9986831682423151
  0.4945288474888430  0.6685442930619528  0.9980243884057389
  0.6619910336796538  0.0031947590197782  0.3309517390280120
  0.9130075854471542  0.1667080359441681  0.9130549116267127
  0.9146528735265969  0.5823517002496578  0.6671916359552581
  0.1643489809941567  0.6683146768626633  0.8337976436846332
  0.4143962089516693  0.5848200258167084  0.3334099004047656
  0.9126689991058921  0.5839687477995040  0.0022347288380251
  0.9129155734862174  0.0847317461647144  0.1650569017109913
  0.6637359588325651  0.6669086054798790  0.3359551668913007
  0.7494909701563570  0.4998181893777087  0.9173872118765888
  0.9141892141732306  0.0032688128594872  0.2463361139392578
  0.4952182362715439  0.4202512020189529  0.7498579534901151
  0.4916709906760875  0.2500532257789354  0.0831607693627018
  0.9995856346423183  0.4183480418083312  0.7513500052957840
  0.9966870235332052  0.5829140326922317  0.2477786623534488
  0.7449098712281851  0.4168949005277180  0.3335069273298160
  0.6625487465604667  0.2516355725660472  0.5834075227582257
  0.2477873777080584  0.1659736566818165  0.5841045466832404
  0.1645503681362784  0.2505404170639813  0.7493825405589967
  0.6635868941752875  0.5021001942488649  0.1647739462546452
  0.7487848158295592  0.4999274303971428  0.7522174399405617
  0.7465933700665119  0.4985321619271984  0.4153779986450316
  0.0799408049641136  0.1682392745238375  0.4145635327096393
  0.3310033720473617  0.8323390235494617  0.3319680149472926
  0.2460815677516702  0.5012287281232132  0.2473740047806779
  0.4121622352804431  0.8326561352730044  0.0839159587612816
  0.6616842973125309  0.2502704659657305  0.2482479717356157
  0.4968900649777606  0.4991412644186958  0.1657942404586095
  0.8303063578184807  0.2490372540606972  0.4137422861554459
  0.4940073719477532  0.3329814614155179  0.5017803331627201
  0.6642400447286254  0.3319394086962340  0.8335839870583437
  0.9130631688037376  0.4172125648691832  0.3337551010412154
  0.1630930575140467  0.4182614381692426  0.7508551745310144
  0.6645362795327165  0.4980475854671462  0.3341218403831710
  0.6614452294568048  0.7502227030313923  0.5869667052997469
  0.4938195012631373  0.4161163395380157  0.5823689042202944
  0.1635287080163818  0.5824225959622088  0.2473260631507065
  0.1631850018144428  0.8333627963460264  0.0010536806678190
  0.8298065792173211  0.9161836968658198  0.0826424230597563
  0.6631241299300326  0.9147538034591668  0.2459106840400928
  0.5806688983226528  0.8327553337599251  0.2487788543442430
  0.2466684864754676  0.4151951416156623  0.9998300205957384
  0.4119296879073975  0.4153086561769486  0.1662584634630561
  0.2468950749141254  0.5840453245765785  0.0002770308894987
  0.8301731167520379  0.5832754446709180  0.0813171823480185
  0.3303097929585654  0.9163895472649919  0.9165746512229062
  0.3293632950229654  0.5845983533522728  0.0817046235705900
  0.3288463475267262  0.5004199658379904  0.8327687817832318
  0.4950310580537772  0.2489419957420298  0.9199945787997825
  0.2477697033953431  0.0832978486338819  0.0027576846180783
  0.6624123505502519  0.3317522842813938  0.5013766758533953
  0.4124659867946670  0.9989492925464172  0.2502292729986305
  0.4127482856132731  0.1645780433868184  0.5842178854747226
  0.0820087815637589  0.4115255565948955  0.0004316614937879
  0.9126207307949673  0.7513925053665714  0.9989591963751918
  0.4128172790681619  0.6662300814547829  0.7513091940932582
  0.9979038487832257  0.2493827819794467  0.7497681377372908
  0.4119835310768404  0.8319931601680008  0.2494775746347314
  0.6634005416206594  0.6656584814163603  0.6710927143514628
  0.3298308576889766  0.3317841506171548  0.8328860508338055
  0.4097841158340231  0.4163458787719543  0.9998049200869584
  0.5799608896041051  0.3318126797297612  0.7485138379833172
  0.8309153102828145  0.4998286409935888  0.8316486081443931
  0.6623890361374214  0.4963644851968482  0.5007677407740040
  0.4124598452526159  0.6675765505875086  0.9171683087455422
  0.1627487157733911  0.4157650883711875  0.2496630748262028
  0.3288150608312312  0.4990868175200238  0.6672301263899262
  0.6601060700616528  0.4158085120463588  0.5796018414952376
  0.4127763758207647  0.6668119382054937  0.5835139601928473
  0.3301919734533926  0.5011057720813206  0.5001041509257075
  0.4141372286905045  0.2490294683388885  0.3294227017065681
  0.5815048408751415  0.4165103297145057  0.3339584797674509
  0.8310679125412792  0.4986358733442897  0.1662757328786630
  0.4075501566809698  0.3328046229426308  0.7511510425815688
  0.3297096103536947  0.5853151362540971  0.7526000087870870
  0.4132552529480136  0.1671619175663990  0.0849223949282134
  0.4129789984760240  0.3341168466380392  0.5824015715086949
  0.8320329480880364  0.3346142646653537  0.4978686150707742
  0.9092366384259261  0.3329603436676490  0.2492064436807214
  0.9969241596642759  0.8337389322585473  0.9991321114180819
  0.2445367049909819  0.5825776534859261  0.6667740194930714
  0.5777121360058810  0.1677892560422332  0.2443613499781139
  0.4956748132766776  0.6654340987485825  0.3326082796021803
  0.6583295631510029  0.1657227127991311  0.8377225443108061
  0.7465086241186297  0.0835139537113639  0.1658837768428096
  0.4967109673294522  0.0877775006786047  0.4165295669732974
  0.5792149902231148  0.9155219748369064  0.6703996961147077
  0.1649569513047668  0.2503135886374480  0.2497095492391108
  0.8290942281546287  0.0876241611464150  0.4128421834428395
  0.3299920720099130  0.8328211841955493  0.6679174790585877
  0.6651634466428639  0.2468507799507679  0.0802252451808002
  0.3304145640689785  0.8336174647002151  0.8331667968515444
  0.7510013823711144  0.7509259393318276  0.4987299303523107
  0.7460657098993942  0.4186781161374276  0.9974924753852460
  0.7490239276115668  0.4182736547566215  0.1659986588502394
  0.7455240961086669  0.9163653969002535  0.6690522202564096
  0.7468470412614553  0.6682026537207912  0.9170948545240806
  0.3307750192787748  0.2506282847213342  0.7502122323921805
  0.5786774035784108  0.0809511197298356  0.9990229194911512
  0.6621112435501934  0.0873866496746551  0.5846632359952701
  0.3297423279666349  0.9979142453322603  0.8321267147797370
  0.4113137650448265  0.9978552208616419  0.9150270804660351
  0.4951445982995826  0.0871367776760821  0.5832915330169630
  0.4977448862903488  0.8327146535896900  0.6689798651961879
  0.5771961447856766  0.3296158758529439  0.9214314365460421
  0.6653260234887491  0.9101127569112449  0.5879590990773867
  0.4112780396831553  0.8343096168019717  0.9166653645260396
  0.3291729490344261  0.9998558126328106  0.6719053079000769
  0.5796993609791800  0.1672669974418531  0.4194943305893603
  0.9958048055225860  0.7491350260972992  0.4167017245755248
  0.5787246015992966  0.9175104858620484  0.8352107346824055
  0.7460147729252663  0.7461857923697881  0.3316245518257895
  0.4959598393636280  0.7509166050243461  0.9178065945236167
  0.5799198803893745  0.0003716733858307  0.9175310672714614
  0.4148217016440179  0.1677684481046064  0.2483559946168486
  0.6621507599301318  0.3331050667983114  0.3324126012695482
  0.8302080416071949  0.1607783030693362  0.6691907862399111
  0.7455733800348977  0.1676162532651716  0.4158189025087122
  0.8303726449473026  0.0005758389681191  0.3265155132729126
  0.9138440245560637  0.3320659917684232  0.9149186137412944
  0.4114501507596168  0.9986556122928640  0.0835187670925234
  0.4956319192306297  0.6667767939357314  0.1649697659376782
  0.2465443417753581  0.1688236402177289  0.9172156799622054
  0.0814046934134612  0.8358407522852556  0.2492077190263166
  0.7460397220789954  0.7482500738124612  0.1640814669219682
  0.5833346035437112  0.9965493550342721  0.2508157542098729
  0.0806417194047287  0.2500065981899907  0.3331455847991688
  0.0830908449935808  0.1677494381299595  0.9175494888198793
  0.9991878515841673  0.2493270397698742  0.4135958028029489
  0.9138289927157245  0.0802767108817131  0.9997346339880162
  0.8278570532766143  0.0001877859535455  0.6675369376859563
  0.4143143402934917  0.4173440212783904  0.3332226645077594
  0.5795983146840757  0.9169609811033365  0.0010100246240014
  0.3287361292948933  0.0813592056332213  0.7507883678168342
  0.6642339798367083  0.5002920334073150  0.0001986885739827
  0.7459239641488701  0.8338749887767447  0.7510945780638352
  0.5781061187540584  0.7486476736394833  0.3323217633739595
  0.8303201791562154  0.9161546860870042  0.2489844358259184
  0.9157064379258563  0.5806590108476898  0.4995781460603911
  0.0792883405837511  0.8332640534809157  0.0818825140959248
  0.8299634830319443  0.9985222678027946  0.5046133012937226
  0.5780457466104830  0.7494054068591530  0.9991764500281070
  0.9981980491318699  0.7485921529268224  0.7496993590731129
  0.9139756420377257  0.9176600785828316  0.3266485745453162
  0.6625878203500628  0.9156334004660224  0.0819342868019535
  0.0794047900292758  0.0007450969048047  0.0828442440154093
  0.9963875496502705  0.1678045851299475  0.1664960791078287
  0.9989825689574164  0.5841895242460179  0.7504411155710504
  0.5763365647104662  0.9149749139412885  0.3317123878879493
  0.4965110998521850  0.2517568872646669  0.2481393651342336
  0.3290746137771072  0.3328801606366102  0.0003175562462906
  0.1631376962692619  0.5008774375339564  0.5006731198681253
  0.7469004749302283  0.6665693853478092  0.7504296817551552
  0.6616297780125785  0.8332751495263933  0.6687660353938880
  0.5786790200271378  0.5025873417979957  0.9186915364328491
  0.1629352036097801  0.9152284288169865  0.2509745836640894
  0.4951498795634222  0.4990619220990811  0.5010825715511426
  0.2454442537971602  0.3335670369375714  0.2477163176498357
  0.5755163910562534  0.7444698633739351  0.5017084132966332
  0.1638271363185581  0.9156577330399400  0.9191777119745963
  0.0819141718250072  0.5878620127951705  0.0020362320813368
  0.5792452444302046  0.7488025675005522  0.8351158652176101
  0.4160739738738564  0.6646142953191878  0.4151972466838797
  0.8298546789479287  0.9170329391945607  0.9157175996579200
  0.6635521267895154  0.8347144627239897  0.9987089012623580
  0.0824162118233073  0.3320043296784117  0.9171884463503467
  0.9145922624750208  0.7515250130049616  0.8325380226889513
  0.4959720117858495  0.5822887512374747  0.7503689851511285
  0.9141004910126482  0.8325973216463367  0.7527421856937636
  0.2443768891486208  0.0853618467502307  0.3296231388152556
  0.9164157464594209  0.0863717865520002  0.4999103260282779
  0.1639844856357401  0.2484921151896776  0.0840736524220247
  0.8295444367269377  0.5820398663318855  0.2479689731656524
  0.0805461227078413  0.4156621515474977  0.3297315654715032
  0.9977228521790541  0.4148966364836545  0.5827893326908816
  0.0796860789043483  0.6619667067387690  0.2489558875933714
  0.9942777749845223  0.5818106882043286  0.4216525892653439
  0.5779292630443995  0.6661726679549976  0.5847439801713415
  0.9151945149051476  0.7491747836166828  0.3313465466435455
  0.1638781587819935  0.6682376796100808  0.6664181942106594
  0.0846955888409208  0.3341186275883828  0.2499324675873766
  0.5787336989629929  0.5820271749171173  0.6662375829720781
  0.1649701289454448  0.3314819926531803  0.5021833793270962
  0.0013671404322311  0.0007797900223791  0.5015681683628626
  0.9967938640163526  0.3352161514298502  0.5010705800038605
  0.6655278791527756  0.6689371377548488  0.1615573568374374
  0.0811457071356600  0.1663219272409542  0.5837925276949105
  0.9947270317933466  0.9995845534404910  0.3262881017520670
  0.8295854918195716  0.4174852746187676  0.7554253246375034
  0.2463482919770270  0.0821085879970754  0.1657189232612492
  0.2487893527086877  0.5854407261361978  0.3321250815400397
  0.3301973954946865  0.9995334820921863  0.4978503849129419
  0.0816390432936228  0.5004843418660712  0.5840679731668128
  0.9966451501551856  0.0009307350472610  0.1661596703162451
  0.0799140999197798  0.8313385154372284  0.7533961351735801
  0.0821083729341381  0.5003381431558079  0.7497103116914082
  0.9973512648204158  0.9998945506127727  0.0004803909992389
  0.7456272972340703  0.6686366598248268  0.0829483504268181
  0.9974087851496796  0.9173350877357023  0.9170539564783751
  0.0806873585314556  0.6663711782391440  0.0802622368594200
  0.5774495675330966  0.5012181083380662  0.7497136634416066
  0.1635994520655934  0.4159157043526688  0.0817564202257001
  0.9152860077985547  0.7487133806019589  0.4999626463762604
  0.1622532557342179  0.0824984815786679  0.7505529695042606
  0.9992760539146786  0.9994412424596637  0.8349520014061613
  0.0820966490981636  0.9998950829606762  0.7527427015801684
  0.9998735672768084  0.4994585588611956  0.8290110183649848
  0.0005320159190584  0.0808321963681535  0.7534924142706723
  0.9142356737724249  0.9122985380869985  0.6697708420673573
  0.9159056654842150  0.7504101254341656  0.6706846414415336
  0.1623460290672568  0.9154622592259504  0.5811374053848116
  0.0840005893916814  0.9983142480951084  0.5835995454326328
  0.4958032329933433  0.9127250760764140  0.4151257047454664
  0.0813454540253816  0.8331417077454414  0.5826330893441254
  0.3346300312860237  0.0820160110900152  0.3336078910523473
  0.3300175560745193  0.0011508584979418  0.5847237581535637
  0.8288067335611954  0.0005235080241490  0.4154112350837396
  0.5778038046126892  0.8363232015701354  0.4997052983260331
  0.9974552633420851  0.0019133451497413  0.4138092673873472
  0.9954029549475575  0.5853764348516702  0.1609927629810307
  0.7497350872667314  0.6610316388672760  0.4998857710737357
  0.9123668925509116  0.1692519956538338  0.0024273750221706
  0.1651292742845100  0.9169000948028867  0.1621875700816128
  0.6627752739209131  0.4169102150225444  0.6708480330801824
  0.4087638742167083  0.5042722959426155  0.1661699545917705
  0.2477243172620852  0.7495186190951660  0.2542224046109905
  0.7402348468755408  0.9990435527214571  0.4983558955066559
  0.8311478273925915  0.2486119901921556  0.6692271066325335
  0.2485893446877193  0.3345117450814496  0.3358785951189647
  0.9963900994896357  0.5826043937705162  0.3347920354667854
  0.4941164864971158  0.3335044517661241  0.7507066584005855
  0.6630431153706854  0.7493594370836127  0.4994169959811166
  0.4126775557695752  0.2501232690393871  0.4197259058526183
  0.1612525080895293  0.5830049448542605  0.3362148245650030
  0.6635525035842303  0.5850422942241356  0.4996733850696118
  0.8312178622239662  0.4166306676717081  0.6679589455071206
  0.9971105944291148  0.3333622048507137  0.2475630017102502
  0.6634671453532985  0.8329629464424060  0.4162965120950443
  0.1635693769538106  0.9157161377466648  0.6714845534125268
  0.7470457988619972  0.4166661413822644  0.5851095374990223
  0.0762864497917785  0.9163092835129021  0.4155378467036696
  0.5795811060698157  0.1669585075964268  0.3320345720070195
  0.9133146713636918  0.9146259940502728  0.4191268094522070
  0.5759579188473246  0.9158351325121011  0.5815476909026170
  0.2479858430078969  0.0831004066705868  0.4208830813248190
  0.9965563235911507  0.9997918907402167  0.5882189565035100
  0.9152084541216929  0.9999623398630411  0.4993331220107324
  0.4953384961519638  0.9963855611016005  0.5840336975133710
  0.7460836195618187  0.1654285551768545  0.8348651781093270
  0.6632966432616109  0.6648164923507482  0.2491090941791839
  0.0800710326491703  0.7488454030069194  0.2501680603233756
  0.8295679909880436  0.2471742819190886  0.5025023157907229
  0.6615863744055357  0.1652445142575660  0.7479286297484797
  0.9134188263755626  0.5844409212401676  0.9115649903154864
  0.6636959254418774  0.5010749396536246  0.9141958848882046
  0.2481746265935980  0.4161923730278224  0.4179290825825265
  0.8304027516794877  0.8315935149240854  0.4162226042554509
  0.4958138890734691  0.0000538842584494  0.4157094792544362
  0.7508825691546946  0.7480989620121146  0.5882523785471371
  0.5773154941731177  0.3332349212418800  0.8346845030240874
  0.6608307691819794  0.9986630874607615  0.5831551865769335
  0.9973309306302893  0.5002872801367836  0.9197844630144146
  0.2465730801101960  0.4982418468836249  0.3355529018794100
  0.0810194342207796  0.4166577880101235  0.4202593933153508
  0.8291943458755930  0.0842149276424946  0.4997437257948757
  0.1628424301485841  0.0042131228324977  0.4157766730079649
  0.6639247398101051  0.9150340550224509  0.3329006023339297
  0.3316850661680655  0.5861934538170686  0.6650028464363485
  0.2480875828128412  0.9949391124468662  0.3323499238864523
  0.9971246678946309  0.2494029590069030  0.0015358453086612
  0.7458039808765246  0.9166342324835166  0.4165098180161674
  0.0805852574985560  0.4995750116424312  0.9990541572431367
  0.5784516774064515  0.2497228601777799  0.0822745895495646
  0.4887282133348260  0.5017446154257538  0.9173705014371931
  0.8309558065386785  0.3307448050365436  0.5864437711813294
  0.9981937303102481  0.2466289789595935  0.5030621036829175
  0.2467465525549912  0.0803154772990446  0.9147026317957980
  0.9166216744524583  0.0007972058985072  0.6693866171928274
  0.6654718470195335  0.3349026938325427  0.0823142213780518
  0.3267230340047602  0.6658229412703742  0.4161945000675220
  0.5773861100449644  0.4164777605513937  0.9143261236468574
  0.6660817679045679  0.6631373024230917  0.5835969322053112
  0.6600897082426854  0.4142409736013881  0.1671902551851941
  0.5780145665423845  0.8312416524784163  0.4145433129981747
  0.7455092809951805  0.0851507734063523  0.3304370688321813
  0.8299555624174327  0.0826496251632718  0.0829793893906607
  0.6597087295980223  0.0017063556775501  0.4992925824605672
  0.4956565838110721  0.8315292054185329  0.3312248628436830
  0.9149495043089250  0.9153574735764632  0.5043194140657762
  0.4969657027050767  0.9995694227012428  0.3303586980444670
  0.7468632532458571  0.3329323197332925  0.9170394351203142
  0.9128739303450808  0.8321247189640789  0.2479801648396705
  0.8317949146762126  0.5009688516517700  0.6679306388103127
  0.7460085324114107  0.3323816277204045  0.5829074070666124
  0.5800569934891012  0.0813771434467979  0.1652851367507258
  0.6621671197596561  0.9994451581689286  0.6687579916902288
  0.6621822385225407  0.0856036200858955  0.4156197834868448
  0.6635019043285100  0.8324388753362600  0.1644638134969744
  0.4960440016068208  0.9997934191680625  0.8346895593310999
  0.6621995863268214  0.0837019137885118  0.2474694738062171
  0.6633695064157600  0.0822316434314026  0.0819994924685981
  0.4955576906625929  0.8335477018992569  0.1661652227353816
  0.7463931028398983  0.2493153634624522  0.1650713013683453
  0.6623596554618102  0.5008169761492647  0.6677006112111658
  0.5795676987386716  0.2508421606668567  0.1654684866720907
  0.6632319336892225  0.4148190271811468  0.9152591724720093
  0.8300493403040403  0.4164399875565522  0.4160113901944437
  0.6617082458364905  0.1673140140689454  0.6655113664501321
  0.7476032245575340  0.8305367158719493  0.4156393753413063
  0.7471881327090533  0.1657599105952249  0.0821354184332031
  0.7475524010291986  0.5006483359406556  0.0824463010154185
  0.6616956754018738  0.9164741510179868  0.7521149461032439
  0.5793497223381717  0.6667476907572347  0.9166379181748168
  0.5777401208484998  0.8304168781746752  0.5847785785765043
  0.7468640185565355  0.4168080154801964  0.6692447886119122
  0.4944429946811575  0.8315108767320082  0.4995492668947553
  0.5793653989440721  0.0002700984441409  0.7515281379282933
  0.6632912305664506  0.9993621426770650  0.1647768535279135
  0.5793419859829381  0.3341656337870755  0.2485782191561265
  0.7451278557311763  0.1671960928428090  0.5842313367431349
  0.7449731730848017  0.2498878220894674  0.5000791665375167
  0.5782120285077317  0.9179445784592801  0.4975615163466657
  0.5779253179618616  0.2502511976661826  0.6662403655332984
  0.6636177328556077  0.4191250041664485  0.0812136587523222
  0.6624312297416732  0.2507616793941274  0.7512373671053472
  0.6629295479502589  0.3340230019113877  0.9987815815744180
  0.7465481201590475  0.2505654557661175  0.8341968794973327
  0.6615673205424604  0.3323508568954252  0.6667925369110079
  0.6631189897546048  0.2494881894335087  0.9174441828258623
  0.7488638606319693  0.3339902730213661  0.0818753681315069
  0.6624990898709867  0.0818751330714653  0.7520492253291530
  0.6634875800644031  0.1679541408465236  0.3313547678718074
  0.6622976650907287  0.2511026532971058  0.4167938765243966
  0.7463396017009757  0.1668227343512087  0.7503393676950652
  0.7463588678017942  0.3334320966637667  0.2490772779512378
  0.7463213191601618  0.3324838203400889  0.7516993336628411
  0.6627900675156769  0.4171936254489627  0.2506531141235041
  0.9131660965258571  0.8338653393324902  0.9166216411701208
  0.8323968251848665  0.8319599285230569  0.5025119803447080
  0.7462397255309767  0.7502475921164773  0.9991153833848463
  0.7459412365041219  0.4163854664173936  0.8350709994055695
  0.8301355880623248  0.6670261734167975  0.8332965892732221
  0.9126764261113771  0.6674561234739558  0.0820807263451857
  0.6617375469804953  0.9993423299643281  0.8346729623169653
  0.4955377279213206  0.9168592928146838  0.0835889811819092
  0.5793755249592095  0.8336835439055632  0.9170684842577015
  0.7473711194931176  0.9990195415583351  0.9165107685438264
  0.7471653078582703  0.0814840257054098  0.8342184364558682
  0.6619662651811232  0.4150083661397117  0.4181310585974476
  0.5777828672334492  0.1650220696436549  0.9182581240804925
  0.6631231310254596  0.1663589425270797  0.1645220109464414
  0.7454159700078582  0.2505482108322042  0.3327420544734641
  0.7462558529704678  0.3330658119165539  0.4166041189740220
  0.7460518081114731  0.1681697736139077  0.2480698849887682
  0.6622514285282636  0.1679774653027078  0.5008994082588882
  0.9144990543067967  0.2493112229520158  0.4997518001166604
  0.4968576770359552  0.0011756831933361  0.6695997509329263
  0.9989463594840653  0.0849210941261516  0.5845330359516622
  0.9113405567985132  0.5825200953230004  0.1652619814249085
  0.8297650712588719  0.1661753344618695  0.5007315086651437
  0.9123622847304996  0.5817161994400452  0.3321571008987766
  0.9168817608266993  0.4168952504414759  0.6682146572799379
  0.8288498306859715  0.5844335081739273  0.9168202740936728
  0.8304397958218138  0.4997536664847625  0.9991950013800034
  0.0811424891983864  0.3333203557924478  0.5837904179153119
  0.9131065493628465  0.6657093776755977  0.2482774977420619
  0.9128411498621523  0.2501122762492042  0.3319199232634917
  0.8312083922857120  0.5819161933291206  0.4158199561100888
  0.9153591937107898  0.1659807839066498  0.5860858399875003
  0.8318047660470517  0.4997233453722783  0.4996235373469279
  0.8309940408105861  0.2475392474427229  0.5866087030808697
  0.9163371462828853  0.3330444322260631  0.5844559498996580
  0.9983677287965153  0.1652289585299816  0.9996432484461467
  0.9155271179820995  0.4993884525695800  0.5834585079629129
  0.7458677812864507  0.5002931355203195  0.2490536895963015
  0.8318935836453764  0.3333504816805123  0.6700676575795979
  0.6634924137667024  0.6668719825349532  0.4986414854294153
  0.9135740462536448  0.9170371644447519  0.9994767823567341
  0.9124114976320300  0.4162079676052983  0.1662707652969323
  0.8295015189939499  0.2499625490066728  0.9173157739436311
  0.7471162638658978  0.4156897321981503  0.4982153076056200
  0.8313698798542641  0.2489935760101113  0.7530778614436339
  0.8292600837561716  0.3331655862028531  0.3333655894696106
  0.8298073930515845  0.4175578879723136  0.0813729979743272
  0.9154423483294786  0.4992958713054504  0.7500353552267680
  0.8298400670292214  0.4996409659425275  0.3326337654328294
  0.8299626331305860  0.8323859471692537  0.1653837207693782
  0.9139593217579044  0.3334730262545482  0.4157177536486286
  0.9983675025373816  0.2496974363710457  0.5860638239553987
  0.8317910538977044  0.5823848928202032  0.5843624923188554
  0.9131273252779936  0.9165186003444427  0.1655142214672352
  0.9966967067255085  0.6668889658702005  0.5007055612265873
  0.9119661457107576  0.3341084948356087  0.0825651064306689
  0.1643426253259219  0.5840475920915588  0.7505608844591042
  0.8321291359309542  0.7476578422590784  0.4151961500151268
  0.7499004124537930  0.6652458141284957  0.5859983676065813
  0.8297864398958037  0.8330976106210076  0.8337552517402902
  0.0013166882344864  0.9990277032582732  0.6708611451186024
  0.9136385231743358  0.9169742963108728  0.8341881465689505
  0.7474122090732808  0.0823967124794249  0.9993783231054442
  0.7467352300763305  0.9163565930863051  0.9999346113340246
  0.5796273920211972  0.8327605661822762  0.7521166381025149
  0.9967634644165302  0.7504676740846370  0.9168533369728159
  0.7474629900227554  0.4995766116631782  0.5829444096694587
  0.9150322002674105  0.4162051154706540  0.8334540393489187
  0.4965365265176927  0.8329310654969508  0.8347039596037087
  0.8299106721876693  0.8332359261701691  0.9992732898868834
  0.7450056171255506  0.9988626948571278  0.7515934642278319
  0.7473840965947608  0.8327904538755716  0.0823755912822383
  0.8307918232418808  0.4163180705053215  0.9156582064755669
  0.8303488863430455  0.8308658032148809  0.3294710927408826
  0.9989443058114138  0.8330648328745416  0.6677594269762150
  0.8305043824458942  0.8323020020684531  0.6692608868862955
  0.9969366005705688  0.9151929988665287  0.2465390340061782
  0.8341675788848384  0.6652795306608834  0.5001646785478434
  0.4132603854628139  0.7496363514777468  0.6676037239690951
  0.9144912113135363  0.6667199929523070  0.7503130428141520
  0.3321800893370822  0.4170677942001085  0.4169502415221346
  0.8302908288994370  0.5836866607490132  0.7504402253994477
  0.3286328130923569  0.6666070960421202  0.1651529258591218
  0.9122125408061258  0.2504577841085330  0.1659088794549431
  0.9133588962840584  0.0850040507574684  0.3306467115177517
  0.6626986081814087  0.7477093230439531  0.4149227802500088
  0.7490322376703299  0.6658116828702012  0.4147115524984073
  0.6635407126419754  0.8295629205118609  0.3311240120870539
  0.8313547482440113  0.6660331707629598  0.3319286938393008
  0.8299086169275014  0.7483159878043925  0.2480766494220387
  0.9136685675899148  0.6657428782178799  0.4165632765434077
  0.8307365798516942  0.9166982996784068  0.4146586564599476
  0.9148659671491411  0.6657212773549205  0.5839812574268607
  0.8300141264068158  0.6677397893064808  0.9993506972729376
  0.0810145808055981  0.0840012087425895  0.5006873344487122
  0.8303871028105566  0.6659778468140704  0.1651686534322479
  0.1634133089402059  0.1670399888449475  0.5010675771986296
  0.1636089497005745  0.2486164110205064  0.4167125553343858
  0.7466260809099100  0.5825654821481495  0.1649792925690246
  0.7489998854425596  0.8325987764541273  0.5852232597204063
  0.7467583765465444  0.7500894806818788  0.6714209474095300
  0.2468795529147361  0.9974104387030729  0.9169003750175626
  0.8343821005910484  0.7490215995439022  0.5852458838077035
  0.0800601762451168  0.9168275142787913  0.0001435456674359
  0.6619810301107044  0.7500107883157634  0.9161779400724436