C  Cr Ni
 1.0000000000000000
    38.7210597765861735    0.0000000000000000    0.0000000000000000
     0.0000000000000000   38.7210597765861735    0.0000000000000000
     0.0000000000000000    0.0000000000000000   38.7210597765861735
 C   Cr  Ni 
  50 1596 3725
Direct
  0.0085223909231032  0.1662049476567004  0.8820588573626680
  0.9971214477877299  0.1396738155206008  0.9730855908792421
  0.3446366966892021  0.5493570632974348  0.0146416721960901
  0.1440557517454597  0.8746279351393470  0.5639344060262184
  0.9839523477893413  0.7998551570497142  0.0971046606369694
  0.2005502770242455  0.8870337335669015  0.5146296120318483
  0.7159306721299729  0.7754148982077020  1.0058226235418302
  0.9701842288505056  0.0109250177236487  0.7830004444030830
  0.5966628984144603  0.5340296441278521  0.4794965366105660
  0.2668392502400914  0.9928485550451469  0.5489632243366304
  0.0480116139970104  0.8707395706382544  0.5693223984610348
  0.1182894104613175  0.3922464258620375  0.5313672107590937
  0.7963764763176421  0.0010462184729991  0.6664735114206438
  0.4801844504946090  0.5257740750222635  0.1952227428984331
  0.0569079027018721  0.7689541271916945  0.5697350687688486
  0.0442390704641965  0.4984187104269707  0.9052559802359630
  0.4086272894846022  0.8831023005059196  0.0336999030806568
  0.3671787476115581  0.2566548228432094  0.5198241651839093
  0.2311528984093500  0.1308703721052730  0.9163726544417720
 -0.0134774680893172  0.8096682283595924  0.6687375007226786
  0.5016115024865658  0.1786450581780342  0.9416705017511759
  0.1573097640874774  0.9624868564680729  0.5006715741821470
  0.5106030168324988  0.2534024561973446 -0.0037460339202704
  0.6117556571052639  0.0438672181277408  0.5617724567816078
  0.0241779925744860  0.3911171720052510  0.5016593988906094
  0.8345037288045071  0.8937646768748657  0.5283753546316038
  0.4782061593760508  0.0675964121878299  0.5959947189112221
  0.5833046114712027  0.3290992957707922  0.0540079500844402
  0.2863451645954168  0.9311297718830551  0.4916896134142104
  0.4820190170986580  0.0404996441925930  0.9735806264701481
  0.2574339173713220  0.4476659713804763  0.4477548972237608
  0.7240437492709030  0.3194794762433668  0.0492119332754954
  0.0832807798210658  0.1013846094704055  0.5578276626872835
  0.7657616847461280  0.8913609370252804  0.6062591587780224
  0.3888429855074789  0.2861952866403802  0.0650274416280977
 -0.0228817311763035  0.4323650476339736  0.9378799716020529
  0.0909371706054092  0.9518335782591978  0.5748592581072376
  0.4572707860021086  0.3322689294333633  0.0139837635373120
  0.5365667674631028  0.0427598319072557  0.5568828433760470
  0.9474059188002990 -0.0155731500569835  0.5769574487800762
  0.0899795149010304  0.1870326580138368  0.9908449466343294
  0.5233726096948360  0.5384170067718782  0.0201619131117827
  1.0400453127457709  0.6541601194633918  0.7215108207431589
  0.2367674968484973  0.1671188916406437  0.0010307777228488
  1.0120823995532591  0.5198894385160050  0.9119684641407159
  0.4530992885558744  0.5546067331819227  0.9861821187693548
  0.1603337293823461  0.6431559997096674  0.6345158904779842
  1.0480701644560568  0.4674603802193861 -0.0116934590398403
  0.7537177118076479  0.3992259803564677  0.5226535598619957
 -0.0126578087306138  0.9472695987826979  0.6147381617410935
  0.2761292512929373  0.9466180822979297  0.4414981325806276
  0.9394444998876974  0.0852321908867113  0.2446736535136990
  0.3949710307685413  0.0500124280566085  0.7226327896699742
  0.1090792390943423  0.2884755284673279  0.0727402615475510
  0.4841962953283186  0.1379809047320605  0.7903830379938397
  0.5331060156146231  0.1764009265770195  0.8582528202057832
  0.6573141572842978  0.4402148806862437  0.3126693767383182
  0.6075161733659011  0.8270615021107798  0.7463391306252078
  0.1112279034495590  0.2384319567234596  0.2558535913219364
  0.7329617566025852  0.1327426079767932  0.2158199160373199
  0.4281917710972297  0.2327097447796299  0.5879906332337999
  0.4299048434147420  0.1896786248711968  0.5484277071727804
  0.5964645729283480  0.3223062629097395  0.9137444387897823
  0.3223962785930645  0.8686418583656553  0.4149884963233870
  0.6505301235103734  0.3779560733005250  0.3327478527763381
  0.8577424650472972  0.9392876338183709  0.5377572424289651
  0.6596231956101409  0.4713700011473346  0.4167264680863215
  0.5564510721681298  0.3720106319739411  0.6636246035610113
  0.1603571625071402  0.8441045605363063  0.3711542755501787
  0.1479694860930011  0.6571013818406991  0.4141412522333682
  0.0612107098828866  0.2535458770691064  0.2930808149139633
  0.5793940561311053  0.2155797728754791  0.9435296385593610
  0.3747616439653172  0.2592859455089546  0.4006570428351450
  0.8464572120702455  0.2252255264213890  0.3426938925449182
  0.2612729393188097  0.1698899072834175  0.0436836176104874
  0.2137772271359956  0.2086557025435856  0.1852637622750934
  0.2084010616827032  0.1645748368870660  0.1394447210825531
  0.1487574510727604  0.5772638765462637  0.0396741742718910
  0.4211702356316873  0.3976022293234603  0.4949910248288027
  0.4752697900494287  0.2387889329289513  0.4917968783528731
  0.5326810515904755  0.2011900273042477  0.5213333159697497
  0.5815740265584574  0.2090000277356512  0.4246110542661277
  0.0323463682232365  0.5186181431743916  0.2456412207527160
  0.3055568812127719  0.4516264012449597  0.4734407052218116
  0.1325328255880468  0.4560753366438179  0.3003689900751278
  0.3713739625656540  0.2113387156165873  0.3543785257659865
  0.0142051392954468  0.9675394269732412  0.6520455218193756
  0.6719926649509885  0.4876407540501962  0.5804767333517785
  0.5476698609209062  0.1665388353114215  0.9214396695587281
  0.4844299849979508  0.1713533712756042  0.8936194055673903
  0.4789373410539534  0.0193782851412982  0.8690806994277283
  0.7412056635190709  0.2404518080113341  0.2429229387704652
  0.3355604334666893  0.0900798982262565  0.8051818161542028
  0.4181669961925252  0.0262015867016026  0.8470116171938381
  0.8424502257253245  0.1789537435029313  0.2980130856787340
  0.5721485974129141  0.1552695047850265  0.9846159519077253
  0.8271590510006446  0.0269764584279489  0.2270164585818152
  0.5683381498559005  0.2251594584684863  0.8692094350764757
  0.5472598280072645  0.9956724954191761  0.4573475027033962
  0.9141374021054114  0.9736704756193968  0.5337449663231263
  0.0960773108563668  0.8661458623139003  0.5815699995527640
  0.3178514702368043  0.1924054845127608  0.2845676308143165
  0.0588534357682226  0.8589108887847156  0.5155017673453287
  0.1087300250540228  0.7706474639497420  0.4931185445580587
  0.1965640846661710  0.6244961877928952  0.4456455773464919
  0.2517548441735470  0.0714714053608078  0.1824775616973110
  0.3946093578595770  0.0512458060456934  0.5089245568016063
  0.6239078594620088  0.4151996860691434  0.9680351735357560
  0.8309540920650222  0.6926658916516218  0.8491862920051523
  0.8045871089075056  0.5957724025627360  0.8028642977985543
  0.4338438720159560  0.9340491511549360  0.4366097995801390
  0.3461695425486563  0.3611430590074659  0.7637682278008312
  0.2971458531852769  0.3226530336758813  0.6967070345485273
  0.5273618803955891  0.1599494461603574  0.4765790827735661
  0.2363188384811586  0.4555657534220673  0.3352013929105658
  0.1349073862332829  0.5021144441368437  0.3410458899949281
  0.1440913908625742  0.5972673222513929  0.4295471489330233
  0.2893963133071467  0.4718031639200781  0.4080473445531360
  0.2366829908629095  0.4912755341067174  0.4366733730934996
  0.2843815816966594  0.4115094990642529  0.4231792165356105
  0.3667603097173493  0.1644458649923428  0.3098261145068628
  0.3624514945772279  0.1184453331667718  0.6402444319020202
  0.8996796966870876  0.2410685542660924  0.4166977001917817
  0.3185347027419147  0.8248724627927722  0.3706373886302212
  0.5724743894423906  0.6888675289371224  0.4350993058935513
  0.8539067255886907  0.8196674436016588  0.0059037417881253
  0.8681587788176366  0.7769134184289214  0.9595754180285522
  0.4752342323862208  0.7817091693722289  0.4879067151205798
  0.3927404760955959  0.9147247769150008  0.5994731979439539
  0.7230461445726972  0.4264588163507376  0.8833944031408579
  0.9735794700659099  0.0411391673024160  0.4200873642915701
  0.2716466870893776  0.9155344555697575  0.3293319144565323
  0.2172351476861198  0.8877983113172142  0.3186195535131683
  0.6037690664714876  0.4081024838894283  0.7346573853731329
  0.9122186109280878  0.0195539143151541  0.5753696263045252
  0.2676363719449121  0.8554651581981050  0.3468902248330613
  0.4566441545885172  0.3268963648805485  0.6379306268817319
  0.5672269328702314  0.3270415633230432  0.6183996675228921
  0.3137756254962197  0.7947521366528376  0.2627797139610584
  0.3603267579442598  0.7207616754341757  0.2426718375210347
  0.4887548600504694  0.2586041957504816  0.7172308610834442
  0.4679293260830035  0.7048578901766284  0.3366965151600936
  0.6181586302884254  0.6131017045986380  0.4171351000287019
  0.4211417200236939  0.7653164440634701  0.4179966516275814
  0.8038394303938687  0.9676346754741595  0.5591058634070206
  0.4613946351043172  0.0568039124502084  0.3184902790757792
  0.9148736335905618  0.8908012744629584  0.6062958875639307
  0.9693300710513378  0.9301095454948253  0.7458030658631563
  0.8649255674917744  0.8630410713065749  0.5512031763580312
  0.3982650341001803  0.4388260605306174  0.1089206711771182
  0.7270072724687708  0.1926237907705308  0.9726453269581847
  0.6945374731751275  0.2133948855119963  0.9104390160458055
  0.3529832709118426  0.5334870117228560  0.0659769835842697
  0.4772957277017355  0.9187520205841595  0.8516754420687670
  0.5892887037894879  0.0175320424110304  0.8515285223312395
  0.5390499450510964  0.0135226436626374  0.8919649568335352
  0.5262883171519226  0.0589053740567651  0.9323859110488988
  0.6288024702613467  0.0673710778404610  0.8547983438489055
  0.6985591534384704  0.3477752792870622  0.3621202499394088
  0.8382541495776459  0.8124249926770433  0.7738688349052075
  0.8426104404527234  0.9854712237239273  0.6753430012187576
  0.3884883390826025 -0.0099556116891898  0.5215444195791334
  0.9016114650362358 -0.0209948974291476  0.6953356728234210
  0.4669749388486876  0.6891178510016043  0.3961023615503869
  0.6389801209124062  0.7596060190063632  0.5485501495977918
  0.7534085302429709  0.8667262483306735  0.5614331054767528
  0.4252235719729768  0.8269541163227128  0.4036473128292294
  0.7502737203315281  0.8941758628089689  0.6595990481051001
  0.3736920101004755  0.8221920707094988  0.5013928073254545
  0.8090790080458362  0.8831143006467541  0.6899084190000367
  0.4738318142866050  0.3680025147767608  0.9800238442011745
  0.3272675655443944  0.9118620692978765  0.4644139883941162
  0.8957280604837267  0.8369568213915962  0.9018338683917489
  0.4437087751546048  0.3639170864452404  0.1008771472394893
  0.3538311163196834  0.0424058645214862  0.1108913608024054
  0.2520337173518817  0.2083469715703369  0.9745320557798731
  0.9818341175252384  0.5133062721109105  0.1154193391732188
  0.0812396201656270  0.4056803567660673  0.1255417738316681
  0.2480103309654448  0.2940038552374748  0.0196308558814544
  0.0270193187964117  0.3776734239100715  0.1202198757845318
  0.1687722075559871  0.2845230975744809  0.2033158092906295
  0.1334135994500790  0.3439718377346741  0.0455347159028669
  0.3003742134899443  0.1246869995632413  0.6187729614577338
  0.4368221820934870  0.0741680234380442  0.5668700254804000
  0.2911605049480148  0.1007024836797261  0.5065736592834336
  0.5078789015977139  0.0813717482363057  0.8081243973980757
  0.5361427864193039  0.6636601516935454  0.5335021019769636
  0.8010627506903834  0.7194377737386428  0.9998614324411308
  0.5269230262236252  0.2617406558086344  0.5057639731973161
  0.3400338731575386  0.2134219769518482  0.5120101326844144
  0.4185720217842118  0.0092350819572282  0.6454080776026159
  0.5997535429783810  0.0607528689329344  0.6131909024474708
  0.4962298868541062  0.3038382872621623 -0.0015730149492705
  0.4114095281867742  0.2807861227786495  0.0176822201010462
  0.5554669411108900  0.0868958012979215  0.7696206698796170
  0.5373276789785773  0.2620037115427865  0.0396331074963511
  0.4922345881640032  0.0589951559643053  0.6450708028720972
  0.8651136994363554  0.9057138927162766  0.8181524867600503
  0.5986449961326940  0.2569881375215429  0.7000061550562101
  0.9720860826762774  0.0258336492739897  0.4779578944494328
  0.6278603289655215  0.1668336489127090  0.0564890023936954
  0.8262168180389411  0.1550725445142042  0.9050909969661981
  0.6229685867456285  0.2480053170587964  0.9874915979985204
  0.4785859388649934  0.2366447555939389  0.5487945632717420
  0.2573310901925222  0.7366069470420754  0.1439495891240556
  0.1545005609124327  0.7838333517834115  0.1540878604153699
  0.2618262317377031  0.8259464666801618  0.2374018816101438
  0.1617726103230325  0.8745962226887871  0.2466847743629762
  0.0613066581376963  0.9214391508886693  0.2569708680570593
  0.7713017652772191  0.0125977989038166  0.1532545658263120
  0.0955924841528406  0.6595183835830637  0.0527594342000061
  0.2557416778511796  0.5862445261947985  0.0126168503582515
  0.7165823141362244  0.2752567816636438  0.8483626597013628
  0.7194067081404445  0.2420032838574011  0.7449355310315937
  0.9629326902455881  0.9358459808074127  0.5704717890422343
  1.0030329423642284  0.9862186103856254  0.5872201149192151
  0.9096797592070911  0.9050840835594850  0.5489815249032853
  0.9824278353896525  0.1340247863372621  0.5136614819728252
  0.6093797403887611  0.5297183246386433  0.6602113655904012
  1.0002683768294518  0.1285970299358630  0.4211793260647064
  0.6574421418054911  0.2823182996523502  0.8300591676732977
  0.7946725333666034  0.2435735673078245 -0.0055055077431074
  0.0439082556667141  0.6736939924122919  0.3159420059201428
  0.1951501859670967  0.5487088959562824  0.0636784672446329
  0.5270062105921064  0.3069462257950164  0.7228482294141109
  0.5507512414366865  0.2196423818419968  0.6325163096156844
  0.5107366432665180  0.1668806696870157  0.6274800588440003
  0.3014682995558525  0.5643955191941893  0.0420108536832801
  0.5209870825018212  0.1242113836291994  0.5779530211146909
  0.5001129162524579  0.0715887395145674  0.4783347291201695
  0.4960158852778128  0.0681545828418041  0.5468684274430705
  0.4817023866462029  0.2358459815285250  0.0362162796309170
  0.5264137736490025  0.2084116909684060 -0.0248898055157373
  0.7342186092022875  0.4140756670726741  0.9441436460364488
  0.8382844249673640  0.1327839434828821  0.2535797601564123
  0.6053751281537316  0.3595986503706322  0.0227320195130339
  0.2661297819014703  0.8381079074063079  0.4101129837139710
  0.4470431912780881  0.0888651646004494  0.7877019225034565
  0.5113509823854295  0.2324675909944317  0.8418416799172492
  0.4022320217801976  0.0136380696137340  0.1388640931524428
  0.6251060980643320  0.0841918304978360  0.3626272813940959
  0.0350419207200055  0.5326570565707612  0.1834993555745457
  0.2450129002066935  0.5644661849556989  0.3598266770652612
  0.3768812334545511  0.2715105707713371  0.3371327329333522
  0.2797058553768649  0.3642200836128066  0.3833740007852745
  0.3793209111398778  0.3188687832760742  0.3803877032536592
  0.6953351244607862  0.3658885859726967  0.9382201394480072
  0.7303377221034822  0.7177510712306676  0.4790009526654367
  0.0430028024176793  0.5648767810773304  0.0549675853943336
  0.1848347768795917  0.9336793455048631  0.1437330325682864
  0.1350510919928872  0.9491547321568138  0.1778026351576086
  0.8832983995872548  0.8285916824174342  0.6727641091228758
  0.9411302111895086  0.8226159775678542  0.6949652769762221
  0.7174861647872799 -0.0031847523215818  0.0794041818102256
  0.6644941907745253  0.0418837185955712  0.9858895125313228
  0.9712322358596677  0.9363444217912708  0.9073297839932901
  0.6891425254634919  0.5954389510438344  0.5602218688432392
  0.8811919978052200  0.6966146256020481  0.8110098146108727
  0.5847344862451977  0.2401740170987395  0.0751725296172447
  0.5484445354044380  0.3598560837824388  0.1274512912893772
  0.9415101300136114  0.6893057367166773  0.8339790432764231
  0.8472935832154743  0.7991934252261542  0.8349281684495246
  0.4481243746775819  0.4087806857569342  0.1384323690587279
  0.9698095910370806  0.7835133452695799  0.8816346751380023
  0.8808485275543696  0.7304135073938974  0.9151026770000550
  0.9250112855796452  0.8983899074614980  0.8416951488907538
  0.6142121394624575  0.5539631866190374  0.4344066097892856
  0.4553497663825941  0.5672872232800845  0.2061529798123529
  0.1594913482775688  0.8453678971086277  0.1401049795068904
  0.2092767684824862  0.7967375377588757  0.2266192590820690
  0.8598931291333612  0.3796476787890276  0.4062555660108593
  0.6914598720476699  0.4637992547833088  0.7011375792764516
  0.7926505614951294  0.7543944824415479  0.5498960400276859
  0.7603949124968500  0.5474513095173926  0.5419172593571177
  0.8055949961168078  0.3637126632067776  0.3361472331805140
  0.7100234952204600  0.4556802663072812  0.3819273356366344
  0.8174555614065252  0.4712367786615611  0.3592772965198455
  0.3940660879197022  0.3987359232880018  0.8309677984337751
  0.7191004561259454  0.5624951161654870  0.4142740643532241
  0.4498359323388693  0.4238172636618120  0.9561066792180715
  0.1343506337154728  0.0915656191571100  0.5689437903222405
  0.0853591876328033  0.0497774210523818  0.5629960437757062
  0.1403783194945919  0.1186480294734571  0.6768647865731505
  0.2510540616594503  0.1183173563800063  0.6587204766145910
  0.5803995788846835  0.7957702765405499  0.4641843168592582
  0.6929171394882805  0.8711444464708404  0.4244821820856837
  0.2430217347064888  0.1978067820948615  0.8092458948960700
  0.3029566499445402  0.1914127621313574  0.8310485399252122
  0.5422556485782561 -0.0399534079194335  0.5811230452095779
  0.5860576546133317  0.8574016313597674  0.4495225910546632
  1.0006894200930665  0.1457193165649064  0.3617993352183161
  0.4388226567769615  0.3132498855661077  0.9687884946114598
  0.6115502865387310  0.5331083168330075  0.2668541230711569
  0.7123685718365799  0.4391244909967606  0.2168597510941831
  0.5724458062324427  0.1171962442996748  0.1078344190774816
  0.7940305468738990  0.7421682170073266  0.6054784274573547
  0.4367231066375447  0.5066452873884730  0.5463388579463094
  0.0784109240206058  0.9180174825412651  0.1676586185680091
  0.1689324684615358  0.3011256545288964  0.3693689317331714
  0.1786471837570942  0.4095774653523382  0.3866063499011532
  0.3846550946120164  0.9732288968028308  0.3401524433095418
  0.4816666968273925  0.4539487855452462  0.7949793535781355
  0.4416736158525829  0.4365614570583339  0.8953854179197025
  0.9948016737259837  0.1000084998375089  0.3158007829053108
  0.5406930797540113  0.4800430236682028  0.9227084911510814
  0.9492338885082755  0.1773370590150046  0.3365354804004638
  0.1868830510268236  0.1547152052350054  0.5127913188899778
  0.1897697097532880  0.1247269252456184  0.6359971676776979
  0.8973718522101156  0.2085407417882698  0.3089144387293009
  0.8334973999435067  0.6593556910553148  0.7459821308739500
  0.9958322635448276  0.1322184701126524  0.1915796536847346
  0.5680695219066110  0.5441730179495261  0.8647237619768094
  0.7948728213453675  0.2383603077244983  0.1479356871132010
  0.7163558963028598  0.8593465824380838  0.8339669103829571
  0.8124971723938055  0.3586595872816947  0.1040680500882812
  0.6592951406175338  0.4214386149796526  0.1460910511592044
  0.7758096701526724  0.8862990481803866  0.9620289056793667
  0.3796111972211553  0.4189565638920976  0.4637758267642646
  0.6048621004441533  0.4236175523219546  0.2419525109306662
  0.4776164818734938  0.5537774868605044  0.5555778824303429
  0.5507916115555669  0.4260801545488648  0.3385575566306521
  0.2334360179541695  0.4094748469354083  0.2940924218963771
  0.5820568094242990  0.6342907516624621  0.9440810890980141
  0.3508156326813354  0.5631752710512342  0.1708950621135350
  0.6902087676471940  0.2403583901861803  0.1090101440502211
  0.9617132609337979  0.7127559909581591  0.9982021769513466
  0.5497600381846006  0.3931401133475476  0.2340122395837461
  0.6009823559670798  0.3774680835240024  0.2009135291088259
  0.5393477775011347  0.3944228888780350  0.5319241432907644
  0.5033088975360570  0.4391443052880389  0.1437198269850392
  0.5107013481232328  0.5820420838212838  0.2749116108891821
  0.6542292471070107  0.4132532566773490  0.6960731530162738
  0.4499225213692317  0.5008975050994596  0.2258368062806324
  0.2054158757504224  0.7686265946980085  0.1199642188895024
  0.7019055029125402  0.4513793244432670  0.7596197966959186
  0.4078546230054375  0.6255664903532102  0.2851150802775706
  0.7300220491782654  0.5144541665829917  0.7024139638193994
  0.7281943551882968  0.5475063975327866  0.8073908497477401
  0.3618403465833961  0.7031115043258426  0.3030525281239115
  0.4128606759288411  0.6881779302549185  0.2677950774927791
  0.7646259321248067  0.5794932917296062  0.9041861145199639
  0.8651792253105631  0.5107544317195767  0.9673519586806538
  0.7925516254156664  0.6753778886975504  0.9533536922818245
  0.8327527151618352  0.7289440696506894  0.9540496931919394
  0.6392561241986313  0.5542063068979596  0.4984128355541449
  0.4045510540776619  0.5793178941664204  0.2410807137838920
  0.2685950019537451  0.2224570463764778  0.2570153108545098
  0.9516133437801201  0.3195209327126063  0.5255291993624229
  0.3009073225787003  0.2226554708837050  0.9351778251143343
  0.5250571936007153  0.8544319521600557  0.6015316210218129
  0.9528761308282063  0.3190715722926906  0.4668523587101681
  0.9626629285334333  0.3822950924762624  0.4441125635966806
  0.9350791884784395  0.4490823938075760  0.5106075991921225
  0.9823184494488958  0.4231667229867962  0.4891163981400030
  0.6831967158554959  0.6808411291494467  0.4781865182051783
  0.7973410047683688  0.6624989783544178  0.5148249945195081
  0.6863037065241804  0.9293529334080564  0.7493566267576585
  0.6758764019343207  0.9731898359576787  0.7926065177672682
  0.7352580471290175  0.9666446694348844  0.8161864026300080
  0.5616573496062891  0.5503288912892987  0.0738698945192699
  0.3652164299734975  0.8184132021809870  0.5549857436104073
  0.4841084633796496  0.7845262206469283 -0.0024300530940441
  0.5090983339054940  0.7509462311943543  0.6139996518803670
  0.7224265484089302  0.7920812548112540  0.6208767054584887
  0.4131601758153505  0.7379715797717726  0.0859351612917335
  0.5904085106473947  0.9006021613680516  0.4964052351575503
  0.8586239267915855  0.5903488457462371  0.5675856481288625
  0.5580491509020524  0.5021184695418982  0.2571761054421058
  0.5226109958923759  0.7503862604627979  0.2874922616291137
  0.6649978595354210  0.5166866197551313  0.2328732015566805
  0.2331885527893642  0.0804184401528060  0.8881228126182410
  0.6120946126196650  0.6625128982449718  0.7817257207650146
  0.5354270741403110  0.8559447229202121  0.5476297887911303
  0.6277172774072607  0.7357013940640060  0.3830437704953120
  0.3498154308257306  0.1292002012219688  0.5806409047691129
  0.4248726397940717  0.1125618974685034  0.6632414643150640
  0.4729719186176807  0.1501196003354843  0.7294095024469964
  0.5644880864004983  0.6120302268980741  0.2844777191926308
  0.4621649367410312  0.6271478741950632  0.1883898133746311
  0.5490741387279470  0.2514312119174599  0.7396146388609642
  0.4576802588226753  0.2922843175394415  0.5306524709628148
  0.8426930483462031  0.9424798629584188  0.6147681210601570
  0.8107882083752213  0.8933518338312505  0.6306582016568747
  0.6055555075546223  0.6406418158704748  0.6172537850508640
  0.7634472114985456  0.6791491280796212  0.6637072538074872
  0.5580939040469585  0.5362049591691934  0.3611403007313512
  0.5932410562324091  0.6870869610153016  0.6593097960669663
  0.6625085042692159  0.6680187948982439  0.7427710670535136
  0.7339700588715561  0.6167470882426747  0.7208209886574872
  0.5513420546284971  0.4988762309264849  0.5387405031150934
  0.7203775948981813  0.5275153943720543  0.6429353336203034
  0.2371320686792351  0.9198007702845191  0.1100555542948248
  0.5732429441754522  0.8957310495961851  0.6637572110326924
  0.5720098237051329  0.0150351747092430  0.5767392078199352
  0.6550477208256007  1.0104910577933226  0.4276015609080509
  0.3045036536483732  0.0734981065625768  0.0845522379413294
  0.5740648882264875  0.6134563720266564  0.7791154685210864
  0.5411505023264660  0.9144724841498479  0.5340287171551543
  0.2764299506587984  0.1257771265056322  0.8897816106455120
  0.6494065589552230  0.7460222263676205  0.8883177637882405
  0.4092006201344730  0.2205228338033044  0.9173202160449604
  0.1871880974987384  0.0420653484924971  0.8223187385072931
  0.4864082622320169  0.3897029336183251  0.5804388781659600
  0.6513112157764532  0.7137580295237120  0.7844000388654349
  0.5802516101635863  0.7311717999997551  0.7015345641776609
  0.3584321710602332  0.3168517136650057  0.7178011160588800
  0.2795359415691042  0.2148027280121207  0.7080743908104957
  0.4183484860840034  0.3095762805405644  0.7401154900329985
  0.4783720622399618  0.3022769792936746  0.7618320525957039
  0.2636936784066668  0.8218046974078584  0.0750304179458307
  0.4557652872864392  0.3582809951282645  0.7450690631777697
  0.2107940460675041  0.8321683142378240  0.1047044712887012
  0.5039225685834156  0.3969609048110709  0.8125661951043186
  0.2332088102755313  0.8744909099182537  0.0617139468810357
  0.6126661141500644  0.4286933043813004  0.9015490938207578
  0.6020524656667617  0.4411069288155069  0.8405309688972967
  0.1336605479183516  0.9652196273532220  0.1180703614394594
  0.3021987081349907  0.1592323627271944  0.7249171388597382
  0.1158739634747488  1.0091754079015727  0.6808099575939651
  1.0031144610361460  0.1917947643990127  0.4054358262998021
  0.6231772371763274  0.6516316239652833  0.8428916054797166
  0.1309038177741979  0.9222821493203393  0.5808855581335123
  0.2255418772266354  0.0897430749417081  0.8230496610828580
  0.1530282504234634  0.1067522541445195  0.7385536020201444
  0.6012241107838419  0.7096819617373863  0.8240611834415560
  0.6117131462766647  0.6960285768795849  0.8853836455996066
  0.6712118583981064  0.6891698250915370  0.9080124947685209
  0.5190789694179122  0.6896262929021372  0.3031430387098571
  0.7197350948889745  0.7302209743131883  0.9738528097467728
  0.4241338490141517  0.8582154216369280  0.2812065187517611
  0.2573916680256404  0.0276870925346205  0.9115317283506044
  0.3733542337042162  0.8713930285487873  0.3174178872332474
  0.4007342287031500  0.4852879331754109  0.6515161745591921
  0.4496282944421486  0.5245694396437356  0.7161352254069060
  0.4867546206546723  0.5745145796065469  0.7208378553845278
  0.0335955017281384  0.9785098105566691  0.2500559708875150
  0.5342453343723464  0.5948359214978819  0.8811168024279983
  0.6185537157498657  0.7825583816530745  0.7033722464107189
  0.8489781893347360  0.2559029971686601  0.2189584482860672
  0.8511349571928126  0.2855380557375489  0.3239691410052164
  0.2475833929826910  0.0914507447937442  0.9448614225563496
  0.3827539285671997  0.8029383415177738  1.0114199883711983
  0.5364267150827002  0.8464902036548017  0.6627995029458815
  0.8202503754221989  0.5000801361122634  0.4632087525837935
  0.2549041920608052  0.7548904218422738  0.0849571971998500
  0.9042701165804470  0.3037929424989930  0.3996084584581279
 -0.0070063626989135  0.2987242613676618  0.0272708850100611
  0.4045369102760383  0.0452198339920297  0.0106342710000010
  0.9250132535659554  0.8444152849172550  0.5704911975103781
  0.5457461537392576  0.1306518944507595  0.8122777860577225
  0.6783409482518170  0.5432360483337282  0.8464691561825618
  0.3213013491271522  0.5842005142509514  0.9788907790799274
  0.4396352482424347  0.2200582955662247  0.6508126969148758
  0.6346987433359612  0.6065450056498891  0.7996103984261208
  0.7331552004423736  0.6506589568933381  0.8256675263381046
  0.7991831273773139  0.2719420537770596  0.5411345566533992
  0.8979961909224342  0.2891451725038918  0.4606428567634904
  0.7948593172137358  0.3391157176461146  0.4619983735325924
  0.7215320512042609  0.6961399752298600  0.8684817950188756
  0.7828924057495360  0.4458747514413982  0.5202179934700676
  0.5700360381022452  0.6096770175240447  0.5181665865406653
  0.7703882594035306  0.9419610994249445  0.6087274772947175
  0.5884327593185341  0.5480083968188939  0.5309505079471566
  0.6819906049746979  0.7453405050498263  0.4600581031996738
  0.7500197479260501  0.7573722881853137  0.8105303731991161
  0.7592980711254818  0.7449744134701778  0.8725100996127334
  0.5646378485744590  0.6305642624384888  0.4531873135081049
  0.6926709277384552  0.2701292066871527  0.2154486913684734
  0.5991332259022123  0.2888614499961536  0.8071135916711485
  0.5258312684269182  0.3410615920004057  0.8296324329157568
  0.9361326299649093  0.9885721105435735  0.9233606536547196
  0.5833554766884010  0.1492406691485801  0.7105681662619890
  0.4839599110382898  0.1051805722930242  0.6835845746305259
  0.6292520668992996  0.5372533870846383  0.8859519256632317
  0.4743401264438132  0.1149445633720513  0.6167187701146730
 -0.0042636683428109  0.7983737564127763  0.1511387783583424
  0.0115368619321640  0.8684406016573732  0.9921720309321210
  0.1073073892882612  0.8602335257813648  0.1749006041916495
  0.8842338444280110  0.4539275801096928  0.9872703445231698
  0.1460701557472506  0.7583528975535152  0.0449594329508932
  0.7129008436555287  0.9554624715092251  0.0374667265452165
  0.0658990184786460  0.9181668759863509  0.4930391042779818
  0.5041198624006266  0.0000509047481141  1.0004484470302826
  0.2507279480211931  0.6258190263693423  0.1168163952828161
  0.7898759081291056  0.7760007364276257  0.7078849262496462
  0.7519290765375292  0.7248867326090143  0.7057702894986007
  0.6919591238982876  0.7314768326590034  0.6821743257962304