C  Cr Ni
 1.0000000000000000
    38.7210597765861735    0.0000000000000000    0.0000000000000000
     0.0000000000000000   38.7210597765861735    0.0000000000000000
     0.0000000000000000    0.0000000000000000   38.7210597765861735
 C   Cr  Ni 
  50 1596 3725
Direct
  0.1753543676919462  0.6372083600474555  0.1145391589439966
  0.0668045406375541  0.7922490987960243  0.5066271768568523
  0.1815807546831866  0.7607175104507842  0.3145548182704709
  0.2742987278671117  0.6697933187921241  0.6234707376005511
  1.0141159502827499  0.6424281797406145  0.1751362420492208
  0.3380310419500572  0.1371525581900396  0.8939678513112878
  0.7227685119366436  0.6200253382299912  0.5190867902313923
  0.3797432593930604  0.5907480142767101  0.3716504560151251
  0.6053241540535255  0.5490811630004154  0.4839319367270372
  0.3300184374309526  0.9973043430895244  0.5180990919003901
  0.7961268900759415  0.5746374933873276  0.3532409366032858
  0.8573499333362261  0.6240303725466014  0.2940882901373327
  0.3213040711139905  0.5275741488670058  0.2582876452782063
  1.0243743885191141  0.0522956602769915  0.8508289535930209
  0.9941921476718382  0.7346816280669842  0.6997768823006042
  0.0582938967765583  0.4237770833766691  0.6318209498343433
  0.9809099716621940  0.7399202233596746  0.1497995741900010
  0.4572618185078211  0.3753084813652960  0.5351905432386722
  0.2267534721579188  0.0511288520662017  0.2165854441505271
  0.4899335001620144  0.2862979465158407  0.9733678239738820
  0.3600961615400938  0.8050590182078524  0.1182804898027988
  0.1852023079744909  0.0756192644390510  0.7287135763280322
  0.5541230624011084  0.2108952153959869 -0.0064417468577919
  0.8397458216908413  0.0290651900007934  0.9220543668625480
  0.3895144896037410 -0.0105346009069557  0.9217922895753770
  0.6381586671822671  0.5965919303269445  0.7010775856028801
  0.5865986261471490  1.0263622663114811  0.4379880021086105
  0.0314353488611146  0.5598199953077976  0.9544887031414573
 -0.0060071239207068  0.8452512547505662  0.4150858613695656
  0.5862697651628368  0.9284707516258187  0.5565305349707742
  0.1324806115844744  0.3519764725849313  0.4376769365483633
  0.1717810660917256  0.2896399808012531  0.7447609204876029
  1.0647146247848513  0.0985373297993615  0.4973903398006315
  0.2389134733663368  0.0832519056777203  0.6840944624530337
  0.6484120309007418  1.0157993507253416  0.8725033399607436
  0.0238713750241733  0.2769041410053146  0.8646470587068915
  0.8712406236967615  0.7663664047472374  0.0490992443888879
 -0.0666424011530790  0.4163807678710078  0.4716469902740717
  0.2206509600784460  0.6311624142077902  0.6590615180112150
  0.8042186178191173 -0.0072202728291455  0.6700837479603897
  0.4246254505672281  0.2328780612535382  0.4758937364444633
  0.4400767965070662  0.7165872836675289  0.2403665852145218
  0.2680043456099737  0.8819896369486553  0.6457256282746160
  0.8799782195764402  0.6326697236368256  0.5472593012669530
  0.1360003840884036  0.8223075064106828  0.4008790423400302
  0.2293066467446855  0.2462774668083398  0.0059490745640567
  0.7329719102414040  0.8235508212310289  0.5755869484850544
 -0.0204054346513911  0.4310103109981434  0.9438202632605661
  0.6596371604293190  0.2031619866815877  0.1953466793961060
  0.0644528358129219  0.0920997404225155  0.6805382110911180
  0.2730400059880256  0.9570265546576626  0.4407559886493263
  0.8820560036808018  0.0438250575822439  0.2970434133206247
  0.4334243825576178  0.0976212194320882  0.7259694961881668
  0.1159379752454422  0.9028761373411853  0.0153889217123206
  0.4837474057077205  0.1341882387086439  0.7922374943708737
  0.5365097802022890  0.1696583737880096  0.8560171735742549
  0.6553417771824771  0.4443184510632006  0.3119582232662877
  0.4484692218184017  0.3389847122847305  0.5739115901832019
  0.5760037830249415  0.2614850632393262  0.0160448188829044
  0.7396765023173043  0.1990333845012393  0.1966337998483002
  0.4497046516460492  0.1723020210645463  0.6089667735034385
  0.3814549878158379  0.1922609534067384  0.5311476657564326
  0.5934231837114372  0.3138050358056997  0.9131268922291275
  0.3250933730960017  0.8768866500383330  0.4179721166680784
  0.6492329798596526  0.3816075604433235  0.3326758396840749
  0.8582418467337446  0.9180194456965456  0.5277755313715031
  0.7047332246827106  0.4447028003845209  0.4403340341264479
  0.5555346239841443  0.3699514421487592  0.6623649093107298
  0.1661645772516558  0.8480372121921472  0.3722336389662804
  0.2793383852572177  0.7253287958103547  0.0474733794245054
  0.4546240667471260  0.4893117628028011  0.0591454532020547
  0.5228743450873345  0.2136037483113502  0.8980326453867346
  0.5892426250047058  0.3052984174145373  0.2832078517790256
  0.7900770377242314  0.1995207187337049  0.3304444437983586
  0.5914455759692915  0.4502794130508289  0.7787060103228499
  0.5322440366153115  0.4573769723701243  0.7572516271521608
  0.5792526507563870  0.4931438908778556  0.8221340567654563
  0.4101294862133468  0.5806071106689220  0.0140801780047414
  0.0007585811695239  0.2290962376946526  0.0531957133115771
  0.2902482273074913  0.4548755003648100  0.2413471906123754
  0.6632879298576305  0.5641828578094791  0.9881178743159684
  0.3596691152146331  0.6461345367481863  0.0906765136033231
  0.3654614003263399  0.2392797277964407  0.5638500014181186
  0.2594316311559129  0.1499962990608046  0.1061429878974546
  0.0490438430225531  0.2073953644936652  0.0196847065176226
  0.7895002364054492  0.2485286389626083  0.9291941041720406
  0.9092702748092281  0.9341755411296995  0.6502655854928218
  0.6836386437914118  0.4728397905411815  0.6406815416714389
  0.4895113722893828  0.1671998587036647  0.8963184345021011
  0.4486882651773276  0.1168657753039613  0.8950046599898553
  0.4788007710949068  0.0157867753723079  0.8698916728419597
  0.6936322469713978  0.3050181675820895  0.3188146058016778
  0.3939938099534874  0.0803972037016572  0.8302337615778083
  0.4173266038347204  0.0227757679125082  0.8493992270374769
  0.8420168302291882  0.1831396807123780  0.2948951538810097
  0.5206299937009065  0.1935819594651451  0.9569359072516929
  0.8294607035285344  0.0475694276561760  0.1615959047599378
  0.8736968639679606  0.7796671107945301  0.9580264233359487
  0.6921958887095154  0.1749643477204464  0.7978927295026600
  0.6420684837110952  0.1387690898668227  0.7305055855171507
  0.6514572789325399  0.0933019056027050  0.6848079414875624
  0.6891281659995491  0.2127559443668574  0.2331253998867827
  0.5515281258317407  0.0442178773560238  0.6613887311976387
  0.5313868892637695  0.0065611046966857  0.6154090883211196
  0.4996471280951999 -0.0314562326640875  0.5626164960734396
  0.7419237351958722  0.2114179231209644  0.8656852853176188
  0.4078502062559435  0.0356667233189753  0.0792090552626502
 -0.0060642479138694  0.2941224520097872  0.0276794693859069
  0.0405186508136044  0.5653285797319966  0.0560644803518210
  0.2199736432424585  0.2901560061665528  0.3367637289663477
  0.1701681327368554  0.3022591841751439  0.3691023658705265
  0.2250214054888333  0.3364326687582760  0.3789819002024208
  0.1212950676097908  0.3788579664488167  0.3888970856431828
  0.4976323434330677  0.4448858685496447  0.3705475894484694
  0.6262651009398537  0.0315422022360551  0.7437055417376593
  0.6531432920534215  0.1262646270220600  0.7924280059683397
  0.6777768191246989  0.0954179903323221  0.9151887042218498
  0.0752095141695764  0.4620047582895510  0.3923350209385229
  0.1369689449118361  0.5345544919720925  0.4503051538683435
  0.1287186606556429  0.4450105468869165  0.3595136187447049
  0.7138866568139950  0.1192554157793582  0.8135103488029517
  0.4774563690278654  0.7846586687393352  0.4891391710014482
  0.4363589909182416  0.9204040645048306  0.4971340648131620
  0.8059004887827526  0.7831091640701136  0.9269849365619796
  0.7130548194551436  0.4339602454492064  0.8224318528670870
  0.9934501096928159  0.0868895257642903  0.3764930927025589
  0.2678453605595361  0.9189693481885558  0.3346624299613413
  0.2148663660850350  0.8891744099400356  0.3252138703662796
  0.6159956381501062  0.3615026655151647  0.6863675295483713
  0.8977971016669533  0.9662000064701554  0.5297819607337892
  0.2694516148769393  0.8596281668371036  0.3513553959882906
  0.5078245219771523  0.3338978125093228  0.5961988964743062
  0.5669101202712881  0.3257511895408641  0.6176376994198002
  0.3156062940675610  0.7978253823391356  0.2641159091822816
  0.3662693975588874  0.7684744874643663  0.2885527836140445
  0.5104143000008282  0.1977313483305335  0.7340247193101853
  0.3670854440997126  0.7533375793000789  0.3496161675446475
  0.6142510428716172  0.6138130220793904  0.4160409949425041
  0.3712921424839916  0.7980056061998176  0.3952612755145057
  0.8286419356037723  0.9674867054949028  0.5419527547932997
  0.3205313060085649  0.8293251734767755  0.3728196719654128
  0.5720737460096278  0.2204115952556131  0.8603827193307951
  0.4255372578982139  0.2323977692905212  0.5885612780731289
  0.8966366044202345  0.2404976393708772  0.4172814930831746
  0.5268135293925797  0.7633120931059669  0.4575193740928080
  0.7641150584280956  0.1560345799884000  0.8809757562621608
  0.3039625221737925  0.0761705838417894  0.0892715308857071
  0.1320852288762787  0.4586367668816105  0.3009152072855072
  0.8755845262834050  0.8449817350331533  0.6073254465820466
  0.4003019891610560  0.4373209425380826  0.1080832544324357
  0.6929718983550730  0.2046539042405069  0.9044075432663505
  0.6659938607321446  0.1393602851335395  0.9600024040847781
  0.4036249565582675  0.5021913317692343  0.0938370290432883
  0.5280415619116607  0.0202607910638804  0.8298797716822460
  0.5957343715861696  0.0122481721280080  0.8558431697682963
  0.5390705453139477  0.0090574150113625  0.8929003955956536
  0.5284461383624823  0.0544418114493775  0.9361384303880693
  0.6286340631816063  0.0606631459626067  0.8515260584983048
  0.7532315422394271  0.3816722094314855  0.3700046447054453
  0.7783192836930447  0.8160561600526112  0.7464676306080443
  0.8409785696833638  0.9651659588119693  0.6482705011512535
  0.3320889635903449  0.9887651358250310  0.4660706850463828
  0.8980043759617362  0.9654028654598311  0.7556053232673806
  0.4743728018151138  0.7380096502603115  0.4415226012985963
  0.6393209733414222  0.7589468390744457  0.5489681545649588
  0.7745008730375175  0.7973025209468201  0.5738540569107810
  0.4765644181613433  0.7989940343987801  0.4281127129523202
  0.7631995014440577  0.8422263713334410  0.6194669812259863
  0.3757063778580830  0.8904663018779343  0.4846713382720939
  0.8092755474737092  0.8811336270566951  0.6881145774711787
  0.3983620519161034  0.3885674176561508  0.0609337610398798
  0.3255476879896342  0.9226413541084387  0.4591771591859998
  0.4110690983707040  0.1228885482812381  0.6024507320178774
  0.4459715640738803  0.3672501884192594  0.0957929550043166
  0.3534479101070361  0.0454953360047001  0.1161755414343759
  0.2662317351736208  0.2316789275191751  0.0345755639546658
  0.0337956483039278  0.4876572186599830  0.1418048968662017
  0.0807469618515344  0.4066626258562639  0.1265007191167676
  0.2497460690424606  0.2928646435260672  0.0170020782145306
  0.0254481665397064  0.3795459975853894  0.1210574135012997
  0.2245396714859432  0.3177547450545768  0.2111107595080176
  0.1339093317737529  0.3457965505569094  0.0463240587926572
  0.3017466955899774  0.1215366387895483  0.6192145160594988
  0.4190488500132871  0.0799752694664671  0.5580391745468298
  0.2911594473088794  0.1355098292775559  0.5592132788254754
  0.5056021932141214  0.0766660868515743  0.8103400794742259
  0.5287238021879286  0.5563642329455545  0.5180696822267288
  0.7896056277595237  0.7154033768848634  0.9913176325270024
  0.5188127979303093  0.2920936079706329  0.5558209572703765
  0.4158895633875929  0.2434944213508358  0.5248911704385629
  0.4239331224967395  0.0086141005187233  0.6425596181141766
  0.4447230188408390  0.0508919011220136  0.6820894842889059
  0.4764901448921361  0.3114557687067081  0.0138774172131608
  0.4343231220661128  0.3239483657100319  0.0584755448420612
  0.5552096483785914  0.0816963262632308  0.7688338670582422
  0.4999488428175099  0.3486595293578686  0.0600191262011649
  0.6808438780386341  0.6843416714203026  0.4745786808300404
  0.8663405933568398  0.9037991770615166  0.8176841793258168
  0.3402029181609807  0.4464123730350739  0.4313153672343997
  0.9661953641507791  0.0254000130803468  0.4797890836685829
  0.5792914174636395  0.1853755606506826  0.0889713275580333
  0.7538991592305012  0.1974869306676923  0.9284546950794901
  0.6753521116515300  0.2470667702907926  0.9460039176621872
  0.4787416429245105  0.2347131953442746  0.5502179360247060
  0.2581654351902331  0.7394725435994858  0.1450271998926514
  0.2096299078683613  0.8184780453991496  0.1652638018145614
  0.2616499751991795  0.8297112340139479  0.2382745714503269
  0.1665242457035062  0.9377050712061482  0.2348521416391398
  0.1162911368377970  0.9523375500669801  0.2705465841666810
  0.7713407089631727  0.0189170597656377  0.1513320927689731
  0.1466600917117544  0.6296481345094151  0.0756847378982094
  0.2588938589209134  0.5807942883357130  0.0138446111261434
  0.6960822811506127  0.3275745083242886  0.8320319885868308
  0.6700524594424636  0.2330397066604316  0.7807985310401888
  0.9706459402522029  0.9187811760977416  0.5747562249641294
  0.9995220340616894  0.9809630043446474  0.5880566688005450
  0.9316200378384392  0.9575811910568797  0.5861609460525768
  0.3689314954335717  0.1677545418264149  0.3100867830987986
  0.5515843736332137  0.0147547446700778  0.3950588559806673
  0.4170554951352105  0.0909916789623135  0.2911288339155437
  0.3742753510400396  0.2582551540183449  0.4022071468301989
  0.3715273522724142  0.2136130684846408  0.3550005835301972
  0.2480836049171297  0.0479922662475200  0.0174311758043467
  0.0332464952575429  0.5216275149543067  0.2457287189011537
  0.5788448823795044  0.1917280017510282  0.4845180815004844
  0.5285250925270817  0.2218977164129795  0.4575002743769612
  0.4725073523762207  0.2324895534114650  0.4914495092408187
  0.4236613546095871  0.3992179243519672  0.5026052990974561
  0.0885636643020856  0.5381207365440962  0.0332282760390308
  0.2640835280702570  0.1963052808010319  0.1542420413525520
  0.2143773176215468  0.2106209801489600  0.1877090552695281
  0.2050190736797350  0.2021320061454950  0.0192201639832279
  0.1496538695694797  0.6573873210150162  0.4177091863429307
  0.0078374975550641  0.2722956797774606  0.3267819720918227
  0.1061089507352355  0.1787904876726498  0.2757170568698358
  0.6672223780627523  0.8175903163067497  0.7678318759213398
  0.1093119499077837  0.2889919290013397  0.0757840651294447
  0.1349611618439013  0.4071142185084463  0.0268409081595555
  0.2825202902158526  0.3001029340881485  0.5302369358567491
  0.1379493402808288  0.4871043892072801  0.1769452970384492
  0.3142352722055214  0.1689871012847495  0.4144759368885300
  0.1401795539507369  0.5011808391230416  0.1165098982928301
  0.0916990423507534  0.5813554761601150  0.1315197790322996
  0.0329556197038128  0.5857351318658545  0.4523486261845274
  0.4209160464499821  0.1832166224545542  0.1504719934440402
  0.4589188925035177  0.0455493238585669  0.1468995701774447
  0.6909734009733247  0.3560304112852996  0.9462214456966207
  0.8360826868658546  0.8413821842459449  0.8762703376698945
  0.5207308837463862  0.3656820260480126  0.9372365536087831
  0.1617115850529180  0.8946650922164240  0.1873190155182899
  0.1349425129141180  0.9566652728011117  0.1865422149838733
  0.8833350980300226  0.8295342890576364  0.6682680151426716
  0.8891780371236376  0.8153222237118183  0.7312125752987911
  0.7167373950230909  0.0030192868411824  0.0773543357786187
  0.6767666631819070  0.0965515473667917  0.0304217937087344
  0.9770859351391049  0.9407866145989623  0.9058486268052759
  0.6979847905623262  0.6628377795167592  0.5306931086933658
  0.8803175857826256  0.6937498988288128  0.8084875765489244
  0.5839858806990453  0.2559480312076582  0.0712084446369145
  0.4955721905246935  0.3816098251476210  0.1641575274489716
  0.9567752514613991  0.7946288744453653  0.8161793364755646
  0.8976059749882568  0.8017319211575767  0.7935856513883524
  0.4487965031290125  0.4121502221496391  0.1379066570907979
  0.9675987801918674  0.7827382191829395  0.8772675225068350
  0.9178688597409652  0.7773887836341081  0.9186113380821657
  0.9986088465880150  0.8774078455015614  0.9236119734718298
  0.6103252857721891  0.5521254468701995  0.4338834126833828
  0.4555225434868229  0.5196397859193076  0.1622546624530082
  0.1590896431781020  0.8537734789247597  0.1400737377002181
  0.2090203047072093  0.8002906537522744  0.2255491983938086
  0.8562811030710726  0.3833188114355006  0.4084220487958520
  0.6924634732785848  0.4603151401490516  0.6991956164582781
  0.7974312169001015  0.7466033948934641  0.5426674673482577
  0.6963611375286165  0.5961253249227678  0.5559739227256736
  0.8038104835832846  0.3676207189657910  0.3372535760975217
  0.7601400304974514  0.4442484830249298  0.3495151536004053
  0.8152081999126850  0.4749492029044984  0.3592088590933232
  0.4018820501745389  0.3828240215639347  0.8913753122696516
  0.7656660177940802  0.5495547209584050  0.3804574742405369
  0.4482869485691955  0.4197222978611820  0.9558546835224575
  0.2188783104703197  0.0177863406136144  0.5996688017103735
  0.0988439861579627  0.0347497646107132  0.5598514233094598
  0.1413809478762044  0.1149497406862524  0.6732741947803242
  0.1997215539981695  0.1105451338219043  0.6967791801033405
  0.5831896190901337  0.7981124723012261  0.4631062410323917
  0.5826844286667811  0.8143016481609806  0.4038008299018455
  0.2416010309603328  0.1937082348563657  0.8099021698878189
  0.3008569177415326  0.1881962418540944  0.8313257967088795
  0.5410937994627557  0.9222040522140187  0.5358611056745278
  0.5875282314710961  0.8596390773562984  0.4520043548096184
  0.9990499329959169  0.1485652579916711  0.3600362128100653
  0.3731641305997815  0.3192580373191973  0.9592127217332599
  0.6116034009460483  0.5373021228907991  0.2657363945907932
  0.7116632203544986  0.4447342192778363  0.2167712690775877
  0.6301094637202491  0.1975706236060949  0.1569678313797529
  0.8492538981027299  0.7483966153214882  0.5661629663578757
  0.4147200421988542  0.5649872967012574  0.5328467868909551
  0.1092236514022075  0.9188423304513856  0.1571709678906736
  0.1488796699498132  0.0443623417095187  0.5209661588133619
  0.6301366809017251  0.4994393655580137  0.7814853439435646
  0.4369300025359244  0.9540201962303241  0.3741140849526014
  0.4308736644663846  0.4448350405317338  0.8360988090799517
  0.4409999784499420  0.4320050706537793  0.8967325620518992
  0.9943556673943632  0.1032311328852585  0.3163799225331742
  0.5524485837039211  0.4581574751929201  0.9852504343177083
  0.9466502927399524  0.1797371985994935  0.3344167845534117
  0.1577804305343139  0.1925933855975444  0.5596855883177931
  0.1703475121630071  0.1795193923898095  0.6167877237180759
  0.9522172976567064  0.2427118041095973  0.3181889223813881
  0.8345264433735026  0.6558976602220508  0.7441493950149461
  0.9408339165371621  0.1032581908230483  0.1828486876136772
  0.5830444291646002  0.5950450664057610  0.8421578806639416
  0.7961494134436459  0.2441036780588449  0.1462968550543641
  0.6771049035576489  0.8055661685675557  0.8280128951973676
  0.8066992740988254  0.3513769055946209  0.1711865213592435
  0.7078851617841316  0.3985175465875210  0.1754753720841726
  0.8142173572450282  0.8644254773771780  0.9804948979812160
  0.3755218218759719  0.5126334287123380  0.5311349617104195
  0.6591945217150246  0.4591337962204655  0.2516101589263667
  0.4796943226357091  0.5543507175690967  0.5561672620009919
  0.4583791111234768  0.5360849626085760  0.1024162874290067
  0.5599898836196233  0.4898205430270789  0.0917081535865112
  0.5785340779650936  0.6275232594588749  0.9440810957250997
  0.3526056399942254  0.5654919763012024  0.1697267462508365
  0.6910224950129102  0.2306204410184407  0.1686040187927150
  0.9532027858080583  0.7097076343741833  0.9986149949775017
  0.5481058054223268  0.3968487125784713  0.2346837619768088
  0.5993115631969146  0.3823278628150407  0.2012276473836788
  0.5400388420819424  0.3958042696698784  0.5328402523148584
  0.5552394007483793  0.4587769023993625  0.2158990365852208
  0.4557300971461200  0.5526436225774712  0.2670679661089223
  0.6551890884144981  0.4102595169391647  0.6943910942996919
  0.4573259555779362  0.5680695436034406  0.2033870917843855
  0.1553720518447949  0.7875871900083324  0.1554893214295639
  0.6427796359996736  0.4543724534357864  0.7397304425185075
  0.4086626674438726  0.6292014906148070  0.2826406850982621
  0.6901964718975815  0.4912757144778362  0.8037249137685269
  0.7490576156777636  0.4834898497669032  0.8250350382252153
  0.3569119736624951  0.6611502264007311  0.2567486240878181
  0.4094019712524871  0.6901341453486861  0.2683783749217922
  0.7611190050170353  0.5739935976189930  0.9046053952166145
  0.8327090006253138  0.5567826413328208  0.9902924819321806
  0.8087753561938722  0.6123813271726237  0.9694688170056952
  0.8793228862727915  0.7271987540654902  0.9119554709374155
  0.6536629297471687  0.5446013497475505  0.5618635842543682
  0.3541407520835333  0.6134038187695305  0.2134682710345994
  0.5073343446884483  0.4597257092075799  0.0837596025283585
  0.9137301923062335  0.4129172082521703  0.4207602937136987
  0.2576817836648606  0.1665685831244487  0.9301489093125865
  0.5914167883543227  0.8751172479802564  0.5635423737107245
  0.9500078919126047  0.3206136764138948  0.4669618031930061
  0.9598317352455078  0.3827112990136766  0.4446283165580838
  0.8860672217788100  0.4098854231515745  0.4962003877201832
  0.9830783739242146  0.4221020931145197  0.4896734794240155
  0.7196662197805151  0.6124446808901480  0.4509778713569407
  0.8027428681536796  0.6219253542943651  0.4856816404603838
  0.6844277660498219  0.9242840198505493  0.7471237627968877
  0.6721473731250048  0.9671944231655091  0.7882383455282387
  0.7325917012152883  0.9612941186745112  0.8116246010757483
  0.5579452596892184  0.5045709566175999  0.0329324840380810
  0.4253194112952263  0.7956822506484540  0.5239604683977919
  0.4853876595566669  0.7789377641996391 -0.0008562295659618
  0.5100173706345295  0.7498488178116092  0.6143614163271311
  0.5482257616467606  0.7987833150879363  0.6216886083617552
  0.3842619397770694  0.7490719818557147  0.0257215608840840
  0.5923624317809427  0.9042331560895659  0.5058672944995555
  0.8202535319203313  0.5699160604888915  0.4495350219460044
  0.6099919747066340  0.4904203682677768  0.2240025624546755
  0.5247695507565483  0.7547232366335814  0.2866158653974599
  0.6648478060078817  0.5213609621017393  0.2327630405655409
  0.2347484665858716  0.0728883708182418  0.8918579154073465
  0.6117889672555070  0.6622307214455385  0.7834721497980843
  0.4800643139237232  0.8267123124018407  0.5355753863834861
  0.9200314618006840  0.8925239791471783  0.6107224399133024
  0.4856803980657822  0.0014548115752316  0.6650713781945158
  0.4225855510219536  0.1098853053280328  0.6633060766985071
  0.4602051113140412  0.1600748766935198  0.6684554548584535
  0.5151499127455474  0.6311099557667469  0.3177733909900662
  0.4653599004786774  0.6754008738970280  0.2304530125807269
  0.5225342236284488  0.1830717957028151  0.7958330596210828
  0.4618666026374443  0.2877770356669053  0.5306676635113902
  0.8650878084767162  0.9350058284759848  0.5941648437083918
  0.8116524175500422  0.8979265191751022  0.6280529325987797
  0.6401680163470727  0.5888457391673949  0.6006546490373875
  0.7658818085787865  0.6764503150421362  0.6612771415657690
  0.5607392736355852  0.5841334206770993  0.4071026338288156
  0.6553706904415848  0.6787600405785295  0.6815412471382691
  0.6646316129038621  0.6664654058968204  0.7417313818874719
  0.7013934213765773  0.7150332383992648  0.7415810008888472
  0.6137810721207326  0.4933903665183769  0.5591423303851280
  0.7211993659993348  0.5239555756455226  0.6430843268438460
  0.2399993407022092  0.9241191511011664  0.1090190236552337
  0.5739825172836656  0.8943510740184800  0.6647864365555383
  0.6340581373192483  0.9187682371883420  0.5668012601231818
  0.6552801520796939  0.9913928009317365  0.4911815862554030
  0.7334576592956933  0.7139948621801359  0.4809352022516261
  0.5744929576322765  0.6100890925055064  0.7812492587816899
  0.5424005264473013  0.9348905096155105  0.4726632890179113
  0.2843119073454412  0.1216485181078185  0.8996918231273067
  0.6602376501231988  0.6977077313980544  0.8427975614964399
  0.3571343700606470  0.2110511471327771  0.9609605022266039
  0.1867679900083618  0.0365039237571702  0.8267071562212862
  0.4721653985987524  0.4330891806632123  0.6293104811826831
  0.6506618213644331  0.7106323055455162  0.7828459335113781
  0.5797733250561409  0.7296643617663080  0.7011746192244511
  0.4067150920551381  0.3201600312454828  0.6783302233021874
  0.2795792847174320  0.2122076779059584  0.7086684082177803
  0.4169908254102828  0.3069058771779078  0.7399379414170910
  0.4769446035854595  0.3005144741210225  0.7602720810870605
  0.2660816559609791  0.8319107200917332  0.0682397560598500
  0.4548223725486110  0.3548600649073739  0.7452877041495375
  0.2126035816954052  0.8370599011096472  0.1057824746845955
  0.5034619827252793  0.3926648255629233  0.8120111531253619
  0.2353490776473603  0.8815322018021596  0.0599802560965261
  0.6098246252749663  0.4212534681368739  0.9007832635986237
  0.5519424368977346  0.4299855120601073  0.8801192544116170
  0.1806404523530597  0.9354312695716605  0.1481174618560966
  0.2146785011096497  0.0982354184178006  0.7645970647042808
  0.1593637638099191  0.0561450914868944  0.6894960844075489
  1.0020398482731288  0.1945565227095583  0.4050096593907594
  0.6223155473373784  0.6456198295338635  0.8435631612088013
  0.1655040638004176  0.0099970778791346  0.6386706949682722
  0.2163707769088011  0.1297331931075294  0.8718014361786703
  0.1482246916198960  0.1047526864283786  0.7406328957501547
  0.5993816046718861  0.7045717306121819  0.8255423723043407
  0.6092063058844811  0.6916643879530152  0.8852242494022170
  0.6683586925597462  0.6846974477208101  0.9033336878142229
  0.5200992210246909  0.6927160188870395  0.3020842493392127
  0.7183986137616014  0.7228219365735548  0.9667351242823043
  0.4223042418767189  0.8003946313028362  0.2970845817998364
  0.2423200579338901  0.0557743799549000  0.9554309814883496
  0.4265671042507969  0.8468249631973220  0.3415406596826288
  0.4027554051004564  0.4855588081411646  0.6525182944294471
  0.4494407064126186  0.5215777574403879  0.7171448227293100
  0.4880587912457992  0.5725295696803840  0.7211487183975177
  1.0320872758988391 -0.0068507095108034  0.1925848551482112
  0.5332285096017201  0.5891750697931122  0.8839319598257774
  0.6286485054432450  0.7677309890077025  0.7641106795661089
  0.9018366381531573  0.2747262465355153  0.2904149404242500
  0.8502095545993147  0.2897932398512233  0.3235707509394029
  0.2273753824938491  0.1161202408143454  0.9353836156110558
  0.3782862038709723  0.8094479558305382  1.0092799427173220
  0.5368398233825129  0.8449339044876507  0.6638859742675424
  0.7665822276324727  0.5376330788722715  0.4397452546948095
  0.2649149239569113  0.7620956762620339  0.0887962494469447
  0.9014325298709184  0.3033834104704955  0.3991078552338904
  0.5598605116054538  0.4440290244126420  0.0473187890576421
  0.4972864038384505  0.2732060219769598  0.8811398069267666
  0.7718240078714987  0.2896649295490687  0.9746746312425009
  0.9681012664140127  0.9443920228829932  0.7583170499340878
  0.6777426464304156  0.5365969890484034  0.8464986298622148
  0.3086610657995830  0.6253977381101143  0.0221381793746334
  0.3187517612390173  0.1955990082160678  0.2858519737120854
  0.0651794088624746  0.8104548267955560  0.4613874215271729
  0.0539131423596408  0.7506625420821070  0.4756484686742982
  0.1433154852734957  0.5969275581925586  0.4330408881183495
  0.2539474185929593  0.0900081010525400  0.1249141467187063
  0.3382444295852916  1.0447921241496714  0.5007278034915066
  0.6700364392669415  0.4150873493933977  0.9247047754776271
  0.8128480957595237  0.5798958846349390  0.8633592324326792
  0.8047148471120754  0.5921031790580105  0.8030357156135669
  0.4301480027237083  0.8755300417178299  0.4491733272360883
  0.3455480217747882  0.3579410052192719  0.7645716316364011
  0.3460806764542431  0.3254093101405101  0.6568727141031959
  0.5264555452387685  0.1591702760207685  0.4742145031933974
  0.1862944053494242  0.4890105914658756  0.3089408947587425
  0.1340486856351812  0.5055552658927138  0.3424003552842695
  0.0827627033300722  0.5213254351659865  0.3763524385198771
  0.2914028543057745  0.4758895009967382  0.4069814144401059
  0.2425189749209097  0.4787337748834218  0.4408407330264750
  0.5980456915939147  0.2538581748928013  0.6980070655251377
  0.2333330057630046  0.4431440122879053  0.3967588109293607
  0.0494030699053645  0.7211691827700875  0.3638929158675152
  0.6277425294274924  0.5311779530921724  0.8870093462628780
  0.3789378921370560  0.3201612489976371  0.3820610305379328
  0.3279655673826669  0.3377647749400460  0.4173953763198963
  0.3751466974014478  0.2738876589697323  0.3389873374877003
  0.2441524525862381  0.5482691843228519  0.4229147808546975
  0.0354786841577948  0.5352903458142918  0.1831828787220847
  0.5751705458976175  0.1467651848137397  0.4396309422045915
  0.4024691885611696  0.0130123499457934  0.1415641423128208
  0.4728583421938889  0.1793154009756992  0.8360756765028945
  0.4447708811020767  0.0853885357483893  0.7899185972578574
  0.2750036262621969  0.9085606704894548  0.3997670879467414
  0.6346611935026584  0.3459920903645330  0.9734889549378816
  0.8394127691735317  0.1373863855875229  0.2530256452081157
  0.7078639829264566  0.4645677383766709  0.9262098662466514