C  Cr Ni
 1.0000000000000000
    38.7210597765861735    0.0000000000000000    0.0000000000000000
     0.0000000000000000   38.7210597765861735    0.0000000000000000
     0.0000000000000000    0.0000000000000000   38.7210597765861735
 C   Cr  Ni 
  50 1596 3725
Direct
  0.9892431461273661  0.8502311548738409  0.0145336070148665
  0.9967084621076812  0.1356348399835939  0.9699904336156479
  0.3602663700935423  0.5999976916421877  0.0010442174088850
  0.2886130281016210  0.3419896636116078  1.0057096274209745
  0.9842434403411934  0.8001670771469337  0.0971105129568113
  0.8898235297184295  0.7963077840176519  0.0700425231491534
  0.0541981629983898  0.7711418854838068  0.5697517892885722
  0.4570953523628904  0.3370942670117059  0.0121695725110395
  0.5954371526884537  0.5336041919484215  0.4794225195277607
  0.2227300968071417  0.2985939363726822  0.0619919492949056
  1.0472458223151582  0.8779995646722236  0.5712410965589794
  0.0211580097859245  0.3905661618659548  0.5597553106670338
  0.8270733310144509  0.0298628402749608  0.9368461361691417
  0.9957447332828337  0.0300927872918153  0.8834043249311322
 -0.0118111891510779  0.8115639751150082  0.6662438379623185
  0.3552383029379244  0.8533882523255536  0.5226751631723403
  0.3291674932960656  1.0922274089300297  0.9503459471454864
  0.4366749975826711  0.2398395175234193  0.5264264134217566
  0.2767336783551153  1.0229378710845003  0.9093009911329270
  0.4086472682754699  0.1494227910527742  0.5555489259826406
  0.4989123145244954  0.1733785037141169  0.9459672246244460
  0.1431030029668681  0.9986687256993889  0.5950723191011911
  0.5114997015125441  0.2536586403625227 -0.0043747086512679
  0.4206667293592746  0.2184827708371480 -0.0347744626704427
 -0.0706683433193102  0.4108258336977244  0.4683259367021280
  0.5127419072091494  0.9576386531876195  0.5486738966977950
  0.9480174012914155  0.8913229783834660  0.5664501033021738
  0.6996030639187950  1.0178453098909015  0.8998416217013290
 -0.0028014714166106  0.9686706616085090  0.5434070361497021
  1.0594096186037740  0.5847098097540082  0.7340865892238174
  0.2582303249679824  0.4477136543552803  0.4466356515512673
  0.5942425556892069  0.0740242322019742  0.5737206700892288
  0.0843803288194008  0.1022335130329037  0.5586145690636282
  0.9303528767004049  0.3154515047361617  0.4379519383722378
  0.3854047143100448  0.2989454688837487  0.9932660506421845
  0.2596866315132560  0.4338372666263352  0.5184051190893593
  0.2292891467540774  0.2461180956930798  1.0059007568361547
  0.5794384913566314  0.2131630949251048 -0.0201374287333355
  0.7586370877111087  0.8892980308680491  0.6112131279597131
  0.8489055858508037  0.8965185463535190  0.5284592442828759
  0.4910702273712978  0.2855727825409746  0.5211245299817956
  0.4404062175491515  0.7132936565635755  0.2410072946268355
  0.0361325646119904  0.6598802530566593  0.7175579687543202
  1.0120079159331472  0.3905195325598300  0.4841544075554161
  0.0171769726060341  0.5197870905832794  0.9085249798056503
  0.4923611033479876  0.0799024952059578  0.5904003502384773
  0.0485944167508341  0.5993510006383413  0.6659053976996104
  0.9817057974787372  0.4320858405370737  0.9432180976099259
  0.5809668839999027  0.0658857503702998  0.4813820126175756
  0.9838537638066320  0.9503140961849753  0.6144507182637021
  0.6566050472571405  0.4396358281928797  0.3125518184088195
  0.5337082908093498  0.1773279081830252  0.8562635838323501
  0.4844724241560671  0.1391364567315138  0.7894887389155082
  0.4388787052005818  0.2195490294425888  0.6498630489084596
  0.3955361612888380  0.0503656527471326  0.7205056329720132
  0.8830002184330760  0.0576920119406888  0.2368553284436001
  0.2789886854298792  0.9475174908672175  0.4406425014820650
  0.6339882628791056  0.6074319213229862  0.8014942578871113
  0.7327725625902898  0.6505495174551920  0.8249031125860006
  0.5949037718460867  0.3222654057193772  0.9131354694110616
  0.3243874246920517  0.8702917929917028  0.4178473767170164
  0.6497232650966985  0.3788138653489765  0.3324295822758318
  0.8560380122544679  0.9481360583772119  0.5265629283475863
  0.7127084427692081  0.5016769835308806  0.4222819046123230
  0.5566853398491347  0.3729647109449478  0.6615653166023570
  0.1620291932847696  0.8442860763097304  0.3728310941702176
  0.7333343488325001  0.1334155010510685  0.2158715662183408
  0.4505678421650307  0.1758883187558981  0.6052083804813732
  0.4340657554518820  0.1938569056996568  0.5452240088460426
  0.8966784519200133  0.2885148206989011  0.4642827476490811
  0.8408847414303738  0.3067697257645684  0.4936179953963751
  0.5714887066724854  0.1577232431318186  0.9826246394961455
  0.5251939092311027  0.3414714545224576  0.8281988055148826
  0.8469860472904548  0.2262468716284259  0.3407717008816321
  0.7942336764894449  0.3365671373213975  0.4624740884111949
  0.7306344854643528  0.6816653148312006  0.9287302425564760
  0.8223376679522513  0.4340389880619098  0.4824868661807870
  0.5706051541276601  0.6092859161580807  0.5180047862162692
  0.7737703468670127  0.9372014893335899  0.6052642510461745
  0.5862719627232695  0.5479136144847953  0.5302405981374302
  0.6289538256323998  0.7213958469456303  0.4414685797446011
  0.7512560788630668  0.7582573898244981  0.8085338068101998
  0.7602571508371533  0.7453556345044057  0.8697900586227868
  0.5689754930563971  0.6293191757582653  0.4492119294533491
  0.6916946168971998  0.2703378902651049  0.2144415050376874
  0.5983405727179709  0.2901465672104934  0.8052536877509300
  0.0136102859169392  0.9688887349829122  0.6527442989162698
  0.6598040302981050  0.5330033874220584  0.6217255728462360
  0.5451072326099808  0.1657467461242548  0.9211148804411451
  0.4475010871040351  0.1206642268267429  0.8891239481445147
  0.4801550881584860  0.0199091341674603  0.8680920419740191
  0.7458525565593666  0.2873502000084737  0.2859887698992459
  0.3364867461254655  0.0906134629307837  0.8050503284189939
  0.4191107402438878  0.0252418498235680  0.8461668667404812
  0.8423212220386452  0.1808062089907013  0.2977021520849465
  0.8274520493408714  0.0300532534838436  0.2288683704044234
  0.5798529448424825  0.2141566233481702  0.9300918425845469
  0.7235063702197624  0.4261265451819510  0.8841354814533855
  0.4832226071581366  0.1066256913547244  0.6822966542543579
 -0.0036290802181752  0.7986836907927922  0.1508414772239924
  0.0226288008548116  0.8605274892371001  0.0515341119091949
  0.1082956510539899  0.8615964794421223  0.1752104373355388
  0.8801229996119234  0.4508462420089757  0.9875442770364485
  0.1472048457968394  0.7597939135950496  0.0444828876739342
  0.7128314367150553  0.9513605068931327  0.0371602443864780
  1.0178187835913615  0.9939674883599202  0.5032360133878483
  0.5058883183478097 -0.0014556305856391  0.9986036267853773
  0.3015696626424257  0.5960562588806608  0.1437749736197530
  0.7912121279086923  0.7767415935015226  0.7072278869969861
  0.7530703136722376  0.7249825685101816  0.7052747207905737
  0.6922643534311785  0.7316937756590075  0.6819363782151888
  0.8474347068990621  0.2596812700151306  0.4474541182225703
  0.8951666315623955  0.1485867355092396  0.3262050304727769
  0.6407813889886266  0.7004149314990308  0.5596326172377809
  0.8348982104203478  0.1037802145426277  0.3790336524398749
  0.9358098796903327  0.0533332670470277  0.3699558610375499
  0.0342726229888496  1.0045099516476426  0.9601163874495138
  0.9302894581994827  0.0093099186653565  0.3243663274065100
  0.5318880569566963  0.1104755795609212  0.6424196802337595
  0.7406564374458757  0.7700465136428841  0.7456646286919338
  0.4689152527203240  0.1166504521492410  0.6180414103089416
  0.9723841172419437  0.0411261003630749  0.4200916373715392
  0.2720867412391147  0.9158064465986661  0.3307460375420224
  0.3892602037415762  0.9162900365030157  0.5969852546517400
  0.2176238716624326  0.8878985767688566  0.3206749352187784
  0.6041138768974338  0.4084851087849003  0.7335357150454539
  0.9114621947424602  0.9726704158713715  0.5319404676644353
  0.2682713885946340  0.8552318212298490  0.3492139045277869
  0.4559850784723997  0.3276496626199767  0.6376161053293993
  0.5671424844787073  0.3275792890212005  0.6167481162360257
  0.3141658746728269  0.7950825141983258  0.2638865496213415
  0.3600872547642759  0.7207311383107707  0.2425215288689261
  0.5104307372961062  0.2013751282379679  0.7340748891570332
  0.4167001609925192  0.7198665142301034  0.3735284800221390
  0.6184152747631346  0.6127550260647355  0.4159775329434943
  0.3706735777741205  0.7939679769863841  0.3949374010911234
  0.8056072454840807  0.9692448398159641  0.5593613256706481
  0.3195136572409784  0.8250343948284390  0.3720134384469069
  0.5702349280083656  0.2268824831712449  0.8632268441302875
  0.3899815142403932  0.1818042161393597  0.5910702457751473
  0.9009421648281779  0.2416311023653140  0.4159303972382776
  0.5222082268167143  0.7189371778462124  0.4104275357319940
  0.8061417970094230  0.7853884047314211  0.9321828795390257
  0.8742751718857869  0.7760422066644485  0.9571102728086910
  0.4766276882773467  0.7805029983675373  0.4873576906383331
  0.5835519759915203  0.1491360583295165  0.7098155991707584
  0.3045474249193872  0.0744240719746063  0.0843473945549285
  0.4620798569331564  0.5967351790161827  0.0842296833222140
  0.8676189337165653  0.8537779527150527  0.5493763484033565
  0.3984152588395974  0.4394434536658677  0.1090245322725801
  0.7295467127072236  0.2503708081603368  0.9657976933247783
  0.6945240351496414  0.2124353250413291  0.9095862433638868
  0.3485037769432746  0.4690269021501398  0.0813442248476016
  0.4785543544976320  0.9186255493644090  0.8518138587659283
  0.5895362673264657  0.0187632664678630  0.8503680306155543
  0.5403634456694503  0.0144829042472757  0.8915671259747847
  0.5280990715909333  0.0602604297088808  0.9318319687446357
  0.6301809320811712  0.0670950398927860  0.8541028098775684
  0.6986233653365646  0.3474902646121094  0.3625137163776819
  0.7790633570029800  0.8211000679683377  0.7487797486994635
  0.8339107347061675  0.9876223559683588  0.6743433226902864
  0.3649727637001843 -0.0321243844682157  0.5776156395710972
  0.8987960628396170 -0.0199174012404365  0.6947194081671298
  0.4732448648745851  0.7333767799690577  0.4419921358571170
  0.6376473459591137  0.7593942990966591  0.5488503848270520
  0.7605995387213392  0.8740626072208483  0.5616246003999765
  0.4773052254490865  0.7946680160514525  0.4287103337158238
  0.7488927899972818  0.8919299504631614  0.6616141598533352
  0.3801420868451411  0.8836735333642943  0.4879827684312693
  0.8101977664993499  0.8842813387245611  0.6881132628779235
  0.4031447148972984  0.3424202299902737  0.0140587127537007
  0.5460947461935954  0.3128721297278119  0.0806906388334464
  0.4103916431334969  0.1224349450219514  0.5998596421869671
  0.4467490485764014  0.3646880820465211  0.0942980711332700
  0.3541461963446119  0.0408575210864456  0.1101810901819182
  0.2678494548573996  0.2307679376669202  0.0326705015708497
  0.9782946138502724  0.4505842085429259  0.1358849143365335
  0.0813581392048701  0.4058808955338531  0.1259339858712152
  0.2502902415317069  0.2924069571701173  0.0184016231379762
  0.0260381915540536  0.3770845743947243  0.1213472714479526
  0.2262297852995273  0.3160477061934697  0.2105562918808445
  0.1339567363057951  0.3453129460375647  0.0443600421964565
  0.3010743075193078  0.1236063292734371  0.6177539547487363
  0.4452512994056160  0.0732079525311397  0.5680030091024395
  0.2926889897773333  0.1024197036305674  0.5055987905066696
  0.5078580327401363  0.0824108705601282  0.8074991362129843
  0.5212756153216893  0.5642001255083511  0.5121759955762414
  0.8024364753420694  0.7114207449705916  1.0029039264635431
  0.5338518182118623  0.2714628546262653  0.5003196667893504
  0.3874111767853247  0.2464536581900546  0.5213903886292460
  0.4183496452803103  0.0092707091640571  0.6429955077145459
  0.5050284238764956  0.0469243997701533  0.7008873249737183
  0.4934933015973749  0.3033797028980562 -0.0013334713073975
  0.4415886628057387  0.3180909702232945  0.0568141485831865
  0.5548673966325985  0.0876193999195131  0.7693954476900623
  0.3292955170613804  0.9159190835518763  0.4680890895089838
  0.6775439160228729  0.7019851814101764  0.4136392008244098
  0.8702697569472716  0.9065315113024739  0.8171245670508545
  0.4166389890193456  0.2785911036278856  0.6344959283399070
  0.9704207218232832  0.0240283333578107  0.4813399298534358
  0.6296154954276495  0.1670681516840220  0.0558378960951013
  0.8236929864878647  0.1530880563932110  0.9026151537571897
  0.6201885039283074  0.2466865286224877  0.9856294359535207
  0.4819662638019285  0.2404422758412991  0.5493293580484515
  0.2569194351836900  0.7374683220585484  0.1434413120670771
  0.2092070108593287  0.8152560206940536  0.1657941557741533
  0.2619398113585901  0.8260612990636459  0.2380408931662973
  0.1619297821530755  0.8749369342319695  0.2474375551245567
  0.0615024007177896  0.9213571877372785  0.2584826333173594
  0.7709862743009086  0.0141589853698279  0.1557578267383679
  0.0964003628711418  0.6595862869669401  0.0526918806136476
  0.2572578459435634  0.5877407029196315  0.0123403783589830
  0.6958378266766510  0.3332455499661419  0.8322622659235900
  0.7189687274026182  0.2421704500450397  0.7442661166432341
  0.9613126712849568  0.9403072360026525  0.5690778082810575
  1.0027130945073928  0.9901647332688178  0.5905247882350636
  0.8997751153030996  0.9060464441944719  0.5470356129966542
  0.3576546420166329  0.1301185100140601  0.9723640180767484
  0.5901273575016480  0.7218030892406718  0.7614633465334829
  0.3081776091981029  0.0279051524549024  0.8684242909964112
  0.6605029501835626  0.4366455969684309  0.0847315312547347
  0.3125228143933501  0.7877748435156433  0.0951786996786749
  0.5711990711330422  0.0949836591350148 -0.0017855364685765
  0.5144958980494889  0.6132431265131275  0.1526903086630271
  0.4575967999267612  0.5346643166631417  0.1017744198981692
  0.6293018170963853  0.5040283332929310  0.7841402822847023
  0.6089262684935708  0.4550288019904929  0.1179761938119776
  0.0834567333907918  0.0861477122294520  0.5077831442191267
  0.5056208459164193  0.4568806378347547  0.0825494151273644
  0.5236674818334311  0.3734853633281822  0.9364457684781605
  0.4548366267184643  0.4428423902601729  0.0103947604250430
  0.4986778110233949  0.2788509764512695  0.8846750165089927
  0.6619215019367798  0.2969598382158777 -0.0019876967909257
  0.9920345704667314  0.1030053120254949  0.8022299597432633
  0.3294555727639419  0.2542827310306514  0.7746425878674259
  0.4009624744767393  0.2026142913481555  0.7515927464744765
  0.3279515234695414  0.2195547422486711  0.6701903389349188
  0.2510457800473392  0.0172485360165530  0.6426262573880558
  0.1749156084239076  0.9821274024110507  0.2781175889451357
  0.7201319678392877  0.8275615641219485  0.7271333161953908
  0.3093170764103716  0.1183512670609547  0.1291736959278191
  0.9460678376580423  0.9808449653074897  0.6303297573962344
  0.8449175763788006  0.7659738410511542  0.5009552811492767
  0.9262327971944783  0.8456631312932332  0.5689792163560331
  0.5465195581431188  0.1319875107037391  0.8120572093322717
  0.9116279847661183  0.9862830210170052  0.9283408484331552
  0.6945267982295356  0.3655256883691931  0.9395103716835816
  0.8391090093830028  0.8445562410292743  0.8772276903245405
  0.6035914763469593  0.3548585125273910  0.0258073856556726
  0.8593726323980185  0.3794778259221889  0.4080179570689433
  0.1337305884219377  0.9498263932755273  0.1796338972037558
  0.8834678017700607  0.8292558601328748  0.6719808165704488
  0.8899076945582570  0.8170536721400520  0.7318237602718413
  0.7166315684482752 -0.0034739663937075  0.0808474608858339
  0.6630159311134548  0.9812107259195370  1.0070940670107951
  0.9794072862901116  0.9336519554220295  0.9059814829020927
  0.6889009568953542  0.5950035172401329  0.5602906044635216
  0.8814177330976275  0.6970187889977908  0.8096961767089819
  0.5845470356761269  0.2422201299265189  0.0749606023714721
  0.4953770632397801  0.3768488884810988  0.1596839634665971
  0.9804429799932863  0.7383622907364003  0.8365797824002088
  0.8996253094657640  0.8038678148933379  0.7947872357601582
  0.4475899199748863  0.4094246682041847  0.1356846525439446
  0.9710807532169414  0.7830735072807595  0.8801671848357506
  0.9214834153235709  0.7787913347350324  0.9188144100239094
  0.9391586370304643  0.8850076491406161  0.9039790508039659
  0.6124148357754460  0.5529210531666056  0.4340458885357428
  0.4555265736023523  0.5180218647048281  0.1621226220861431
  0.1604237407457666  0.8468556520003152  0.1402490622953556
  0.2084219651671676  0.7973094503584196  0.2261368983659457
  0.4117132530380579  0.5670835833230971  0.5308593227923656
  0.0789906718655982  0.9181669647350490  0.1687213003627433
  0.7924141913491557  0.7533414772206239  0.5497199536831378
  0.8054502554601962  0.3643240450693824  0.3367511319578433
  0.7946053770360481  0.7420288827956362  0.6051019387017122
  0.7093092917282978  0.4557142119143129  0.3816185316637987
  0.8170681558387801  0.4716621680238152  0.3591876152067923
  0.3938646038365270  0.3987982829092298  0.8301941062542734
  0.7184187148153346  0.5614030058045850  0.4141052214651694
  0.4500774981258349  0.4243508489097039  0.9565086269567981
  0.1995206761600896  0.0766034310703259  0.5937905763074999
  0.0840514130433020  0.0505598815367086  0.5629069401045126
  0.1398462500241921  0.1177517360704648  0.6763654023775627
  0.2011193128902296  0.1124238446441441  0.6988515888952783
  0.5835238530201587  0.7967345090449316  0.4631434568049601
  0.6385755900731976  0.8434838578479471  0.4124241386810867
  0.2416798968675208  0.1977771028964395  0.8093633293369287
  0.3017714569428953  0.1910958312416690  0.8310872963220416
  0.5428099504331763  0.9138257287462865  0.5344812678841970
  0.5872771687980227  0.8583689548293506  0.4500197043983388
  1.0004140426272279  0.1455848872415157  0.3619732413795004
  0.4376612581727630  0.3162928252280897  0.9689949536301152
  0.6129153445113986  0.5327247036716569  0.2662672063850804
  0.7113766922033358  0.4394845190328132  0.2171951786802908
  0.5780953354809637  0.1634203482893594  0.1516595955685664
  0.7599857752199985  0.5468759402661655  0.5419511667939180
  0.6918310162891315  0.4640390113992585  0.7022250301887212
  0.1629709169398404  0.8912032448987490  0.1856789697142052
  0.7343093246363347  0.4121669963780825  0.9459021284439544
  0.4615689241474784  0.2486454948011400 -0.0211237795353569
  0.3835747693300126  0.9739085083013987  0.3424515694348957
  0.4815559891428092  0.4542457441258803  0.7947969175128602
  0.4422388604960547  0.4365584946417783  0.8959380970284410
  0.9946770301894592  0.1001547439679050  0.3160471851295286
  0.5410317334316332  0.4794433714823706  0.9235950371278194
  0.9499821158192513  0.1781253450654613  0.3359392632704834
  0.1851815371910342  0.1523918093799937  0.5150784548591206
  0.2284383949631361  0.1737222644681367  0.6398653133034918
  0.9529814538218501  0.2409308529060710  0.3188368814579481
  0.8332785220936463  0.6594456321460257  0.7456624076929086
  0.9964580510019461  0.1334795654549512  0.1924230652010036
  0.5678763976708021  0.5439207960230754  0.8659618507063179
  0.7948361205928850  0.2389039488979180  0.1477703779972080
  0.7195092874684479  0.8599630103513654  0.8325733591839402
  0.8066815048803965  0.3460591509779473  0.1701258803323174
  0.7078746488049050  0.3945666079551837  0.1745029822188023
  0.8115229476325653  0.8577469265334173  0.9855749794419062
  0.3701227256236793  0.5167720302993322  0.5283220335770332
  0.6531272437729221  0.3939863154284991  0.2710254858832796
  0.4793686172805325  0.5537105610725432  0.5551970544238000
  0.5017626521296784  0.0674387622830682  0.5417356741508252
  0.5273091331904957  0.2079760552682066 -0.0278626299225992
  0.5796164462460777  0.6340740392376917  0.9442042302509172
  0.6872611247002726  0.2255737145063982  0.1707752783418038
  0.4047987704645991  0.5797734580412013  0.2408111039639914
  0.9658876439860237  0.7122169194292292  0.9981704188328762
  0.5489609388409692  0.3932347474641761  0.2324797647297697
  0.5994281917000851  0.3779424583368723  0.1988815966740320
  0.5367250334242600  0.3920867210621347  0.5304161740760256
  0.5581726831401472  0.4706037088607058  0.1529085625620320
  0.5110441480813234  0.5813758523488146  0.2754283610200530
  0.6541618089389182  0.4135816933359384  0.6966370537775739
  0.4530033128964187  0.5029722353141887  0.2227875067921442
  0.1548880762406045  0.7851158791199531  0.1547480290781236
  0.7023284481414037  0.4513245091010769  0.7607429321151210
  0.4082425082805879  0.6255039128946928  0.2846755205094365
  0.7396826681568145  0.5016160308970753  0.7652937637931394
  0.7277200210519245  0.5477409302498619  0.8081901225367532
  0.3565854153634903  0.6585603416257145  0.2584471797045186
  0.4099525475098281  0.6867736483575259  0.2691963293383136
  0.7633048345528129  0.5792104546148459  0.9044627661837269
  0.8655687589553944  0.5092332880460823  0.9684329983880100
  0.8142656238035471  0.6179896308678154  0.9692544955071506
  0.8807515826439176  0.7303632190079097  0.9145461259034596
  0.6386036172877937  0.5532049319197514  0.4981450219359707
  0.3518342999584091  0.5634032384863218  0.1707405703149572
  0.8391024921211206  0.1344317186993091  0.2542570139787430
  0.9072088618682821  0.3587278825318965  0.4492965610327634
  0.6501414035013224  0.7471231332093513  0.8874146656326154
  0.2363160168472994  0.0753116641096266  0.8883758241925228
  0.9599694221205192  0.3212577792026096  0.4773835579035349
  0.9696351187259612  0.3812123050388579  0.4524515835153400
  0.9298711487314065  0.4507023100853381  0.5105945586781606
  0.9781589963575733  0.4300708759315875  0.4880540091703766
  0.7233075667462070  0.6119587208214883  0.4574179165893143
  0.7964709961703069  0.6623869726646414  0.5144645549760536
  0.6891854596602153  0.9306072726072673  0.7475889955910502
  0.6746021663499114  0.9721966198463804  0.7896301187495303
  0.7392486722537215  0.9681091403943228  0.8143805789850300
  0.5597067536164999  0.5046258519318885  0.0306412981855385
  0.3654351348278945  0.8158298993119567  0.5568685783561169
  0.4882278725942006  0.7836430822545664 -0.0031188391589779
  0.5088042693479998  0.7518737935940383  0.6128445986851119
  0.6075596808283700  0.7947405925473564  0.6391649580040886
  0.4138093899348457  0.7393679440739097  0.0850619375745128
  0.5924450282334707  0.9005590824303320  0.4971507226435281
  0.8557664331739111  0.5891974612878808  0.5671401403860588
  0.6095287381735560  0.4860149986028667  0.2233962640586681
  0.5240624382074935  0.7514505310955881  0.2873490216180064
  0.6646457771449429  0.5172590484862681  0.2328825893086257
  0.5743163035477231  0.6136723054149172  0.7805226926631833
  0.5431907275558776  0.9310642798594765  0.4704351914996663
  0.4813789462887631  0.8241577369569083  0.5358426769505013
  0.9119463352715051  0.8929353205993413  0.6066682468828394
  0.4797034986229657  0.0042304685951925  0.6633638538876591
  0.4224258398050139  0.1123262138316344  0.6624981856888671
  0.4607782685563070  0.1627169352213941  0.6661950457176536
  0.5649530161258787  0.6116909083443201  0.2852578508480605
  0.4649803459363017  0.6717236259007381  0.2314277845553666
  0.5227236705420863  0.1875995038332320  0.7960246787731760
  0.4429649676444877  0.2901264070900576  0.5296575914684756
  0.8430863482067402  0.9419572548751642  0.6224632449673380
  0.8069643106069837  0.8902751596937810  0.6276608636793538
  0.6055513279607213  0.6405850502221949  0.6170560151870553
  0.7639886989526717  0.6795161375240456  0.6631478525608159
  0.5585448524977176  0.5350734909445991  0.3610395442477587
  0.6544000977141842  0.6795034778785972  0.6820294326147543
  0.6635744965195676  0.6688203650221649  0.7421714175958484
  0.7344334505961582  0.6167740538005450  0.7213024539757142
  0.5511154632746365  0.4975245581086967  0.5386584537265464
  0.7193822482825946  0.5275388032507502  0.6422112475073595
  0.2371557223377251  0.9209542962686125  0.1073707624261450
  0.5734041235096039  0.8958039102525169  0.6634772626455042
  0.5825144817278137  0.0173675319920743  0.5766829717117434
  0.6040078928969964  0.0249777953351793  0.4643793715853746
  0.7317821317889069  0.7177512263569611  0.4789244314518889
  0.6120005707277372  0.6646803879654748  0.7814476277163760
  0.5237965276344621  0.8565489891253605  0.6000682528943569
  0.6236173575694826  0.6521854020485284  0.8434856899185671
  0.2743077393254491  0.1283101542149760  0.8895108331457233
  0.3654662845553551  0.2143500670330073  0.9598563126324280
  0.1872223131826329  0.0407295903361583  0.8224643877485448
  0.4871544121990377  0.3904264534794730  0.5743085875750193
  0.6509329141743477  0.7146927270164165  0.7843317572655394
  0.5804217671004661  0.7327325640434550  0.7007830869646041
  0.4070432611370273  0.3227235164352749  0.6781009199553298
  0.2795650025751372  0.2147686611259148  0.7082204510783536
  0.4174153526879835  0.3100898095425863  0.7396778790579801
  0.4774500802189066  0.3037782025821197  0.7608552883203661
  0.2666244204309113  0.8239146638203897  0.0755486168241504
  0.4548623761308935  0.3581336048609532  0.7444818878928953
  0.2115816320383014  0.8329588563293053  0.1057548004582613
  0.5029545482096960  0.3976475214513094  0.8115608226709479
  0.2344139450129163  0.8762823552935307  0.0602144466580583
  0.6243785688850304  0.3853534839404274  0.8572605024901911
  0.6022676062330438  0.4408640341047928  0.8404433119812551
  0.1340870302828269  0.9666448705678048  0.1191901362498762
  0.2144526298718595  0.1021882732725845  0.7615231065972864
  0.1602292875640321  0.0594292427970381  0.6917242178577307
  1.0030239480010790  0.1916700378068327  0.4051213203235372
  0.1260463944367717  0.9647076916279165  0.6288495839058055
  0.2996053495657458  0.2248582751364149  0.9350327225554498
  0.2168080913961406  0.1339035422986348  0.8671809208875630
  0.6022354251973990  0.7094801277673234  0.8256804456220409
  0.9035052918291587  0.3039265669560685  0.3975986189849712
  0.6119075748426127  0.6972625903565663  0.8866474897438746
  0.6716060199803310  0.6887470903378117  0.9075833161571212
  0.5195916554639743  0.6894378627184874  0.3031265404824109
  0.7197905084633145  0.7260083128532246  0.9705351674127435
  0.4250322456380796  0.8587620238744685  0.2812135718380475
  0.2456166178556111  0.0464428920140992  0.9440186508523769
  0.3740421025114243  0.8713371643138316  0.3176413056894674
  0.4007634457510870  0.4873855353924462  0.6512665861503941
  0.4501198015877055  0.5244805565490789  0.7162700011551107
  0.4877834152062073  0.5753977878736003  0.7209860379706612
  1.0330289631538045 -0.0039061806553381  0.1905441681194358
  0.5348631538439363  0.5947243462752202  0.8833325531738020
  0.6301800848040041  0.7722676550994103  0.7644760224685939
  0.8491729566981192  0.2557833669920975  0.2194373794894956
  0.8468912340559516  0.2409760793754293  0.2810095060782065
  0.2299870885264408  0.1132111973964715  0.9319845904598135
  0.3858698737186885  0.8050053915003429  1.0111969784420645
  0.5357569399535486  0.8478604298075166  0.6605503761207995
  0.8187955965993201  0.5002140348661567  0.4639440954925521
  0.2569969376603365  0.7558175153448007  0.0846980846695134
  0.1529544947300791  0.1054272614063431  0.7383226846663559
  0.2684967057251788  0.8399483691337245  0.4150344986266433
  0.4473954932538434  0.0887438406208573  0.7864201361072972
  0.0761034117832908  0.4571423514900324  0.3943217775844924
  0.6763362950189699  0.1069569464042830  0.9178766540526201
  0.6786738096102470  0.5430191210970821  0.8477641874573677
  0.3081655214611768  0.6259028300083351  0.0218783632828568
  0.6443949757225568  0.5942378393322679  0.8629992506229623
  0.2136715931490713  0.7527964858736004  0.9602079405841066
  0.7008134131145515  0.5159386300019312 -0.0294637111411105
  0.6926350575517196  0.6314221491402583  0.9268772216162540
  0.7436293155939706  0.6758201927024060  0.9909082358231470
  0.1259185259851117  0.8592027453748596  0.0883200609236008
  0.1302719007018833  0.9372851182158175  0.0114455124358762
  0.4931580864753775  0.3394907691221637  0.5310342671331265
  0.5379324020841799  0.2631243785905830  0.0398439085899010
  0.4565887005039012  0.5055121172721986  0.9990745162134593
  0.2562404741522165  0.6914172524249975  0.0986661939819430
  0.5581714777080524  0.5560423438094521  0.8049487077082392
  0.5311767024020708  0.4598507700433327  0.7577683262822251
  0.5792136603959186  0.4997059937491368  0.8232083481655691
  0.4081967220804505  0.5788236317004922  0.0139796040547163
 -0.0001516100708787  0.2308230498161188  0.0514358333931512
  0.2906924779606028  0.4561579492373013  0.2401709541887451
  0.6647964661504460  0.5688761321177828  0.9883516080543243
  0.6540494525491144  0.1314835166737992  0.7945993804964553
  0.3595921269702888  0.6401871842650587  0.0958715600630723
  0.3638703279539475  0.2364011931721074  0.5691116935057574
  0.3056298770581122  0.6111677217235387  0.0847795888665401
  0.2600156125537590  0.1503257025852802  0.1028085379713349
  0.0454983141691750  0.2083852895826072  0.0186243585068391
  0.7939752556234323  0.2563981848010819  0.9308997888922209
  0.5903491452270675  0.3023006692955675  0.2823125688669119
  0.7160435690503787  0.1568653598948788  0.9216364230590658
  0.6696964168171399  0.2375381531927968  0.7832014035472339
  0.7163078890452124  0.1230972172561804  0.8175505288292556
  0.6327413855164982  0.1886664807254014  0.7780690010722792
  0.6528524627505459  0.0962056378151066  0.6872977754730035
  0.6869605048992439  0.2105480894752098  0.2312732714889902
  0.6481521694521667  0.0663863239396452  0.5770042286455010
  0.5420887323250577  0.9980689768126432  0.6863569718389706
  0.5419083408488293  0.0622267815079522  0.5934741536805391