C  Cr Ni
 1.0000000000000000
    38.7210597765861735    0.0000000000000000    0.0000000000000000
     0.0000000000000000   38.7210597765861735    0.0000000000000000
     0.0000000000000000    0.0000000000000000   38.7210597765861735
 C   Cr  Ni 
  50 1596 3725
Direct
  0.9907229924690147  0.8508302065716193  0.0150981238570683
  0.6518672530209492 -0.0367681873117892  0.5890812932518722
  0.1474641469216172  0.0452905222490384  0.5897286910123553
  1.0576727557336258  0.5847940917035429  0.7331490183298041
  0.2570191238537382  0.4487621289928626  0.4471118952598431
  0.6023462312324127  0.0812836755936211  0.5717764844389390
  0.0841751480775243  0.1034170613709429  0.5599511715276669
 -0.0710119608186571  0.4108137939981925  0.4681652973184108
  0.3819028689581898  0.3003257616433592  0.9936469626427537
  0.2719642838889260  0.4368292417504369  0.5181779301196386
  0.3928459395205938  0.1897883795619376  0.0504004234314256
  0.1168365875355843  0.9528559833714718  0.4816061791950165
  0.0207080751746706  0.3906040180856484  0.5596181690424364
  0.8475169813950797  0.8978737429166074  0.5272344646688472
  0.4913232715434914  0.2850029445263337  0.5220784760137036
  0.8817126511119081 -0.0326305121576091  0.7147727021596523
  0.0362301150055186  0.6605062132421452  0.7178439268768356
  1.0115743024810124  0.3907821617715936  0.4839659680938107
  1.0119979859709765  0.5181709707562807  0.9124439250487965
  0.8484040096498856  0.1063783608262580  0.9079316125217544
  0.1123334887436733  0.6686389109639499  0.6818588594560071
  1.0447082900604641  0.4671756118067427 -0.0113325289038287
  0.9855823128952829  0.9496674688139969  0.6148282210642190
  0.4554619105109918  0.3352841922651367  0.0120816137228223
  0.5389668552898865  0.0487519826019094  0.5552847365518806
  0.8379162390752068  0.0293533754694784  0.9310055439500475
  0.8018896837556383  0.9999837989036856  0.6677714652268310
  0.9988556626384651  0.1376559591813963  0.9707253934211102
  0.3440188725560382  0.5460742932072982  0.0149238604326738
  0.8213728605109617  0.8537915482748715  0.0243824340690731
  0.9831449999439368  0.8016328708753901  0.0961614595525620
  0.8883355643592704  0.7970722615422309  0.0690112524561980
  0.3991953698531172  0.2210843493637099 -0.0188708934467861
  0.5114694024437149  0.9558600337427881  0.5481401604850176
  0.5954837616711455  0.5327366579336229  0.4792410384938964
  0.1277473985534116  0.9174091923709162  0.4929023074605908
  0.0465969253247498  0.8759902630785052  0.5732330367129796
  0.9462689463380467  0.8909884770700536  0.5670859728373636
  0.9304135386616511  0.3137167858128929  0.4381871038489941
  1.0251413666579654  0.9877099325776724  0.8535064508242921
 -0.0137733105578466  0.8130854142557716  0.6673883702473387
  0.3549041355731107  0.8548156305913350  0.5230520522117783
  0.4079156985655203  0.9944193614458339 -0.0172067548974101
  0.4369615448043625  0.2371759169705769  0.5283294615626876
  0.2309750941925036  0.1307894089310987  0.9133101077610095
  0.5040350082492727  0.2015196049380157  0.4838508048146887
  0.5006181540431602  0.1718766871012649  0.9448533985630008
  0.1020099121504899  0.9600041349586667  0.5792342411440263
  0.8510357407414951  0.8860718859278035  0.6020660765274470
  0.5109101101851673  0.2529564394610955 -0.0044427871832985
  0.0330517690695006  0.5892355562123932  0.7783585761600932
  0.0204434719090669  0.6076616480067487  0.7102670856897401
  0.0858361458396729  0.5986043544378026  0.6902639300064594
  0.0558809857751577  0.4162063603198068  0.8267505134339438
  0.4351300789879057  0.8021037491997718  0.6388270028359846
  0.1383464497806981  0.7399798112959003  0.7731512864177644
  0.2327493383192649  0.8348819551086567  1.0187633787372585
  0.6776475020089930  0.7033921206443507  0.1822798650499196
  0.7260479906949506  0.6398764441818655  0.1026310675494914
  0.7883234177486362  0.6152194163900361  0.4779992005184723
  0.7788783730414033  0.6533139652651092  0.4031532463598648
  0.3365364202665013  0.7595569077025131  0.6155925830003501
  0.4301290244853043  0.7166336208817260  0.8209129648307413
  0.6044392739436081  0.8936450252682573  0.9569963184896723
  0.3708586471603348  0.9579629573119340  0.9729002935267991
  0.4686734730822814  0.7675585004748904  0.8250261028775234
  0.3693586108339768  0.7237428869988127  0.7990442652739514
  0.3975301328985708  0.7863634151981872  0.7414206302437211
  0.6640389874518949  0.9875580622587559  0.2468642539747984
  0.1422523089093634  0.2138185787986803  0.9914350681784866
  0.6236502148559175  0.7360943720793789  0.1557295218093044
  0.8246745755772328  0.5798287564513039  0.3842213495989307
  0.9953939762509915  0.6571304924649792  0.4715665588415957
  0.4967667836325965  0.8290104050682492  0.7635947964661826
  0.6288369197412095  0.8002518217488216  0.1401205181735039
  0.1986362643993697  0.3198881086520885  0.0249585103739692
  0.0070986056298148  0.3481842673334433  0.6516863052362108
  0.6524025649546996  0.8577673148765372  0.0363968006374484
  0.0348155100663532  0.1889956523380415  0.9075520027261851
  0.3511057363199695  0.6492331813653133  0.9183512857354775
  0.7767016613698201  0.6090312256947277  0.3595771787824910
  0.8496607204777594  0.8706184593299686  0.3672203089528644
  0.0831759196015732  0.0344950247055293  0.9070494038401387
  0.3041251437927183  0.8949542250715254  0.7431075067038464
  0.3989559930194225  0.9675498692440100  0.0951792860284884
  0.4100265141491703  0.6425467657693920  0.9391006646395531
  0.5490000824442465  0.0408146400243334  0.5071820777935085
  0.4579799845107803  0.8128101322915321  0.8687403158566117
  0.8411668743082511  0.7936515237621475  0.2122411211959977
  0.5470187451844043  0.8673287723586210  0.8297056952095846
  0.3084445336220559  0.7642713073761684  0.8811861179776207
  0.5674649857785944  0.8113117254287423  0.8479914280126496
  0.3104984361009028  0.8096407528297882  0.9816429017966641
  0.4357834919551076  0.8354613837503632  0.7428714526318750
  0.6954432616640508  0.7852920145136462  0.5621891293651868
  0.9515523724056998  0.2573498635735809  0.8724788551152010
  0.3367875052356537  0.7606696709201112  1.0008083249584940
  0.1077982401768317  0.8451749323864766  0.2367727150205873
  0.7292226092395190  0.7328635855995645  0.1916890254323330
  0.2737912907547089  0.7670291521869056  0.5937471886416583
  0.2747551605133202  0.7991160445786325  0.6969874745016398
  0.2247780571240796  0.7616889012964567  0.6329503326307485
  0.6840964838807276  0.7955355198712498  0.2720983166643179
  0.3471425293188297  0.7044700336429272  1.0176382853922601
  0.3850702092432089  0.7970836769116201  0.6797159782457847
  0.2792678212290473  0.7459098536602871  0.9820676113034952
  0.9876160919048729  0.6293133988949322  0.3660043034759516
  0.3200178697330503  0.7546583422665223  0.9397793819093280
  0.9757452815456094  0.5062281707187777  0.4026875840908572
  0.5317234472244589  0.8592460755260394  0.3174974546776004
  0.2121975077884822  0.8287297367940873  0.3352652111430713
  0.1418703680714619  0.6052201299328046  0.9104083056447800
  0.9607099667948613  0.9167523825326321  0.4522083080965622
  0.9443168166852404  0.8241682918342508  0.1190062417653274
  0.3684650150522283  0.5575039152852970  0.5714629678047195
  0.8278200774070481  0.5574021465623401  0.7267108273386695
  0.8817522698769932  0.0195957166719768  0.9560379671121407
  0.3951415774219715  0.4561081505083772  0.2745793376381415
  0.9830299543489620  0.6089051712243383  0.9714532191231751
  0.7014078838753207  0.2667660106677028  0.6213073078247121
  0.6803219929887404  0.7489968667319160  0.2271511184556576
  0.6730741390547321  0.0376735977720580  0.7072057467175664
  0.7194077918955130  0.0454630212745451  0.6651412224283164
  0.7850519461158236  0.0721945599766293  0.7965355305198112
  0.6517022359974800 -0.0216070052839604  0.5440536619487075
  0.9151972444874839  0.2394364791356694  0.9714608669008165
  0.5086316673366459  0.7246417715740510  0.0108197859141443
  0.3310182669798875  0.6729124369918527  0.7952656884795475
  0.7679220984086765  0.5170475439636961  0.2710011128942146
  0.0406890759179822  0.6430589712125798  0.2097559783610233
  0.0987622803149222  0.7366385743800710  0.2044634575394592
  0.8747311520176859  0.5508668258504251  0.4111341968119063
  0.2289418561290392  0.6304601321641725  0.5082812428417357
  0.9218050891795593  0.4743859786695527  0.3943952004479865
  0.5879372647934171  0.9516844397810612  0.9397567326676334
  0.9729553975980711  0.4587001560991746  0.3611915509880337
  0.4217842631544293  0.1808858814865405  0.3796066933458810
  0.5103631017434307  0.4848333172160629  0.6345003437000831
  0.5963432948182950  0.8719056152054538  0.7878557083153713
  0.2010533812208500  0.6895612790806855  0.1948558827604430
  0.6880842137745727  0.0271179087048927  0.7668729905506930
  0.8750578766743957  0.1852382555233650  0.9695683823202328
  0.6169814412100866  0.0415080182349353  0.0865435799023861
  0.8447905045356650  0.0790602745553325  0.9503370235844717
  0.0181943381349480  0.9804029133041090  0.3398506513231235
  0.2118809005786742  0.7833365253312957  0.5111131968100635
  0.9380297681451226  0.7782039273083535  0.0784920794665356
  0.9792687966828149  0.4652867984496257  0.0712983957337247
  0.2469342938754405  0.2821375489950506  0.6304701809836528
  0.2203245631178909  0.2546192537961844  0.7925431101646027
  0.4755469758998088  0.9021642153038439  0.2285824803383636
  0.1096249767237735  0.2232475776574199  0.7050360757077067
  0.5309586370361622  0.8736677646008180  0.2573856349629033
  0.2186266577699034  0.2205009147034870  0.6860464921152042
  0.8272932019013363  0.7114216272387022  0.0607710859705510
  0.2029978830280199  0.1766562032752862  0.9082316243066274
  0.0711657480029157  0.1731891660470243  0.7012041968182238
  0.9461515418429071  0.1624291851660963  0.1666245482702035
  0.9506927770994967  0.2079061413160660  0.2125110177692239
  0.0086530713091182  0.0157297882605763  0.7055711586810230
  0.9417203383359313  0.5524616282216068  0.0307817767288683
  0.0508578180584630  0.0646011530307505  0.7134017764022046
  0.8581616360953996  0.9609447847098990  0.4608921230027055
  0.9102732792378080  0.9485370663624929  0.4241657590510313
  0.9568661937250093  0.8590176640986632  0.4620165466282798
  0.1240440185683220  0.9518464973568684  0.5323117794890628
  0.1434604790887304  0.8598749073886198  0.6968687437599275
  0.1821694977443817  0.2375448592433912  0.8925997663599783
  0.2689527309712166  0.2941433903961801  0.8594985099284372
  0.2333136806606886  0.2698045719910577  0.9588158860490031
  0.2301121478740930  0.6999592645892053  0.9791528332776006
  0.2785199963733876  0.5321632157087115  0.7112241832566197
  0.1524125440180998  0.7509436766368155  0.2793822410785883
  0.9728470774653414  0.4246562118276028  0.2586511405012335
  0.8365813035976135  0.7177451460487969  0.2889555691827639
  0.9105487131994603  0.3315535652404319  0.2719501260053638
  0.9589469460884111  0.3011257016035877  0.3008477593088118
  0.9549622512398130  0.2536999090315660  0.2576821399701194
  0.8970680605361074  0.8111926396077103  0.2839987352795482
  0.0981639498410239  0.7800368712552989  0.5818424569391943
  0.5517361972937700  0.9863080130345582  0.7502399880375050
  0.4912988726348497  0.9918313561774292  0.7280351116184730
  0.7214132203506466  0.5941256017721349  0.2879744162409773
  0.1543973866768090  0.1433272419454794  0.8451580295549708
  0.0284682543824679  1.0345449710147951  0.8758954298293961
 -0.0245387860983132  0.0415258149471883  0.5867582803905904
  0.0497800191910918  0.8231982450452645  0.5796685529568688
  0.9865770449779764  0.8625945858151575  0.6681810901483983
  0.0085620999672894  0.8005295517637312  0.7770203123182219
  0.3172576675290307  0.3321057183980775  0.9284930754478242
  0.0195192388017128  0.5181325589511931  0.8610296192620377
  0.7704680108569905  0.4971981426318691  0.1069369500070843
  0.8681981821327694  0.4221759781112663  0.2236066753218321
  0.1701773440686956  0.9361741579218664  0.4694516521188472
  0.7840147149587628  0.7784934145556649  0.1400591450977493
  0.4632616100657756  0.8971665624469354  0.6822942137714197
  0.7900117603607311  0.0475628451266980  0.9414925970900249
  0.2467194082803828  0.6029495493662792  0.6310643721925526
  0.2949974736298562  0.9740225912921979  0.8934431045746319
  0.7484820183600511  0.8874852593983898  0.4989904839732676
  0.1952345214043162  0.5733660898721177  0.5078978921107913
  0.3285368902886457  0.8712687556684096  0.8695317676983836
  0.5463484332727072  0.8432407865327081  0.0571950684700617
  0.0620060611682612  0.6370378519360786  0.7571128968291494
  0.8408611204736683  0.7257360394822294  0.4588170386452627
  0.1143748987648709  0.6612432822195664  0.6327722606280481
  0.1044785386633059  0.7017197140004484  0.4998468925759066
  0.4953328995309837  0.8749857243665751  0.0379135344903313
  0.4381648320431657  0.8713162224761697  0.1341916753048479
  0.3600236703752843  0.5012005699727264  0.8568607863530738
  0.4403057464265652  0.8868734573961550  0.0756247157327297
  0.3767138022289252  0.5768622771778630  0.7375445643455374
  0.2957954715834943  0.9392145857765856  0.7865886549013883
  0.2401543690141449  0.5149926766560036  0.8123836696903192
  0.7935809183026101  0.8023536138285290  0.4858045907115239
  0.9793845688735158  0.5542586167479013  0.4465326349881260
  0.6352443829391466  0.2251384389772218  0.2657905454228333
  0.3563041171061853  0.0731300987796065  0.9864962567786930
  0.8528745336748448  0.8993994010919275  0.4764539339504663
  0.4368719256860127  0.9557500674574160 -0.0012822629088582
  0.3782887411430196  0.9102615212352918  0.9322919865323971
  0.4189795372079554  0.9635155115532467  0.9383998998506370
  0.6803996219123077  0.3252918721243834  0.6041960076891180
  0.0789852260042792  0.4081297055219888  0.5634162570798541
  0.0880117993838365  0.7023831661694917  0.7116482735352183
  0.4432652377522809  0.6377644868172822  0.6738748687466277
  0.8357454207117573  0.6858898532505816  0.4130758980011898
  0.0135546071059957  0.6163533771939276  0.6484652755607015
  0.2274811487718238  0.8278843340802651  0.8426249594465866
  0.4098760353570495  0.7056478069334098  0.5949304971176536
  0.6711357560021317  0.6095507761953968  0.3213874606551542
 -0.0016191070465084  0.8158753461930995  0.6173508883901414
  0.6840055052966542  0.8101233803874520  0.2125399075999677
  0.8704585849343842  0.3448645826903740  0.0077936380796625
  0.0954933189298639  0.4000580000773538  0.6169822342398434
  0.8119970777888180  0.9076659752878069  0.0271275917900605
  0.3940912289681741  0.9826034131527409  0.8107199181131352
  0.6330393542400208  0.8594214898648336  0.1241910610656677
  0.0564037409764186  0.3531459289245596  0.6068603616430859
  0.8898831097065404  0.2213901513809919  0.0185018280381837
  0.3931958734643086  0.9810455340115198  0.0313395369353519
  0.6595779094776569  0.9500152930846560  0.1323217545209952
  0.4619393127668514  0.6779694280810952  1.0056408990620940
  0.3459006655685516  0.9983449801482128  0.0641679458035381
  0.3393567821944667  0.6981359626588788  0.9613417163160408
  0.4987275879413549  0.9151243069644996  0.5778598124612332
  0.8894020882234692  0.5500540117418994  0.7487460156326059
  0.8651518092024226  0.4101684363095523  0.2843283105050262
  0.2770360735606106  0.3449822169449054  0.5718465879176560
  0.8197093762304705  0.2529101475137069  0.6656087464743927
  0.7573943015073966  0.2913736797457598  0.7494334401030472
  0.6857965411828814  0.3436412888339375  0.7731733964882662
  0.2289216812698295  0.9656781346171032  0.4780027784609502
  0.6369109924904841  0.3056592976767236  0.7041003724297984
  0.5900635808223612  0.2693653112755246  0.6381770745257985
  0.8698551289653410  0.0721061453651474  0.4869140891796968
  0.6280889400922810  0.3188919756457673  0.6414800113998821
  0.5814967844393137  0.2816494395140755  0.5771280909847517
  0.5641541584500394  0.5711319949474669  0.4682795595227698
  0.8614388437761505  0.6247423844243866  0.9267443692469638
  0.6102548194325614  0.4895835986809910  0.5022261835427916
  1.0002707037127871  0.4488992711376063  0.9724116242796046
  0.8564694815955228  0.5210513840051529  0.9090475031810759
  0.8539944212102959  0.1385354812205349  0.4792954410669304
  0.7508479368456484  0.3646724569380111  0.4344429959239546
  0.9278691986564497  0.6834518392707367  0.6059407370165132
  0.9508925416615678  0.7780522111040251  0.6523778345038842
  0.7392314524978697  0.4351815988565675  0.5605280008747693
  0.6545604689532055  0.3914385374813678  0.5057595094720526
  0.9908163049729419  0.7269719013856496  0.8967875615021719
  0.8431387315583545  0.1506809887082151  0.4209532841843071
  0.8566629514458677  0.3336004446776059  0.7760162559815924
  0.5092448332285149  0.5939398692135029  0.4424872299295237
  0.5513008201076015  0.5074265215829085  0.4835500970240468
  0.4014586831414264  0.5499489625686288  0.3629789539283986
  0.8451308671059571  0.6141549251456628  0.7000834764456708
  0.2725910694606873  0.8879053815204104  0.4571765836066414
  0.8188493139726478  0.5711523530851329  0.6673507254269154
  0.5933731168653833  0.3829944313243067  0.4291797714931369
  0.6378673628555210  0.2563410389921658  0.3722101876226917
  0.9300571346182579  0.7012392005971410  0.7711902042985910
  0.6843110345587884  0.1798113475138254  0.3549114880026122
  0.8740008348441761  0.6760304449624673  0.6454618238440312
  0.8369473713025191  0.6291558014263242  0.6369955361177871
  0.8296361890096254  0.0601891519002098  0.3386536098985659
  0.7803616778577566  0.0904633411848355  0.3082819946953144
  0.7313264004230062  0.1064603836208010  0.3404756816018893
  0.6081898108345537  0.4922996344447230  0.4457499021642710
  0.6875274956718732  0.3188534382274172  0.4884245434010594
  0.7415688354185372  0.2562634206770697  0.4117470239652745
  0.7980391693022821  0.1682447536162072  0.4534720052458535
  0.3535902077106364  0.5954897980508822  0.2742724886455994
  0.0651096712788449  0.4030165993045807  0.8881985318154243
  0.4006247429228747  0.5191565009472927  0.2567545252639490
  0.7846910842998436  0.3864688103578721  0.7991672503523302
  0.5064318974648767  0.5504434053067397  0.3969063325623970
  0.9508695275464447  0.6771452683537782  0.8927318825124386
  0.4602491137623794  0.6269064627556348  0.4162366635647422
  0.3235078261671321  0.3846824728903911  0.6397989586496128
  0.7582095587499365  0.3930591740352054  0.3084980608695949
  0.8545849726409669  0.3677475476604339  0.8815641478906139
  0.7581378260641981  0.2605060794736935  0.6428210939139034
  0.6531105823218766  0.2281131063558825  0.5525546067601933
  0.6691185183360295  0.1721228120556348  0.5678996538127908
  0.4456093445121928  0.4261197083537788  0.3019578767188617
  0.4924598158657150  0.3634378625850350  0.2239082201077329
  0.9970279935076524  0.4650627636114299  0.9105345347393222
  0.9820672669640694  0.4712378673782681  0.8490498148364752
  0.9652409822246638  0.5192873831690815  0.8909636149518652
  0.4816631006396777  0.2550745952580240  0.2030756109198366
  0.7322601575442139  0.1955283336432194  0.6994880228375869
  0.6017041349800706  0.2244639193489120  0.5929780067370676
  0.9540075671310084  0.4114125776240306  0.9070212038649972
  0.3046665785232934  0.6566199844149546  0.3535696147485737
  0.9628458546568116  0.3991115927745874  0.9670711437487750
  0.7746450617097301  0.3991279684353241  0.7386365776544017
  0.7887459874577549  0.1829897621152690  0.3938766757882649
  0.7266823394568340  0.3616722327725371  0.6692959184901008
  0.6669613827226453  0.3679218646378283  0.6453003983458161
  0.7240075500632330  0.4363226843289230  0.5015699964165178
  0.4107202025550790  0.4743286170606140  0.7120717762953803
  0.4228129848687953  0.4279755548451216  0.6687246239354605
  0.9171898411270462  0.0104204555912931  0.4098605916449440
  0.3236265547505170  0.8515780105686933  0.4781632049615268
  0.8707662177753928 -0.0387797618834792  0.9763485667655493
  0.8977094440456425  0.5375429211723127  0.8088934632822391
  0.2689726493395938  0.8176544911497352  0.4770990863307684
  0.3104738212494840  0.7185538078249576  0.3391726320557871
  0.8833326785325206  0.4295732412670725  0.8238707397882920
  0.6716199766428633  0.2028084003056017  0.6787556556480786
  0.2647803805369563  0.7954732146171440  0.3633252121567339
  0.6313905258310490  0.1531383370193005  0.6716854964408020
  0.5784496382962888  0.1159850067567361  0.6050198421813573
  0.2098203210877020  0.7677716094604805  0.3499801435056953
  0.6103908710524428  0.0725088607148850  0.5191999254235224
  0.5602456350235797  0.0927624235142666  0.5468983813806958
  0.6655934433780915  0.5000624221484425  0.5203478633404446
  0.7518630141768547  0.2729053444021421  0.5799002950421862
  0.6921980253821729  0.4311876248659327  0.5981783807380596
  0.8121167628098779  0.4485943268150183  0.7421679434721309
  0.9895037129154305  0.3063902454196686  0.8790233341290177
  0.3788150559356263  0.2731639081415543  0.1062894974088991
  0.8856774079977203  0.3971677637941624  0.7186950344427845
  0.9330212599380227  0.3842686296488171  0.5120014007911408
  0.2412675326382210  0.4668944021672826  0.0465561555708970
  0.9339758439433631  0.5708301483040614  0.9058756374957759
  0.3746076021318265  0.3899211265519281  0.6000332929559851
  0.9822914941144052  0.1850235982868496  0.9488635521665638
  0.1876791082852705  0.4220416087744858  0.0989524613678849
  0.0062134975135895  0.3799226530688809  0.7584924171274928
  0.9997195587943934  0.1362359543952586  0.9158993973359133
  0.9050451091720856  0.0560599569183425  0.8402847507794596
  0.8524589043653568  0.0560905257770877  0.8895482050103178
  0.3649131250632110  0.1847046043734231  0.0101732629238681
  0.4133756143853177  0.1087974454355185 -0.0077174427830909
  0.4591727563134554  0.0682218928519146  0.0211464057891167
  0.9936459936224561  0.7207821822392487  0.2293866987317890
  0.8384569510870831  0.9760342848489458  0.7389414891361873
  0.0140417686603411  0.8413662711893338  0.1117026093265377
  0.0239307515980130  0.2021168208157572  0.8482035256562526
  0.3606120535587283  0.2530152797074408  0.0023182971641102
  0.0224970509087238  0.1684609992514160  0.7432911165957761
  0.1732185954000235  0.6964522718009870  0.9579578479971910
  0.5324088352997988  0.2402642534102388  0.1689138194866054
  0.9833220748521931  0.4903025948694746  0.0131312889035266
  0.0673278248957651  0.9500042611999469  0.3648253657266621
  0.9614610475900300  0.4960734179560137  0.7288961185802068
  0.9233716372430831  0.4464595125594931  0.7235165274168684
  0.1119398431645731  0.8731249239187777  0.3455209180182026
  0.8749965148393388  0.4100917570732978  0.6581593525088408
  0.7936943626663888  0.1000383057286698  0.9072827535249141
  0.8164002566158883  0.2193898725712541  0.5599847372742692
  0.7691247453634280  0.3810433095172613  0.5611617246934426
  0.8697579722160524  0.6902338715903225  0.0269968006208408
  0.9220032288277715  0.4607883745404967  0.4530569306109463
  0.9301974368903879  0.5674777508520102  0.6501845134527465
  0.3039910902867286  0.6433010798427692  0.1871299930510295
  0.8829205899749183  0.4092671603290197  0.4979493070999594
  0.9678414155755399  0.5985134009732385  0.7472345143086819
  0.9222173689125567  0.5812938434218231  0.5916775650966584
  0.3920817072533235  0.4108288255092747  0.2341680521030801
  0.9721636026835024  0.5868616888060435  0.5505437382444598
  0.4405429009857386  0.3471118520356326  0.1563886840939209
  0.0021927595725241  0.7066738912713358  0.5179986649365649
  0.2009457278666070  0.6737561629633063  0.2566290829907814
  0.9342737058123046  0.1166765686845335  0.7816244530524069
  0.8620749027358767  0.1369560884244795  0.6983936648040204
  0.8814071820796711  0.0813920240516371  0.7159373529832346
  0.9174881305907852  0.3263239055467873  0.7962300035501512
  0.9792289640817511  0.2848444700473774  0.7114182627770079
  0.8679914536199544  0.2889833448482010  0.7308789803822456
  0.5541404254427040  0.9512889246084909  0.0955962155925568
  0.9179931037944694  0.2621176567375229  0.5836131870353898
  0.8576104356633877  0.3017824465119882  0.6704153712037786
  0.9285509163540620  0.2487183832685338  0.6451046157027617
  0.8981696460595940  0.8060798386981034  0.5131817375899940
  0.7647467543611015  0.4097548649908551  0.6783918586232657
  0.8636588076708205  0.4232918970182771  0.5996541429702086
  0.0448064762516276  0.7210959905115696  0.1337429354337748
  0.9480931690888970  0.1313301080656864  0.9563394042562758
  0.9465190421251366  0.3563078913072629  0.6343488503338677
  0.1479662144949550  0.6754697845620554  0.1232751151569606
  0.9885600862592585  0.3707195421054241  0.5235640229588202
  0.8415078465406893  0.3297599922096888  0.5477174079466038
  0.8542652383002148  0.2485782445102649  0.5090973480937886
  0.6320847397779332  0.1932180991754411  0.1605202962555531
  0.9722149216675389  0.4839710728750727  0.7884398211872294
  0.5384440573394962  0.3524374308997811  0.4232132985321765
  0.9343809039176175  0.4342944954873333  0.7835946649780688
  0.0260829414674162  0.3548659749962552  0.8808255310928158
  0.7133274034195558  0.1425138863360244  0.5351713035796779
  0.5163644022461916  0.0869133815358853  0.0963489899840034
  0.1476046963087113  0.4897311034050214  0.9498114907862968
  0.7636696881546974  0.0529493922522261  0.5631627708869065
  0.1896260277140167  0.4363710771863568  0.0370888860377175
  0.2441204284267682  0.3599912055165177  0.0153835720023965
  0.9530699753937760  0.2245044853897650  0.7676716586821904
  0.6568660244022524  0.1678552370314999  0.5066316959818236
  0.7077291601275358  0.1501326375030667  0.4727934121540713
  0.8613788783409321  0.1047658542489441  0.5928871451765685
  0.7566529842616512  0.2302444097734854  0.5368312549758961
  0.8193362580733943  0.0893105509130297  0.5077564926298471
  0.2453327383632110  0.6941678815696815  0.0427192549160961
  0.9748102586464117  0.4214938123673274  0.5603909740832749
  0.4170288053387064  0.7853970399195181  0.1293162245876004
  0.8799020205265796  0.2777039106277579  0.7918823113892248
  0.5187008721773758  0.1312404936476995  0.9718348514565835
  0.8296601690688982  0.2397285185599502  0.7265656949504523
  0.5222893056482586  0.1451787688625226  0.0809142051915971
  0.7697861460340298  0.2149830999172846  0.5983547557357045
  0.4716669697476026  0.1625370821826747  0.1150272853804801
  0.7413630596940510  0.1502734568416317  0.6553208191650918
  0.5673748576639431  0.0728923503995260  0.0599293492020283
  0.7918963067830787  0.4758446963771581  0.6216081568334619
  0.8736940890845213  0.5188994879245173  0.3071492766135023
  0.5482363191724035  0.9770993761595952  0.5150233510748541
  0.5642049060482336  0.9739855683266336  0.8142311018356428
  0.8817230720251777  0.7468762646643641  0.0698314238884694
  0.8916347679830514  0.1487628111431278  0.0955948008394797
  0.1966124784332914  0.9287471054779128  0.8680398502697751
  0.3117374954352145  0.5114940470934742  0.5096505452393933
  0.8754864841590597  0.0014703113858988  0.0205778838021966
  0.9467758794009169  0.1786676777722863  0.1043538140111682
  0.4372950664463024  0.8273088397092221  0.0877341545510326
  0.1089198179187031  0.8735366272746351  0.9048321383068637
  0.4779637677115177  0.2235403020347077  0.0978689357517074
  0.8962135067906885  0.1788416146696170  0.2017379848280462
  0.5324719235760504  0.4265767988466166  0.6523422369380872
  0.6120116345166875  0.9975770686600403  0.0426866499810968
  0.5757582783690557  0.9628209318624963  0.8764263061321523
  0.9388313433283618  0.7028937432566211  0.1579335321224707
  0.0742407622336098  0.8456145722717027  1.0123703740212271
  0.8276532842276197  0.5771079219072133  0.1576661777191120
  0.7863309834830138  0.7141617014945365  0.3882962492042068
  0.5784375374485777  0.8325884779307140  0.1139584822533545
  0.8417864808573440  0.2275932971627963  0.7879774713643600
  0.6345734998248947  0.6726780622737459  0.0109877915509270
  0.7914121356991259  0.1895528925651024  0.7217097275542019
  0.2469464689086561  0.5642127428016463  0.1352488530916630
  0.8647272328182740  0.1717958367754842  0.8044754847926069
  0.2455085491441439  0.5491458494749430  0.1936008163914732
  0.8003386099512376  0.1446646082074709  0.6758319925153525
  0.3454369504469528  0.4542821969254623  0.1422586639599070
  0.7514260539360296  0.1062504440636300  0.5983058267124166
  0.2944742497801289  0.4367992741433435  0.0741070463539280
  0.8528747598111681  0.2158123553687506  0.8476181753599770
  0.6655140576594045  0.1081524596848340  0.5172721438864240
  0.6582606144688563  0.0390685007427703  0.5288200543576295
  0.9162511955589331  0.3605805008079842  0.9033205225900900
  0.3364306218178763  0.3481799624308309  0.1228889654819649
  0.7301801563747687  0.7019806623819969  0.3151258269476291
  0.0604563760815880  0.2504628716481802  0.8515416197764263
  0.7477172852224137  0.0210356493421293  0.7925683227534935
  0.8697968020345792  0.6224255614484008  0.9854526791738758
  0.7570378617965368  0.0077014862124766  0.8546417169906615
  0.3903318516706957  0.3347919899383066  0.0890390958218134
  0.8730117476858524  0.9951085362675864  0.9032034218371520
  0.7862618129792770  0.3555099065490862  0.6915465086574871
  0.3924039708265967  0.3797252953601569  0.1294178554946570
  0.9876176569434273  0.6119706158500694  0.2010446319912825
  0.8543858627667681  0.3151477899976654  0.2007287116766787
  0.8907250241450008  0.5179590461695531  0.6461206671418476
  0.7602858832162154  0.6477010865084776  0.5582016380866723
  0.2179294800690501  0.8596369438635175  0.4463872055739415
  0.7219507770189805  0.0282443164161857  0.1873645512562133
  0.7132541729546734  0.0367472706571663  0.9484450637796672
  0.6202339379438251  0.0695332411740555  0.1941227392649177