C  Cr Ni
 1.0000000000000000
    38.7210597765861735    0.0000000000000000    0.0000000000000000
     0.0000000000000000   38.7210597765861735    0.0000000000000000
     0.0000000000000000    0.0000000000000000   38.7210597765861735
 C   Cr  Ni 
  50 1596 3725
Direct
  0.0073068817128042  0.1652503185665188  0.8808586906953227
  0.9963092239542238  0.1384174851852379  0.9725003848728918
  0.3428561992777834  0.5489633385525267  0.0150999113411283
  0.3098030338977066  0.3677028793529720  0.4302555289831449
  0.9836225664818611  0.7999704089127109  0.0975361836386054
  0.2039116901029651  0.8791948305771178  0.5053263368731298
  0.7150028182790532  0.7781230298808895  1.0047700593004265
  0.4865163147698880  0.0763814707977084  0.5934362061855449
  0.5967979439583717  0.5337174812760929  0.4794900007301498
  0.2667754358801604  0.9866772101307083  0.5468080021447211
  1.0542594233778066  0.8634728179548944  0.5666664357941353
  0.7510464413287725  0.3993161692451175  0.5227398632172823
  0.0239951550186586  0.3915589544472026  0.5018171146974212
  0.4797742464170637  0.5255860167040294  0.1952429871066514
  0.0859321606207163  0.7742959671156880  0.5448750780078717
  0.0664733906304950  0.5490364652544260  0.8587999535013752
  0.4085056436098680  0.8829057551223940  0.0342815825845889
  0.3669380282801435  0.2592790770918298  0.5212546423377610
  0.2314018161931594  0.1302367272797943  0.9181994494591100
 -0.0123939547000422  0.8108929112181806  0.6654427609835232
  0.5017373983026144  0.1798317061445330  0.9425124752330606
  0.1571733040349589  0.9612482872571293  0.4968362687725768
  0.5123165344332280  0.2550462544857011 -0.0026436725293345
  0.3850369162210691  0.2316514970682549  0.0031811021237473
  0.5397314719740114  0.0404298102292986  0.5551611521763804
  0.9367795900816207  0.9652269726421532  0.7358201459401761
  0.7592528583814219  0.9495345858642990  0.6675924004830860
  0.6291942136014992  0.4113734886195054  0.1044320651427432
  0.1880324861205132  0.9239994699986835  0.5687900826848163
  0.4823916055148287  0.0412209690166321  0.9732058296899371
  0.2566819080372527  0.4486338929597821  0.4488212727401251
  0.8260255563269209  0.3349083854294069  0.0284414800566597
  0.0845350057182028  0.1014508000183179  0.5570678670660570
  0.6138307180921215  0.0426621343695523  0.5616896464960192
  0.3852076736827588  0.2837822266793766  0.0639007088155925
  1.0074576304173017  0.3661593642094532  0.9626065155119359
  0.0939070468951078  0.9504388655727162  0.5754561264536185
  0.8179871711777420  0.9385178139637447  0.6063770580611000
  0.1161590018217065  0.3904655058947398  0.5309536332416117
  0.8465037991037163  0.9557026854657032  0.5862405279571521
  0.1017456746323678  0.1354872031416446  0.8651957866909400
  0.5215310100208019  0.5398732008323541  0.0187562567860710
  1.0387345724556223  0.6563615672784743  0.7202633058807141
  0.2407012657123384  0.1678892964421223 -0.0038602486772745
  1.0130451359792474  0.5183950092646626  0.9131820733335756
  0.4521801772288889  0.5551987586325157  0.9872407134945437
  0.1594877807119919  0.6444621115213421  0.6347325133817416
  1.0460011111245344  0.4588565850838255 -0.0125882491012673
  0.7604341239336664  0.8924827030729319  0.6066784275174714
 -0.0162779198613944  0.9516267494672156  0.6139547083537469
  0.2741769270036174  0.9479812323218972  0.4420134167502159
  0.9397706603968171  0.0848523261411364  0.2447774466826559
  0.3948336808500279  0.0508968580638347  0.7227902026865588
  0.2551788228282926  0.6907081201937563  0.0997100883889857
  0.4839936824993000  0.1381710302262573  0.7904874433151780
  0.5331480953239208  0.1766174023171216  0.8586387064211980
  0.6573001197924515  0.4398586827330737  0.3123736198066376
  0.5125168469221791  0.6194311382227676  0.7565002768247361
  0.5537164505454792  0.4032781654856097  0.7741157558167606
  0.4292734884467448  0.1906532796228789  0.5476677174544650
  0.5962779996400080  0.3225522312817958  0.9139798355441018
  0.3226528606390853  0.8690098010306364  0.4144535449367286
  0.5985210383876860  0.3944915122700510  0.3659898138013221
  0.8546506244017292  0.9416233813257797  0.5341679713397702
  0.6594685034546487  0.4711353504269877  0.4157527202867213
  0.5554312254206011  0.3714558864471824  0.6639534649308035
  0.1600713197179899  0.8434284595265020  0.3715999164823692
  0.7334538222241654  0.1323430586037245  0.2156876680681226
  0.4280879131103993  0.2335264583423066  0.5879706171578963
  0.4756041942270647  0.5209091074400094  0.0124566441083464
  0.5798719970320316  0.4991525193799297  0.8222838269405434
  0.5798798363390258  0.2158870144682045  0.9434355201096147
  0.6319229522106808  0.1882708543082210  0.7791295644051541
  0.8466542737762590  0.2247799702225908  0.3428106237274132
 -0.0170516494620054  0.2335779280324004  0.9928843433721011
  0.2905460433699461  0.4549206663650233  0.2408531293584596
  0.6661678635578455  0.5706403944186942  0.9847387576464517
  0.3545064514965054  0.5932714301923537  0.0455261936243421
  0.3570307755529424  0.2836957008208310  0.6122852732252669
  0.3151866909404566  0.1793961379653716  0.1145431306209350
  0.0844885315621021  0.2204819649841771  0.9728320326802667
  0.7921434200250536  0.2580712027503245  0.9320295013374349
  0.5903503715144633  0.3011042557706147  0.2828853077420133
  0.7165648237236514  0.1566507244761074  0.9214086298763272
  0.6692988841100121  0.2374577085352741  0.7845441666135098
  0.7156927027339141  0.1233807416049119  0.8175294928052732
  0.0146859805703571  0.9673669488691278  0.6519502054766265
  0.6722551823341264  0.4876803117351016  0.5804076555452701
  0.5476895253088313  0.1666542825826553  0.9219086113884345
  0.4844908587236172  0.1722559101895671  0.8939874646823350
  0.4786797841785382  0.0197726139578415  0.8688620382486912
  0.7417583185669429  0.2399098642715045  0.2429270899519999
  0.3349801457206422  0.0907530351104683  0.8058903986288294
  0.4180907344623110  0.0267386718500812  0.8470548758913408
  0.8427747381523104  0.1784801894798844  0.2979850155970726
  0.5728223362834671  0.1564042671210003  0.9846296626467976
  0.8276346069941746  0.0266680835630430  0.2264436330965166
  0.8996922520057591  0.2407046080259344  0.4168044527126804
  0.6879142486173612  0.2097680524625564  0.2327689210891421
  0.5419489807341061  0.9978458776397894  0.6867810319674029
  0.5367530713974944  0.0646197140076867  0.6005831492421696
  0.7806504790494785  0.2687311010836710  0.8720820687973514
  0.4050472263143594  0.0446074805745836  0.0108425114443924
 -0.0056009736983565  0.2995182866550397  0.0264929031747720
  0.0427828670487581  0.5646477667005234  0.0546352535751258
  0.2683057738038052  0.2222870215747257  0.2570936102949825
  0.1692215841719224  0.3008352585569259  0.3695027549555751
  0.2336599709008711  0.4090191081404830  0.2944432590735987
  0.1785973461364138  0.4099066537518047  0.3867333338762119
  0.5510267931866376  0.4257155102233919  0.3381145424862051
  0.5780638318339671  0.0287369272370818  0.7873884691156481
  0.6546751615397984  0.1308142725125874  0.7950704700265264
  0.6746642213155591  0.1074722093042966  0.9193842983338961
  0.0777298453411499  0.4572850889349386  0.3948822324946732
  0.1357690983115526  0.5342967974170666  0.4471323655975357
  0.0192593845302875  0.3772459726295533  0.3474066857880370
  0.2488643088213797  0.0607414942818449  0.0145687774662420
  0.4643271176582611  0.0873676298977273  0.1941240575460093
  0.4212158563022235  0.1782745993444551  0.1484446544587956
  0.0640937623332904  0.6265875165653998  0.5680823539645677
  0.6525399417906756  0.0716563597685418  0.5758753843690365
  0.5726238415413378  0.6885652706092924  0.4353555685184101
  0.8548592918782436  0.8205986155454357  0.0064382742544616
  0.3239731583683420  0.0696403350436454  0.6370198689345085
  0.8687697384431595  0.7769972911039504  0.9604086329074326
  0.4746361702679118  0.7813165917160753  0.4883882584588486
  0.3931157468822026  0.9160033607772019  0.5999242602181249
  0.6615818662275197  0.4343489110372363  0.8620936445901953
  0.9735842992812990  0.0405392614633018  0.4205692216131362
  0.2721302671586763  0.9154446655295039  0.3282736118145328
  0.2166628759080743  0.8863070039041306  0.3193872123849885
  0.6041149808327195  0.4084082560601187  0.7341653421888644
  0.9220351436741747  0.0107799983382285  0.5787662945436073
  0.2671691669290420  0.8557244756906652  0.3467421822449693
  0.4562871302576695  0.3272198732533079  0.6382974150193312
  0.5664074455666570  0.3268692781557377  0.6188686724330555
  0.3134678782730476  0.7947721779795622  0.2628390583291650
  0.3605983840311841  0.7200278401740927  0.2434199835812772
  0.4886120132693804  0.2582156953125773  0.7171510195264575
  0.4671959579049019  0.7040855101847354  0.3374642524131327
  0.6191892720811359  0.6130825931836184  0.4170965442401436
  0.4207311435776939  0.7650721273474383  0.4184449500787812
  0.8012761622470238  0.9677271046986503  0.5591229404731455
  0.3181069048005121  0.8252679611024800  0.3707337075967360
  0.5684726392899104  0.2253394747872518  0.8698217324059609
  0.6536241087239189  0.0964394097984153  0.6869744685780562
  0.4921898705219724  0.0607767706386851  0.6430758744218052
  0.5474889434051246  0.9956364872774951  0.4570075276203736
  0.8506528548865557  0.8729932611419948  0.5425188803991127
  0.3984632202533665  0.4385336746699317  0.1083912175565546
  0.7285874696087195  0.1929575269022724  0.9732726617403247
  0.6946107347626920  0.2131325646969612  0.9100531914170406
  0.3521939765056527  0.5330690699251349  0.0657986405069547
  0.4767738860278046  0.9189703932752238  0.8518153472272435
  0.5890238438138301  0.0177156800879761  0.8514403828650137
  0.5388833665418560  0.0134120990692842  0.8914432411678012
  0.5253561522354234  0.0596798074585585  0.9336287129355889
  0.6280898037762525  0.0673558518567332  0.8550931726949549
  0.6987651327590876  0.3473517062100486  0.3617341436980309
  0.8386921376080089  0.8120204338949790  0.7731523254783408
  0.8386062774001657  0.9888792191398414  0.6753506503923378
  0.3909111372234038 -0.0084246503878195  0.5230109273463671
  0.9019069438333789 -0.0198137588576125  0.6938324087837964
  0.4671094642833165  0.6880402919499964  0.3969706588233519
  0.6376477018820793  0.7595323397961180  0.5486333552945062
  0.7482651989553014  0.8659768957263552  0.5629143154740522
  0.4249305074372712  0.8267861225934503  0.4041420074385014
  0.7515129049484909  0.8968016547684482  0.6621273014033062
  0.3730917983729596  0.8231907037146302  0.5018338965626667
  0.8102445608752064  0.8833083529446547  0.6908895807725484
  0.4718150466595796  0.3659598404113368  0.9812019864155592
  0.3259778058911718  0.9142854060952613  0.4682820004060986
  0.3047370039299546  0.0730415643892890  0.0843729203157856
  0.4454320013663999  0.3614518119660266  0.0985177477990266
  0.3541227340484934  0.0419632468795527  0.1109387775595721
  0.2043382280663346  0.1495615820473342  0.9675862270439826
  0.9819135707035422  0.5132931630464986  0.1153377401689513
  0.0811716810685940  0.4054461896905646  0.1253695900917662
  0.2500906388409174  0.2951770267787294  0.0206714988523038
  0.0273139482947459  0.3771385584987780  0.1198311055419962
  0.1784741528089259  0.3453402430221145  0.1829299344546634
  0.1342798256098738  0.3432977263490404  0.0453994297975579
  0.3002864509592300  0.1254734358132146  0.6191031200049164
  0.4408957490234625  0.0762919747095623  0.5690043886241604
  0.2922773000479809  0.0997208163334436  0.5070839898159898
  0.5077661138745031  0.0818994496040003  0.8080548857648368
  0.5363741840982736  0.6669096959939378  0.5344839155585813
  0.7947971627392294  0.7225938234623003  0.9989065906332298
  0.5258635434570919  0.2621211282466958  0.5047515332533565
  0.3418209520698585  0.2154357931554474  0.5115351848291081
  0.4708399487162750  0.0231382135643348  0.5975870637041750
  0.6014583653359410  0.0597517911045730  0.6132287926847961
  0.4963856987305444  0.3052712371707249  0.0001053191249308
  0.4072565133399816  0.2771199450906864  0.0186346794089897
  0.5554536590506265  0.0871043459253656  0.7693682895135932
  0.5400608101859354  0.2637750902958884  0.0404139322570106
  0.8959247471622567  0.8369855483721174  0.9019005218880984
  0.8646850147917939  0.9057385747991654  0.8190488483331388
  0.4617752336877691  0.0564422281338256  0.3185324087653317
  0.9721208449697847  0.0244426200879072  0.4804535650523887
  0.6285528374159558  0.1667569269353301  0.0561111869425175
  0.8263362516280798  0.1551854262940570  0.9044162883193202
  0.6237403026955936  0.2483183308708808  0.9875965250601192
  0.4785721646941721  0.2358804013370983  0.5487462052469618
  0.2569206590109843  0.7366184831733160  0.1452358054701313
  0.1543353402373669  0.7837265117795498  0.1545032372632777
  0.2125991121576556  0.8416168605406257  0.2729664522494034
  0.1620640314893662  0.8743326275081501  0.2472162828673244
  0.0612886646464344  0.9210746097306816  0.2571503084421711
  0.7716693821427374  0.0123406679867262  0.1527662528265386
  0.0950815155807517  0.6595925331182704  0.0528726302978749
  0.2551874113157929  0.5862907326708069  0.0129845679126969
  0.7167374895336210  0.2754618067515313  0.8484746642284564
  0.7192700525296341  0.2421731142166918  0.7449109092808239
  0.9587615423130004  0.9421982429854634  0.5704754741173071
  1.0060956457053909  0.9867550628864894  0.5873820822773320
  0.9068274051223854  0.9091675910536559  0.5482581660866492
  0.0589118695808768  0.8578348986782862  0.5132837761410847
  0.3186582720615668  0.1912131162481531  0.2840135667241654
  0.1022484345400483  0.8652719094777729  0.5798470359988691
  0.9112686197774178  0.9739043103358741  0.5320076108698651
  0.3674753906012170  0.1637646278066568  0.3104194638373783
  0.0905150260097830  0.5794921856983577  0.1325631704043820
  0.3755130396923673  0.2572839052248704  0.3997623259964710
  0.3712891434342467  0.2108664459873117  0.3540311563956972
  0.1326080134464883  0.4559265361514350  0.3004248269216682
  0.3040632028054268  0.4550004283249950  0.4746169119303708
  0.0322353013637520  0.5184421453697180  0.2454260955351784
  0.5819228646655659  0.2084512021714168  0.4248961585262175
  0.5330345603964759  0.2008800008658355  0.5216234157064626
  0.4754783430287685  0.2384177166403043  0.4921934556236485
  0.4211324180300576  0.3968547284090947  0.4992256614251349
  0.1479134546853856  0.5766746261915212  0.0396393659574063
  0.2085661291972463  0.1643150858094228  0.1399417338374392
  0.2135542457001270  0.2084964312571267  0.1856759650927702
  0.2603162168723575  0.1690462980392991  0.0427709491529343
  0.1461938943105294  0.6577162860021171  0.4151588739012918
  0.0615324469981752  0.2532391617755015  0.2930498746465536
  0.1113187687441986  0.2381034219760806  0.2560420223137401
  0.6068353664180564  0.8269712540215195  0.7469084549348252
  0.1108453309672525  0.2886105053540861  0.0717539536266821
  0.0869007187996924  0.4302025798694968  1.0023170966683055
  0.2227721019318595  0.3087562834587135  0.5029771542752620
  0.1334966175744604  0.4231127433155504  0.1968610641688232
  0.3891162980985379  0.0106791694818365  0.4601650377536664
  0.1894499642207357  0.4696214194671835  0.1427500461812569
  0.6952184753435005  0.3656407432608499  0.9383182348633770
  0.9047395956084571  0.9388222738156747  0.6551737757694568
  0.6295347531207032  0.5040173284792071  0.7833920527174033
  0.0785456326567671  0.9171770946483940  0.1676230116843973
  0.1350327879300302  0.9484772797579766  0.1782264223478257
  0.8805192780536544  0.8308137318718062  0.6723900717113996
 -0.0017760182230208  0.8150535585705168  0.7151125355852774
  0.7175556497491969 -0.0031625426590267  0.0792134059580567
  0.6638626292484425  0.0426555254606018  0.9857595440729555
  0.9712942151989867  0.9362360905514429  0.9044792857740643
  0.6906169328883951  0.5954283499624072  0.5602500860022085
  0.8922131153857498  0.6520734187278291  0.7686516802157175
  0.5858410916299145  0.2406811118466427  0.0747376891662254
  0.5499659283809731  0.3590318628423587  0.1254510291791070
  0.9413208014734387  0.6897023145784104  0.8335565468767286
  0.8475521074059070  0.7992615181758641  0.8354524814603752
  0.4481505538486915  0.4077712733048893  0.1376768834367040
  0.9699025168478991  0.7836788635347975  0.8811021601510777
  0.8808970431002778  0.7306326088337131  0.9153827312579784
  0.9252455573370565  0.8990527129280631  0.8423933867909045
  0.6149830240617993  0.5537825773916503  0.4344286426534841
  0.4550075598115559  0.5670128479657096  0.2065234932765868
  0.1594474290096059  0.8449278667632617  0.1405192101493123
  0.2086892047063653  0.7966605040291822  0.2277375345991574
  0.1846776790982050  0.9334131194185894  0.1441221547726076
  0.4374377424554305  0.5075769110332745  0.5481255295395707
  0.7918646208454575  0.7552388758526052  0.5462445968808937
  0.7602273010810314  0.5460212653453752  0.5417559194863005
  0.8055403447694778  0.3631578532973165  0.3359087848574867
  0.7102403753128915  0.4556400215220651  0.3814707361016201
  0.8172238496605186  0.4704633100911278  0.3589087760536623
  0.3941960483183097  0.3987739091317523  0.8312856926111536
  0.7193081277890589  0.5625177433119952  0.4148612451417830
  0.4499491120464118  0.4233415576980791  0.9568242747335965
  0.1352514223358131  0.0904269744081638  0.5688667516352142
  0.0863121738986950  0.0498402912163615  0.5624205181616784
  0.1410562573474687  0.1187884743628235  0.6759275409362550
  0.2516103423379961  0.1194739372963183  0.6590259587561509
  0.5795122089935696  0.7956908195337077  0.4643034224621608
  0.6927307465267227  0.8709717192010151  0.4245382909769556
  0.2424418831306836  0.1982795946310581  0.8099677132099928
  0.3024413856116971  0.1918839833852422  0.8316578908008073
  0.5436647183432772 -0.0413697702556911  0.5819237803118344
  0.5856058921015410  0.8575727605298412  0.4495014764303831
  1.0005376685577472  0.1452802593612822  0.3611259134008937
  0.4393980159650416  0.3136509778791534  0.9727646967994784
  0.6114101009779713  0.5329116773892959  0.2666723855120108
  0.7118590712065629  0.4386603675892303  0.2164146805667962
  0.5729837290874198  0.1172132634600703  0.1075450326900455
  0.7940047613209202  0.7437319261864846  0.6044442018329954
  0.8596444530412544  0.3790255743819961  0.4059461172408772
  0.6317887216428036  0.4709319473214818  0.6794738653985093
  0.5056803734728993  0.4841835536826145  0.1878073284316511
  0.4612073803475770  0.5989856279431193  0.0849002921233227
  0.3851561216624542  0.9732651318281218  0.3382148056699169
  0.4819873962562494  0.4543147208976502  0.7951174710908239
  0.4418252273502059  0.4364317407006033  0.8956219396679150
  0.0452270420473690  0.0685202730658578  0.3419559794260369
  0.5406463859588178  0.4801865676874286  0.9228971653057632
  0.9493080748392052  0.1768551135700554  0.3368980771795952
  0.1880247765578520  0.1546660937421177  0.5126412526139630
  0.1902811157811198  0.1253398271898865  0.6359468697100823
  0.8976077309680890  0.2079650854380821  0.3090564086167605
  0.8330684022154483  0.6602320086973589  0.7462914353872747
  0.9961343069324848  0.1314310449176477  0.1923312422263353
  0.5681503245375996  0.5443257903369305  0.8645321285064987
  0.7955146066294958  0.2378777291483485  0.1479739563480197
  0.7161988564968729  0.8588598570342159  0.8347652074658690
  0.8122738979338444  0.3597085709779955  0.1042595591719182
  0.6598868659352048  0.4204997889687835  0.1455007707134941
  0.7766141653294956  0.8866519926051222  0.9621999146665675
  0.3283927058141427  0.3920449862531053  0.4691778675185386
  0.6047099155851188  0.4239892766458330  0.2416973051823353
  0.4777327373452997  0.5545096776092198  0.5554321610904494
  0.3091647780567548  0.7844536665057462  0.0949759298834955
  0.4056745778710895  0.3222487034694222  0.6779854524999177
  0.5820465965181135  0.6345525811842880  0.9440578475824672
  0.3505955187520626  0.5630702815919214  0.1710492549707104
  0.6910657331913937  0.2405096064088803  0.1087091294487807
  0.9616952311559219  0.7131525284277349  0.9982911914761480
  0.5497831371677556  0.3929617239196527  0.2335824551566887
  0.6028811815385723  0.3873968944026915  0.1375282221572220
  0.5390104182649300  0.3949248796381917  0.5316606937597761
  0.5033347937342380  0.4386782101315402  0.1436698327218027
  0.5104786361535076  0.5817924559027139  0.2750900763236292
  0.6533327532243260  0.4132982697671767  0.6957009460937967
  0.4496176282920020  0.5005217255381963  0.2258153882506501
  0.2050491180886763  0.7684331489013967  0.1204767980199702
  0.7023761713605029  0.4513242399658806  0.7610081556868936
  0.4077151821253180  0.6251307314410264  0.2858037569497802
  0.7305621054959667  0.5152646731896303  0.7021773373067303
  0.7283028508052755  0.5476560454090902  0.8076276097014073
  0.3643383003146375  0.7490263663309706  0.3495245365065339
  0.4125600958341112  0.6877351883801015  0.2678007404045081
  0.7643038656922541  0.5798930455292702  0.9043037838003031
  0.8652085422671723  0.5105644640655113  0.9677430298986336
  0.7933622106618625  0.6757530514992177  0.9528628259578964
  0.8329577930893303  0.7280945458586748  0.9553406429924129
  0.6393299015524232  0.5537188118215208  0.4983217541348613
  0.4042702975723352  0.5789403996180136  0.2415405211687610
  0.4563605513756687  0.5364196506209338  0.0928284319745641
  0.9513677433583546  0.3196570961705753  0.5253666742504146
  0.1336915049662246  0.9198457463670704  0.5771868255996957
  0.5412452942185731  0.9147415667115216  0.5337463567176836
  0.9528791201465949  0.3187615373687052  0.4667377438634073
  0.9626000626216905  0.3817061265484225  0.4437797795174284
  0.9351918931849377  0.4487658926215183  0.5108142238633689
  0.9821558838137375  0.4229880879581711  0.4888757315189274
  0.6867149372395589  0.6793513283366616  0.4803137142108408
  0.8184785073367639  0.6485224801597403  0.5232193633748097
  0.6846525420682800  0.9291247294654990  0.7515242592665291
  0.6741973469749123  0.9723996344217478  0.7938005346675185
  0.7340276955117055  0.9656339888380047  0.8167745789529806
  0.5612958148952077  0.5510652897882384  0.0741499598656964
  0.3652523356458562  0.8198819917022571  0.5554120373517929
  0.4839351654668064  0.7844241070811447 -0.0019089986516693
  0.5086346344196996  0.7513724242766411  0.6133265695180303
  0.7206164233473457  0.7925276015881487  0.6218727249856060
  0.4128032970405923  0.7377076999025016  0.0862265654081234
  0.5900647480834863  0.9010844347323815  0.4961351940812999
  0.8623456782156962  0.5912295461217272  0.5659129342760297
  0.5578581288549274  0.5019959337505971  0.2569659828008305
  0.5222568501430789  0.7504526217564174  0.2879123686015391
  0.6647737561856216  0.5164610339730322  0.2325975088976636
  0.5254465182812550  0.8545698826386409  0.6016112924579716
  0.5740984030778764  0.6132872090587811  0.7793364799664433
  0.5346855813409670  0.8558051306062923  0.5475383814091451
  0.3490950656760191  0.1300906158615681  0.5796960310006016
  0.7320808779850937  0.7179360264597012  0.4811321603881372
  0.4236589681881348  0.1136327378646781  0.6643951963326551
  0.4724608790437374  0.1507319487622406  0.7294674219665517
  0.5642350544157750  0.6118500815176731  0.2846006180659446
  0.4618679669115380  0.6269308398030486  0.1889382793035527
  0.5489209627849022  0.2515723602560356  0.7399669821003609
  0.4582760258828775  0.2921079842310931  0.5298564473593591
  0.8581503183406439  0.9046218932973494  0.5919610874039286
  0.8070057824193481  0.8913350681862042  0.6282867904934115
  0.6067656424568282  0.6406483383018315  0.6169099736982149
  0.7646366084939161  0.6796576698306502  0.6632976096921206
  0.5582447733973166  0.5358431012290557  0.3609836472687474
  0.5934389408694819  0.6869950823419156  0.6592683826287071
  0.6628850548784909  0.6678729687489434  0.7427933059421512
  0.7340627045912087  0.6166167718456836  0.7208919051143641
  0.5511583163607876  0.4993889180511563  0.5386337662957995
  0.7208283272209813  0.5278536963958321  0.6429360731370258
  0.2368025166451344  0.9194323957765226  0.1102188015880400
  0.5732624042635194  0.8956504573601055  0.6643181558114668
  0.5746835642819675  0.0125853044648462  0.5761139319987074
  0.6558793395498761  1.0102185271663702  0.4269575691542489
  0.6270916942374340  0.7356435811705621  0.3832736029365568
  0.2334568260551086  0.0807911165958838  0.8885108835113418
  0.6121942235649804  0.6625783345451479  0.7817603218578317
  0.6491981837953601  0.7460977729568965  0.8884843963496827
  0.3005398724335770  0.2235753828145930  0.9352694763875579
  0.4095577135801571  0.2206862550456009  0.9172830620844098
  0.1863486404185664  0.0428550106669429  0.8234443175425034
  0.4856800942650539  0.3901942295678646  0.5808969026419141
  0.6509797887708066  0.7136470523061287  0.7844125770787722
  0.5802212896942537  0.7311632502515391  0.7017239660437971
  0.3576495875393806  0.3171646557650851  0.7172347915731571
  0.2792979564033673  0.2155009277281832  0.7082722241850065
  0.4400757733307694  0.2534703156715915  0.7563019510152331
  0.4784137241892776  0.3020147144383919  0.7627386776017371
  0.2634369415330362  0.8212751652359072  0.0755694264851410
  0.4559797866221583  0.3590660561086922  0.7459756889632468
  0.2105100167925944  0.8316091648957908  0.1052002978991292
  0.5040498280648046  0.3973705542945781  0.8128777822690588
  0.2330616321007775  0.8738514677807675  0.0622352707752088
  0.6122761488663998  0.4287047126331309  0.9018154609537574
  0.6025477547317774  0.4408795672415766  0.8409251608066850
  0.1342554770482246  0.9647445207123873  0.1181618940902153
  0.3017150519355420  0.1599729116393418  0.7255667282296937
  0.1177269800327073  1.0087773520138592  0.6789855963020618
  1.0036968071326726  0.1911680607542712  0.4056069533059289
  0.2140654813367806  0.1356696852311332  0.8675716364648468
  0.6232304041984620  0.6517681402702009  0.8429546348029195
  0.2249280614363543  0.0910326891740662  0.8250645223479246
  0.1527957984203404  0.1066784376637662  0.7386517022410071
  0.6015038041505202  0.7095641342857277  0.8248795294337270
  0.6113580574949935  0.6962890885009992  0.8859489668947844
  0.6714769032741980  0.6894093483461133  0.9080491924280144
  0.5186547687537557  0.6892043824409956  0.3036787585032565
  0.7205951969688321  0.7304930240952610  0.9744049183996890
  0.4233685446656859  0.8571944881654515  0.2820941309697205
  0.2574867074456995  0.0274320811355982  0.9118724400841894
  0.3730616228648316  0.8716161026025496  0.3174313512328149
  0.4008081481946381  0.4859916351026677  0.6520208321311908
  0.4497189655636267  0.5246873440988257  0.7161294144661753
  0.4869891530302461  0.5748063989448287  0.7201658618396922
  0.0333910127853341  0.9777075620543968  0.2496202984345780
  0.5343055418239253  0.5950506053094076  0.8814780300242732
  0.6180726497498248  0.7820642093274582  0.7037001563387085
  0.8494045087349472  0.2554251361302248  0.2189663950839962
  0.8512772934049101  0.2849924765875421  0.3238976621812827
  0.2489519173615346  0.0893695220446265  0.9455284014596649
  0.3827187891109251  0.8028115704296527  1.0120167104630244
  0.5362190553278831  0.8468094152907450  0.6630643433338858
  0.8198886687885950  0.4983187546246720  0.4630420417093293
  0.2544272586420044  0.7545354630680007  0.0856321127535682
  0.9041959936447304  0.3032879001843613  0.3994895821009136
  0.6086275222350044  0.4545635512577259  0.1203523533225596
  0.0818104340198595  0.0187875653738041  0.5131213638975416
  0.9832621136050784  0.1336742101050473  0.5135234296881698
  0.6096750644887560  0.5296652403869956  0.6597132083379301
  0.6784792008368243  0.5431862861564788  0.8466896516706257
  0.3218452765312438  0.5846737113972263  0.9806304878802119
  0.2518458406767556  0.0710818337915163  0.1823942862968704
  0.3956004838770012  0.0512272204557101  0.5100862989527306
  0.6234632374862837  0.4150039854277068  0.9683915297305250
  0.8307833062981140  0.6928706637552864  0.8502460994159787
  0.8048338432090205  0.5963242189345671  0.8036935950125798
  0.4336857839909888  0.9342601160844612  0.4366456643116178
  0.3458762765573540  0.3621604087598193  0.7640686941285547
  0.2970019427035155  0.3235548836867438  0.6962399255638385
  0.5270800641172164  0.1597871858769931  0.4770290097785950
  0.2365779692954603  0.4551736945220384  0.3359831859942895
  0.1347369042913006  0.5022155361851838  0.3411848797125960
  0.1425160402554511  0.5978506115039340  0.4298837850192777
  0.2898139139935980  0.4715320153393107  0.4091255164937057
  0.2362357659979951  0.4920931831634634  0.4369311395684136
  0.2843101420654891  0.4115051319267456  0.4269385333712714
  0.0433182542431976  0.6734570981844687  0.3163697705219738
  0.3815227205235650  0.3155294907917210  0.3763767660462397
  0.2803905254817418  0.3637286873876057  0.3853461297522957
  0.0289363142250620  0.0711149951235211  0.4296457529248136
  0.3777101374741410  0.2703529094308528  0.3349641127469083
  0.2445846847863036  0.5645315200928874  0.3602779152712993
  0.6294340383249097  0.5375255316125924  0.8859793570954593
  0.0349363197625664  0.5325678690245519  0.1834333514263407
  0.6255499827000973  0.0841120333501660  0.3623361238277367
  0.4025294901182953  0.0134056402587450  0.1392047950036731
  0.5116545141405572  0.2324421782662545  0.8424629374078660
  0.4464406786533364  0.0898290328754755  0.7874905215807106
  0.2656853826769829  0.8390057080078590  0.4100713649639904
  0.6063469637110787  0.3557453324310729  0.0247217372730801
  0.8386844473143305  0.1323119339010643  0.2533170571365881
  0.7343403459590109  0.4136558357779067  0.9443955669692413
  0.5281981647010033  0.2094783876492418 -0.0245385533699569
  0.4837759950437649  0.2370523774773667  0.0364510293175773
  0.4993584770698006  0.0651317528511812  0.5446629215496239
  0.5007980327124326  0.0723302851239096  0.4781818464776712