C  Cr Ni
 1.0000000000000000
    38.7210597765861735    0.0000000000000000    0.0000000000000000
     0.0000000000000000   38.7210597765861735    0.0000000000000000
     0.0000000000000000    0.0000000000000000   38.7210597765861735
 C   Cr  Ni 
  50 1596 3725
Direct
  0.9883262517311746  0.8505243573864568  0.0158574828409011
 -0.0005969538892762  0.1361589897570320  0.9684503774976818
  0.4236686619686400  0.4851567907157701 -0.0010467862526522
  0.5230567160256201  0.0323473212358491  0.4703251573690986
  0.9834491622465613  0.8001306299648553  0.0972050982543750
  0.7735639652563571  0.8438427434830879  0.4905717465253034
  0.0526706137322561  0.7723908113185426  0.5693296088933574
  0.9456355977424521  0.8885692182461062  0.5705652768567634
  0.5952054483998778  0.5332554216946414  0.4801163898957280
  0.0112675858083823  0.3165299971614357  0.9140971710630685
  1.0480809162786631  0.8760119211669557  0.5715436263834378
  0.5856271021087687  0.0651561941149259  0.4796904379063908
 -0.0706337832957106  0.4114364454541816  0.4679932909477905
  0.0424285552064429  0.0286631245860958  0.8782833703306818
 -0.0128408057805186  0.8110972112497469  0.6664802980401102
  0.3548497917333613  0.8538650042498598  0.5244845905150375
  0.3299200750439421  0.0925646665070899  0.9506457286632630
  0.4363071395017333  0.2378467351068044  0.5269692569207152
  0.2783413230926606  1.0216170530822577  0.9092890431701440
  0.4650673476844616  0.2036753470266897  0.5789287320232197
  0.5017431303921471  0.1778478587220911  0.9401729159435074
  0.0260111776990766  0.2444565600311431  0.7577300804250422
  0.5098631002602831  0.2533830616683583 -0.0042723191312649
  0.5761375150919488  0.2147585881829143 -0.0196205553207657
  0.7978333790858216  0.9719488615583857  0.6288420045638632
  0.4580687844645370  0.3376332809585543  0.0121752776185248
  0.8320558309496715  0.0305452395125820  0.9318982561581410
  0.6946168171809339  0.0548980935310851  0.0150658393843718
  0.6815364706161250  0.3233870059283347  0.9770340007888794
  0.6625835198908795  0.2530915976313959  1.0070357286578024
  0.2186066201317158  0.4276969436765725  0.4391050202208798
  0.5992902824828752  0.0770720750825515  0.5708863604595636
  0.0853827236065275  0.1004501666475772  0.5576689290170934
  0.1111165596491161  0.6682805454336541  0.6819929651671142
  0.2882673261337254  0.3406002539715346  0.0059054083923155
 -0.0114874443752488  0.3819834692977684  0.8944205879873030
  0.1952464062986176  0.9598731396637751 -0.0400716217646222
  0.5169927198206558  0.9513395936552932  0.5469225302119277
  0.0284902725110213  0.3846811639507762  0.5619389963013737
  0.8489446915705644  0.8951239754693106  0.5267964282923879
  0.4911678625389675  0.2846507639037566  0.5206866707232072
  0.4397848426366586  0.7127254635697121  0.2414764163192982
  0.0408208605578739  0.6598577457244926  0.7202981287093353
  0.1538401747507310  0.3731819633019723  0.4845745852318156
  1.0122016952973198  0.5207434311596868  0.9125473716690204
  0.2297590833767316  0.2474968591255214  0.0056867065977375
  0.1627469288216636  0.6438296199110772  0.6335817701594209
 -0.0188794055937318  0.4345324010794196  0.9437361190666237
  0.9309754632029418  0.3147775816658764  0.4382765577512484
 -0.0352378428525540  0.9585323317161902  0.5492200622924058
  0.2780904727894071  0.9473448488056179  0.4409526339650613
  0.8831287269379310  0.0579681771292209  0.2364965562690861
  0.3949964018863446  0.0506421110463144  0.7197792871119929
  0.2604758867238435  0.1500496605260128  0.1027297549455877
  0.4840420850206901  0.1388135894972614  0.7901128258181447
  0.5350457894400772  0.1765333530171815  0.8573599014770257
  0.6564947955979064  0.4396749129925673  0.3122919275420127
  0.0467348148317348  0.2081733444979184  0.0191247659459929
  0.7931349543960232  0.2554444678837312  0.9282704959753152
  0.5558610940712472  0.3728332253047277  0.6617799245885500
  0.1599171077461113  0.8450896661613313  0.3739502599032804
  0.7333835271584752  0.1332540254835848  0.2158675841629865
  0.4468277602296238  0.1701908497736377  0.6091574338648033
  0.4290964220109771  0.1904758860738978  0.5450170777872377
  0.5850772811095345  0.3656794333700333  0.9597361769513455
  0.3234665881220852  0.8700596988938969  0.4192529974478346
  0.6497777595748493  0.3789664086889483  0.3322704246937637
  0.8584113475072536  0.9474667254699500  0.5235061715926340
  0.7134686965142540  0.5015044695442241  0.4220226891116086
  0.7173640084934090  0.1554942737230877  0.9216879605513818
  0.5905127174538137  0.3020370523662053  0.2825200720277851
  0.5813448239256198  0.2133685011411279  0.9313446627327938
  0.2687168823667098  0.2223893117404050  0.2557701444288784
  0.8471737895257582  0.2266551834535717  0.3401047553954734
  0.6697029179525043  0.2379729364843525  0.7842411401809722
  0.7154627407194851  0.1240736921323781  0.8162230198569206
  0.6423425063871975  0.1427505232733336  0.7323952450712761
  0.6529025918656104  0.0963960367665807  0.6868186875458997
  0.6869012293573150  0.2100551042100284  0.2313853390815979
  0.6027983822682018  0.0591618657967438  0.6195730323113970
  0.5416403459138901  0.9982283418147554  0.6867792876649597
  0.5470240206910474 -0.0323150322123084  0.5836085193594760
  0.7811451704360807  0.2669192147927159  0.8708707273287828
  0.4047487863470470  0.0285273582703627  0.0732760164635326
 -0.0065451775661221  0.2962762522612892  0.0266046880519859
  0.0417956437508502  0.5644741833538836  0.0555265446505730
  0.9036240997173770  0.9341331069741848  0.6457881698083850
  0.6597044894760361  0.5334540383182436  0.6214175510437492
  0.5463308482056574  0.1649304448629660  0.9224347042754321
  0.4477540881867179  0.1202720674871242  0.8898015767925369
  0.4811870876657918  0.0200092670009652  0.8669202065426096
  0.7460389381058631  0.2875151187884041  0.2856090440162186
  0.3362640321797590  0.0904721866106799  0.8049175725143529
  0.4194535275306767  0.0261380668844564  0.8454369622734890
  0.8426332842682097  0.1811258207510673  0.2972778481768846
  0.5719453978549844  0.1612835286220499  0.9825287008620733
  0.8275653587909040  0.0299262921706364  0.2285238426488392
  0.5225835295300768  0.7189563512229606  0.4105150778418660
  0.2338979579688008  0.4102279116288868  0.2937996236380361
  0.5499669353234967  0.4260530088690582  0.3376464683125602
  0.6292957207652674  0.0343847586605799  0.7450534488264321
  0.6540664859516063  0.1313131896395448  0.7947260897182173
  0.6782138227675587  0.1065791459680186  0.9188014643702537
  0.0766560007412609  0.4586435517802680  0.3924241092594080
  0.1366538630527712  0.5325135210487082  0.4482128525395969
  0.0747446773249351  0.4107577158875542  0.3548985962365316
  0.2502692064217569  0.0606449865933782  0.0121818950404383
  0.4644465855533164  0.0865213127309789  0.1944220962113998
  0.4216155449358888  0.1780470789794818  0.1485865415289440
  0.0505657148321732  0.6676596242177968  0.6111224730561033
  0.0895005693464510  0.5796782693418786  0.1330460087418477
  0.1387665201604189  0.5003788641902646  0.1168626843594332
  0.3663033359530036  0.1358204715765268  0.4371889443086398
  0.1370517334037998  0.4857785192753862  0.1758907181733416
  0.2221846791449754  0.3083853411335236  0.5028550424423442
  0.1361775477884531  0.4079105637165245  0.0259273589225206
  0.1094105593315343  0.2896945495390563  0.0739707359332815
  0.6069615320067011  0.8291169666443804  0.7454727193204272
  0.1121778630725483  0.2389266027431879  0.2554992614355798
  0.0611471954347117  0.2537609603789042  0.2920197948624719
  0.1789927607100519  0.4099457932121042  0.3874993327736623
  0.8057128322880084  0.7862877237906801  0.9315125975772426
  0.8739379814709811  0.7773230268512760  0.9568443612355650
  0.8998645847139587  0.2416712661571309  0.4160865480694361
  0.4767610026569473  0.7799550511612253  0.4888834930417382
  0.3965052576977449  0.8724661243927397  0.5533502496860769
  0.7338593694129939  0.3818192407368426  0.8389810034734230
  0.9734177686159248  0.0405655036684837  0.4195814162218658
  0.2722841181087703  0.9161898464129858  0.3307673550011424
  0.2176658296227921  0.8878282673536160  0.3213914572297303
  0.6171540826167217  0.3657227220150751  0.6856930827613871
  0.9160039079424036  0.9696617340760539  0.5314976180943400
  0.2674764751884798  0.8554196552470782  0.3501347436240211
  0.4556238374633860  0.3277835132770721  0.6376249801914055
  0.5675789896870675  0.3271649391693884  0.6169821571817519
  0.3137410183940077  0.7949262826001936  0.2645726418550712
  0.3597622582559467  0.7205878427657043  0.2427387792395541
  0.5104361462420758  0.2014116693252866  0.7350725624530401
  0.4167727469640696  0.7189810936898632  0.3740179266519918
  0.6188292631916789  0.6124676406387554  0.4157481705551351
  0.3700543023767036  0.7935797893409858  0.3954003751412958
  0.8120306955149820  0.9659959934462886  0.5585581016713023
  0.3184836032422936  0.8248373448683871  0.3725422828724515
  0.5697234344433914  0.2264258885892460  0.8660199613402391
  0.4244553781988903  0.2362093822880356  0.5826519975045750
  0.1696939938746923  0.3010584841290536  0.3677911724067373
  0.9054860350680358  0.8888067769316341  0.6051923475823032
  0.6126168970805519  0.4284497540276008  0.8989288765939677
  0.8690349642286928  0.8518612392655354  0.5489316612697770
  0.3984060911460639  0.4389668080928043  0.1071769162684163
  0.7297233277138041  0.2469686872616255  0.9622942636917822
  0.6748325882185925  0.1559208345087823  0.9597789118618852
  0.3486420936448524  0.4689479457717872  0.0815641172543110
  0.5297043371898643  0.0249811815068452  0.8270482612306617
  0.5902177667992754  0.0184605640854008  0.8510733782973060
  0.5406631508528471  0.0145373796516056  0.8918635624963457
  0.5296469483064004  0.0620597894436054  0.9323912098411213
  0.6301779530734557  0.0674143174670384  0.8534087598194681
  0.6986479091430196  0.3478614449712669  0.3621173372473224
  0.7782476638551000  0.8201564207131169  0.7488133824065230
  0.8335136944577213  0.9879785701967577  0.6673188085503096
  0.3605112455425816 -0.0337818575684267  0.5776864623434053
  0.9072341004408784  0.9654138525656150  0.7520011675197101
  0.4733828726140470  0.7327171415930669  0.4424276066685800
  0.6396441663758913  0.7593018566877404  0.5487802711643150
  0.7639866821671439  0.8770064335548454  0.5649771089113739
  0.4769539758371188  0.7938729285251481  0.4291009038725104
  0.7595039405050046  0.8429421286212736  0.6214221501062710
  0.3795246326434058  0.8831159257609467  0.4886761821086952
  0.8094146197917537  0.8823188132487569  0.6882447943773968
  0.4037776918083036  0.3406639920219320  0.0130076387625290
  0.3277756456714040  0.9154508436632247  0.4687033390179006
  0.8387510422213004  0.8448312075313623  0.8771325338091917
  0.4462023024339698  0.3643165211100028  0.0915926444405414
  0.3542742830346672  0.0405884527881631  0.1103926034406889
  0.2670066338552574  0.2310601672804550  0.0333952227970380
  0.9788718711682169  0.4522341422872789  0.1349041920016388
  0.0810435775010842  0.4056099978974374  0.1261090711178929
  0.2515871982881291  0.2937020967453186  0.0176346091777966
  0.0255772198506688  0.3784115433040090  0.1207145608398945
  0.2263107534564205  0.3157281204755724  0.2103482225156366
  0.1335928521947517  0.3446138968871882  0.0455306792827955
  0.2993063372918712  0.1239880921779462  0.6184075718210739
  0.4297480856361857  0.0723500893969674  0.5640438475480275
  0.2922232404921694  0.1028436859767162  0.5064354889127552
  0.5075412413851327  0.0825672539801073  0.8076507899553317
  0.5199726121388699  0.5659042610415906  0.5105667407101264
  0.8024381474349381  0.7127572259244540  1.0021352318200265
  0.5335841884133079  0.2682106353361775  0.5011438894372825
  0.3875851707224820  0.2472891423500874  0.5217694158863568
  0.4178276369110752  0.0102297544832257  0.6425719095550372
  0.5043945004828281  0.0470372159987379  0.7011250331741891
  0.4930266628667657  0.3016860526502438  0.0008844485347841
  0.4409125369320867  0.3165467041258703  0.0547111263533410
  0.5550930795957676  0.0876132721775122  0.7699885204104481
  0.5457387766914953  0.3136687099233820  0.0810447907795922
  0.4787685833259942  0.0045779872270518  0.6632207175967418
  0.8705266741345159  0.9059363966158883  0.8147963328647483
  0.3425136641245035  1.0222820847398686  0.4923091177595301
  0.9718724827464680  0.0241187456042602  0.4778063087261716
  0.6287998368211049  0.1656071265767381  0.0560017872056015
  0.8262756259459395  0.1502400898661822  0.9023513969242829
  0.6753807862943695  0.2622216568506565  0.9583647895018994
  0.4827170660941382  0.2391398288079510  0.5488524757361721
  0.2567938377727585  0.7374165297986431  0.1437523068105866
  0.2092855055555954  0.8151116771505359  0.1660521408849012
  0.2617826369554470  0.8257214455367854  0.2386871180329421
  0.1621814334672908  0.8747381068734188  0.2476291677887976
  0.0620962627258391  0.9210799069897084  0.2578945930203926
  0.7711184555352347  0.0137708600695861  0.1546676182924240
  0.0959307430485306  0.6604636220655170  0.0534208534386572
  0.2567065698706996  0.5874221655603749  0.0120607980951189
  0.6961589251334047  0.3330650441678608  0.8326705205209822
  0.7192915106203122  0.2427627522946018  0.7438868491285767
  0.9499001401266717  0.9351454503877704  0.5907965980781579
  0.9959481548362906  0.9828672979614658  0.5914559852015095
  0.8990941536836972  0.9032906297709495  0.5458562825508078
  0.3452953301003536  0.3289767666484330  0.6560152493866483
  0.3452160482743723  0.3611711915053092  0.7635008975992065
  0.4301543032406274  0.8697421297391716  0.4502436383862213
  0.8047125284189124  0.5966298391371642  0.8034379847508329
  0.8521628409170030  0.6355556155056369  0.8687040648130856
  0.1490653125580084  0.6575893556045599  0.4154417212482084
  0.2526953978618043  0.0708019935785272  0.1834881067407971
  0.1981324466320806  0.6233787450693062  0.4456381543173967
  0.1098221582564189  0.7726871526575541  0.4943332046352019
  0.0571632035992857  0.8622821345164240  0.5215621542110547
  0.3190407792996833  0.1913943940412722  0.2840025477060150
  0.0968172778062300  0.8687494110007170  0.5824041818759124
  0.9559105549125150  0.9080750181536794  0.5256411287020141
  0.3682272883812826  0.1638606791760717  0.3096504741832792
  0.5493491451773163  0.9914117839421616  0.4562718952257382
  0.4104737213067183  0.0864046879406598  0.2932408652417621
  0.3751415733524162  0.2595502267830946  0.3964765852820047
  0.3712793932240096  0.2107871475589008  0.3532924442899255
  0.1330081053186430  0.4571868733060843  0.3003371931342946
  0.3415872818066325  0.4447964403229503  0.4252133046563135
  0.0324298599633800  0.5192827642897229  0.2465783404350073
  0.5802996215740569  0.2095314257487810  0.4240381317216760
  0.5297147004487767  0.2249841916914218  0.4576145148904674
  0.4764440313733758  0.2416407250747132  0.4903774767435023
  0.4201749414584386  0.4057908358227391  0.5053083622839540
  0.0917480261396091  0.5386803381776237  0.0329116176140616
  0.2096094417822799  0.1642363958388493  0.1405296020998612
  0.2151747610427073  0.2083096676731123  0.1846467675348892
  0.2054567423597466  0.2025688577593001  0.0183269423468007
  0.6940656031396064  0.3653540495724887  0.9403015601769834
  0.7327276775699978  0.7177416423306513  0.4782343110951612
  0.5585374242935353  0.2633345391432950  0.9810950626675103
  0.8596315631145857  0.3801540674865887  0.4075337111927090
  0.1341406048729066  0.9500853963150695  0.1797999948283650
  0.8820502126443656  0.8274964015659255  0.6712992764815076
  0.8890412707789600  0.8160274578558203  0.7311776373745176
  0.7166348806180418 -0.0036067593379487  0.0800180758877708
  0.6664933062655545  0.0271638278066865  0.0511164013960790
  0.9787381112105481  0.9348028161542127  0.9073122145483418
  0.6899445977619342  0.5958055394589944  0.5591939307028869
  0.8812515512844791  0.6972699604012804  0.8098891044890018
  0.5848177458000517  0.2390909712447756  0.0748041949554454
  0.4950438872897763  0.3767129722586462  0.1599839826066378
  0.9801211775609102  0.7387985743098066  0.8374793620538150
  0.8992355105381065  0.8037348292016261  0.7950934393072479
  0.4471227288812947  0.4087049544433012  0.1342084419131294
  0.9705770345793883  0.7839542807589303  0.8811699303432993
  0.9209774656815174  0.7799752660046719  0.9201027525678059
  0.9384442687873618  0.8859023976549389  0.9040101815259232
  0.6125503522643718  0.5523785139236390  0.4342588963023584
  0.4547249745780095  0.5176856282040354  0.1616223251249744
  0.1603504825715125  0.8471705108113147  0.1406706785839984
  0.2077944567762384  0.7973218625021466  0.2263309947531073
  0.4113457100733884  0.5655905691577887  0.5307557405582051
  0.0787078970501491  0.9180959288504243  0.1686260138001334
  0.7942407373488141  0.7525331626792934  0.5486164057754345
  0.7602498800545100  0.5489501879305928  0.5422628286708561
  0.8056390300554920  0.3648165853880145  0.3361761085751538
  0.7094310270735189  0.4561525518743291  0.3811554916303550
  0.8168304391629336  0.4723236595743796  0.3587632067419007
  0.3941717303630377  0.3985182339635807  0.8302654077708376
  0.7187870345887092  0.5617556089260979  0.4141300395298703
  0.4507661038982908  0.4212249187076951  0.9542351000872398
  0.2188130928928815  0.0166042521122061  0.5855375393399640
  0.0883585422086443  0.0471340474017607  0.5641381643703199
  0.1391085999914786  0.1174949308091826  0.6752276068361089
  0.1994929012261130  0.1121365299885444  0.6990533349223403
  0.5836158678454847  0.7965198912906282  0.4633452905557435
  0.6387575897169138  0.8431976783691834  0.4127294912461947
  0.2413221715843237  0.1976776438986257  0.8094212140222234
  0.3008784155141910  0.1908875252341737  0.8310345946720545
  0.5453392110895047  0.9122872582369076  0.5328285292751088
  0.5875692694236142  0.8578390552812164  0.4499997762536254
  1.0001943768218355  0.1459824842060876  0.3624041075313050
  0.4392245969523886  0.3145415784616358  0.9692370626159632
  0.6121369180696132  0.5324374483003840  0.2653812208278756
  0.7110911884698022  0.4396274050369266  0.2163838269519704
  0.5780158777610727  0.1634168253006001  0.1523095992286991
  0.8472669157229483  0.7436213147482574  0.5671106693551308
  0.6911735267220827  0.4638778032013192  0.7007122848665147
  0.1637811862223557  0.8916413667860000  0.1863704972817959
  0.6441034589213815  0.5942836111602335  0.8625563965730819
  0.7015967293732217  0.5157879990654982 -0.0304103169555834
  0.3842804549415180  0.9731342272787420  0.3423198056096914
  0.4816056363116152  0.4546303045189346  0.7946593575328496
  0.4419282573207988  0.4363599397498029  0.8967793657119578
  0.9949136255523269  0.1004784084625347  0.3160884135613939
  0.5410935916745520  0.4803358267255928  0.9225628620384311
  0.9506388928476954  0.1793543651084234  0.3361403759772089
  0.1854754727579569  0.1504746502898215  0.5146670977213905
  0.2277808898758459  0.1732021336920288  0.6397205259904288
  0.9531170026261938  0.2421216831141157  0.3186757593027556
  0.8333403840173155  0.6594918583127442  0.7456874405750162
  0.9968730285282125  0.1332237149162454  0.1929981609208962
  0.5837702043836598  0.6006125164177506  0.8412140520457720
  0.8504766007442762  0.2709556479830301  0.1585921804975624
  0.7191901965080375  0.8600806567898681  0.8323431345738436
  0.8067408202539174  0.3459582633466616  0.1695480631351626
  0.7071401557562531  0.3945539176539666  0.1739628055358768
  0.8113865583491143  0.8583512145115244  0.9854482959580537
  0.3688261296942140  0.5169935067209012  0.5280665296738459
  0.6530001859614668  0.3939255268839707  0.2707829811004607
  0.4793192526744064  0.5533194215658630  0.5555142535674201
  0.6924361741608819  0.6316169707503165  0.9264563312203695
  0.2337344299618355  0.7510374277667164  0.0205253997271137
  0.5798124044236892  0.6340497755872144  0.9437196587655705
  0.3513519521026525  0.5635306562839014  0.1701090426271446
  0.6876975248452846  0.2248292979926701  0.1712000074862034
  0.9644448364792207  0.7142728265281705  0.9989380737795722
  0.5487335778638253  0.3930287133300379  0.2327864962763829
  0.5990284708470272  0.3775755466982776  0.1997183696425945
  0.5361547118535627  0.3917631219431250  0.5304578341062006
  0.5567369616211972  0.4706534565371814  0.1521975153962681
  0.5109094844051575  0.5809865013998943  0.2749359606411604
  0.6546380271317488  0.4139418904837722  0.6958442457331619
  0.4525434376446617  0.5025642059877526  0.2223186650717934
  0.1548631045913133  0.7849714842359735  0.1548103466887703
  0.6416534168988191  0.4582066347820552  0.7395572041384932
  0.4077794332509966  0.6245498377059219  0.2839002118023879
  0.7401629967135386  0.5020156245835977  0.7648801271283592
  0.7276854770404168  0.5476222957177711  0.8077067386933227
  0.3562943869803271  0.6584645635700502  0.2578889238959224
  0.4093143917789402  0.6863653572277166  0.2694835110023788
  0.7631600652629039  0.5795394884995319  0.9039969614287607
  0.8670297571723062  0.5087467255609298  0.9687205545718353
  0.8143298346563658  0.6185696822180562  0.9690029128353266
  0.8801358738113086  0.7309760969929138  0.9147282488499865
  0.6384410777434628  0.5529618236160027  0.4979940685263896
  0.4045930020176577  0.5793629905827200  0.2401565787203553
  0.7032769257069017  0.5858985313172368  0.8834965699225737
  0.9070382802259372  0.3591004675095503  0.4485694623555032
  0.6500022251756459  0.7472763582598709  0.8872138689318719
  0.2356373610668040  0.0785360428124937  0.8879644927519522
  0.9623145638342061  0.3238749162128882  0.4757947728967383
  0.9686136536661368  0.3820672099579888  0.4502188177837420
  0.9313895983829293  0.4509697610661547  0.5100252613849975
  0.9793675724282238  0.4283774445294463  0.4887104725352749
  0.7233073752501075  0.6119556614100267  0.4565951012748865
  0.7970133929880117  0.6620660480539660  0.5140603927015321
  0.6881476611842903  0.9300817060797651  0.7481763564142218
  0.6745261861410441  0.9726793060455948  0.7894202465941100
  0.7383558081815598  0.9674021174473016  0.8124563631466862
  0.5604735540410498  0.5023213994049961  0.0313651723771767
  0.4245985163498586  0.7870995184228146  0.5244006709557368
  0.4887082084379915  0.7830672770670714 -0.0034762132060745
  0.5083088786876560  0.7521153236355078  0.6139447990628591
  0.5470066488999632  0.8009172387961033  0.6201540788344314
  0.4131172292576584  0.7391447982816741  0.0857951335000216
  0.5938023146632005  0.9001028494581624  0.4966340226893320
  0.8486041029595631  0.5989673574411952  0.5027216713025399
  0.6094750175592979  0.4861455444831794  0.2232818833015070
  0.5237432299963519  0.7510091776913631  0.2874751468695498
  0.6643984628866856  0.5175018816689003  0.2320214308771252
  0.5740163906863865  0.6136940731464114  0.7802006289490513
  0.5421394558224966  0.9308291953025566  0.4709481526667350
  0.4822999887584582  0.8233273447473173  0.5362905924038778
  0.6777348569485995  0.7018894503230744  0.4129920105785044
  0.4074822899803933  0.1234823133583051  0.5994435461641269
  0.4226967104677569  0.1142133678169887  0.6601083244648210
  0.4608287727540124  0.1625347785153916  0.6678743048561556
  0.5649680146129522  0.6113152107019202  0.2849038539130769
  0.4645682445611419  0.6713674699804467  0.2315263086803596
  0.5223747981565637  0.1872642308081525  0.7971611098087327
  0.4432232923677423  0.2885765758137409  0.5299831513619919
  0.8384710786967363  0.9408773190210974  0.6239623290400735
  0.8008312281314065  0.8886571472524705  0.6281627584749795
  0.6052062120784093  0.6407155845475120  0.6168423806523219
  0.7637078130168491  0.6792543745277466  0.6630050166216162
  0.5583984406876843  0.5350327467589746  0.3607546212417335
  0.6537096197176835  0.6797572590455009  0.6817392361316521
  0.6630854889218275  0.6685931618563890  0.7418771684669848
  0.7345737400779702  0.6168297158386941  0.7208565528738908
  0.6110840926155769  0.4925846503708790  0.5596535813840755
  0.7192169620387905  0.5277721951236274  0.6416852831955624
  0.2373263656321243  0.9205240927695765  0.1075623237434625
  0.5734983017542900  0.8964250124700415  0.6630735053618722
  0.5830510319774179  0.0244082396081974  0.5757822135768110
  0.6564239225407176  0.9929734228900663  0.4883710839237881
  0.3045886149768022  0.0740544620367461  0.0845324295385454
  0.6113489892554758  0.6643409219011600  0.7814211730208888
  0.5239284156672361  0.8554549892377576  0.6004281542172948
  0.6232937747850268  0.6526415489810865  0.8431763150662444
  0.2730211116977071  0.1273986394447549  0.8893576311354069
  0.3625638779093599  0.2142056924082891  0.9587728571280757
  0.1876284920532647  0.0406257599321432  0.8235233625718757
  0.4866017565920326  0.3900842019120036  0.5744407208790729
  0.6503566870223398  0.7145073298807991  0.7840882424887756
  0.5798725038053203  0.7325806508191799  0.7008524133949481
  0.4071154069596730  0.3226662996434498  0.6775625975606520
  0.2791059000693215  0.2147404421531612  0.7082224890405645
  0.4173844986362402  0.3102236151111246  0.7397802563432317
  0.4777760379275756  0.3037906486560219  0.7611868936002383
  0.2655125685542380  0.8236914274107829  0.0754514513645258
  0.4549707487314029  0.3582077249282154  0.7446649739078592
  0.2113453310435587  0.8328047499238220  0.1061794006118906
  0.5032483094782078  0.3978516040513457  0.8111093831372573
  0.2342262754043451  0.8755023553707291  0.0608198974708935
  0.6248816201581898  0.3843053672743629  0.8562522210813338
  0.6030366323539030  0.4403511390376684  0.8394645635365169
  0.1344188206593465  0.9661034566974259  0.1195621151955935
  0.2138525785642015  0.1023264677041844  0.7620858297805391
  0.1584493407971270  0.0593752775194030  0.6904726650049766
  1.0029656404265752  0.1917031647645656  0.4052523987172480
  0.1227351160024786  0.9649970714400660  0.6313401607992446
  0.2994393098014115  0.2245033100804624  0.9348522031568547
  0.2146056390708862  0.1344957066712649  0.8672019715946353
  0.1519772502687129  0.1052551587732822  0.7387342785786291
  0.6016228203433914  0.7094690001217703  0.8255061003173115
  0.6115659406451746  0.6973877825762439  0.8864046660641760
  0.6713486708297212  0.6887719170723193  0.9074074534488223
  0.5192258676715573  0.6889974543345530  0.3031425776718250
  0.7194969576175985  0.7262868902863939  0.9707234475919654
  0.4247246863392378  0.8582459103974066  0.2818878364368230
  0.2471530144542240  0.0489459843489610  0.9413840088552855
  0.3739568888404288  0.8708747796767009  0.3181598311401430
  0.4004962411468918  0.4874518385278953  0.6511574706217130
  0.4494524118392276  0.5246088624136189  0.7158906000134264
  0.4875560000542733  0.5753456290782816  0.7208645892187200
  1.0332512232766526 -0.0038805830243217  0.1905835696158719
  0.5339299075923085  0.5949157534263252  0.8829864719302745
  0.6293299589904492  0.7720496228371390  0.7640422374421145
  0.8492956608039847  0.2559631854540320  0.2182741584222648
  0.8471589803156012  0.2412821339597752  0.2806043002834727
  0.2252763985928338  0.1172587817069414  0.9344670976071574
  0.3870089168272327  0.8051051138721097  1.0111355901649777
  0.5353949186568808  0.8477069869395061  0.6605332190458492
  0.8189986962696892  0.5005454017345757  0.4635817910787704
  0.2568072443893841  0.7556778452998000  0.0850452585851790
  0.9038836312679855  0.3038648946521644  0.3975044440837301
  0.3577134786207954  0.1317902901183640  0.9713228949398709
  0.5894436846009483  0.7216172240398091  0.7614027283259227
  0.8224608607083213  0.4349918729980409  0.4819595938940461
  0.7303526561952645  0.6819545126768938  0.9285517068902632
  0.6783218105863201  0.5419256150134936  0.8468384098425283
  0.3069642037837714  0.6267686672224966  0.0217876744460728
  0.1350594906025248  0.5034121691309759  0.3411643977333651
  0.1447282413351447  0.5968804634271524  0.4303265956382542
  0.2892063913341447  0.4726941653544682  0.4031620251260330
  0.2431581709110256  0.4750725074339120  0.4431087910176717
  0.2355423781238394  0.4412390370671495  0.3933013423662995
  0.0481630763125643  0.7209783017657776  0.3615808056268859
  0.3790388145930053  0.3185194552815500  0.3775946669303670
  0.2797237849816691  0.3643568935428659  0.3822734895085846
  0.3762972238753384  0.2714259207776940  0.3350816689463382
  0.2438126199425240  0.5449269239201411  0.4220143019877030
  0.0346117990058250  0.5334260968640748  0.1835633524504061
  0.5762333214321589  0.1465366718511096  0.4411129688885332
  0.4021658920801224  0.0117794513385870  0.1395297987681668
  0.4724115260895761  0.1835041129212603  0.8340755951797134
  0.4466541882771771  0.0891055213327541  0.7858997144246049
  0.2720995584964817  0.9010321335128590  0.3970031439285024
  0.6031740904963455  0.3501622291442191  0.0309293478576023
  0.8393003745183573  0.1346608654129405  0.2539128576119752
  0.7940046152854822  0.3375416219726381  0.4616203114840117
  0.7340688953412222  0.4116568498047020  0.9459916039180831
  0.5246516368395658  0.2087254610655194 -0.0263668730581162
  0.6298860737475905  0.5372492569328176  0.8864274868181400
  0.4591862405200368  0.2478130393327114 -0.0206175807965844
  0.4878383558830207  0.0747733324130370  0.5648358092509718
  0.4987988986030090  0.0747259482293446  0.4780138192970935
  0.5197729357365182  0.1233148684413137  0.5823190227375724
  0.2955880727892676  0.4996335512569248  0.0549372823366623
  0.5714149249304007  0.1615701476609497  0.6486592828373219
  0.5503156123812467  0.2194236543428127  0.6337510749439863
  0.5387324456190836  0.2649050300196748  0.6782752772263672
  0.1962716668605925  0.5501868284594185  0.0648933921739856
  0.5973198382929473  0.2575040811285803  0.6995977652706462
  0.9693580151590941  0.9490562049980571  0.7620999469316397
  0.7896002749620850  0.2695592098231170  0.0271203760569841
  0.6355930497143910  0.3386388826653975  0.8108559114400431