C  Cr Ni
 1.0000000000000000
    38.7210597765861735    0.0000000000000000    0.0000000000000000
     0.0000000000000000   38.7210597765861735    0.0000000000000000
     0.0000000000000000    0.0000000000000000   38.7210597765861735
 C   Cr  Ni 
  50 1596 3725
Direct
  0.2630438225178054  0.0280292196219908  0.5611013983890188
  0.3359938066365109  0.1297582960595887  0.4755791152582127
 -0.0044608616881333  0.8404483723987343  0.4176098251731670
  0.0465216879158369  0.5970660431941215  0.6706171452180251
  0.2201654763588425  0.4279644537845936  0.4404370347699644
  0.6284289555139040  0.3206521963463891  0.0140864735358005
  0.2635828913130672  0.1097411452597694  0.5212530246328591
  0.2402880207148961  0.9567932652594749  0.9205554840105801
  0.4515248983987857  0.2518133735892374  0.6192737906904198
 -0.0111445795268446  0.3828558128510990  0.8949993831660331
  0.8667602815576959  0.7639189154711312  0.0546020325993062
  0.8318433901944556  0.0304154484959115  0.9276990079848597
  0.8573542133264805  0.6354666435911304  0.2336509347120018
  0.8466447752563023  0.8959731427758704  0.5277607294115403
  0.4391019159169931  0.2342502607228530  0.5295707687810148
  0.4412658299115944  0.7124403483177593  0.2409677126182924
  0.7777266531828759  0.9416571111485081  0.8040339315914178
  0.8062163442660369  0.6598474241512409  0.4518549021235747
  1.0147255579994328  0.5207731671017298  0.9089933877538908
  0.2294577377299766  0.2470721083243434  0.0056506325082153
  0.1569070290350501  0.6405035678785964  0.6329390641071109
 -0.0199898065409770  0.4373356480111812  0.9445284991745768
  0.2886323267706903  0.3393001914400335  0.0079653258177204
  0.6093441396546160  0.0537593828546975  0.5573529440392301
  0.4568991893752947  0.3339693117320585  0.0119342196793409
  0.9571759541542060  0.5007765070467197  0.5187623349325298
  1.0047927470569202  0.3678373281548317  0.9670417231287667
 -0.0085603947431206  0.1379832250815328  0.9670018847154505
  0.8157222017177537  0.7109481706462782  1.0242028790656117
  0.2150880923678869  0.6802606618448880  0.6047142266349028
 -0.0376238396490435  0.7839303828641186  0.0886846149659627
  0.7144489396810704  0.5455761972215755  0.4590166162970027
  0.2319069063358427  0.3023634835743343  0.0618815341690492
  0.7551485703017444  0.8984206207175993  0.6156033209723463
  0.5948882539553642  0.5331308281256474  0.4793595057084608
  0.0108078916320774  0.3158472386943141  0.9139546113529446
  1.0556365321440104  0.8456277885004716  0.5503526987075094
  0.4443928525981148  0.0383583292415591  0.4204512392574646
  0.0810993662585596  0.8682885344006281  0.6260012579933344
  1.0220951087762107  0.0496154277397024  0.8584975959156442
 -0.0164634035923239  0.8078992589593142  0.6698516008000479
  0.2372842853098611  0.3565342492069244  0.4677273807898472
  0.2678343958259780  0.0216495649302550  0.8897893255438474
  0.4580008298443045  0.3767817720687849  0.5350418158504292
  0.1177476194088064  0.0495268803154392  0.1743515002859025
  0.5316831172875637  0.2800977652220659  0.9889694223418419
  0.5012204331529978  0.1712071334407348  0.9701325532030495
  0.1850213287814945  0.0784059244905669  0.7291222631932401
 -0.0629265622873604  0.4170952739360042  0.4697823831616412
  0.5651232053564785  0.2018043322801173 -0.0309463826739320
  0.0938922782210752  0.5871577074506352  0.7500249842315995
  0.0252759015933471  0.6025453745604059  0.7166262649870799
  0.0908334516652805  0.5988342456346364  0.6916420923018594
  0.7570614465543261  0.3945376370610813  0.3084593650095385
  0.4355571534189480  0.8030974758021510  0.6389187773458739
  0.1398633498294276  0.7388812436073817  0.7726076050683547
  0.2413578556125649  0.8379609002366322  1.0135351681179383
  0.4105050803580801  0.4741954385185271  0.7125047932826453
  0.8161289273997167  0.4400620429483923  0.2545615755936538
  0.3581700473270907  0.7361626245924489  0.7391045940379463
  0.6651966646213988  0.9871764601888492  0.2460137096871909
  0.7797026152604929  0.7009832376994263  0.4472044190644439
  0.7791973966733092  0.6543438435732410  0.4052733252530443
  0.3369013408371105  0.7609101343636130  0.6152904837473914
  0.4300822389795019  0.7167361867194681  0.8224654754408632
  0.6077316757870257  0.8954984862470337  0.9566506881341300
  0.3744901190235328  0.9583587274063788  0.9768217231249768
  0.4692464292357368  0.7682769445315877  0.8255166983240247
  0.3689598038845955  0.7242183214659176  0.7997143938794968
  0.5090113764611417  0.5509198005186597  0.8445837246234585
  0.7040659336371097  0.3788404715258291  0.2364745486215665
  0.3316146757846716  0.7636576380831221  1.0022547795252781
  0.5629819157821563  0.8871557294530231  0.0030789565022446
  0.4967032702975404  0.8302765236362902  0.7645822964947082
  0.6615615777580297  0.5028894783007636  0.2918897207450406
  0.6648384123855611  0.5496242070423830  0.3368745775734296
  0.6038734071986224  0.5741471948777468  0.9658960816696858
  0.5452102611973899  0.5758802045095606  0.9487442373907434
  0.5643161279522718  0.5963300940271461  0.3439556460792054
  0.3583624655379332  0.6722873281451007  0.1983161518532994
  0.0138315316436139  0.8656599113871999  0.9898128437226265
  0.4114767527818951  0.6558850162728708  0.3907993631850818
  0.9259865717889104  0.5047017811341820  0.2734358302759083
  0.1435518221199337  0.5722290315482224  0.5535974540136143
  0.7011825451366041  0.9294440338982120  0.1731711561465604
  0.3596472061000588  0.8045091927926329  0.9522351075087022
  0.5987181619460239  0.9807356603984172  0.4189179432455727
  0.4987292369948869  0.8625042819873329  0.8708836853534241
  0.8414065574321110  0.7946470974849389  0.2132569615073225
  0.5473770117429820  0.8685212464286129  0.8299626337944330
  0.2592056729301715  0.7568022652600476  0.9202918534515345
  0.5084379390872653  0.8184645173415567  0.8280549156432624
  0.3066039384580014  0.8130205403345618  0.9843605433092869
  0.4369616405706227  0.8363120253424127  0.7436895823011443
  0.7396568054901775  0.7687312100621986  0.5247529556257260
  0.8251340191602238  0.5810670788662392  0.3846016173956303
  0.9638375896837293  0.2444951264280613  0.9320068317252899
  0.0182108846194535  0.9811220152985551  0.3397308305698995
  0.6770714151487740  0.7032175193826775  0.1824533079903878
  0.6250399474337813  0.7365438049138993  0.1555472529708884
  0.1245376608457477  0.2729770845243330  0.9748495345575311
  0.6299409290946598  0.8003389718756673  0.1387547554839594
  0.1536836450220225  0.3243914543625006  0.9866625197468042
  0.0063986118724399  0.3462475353583289  0.6526347070619088
  0.6506748506992561  0.8590829975783745  0.0358846468301051
  0.0323721065915052  0.1866561749647367  0.9079348962300470
  0.3493545672238094  0.6496283478915783  0.9192920106296959
  0.7771597802996701  0.6093894017064809  0.3593216775869780
  0.8493471197407281  0.8719691039778356  0.3670027421607646
  0.0762537763461506  0.0293727401349462  0.9088147319193997
  0.1834685745839982  0.9085136231192827  0.6985371118872464
  0.3983837756939090  0.9672936917534486  0.0936971042006847
  0.4064595931948526  0.6437812706190862  0.9383383149221072
  0.9445878287985326  0.6901626429159661  0.4458796790347617
  0.2135686280855612  0.7834637464889798  0.5105539808185952
  0.7302889517907130  0.7335234402928126  0.1924000571691060
  0.6803387273460447  0.7492014292941210  0.2264826214723580
  0.2757510552705888  0.7695442035884038  0.5929148345834205
  0.2159575419063444  0.7751686153382326  0.5696262337278716
  0.2265996789000734  0.7640304989812767  0.6312694706955095
  0.7271208577899069  0.6408247996464485  0.1029243547022270
  0.7827968125253719  0.0739412958449171  0.7927426469675689
  0.1079143789266719  0.8442152353686528  0.2388068301059728
  0.8388356487666135  0.0820849589660010  0.9362060090780386
  0.6737742970089226  0.0381845563609464  0.7037029030160377
  0.7222920457530442  0.0432954868909845  0.6633175417062667
  0.6499191480189433 -0.0209853688633742  0.5538612385481919
  0.9209444831078998  0.2328144236851157  0.9716863898691600
  0.5168325172573182  0.7148016369208396  0.0134004512399514
  0.3307670737686647  0.6725590386846435  0.7956962853483065
  0.8182364497509601  0.4877698387819954  0.2976783976292067
  0.0394443556086568  0.5964823447720021  0.1655085201371998
  0.1004692055473878  0.7364920225582113  0.2066094637658138
  0.8745950849779675  0.5522277822268983  0.4107769105867893
  0.2273572274982164  0.6296578025771205  0.5089785587758980
  0.9210866260472060  0.4742123629931937  0.3946085600398356
  0.5914400901314861  0.9524878745932395  0.9390596079449672
  0.9720257790024888  0.4579147077253786  0.3619559148676034
  0.4216647096477394  0.1796994098894125  0.3823603032703805
  0.5102069185520813  0.4855582076223492  0.6348690038247407
  0.5968241272367246  0.8731517534999822  0.7885553416857497
  0.2026637019720282  0.6892331186056696  0.1968470163622814
  0.6862261577390379  0.0270086466557470  0.7626711099719056
  0.9230414069193339  0.1891924003967480  0.9281981883302632
  0.6169535852031979  0.0415530989091968  0.0873035211215798
  0.0552991650048022  0.4150145844575509  0.8273511409170851
  0.8645711094052200  0.4102357602012512  0.2832538693215963
  0.8909849841582238  0.2178660305594354  0.0185117702145805
  0.2465113529075608  0.2818879463629685  0.6308955548936358
  0.2205193415944210  0.2525751694147573  0.7935872742797353
  0.4747795498557386  0.9033687863810986  0.2291914761356295
  0.1090899114564585  0.2220945474646261  0.7054839436759576
  0.5316919916139764  0.8735621993629744  0.2565776216764418
  0.2185519687844669  0.2199111908747241  0.6868039130355089
  0.8395390474869417  0.7217103209229416  0.0666996677084415
  0.2306155989986484  0.2412123984888096  0.8531801618418606
  0.0698156442096995  0.1711005743795728  0.7004120904995861
  0.9463122161219860  0.1635643559665095  0.1670750088249322
  0.9505233393450120  0.2094101821205757  0.2133582301213546
  0.0038604533359368  0.0122357681236452  0.7047462401165607
  0.9421161506254845  0.5555070848988196  0.0315861050437455
  0.0613472530915631  0.0485229240754474  0.7728705672662918
  0.8605328401252121  0.9614945488930257  0.4594929629600132
  0.9110478141430174  0.9493443226985729  0.4235977812453674
  0.9566803614703777  0.8576403863460740  0.4568709686279153
  0.1729830643117352  0.9880815069237183  0.5273971946240715
  0.1438156297235000  0.8601539428369945  0.6959752396394159
  0.1812676582434052  0.2357376024843773  0.8926357796288603
  0.2691890122884829  0.2918467872603834  0.8600527293383063
  0.2699919706602000  0.3217066403955540  0.9645769366033132
  0.2291621998506095  0.6945528835371991  0.9777112637493167
  0.2790447468666661  0.5323063702773899  0.7121805430427914
  0.7840940890496213  0.0471665704883955  0.9418263867988287
  0.9199572432757515  0.4411859332144883  0.2929769514579059
  0.8932907129034816  0.7499855132351602  0.3000024067538732
  0.9093378221308095  0.3326336739354746  0.2711861411669602
  0.9585260965547759  0.3030455082419002  0.3002072807134942
  0.9533997501707541  0.2565108720233711  0.2581547016088904
  0.8971878260786763  0.8125256156662719  0.2842234756244011
  0.0918701651890541  0.8206770893360570  0.6304379174113912
  0.5522807874679126  0.9861768717329126  0.7488678848900505
  0.4920314769867438  0.9923239327142984  0.7264850235815440
  0.7211985657507169  0.5961155069678842  0.2876501383262957
  0.1105856780396731  0.0910556357518221  0.8464293594961094
  0.0727790012395822  0.0415975409073301  0.8429626927047617
 -0.0256357180375189  0.0444958175769649  0.5858955805044670
  0.0501892447854431  0.8067030359493356  0.5809305799194856
  0.9869002476596639  0.8587646971560560  0.6627259384467477
  0.9589745404121344  0.7636459337909202  0.7114047204154338
  0.3310595137373226  0.3127203943660508  1.0003272613285272
  0.0698918001780715  0.5233221215901570  0.8118068925103059
  0.8174715289794980  0.4546564626077961  0.1936609909057939
  0.8677832623594317  0.4236638146426177  0.2229134165072455
  0.1122928139381778  0.9629042214746431  0.5219395557031187
  0.7827595829043184  0.7180153995276212  0.1569532307497627
  0.4723627304827096  0.8533528685396276  0.6394520051658911
 -0.0045708151183110  0.7388748542155651  0.1678192937133838
  0.2705421390912982  0.6480026308180789  0.6664928061725588
  0.3957124994784810  0.9861790127686335  0.0287069611798169
  0.6983677257997311  0.9190718692362885  0.4704933108073626
  0.1466674266468601  0.5283469864059348  0.5072215264808354
  0.3286896200416023  0.8696002210828389  0.8682052895487832
  0.4920987106449558  0.8118671306782421  1.0490204615057808
  0.0615636728996838  0.6385853506010302  0.7580895173321871
  0.8413442663293857  0.7264010228507345  0.4599746356706387
  0.1218672644691143  0.6190120845085221  0.5870165933364085
  0.1040501757831199  0.7070262783552715  0.4970564098013864
  0.4956953087091268  0.8738184756345319  0.0365602841005613
  0.4391954109151754  0.8710550209967128  0.1318921283088651
  0.3008574644218514  0.5075057332763050  0.8355086023809546
  0.4411011317109880  0.8871770244738085  0.0724555051334037
  0.3274890368095733  0.5709401189686395  0.7766166433132877
  0.2849788952938037  0.9825346070906782  0.8304571044432039
  0.2299001381515616  0.5263062494372170  0.7527484657518989
  0.7951408831733300  0.8050952413428883  0.4827922535913346
  0.9814100093509160  0.5534285930911659  0.4468316359394117
  0.6351956042707837  0.2253970265634375  0.2650531269801921
  0.0942806888729696  0.3980469208941027  0.6198180477169015
  0.6838986365853733  0.8447948213678267  0.0894152217908203
  0.3949182638509987  0.9816773714524869  0.8106460815186826
  0.6331374817430281  0.8598559043557241  0.1231399667175232
  0.0562367338070215  0.3502642843592726  0.6125129752841122
  0.6846387070918579  0.7957503122617491  0.2727812297874550
  0.6600818541043456  0.9504231051511133  0.1332919141246444
  0.4645218913635329  0.6777120690392850  1.0063614347372558
  0.3493756595490168  0.9979910138874324  0.0671469360781396
  0.3351149391994538  0.6990964631813530  0.9635819851960551
  0.5016395593376997  0.9131778605522073  0.5772325079004693
  0.6787143057421594  0.3251983898925996  0.5998138733886962
  0.6987046400350309  0.2661088616192051  0.6194874918649779
  0.9838805407171528  0.6083992889412273  0.9713417889450829
  0.3952530560249969  0.4552976238422583  0.2747595118291492
  0.8768118400057623  0.0235497546744413  0.9546490824316165
  0.8278399464356265  0.5563125647258054  0.7264463399030878
  0.3676959845221690  0.5586670563209869  0.5704313180339053
  0.9408930102667830  0.8231138513981757  0.1175496375116792
  0.9045895962716379  0.8868692896688820  0.4383926691615547
  0.1487176777660300  0.5915741450337896  0.9724940218118919
  0.2119974014451392  0.8289730024532722  0.3358708836732532
  0.5318345495133056  0.8588701058627735  0.3170968922074936
  0.9823820627481578  0.5658321372644864  0.3859856356779152
  0.3177447577697546  0.7549900914244465  0.9413918537947354
  0.9891368787613096  0.6287202805059846  0.3673896396480552
  0.2758005967310558  0.7407715197445911  0.9831437944087220
  0.3253707264762972  0.8047758645643738  0.6560052862122074
  0.3390411023246111  0.7076795499797139  1.0194410295196006
  0.8894415975780163  0.5488204664930795  0.7484732968650952
  0.9190012586582309  0.4616687624980438  0.4521790221649911
  0.2086625968502919  0.3270720916123280  0.9572322127313914
  0.8437111293421941  0.1517592862586010  0.4197785525162501
  0.7573101580577881  0.2914216324350776  0.7465259604148957
  0.6976868223124413  0.2979901091737417  0.7252836158422618
  0.2259008771367779  0.9676774543558887  0.4799532305349334
  0.6365379371030748  0.3068200739826937  0.7026839537940598
  0.5881050887911036  0.2684978708814919  0.6360831776115835
  0.8706812485273583  0.0727035349615969  0.4852643671418667
  0.6405657117060886  0.2727542478102353  0.5969399246349967
  0.5797339415450303  0.2823744435504101  0.5748056198009411
  0.5623051664559059  0.5708991285148561  0.4689691862440512
  0.8614325944686662  0.6248426568232062  0.9256973373461634
  0.6598570369613733  0.4553352940912562  0.4781477756922300
  0.9159909146397417  0.5161342795935453  0.9303611226560098
  0.8580731086232353  0.5211550694167751  0.9086241093978571
  0.8523980728356987  0.1401187605870836  0.4778667566375363
  0.6949223671755237  0.3357168965280721  0.4240915524304704
  0.9264226919373758  0.6804982613986442  0.6039536627315272
  0.9500334392840126  0.7738116975246483  0.6508339303515467
  0.7371788798654889  0.4310751716723030  0.5595101150707485
  0.6510914538127502  0.3876274193212567  0.5087192372412986
  0.9909119258000013  0.7267296111482936  0.8957238141708092
  0.9519677702419459  0.6772555879015100  0.8925049946055603
  0.4605980254237028  0.6261196888230893  0.4154882603328878
  0.5101176976713778  0.5937849990199882  0.4406347262540046
  0.5068178035094685  0.5500460155845406  0.3964132502595463
  0.5514293239725137  0.5071579760782328  0.4807366469848889
  0.8453956128056889  0.6130524502997762  0.7003233046296006
  0.2694776064463111  0.8855261013357590  0.4588973175663911
  0.8189047153654597  0.5697048897919140  0.6661314408699081
  0.5942480745573446  0.3812773563260953  0.4286103384705158
  0.6377370376487047  0.2565985874142703  0.3713110679494429
  0.9308170339372644  0.7005378320385837  0.7698091562223561
  0.6840519507151654  0.1799853217358258  0.3537328215373200
  0.8746083210144078  0.6745341798711594  0.6432610190987764
  0.8965755231795424  0.6182389154094272  0.6591804818550395
  0.8293415014590184  0.0594408519911577  0.3371905411305052
  0.7802785519233721  0.0911471806024926  0.3078579824252163
  0.7317669886044008  0.1068420808841332  0.3399079858435137
  0.6025598200263117  0.4431088964709609  0.4040947028409013
  0.6886745445368044  0.2718832066633102  0.4424874200142155
  0.7422877455806489  0.2562350179901998  0.4106981001375704
  0.7926095677414410  0.2289022164696585  0.4368943323623831
  0.3532962668839861  0.5951419243136727  0.2753184417538960
  0.9038068747014180  0.3714224708324438  0.8420563424119835
  0.4005432112856664  0.5179604769256746  0.2570594827477513
  0.8060747098390676  0.3287866665503226  0.8152398341975807
  0.3520707089044002  0.5804479871992151  0.3347696930277815
  0.8562263031526728  0.3333261719276619  0.7736463417902187
  0.8065725472627133  0.2965413871973369  0.7080763827386579
  0.8221706251723064  0.4826345387309922  0.0712047182591433
  0.9221209996893404  0.4212643521270563  0.1286716647953080
  0.8538701555383630  0.3666695762403952  0.8807428786394748
  0.7576677482779770  0.2594847837471714  0.6399888953799910
  0.6511187947623402  0.2252043712197711  0.5523617539346050
  0.6672746903723368  0.1685802613165192  0.5670354098995382
  0.4453858385741131  0.4246759211673570  0.3024560734861751
  0.4922218850909165  0.3621018199212257  0.2236997328079445
  0.9994239664622103  0.4694848226588773  0.9123807678865214
  0.9304208862912238  0.4696802862656416  0.8877930456843872
  0.9659566868884095  0.5185717112271674  0.8923720884830907
  0.5372492464865039  0.2850134938413683  0.2091844213733344
  0.7301038905173037  0.1957619570965313  0.6980966437562589
  0.6587774349197438  0.2149147635597781  0.6143083105912416
  0.9140578247050081  0.3591904625415907  0.9030677930635682
  0.3054359221151796  0.6562309602547550  0.3548644604009519
  0.9640491840847638  0.4001519850482571  0.9737195519167059
  0.7749693280616196  0.3986170286422718  0.7367253113688036
  0.7890959123587142  0.1844686439256906  0.3932125284407020
  0.7260449546707134  0.3617504925084204  0.6675883665589489
  0.6683334042101142  0.3691425124551557  0.6430005919164161
  0.7175930519793462  0.3757720224035970  0.6011966476686594
  0.1590530940880066  0.2593482418850534  0.7702193327848685
  0.8199051628732987  0.5000445896370240  0.0112563576338344
  0.9173519834182395  0.0115243676030992  0.4093817527649029
  0.9342318514241732  0.5697314262798935  0.9066760471411869
  0.3240087946327283  0.8507617070636734  0.4778023515371305
  0.8984963242022247  0.5370497473293090  0.8080816683075317
  0.2708974663561038  0.8173565365074740  0.4756980179654742
  0.3109470399678646  0.7178362194325036  0.3395202073681263
  0.8832139612439839  0.4289638431658894  0.8239344541848999
  0.6695495495891428  0.2035890633109092  0.6758728732359927
  0.2641674780327499  0.7943185931436499  0.3632913087809794
  0.6308470279881569  0.1532863181556985  0.6704770892661996
  0.6188552930436108  0.1643840272587060  0.6064517043861678
  0.2090159616692075  0.7665722158633291  0.3491650007796376
  0.6081891991993063  0.1342973147189237  0.4933708449771571
  0.5635869251891155  0.0750202855923875  0.5489410821796068
  0.6673583890481800  0.4986223183642101  0.5197989859892717
  0.7508713251634587  0.2721031452890168  0.5782480855861356
  0.6915584129075137  0.4294790732379624  0.5975558403553677
  0.7911318477003377  0.5066893916574400  0.7234253432981687
  0.9862303261240888  0.3019806694708785  0.8748796469225171
  0.3781611907813933  0.2698293207216637  0.1072897817404892
  0.8850753921713103  0.3957833467927862  0.7178433454772236
  0.9381370645643001  0.4524794462348714  0.5092249915563085
  0.2424218371176428  0.4678892843945296  0.0467062497527553
  0.8719315962688640 -0.0387425093712517  0.9762691915505343
  0.1600709614771357  0.2921679114130080  0.8767678042670056
  0.9781881096573835  0.1870664678926534  0.9508045002644766
  0.9346406945486656  0.1456681833243375  0.8870337753302036
  0.7891480186183962  0.0997031303457429  0.9031954574441393
  0.9943516802615578  0.1372983185009885  0.9119849916898612
  0.9403838232854039  0.1010223406696772  0.8419757972395060
  0.8482198993380354  0.0525133140897074  0.8834744710561828
  0.4165529036117188  0.1518846215355880  0.0381230574697260
  0.4123790281608530  0.1073840321195015 -0.0073469965976688
  0.4598722568910891  0.0677301620000563  0.0210235109418087
  0.9426176325823939  0.7675792138769205  0.1378945660406846
  0.8370814656801470  0.0324949910619286  0.7104009956011147
 -0.0039865391208480  0.7510676881224405  0.1097689596273664
  0.0224423124329874  0.2003808292110338  0.8470211740310410
  0.3631741765167654  0.2452583330426646  0.0017369983660236
  0.9709849466594895  0.1632172466091657  0.7831103019081063
  0.1703910372845663  0.6991158037901521  0.9558837142325043
  0.5323889798986400  0.2402563193783392  0.1671214664678503
  0.9931836161347570  0.5612970861551850  0.9316013608120453
  0.0670879275783842  0.9501513676069380  0.3654396239431817
  0.9616985052219624  0.4941307742973656  0.7292865661140082
  0.9224515138604196  0.4453079246792072  0.7222622549135170
  0.1116944667702893  0.8729464155954724  0.3468666963352457
  0.8750693146352412  0.4094764688896068  0.6553799736900312
  0.8148212804823514  0.4170838991257880  0.6350437447736630
  0.8640473448616621  0.4215491820516643  0.5973818588309556
  0.7679832267066643  0.3795121978471926  0.5601576651340323
  0.9032176565322482  0.8088803955413745  0.5115026066770892
  0.8612358108168929  0.6834190738023826  0.0234487457761170
  0.9308114383220352  0.5672673695972430  0.6512060376688016
  0.2996802330109772  0.5799899538804705  0.2046222044669906
  0.8519366745023820  0.4352045199087701  0.5363299265261523
  0.9575102863768328  0.6101418286774434  0.6852986396142918
  0.9203206494144515  0.5790352927181159  0.5907497544692298
  0.3921580359402152  0.4091381106984264  0.2336827086814621
  0.9733191033491899  0.5868598092053137  0.5525931953552066
  0.4399559092564705  0.3465912733438137  0.1549022869029219
  0.9515674880072239  0.6742262567726152  0.5090478786523361
  0.2018774073144874  0.6736161202365709  0.2567665603238907
  0.9314492576539303  0.1153722720274285  0.7790604448524283
  0.8603665349638208  0.1374506526851831  0.6970967177776590
  0.8198728254710712  0.0894493363613664  0.6912894519252192
  0.9435508248283309  0.3862955302034632  0.7382192150064587
  0.9672681573168770  0.3308670328398103  0.7543635876365757
  0.9060216505145926  0.3377186260330073  0.7342304047995695
  0.5614154895503985  0.0129940254295912  0.0774465288181797
  0.9171396042088118  0.2923076820219093  0.6894742525705208
  0.8571177111675892  0.3012928121940631  0.6677296464147949
  0.8480903753607231  0.3149876125263645  0.6072417627609284
  0.2049052425845615  0.7193320570485469  0.3038608357851875
  0.8158954324431322  0.2180678319103219  0.5590013214261409
  0.0058643331018755  0.3795337341745503  0.7593986639660305
  0.7554395805336926  0.2302567019349401  0.5354832516387593
  0.0481390393740756  0.7216415312848256  0.1361256968623473
  0.9461452538107729  0.3551322507364243  0.6306173556042166
  0.1499573507170408  0.6752951606231883  0.1253683105496318
  0.9935428855752636  0.3729243979833221  0.5286929468043559
  0.8428035042700627  0.3267958020224007  0.5460454627099126
  0.8530901889620583  0.2508396617512149  0.5055785424658127
  0.5807493188126617  0.2094430848976379  0.1938066902275248
  0.9338235869813569  0.4333461915137737  0.7832070269325414
  0.5392958238237890  0.3503104252523984  0.4229035148191114
  0.9840062864295099  0.4374678570692817  0.7453240599751011
  0.0267579160784485  0.3531486487375413  0.8811152695993335
  0.7125425469553019  0.1425157729895476  0.5337256704886049
  0.5177643332546190  0.0862323800278589  0.0960355338337323
  0.2061704403999458  0.4811211200850945 -0.0272894372759572
  0.7630124100053841  0.0524263062089437  0.5610701420828258
  0.1893407699572708  0.4392401866829316  0.0368048580515621
  0.2437093623152409  0.3611980876747800  0.0150535176785640
  0.9395231413010825  0.2352452405875557  0.7058484048399689
  0.6559810503414034  0.1668292670419450  0.5036233893945792
  0.7088863729160333  0.1502194748978800  0.4707089427448672
  0.8473099207794330  0.1488367009054351  0.6358645095416811
  0.8187482414341741  0.0902651352220671  0.5058447437425989
  0.1873691213519113  0.4235775583965976  0.0992136275881876
  0.1983542778824560  0.5980514591075982  0.1035651785837722
  0.4772590153470476  0.2242242243020382  0.0976371801309891
  0.9510798564507806  0.4770883105018102  0.5656588716499481
  0.8796033617143002  0.2759248389662099  0.7912036407893610
  0.4709020472476723  0.1774264142029992  0.0562716083321719
  0.8385502424783847  0.1942113237829256  0.6810346440643956
  0.5223020199652237  0.1465294940903524  0.0797270586788508
  0.7683746299072524  0.2141461042632146  0.5967743404780178
  0.4715151121589096  0.1628871218308631  0.1144716174076054
  0.7405259260212992  0.1501768452765627  0.6529373423057414
  0.5685958196915368  0.0720354625363440  0.0591682514221363
  0.7923212726686200  0.4745842608306933  0.6204868316791904
  0.8730561814522242  0.5198070145633800  0.3071502234898154
  0.6013500493284659  0.9561782296264658  0.6032974122929379
  0.5651618294699355  0.9747429944102644  0.8138123625870366
  0.9107126003551539  0.7737485782071035  0.0797901943275042
  0.8929131893766016  0.1477969090898317  0.0952529023285075
  0.1977344465335031  0.9262622641288998  0.8661629677064249
  0.3063424364072747  0.5098003688699578  0.5100431921480797
  0.8164085626683899  0.9537114078440504  0.0736458439453802
  0.9464866978768581  0.1772614311795178  0.1037230963951476
  0.4358846501110568  0.8260392259730764  0.0855615042257359
  0.1098571175554695  0.8723777763145605  0.9051109643208072
  0.4165626833337681  0.7861525610760384  0.1279484947079776
  0.2819097298643313  0.4315369982398608  0.9534615827136387
  0.1849594814026733  0.3859411004190470  0.9313344124956526
  0.8405616634477506  0.5126991639009360  0.6851628100540721
  0.8547761059316157  0.3174484192638193  0.1993925680269501
  0.9410598180280142  0.7055418175360784  0.1555809694201150
  0.0743728351217903  0.8520120106207927  1.0124104665361768
  0.0947172096459784  0.8154405002318529  0.5333016072501344
  0.6708872546396526  0.6111648853217432  0.3212638060558167
  0.4098010046164494  0.7068399304620259  0.5957121270583375
  0.2480625924207310  0.7695116553114498  0.8583827831241191
  0.0069347613092663  0.6163930398567407  0.6497387370826010
  0.8367730251426125  0.6867286189356606  0.4155809430601243
  0.4307153901483372  0.6841419359566735  0.7165203289230911
  0.0903667411869910  0.7006096177853912  0.7070131212567102
  0.1424166474883469  0.4040819788598951  0.5779235606247242
  0.2942908195871382  0.9736005679394684  0.8969133537478036
  0.9791037685513893  0.4677422157297537  0.0741778962244421
  0.4082562457303585  0.9710610307981595  0.8741001914341368
  0.3592203281879593  0.9658828015012322  0.9158936515728914
  0.3917443966331315  0.9292762520608451  0.0469252910550618
  0.8052018529748722  0.9310742592666522  0.4485143487314846
  0.3843010191495292  1.0128274425419876  0.9536498801064194
  0.7918416332270030  0.8101100751462577  0.2463825180713824
  0.7880875992064845  0.8245406188298885  0.1859031277525487
  0.9877957611449534  0.6118284779436061  0.2010122996439906
  0.8375592332301677  0.7187801291459401  0.2897955517600992
  0.7854809652340523  0.7164104029123758  0.3876526413742470
  0.8070056115132299  0.6592551037454325  0.0105711232866284
  0.4943806026456952  0.8563015374286979  0.0955642417003863
  0.8403733163133636  0.2271113650801354  0.7864705246992125
  0.6254904292550697  0.6649143834035242  0.0082637698212720
  0.7905764674381811  0.1893709009182157  0.7199304722475616
  0.2480986248526254  0.5639968123503074  0.1361963949800163
  0.8630951556207224  0.1703838525123572  0.8035246326113796
  0.2460763936350043  0.5490066106503722  0.1951430950884039
  0.7991007872544228  0.1440827820813761  0.6743031139877310
  0.3455358395777972  0.4536140017977312  0.1433772804285968
  0.7515147087758367  0.1057250940398910  0.5967418453152529
  0.2936957926904988  0.4373925199614789  0.0739868799707669
  0.8527162671183163  0.2140832814809553  0.8466662586569259
  0.6653544621026316  0.1091520936359515  0.5158807600559620