C  Cr Ni
 1.0000000000000000
    38.7210597765861735    0.0000000000000000    0.0000000000000000
     0.0000000000000000   38.7210597765861735    0.0000000000000000
     0.0000000000000000    0.0000000000000000   38.7210597765861735
 C   Cr  Ni 
  50 1596 3725
Direct
  1.0100129501223480  0.1643200205532053  0.8801870359217764
  0.9971176023289374  0.1398141279204410  0.9730731709577954
  0.3428137800670579  0.5496317797236003  0.0143932971748588
  0.8191694247612284  0.7731006376104738  0.9838862660552808
  0.9848002101848209  0.7984409066339868  0.0999950898380049
  0.7080027380517301  0.8944455444862290  0.5843109218377549
  0.7154854873480792  0.7778375550419897  1.0037345971922744
  0.1146339866507719  0.3921931278246801  0.5299619749761284
  0.5975830995505942  0.5336683832270669  0.4790409735721444
  0.2782865480272659  0.9204642976407383  0.4862014605490108
  1.0292018651427828  0.8946003486303983  0.5253251488734793
  0.7956754149871805  0.9427986529731996  0.6100014009626930
  0.7041869896309368  0.3122541182632884  0.5250019553448769
  0.4803136317707771  0.5249952292784130  0.1946068010196619
 -0.0312802732263495  0.8379228327818364  0.5749882366163976
  0.2716526763027945  0.0970584534741024  0.4728666081311700
  0.4083304191348260  0.8842624625116547  0.0342704753378865
 -0.0340190241382997  0.4228736721200031  0.5331904153821734
  0.2309722529510417  0.1307077210843201  0.9186991289056240
 -0.0145178965145634  0.8123123316540596  0.6662446119822011
  0.5015305864115366  0.1788494388593515  0.9418943880597049
  0.1586538973681649  0.9605841942764807  0.5027305877605737
  0.5116519100212018  0.2560397536420863 -0.0030426284930800
  0.8655294802204201  0.0348200649209567  0.0253765041612919
  0.6124547350551250  0.0443153010356506  0.5627435819220982
  0.5374339331981632  0.0430682618095079  0.5557553415388448
  0.8043911114119592  0.4159643631953692  0.5277383235255534
  0.6288669575653969  0.4115406459665373  0.1028821439390379
  0.2547387051737539  0.8235305784057704  0.5212003735144577
  0.7807246703233718 -0.0043557301811578  0.6604842838349277
  0.2581954366793744  0.4475328008103370  0.4471068177583502
  0.6838525863329395  0.3305014458956863  0.0903926330995172
  0.0791140264775429  0.0993130796646608  0.5620900637646052
  0.4781237869759056  0.0697754664667520  0.5963938389452071
  0.3316386921843859  0.0246569916923199  0.4505602951583189
  1.0058202294225504  0.3683096576547021  0.9628583493267560
  0.0919676069125427  0.9505490782750078  0.5872132600792803
  1.0246787171419760  0.3916525500230217  0.5014738140251881
  0.0607250885911591  0.9603330820561456  0.5174394330248238
  0.8046770315354180  0.9447037948597520  0.5336450673197819
  0.7414957504181616  0.9753025942692434  0.5640183566431638
  0.5202994832554662  0.5408861274250476  0.0173724920666191
  1.0390629799107873  0.6558447068755204  0.7207733695876327
  0.2399085573530663  0.1665074166605531  0.9966962659166657
  1.0115605946637007  0.5175716878656459  0.9138362647344603
  0.4507874683696221  0.5550876525553735  0.9874576337903336
  0.1607720073816423  0.6440257236252827  0.6346400953347308
  1.0463394854418100  0.4589265232447282 -0.0120357952135351
  0.0431616954021589  0.4957899206726342  0.9068172555871084
  0.9558044635551993  0.9440795617022584  0.5395577660275657
  0.6574254436684870  0.4403348773176901  0.3111993595290701
  0.5213349368970456  0.1869985349837374  0.7959152313448180
  0.4832824347078987  0.1384601235381627  0.7902027253605305
  0.9685295622688070  0.9388476874925525  0.7516449648031954
  0.3937817707714996  0.0508381242582766  0.7222469234313595
  0.9403413232740677  0.0849860887905756  0.2453267485821103
  0.2743280213568514  0.9476909155944047  0.4404841812009590
  0.8252088188731713  0.3009060771751355  0.0123816586337675
  0.6567484994846730  0.2822373605678700  0.8297331244587836
  0.1601106928062418  0.8440416193866177  0.3716041603606640
  0.7334614414601900  0.1315313922555952  0.2160826470022919
  0.4265351367527053  0.2335227915376574  0.5884706142615954
  0.4255920470301381  0.1930933835661407  0.5451812017317711
  0.5959387061908140  0.3224644258842622  0.9139953487011667
  0.3227278854555578  0.8695462667029196  0.4147987915192831
  0.6507538072684205  0.3783766745073337  0.3319198997565674
  0.8564635978219306  0.9425630422324663  0.5352090281900445
  0.6508595015890372  0.4118165856909306  0.4334992643250760
  0.5553012239263702  0.3710791562164332  0.6643435216343033
  0.6100387123015313  0.5296967368329958  0.6590002576309272
  0.0304309238526182  0.0702160820072977  0.4307236540234510
  0.5790061789303877  0.2165716784885216  0.9441093915562643
  0.7169545415071583  0.9442773551388209  0.6504645270109228
  0.8471352891174468  0.2244873618692240  0.3424728364563491
  0.9277119098376108  0.1029883457441786  0.5044807209935815
  0.6839597962846756  0.6117045659047746  0.7592063011631012
  0.6575154862996349  0.5670530920406386  0.7226283129332569
  0.4381501112326664  0.2201686655435657  0.6506144907477160
  0.6340494982680255  0.6060538746714762  0.7993611569049477
  0.7326911200309094  0.6507988254966630  0.8251460477056640
  0.8013871276588572  0.2739465152353354  0.5403581771134399
  0.8973928584615711  0.2887042658476363  0.4610427283535462
  0.7939386763770795  0.3377902257344715  0.4598039239119642
  0.7112311954833770  0.7081156560555049  0.8055984198953869
  0.7706080514151999  0.4505733693298616  0.5162510762869398
  0.5714040850135276  0.6097793611454326  0.5171500115717019
  0.0106338207703204  0.9687543547457426  0.6564052797001132
  0.6733592813730203  0.4872832842179902  0.5796557211235537
  0.5932587724421570  0.1712416940285933  0.8795075795128146
  0.4834927249914531  0.1713573829397280  0.8944321867720563
  0.4800527695897043  0.0200722941171192  0.8680575077065678
  0.7415837002515258  0.2255350923722867  0.3052701251625564
  0.3348510491309931  0.0903598412000270  0.8058504615346270
  0.4177024171060230  0.0263916313359791  0.8469505355432759
  0.8430767790396041  0.1783738073589053  0.2987785191164788
  0.5703041451767242  0.1534762958387647  0.9839880450800591
  0.8279135002637775  0.0267292764596331  0.2272484349808302
  0.9451458130880156  0.0978329747687935  0.4130438830524161
  0.6826964501371909  0.7438172671820592  0.4606558467363622
  0.7589929945698124  0.7450664433840978  0.8724379452351493
  0.5680930229036087  0.6304838517303855  0.4510892167509655
  0.6930051153075126  0.2690147093097193  0.2155808909053371
  0.5990836012385747  0.2893003611777306  0.8075107513413494
  0.5258580514528486  0.3418010531409397  0.8300330596679861
  0.5825511310573078  0.1493143123886483  0.7104541747986362
  0.4830606981558058  0.1056402007218891  0.6822471272254031
  0.4716152853876514  0.1167114691920148  0.6178348492280707
  0.9383352264434638  0.7171258326040346  0.0982450438058449
  0.0121156137175854  0.8696681774020689  0.9918064165815712
  0.1068012533207028  0.8590346864328564  0.1754970146220823
  0.8850325118757437  0.4558656186515087  0.9857276971044421
  0.1452159026759070  0.7586612159023192  0.0446343711281028
  0.7131930605567135  0.9555523472774332  0.0365878522708924
  0.0636200802917031  0.9164898891055614  0.4932747290020050
  0.5035217540422534 -0.0032248190369996  1.0013866399545692
  0.2508041731014267  0.6255258904546735  0.1171130421069162
  0.8493404893918018  0.7685598285029915  0.7301916656773308
  0.7519641979344499  0.7247304139216276  0.7042276399234126
  0.6921475648868578  0.7312256272623069  0.6806860030465911
  0.8463958449531668  0.2584159447780741  0.4488660023646083
  0.6894313027026110  0.7632598187151423  0.7862931968725924
  0.2724536526376544  0.9162395426458881  0.3282711266507401
  0.2172518939439471  0.9036619198388272  0.2569529377611983
  0.6614421939750686  0.4342410677428326  0.8612473782482880
  0.6037540154701058  0.4085689280027955  0.7344447176055482
  0.9201586272984889  0.0124728240779782  0.5789362186115229
  0.2667073886701740  0.8555812924821643  0.3461900662682377
  0.4562896568551902  0.3271236446867921  0.6383446187081498
  0.5655006705483742  0.3261564157876948  0.6195787846899165
  0.3137685010743962  0.7949379706886047  0.2624608603343682
  0.3598482707494982  0.7200241818958363  0.2430676912589227
  0.4887245886703062  0.2583829051419460  0.7167551870359471
  0.4671376972095326  0.7040156237373554  0.3372386335637374
  0.6196585564201988  0.6131734877367018  0.4166674793927668
  0.4209192008053259  0.7655667493907979  0.4180900409633436
  0.7990532293119603  0.9767110974733501  0.5680647392951506
  0.3181520738485307  0.8255935536874398  0.3708133287097352
  0.5689187736107164  0.2263378127707626  0.8679635214171956
  0.3224304666708959  0.0687355477037727  0.6369251916311285
  0.9001608396172440  0.2406142531428423  0.4168744366441966
  0.5737187509626694  0.6883905045002190  0.4350087986928981
  0.8519902258319669  0.8166793959204843  0.0057544135952987
  0.8670731907156302  0.7761746473661943  0.9583141199106889
  0.5256242910611094  0.7603592783489833  0.4578902346365250
  0.3911579701176915  0.9149142787434527  0.5994194169636488
  0.5884921805733667  0.5485582146840400  0.5297053795670134
  0.7347504379317851  0.7185421970077429  0.4809594814420555
  0.5229167983047464  0.3735733411936119  0.9368660772378897
  0.8542180709346107  0.8745029217435366  0.5451438849614060
  0.3992027333761002  0.4385423244469444  0.1069929751825392
  0.7278965021338510  0.1934649073166600  0.9736159081236561
  0.6935578091309542  0.2135144575434359  0.9097395068613320
  0.3525238476316848  0.5338295087169830  0.0651931592265166
  0.4762848368181257  0.9188472385481117  0.8514474214409206
  0.5282180938282051  0.0247134359065867  0.8266009394815222
  0.5391421525367552  0.0137751902665857  0.8918079491669483
  0.5272326227379524  0.0603263333690184  0.9328973827949818
  0.6281273033927872  0.0685960520910015  0.8550610318616697
  0.6987642946358251  0.3473408300211971  0.3601176812209990
  0.8772595246584947  0.8628792539261926  0.7765722653867632
  0.8336400846365222  0.9876412434363190  0.6771159805350403
  0.3405411708915930  1.0196757362317233  0.4986583825854558
  0.8977757252806580 -0.0191398773052963  0.6950152640902734
  0.4675614557019208  0.6885995104966792  0.3965397917958893
  0.6386965856222945  0.7587995530584506  0.5480808333190748
  0.7496182209293030  0.8698589015679049  0.5630847475025830
  0.4246549513491649  0.8275446218649658  0.4032624826761130
  0.7492030117907208  0.8904065168947650  0.6672221202102478
  0.4230551575706166  0.7907240483177493  0.5240170195191426
  0.8088573542196459  0.8841069876925032  0.6895631005698089
  0.4710311080480978  0.3669176092113199  0.9766306150571398
  0.5390938589355034  0.2639601793488172  0.0400087805055284
  0.4919248088299360  0.0587668367860991  0.6445934664182050
  0.3994628683238691  0.3916485536693753  0.0611940120929576
  0.3540437515329299  0.0420321473837037  0.1104036893763471
  0.2047978911909755  0.1489889161157639  0.9663906085521303
  0.9821279813631821  0.5129057151097923  0.1158750838307308
  0.0816715292675505  0.4053760042740559  0.1259888286523969
  0.2504467621213777  0.2948544855898738  0.0204032678711315
  0.0274605096783668  0.3767551856391470  0.1199828260071472
  0.1694145703994091  0.2845959143119186  0.2035351047018438
  0.1345224154663044  0.3434543130522942  0.0453387362594732
  0.2983373253052341  0.1255101881938469  0.6196173826393313
  0.4359695420947280  0.0752146251602111  0.5679190579750891
  0.2980298372098913  0.1028696341736846  0.5139501177770880
  0.5067107015639916  0.0817922614614231  0.8079043895227274
  0.4800900031389874  0.6633139438565260  0.5160997245083776
  0.7940292927082715  0.7228841284676454  0.9998824376351451
  0.5247193188812614  0.2630269810338624  0.5042733242986875
  0.4114386792067726  0.2479875988641816  0.5240744831445440
  0.4682393292685014  0.0180881445245869  0.5971771464329592
  0.5994354591920564  0.0614432898508345  0.6136369266050382
  0.4953515589518435  0.3060412848428813  0.0006166074018941
  0.4077443844331711  0.2807244611797698  0.0207866647365542
  0.5543445056898747  0.0868801392329171  0.7692844680999299
  0.3270927251620854  0.9151808711536619  0.4732328531778238
  0.9057079726124569  0.9400434391470065  0.6563405319706810
  0.8649550772305300  0.9064278334553156  0.8183027434455028
  0.4576127679830119  0.4255036517326840  0.0138429747561365
  0.9720602414025354  0.0220578430853469  0.4822667053654128
  0.6278527538306493  0.1630047210326422  0.0569435019474870
  0.8252056169138088  0.1554424580579583  0.9053965821146782
  0.6246568484407197  0.2483015638293516  0.9885480927730143
  0.4769942158758896  0.2359338492320540  0.5484707349572333
  0.2567038145728576  0.7369181472141212  0.1445472349851067
  0.1029215088855661  0.7985135979156459  0.1899464885725713
  0.2129828769218167  0.8421062998083605  0.2723484887171629
  0.1632579206252164  0.8750040543414197  0.2464642342095744
  0.0615177013135587  0.9213521026356395  0.2568911793278966
  0.7718261569578007  0.0120972697717977  0.1526808693699438
  0.0950231216100539  0.6593155318374656  0.0530329271793990
  0.2550812783256275  0.5861818489049136  0.0124252133828499
  0.7678302592972079  0.2802675376659056  0.8111138268338827
  0.7193054703328496  0.2425524626619920  0.7462820264831181
  0.9582478630591863  0.9394804126880824  0.5881727192149349
  0.0432491503919057  1.0320413689198862  0.6077975783163886
  0.9086850121519886  0.9112952198369101  0.5497300774908955
  0.4561389231054103  0.5367113853016650  0.0921811073014770
  0.6303121032108959  0.5041207794919741  0.7822493549260084
  0.6087732231766847  0.4544317725188825  0.1189166968497191
  0.0818783766683607  0.0138079071152749  0.5152036270770251
  0.5087215750138490  0.5157335451215551  0.0653154058737867
  0.8955743999955820  0.1477743251727606  0.3261370911289485
  0.4993744068577190  0.2763988885319215  0.8863232421236577
  0.7063125271913752  0.3549279807674602  0.0032106584608522
  0.9933563437605109  0.1044347317154956  0.8005159102117942
  0.3305607674026036  0.2544709684202041  0.7746709008974064
  0.3900848521865170  0.2479431361053110  0.7963728501313261
  0.3783229975188482  0.2254878445112861  0.6291847222894822
  0.2472351283914598  0.0187003090179363  0.6440340145337620
  0.1751316016265223  0.9819753344836307  0.2761921143358387
  0.7182720710858221  0.8267911914321313  0.7272496514628942
  0.3142193660893736  0.1631986891174051  0.1758752520198459
  0.9470785632446891  0.9817408834100063  0.6322594330832871
  0.8429951873475819  0.7631569041779239  0.5025649145129412
  0.9180683902806084  0.8549091703994823  0.5684502836467772
  0.5451743764929695  0.1311922467475475  0.8129727158030101
  0.9123196290933001  0.9441734221835023  0.8838065078610816
  0.5138435321014703  0.0528861371028392  0.9865898010256715
  0.7404632886739000  0.7695124201087449  0.7463427697512535
  0.5322163160109815  0.1125728319420027  0.6438256465510771
  0.9306133923526622  0.0087765302894659  0.3236346870440123
  0.0349665776453702  1.0193485467836272  0.9470738837082989
  0.8844233545485304  0.0702958646253060  0.4053741522791036
  0.8368722070642439  0.1028029707540059  0.3802271699374722
  0.6410577428046208  0.7009594487237096  0.5599767655661455
  0.6339901431667072  0.3731816061501785  0.9183649974928815
  0.3454200534371290  0.1293664512542952  0.5776903216613549
  0.3775273739443147  0.2714966911827262  0.3353890250828853
  0.6321806283496378  0.4705986841638468  0.6788332913192695
  0.1349892195749124  0.9491290223695802  0.1779392317670709
  0.8805106509196289  0.8308435782249727  0.6711719696881127
 -0.0030940273745389  0.8146966467061232  0.7165052444096043
  0.7174702877292699 -0.0033380225690977  0.0787516604993931
  0.6642189822272042  0.0412585837438285  0.9853501287217588
  0.9716056281786417  0.9348140421696062  0.9084359158277038
  0.6914444639916472  0.5951246511440633  0.5587949902300466
  0.8922723655636011  0.6522082038793741  0.7687142413445203
  0.5837682993529040  0.2392028224693893  0.0747541265168944
  0.5500875233202727  0.3583849691658040  0.1248285873546347
  0.9408624564305804  0.6895871708091278  0.8335239120929934
  0.8467826355119522  0.7995245206979547  0.8345273500279747
  0.4485696969498544  0.4061187607569525  0.1360380644231088
  0.9690183668235962  0.7834696149126466  0.8810508464283299
  0.8798977672969407  0.7311919070174985  0.9148557635659034
  0.9240864165062762  0.8991254950553352  0.8422936886908469
  0.6161497307724104  0.5535584466830317  0.4341629012723061
  0.5118791190732733  0.5517643478927761  0.1681931223744964
  0.1586823875639957  0.8447662142229330  0.1402564292606792
  0.2087875108782269  0.7965992055746942  0.2271351614815483
  0.0782403358101215  0.9179903163496582  0.1677570167373804
  0.8584866348478287  0.3802203017673159  0.4058418054896532
  0.7933769057157001  0.7562052532093874  0.5465323125653415
  0.7611670002352079  0.5475142301151109  0.5412718162071350
  0.8058859362195867  0.3637571420311039  0.3362665773442573
  0.7105251359667217  0.4559369240210756  0.3814090844884533
  0.8178037830580135  0.4715159341191830  0.3585383075157656
  0.3943488644615082  0.3989158011179719  0.8307716475618597
  0.7207505621486151  0.5625613940881585  0.4152118154689229
  0.4497034450535838  0.4237807553618291  0.9558778859502612
  0.1324026082526324  0.0900887540707416  0.5690909662577740
  0.0848521900536651  0.0474420612436665  0.5647962805929306
  0.1400252305575278  0.1190890371414952  0.6775228826543457
  0.2507722912840972  0.1194700432676589  0.6609397620273346
  0.5797486982909048  0.7957731351283315  0.4644227723249036
  0.6928282919079185  0.8708760547635623  0.4244846733087753
  0.2431602247762579  0.1981695021027040  0.8102640467327937
  0.3029110129329785  0.1917028826503931  0.8315837183877204
  0.6868860584256803  0.8982114318864678  0.6318219917501551
  0.5856573368002902  0.8580042372088250  0.4499476532685702
  1.0011889302584249  0.1448765998447777  0.3623230435690201
  0.4399590545092628  0.3128584889162395  0.9730628046695657
  0.6117171646292907  0.5328200114780363  0.2659402963138884
  0.7115749794485284  0.4379030513708800  0.2156572117330399
  0.6224248515848555  0.1013903678437737  0.0707161745845810
  0.7953823188408062  0.7442407647365533  0.6042605433420806
  0.1845643675160494  0.9337676598230122  0.1441258914180329
  0.4373980432108668  0.5064455442113392  0.5466628954453394
  0.0350989897204567  0.5323371901464478  0.1835676746149199
  0.4024727725863733  0.0134680425983849  0.1384664130665899
  0.3861131842630586  0.9729445623085407  0.3365476262066274
  0.4821680108613957  0.4544731264804824  0.7946732117733244
  0.4415946868450915  0.4365970424583511  0.8949059632984975
  0.0467281553639227  0.0684877834820085  0.3417557795335778
  0.5403372911069332  0.4806562732529265  0.9217676943642277
  0.9495854727590011  0.1766977828292273  0.3374887255613396
  0.1997278403679315  0.1639410333578617  0.5189038959058482
  0.1886632253480387  0.1252419736714803  0.6374826483780403
  0.8983878099417183  0.2080578007546527  0.3094305140340899
  0.8330249068795239  0.6601819163534178  0.7461189879471674
  0.9965247218183370  0.1316627805236364  0.1928106651705811
  0.5674995545159833  0.5439927597819336  0.8640640172064435
  0.7959633170297037  0.2376648747661251  0.1497935906974189
  0.7155719401626192  0.8588134105153014  0.8334663462933217
  0.8179862838109472  0.3680843867971869  0.0398172025050507
  0.6605259959460646  0.4205820909917815  0.1441269495803103
  0.7969483340550879  0.8267163510242069  0.9859827821573809
  0.3285805902631589  0.3876238959063603  0.4614822656878864
  0.6044534060882639  0.4238151287797501  0.2410359676216614
  0.4783455449279788  0.5540157185491723  0.5548568332764220
  0.5110741698515531  0.2335891333702324  0.8426505172627934
  0.6261457010660831  0.0838452023447497  0.3626097283619762
  0.5814540679421732  0.6342333526889739  0.9441792325817495
  0.3985239848085803  0.4841695559281087  0.1521073638043105
  0.6909356179503112  0.2392531847448578  0.1093111171825023
  0.9613980996589784  0.7129136035577742  0.9981835971483326
  0.5502634515519392  0.3927779685730386  0.2329776439500758
  0.6034932358372704  0.3871480625199629  0.1366660703944448
  0.5391051116445159  0.3944210439340739  0.5315853431138559
  0.5031652503976028  0.4380765093906179  0.1428107030150407
  0.5107093731896980  0.5819751036479462  0.2743451132850193
  0.6541226564560790  0.4135348010301707  0.6942402141872143
  0.4478932878365671  0.4391723985632762  0.2402026923907432
  0.2057523145912119  0.7680898516797920  0.1198897037661846
  0.7026837477331962  0.4512988956767957  0.7603236436445460
  0.3578605901187629  0.6582806170600997  0.2579872708874292
  0.7309972243512737  0.5152359882768076  0.7014988071021410
  0.7282745236230783  0.5476464694180805  0.8069877359154658
  0.3644094678635245  0.7497145964220190  0.3495298887148545
  0.4128884439867423  0.6880276873143873  0.2675350359544532
  0.7638049310357296  0.5799623318197462  0.9038373653802332
  0.8648734090056548  0.5107619468950521  0.9673272630110344
  0.7929334586448699  0.6756235329424903  0.9528783695278735
  0.8312305919401802  0.7277160148378018  0.9550968370662463
  0.6404763693614571  0.5535606210255554  0.4973470281890393
  0.4046971804526300  0.5789184325709600  0.2407912086543549
  0.2448758716991553  0.5644131207145749  0.3599056546265404
  0.9516265953664814  0.3216059180518269  0.5275447294657535
  0.6229424819427990  0.6514419489197065  0.8424035310610976
  0.6122150815547183  0.6628241737996103  0.7812322995939994
  0.9520651187230269  0.3181325907682587  0.4694717865582546
  0.9618176937738027  0.3814032863650251  0.4449028777467772
  0.9302915988849442  0.4495474087895039  0.5086742305633828
  0.9829172561682752  0.4227067078554950  0.4850882395777824
  0.6881875146574108  0.6801201288611297  0.4791269992431653
  0.8199245427526203  0.6499062882773901  0.5234582475867812
  0.6845379134682933  0.9287113776126206  0.7509907321028156
  0.6729388896115002  0.9723134820751093  0.7941046352717829
  0.7335213287431133  0.9657804667657921  0.8155185743634911
  0.5573587380374957  0.5053964122991014  0.0300883178136939
  0.3644784316468166  0.8191499114729471  0.5571237254858070
  0.4830615240618789  0.7856931348208573 -0.0033745643810816
  0.5086040406010260  0.7510046231582445  0.6118974298904498
  0.7207107415107479  0.7930689135941221  0.6215297940880298
  0.4124546208718703  0.7381585837135916  0.0855115543884905
  0.5902904098905035  0.9010772631337062  0.4970055236822343
  0.8629628519639466  0.5893935989216785  0.5673320154404053
  0.5584777564016171  0.5020377118418951  0.2561781398074264
  0.5224532252836543  0.7504843006174137  0.2882363010054425
  0.6645811555480885  0.5164659751490129  0.2316089572052669
  0.5411876927571588  0.9152418136396258  0.5342915661407409
  0.2331977386628593  0.0807440940970354  0.8892612778618777
  0.5350988963671758  0.8571791006197885  0.5479922877934388
  0.3043908231063027  0.0729848539277489  0.0839426749384755
  0.6276462310377990  0.7355839741834559  0.3828488420864598
  0.4316260675253675  0.0662796896008250  0.6228626980775279
  0.4721763013555669  0.1504949219966386  0.7284771105175992
  0.5645198611653672  0.6118153122486979  0.2840499803780284
  0.4617469333443776  0.6275691771673767  0.1884020117886469
  0.5494136896833022  0.2516166264650336  0.7394795320349962
  0.4559768255362682  0.2917201819502710  0.5299984509020190
  0.8465128750588187  0.9411337825327801  0.6200987484212868
  0.8075960838470121  0.8930595508192241  0.6294965643941426
  0.6073905373934670  0.6407166351010648  0.6164250942418689
  0.7649180453139379  0.6796161723148680  0.6630871671658237
  0.5589274170982943  0.5359034953607923  0.3604354253419163
  0.5935645978853764  0.6871249648752134  0.6585864731466491
  0.6628826524287833  0.6676889491014746  0.7419004937838988
  0.7341965212849966  0.6166138538915786  0.7203990998121216
  0.5513408098868036  0.4992823571413029  0.5381237614911741
  0.7213073131997240  0.5284269909630208  0.6422701786863753
  0.2365017700965209  0.9197814851651346  0.1100876295717820
  0.5719774542412247  0.8962599895588983  0.6642226085319283
  0.5728335412675182  0.0155392392343857  0.5772852227165174
  0.6557831307504404  1.0102531649771587  0.4290507600438590
  0.8958701901336905  0.8366296137480196  0.9022694021730474
  0.5244355743094771  0.8546450910304613  0.6017538569125176
  0.5740765256103616  0.6130722914521702  0.7792134985746860
  0.2635119966188718  0.1612336311621037  0.9465455166055322
  0.1306698434266291  0.9185770358999625  0.5802203356500882
  0.4093871441244067  0.2207812693447483  0.9193491072633767
  0.1867554978196500  0.0421710288582518  0.8238478912511215
  0.4862408872776872  0.3895533292418116  0.5809692534511186
  0.6512692953002298  0.7135421649315280  0.7834949627132254
  0.5801538865322464  0.7312500135848609  0.7010884459905015
  0.3573041699377963  0.3174210367452904  0.7177588733750269
  0.2792129136928043  0.2154271653591626  0.7084726492798469
  0.4492134773117197  0.2409716826966397  0.8184065248204360
  0.4782323291133895  0.3026802776550232  0.7618910209847209
  0.2633783422255919  0.8216622825810033  0.0750373887387337
  0.4560468590341720  0.3588423607929468  0.7459438619343425
  0.2106492196871026  0.8321670662998356  0.1046841158654250
  0.5044044984683963  0.3979813331693952  0.8125193754030184
  0.2326523202348637  0.8741176882019761  0.0620811232498619
  0.6116996846817024  0.4284897912231673  0.9019870860638710
  0.6027952170651291  0.4411204059937686  0.8405120176161192
  0.1333062723460479  0.9652970951061286  0.1183871174131229
  0.3017137499876517  0.1597181598766606  0.7253848844172988
  0.1156109109949937  1.0083830294740874  0.6816812560266827
  1.0045819184508118  0.1906717587999323  0.4068394416213697
  0.6492003034266075  0.7459508040956281  0.8876528007544929
  0.2151173020903735  0.1357598691808187  0.8675001812336843
  0.2253809069413620  0.0908298726061345  0.8254646252632274
  0.1524603037612871  0.1070049469190442  0.7404220185442696
  0.6011351225387760  0.7094963717503479  0.8241755850257703
  0.6110109290577740  0.6960997453761552  0.8852715284962108
  0.6708571994659676  0.6892104745403680  0.9072295318100365
  0.5185764134643410  0.6891024503386367  0.3032628082106346
  0.7199666899953101  0.7295716054152717  0.9738294828594590
  0.4754058451276127  0.8282306148799916  0.3075125423207061
  0.2578695251781138  0.0273484513600023  0.9126372334680183
  0.3724874308229899  0.8721576086496017  0.3177976578341324
  0.4012507142981587  0.4855689352634939  0.6516909016954591
  0.4499236629833385  0.5244901929275860  0.7156542866607698
  0.4872268668681751  0.5746534066091531  0.7196610481359618
  0.0332583080887677  0.9775758017127658  0.2499635379229483
  0.5340521298641200  0.5953474441029352  0.8820632483751080
  0.6179675117142979  0.7825596685170600  0.7029770216681678
  0.7944288608036280  0.2236668895124750  0.2100129335952104
  0.8520453102080735  0.2857060147321360  0.3239259093219343
  0.2479022770340398  0.0898503025347820  0.9456219799685235
  0.3825746860682793  0.8030531080047894  1.0116091593526124
  0.5356445242745828  0.8464332978805083  0.6626542816607942
  0.8193278209948164  0.4990514366941580  0.4628342332488711
  0.2543828285125153  0.7547428017197526  0.0848856202343308
  0.9047277563027977  0.3026002159370395  0.3992145468083544
  0.2803022339956002  0.3638458104088681  0.3832219688215613
  0.3806643439514582  0.3181700805183946  0.3781715635965507
  0.2690852782205133  0.2226005666414205  0.2574145366931535
  0.0426593909011212  0.5646348436819515  0.0548834832952076
  0.6781879172280234  0.5430811286645865  0.8460064300437331
  0.3215588113034623  0.5848198095931428  0.9799457156289890
  0.4610838852046221  0.5996736226980987  0.0853990335749229
  0.3090743287470158  0.7845663231556084  0.0943179394138729
  0.6628862686757848  0.4511390126571604  0.0249265417355422
  0.3079487667611860  0.0277945314215638  0.8695153521499394
  0.5905068461194196  0.7203733791049647  0.7624213888560957
  0.3644543002822269  0.1328476677020448  0.9745379643821843
  0.5626992369042983  0.2628071246771578  0.9811440099248837
  0.7039228637440125  0.5869188819793058  0.8831756868994994
  0.6442110217421293  0.5936659595175285  0.8612880343064424
  0.1864027019930204  0.8117813233842481  0.9444631329423592
  0.6986579714342444  0.5178094198870061 -0.0313805829243636
  0.6933089427894470  0.6328497219944138  0.9254336693522262
  0.7471803934994763  0.6768793152877950  0.9925767545359673
  0.1252101816500164  0.8576876807905588  0.0888363405754709
  0.1312621738911567  0.9376055844352493  0.0119587897654047
  0.4839486860697019  0.3711840260954239  0.4663202376670507
  0.5062528901670460  0.3394810891795918  0.0561362479044475
  0.4366045561399368  0.4735628275250404  0.9982207042924416
 -0.0058376177442975  0.2999975670547437  0.0273897193148017
  0.2550487078932883  0.6908065580940458  0.0992479627008048
  0.5125996183825408  0.6192574722223697  0.7562034846047123
  0.3043783606714918  0.6108683107223429  0.0830877753432620
  0.5543226131308026  0.4032388760676841  0.7733535699178838
  0.5297638863191099  0.4935821379506222  0.8616798843217323
  0.4749656202831932  0.5206602890094337  0.0118875957566108
 -0.0161596235992125  0.2370295207545035  0.9934858373158899
  0.2909354398879023  0.4552152904718440  0.2399866380609356
  0.6652437787471807  0.5706397757384987  0.9868646768640860
  0.3543387326026200  0.5937578696071998  0.0452146453019512
  0.3570079169156765  0.2822763341997601  0.6115159457028629
  0.3148837333900286  0.1798867270507535  0.1138465595345247
  0.1021401638950792  0.1832741958029384  0.0397231362605104
  0.7911336859892809  0.2587742087815619  0.9324609832969785
  0.5905817448036591  0.3011188255291443  0.2832533079088892
  0.7162958819546642  0.1560128786700937  0.9225132530808524