C  Cr Ni
 1.0000000000000000
    38.7210597765861735    0.0000000000000000    0.0000000000000000
     0.0000000000000000   38.7210597765861735    0.0000000000000000
     0.0000000000000000    0.0000000000000000   38.7210597765861735
 C   Cr  Ni 
  50 1596 3725
Direct
  0.9887291746499691  0.8507183807702180  0.0154656692367213
  0.5964321936422394  0.0988322817000412  0.0311243501802963
  0.0739192400383039  0.9654705594731894  0.5243651062093362
  0.0508521286305582  0.5998205597341787  0.6684113509950877
  0.2194439123448622  0.4264171853589717  0.4397697327320255
  0.5994581110355863  0.0798615057107489  0.5705172557585922
  0.0857502988383854  0.1015522818785689  0.5566337482004975
 -0.0684365936741674  0.4146494355959006  0.4712310465731503
  0.2299116300414885  0.3004340111465794  0.0614161536381200
 -0.0099117346763729  0.3824903514881236  0.8945774949229334
  0.1946318839019643 -0.0399202803289235  0.9592380909756831
  0.1088530556451286  0.6610390849969399  0.6831881575168586
  0.6021946351169769 -0.0143161075211671  0.5691307931211913
  0.8493679617091647  0.8963178100353392  0.5275634779831596
  0.4915936630333492  0.2842986162238473  0.5215241951584609
  0.4397901330020348  0.7122534254391042  0.2409773223170146
  0.0414697388678077  0.6613843625437331  0.7192728540050648
  0.0103835100808352  0.3906823177804165  0.4856701648395118
  1.0151030960464276  0.5217820538403428  0.9094190062039902
  0.2305610473214625  0.2465841577598660  0.0049555954025788
  0.1634264742632441  0.6443585104225363  0.6330629768321780
 -0.0178739441796594  0.4357987322981443  0.9430003886899613
  0.2888408205464773  0.3406094714009498  0.0062558845861100
  0.4593223229555057  0.3328342768343263  0.0121082616046488
  0.5857563515021698  0.0644533211726324  0.4789224814695520
  0.8304626801101331  0.0304477285441349  0.9332766209153671
  0.7945975630958173  0.9734630374324313  0.6302438448996490
 -0.0041929578544517  0.1352583678640388  0.9700661328513562
  0.9218874301886297  0.4229316550349856  0.9839649590296881
  0.5229095294247750  0.0321764236305137  0.4700264092411996
  0.9836523172296968  0.8000834601630744  0.0969625694784815
  0.7734124006329384  0.8437512997290895  0.4908984191127196
  0.0527264696393204  0.7730925675164496  0.5691663842250796
  0.8576281643437812  0.6337454676689419  0.2344412493290343
  0.5956781231365269  0.5331461775419648  0.4799661168674843
  0.0107315376681902  0.3146763947205981  0.9133228280236538
  1.0481502015541175  0.8785891347419829  0.5703788076149650
  0.9472161198285439  0.8910989216032719  0.5677353002037077
  0.1989887333041710  0.3242475697676834  0.3419914308168885
  0.0413962654750029  0.0298189087563379  0.8778478723925055
 -0.0131819477760000  0.8109343437035218  0.6668143419374134
  0.1293104091304463  0.7784949750526902  0.5334891374357164
  0.3312382664265324  0.0934541885092904  0.9518500943315424
  0.4379935076605840  0.2361640146379255  0.5288807021051948
  0.2778526187368469  0.0207128439120149  0.9108411655128684
  0.5975698041776086  0.6801537573143558  0.3033793388154085
  0.5009509280627668  0.1766546057455768  0.9429546868756505
  0.1853595423386190  0.0796547420515405  0.7270267030254907
  1.0067981341002372  0.3671001053265870  0.9666130356472694
  0.5809205369171349  0.2140384544641507 -0.0208242605337585
  0.2321585755454451  0.8325579672856174  1.0186198340099373
  0.1395095595036160  0.7414397260003910  0.7738368867284557
  0.4356723526172789  0.8033031130365931  0.6381492582688969
  0.3473849991660501  0.9969005397612319  0.0639888533590561
  0.0960833917476184  0.6051612369690829  0.6876992682119983
  0.0334788357879362  0.6084673411246730  0.7170612932493167
  0.0929527638305655  0.5899092197555756  0.7477471422447760
  0.4616394793056798  0.6759298775545590  1.0057773145381994
  0.6599359776965502  0.9510052310973226  0.1332193623326413
  0.4306999510190980  0.7168617137315831  0.8210079543409654
  0.6070948847481529  0.8929153802618301  0.9611042524955830
  0.3727142045565323  0.9578378014702555  0.9727967180034807
  0.4693124134918563  0.7678481327876862  0.8241669636852518
  0.3694890547921408  0.7243671678044783  0.7983408365311274
  0.3585463197689898  0.7362946453474861  0.7383776867617033
  0.6645640880015876  0.9871978320546059  0.2474617018547704
  0.7902652866149905  0.6133248675061753  0.4794479840720301
  0.7783656131953248  0.6528535303386792  0.4024623852407564
  0.3373208251121111  0.7609818854669935  0.6153683183712820
  0.8914879618894808  0.2184110658418585  0.0186530797179654
  0.3942554332336701  0.9873008565740993  0.0280336672153593
  0.9636102113962798  0.2424373855729895  0.9317004585165715
  0.8355033861090314  0.6857515778256380  0.4129573203769452
  0.4967898367059457  0.8301440825523809  0.7635167001478226
  0.0569757848705142  0.3526233773951463  0.6090769412082474
  0.6334377473679351  0.8606639551365437  0.1233852899494189
  0.3947429710454183  0.9820758412979446  0.8093479265895206
  0.6825468668163076  0.8451860386150037  0.0893425507268188
  0.0955909693488310  0.3998401197975394  0.6189743492617986
  0.8682343917311776  0.3424292188254287  0.0087720922983697
  0.6838773181364931  0.8278722870993369  0.1505794897373971
 -0.0005686317691197  0.8175405213966497  0.6172075036926267
  0.6706207012030121  0.6100630116614850  0.3217249037787164
  0.4103165674150697  0.7072171730746003  0.5955436611251724
  0.2276702543090179  0.8284013141394501  0.8418094032470896
  0.0079442316432954  0.6153567737345769  0.6507409231073300
  0.5548286457386725  0.0392560168517602  0.5072426370319841
  0.4981791912643286  0.8633749857681268  0.8704664108087135
  0.8406463124847412  0.7945136409864668  0.2116021970453824
  0.5477372254282084  0.8689616875267051  0.8293541049634982
  0.2603506501065553  0.7588683397602189  0.9210044646858451
  0.5690084514455008  0.8130135345696021  0.8480079829997648
  0.3119741264868109  0.8098625515910457  0.9816923805399116
  0.4372619051609232  0.8364554556684323  0.7429204866753741
  0.7406199062887221  0.8256931407791154  0.5226070412570644
  0.3377546900755496  0.7617545840795232  1.0006462857082961
  0.8247459301673582  0.5800752968083069  0.3844405156753558
  0.6534356114920573 -0.0268271910488517  0.5562634737886786
  0.0871877156705545  0.6988119596325200  0.7112389465311959
  0.2955309714196419  0.9738646091077408  0.8942456579335717
  0.9786889871937194  0.4657570488054175  0.0716950008836522
  0.4194265554340059  0.9613737621302106  0.9364374072391685
  0.3586582436147053  0.9669283445047898  0.9151220075966855
  0.3921632660402302  0.9277168217549876  0.0475832353085511
  0.8547190124682533  0.8986047650363470  0.4763222995887255
  0.3627664937180264  0.0735089810398384  0.9863562286359082
  0.7915164357721547  0.8088274584325700  0.2464230970227030
  0.7900334093096343  0.8234552751761421  0.1846067615658042
  0.8311613425280923  0.6736982275303756  0.2447626022215705
  0.7853735191461135  0.7144833547348471  0.3885337160786144
  0.5230958917858004  0.8014221963191769  0.1041361002361373
  0.8404886924898424  0.2279349383010870  0.7869209715674905
  0.6266254155547369  0.6680388218469364  0.0092302526501632
  0.7901954757831051  0.1909834491144204  0.7204872269872767
  0.2473197794787121  0.5644398887951060  0.1353938222079680
  0.8632092318844394  0.1711575119864874  0.8028473738964285
  0.2457243619764439  0.5489778887972616  0.1937317459805950
  0.7994559883431238  0.1463565163335607  0.6749385831198741
  0.3456556873987137  0.4536517495300906  0.1427746237544321
  0.7502434547798642  0.1079333556629532  0.5964841237010940
  0.0819181697029615  0.4101892550707587  0.5636863551570975
  0.9197693214102687  0.2349757575748056  0.9708798756014090
  0.5126237529775534  0.7172715063890375  0.0109049413346681
  0.7202949476538416  0.0455891419111107  0.6618628385423657
  0.3311080680602552  0.6735275912285273  0.7952394898757468
  0.7682594722536737  0.5173532251645775  0.2712932237253785
  0.0386656663657396  0.5949987330326691  0.1656328037613937
  0.0988751389545917  0.7363551272207715  0.2048002560291163
  0.8745279918925903  0.5507049456354473  0.4109912629026534
  0.2309508833604374  0.6285113522294401  0.5089245508537820
  0.9208498277601946  0.4733730655768879  0.3952567478147874
  0.5890328222703922  0.9520830166056117  0.9389067201674511
  0.9723623062432835  0.4575659431904993  0.3614072626167392
  0.4216395536029811  0.1800713871367794  0.3805271296161737
  0.5103315994070101  0.4858799076599574  0.6339915278199805
  0.5970716480419114  0.8726986992825655  0.7886407034722615
  0.2008005018017413  0.6892873965963056  0.1949468707484329
  0.6857655165302309  0.0279718586089056  0.7636547216388675
  0.9245085771751078  0.1893126435273241  0.9284138477788668
  0.6169984283326991  0.0412654121712872  0.0865728095803722
  0.8406661448202460  0.0811002835932665  0.9444591158716364
  0.0189108011860182  0.9804113324301015  0.3390217258232173
  0.7828050041736565  0.0742747182904987  0.7929416515800867
  0.1081228005216922  0.8445428158228379  0.2371798231570273
  0.6739871646004079  0.0376374372992623  0.7041400515122257
  0.4312882827392970  0.6843847235748486  0.7156302410391251
  0.7815630753284255  0.0465044566655585  0.9452724955852764
  0.3803234026586022  0.7117156302771455  0.8592658288002116
  0.2466106536385000  0.2825051005144054  0.6305751367999681
  0.2202374377408740  0.2537105548416111  0.7929296992642592
  0.4751515134805480  0.9029608633600974  0.2288177387079371
  0.1088521066976851  0.2232828641261924  0.7043558995167245
  0.5311095876674976  0.8737441883896980  0.2570121933005074
  0.2182935539277961  0.2207750519069139  0.6860528411506849
  0.8296452813710635  0.7148465133673593  0.0602104804273090
  0.2304511604963629  0.2423628862879224  0.8527515557982441
  0.0695935003924945  0.1721064209488768  0.6993648296047782
  0.9466383921406054  0.1619812156950269  0.1667079601710620
  0.9508563797186372  0.2074812179326225  0.2126718385103109
  0.0022925314878857  0.0135902464517491  0.7048147804503465
  0.9432300176171473  0.5546449910981226  0.0322629566745694
  0.0603577475068011  0.0499203221330936  0.7721698309731529
  0.8600013484143050  0.9599277236369556  0.4585693108615775
  0.9111954237672764  0.9475267322011379  0.4230332483390629
  0.9566539310103582  0.8563625628246151  0.4615402669900832
  0.1727440761826576  0.9873230084672711  0.5255030776927112
  0.1438275057263143  0.8603817539426410  0.6960655994326802
  0.1817379923342161  0.2360688442354031  0.8925053325576752
  0.2688647258266912  0.2932279721539194  0.8591458695741553
  0.2340277874306265  0.2702997807872693  0.9581186984051652
  0.2307423847857064  0.6984644164271127  0.9791868801790609
  0.4638422181955360  0.8982878365711260  0.6812758852564497
  0.8989201385446688  0.8058245486309988  0.5126393133669713
  0.9202266526718778  0.4398539983886072  0.2942029752853895
  0.8369459458394308  0.7180623773188670  0.2894325416664609
  0.9100982531042484  0.3315809901675777  0.2717957749114748
  0.9586557650115295  0.3004897131181535  0.3011041349808070
  0.9549108461600976  0.2541983467748609  0.2565222944732130
  0.8972559745198394  0.8114619966988896  0.2838251910796608
  0.1029798843924191  0.7806121491424327  0.5826844310429553
  0.5523301879848312  0.9868512736597256  0.7498333664768252
  0.4914849149131723  0.9924734797904526  0.7273038076075803
  0.7206449268768366  0.5953941202062497  0.2884584275073221
  0.1127883807885191  0.0920068304324832  0.8441844148721889
  0.0759445430653952  0.0436492655074566  0.8401369541203287
 -0.0217850887761938  0.0422314971571817  0.5861669396907998
  0.0537681840266746  0.8245821878686421  0.5770418639797755
  0.9875765497317025  0.8612455184051727  0.6675412826433000
  0.9599436848706979  0.7637276227585236  0.7127959865360706
  0.3305690108315006  0.3134207770553623  0.9989752523320176
  0.0697791360645920  0.5247583114730779  0.8102572851302505
  0.8174358090173316  0.4541354768558835  0.1947396637576530
  0.8677547998279564  0.4219888145130263  0.2246752406182289
  0.1205203441504822  0.9512356381289250  0.5095855584997421
  0.7851008011760298  0.7788432330934216  0.1403681067208053
  0.2788214832983321  0.5327868190855906  0.7118032065740120
  0.2033042604638639  0.7194684658427093  0.3044251119411329
  0.2475637665260688  0.6032821599038879  0.6306787108433288
  0.8838544525453210  0.6229037686372038  0.1049779081313575
  0.7498209743903664  0.8878899441699019  0.4993913252290542
  0.1479455898203985  0.5271346208831882  0.5058066193925289
  0.3285032967502866  0.8708849405669891  0.8679736962975333
  0.4945724686468043  0.8113970431551494  1.0492684178605203
  0.0639833136385604  0.6414812872657581  0.7643253935251777
  0.8406182522719077  0.7253709541814326  0.4580624563400140
  0.1149513922852063  0.6616067039588810  0.6332831138681365
  0.1014375720200615  0.6984646376023793  0.5016028316699120
  0.4952602556259059  0.8748297892527971  0.0368187684372089
  0.4387178462218673  0.8714840295117976  0.1323323481677461
  0.3604101892927212  0.5017067334096266  0.8570669903438070
  0.4408572410862888  0.8888680640135558  0.0730842286175575
  0.3278131616324282  0.5714078717144246  0.7762991412640008
  0.2967568357676416  0.9392767104881280  0.7859299186637242
  0.2302041983325512  0.5271785698889027  0.7518862164625336
  0.7926958234159811  0.7976879854274398  0.4885294586189202
  0.9792368261429607  0.5543445521501695  0.4471366218686736
  0.6355230399538397  0.2250708743867374  0.2659585721487772
  0.4483333083285900  0.8976355829120461  0.0151106644633781
  0.4017797003214720  0.6544928529899552  0.8773557535447886
  0.0677246657959802  0.7254746398856594  0.5859426649876790
  0.0585236285250630  0.6540204138549386  0.6721492951701337
  0.9333727603094261  0.5946400353556173  0.1329545871638229
  0.2943441949436842  0.4375221553213470  0.0736942639382679
  0.1603976594667602  0.6505406163842308  0.6832643645213714
  0.8787611352416409  0.5969366346214501  0.4550765781915920
  0.5174763303848182  0.7550368784187517  0.0572800717532133
  0.6208644395062387  0.0697306076882465  0.1939350248745134
  0.7489955458707621  0.0556375907233705  0.8954997506494898
  0.7227005893070985  0.0293046008014602  0.1875915472513476
  0.2166069569254401  0.8588896583603651  0.4477264333822814
  0.7484746423361536  0.5899149900394955  0.5832209128566755
  0.8915557863434361  0.5193265083945403  0.6462949182403047
  0.8541920719617634  0.3159383211485906  0.2000212033728042
  0.9875199560933459  0.6110076692347891  0.2015455054445480
  0.3922449810019616  0.3778929945073987  0.1285929767236848
  0.7863286278988867  0.3549007027717382  0.6909130658292639
  0.8581142678277808  0.9965381297721007  0.9006884381134367
  0.3902629290774482  0.3328614700195855  0.0888927968107379
  0.7482320083519188  0.0086252760037513  0.8553750489424705
  0.7434391206535707  0.0226203776679469  0.7874796123793455
  0.0601895471253985  0.2490532074353679  0.8504201448524584
  0.3366128850571325  0.3479056853640997  0.1210347668643689
  0.9758773654019368  0.3490697926843552  0.9289544796155389
  0.6602749003479005  0.0316288495171049  0.5309177610869952
  0.6665884335657276  0.1082256285747745  0.5175055944668153
  0.8526521989948458  0.2142099205857554  0.8469487588735022
  0.8897943106705926  0.5503720858772613  0.7497660476348010
 -0.0070218596418875  0.7504939836930072  0.1070551856929354
  0.2259956022428239  0.7611039267764601  0.6335980545782426
  0.8438805952531510  0.1500362135936992  0.4195505150797532
  0.7579214223595772  0.2924053436586624  0.7470980595985637
  0.6982973993434554  0.2990349250226499  0.7262782956938360
  0.2277575691593294  0.9654981393450405  0.4801004125304372
  0.6369795534479995  0.3077040956247992  0.7036568416924512
  0.5889034186204143  0.2694098093740575  0.6372201479705334
  0.8707472277976007  0.0713219142085140  0.4849990614495343
  0.6418960672152439  0.2741667349412177  0.5978017857501060
  0.5813645411711190  0.2826333685336443  0.5768968947353245
  0.5623703385294663  0.5701550836250530  0.4693240968024682
  0.8619982841124345  0.6253284814992249  0.9274154932678559
  0.6100730259445371  0.4900010698395699  0.5031510794709251
  0.9391220001452859  0.4590295832964129  0.9511096076763080
  0.8572459734144968  0.5216750084064214  0.9096429477887732
  0.8524656046757335  0.1386754947946421  0.4792777168591359
  0.6948769558386797  0.3346974980510783  0.4260687894487070
  0.9275322969231932  0.6818835719362663  0.6069082568656337
  0.9515334960879464  0.7756450362551643  0.6513535432343508
  0.7379020563691362  0.4332652947692296  0.5599453861534113
  0.6529463368453479  0.3904719712377350  0.5061087535265648
  0.9913040437659397  0.7292691850432792  0.8985122566146853
  0.9519088048459549  0.6789063784584252  0.8933068038245441
  0.4597377409983143  0.6261248726899764  0.4157994841205152
  0.5091417519782069  0.5933833106427993  0.4401915890690339
  0.3516899118664999  0.5803406037445697  0.3340726776249880
  0.5062542429646245  0.5497187840809094  0.3964939877267507
  0.8450272871527479  0.6145471909989828  0.7018520834966649
  0.2715060219408327  0.8869868975812472  0.4567221993785086
  0.8191186473118598  0.5712063227574121  0.6679392221155793
  0.5925741211567749  0.3820547837415950  0.4293263611756614
  0.6381071712278470  0.2561878211590485  0.3720858455621512
  0.9307657220421065  0.7014284842647688  0.7713159593050004
  0.6844702033857121  0.1797779021474157  0.3547561646144634
  0.8748749441014185  0.6754306604979021  0.6464567717372226
  0.8972462809070989  0.6198607841794982  0.6617783896560515
  0.8293161150728089  0.0601778574392757  0.3379450509290421
  0.7808961659157800  0.0903114642795496  0.3082107864863513
  0.7317140419863580  0.1064175277580931  0.3406382205592757
  0.6025058221173777  0.4425652795875485  0.4045107321655223
  0.6872133416157931  0.3180391492979717  0.4862344668477921
  0.7425725644593928  0.2559235158840318  0.4109019621473304
  0.7924666601781110  0.2278258493137722  0.4370835516914619
  0.3530796333553364  0.5946010139838165  0.2745739501196786
  0.9640758741156757  0.3614242813039181  0.8590862036642828
  0.3999079314439760  0.5179732834260561  0.2565272276817437
  0.8066773652520071  0.3295305712057524  0.8157607140226886
  0.5522099446795407  0.5063875082289852  0.4806647527435298
  0.8567041796829564  0.3349992258565083  0.7745977127827715
  0.8075582658872710  0.2982396809383403  0.7084257545293028
  0.3479363085828676  0.7057100537426052  1.0177461610499026
  0.2782508239449676  0.7438557753121349  0.9831382563470411
  0.8548138916383778  0.3665882846007128  0.8814898581591325
  0.7578381383704339  0.2613496980888698  0.6406606792616327
  0.6526662959165307  0.2273969869620922  0.5529677002935716
  0.6686184796778323  0.1709963772984633  0.5671613261268417
  0.4450079450044440  0.4248215078255203  0.3016186728923527
  0.4924525833705099  0.3624626391005334  0.2234749748666967
  0.9994565156833576  0.4705635059898755  0.9123968052778878
  0.9311665553351858  0.4681103190432798  0.8892700133678056
  0.9664932972265707  0.5192429983830352  0.8930765839290843
  0.5370688484120532  0.2851791830835964  0.2100706012077200
  0.7308197202087819  0.1969285801354346  0.6988026275252457
  0.6002734651540158  0.2244580166208993  0.5921453214065877
  0.9526971915809852  0.4125131802219580  0.9075270777709145
  0.3040209918126064  0.6563814050084497  0.3542558186253264
  0.9652973432080632  0.3998569233587650  0.9726637243541235
  0.7753637213008299  0.3997828389553363  0.7377414369303861
  0.7893421303951490  0.1834872957809752  0.3934493043972038
  0.7262136312406691  0.3631824427243605  0.6684873414317742
  0.6684360130737628  0.3702236842454556  0.6437850399553200
  0.7176070246361445  0.3772901738902372  0.6014032085525757
  0.9880910865369147  0.6289583334054255  0.3666286786758829
  0.3257707737400511  0.8054075873102564  0.6558285146176385
  0.9177520977120667  0.0101463762862306  0.4079698683583324
  0.8716357336524266 -0.0403131919613714  0.9776165542551598
  0.9354406917886785  0.5711621528842237  0.9075406853260609
  0.8988739018467412  0.5382287939333641  0.8096624010962554
  0.2682200405342428  0.8171363461825264  0.4759875122366002
  0.3089469534026387  0.7181712086771541  0.3400720080704041
  0.8830636828541928  0.4302249801644055  0.8237852312712933
  0.6703670279837756  0.2048385723749474  0.6765700506208326
  0.2635217205398589  0.7940891101561741  0.3637127435790324
  0.6312204637973070  0.1547180607765274  0.6712884464757461
  0.6196214380000894  0.1674510104072850  0.6068341363052325
  0.2085148286284048  0.7659609918613568  0.3507221830463812
  0.6127213832833794  0.0704325437694972  0.5202616241648771
  0.5536262143851239  0.0858458571816178  0.5466120174469163
  0.6656470755849745  0.4992577660812337  0.5197764761483742
  0.7512972246167046  0.2742048784327651  0.5783169179362592
  0.6915599218608095  0.4308722889281204  0.5978926441597701
  0.7906350357573032  0.5075966660671061  0.7251541265575279
  0.9862036765740866  0.3029812014806971  0.8735052964843066
  0.3800111051335366  0.2702887569343148  0.1056010428901426
  0.8862856008564329  0.3980697716052780  0.7198427268267212
  0.9350931247693496  0.3846194951224557  0.5126408297671802
  0.2441313439625711  0.4672728283847789  0.0475287807033689
  0.3226030813801737  0.8498674639616925  0.4768316649714920
  0.6845350879115680  0.7959283746251217  0.2731190825060281
  0.9828670807791059  0.1819711143482023  0.9480345740783670
  0.9365891027696183  0.1457616406804131  0.8882869693764209
  0.7921227255252478  0.1003322032714144  0.9054722518514261
  0.9981031148795447  0.1278627251666903  0.9165273105897721
  0.9406061622441814  0.1016113309899280  0.8415621929397006
  0.8464845885010364  0.0559395782281240  0.8902799340866991
  0.4171980422457405  0.1525687869603292  0.0379047086389111
  0.4143638271890639  0.1099947246103049 -0.0094857563343343
  0.4626186840565142  0.0704023623030552  0.0206277901251287
  0.9428588827328815  0.7516066687599143  0.2039562031248902
  0.8334108868182324  0.0338976759263043  0.7079605124398473
  0.0145634975690193  0.8410400279288583  0.1097343438445515
  0.0229456222378092  0.2005644693296091  0.8466054615524913
  0.3668944717058012  0.2461295298135043  0.0022739238210052
  0.9712143184513942  0.1637411971426274  0.7829311908544152
  0.1734689221345773  0.6990245925928561  0.9577215895409809
  0.5328036174016428  0.2408388307697112  0.1687358906779206
  0.9949074267035624  0.5636495451666919  0.9313062704997337
  0.0672153439478479  0.9492605985639209  0.3653552651890127
  0.9622912584681594  0.4972610291526771  0.7294011544388475
  0.9238041644674883  0.4474852731028857  0.7232238934758020
  0.1121179167502531  0.8727472454810480  0.3464112676580283
  0.8753971714619964  0.4111424170049360  0.6571432196572307
  0.8145094735825870  0.4185489244763233  0.6367223972848216
  0.8627490409822131  0.4242115950165787  0.5992660900094592
  0.7681618836772243  0.3819092706370774  0.5617403467622609
  0.9205712135294818  0.4613824169068044  0.4529437411128007
  0.8657165047903596  0.4098009636780398  0.2853595815363366
  0.9310780588345673  0.5680901386474657  0.6513468039569980
  0.3026096957351277  0.6266020141045940  0.2477149242844507
  0.8511791682006752  0.4392977217341207  0.5387910811378230
  0.9704278356798314  0.5989280907875753  0.7475947355002567
  0.9206614947431512  0.5814867030861691  0.5923616433452069
  0.3921563885275448  0.4089284064283873  0.2331651301970615
  0.9737284966081802  0.5871437388557972  0.5508620238785126
  0.4407076683696890  0.3459221266077745  0.1543110030645654
  0.9481832555184028  0.6664875639882651  0.5092342448812557
  0.2009640831986921  0.6727953279220820  0.2569390317820561
  0.9312142630936522  0.1165177752112613  0.7780984995302868
  0.8595672165373773  0.1392118263628800  0.6961085238131541
  0.8190689818194805  0.0912621470154721  0.6914619284194056
  0.9454175814883514  0.3888585734706222  0.7382849170505303
  0.9788619405171138  0.2852872876934137  0.7099626591082159
  0.9071075116847911  0.3396360098769155  0.7355752420544799
  0.5616997136571487  0.0126883892945413  0.0775444786831968
  0.9075072280764084  0.3071984404741834  0.6290830039323048
  0.8574722686321090  0.3032544484523497  0.6686889447262329
  0.9277575990524632  0.2499155389130796  0.6455743054411687
  0.8689169626148189  0.6910299885467689  0.0261421936033312
  0.8163693693232676  0.2221228498091632  0.5586677696508889
  0.0057041200769522  0.3804456630613425  0.7578592021075207
  0.7572503822793792  0.2325249850600354  0.5345577106684541
  0.0456828203615158  0.7211354852906885  0.1341182816445689
  0.9468473938020165  0.3571932362261812  0.6333012072784535
  0.1487714607805640  0.6750833834047044  0.1232798035335360
  0.9878754138572120  0.3721457891744543  0.5256391298612767
  0.8419891320568716  0.3308431674690594  0.5455170638091476
  0.8530701631208705  0.2498573778232655  0.5065425438844648
  0.6324282833859768  0.1935877042361984  0.1608398944919980
  0.9720234697706110  0.4843453622012787  0.7885625315992054
  0.5380935606198386  0.3510542783766900  0.4231559828247409
  0.9337417064214175  0.4347739977463602  0.7828974678023389
  0.0267088429383430  0.3525072442137061  0.8796856155492895
  0.7138610742092932  0.1422981534415483  0.5339066704877649
  0.5176330357756281  0.0879172050972151  0.0960148585383433
  0.2028078009096054  0.4829012232600266 -0.0312271943460483
  0.7629210796966683  0.0485916466552214  0.5612151928039222
  0.1898559444163938  0.4378624974305826  0.0369194197483999
  0.2442535384200683  0.3613858927214449  0.0153217279491650
  0.9400720544435588  0.2368803922556762  0.7058410082984646
  0.6577037046171307  0.1675835717506479  0.5056263371849712
  0.7097620085365058  0.1493245556896274  0.4713377524008774
  0.8469245248035470  0.1518272576762497  0.6359673625754754
  0.8200593629303680  0.0894168111655017  0.5105967079881297
  0.1879710446800519  0.4222841927686217  0.0992250555921020
  0.2465406151084795  0.6981716155601003  0.0388985024186902
  0.4167134208363669  0.7869630818401300  0.1287401403176726
  0.4778550161092307  0.2247809577427968  0.0977382533139241
  0.8796605449664269  0.2764934633198084  0.7919393564578161
  0.4666138612908589  0.1305927159130947  0.0090802366718395
  0.8791364784307861  0.2461446380999242  0.6847850428897944
  0.5225878552349730  0.1468202890494877  0.0807682097229471
  0.7691331694566925  0.2171458570912561  0.5970299414347566
  0.4722066423769811  0.1633695812342705  0.1151015375398234
  0.7409553845656296  0.1514484112189195  0.6531915864948318
  0.5669246397109761  0.0713068392919690  0.0598831573020099
  0.7925125163870412  0.4756918607479784  0.6219055416393321
  0.8735390924098136  0.5191522438750351  0.3075138600207063
  0.6034405736746093  0.9552862290276500  0.6068995016350403
  0.5651173766451250  0.9748667989975048  0.8141835207843431
  0.8824059951824308  0.7493551645229787  0.0722271980014771
  0.8915647210685110  0.1479309025796691  0.0957620426082094
  0.1971916928287005  0.9290368693802601  0.8664425107197073
  0.3082595997353260  0.5100941981443620  0.5081906556085983
  0.8166589072408987  0.9533951184187315  0.0742259141818739
  0.9468429914820458  0.1772973837950557  0.1043903761022177
  0.4383424654052707  0.8278554819259537  0.0867311153705564
  0.1087008495898249  0.8756515253642156  0.9042320571163532
  0.9485067187243764  0.4810097531457213  0.5636647421442703
  0.2032120602739332  0.8203222508701574  0.6083822426587637
  0.2788230247751469  0.7673530034424817  0.5949418917613809
  0.0384109754095259  0.2759308679579292  0.7293088910641462
  0.4598339092594276  0.5449156380116863  0.8818844853866817
  0.9396948640486171  0.7023623690977471  0.1587462694822722
  0.0742846203975093  0.8458313942348473  1.0131358418223990
  0.6114293139290908  0.9979277838936624  0.0420092902844320
  0.9563498973350876  0.2697697343664756  0.1955536649910742
  0.1115769766301846  0.9826764884939292  0.5633190216972878
  0.7212479182118927  0.7867058932778862  0.0105979344741382
  0.1000524136736404  0.0999624456633485  0.7800515214801421
  0.1653707780663615  0.6688274654205523  0.5889560639884024
  0.4247557570248899  0.9173169388633624  0.2622503245493217
  0.8058265488269905  0.3316510309003179  0.2320734682710244
  0.0806281939510265  0.8712366461685119  0.6736738300084855
  0.0922640648028690  0.1462512028919070  0.8241338168696983
  0.9122248806913513  0.3465338843234411  0.2105840018526877
  0.3421731885746799  0.6612577954166627  0.8564952057025353
  0.7784880355835478  0.6564390460843097  0.1736237614215576
  0.9960633058307315  0.3947388124002767  0.6974271089128661
  0.1067409836496436  0.8419341216987216  0.7987336551345138
  0.2967044553145212  0.9940057324547148  0.1633871018665761
  0.8344362898870118  0.7642959476759209  0.1030055062372714
  0.8602159272694154  0.8746891111676363  0.0549218499421016
  0.2283391084191699  0.8600985145145447  0.9475397547299395
  0.9657693103541724  0.8269890039280078  0.0544513128703473
  0.8456632734353334  0.2241389835305321  0.1120902903235954
  0.9865099027531424  0.0618253452683365  0.0393229994309437
  0.3498840219354826  0.5138832563464978  0.7952374926944473
  0.9962673848214700  0.1486170929784893  0.1318042336579977
  0.7989739818875524  0.7603052952286806  0.0370666110779159
  0.9089105356449282  0.8817286248794781  0.1935777321952476
  0.0131006093355746  0.6356539343506734  0.8113242419136923
  0.8648220386265217  0.9395472946993710  0.2770675984851150
  0.0763111900173059  0.1302946990493856  0.6529271167253783
  0.8557557179532149  0.8986952554326675  0.2333241832839007
  0.1756360972799753  0.7300273098876502  1.0086893344952612
  0.1112728115716989  0.7524414621728881  0.9858093939541864
  0.1052745486133822  0.3633828529052015  0.5084316125265166
  0.3886545042576536  0.5325369921449475  0.6944484024698702
  0.5204649655425677  0.7392652379373398  0.1189738737349545