C  Cr Ni
 1.0000000000000000
    38.7210597765861735    0.0000000000000000    0.0000000000000000
     0.0000000000000000   38.7210597765861735    0.0000000000000000
     0.0000000000000000    0.0000000000000000   38.7210597765861735
 C   Cr  Ni 
  50 1596 3725
Direct
  0.9904256670672843  0.8495576705229144  0.0158455612401956
 -0.0060488372315782  0.1574894751596041  0.8944035965691944
  0.0731995539611426  0.9653781300270582  0.5244998687168166
  0.0505425695804837  0.5996812851691198  0.6682944418045104
  0.2196057717755193  0.4256636285922967  0.4391999854484617
  0.5988078780849891  0.0795253870687003  0.5708982420359094
  0.1879506508509203  0.0336350473802680  0.5408950449771353
  0.4593725226408226  0.3326315812245928  0.0120771801532932
  0.2315268952706296  0.3009033775193241  0.0611132231311098
 -0.0101452880755126  0.3830908230323331  0.8951913059377412
  0.1931613071492286 -0.0393243771519598  0.9577511244652456
  0.6021338950657240 -0.0144585657777109  0.5692037638405701
  0.8303264338843328  0.0302200208228116  0.9336765930560458
  0.8492835680938030  0.8963618682134122  0.5272723194454881
  0.4915337720012551  0.2842724558794126  0.5216388748532453
  0.4403414474510530  0.7122054114975981  0.2412197861529616
  0.0408422425226801  0.6611259445129538  0.7188768952903778
  0.0106106528474750  0.3907194076434885  0.4855369196806704
  1.0146240782373264  0.5216092655492679  0.9088703340950751
  0.2309166965315411  0.2459485379208764  0.0042112304605690
  0.1631489522295083  0.6437185220329007  0.6322887139270655
 -0.0183616765305267  0.4362806554622111  0.9440277425262952
  0.2884199184801411  0.3399685161377163  0.0066561748564494
  0.1079579033241579  0.6605520565182543  0.6830597256127779
 -0.0681614813080124  0.4148091679224200  0.4710975668255711
  0.8581179536124941  0.6338841233161335  0.2341440936719784
  0.9470261158733576  0.8908912012068232  0.5674813434187380
 -0.0058280544064823  0.1329393947772914  0.9711131232074037
  0.2796711626012366  1.0172622145641423  0.9324002207887816
  0.5228398042787205  0.0323947399954649  0.4703137969971841
  0.9844645692050580  0.7997158990708427  0.0970717154414198
  0.7732687059199436  0.8438478576278086  0.4906692687167605
  0.0553561736206670  0.7728589114389510  0.5688085237261492
  0.1005567310703363  0.4174331584379241  0.3894692729478686
  0.5956886100910301  0.5331382665426977  0.4798695829708667
  0.0109561950149283  0.3147361500795491  0.9137714801905323
  1.0480084532592508  0.8779813807663632  0.5704181958142006
  1.0059462036574021  0.3676089182974700  0.9672950669421049
  0.7944273385462147  0.9735209817347682  0.6302194577439768
  1.0284348294143331  0.0471158962215701  0.8649919235134659
 -0.0141157707859860  0.8109936110482456  0.6666923512553705
  0.1302101333077200  0.7787660633670150  0.5324478822093973
  0.3311698519043714  0.0932134485648488  0.9520459662850285
  0.4378355837684824  0.2359653731553046  0.5288642407144587
  0.2627753052393537  0.0267780921042206  0.8975408562998922
  0.5982963325640465  0.6806467409754141  0.3028360482178701
  0.5013382510290267  0.1754955789029037  0.9438121241072754
  0.1852838873276864  0.0795643203560614  0.7271985747479098
  0.5858139116462355  0.0651067392330681  0.4801181762293558
  0.5815383153936126  0.2123526599189135 -0.0206522024995871
  0.2366100540370992  0.8361660932197569  1.0185916230322432
  0.1392566125151951  0.7409100181651682  0.7728290463639874
  0.4353254628464329  0.8030687455834635  0.6384251782229459
 -0.0000097692243980  0.8150070412445608  0.6173920097445303
  0.0956756094829907  0.6053016630349249  0.6876150314421304
  0.0325973919367135  0.6082834496076905  0.7167388448133777
  0.0927131764946881  0.5895993867266482  0.7477660984877472
  0.6708723724316736  0.6101124632915778  0.3216008579854873
  0.4099662090889564  0.7070414485658556  0.5957399061454846
  0.3735866252782705  0.9575368237508750  0.9733623523784153
  0.4683503752789618  0.7675039373280884  0.8251607353516391
  0.3688383635521195  0.7242259846115567  0.7992836423650873
  0.3581587190779496  0.7360406824098629  0.7389394775317850
  0.6646846972405963  0.9872152050934581  0.2473728275464072
  0.7902261175101601  0.6134045865317886  0.4793608167259600
  0.7784168031996989  0.6530644590095892  0.4021986915166538
  0.3369413718531982  0.7607461058514665  0.6155470756003755
  0.4298956516199857  0.7167101824340240  0.8221996882393673
  0.6068188766515615  0.8944316288288526  0.9587610637836088
  0.0075360503726088  0.6152677097574163  0.6506599499630195
  0.2269110139545601  0.8279413318457280  0.8419950667734228
  0.9627743505890076  0.2428610170259727  0.9319871713678780
  0.7905578129571170  0.8235154263168512  0.1844246427255521
  0.4962077455865245  0.8298113096329548  0.7638082958520465
  0.8355661697328207  0.6858394286312174  0.4128352891389990
  0.4307962827235838  0.6841624941480016  0.7161761944086905
  0.0868402018526896  0.6982712105053075  0.7104400517038159
  0.0815174475459586  0.4100937586420265  0.5641377392339847
  0.2940114115246076  0.9773076294971298  0.8960990978303242
  0.9793649406871131  0.4665590065140948  0.0733024944725125
  0.4199265157624056  0.9613941314279170  0.9362990697076990
  0.3600526088307558  0.9665058592691546  0.9147510688780404
  0.3927862114911093  0.9284164305338385  0.0466868233455121
  0.8545186180822861  0.8987949259901385  0.4759229707239640
  0.3629862657419544  0.0737130828281346  0.9862032687126292
  0.7918760682098778  0.8089326274957324  0.2461441464840978
  0.5547784279450867  0.0392039595861763  0.5072777788394351
  0.4974301945993017  0.8629947890168167  0.8706783267534516
  0.8413100787967374  0.7944693450384740  0.2111606806085501
  0.5471633488931840  0.8684361160438717  0.8300630688521858
  0.2587150966272905  0.7584486817453002  0.9218973226035532
  0.5679744867310489  0.8121573866521878  0.8482771996631091
  0.3063883550513124  0.8100391176660454  0.9850391721332989
  0.4367724427055820  0.8361496298287877  0.7433129518889074
  0.7404747820464975  0.8258104152013814  0.5224468260753744
  0.3313264396579571  0.7621507248577648  1.0024582705806784
  0.8247745085337871  0.5805070040590570  0.3845152635341812
  0.4213592317482435  0.1802908721417379  0.3806449242841250
  0.7854494291050653  0.7145136914321741  0.3884038838583300
  0.8402810515496312  0.2278459345380413  0.7867256429364782
  0.6271773714240624  0.6676495022241464  0.0092112869704109
  0.7900887125278866  0.1907565301517732  0.7205201446372259
  0.2478410832686240  0.5642055313225253  0.1355538022588245
  0.8632494798326454  0.1710677935628294  0.8030290268604332
  0.2462443077081507  0.5487973948343218  0.1941221359122135
  0.7993652426934477  0.1461325591064737  0.6750016306888732
  0.3459221261068771  0.4533288887249288  0.1428877786496490
  0.7500574130620336  0.1078619246381325  0.5964675472295471
  0.2943292019639594  0.4375120799452190  0.0734876607663227
  0.8526340992685204  0.2141501649822067  0.8468788875150577
  0.6669886557874349  0.1091223636845894  0.5173095595840498
  0.6607079942681180  0.0293864595537306  0.5314805749971863
  0.9756964590110953  0.3493042366178852  0.9294055417958109
  0.3364935272898668  0.3476739263810127  0.1207948253860823
  0.0601517261234030  0.2500297024539347  0.8507632329025572
  0.7434531385767158  0.0223311184839796  0.7876192349607239
  0.7486231979980253  0.0084987306626805  0.8552713137329490
  0.3902863358838968  0.3327451990057926  0.0888276869280269
  0.8577521338209508  0.9963735565538382  0.9007909341322365
  0.7860763765974478  0.3547552196818905  0.6905655351458354
  0.5238655665028328  0.8015924976264848  0.1036613751069998
  0.5101455879166483  0.4856856087552842  0.6339857544745263
  0.5965048621226174  0.8722303920499243  0.7887428336665869
  0.9721942896663548  0.4577794502610788  0.3613873844208900
  0.2016679348798820  0.6890474536132669  0.1967062865830720
  0.6857289887849976  0.0277316954475171  0.7639584998290909
  0.9245893090921359  0.1903181677993493  0.9278040048850710
  0.6172874052206608  0.0422070218303543  0.0862846015471678
  0.8402906607185953  0.0808207581764282  0.9449545123710335
  0.0187858569621496  0.9805392170712059  0.3388890495563125
  0.7827514364641163  0.0739590250338428  0.7930167902515032
  0.1087240446829523  0.8447412983818123  0.2374486308200454
  0.6739731533931642  0.0373556093772310  0.7042036848048165
  0.7202709259837273  0.0453585111729006  0.6618102220717874
  0.6535364433446524 -0.0270943408370501  0.5564497177744178
  0.9168678668030937  0.2370874402029842  0.9698972344153912
  0.5171065568859525  0.7137097604314805  0.0138715231747323
  0.3305795220939189  0.6733213645283919  0.7957262162692815
  0.8185718564888959  0.4865672458142135  0.2982694769215792
  0.0393681121049809  0.5954532343815631  0.1656590418395607
  0.0995401297860721  0.7365966118903351  0.2056661248323375
  0.8744718517945412  0.5508140635549066  0.4107815194019028
  0.2304555299904076  0.6284457464623964  0.5092306916321434
  0.9208947872362080  0.4734893025189135  0.3950983859874513
  0.5889734961664211  0.9511099839425069  0.9390987049292546
  0.8315959015107151  0.6738051881466924  0.2445465931953948
  0.8659034263234370  0.4099888862728425  0.2848722976699742
  0.0996939181239359  0.1003052949639384  0.7804236263566207
  0.2465295587906462  0.2824806162125605  0.6308398804706842
  0.2202140225605606  0.2535816843717293  0.7930544399370824
  0.4748485933280345  0.9029000755863356  0.2284862454659531
  0.1086873046900929  0.2232169630581265  0.7045656316809266
  0.5311831675727920  0.8738346776122454  0.2567140389600021
  0.2180922908374206  0.2205999251313552  0.6862228737474625
  0.8299322175287391  0.7151542445572795  0.0600148117677266
  0.2306499341602367  0.2422336501450175  0.8529967552322950
  0.0694352340098044  0.1720389448419924  0.6994368937467366
  0.9467060818591605  0.1622063896482822  0.1666570378698607
  0.9509719465130611  0.2076988536178607  0.2123683054926728
  0.0019893528358198  0.0134941464111460  0.7051637380847117
  0.9411814425259639  0.5544743780907999  0.0317643776248465
  0.0602961409465568  0.0499608790864313  0.7727181543414677
  0.8598403897772589  0.9600072260227267  0.4582111908085514
  0.9110650557640119  0.9476211034940353  0.4227282208839959
  0.9565617046106387  0.8564637869544240  0.4610044240231612
  0.1727209130943884  0.9866918108105818  0.5259313677592693
  0.1434812162490006  0.8600636478349267  0.6960133099758972
  0.1823237812980044  0.2364507815548644  0.8927380752989664
  0.2690871983471836  0.2930025363182319  0.8591206155360858
  0.2359824662480254  0.2683793725472939  0.9583325293619946
  0.2289307497333904  0.6962062146120290  0.9775046611527649
  0.4634827515227545  0.8980723846649565  0.6813723772978031
  0.7813383393708350  0.0463182350175803  0.9458659744624119
  0.9206753614779357  0.4399669981651250  0.2939799380335011
  0.8372061944481688  0.7181509256854502  0.2892160893304650
  0.9103637099621045  0.3318613496788516  0.2713835515278125
  0.9588309626634259  0.3005850928239515  0.3006680918930456
  0.9550415127042015  0.2544391488707452  0.2559836379602624
  0.8976546556750318  0.8114375512929383  0.2834426260312904
  0.0543463281003359  0.7756786709607340  0.6222429369854443
  0.5523592940180061  0.9864342360434400  0.7497053913780533
  0.4912915045447546  0.9922137709188745  0.7274857972655643
  0.7209645612341951  0.5953893136925398  0.2881645725426770
  0.1123120712790233  0.0918972515314165  0.8425409386513304
  0.0748612050883829  0.0433179188497251  0.8401606660834169
 -0.0211116238224027  0.0423401373941418  0.5861728394403446
  0.0527229373349034  0.8237111249546285  0.5778156079552568
  0.9873338759574689  0.8611287786032292  0.6669933304161773
  0.9592181387613807  0.7636866182968856  0.7125346117205384
  0.3305970606968621  0.3130686662025192  0.9994817908344712
  0.0696531924225980  0.5244549034210557  0.8105543819722902
  0.8184661983564187  0.4541410150340622  0.1940782338365732
  0.8682688881122338  0.4223007230231169  0.2238755398543686
  0.1198973709058755  0.9514550316297687  0.5096962310968072
  0.7856794484873990  0.7790207430522406  0.1403714952388361
  0.2786601034831115  0.5325135483607313  0.7119827738873300
 -0.0043373765743907  0.7500802443399750  0.1062369533910981
  0.2471484078269363  0.6030151064951744  0.6309074115613754
  0.7221533811443455  0.7876266833053488  0.0101813699466650
  0.7498103088920004  0.8880231323606590  0.4990449710404168
  0.1476700442608465  0.5273176943559081  0.5061777177385186
  0.3275845313247081  0.8710727547529673  0.8682087037948681
  0.4931241260094504  0.8108573440647180  1.0488840985650079
  0.0639423092006902  0.6413049903333533  0.7633576534256282
  0.8405034824422176  0.7253481235600655  0.4578578024669746
  0.1146869490261769  0.6613978390619026  0.6332284235141665
  0.1025235758868132  0.7009708105095905  0.5013758606875512
  0.4949921589732563  0.8750044981459648  0.0365643251897333
  0.4387941686213541  0.8708597249302894  0.1314370405148917
  0.3604658538691990  0.5012611601734484  0.8570085966412324
  0.4404601919396333  0.8879750739199813  0.0722339108086717
  0.3275719589116065  0.5711258406929810  0.7765543740032160
  0.2963802777025759  0.9389763081275055  0.7861472456970796
  0.2299823729459674  0.5269151159744675  0.7522589607343584
  0.7925071149422074  0.7977879899629511  0.4882559145478352
  0.9788268562036624  0.5546738527638163  0.4471532028499807
  0.6355326310222692  0.2251322792341714  0.2658232199095421
  0.0912923250264344  0.1470397086230391  0.8251773382197288
  0.0803296401653197  0.8707862764829245  0.6733345686559857
  0.8060151522690765  0.3317261902061640  0.2318496516329314
  0.4243230932674645  0.9172612818481383  0.2618736549830424
  0.1654194152975245  0.6689761935023451  0.5893246444833835
  0.3922274494761904  0.3778009029968343  0.1284007567977319
  0.1105078515959781  0.9818389829034140  0.5638071759747718
  0.9564808894911991  0.2702150346942052  0.1949996118478118
  0.6121067303231834  0.9982357382736213  0.0419163714040536
  0.5763068683807729  0.9635055371834991  0.8756523232487636
  0.7299361019884609  0.7026526722248769  0.3151232124717879
  0.4480164887053204  0.8974497954120370  0.0149965732990277
  0.4010559035929650  0.6544505961509185  0.8782660197518938
  0.0678340075065877  0.7257009591454883  0.5856702863770907
  0.0573952049529844  0.6540074994315113  0.6715499536086794
  0.9340530400377847  0.5942036938512044  0.1327336542351943
  0.3793374661257357  0.7115454692894726  0.8607834354762441
  0.8844446908632646  0.6232384540098596  0.1053467273608609
  0.1595311789603157  0.6499348004297640  0.6828849771132915
  0.8787096202538637  0.5971073412359935  0.4549575446032396
  0.5204757783360100  0.7551357424811226  0.0586153495343407
  0.6209628654483504  0.0696961560300924  0.1939007356429495
  0.7490195503300975  0.0554533435664402  0.8961174788728246
  0.7228813372547823  0.0295397438406640  0.1874020719793672
  0.2165355925657938  0.8588651690504350  0.4482865711933047
  0.7482624183228465  0.5898419086151587  0.5830410732554656
  0.8913232790940805  0.5191759819077930  0.6462110959355712
  0.8543601723732341  0.3163178267222480  0.1995987229747667
  0.9880297670416505  0.6111964636717080  0.2017338622887490
  0.8894983181380358  0.5502300628292616  0.7496843448168862
  0.9204598569932450  0.4614344095870199  0.4528236250205011
  0.9461799156438463  0.8241562796839207  0.1185313562627823
  0.8073052635624909  0.2981122352893391  0.7081465080123373
  0.7576606725788287  0.2922042538595745  0.7468914310329774
  0.6981350949154334  0.2987771553386334  0.7261619647327361
  0.2276170026140513  0.9654903443751771  0.4803226313425010
  0.6368763306431517  0.3073993026535409  0.7036269111848419
  0.5888272851370777  0.2691060223073675  0.6373148997751821
  0.8705121462085829  0.0713240203515946  0.4849346905110405
  0.6417928277597464  0.2740040878728063  0.5977752015175675
  0.5813035676941587  0.2824282795373497  0.5769096714143321
  0.5624306868224658  0.5701700477022753  0.4692219383721883
  0.8612456085502761  0.6249005618461348  0.9279282958576700
  0.6100547351226695  0.4900051819498661  0.5031420752172747
  0.9384197536024933  0.4595865473635051  0.9492095476474250
  0.8570238362710192  0.5212994439160501  0.9091737903595452
  0.8522298338960098  0.1387858684158345  0.4791896221669074
  0.6950126690879350  0.3347578798076876  0.4257870794676814
  0.9273165163052878  0.6818741009769874  0.6068034752975098
  0.9506753649144342  0.7754764308331485  0.6512402499218557
  0.7377894990685118  0.4331706033825543  0.5597405755274844
  0.6529922784595368  0.3908960713235559  0.5053770118753346
  0.9899320406153419  0.7287406417296339  0.8972094883867936
  0.8436214703395267  0.1501982366072120  0.4195333618283622
  0.8564033406556374  0.3349963591983791  0.7742718876752845
  0.5094422846534608  0.5934257691840926  0.4401828328797674
  0.3521647515370379  0.5801738021125860  0.3341964593391479
  0.5065205215919376  0.5497400899322662  0.3964931560753009
  0.8447147397903736  0.6143450618855104  0.7017202540457459
  0.2715660417149670  0.8872913836195553  0.4571062069255888
  0.8188503624915983  0.5710117042682096  0.6678095013140957
  0.5927402319245829  0.3821020352709197  0.4292100427773650
  0.6380890756955296  0.2563109704548968  0.3718729743775770
  0.9302285725468166  0.7012844905863351  0.7712385283428248
  0.6844195584144542  0.1798562652277787  0.3545729983914160
  0.8745345841032053  0.6752646434945544  0.6462956114658988
  0.8969569584727992  0.6197136224612462  0.6616751781695440
  0.8292315424528450  0.0603873735499531  0.3378082221121004
  0.7808694944458756  0.0904924257588588  0.3081154556627563
  0.7316065912512318  0.1065255488461321  0.3405723932642619
  0.6027097533027159  0.4425587176694836  0.4044872452655857
  0.6876469817864507  0.3183951934765615  0.4861329062590411
  0.7426087958132628  0.2561271017672261  0.4107769830637552
  0.7925530080881412  0.2281185523196583  0.4368692000393565
  0.3536411848611166  0.5943826945531422  0.2746445121035374
  0.9638588296993854  0.3618053339248933  0.8597733945477364
  0.4003478888815223  0.5179135516914232  0.2564732193578684
  0.8063530222858377  0.3294308461222624  0.8154308781959335
  0.5522472438276754  0.5064014129920601  0.4806438575914239
  0.9509832847943644  0.6782719278154336  0.8938799834314055
  0.4600888561247257  0.6260975319683127  0.4158515780675958
  0.8277432655686492  0.5578345616549359  0.7275880911910280
  0.3953647261533181  0.4549804607760319  0.2741095197894973
  0.8544691978486905  0.3666125147264441  0.8809763891053384
  0.7576649249714429  0.2611195106702654  0.6405687138334494
  0.6524623762507247  0.2276248563740098  0.5531700806103262
  0.6681922187623955  0.1709482348220725  0.5676785186771336
  0.4452552732755804  0.4248931229005979  0.3015000481866088
  0.4925740310403214  0.3624354087357315  0.2233027774137231
  0.9991191672906341  0.4701845461343240  0.9122100570110947
  0.9309009046438768  0.4681609210244652  0.8887459555846094
  0.9658237841489729  0.5187078862353002  0.8932575928854724
  0.5373783307199713  0.2854010663214156  0.2099005698560140
  0.7307008474896911  0.1966485810491115  0.6988874038158552
  0.6595511223579464  0.2163443404255458  0.6150530726975116
  0.9524839666920978  0.4124787494586346  0.9087140452823075
  0.3046655973514782  0.6562913431566705  0.3544217648457596
  0.9646441770235427  0.4001151510868676  0.9738197470322602
  0.7751147341808940  0.3996294480547120  0.7374664372166450
  0.7893133752253139  0.1836019163097598  0.3933638518396580
  0.7260159926335072  0.3629965052110438  0.6682014715626203
  0.6682513652273889  0.3700478069054642  0.6436176716750974
  0.7174482333807959  0.3771443465573845  0.6011046758749178
  0.9831866868618907  0.6090203784078380  0.9723646656414754
  0.8776103391877580  0.0219796228251766  0.9562346677149078
  0.9175774434589585  0.0102435120609257  0.4077684994296641
  0.8717076391955350 -0.0410059938758420  0.9778151845363214
  0.9349239747182031  0.5708370883829613  0.9076749363203369
  0.8985626798788987  0.5380831547621300  0.8095388274817102
  0.2675544668847673  0.8169415134442567  0.4762944023278396
  0.3094039624124548  0.7181603268202602  0.3402704851545219
  0.8828408261334628  0.4298953260841212  0.8246594021939732
  0.6702576389990923  0.2045079264313221  0.6767206939316949
  0.2639074404065117  0.7942304217712338  0.3640662412624673
  0.6311062458929309  0.1543051254065669  0.6714492877689019
  0.6195956558172062  0.1669910027486467  0.6066270829590400
  0.2089003609619838  0.7663566540727456  0.3507882621798994
  0.6129909288142886  0.0704814714891728  0.5204880195996976
  0.5538678458102730  0.0861263607980896  0.5467615929366547
  0.6656264163629032  0.4993957539565198  0.5196762971637275
  0.7512509479689573  0.2739837896043415  0.5782387466373541
  0.6914064166900977  0.4307331939940115  0.5976764563923820
  0.7904104709722772  0.5073862612296239  0.7250020887177083
  0.9858585575952877  0.3041208348654006  0.8739684561767317
  0.3800492497228882  0.2701609123556239  0.1059717001057853
  0.8859957207658575  0.3979556661594454  0.7198175106451460
  0.9352863433393432  0.3847615181993951  0.5125565077896357
  0.2432280631715248  0.4678260386746105  0.0462890316507494
  0.3221750506256146  0.8498699485991350  0.4768565985867129
  0.3679430930086795  0.5590190706788694  0.5702385885601836
  0.9840881934938661  0.1779889861990908  0.9445010311004901
  0.1879353095302812  0.4233281352948516  0.0986387828598552
  0.0053783087505701  0.3804363882423239  0.7581044931176787
  1.0021919181083896  0.1175957154177471  0.9224357981571256
  0.9401359654508772  0.1018799617706838  0.8423978819525730
  0.8467163416878098  0.0560340422438414  0.8908857624375280
  0.4178243349064438  0.1524440904224748  0.0379290996749586
  0.4148597700706950  0.1102843460032385 -0.0095415121235582
  0.4638465334688722  0.0701708802170581  0.0208040327494895
  0.9436164256785960  0.7514183893731146  0.2035938590505744
  0.8336280391357765  0.0338229570714767  0.7078700453310935
  0.0159358784772162  0.8405286745310517  0.1093571473999181
  0.0232500700939700  0.2022370870773665  0.8463095912663758
  0.3670161052922575  0.2458201969771800  0.0021528172866672
  0.9709458016756285  0.1643900227849107  0.7822604570876752
  0.1700327349699895  0.7010537553710776  0.9561287964543005
  0.5329017713941636  0.2409570298210278  0.1687386196823264
  0.9938910786918559  0.5628593706130416  0.9317926322844242
  0.0670694067162355  0.9495465194353222  0.3654583120586169
  0.9619934709210045  0.4971973819499633  0.7293600670412698
  0.9235278331080965  0.4473326643950418  0.7233010397186327
  0.1122094421202316  0.8730901385018131  0.3466554619995864
  0.8751791938061556  0.4110242617375579  0.6569661381007607
  0.7922858287342875  0.1000532568003227  0.9054798708459155
  0.8161838387119277  0.2216818360928349  0.5586497930446648
  0.7680475891694480  0.3817026285911218  0.5611292090246739
  0.8984196914960578  0.8060458766954982  0.5122615492383567
  0.8682006791899423  0.6905360563668093  0.0255644040820166
  0.9308313317995058  0.5680040452872435  0.6513242719014577
  0.3033541546946546  0.6262317295401554  0.2481727833276134
  0.8509355640856608  0.4391280565067111  0.5384971582802724
  0.9700739903546465  0.5988547906370228  0.7476884315619166
  0.9204198462411666  0.5813576586214111  0.5924369341806736
  0.3923546731095748  0.4089548417754170  0.2330276861295141
  0.9736686545734868  0.5873168450562913  0.5509902743611841
  0.4408619163194494  0.3461352125296359  0.1540630732580265
  0.9483754246368163  0.6667841345548007  0.5091295168142520
  0.2016287215371546  0.6728628985055698  0.2575550291023394
  0.9313826647696988  0.1164853331437066  0.7783478177186377
  0.8595682097825621  0.1390474707246548  0.6961132552271939
  0.8191310586472125  0.0910369321003232  0.6914039684359776
  0.9451217389504268  0.3888496721918038  0.7384479420873034
  0.9785998562346724  0.2853227148381194  0.7099848138752967
  0.9067550635312592  0.3396872738758753  0.7354500433943246
  0.5623764016941550  0.0137198036271823  0.0774033338096929
  0.9073236074326646  0.3071325920195801  0.6288740332159629
  0.8572234097879292  0.3031723845526392  0.6684031171007445
  0.9275785912716921  0.2498789263704583  0.6453774547117790
  0.2038666349261593  0.7196752287298664  0.3046393654345289
  0.8143153237128286  0.4183914293146011  0.6364440240331851
  0.8625754834075764  0.4240756555790041  0.5990274898739545
  0.0467768889204934  0.7218847366741663  0.1333666819227826
  0.9416158623461470  0.1451549887831862  0.8913296910026953
  0.9465950291522295  0.3570812895012154  0.6332073815297555
  0.1495778910638454  0.6746310719647781  0.1265587575970350
  0.9880684754138966  0.3719897754530789  0.5253597611136528
  0.8420343699056148  0.3306093264875938  0.5453045588204911
  0.8531897361546070  0.2498614161226831  0.5063382528579412
  0.6325705996249980  0.1936321492476573  0.1607977766102195
  0.9717232524214943  0.4843790706699176  0.7884600755729967
  0.5382027266981402  0.3511383414064779  0.4230793347534653
  0.9334478379342556  0.4346916884003658  0.7831578261870027
  0.0264932749832560  0.3531551072840584  0.8800744531151076
  0.7135065013301182  0.1426689269718328  0.5340824344307880
  0.5187651486195745  0.0873861218678902  0.0958924309106131
  0.2053236363452210  0.4811713170316359 -0.0289350993226884
  0.7629040315634446  0.0489322420751024  0.5610494057485058
  0.1897425178586526  0.4392085943741600  0.0361493947508404
  0.2439175172926410  0.3617904015275223  0.0147609976014994
  0.9397671156752420  0.2369640723881953  0.7054010284710498
  0.6570510885897843  0.1672366009774962  0.5045180871749742
  0.7101700559809557  0.1495924153155687  0.4708264122171588
  0.8468320809031178  0.1516444093622725  0.6360686169341156
  0.7564896245502081  0.2321603061975729  0.5348188720024066
  0.8199561927244748  0.0895126654735595  0.5106720642238125
  0.2349759583126107  0.6850604439682932  0.0388357278956240
  0.4166577491337093  0.7857946262630261  0.1277970199919791
  0.4780916464623593  0.2247097866401812  0.0977382959909159
  0.8792482988155482  0.2766883820507676  0.7914507062995547
  0.4675418595687893  0.1296193031944756  0.0095109604425577
  0.8788816525844647  0.2460832247690096  0.6845868724148036
  0.5233432625173658  0.1467352679055486  0.0810541437390258
  0.7689335104917288  0.2169062840842445  0.5971056064903005
  0.4725389646969450  0.1633545706623566  0.1152217167749399
  0.7408416389372825  0.1512102833208802  0.6533529027691659
  0.5696871612357023  0.0730540390700109  0.0585303134058877
  0.7923367037073977  0.4755248617370841  0.6217234456105489
  0.8732917779374806  0.5190259809121832  0.3074467033864181
  0.6030414207629213  0.9550062519163507  0.6068265259165457
  0.5650777055146199  0.9744109800586860  0.8140094655463387
  0.8832358061371998  0.7492636698690897  0.0720310391430757
  0.8912294116634597  0.1482212930212178  0.0956235117132385
  0.1969705287922118  0.9282699244834499  0.8663058684221955
  0.3080173658215647  0.5097470077894070  0.5082811417719798
  0.8168987991009180  0.9535520533985156  0.0742216112250867
  0.9471557931184259  0.1776346221389792  0.1045575427423222
  0.4366799236740001  0.8261728732822265  0.0860534085036620
  0.1081937885238979  0.8750349846751613  0.9044105307887363
  0.9483834717486124  0.4809456726547490  0.5637068522864271
  0.9048823653897577  0.8855096116874074  0.4365849433884526
  0.1486720645881567  0.5926061777373647  0.9726784429651133
  0.2818674646126452  0.8630278643690419  0.9691145452996300
  0.0180390036594422  0.1376207763733742  0.6329337110623050
  0.9404854940000351  0.7022911365818214  0.1585882976047614
  0.0760916556032666  0.8448138866843341  1.0132348167996417
  0.7792093858641193  0.6564287928020841  0.1732636313869886
  0.9957440969052086  0.3946584113848444  0.6976201758805785
  0.1061362330446099  0.8416834223987771  0.7981912502344133
  0.2971041788354297  0.9948696297661007  0.1641384668288929
  0.8351892011469312  0.7642465441102760  0.1027897399666762
  0.8606613404214551  0.8744014284938662  0.0551520803649794
  0.9664798108335950  0.8266218497659242  0.0544030453787053
  0.8459661370135191  0.2243464946679788  0.1117075680707781
  0.3880741858917117  0.5643958147695152  0.7993078243371060
  0.9963727309494257  0.1487643643217833  0.1316368930381701
  0.7984856662341903  0.7599940089162781  0.0369058605485897
  0.9092873035533735  0.8817245946420111  0.1934479356740498
  0.0124688128447516  0.6355696355059997  0.8113153306836896
  0.8648628351068737  0.9397602530973269  0.2768574544157847
  0.0765187797108938  0.1295540258697785  0.6534706543829799
  0.8559892747316431  0.8988404749991569  0.2330823612697028
  0.1562323922751366  0.7455508312672599  0.9993934031703916
  0.0998868569812400  0.7544260972001899  0.9814345551491580
  0.4321029133478780  0.9675353491118109  0.5972733706644295
  0.1055063642881237  0.3630858704000257  0.5091848953109817
  0.3883943069310801  0.5321997457331366  0.6945634393783519
  0.9865007731656074  0.0612239990630170  0.0395678419211588
  0.5211393808794239  0.7390997938320945  0.1193195996967837
  0.8366315658992949  0.1329751453219291  0.0240935942079287
  0.2156226095979030  0.3858972697177942  0.6593031265042236
  0.3215959330516914  0.6531421028636037  0.6278681216266340
  0.2423496764289809 -0.0196969785403481  0.9314994762548917
  0.8659416440666731  0.9219574850298545  0.1010169125455954
  0.2751672955249653  0.3784611549700145  0.6795228551535795
  0.2695205430197971  0.9178688539688198  0.9497514807201872
  0.2921428385479019  0.9500326231280798  0.1195167787873840
  0.8739361989766554  0.0018672240174275  0.0197868630440232
  0.3975430629147264  0.5524587700450241  0.8592432455450378
  0.2282852377043963  0.8595700121654590  0.9477609301720799
  0.4599450111601349  0.5446120218451458  0.8819600997007516