C  Cr Ni
 1.0000000000000000
    38.7210597765861735    0.0000000000000000    0.0000000000000000
     0.0000000000000000   38.7210597765861735    0.0000000000000000
     0.0000000000000000    0.0000000000000000   38.7210597765861735
 C   Cr  Ni 
  50 1596 3725
Direct
  0.9889494942193974  0.8506896932305555  0.0155540383664372
  0.6940522919125334  0.0550103439273723  0.0149350217478980
  0.0750387733228216  0.9659226153680502  0.5248426537246864
  0.0506143665659539  0.5985863502637842  0.6683794602669749
  0.2184379681728993  0.4267754699205230  0.4387784123407152
  0.5990229462915900  0.0795977068702874  0.5707498375869585
  0.0855270563618217  0.1013100679167730  0.5567786587376199
  0.8578251224069838  0.6340339803108467  0.2346561143951015
  0.2303308629757830  0.3005529716254103  0.0614574863500505
 -0.0103018405738226  0.3820850628150205  0.8943263454440198
  0.1946808041084757  0.9599805709420254 -0.0410003577712228
  0.7943937791274288  0.9734430686577791  0.6303152043352209
  0.9461410471663609  0.8918003660741981  0.5686421414325806
  0.8488400960813095  0.8965667864299194  0.5272342195540879
  0.4915158692676617  0.2841896968012124  0.5217967926756810
  0.4399298593704465  0.7126099013771372  0.2409548333828525
  0.0414380267786232  0.6610214916738709  0.7195879650824507
  0.0112018074407936  0.3911992857700874  0.4867715577042136
  1.0149018919969304  0.5213975210480394  0.9099829578274945
  0.2306669949163943  0.2465338421179004  0.0050178037165480
  0.1635399698961443  0.6431967969347311  0.6330267706316257
 -0.0182516453389370  0.4356812739025449  0.9434505300835587
  0.2887767928972574  0.3404211839993140  0.0063800536920449
  0.1991986983813902  0.3243872828114854  0.3422104166111538
  0.8318547723826469  0.0305230933046575  0.9322119894542866
  1.0071376294724328  0.3671920070946565  0.9666168606356569
  0.4594549303704690  0.3327514950101321  0.0122853023063079
 -0.0008864355716600  0.1364369882675297  0.9689646872011020
  0.9207320337908039  0.4223054299436397  0.9848665109940878
  0.5228415472014070  0.0320756087620327  0.4701147250327904
  0.9839392559879806  0.8000303086871251  0.0970450813570355
  0.7733405864801592  0.8441491269312613  0.4906529886165368
  0.0486174028561913  0.7764017890743266  0.5647718257265285
  0.5855904650091047  0.0643847170292059  0.4791510820103209
  0.5957548766059140  0.5334608047601899  0.4797863270065729
  0.0099180970094692  0.3145305660621142  0.9136130537091139
  1.0468845965498084  0.8827634979777667  0.5711630086333137
  0.1080741281076814  0.6602053388505682  0.6827767527656555
 -0.0672741944245319  0.4153934944282983  0.4715110940799714
  0.0418411961695883  0.0296267028391323  0.8774211751621102
 -0.0134995804148654  0.8109732069076073  0.6671607089135048
  0.2572015236720367  0.8221953843461802  0.5220078031888939
  0.3313609496095852  0.0933173128304620  0.9519071706894964
  0.4378587185115894  0.2359831566109487  0.5289823752570287
  0.2776122369779838  0.0206514776986524  0.9105714443333321
  0.6490872766676804  0.6799551473514971  0.2070407937539216
  0.5009886327008958  0.1758645051784945  0.9441167062832319
  0.0571295722149661  0.7519803094458837  0.6473317256527428
  0.6018366509717463 -0.0144946466462466  0.5689732512848475
  0.5779966824686475  0.2151645787314241 -0.0201466353546093
  0.0926645389851392  0.5892786810875674  0.7476443475140528
  0.0334080594512454  0.6077047944929300  0.7174755070387483
  0.0959818701645624  0.6046119381020313  0.6870348359980453
  0.9884104059375922  0.6294038538886958  0.3668495117959908
  0.4350868720173687  0.8027948587045455  0.6381070975918616
  0.1394226254787022  0.7407342506661937  0.7741830395159557
  0.2321984929893322  0.8325084434850817  1.0184958158377990
  0.3199069992077243  0.7551356811274016  0.9398246575656805
  0.9825305473649423  0.5661145392684614  0.3856844335508287
  0.4691860822986685  0.7675174343052061  0.8239116359994711
  0.3694247670212600  0.7239201894867636  0.7982104837398402
  0.3585310424716702  0.7355537360070930  0.7383504311428744
  0.6649151104018751  0.9872216982412358  0.2470902669252787
  0.7910295797225423  0.6142778895525506  0.4790835726160999
  0.7785455365541646  0.6533798251807271  0.4023140118487501
  0.3365772833461648  0.7599862944340957  0.6157421666757712
  0.4308357226993477  0.7164327747307954  0.8208040474752246
  0.6072523515679560  0.8900671574430332  0.9612529316792503
  0.3725970502921467  0.9575630322559698  0.9725997073054307
  0.2119656272775281  0.8283961655041406  0.3353639103656370
  0.5314642731827560  0.8590544651582784  0.3168743239145458
  0.3377347701046118  0.7617474402671166  1.0004675665701550
  0.3475748005239438  0.9968945183741368  0.0638114542339179
  0.4965318854166989  0.8298142907386358  0.7631747183618534
  0.1473692073661113  0.5905228293451181  0.9742498620775184
  0.9608199824861103  0.9167862236056412  0.4500895426075538
  0.9455348608886031  0.8244467274236253  0.1185489030762839
  0.3683102952468161  0.5584782415230014  0.5703063320140371
  0.8279815470661444  0.5580224492647079  0.7274820763537569
  0.8787415579285077  0.0219889628956437  0.9559153047339474
  0.3952749690496374  0.4552481404509566  0.2742321951773847
  0.9833226766522698  0.6104180102660345  0.9721309019715562
  0.6996012086311179  0.2683015050509368  0.6199030719790048
  0.6793520304041919  0.3259299837826716  0.6020962928941314
  0.5023827396718672  0.9138696899103976  0.5769512601298745
  0.3390235744668463  0.7008161853685387  0.9607666108337497
  0.5546696355688707  0.0390043683991497  0.5074112365119940
  0.4979178674209099  0.8630947655122760  0.8700585587249369
  0.8410810481918568  0.7949614698269822  0.2116140156814194
  0.5474741032119981  0.8686274047526049  0.8290737244645315
  0.2602283886708225  0.7585911400705426  0.9209115010193050
  0.5688086800214698  0.8126878347991718  0.8477046127701694
  0.3118226356601374  0.8096710359318599  0.9814573541026841
  0.4369844685363758  0.8360544056334100  0.7426967885326592
  0.7404249821704463  0.8261633405020841  0.5223820378923625
  0.8249617051677037  0.5805734272188000  0.3844844465514130
  0.9504658184358526  0.2544620260003624  0.8724389549589285
  0.2295309567075462  0.6282680270689405  0.5087075812530720
  0.6600669979354185  0.9519953619616528  0.1322227687600178
  0.8908174521800926  0.2192333402757950  0.0187694715231746
  0.0568155271378715  0.3521905086715928  0.6087204157676498
  0.6342129280459984  0.8611975901593643  0.1227538396533250
  0.3944018107754362  0.9817552262737655  0.8090817676520237
  0.6835497038727616  0.8457655153968159  0.0883198653776735
  0.0954505031245836  0.3991150046478458  0.6190827808582176
  0.8682194438581210  0.3434563215825616  0.0090440510933355
  0.6342078393901289  0.8436970893866816  0.1849997791209816
 -0.0056888511612039  0.8219192606852695  0.6173504388945014
  0.6704434331611295  0.6104968501650848  0.3217746737789475
  0.4096661251617584  0.7066712361309183  0.5953859643210441
  0.2273593610106301  0.8280945094663134  0.8417591531512928
  0.0076746642317069  0.6146488208031770  0.6510247600247874
  0.8359336582234114  0.6861770404834769  0.4132672712109112
  0.4436992168354609  0.6387685476800861  0.6738278759499079
  0.0869891268801613  0.6963722017976564  0.7132656636286007
  0.0818069972233730  0.4092848062810377  0.5635395963033422
  0.2953538239715168  0.9736771530439946  0.8940311571679281
  0.9789196310349735  0.4658094996910325  0.0721225605453059
  0.4191959684353175  0.9612783188165105  0.9361698132109151
  0.3584485020172994  0.9667634714085507  0.9149020203697912
  0.3943564151126894  0.9875694662716809  0.0277306150277685
  0.9209285684855014  0.4737473578739113  0.3954621725429476
  0.5883706642703888  0.9509041893822753  0.9386546277712104
  0.8746595339741635  0.5512501096307921  0.4111635918379346
  0.9723978778094629  0.4578284912507574  0.3618131510640836
  0.4217799217472089  0.1802058406795561  0.3806246806510033
  0.5104091334731725  0.4854529788399489  0.6338434997082354
  0.5968041172880136  0.8723975161848938  0.7883507332218794
  0.2009552712434372  0.6893659845423233  0.1949503167258850
  0.6856999036363747  0.0277410814172946  0.7639604795701921
  0.9252779896318820  0.1901509563134505  0.9292955751529365
  0.6167391958026955  0.0427305348431456  0.0863302392101394
  0.8421201853137879  0.0815500349162907  0.9423124992466503
  0.0189407176313628  0.9807315082877813  0.3387326363818277
  0.7827731584842518  0.0741255524807418  0.7930420659174712
  0.1083295144047086  0.8446988327288502  0.2370556561636999
  0.6736868443077744  0.0372935451899424  0.7044251089531306
  0.7200215424198961  0.0456473121785143  0.6620292634479485
  0.6534154887489781 -0.0270030140061094  0.5563431703964987
  0.9188550515036171  0.2362383932459983  0.9722764493996319
  0.5128561998007963  0.7173276524653279  0.0108397296772351
  0.3315587140675976  0.6728814253551735  0.7950817493075414
  0.7684585582147643  0.5177169701607566  0.2713568025553119
  0.0388587121412091  0.5951042987560257  0.1658963184985108
  0.0990965679252138  0.7364379067799731  0.2049750530251905
  0.4617438892023558  0.6759886894130509  1.0057081143368185
  0.9204149170626394  0.4618583572725148  0.4530406704011068
  0.7482734103999116  0.0084127632114993  0.8554948340259597
  0.2465422748520725  0.2819677124013512  0.6306908270780787
  0.2203085539385186  0.2532101754855408  0.7930031680408838
  0.4753647364470732  0.9032922419240710  0.2286647650205124
  0.1087915952120320  0.2224303832745741  0.7044923762221326
  0.5310342738985103  0.8739880297630604  0.2569577178050167
  0.2181595028334581  0.2199414902357938  0.6861133203031640
  0.8297389484850796  0.7147260241619747  0.0607134001044486
  0.2305393907862126  0.2419492146089082  0.8528352308422222
  0.0697826134892556  0.1715536975880093  0.6995808756502270
  0.9467933889155911  0.1622106507888368  0.1666197631941581
  0.9511951525471658  0.2075534744876668  0.2127258579178227
  0.0024530844741142  0.0137458184638409  0.7047907296045247
  0.9437803049767848  0.5543479820494341  0.0325030862760454
  0.0608955528195524  0.0499693659426576  0.7719933865005257
  0.8596504671701334  0.9605017301502004  0.4585226081029584
  0.9107303429025055  0.9480252650961907  0.4226441276510127
  0.9577364915319253  0.8597216833448782  0.4612879224246817
  0.1740955068746867  0.9868776409644116  0.5243245238946658
  0.1431462363199023  0.8595325909316989  0.6958238987565875
  0.1818043423750571  0.2356086550478163  0.8925192810196365
  0.2689821759840951  0.2927907766555709  0.8592670541390607
  0.2340982532983818  0.2700844962226899  0.9581732252803564
  0.2307447199632457  0.6982874106357266  0.9791686991783830
  0.2786065637877041  0.5321105440366271  0.7118037792726933
 -0.0068376405925407  0.7504392002032865  0.1072051678491420
  0.9203796951094104  0.4399978760469795  0.2946566824387264
  0.8370591059591168  0.7185253144356724  0.2895712575054056
  0.9101345426947183  0.3318478806677941  0.2718864747768674
  0.9587900071134039  0.3006717109820422  0.3014214090602672
  0.9549836369322551  0.2544249960196265  0.2565368889171640
  0.8974002387953324  0.8119047865464784  0.2837769105545681
  0.0984647558650972  0.7833565310598855  0.5781926173660173
  0.5520259495298201  0.9865262859659343  0.7499343992410400
  0.4911013623540814  0.9920885439878776  0.7273129350550455
  0.7207909644808487  0.5957866357290980  0.2885357773430566
  0.1132416843984745  0.0916040291941363  0.8433910683948369
  0.0765096881137047  0.0433864999973261  0.8397013454404206
 -0.0218968101082638  0.0422573696652716  0.5861190646663998
  0.0531994324822082  0.8300900797225614  0.5730216977767034
  0.9866738268675880  0.8617858260237466  0.6689351738500835
  0.9600577040580163  0.7636413393495660  0.7126239612116825
  0.3305516815723559  0.3133356967440698  0.9990437883355570
  0.0695994777016368  0.5239766802496132  0.8108087325220721
  0.8174734936467956  0.4544331881412504  0.1948574563568747
  0.8678537897448702  0.4222177147454525  0.2248987674391601
  0.1143373166129524  0.9046571097583993  0.4580620104009185
  0.7851748383626169  0.7790324662553951  0.1403013461013795
  0.4634433981725518  0.8979155104751209  0.6809493102042032
  0.8658467434475839  0.4100245738531732  0.2854746225382407
  0.2471505770267798  0.6026768050797507  0.6303817677618970
  0.7434914613190179  0.0223045339573933  0.7876674372911756
  0.7496852348546325  0.8882685198269723  0.4992108091265812
  0.1480152733918040  0.5270690609669414  0.5063037535758365
  0.3281929688615833  0.8706251812923989  0.8677079705772673
  0.4947259138253707  0.8116001825703624  1.0492185852842648
  0.0640010574655106  0.6409718258154422  0.7643404427499035
  0.8408004514482590  0.7256517358258384  0.4580325828710116
  0.1149906836417804  0.6592727185829527  0.6327083064762523
  0.1036889349932575  0.7091111170038025  0.4991832436285377
  0.4957000604611127  0.8756591388887485  0.0368366094199944
  0.4390123886022461  0.8717385554051977  0.1321237322576224
  0.3602552266803042  0.5007422755454531  0.8571699068493561
  0.4412277885228547  0.8891928979910531  0.0728265567384793
  0.3275461654247716  0.5708759265596992  0.7766183565466211
  0.2963251733552456  0.9389851628426508  0.7856016538698412
  0.2296178291757205  0.5266194843177870  0.7519254240333814
  0.7927470554247796  0.7981452749549998  0.4884590065655461
  0.9794406376162679  0.5546308901077244  0.4471868554937737
  0.6356360595265799  0.2253415643708555  0.2662146236962883
  0.9877015634664407  0.6111504089279826  0.2017560196068925
  0.3923403794913828  0.3779816936825326  0.1286479339865678
  0.7861635163343454  0.3548296751480277  0.6909491966078225
  0.8592957310353883  0.9964539530621088  0.9000811498567760
  0.3902155603968959  0.3329368136844377  0.0889682787730762
  0.3923231411145267  0.9278860323621895  0.0472641316109311
  0.0601097712737928  0.2485533401885580  0.8506123862027880
  0.3366562012366930  0.3479607258633707  0.1211209804655045
  0.9758433015762524  0.3495943518101104  0.9291463451965172
  0.6601323787654003  0.0316416822989192  0.5312052763467102
  0.6661457647042315  0.1082062475269057  0.5177644255027838
  0.8523609227321787  0.2144103247076682  0.8474449115652614
  0.2944076384360775  0.4375299329971896  0.0737889270403763
  0.7496100473047148  0.1082443501570975  0.5963545751232112
  0.3457733288720296  0.4537179017306152  0.1428366135561440
  0.7990257496174439  0.1463578911105927  0.6750519591213865
  0.2458417500865004  0.5490405353520612  0.1938845155338272
  0.8630723978458357  0.1711295299251278  0.8029472630435925
  0.2474074541344295  0.5644759545351334  0.1354897887287810
  0.7898407133179489  0.1908340424741565  0.7205835231864075
  0.6267803400554929  0.6682478763398081  0.0092449746577555
  0.8406720015904513  0.2277856586680288  0.7874162214421379
  0.5232702881376337  0.8019336276091832  0.1038476194001082
  0.7854241108942318  0.7148187737457543  0.3887263959513538
  0.8314165874828803  0.6740243187922522  0.2449707551221557
  0.7904329343885383  0.8238770904363748  0.1844553491252776
  0.7918571021335232  0.8095841276561579  0.2462924806647301
  0.3629705241556022  0.0733506962423517  0.9863014994613722
  0.8546959380953365  0.8991731371824205  0.4762588984130965
  0.8895013552921728  0.5502121686157266  0.7497755914713931
  0.8691630675508042  0.6911000069521845  0.0264356595323602
  0.1545732860676804  0.3223014815895486  0.9854484840598915
  0.9518061151960197  0.6789047932961666  0.8933634340431226
  0.7574047141639983  0.2920372758451396  0.7478559579963091
  0.6987052182153519  0.2983143318940898  0.7270788978571204
  0.2274987593717704  0.9666988170216578  0.4793884835674157
  0.6367994469922473  0.3067728251171720  0.7036432831222590
  0.5886597432369477  0.2691007219927939  0.6387538028685721
  0.8706081157515333  0.0716930394705430  0.4850020957500348
  0.6419023941700480  0.2743250596576491  0.5978664540976735
  0.5819930529962810  0.2811134408615669  0.5768255966955604
  0.5623418759818457  0.5704655251329124  0.4691311578277337
  0.8618961677605446  0.6254347544510807  0.9273145385123633
  0.6103231007000888  0.4902754494709394  0.5029955298800491
  0.9388458540538556  0.4592586949106515  0.9514277599379170
  0.8572094368553522  0.5220059029652250  0.9094870868443344
  0.8521258308486396  0.1389802453867725  0.4792893019802465
  0.6949122327855101  0.3349387668688106  0.4266707062853932
  0.9285713778324800  0.6819439102151290  0.6066179294816536
  0.9518365837464381  0.7758347840204419  0.6511847856593448
  0.7378017799676067  0.4334157353965192  0.5593886726350489
  0.6538798080672650  0.3901575617917713  0.5077575739101863
  0.9911498357986318  0.7292122467053985  0.8988277853663704
  0.8564875610326494  0.3347961112200024  0.7747447095098831
  0.8076020712912944  0.2980823941697183  0.7085719031749914
  0.5092223409978187  0.5936118423525736  0.4400108252154735
  0.5063484379360987  0.5500791550867518  0.3964229770686161
  0.5522849758619455  0.5067847016534747  0.4806456074677150
  0.8447930889965156  0.6144568397753394  0.7017693401192662
  0.2714326355479298  0.8874567751768906  0.4555851200721889
  0.8189281377929826  0.5710649643292606  0.6677760933887084
  0.5926803506473569  0.3821273739500060  0.4295443410889981
  0.6382857692900327  0.2563960281946623  0.3722157322729651
  0.9303823441788284  0.7011943228568358  0.7714864620438754
  0.6846198000299238  0.1799187698696353  0.3548077496825748
  0.8749913116220398  0.6754237051960006  0.6464979238543529
  0.8971947196098812  0.6198274502717026  0.6617615310097813
  0.8293643589261489  0.0606155295128577  0.3377195349734721
  0.7809324217179537  0.0907931341743697  0.3080449297741648
  0.7318434347974423  0.1066590404065896  0.3403747046024959
  0.6024555313053535  0.4430282882973167  0.4043516630945864
  0.6865489254584694  0.3177148897654056  0.4872145619276825
  0.7427793098301444  0.2560892103547313  0.4111293821668763
  0.7926105817462390  0.2282820597797229  0.4370356737045392
  0.3533951345776249  0.5948155441736788  0.2744228219798345
  1.0062065925663826  0.4156649773851985  0.8622973001539836
  0.4001704821758604  0.5182595066744904  0.2565177808367596
  0.8065554600945292  0.3294147503040036  0.8159475240500544
  0.3519682478789739  0.5805700136606143  0.3340060323833441
  0.4598884932884604  0.6263336767420310  0.4156685216701559
  0.8436360040816282  0.1504992896249850  0.4196190596800835
  0.6503753476661737  0.8609274250743586  0.0351477205761853
  0.3491089562010699  0.6502357829866098  0.9179404638524894
  0.8549326697295232  0.3667041098667705  0.8816449983661632
  0.7575665014862057  0.2615784866318572  0.6408012369811541
  0.6518956744627570  0.2280955738896394  0.5519967481178695
  0.6677322043004067  0.1719006661991999  0.5679991461931245
  0.4452172394704227  0.4251713508013905  0.3017511449101950
  0.4925808154444049  0.3627618556948641  0.2237352453600887
  0.9989726268991002  0.4702178893912420  0.9128181246702990
  0.9311244506637609  0.4682506964905611  0.8894720332467606
  0.9664687068515057  0.5191986950063751  0.8931332204884452
  0.5371382459578501  0.2854578505941380  0.2104567237394555
  0.7304786544417967  0.1965715811917768  0.6987884406128064
  0.6014355202594677  0.2242922303973717  0.5920259379773366
  0.9529239842971660  0.4130705564816277  0.9073220355880298
  0.3045710964999272  0.6564722477791473  0.3538642076870180
  0.9646027028724486  0.3997114942628848  0.9727632992036298
  0.7751761696256994  0.3998486973378746  0.7378720311623935
  0.7894519090484786  0.1838729575083569  0.3935305620733590
  0.7262430647260547  0.3627981680924885  0.6688091151039904
  0.6674137963929392  0.3697243516184382  0.6455445465180808
  0.7104307433622203  0.3868933618061726  0.5347136093763870
  0.7765088120285991  0.6096726976191769  0.3595111961163044
  0.0332751304594809  0.1864149271422282  0.9071598161945061
  0.9175943759112326  0.0108886121113043  0.4077246945338376
  0.9357944332252924  0.5712197608110855  0.9071952327756539
  0.3229502701258729  0.8505332481745290  0.4763041058453893
  0.8986788732166830  0.5380441373526754  0.8096951378405042
  0.2681720911250822  0.8191217341183944  0.4741641120760760
  0.3093537981166495  0.7182421550873567  0.3396086978293897
  0.8823365815709791  0.4301710130946028  0.8238640993023501
  0.6706949024538265  0.2042204609972137  0.6776895163784981
  0.2637020545039597  0.7942975123610009  0.3633021228750997
  0.6306068310551213  0.1539652644595733  0.6725390916543024
  0.6184030366948614  0.1674740146881703  0.6074007109361497
  0.2087154981995406  0.7664434489131579  0.3502869378772513
  0.6124638483042928  0.0703026775572604  0.5205518816792196
  0.5532053271405876  0.0854866696943380  0.5467583766836333
  0.6660168315757176  0.5000683697147992  0.5191635602504365
  0.7510050508059528  0.2741599857345389  0.5784437167193072
  0.6917994629843286  0.4319577368737407  0.5971710309865531
  0.7903385344511679  0.5075050486912773  0.7250087914831946
  0.9858718152524972  0.3012368835982465  0.8733500765306670
  0.3800253117967456  0.2704060646512225  0.1057072442930830
  0.8861044141250940  0.3979606390480814  0.7199778556011264
  0.9334848786413984  0.3854637739996467  0.5128838360740777
  0.2441452477533874  0.4672497069291230  0.0476719957118570
  0.8720600365129999 -0.0411099355810217  0.9765108440038901
  0.0072702377328858  0.3481000083578950  0.6509256969338397
  0.9834099205269642  0.1847677219171681  0.9491160660540254
  0.0458834249058644  0.7211222665257528  0.1342999784029983
  0.8144577532460674  0.4184026885634197  0.6362415978289598
  0.9951826637084692  0.1321754501782093  0.9134832368820147
  0.9408273725869024  0.1014726888386194  0.8415147590192119
  0.8473061041471138  0.0555255630558945  0.8884547586883326
  0.4174263818471931  0.1525359329309219  0.0380127824517620
  0.4145154232629579  0.1099200061157047 -0.0092644195265724
  0.4630687629904068  0.0707866733992264  0.0209525189962649
  0.9431149221369423  0.7516836008106738  0.2040690133788611
  0.8333079178792941  0.0338958072859812  0.7079824525273551
  0.0147968394542425  0.8410465756531648  0.1097733688720414
  0.0228960255057053  0.2001426657160251  0.8467208237306124
  0.3669345445501442  0.2461886229422625  0.0022317780524739
  0.9710094550268964  0.1631543253269362  0.7828354335647304
  0.1734751594362106  0.6987398674738864  0.9578695069929616
  0.5328055487864315  0.2410962599871992  0.1691736248799793
  0.9949725492967911  0.5636495331479476  0.9313035915919077
  0.0675275028442081  0.9496136742342272  0.3650092655499589
  0.9620187902384814  0.4970206465949298  0.7294903748598965
  0.9234955741013570  0.4473135909275764  0.7232470824932870
  0.1119722991597101  0.8730295276078607  0.3463668458208887
  0.8752201062352226  0.4110043161811761  0.6573010698508257
  0.8159759509028061  0.2217411474335402  0.5587794910436208
  0.0056372762341317  0.3801084507156949  0.7577062600777512
  0.7685028366236759  0.3818319325097764  0.5608777081737741
  0.2036586799279466  0.7196952849866602  0.3040335172035857
  0.8996403152257816  0.8067540648426582  0.5125203731352629
  0.9309420259124407  0.5679239357944658  0.6513807741792662
  0.3028214347646578  0.6266794306523797  0.2475392294726245
  0.8849881794224669  0.4102195833115028  0.4958142528003554
  0.9702183701597465  0.5986393462696660  0.7475200728432451
  0.9207888013332410  0.5815022752532588  0.5923547693358560
  0.3923336570783215  0.4091640984297275  0.2332573031835831
  0.9742022420017887  0.5869727800813700  0.5507724279209398
  0.4407774123291488  0.3461250792719777  0.1544836100021423
  0.9487233284859656  0.6678723442028862  0.5095357289667903
  0.2011671281075415  0.6730169803988384  0.2568444128795084
  0.9310038181997835  0.1164125291673136  0.7783085921916133
  0.8593892414806906  0.1391267010687196  0.6962095296457427
  0.8188155851063075  0.0912747186054723  0.6914424987672452
  0.9452056759975448  0.3884814035521928  0.7387703747384539
  0.9786736337114296  0.2850237336415170  0.7100846096991577
  0.9069363929634982  0.3394486780275298  0.7357676471789932
  0.5620981518692250  0.0141229062756077  0.0775026531943957
  0.9073427584646432  0.3070533649125968  0.6292030282251662
  0.8572954300206220  0.3031278035536963  0.6688629045809440
  0.9275118988121051  0.2497321495905837  0.6458027158238161
  0.7829608388422862  0.0461266259780356  0.9443755083461557
  0.8623272625372336  0.4241040023974975  0.5994896159157760
  0.7929103217894995  0.1003794503320255  0.9058535043299535
  0.8198609116869782  0.0898517873134073  0.5102936477457254
  0.7560818478073594  0.2319832175356680  0.5355885204922858
  0.9465523464596859  0.3569068357724552  0.6334811864676168
  0.1489219745734984  0.6750771755976268  0.1234765531497751
  0.9878470359309948  0.3721181085769826  0.5262920486406990
  0.8416112007457295  0.3305354215025983  0.5455194091129454
  0.8526446752033362  0.2501824597599421  0.5064515435908523
  0.6325105547829227  0.1940979013988741  0.1612498448210508
  0.9717045794917097  0.4842769430901028  0.7884245608875131
  0.5381909769726392  0.3513471837448364  0.4233475591272751
  0.9332225278538510  0.4345948985489770  0.7828803271132306
  0.0264818437728137  0.3521442712474200  0.8794972793791572
  0.7130043795223442  0.1423792596477942  0.5346586635139757
  0.5178691733418470  0.0879961997922045  0.0963297982396803
  0.2028858368963462  0.4825790060079954 -0.0309507193901239
  0.7628281916895816  0.0491530168133553  0.5612014243282202
  0.1899441669216513  0.4378800087220832  0.0371816089065191
  0.2442618855924977  0.3612771715576598  0.0155723847816987
  0.9399180283371502  0.2367277781706668  0.7061158256542439
  0.6572935030907546  0.1675764043052825  0.5059724146768654
  0.7094214282248268  0.1494986881858423  0.4717055865251967
  0.8465789007142118  0.1517230588271995  0.6361661793384793
  0.1880601632700863  0.4223334546174606  0.0994674983177212
  0.9473876894805983  0.1301601803014543  0.9525856705546243
  0.2465347216892886  0.6981421828800695  0.0388501890363620
  0.4778780289792654  0.2248768256406398  0.0979947110815400
  0.9486063289157834  0.4809394425586835  0.5642325256275241
  0.8794278086060008  0.2765495129765966  0.7921179095203960
  0.4671107159923402  0.1300237285119209  0.0092901518636566
  0.8789116561891779  0.2460166995113883  0.6849843523797998
  0.5225940162212925  0.1472926325328938  0.0812237480645195
  0.7685289979780247  0.2170608023056122  0.5969592077831054
  0.4721250422036000  0.1635618043188224  0.1154656646756803
  0.7402761623579441  0.1516686350410330  0.6535228510263610
  0.5671393179975406  0.0739809365172673  0.0602308661366583
  0.7923886203732403  0.4752383159387027  0.6213858236820132
  0.8737102101181081  0.5194630143794708  0.3077683022785986
  0.6033671538285458  0.9557120219790057  0.6071105362950198
  0.5647842713604332  0.9745460353004459  0.8141858067006622
  0.8825927464776770  0.7493101647466514  0.0724912861788060
  0.8920159147798455  0.1480779170158201  0.0955515156778215
  0.1970075373260001  0.9288574504241771  0.8663027512933039
  0.3077995120234690  0.5096952262614748  0.5081498624509528
  0.8169194927636582  0.9542579657815811  0.0741718604828253
  0.9470409429463396  0.1773734786564983  0.1041690153520253
  0.4384642075291093  0.8281334857623934  0.0865816161037263
  0.1086377619755404  0.8754716719899065  0.9041567770046662
  0.4168711218042062  0.7871034084137880  0.1284932311220241
  0.6288766861017147  0.8018707434166454  0.1390616402963285
  0.1434023882789885  0.2146023005704037  0.9936542458308724
  0.1756922359941808  0.7298826869993024  1.0087555615775812
  0.8557416086552149  0.8993633594961118  0.2330215407542565
  0.9398979426562429  0.7024028845875644  0.1588757485037789
  0.0744496749833113  0.8457559266225804  1.0131885060037846
  0.7487028747027920  0.5903747599505472  0.5833292007954640
  0.2169246240385959  0.8595162377025537  0.4466277173135810
  0.7229280250054761  0.0298220129510131  0.1865645831404964
  0.7491078365248349  0.0552564554929945  0.8955323471409596
  0.6210392933368262  0.0699027363500358  0.1939864956422315
  0.5177679301936745  0.7553751038531811  0.0570490312686761
  0.8793761235722688  0.5976674999672997  0.4554995653288830
  0.1600408748377873  0.6492282803848686  0.6830956501882240
  0.8840284370419909  0.6227470620829205  0.1048902589494368
  0.3802559668883448  0.7113448769765218  0.8591138979849425
  0.9336450877393807  0.5947588595495064  0.1330937174113949
  0.0574796685937209  0.6522026371972820  0.6723770076077216
  0.0690285701391321  0.7291779963704565  0.5880137018330468
  0.4016990003479444  0.6541940451966144  0.8773598083619873
  0.4484022331282644  0.8977668267415904  0.0149328188999980
  0.7293926036478563  0.7030130736485589  0.3152884373429323
  0.5761083000386562  0.9634808885918000  0.8757184528125211
  0.6116044435368972  0.9985834729112520  0.0413825684035682
  0.0763566596872632  0.1297393628422614  0.6531914987233381
  0.9564394845675408  0.2698965023889116  0.1957225361198570
  0.1107439438297967  0.9829559812722634  0.5653744825677850
  0.8163851483558925  0.6559355816289306  0.0159903508700499
  0.7216402636906023  0.7862066264333261  0.0101552408485881
  0.1011963986590257  0.1003253919890122  0.7791313273982718
  0.1643646613640794  0.6675875440982597  0.5886743451388617
  0.4247042130498271  0.9172620568115289  0.2623480370844727
  0.8055614070987149  0.3317659370592766  0.2320510917222852
  0.0792499351273394  0.8703435433544854  0.6728899812023350
  0.0924680573897714  0.1458192645279293  0.8238694477739774
  0.9124384440562240  0.3469221354991295  0.2106720957646799
  0.3421339999327072  0.6606488840385816  0.8561350281907332
  0.7788701924123413  0.6567697042929231  0.1737242157072090
  0.9959476791545876  0.3944167513837324  0.6973255409765714
  0.1064281233273133  0.8414821612124375  0.7986309011087760
  0.2969288423389718  0.9941325723684944  0.1632366643279254