C  Cr Ni
 1.0000000000000000
    38.7210597765861735    0.0000000000000000    0.0000000000000000
     0.0000000000000000   38.7210597765861735    0.0000000000000000
     0.0000000000000000    0.0000000000000000   38.7210597765861735
 C   Cr  Ni 
  50 1596 3725
Direct
  0.0072822901773268  0.1652488231835195  0.8809115451842624
  0.9962579645538231  0.1384067366305036  0.9725628410304364
  0.3430018991464785  0.5492638688638083  0.0152791803481621
  0.3097411214745220  0.3676419626210611  0.4302292320488950
  0.9837580848137687  0.7998822170258297  0.0976581214092118
  0.2044584462661058  0.8788862020907496  0.5054880129523404
  0.7150297969640844  0.7779368894690909  1.0048774696090434
  0.4864656486762625  0.0762404117749511  0.5934063668170340
  0.5968094916688220  0.5337888866224133  0.4794778082585869
  0.2666449404676496  0.9865672909185411  0.5467300479670680
  1.0350117476862013  0.8972437295025399  0.5224138130442947
  0.7523640793532370  0.3988751416134962  0.5231025039643317
  0.0240900566447406  0.3913003949825953  0.5018866470446277
  0.4802750747827206  0.5255773195183425  0.1956044308177215
  0.0462854969409392  0.8204310040929148  0.6196041128951651
  0.0665710983315579  0.5492784568724156  0.8588474869778671
  0.4085003815456318  0.8832805615858108  0.0342671132185919
  0.3669599244919182  0.2592560141569124  0.5212372573950877
  0.2313785794659521  0.1302038650814734  0.9181062816234022
 -0.0150251129089913  0.8115256636132856  0.6656632875665052
  0.5016815888784287  0.1798570288120292  0.9424694209157751
  0.1569106518868640  0.9610624822776239  0.4969583512644252
  0.5124781298770512  0.2550695031464326 -0.0027150599442262
  0.3853333197700297  0.2316018644714923  0.0030450961338640
  0.5396964701518517  0.0403105791973427  0.5550641654585409
  0.9772777061982481  0.9960080198257215  0.6697768129793247
  0.7581931483375088  0.9486046699801977  0.6678766743031109
  0.6293386086728008  0.4113630287878211  0.1044594063067572
  0.1879933650571475  0.9241060886485440  0.5687142095177768
  0.4844598617367200  0.0419161784960079  0.9713036897306719
  0.2564746083828207  0.4484759305206204  0.4488444542918447
  0.8247337954921584  0.3357431091623384  0.0282455251207499
  0.0848322068120565  0.1017994085929428  0.5570032561913704
  0.6137959637719210  0.0424916693296002  0.5616034357195813
  0.3861778945974869  0.2840346486875779  0.0641083204477365
  1.0074071799231357  0.3661232883721680  0.9627070860922888
  0.0938863623949737  0.9510674766790184  0.5750647329480781
  0.8112048508638208  0.9396503153847341  0.6076064736148312
  0.1145201790782051  0.3906771071819259  0.5304568847951108
  0.8008168791402559  0.0117133406534653  0.5749228204516389
  0.1017254266598447  0.1355587174571707  0.8651851919945480
  0.5216024884934687  0.5399647655332165  0.0188879791032214
  1.0375787419301892  0.6569489719516661  0.7198476387182131
  0.2407095945309062  0.1677885922916940 -0.0039067766001127
  1.0131051729362779  0.5183966265731882  0.9132389571008206
  0.4520561876168696  0.5552319147797564  0.9872899863459450
  0.1598305248772168  0.6437672172478616  0.6350110635093682
  1.0461449507646483  0.4588341482982669 -0.0125607007981500
  0.7580109834405846  0.8907756752737969  0.6070615276725878
 -0.0171360709115462  0.9524266550306940  0.6128898677642135
  0.6572380235028379  0.4399210066019312  0.3124168243295208
  0.5331922222667554  0.1765564357479525  0.8586748050618742
  0.4840007380449966  0.1381189644380876  0.7904553099199353
  0.7041553305737638  0.5870521390523052  0.8836903209351906
  0.3947770426977192  0.0508196061268677  0.7226640293172187
  0.9402592050780094  0.0849663512914624  0.2446569477683808
  0.2743163920137982  0.9480224829687525  0.4419837120671034
  0.6445913369625630  0.5943527942168536  0.8614786769886410
  0.1869417385277484  0.8122148183019513  0.9442912608205665
  0.4280967662431365  0.2334677732346929  0.5879631575207499
  0.4293403032647729  0.1906005385269327  0.5476576441768816
  0.5962956958880045  0.3225087503800870  0.9138230254551677
  0.3228619849465088  0.8689564085355245  0.4143770156002999
  0.5983817605966060  0.3945431170223668  0.3659493770737406
  0.8546542050978609  0.9431793445177284  0.5307907202241281
  0.6593703865943149  0.4711190519633907  0.4158941273966433
  0.5553915904420835  0.3712319798437401  0.6637612002076942
  0.1606088318043440  0.8432824720921754  0.3713264258225198
  0.7336507444696847  0.1323653465827637  0.2158208122732955
  0.6934471102464083  0.6331234028749840  0.9264094900249074
  0.6996067081020070  0.5169838813004624 -0.0308848945229708
  0.5728937019056212  0.1564868716890988  0.9846529560976026
  0.2905823200647966  0.4549216639676509  0.2409734040986425
  0.8466176765519779  0.2252058741231917  0.3421880950595890
  0.7475973377751202  0.6766455671059487  0.9928556259184109
  0.1254430173637941  0.8573100842515705  0.0884076272454373
  0.1320658357204696  0.9371718456197441  0.0116603562333517
  0.4844406238094091  0.3703020475856397  0.4664018925861628
  0.5041431820961484  0.3403914903651609  0.0518294850449062
  0.4368104256289873  0.4741605232535158  0.9987388447436485
  0.2552486818786340  0.6908565249341907  0.0996642443713210
  0.5123268721801457  0.6194056940211525  0.7564214507703596
  0.5537314661336141  0.4032639288876820  0.7740182009489291
  0.5797733440831743  0.4991735985502465  0.8223231062089595
  0.4756624362085906  0.5209675301480692  0.0123856940681909
 -0.0172427091910653  0.2335540294275766  0.9929490139255657
  0.0136327670231624  0.9677489930167280  0.6508293828940317
  0.6722402659224304  0.4873120998225559  0.5805121847477926
  0.5477025836751802  0.1664971307609099  0.9219258819961418
  0.4844960902562964  0.1722730737061762  0.8939817816470392
  0.4787215127212118  0.0199172705374141  0.8685676080005480
  0.7417618618500650  0.2402625785538697  0.2431287826553549
  0.3349214084158321  0.0907458643849591  0.8057575829386924
  0.4178685670955202  0.0266622075458096  0.8467975405495648
  0.8431472267401031  0.1786391371272554  0.2979557535920938
  0.8278895029022282  0.0268447083002118  0.2268564619954027
  0.5798926609184195  0.2157753127004340  0.9431563455045103
  0.5662811623426048  0.3262960687960088  0.6187847370006272
  0.3545143775180065  0.5933442698000829  0.0461374231120349
  0.3153699216809706  0.1792731462030118  0.1144776105155598
  0.0844013744567511  0.2205208211147981  0.9728701692865953
  0.7919353308948730  0.2577459343132548  0.9317071649646254
  0.5903593558408352  0.3010845637299175  0.2829148869237894
  0.7169296712131563  0.1555473863268502  0.9216095119582199
  0.7297668149194375  0.2310171935762994  0.8050813730620981
  0.7156025488192439  0.1235682462850484  0.8176100237003348
  0.6318468033453459  0.1875601637910965  0.7792719916551292
  0.6535200311054734  0.0962859669820006  0.6869976106215355
  0.6879680052480510  0.2098920934627918  0.2327414091308386
  0.6524639132537665  0.0714248547602352  0.5759252398262735
  0.5418628158061799  0.9976624581321407  0.6868256758292866
  0.5367108896733221  0.0644314801187871  0.6005228250297066
  0.7805428417674777  0.2687992204454344  0.8718136875414330
  0.4060278654631101  0.0451226418395774  0.0103888657232439
 -0.0057162616019636  0.2995479767924814  0.0265488932677350
  0.0430050805476536  0.5647179229465761  0.0544991916502486
  0.2687146490688740  0.2220022252452129  0.2571814819487967
  0.1691510491784488  0.3008404396598868  0.3693587038776786
  0.2336399451082898  0.4089641299208939  0.2945201985185297
  0.1784778616488472  0.4098538424962893  0.3867802119913327
  0.3570856507843115  0.2836427967748069  0.6122997628362467
  0.3136327987082424  0.7948655697958610  0.2627288222410453
  0.3605390711711661  0.7203127305372716  0.2433034597467369
  0.4562902421117200  0.3271364327500277  0.6383142464707954
  0.4886777243453547  0.2581757483616730  0.7171813298853718
  0.4672948328506109  0.7041199564518905  0.3372595796630677
  0.6192100183352947  0.6130926115478729  0.4170584314670829
  0.4209002942270235  0.7651101228002601  0.4184192208911754
  0.8036026493217777  0.9635705600505006  0.5596412953750737
  0.3183230759754354  0.8252128755576045  0.3706035010784956
  0.5687788586394908  0.2253163757587360  0.8693501503329343
  0.3239964142550971  0.0695322676319199  0.6369604737279214
  0.8996284429606082  0.2409913958248124  0.4165307084065650
  0.5727343681090571  0.6884966410173522  0.4352919029490825
  0.8554246001512937  0.8213119754833640  0.0063261580687202
  0.8687804272054406  0.7770584244951954  0.9603867827419323
  0.4747123284735871  0.7812455922263191  0.4883536928549393
  0.3927746235154834  0.9158131644708648  0.5998047144892598
  0.6615518117110689  0.4343237310776341  0.8620803916485591
  0.9732600252632719  0.0406725471360798  0.4200339381943491
  0.2722646896756258  0.9153952718145120  0.3282371040287049
  0.2168744855946629  0.8862391577989414  0.3192670731958050
  0.6035518258144824  0.4083201203868320  0.7344002860882153
  0.9192988695358796  0.0143175674248772  0.5775599300382861
  0.2674556231165823  0.8556540433399550  0.3465845951635537
  0.6660944822051215  0.5705628891346153  0.9848016414852683
  0.6272510897228959  0.7356141420160925  0.3832869572839886
  0.1480756905232931  0.5767330289534680  0.0396607402929510
  0.8510195757233623  0.8743771849236505  0.5459891521789377
  0.3986012959446055  0.4392141030336221  0.1085141991858321
  0.7291764678342392  0.1924390091664685  0.9734524857373361
  0.6943310802454609  0.2133656781197366  0.9095617082992079
  0.3523787853651671  0.5332643756908726  0.0660772028968218
  0.4768236023408571  0.9187449265426701  0.8516789954306817
  0.5888864121625158  0.0175913003029514  0.8518397233558527
  0.5380393675929761  0.0137380986429242  0.8918524592594925
  0.5239206017450948  0.0585066889350687  0.9336343506138048
  0.6274813153665212  0.0674479818636526  0.8550827850916580
  0.6986552501335223  0.3474619332241120  0.3617498545064081
  0.8385761558804743  0.8120990959490570  0.7730762807668671
  0.8374977967212551  0.9886194362230843  0.6768570079443185
  0.3908717326657490 -0.0085758242429492  0.5229852747771911
  0.8981086094467047 -0.0196674696688881  0.6948500727605865
  0.4672563415941725  0.6880937330350700  0.3968342207930231
  0.6376547185034536  0.7591960727025537  0.5486101544175324
  0.7476085435488293  0.8650557269330572  0.5627865966835567
  0.4251272133597011  0.8268327419217276  0.4041322443417365
  0.7502512764630570  0.8958819770665999  0.6626726710365441
  0.3731021152918195  0.8231376093949596  0.5018423101173559
  0.8090736648552868  0.8829782567886616  0.6909164865039040
  0.4721745320548443  0.3660054610042887  0.9810878089476031
  0.5403862006451512  0.2635893099377117  0.0402817795962399
  0.7325595089867578  0.7179633226842188  0.4813162948565213
  0.4466089942295756  0.3606866154799249  0.0971612406614917
  0.3544300796253042  0.0418352837969150  0.1105792231048219
  0.2043450028083857  0.1495116045749166  0.9675330018461348
  0.9820020387433769  0.5132296221773778  0.1152584767740432
  0.0816248387239012  0.4053784276508297  0.1255057439247446
  0.2502458616159603  0.2952624776044521  0.0207736903751625
  0.0274611846708644  0.3771164829071331  0.1198119291453875
  0.1692066753773635  0.2844808418311806  0.2034082483264283
  0.1344060144782005  0.3432896575011621  0.0454083376667760
  0.3004102429103330  0.1254458124514177  0.6190621217849496
  0.4408541112207096  0.0761624412330278  0.5689397990317342
  0.2923336265370837  0.0997683143777664  0.5070029303323512
  0.5075723328380375  0.0817872798133997  0.8080725639748656
  0.5364102057285701  0.6667511589886824  0.5343479756663503
  0.7944989309310470  0.7215532340254006  0.9985604963106675
  0.5256781586611996  0.2619131796100093  0.5047459520232485
  0.3418809303808197  0.2154178785132709  0.5114854387305474
  0.4707712497496673  0.0229847054226553  0.5975727072576966
  0.6012440498127818  0.0595663786382472  0.6132235812454248
  0.4963531505278717  0.3052893615908969  0.0002695528762886
  0.4073284082188515  0.2773980256945435  0.0185569256926124
  0.5552421586281960  0.0868990264746289  0.7694114574426966
  0.3264147691877632  0.9141551396695377  0.4679343517166291
  0.3492202994975687  0.1300629413041591  0.5796615105781827
  0.8649754189295322  0.9056375819474713  0.8194205545376885
  0.2087521018287372  0.1642799662507718  0.1398615821731072
  0.9723389632032019  0.0249266148975244  0.4800802959706247
  0.6288825954677850  0.1667920859775658  0.0562180773081331
  0.8264491130532838  0.1554041729283576  0.9044356804048034
  0.6236369286565032  0.2481936529548920  0.9874890994780153
  0.4785062808890236  0.2357899554852429  0.5487355852460353
  0.2569710703708716  0.7367514026608408  0.1451354370209138
  0.1544321657566651  0.7837302545677990  0.1544880861938498
  0.2128078044512569  0.8415541796572130  0.2728197701065533
  0.1622638408597261  0.8742767049013529  0.2471015127199962
  0.0614958000232534  0.9209985511086726  0.2571497929527289
  0.7718771894279953  0.0124772453660475  0.1532414440620651
  0.0952094826395160  0.6595956965745496  0.0528849992231517
  0.2553280574086774  0.5863411365907293  0.0130643671830366
  0.7169330146249615  0.2757642599917518  0.8483689020494786
  0.7190332968192883  0.2422946240182308  0.7452812040617086
  0.9593471891870828  0.9417907849210544  0.5698384858881196
  1.0059562677534548  0.9880646727706445  0.5867071170204344
  0.9033260812588108  0.9099659441470112  0.5491504861663357
  0.0323037925331733  0.5184163510077695  0.2453533510723614
  0.5819225242705621  0.2083991736954386  0.4249088568857260
  0.5329779841111846  0.2006240821132025  0.5216130844252780
  0.4753638228711966  0.2383463034057992  0.4921407096535881
  0.4212092269368021  0.3968911587220207  0.4990760720391734
  0.5508152509255516  0.4257552322533724  0.3379649242857172
  0.2137880320522934  0.2083213855313122  0.1855548803372800
  0.2605132981090574  0.1690552194930822  0.0426490137183348
  0.1466156417984321  0.6573426547585024  0.4149362799230036
  0.0615141503494803  0.2533258500428460  0.2929985664577668
  0.1115021075660572  0.2382473599981748  0.2559086901626027
  0.6065420321918684  0.8268766199527733  0.7470629172808838
  0.1108927109756311  0.2886016907299176  0.0718160545412919
  0.0870489746007508  0.4301788940471170  1.0023390138613721
  0.2227985777219563  0.3087010549553893  0.5029375421679977
  0.1336494771364292  0.4231277417208220  0.1966691660690649
  0.3891757404228537  0.0106652973950633  0.4601331551586349
  0.1896953686137417  0.4694058106799944  0.1429534993140108
  0.0906536451758394  0.5794717344430685  0.1325600701146209
  0.0640225391638484  0.6255615352355136  0.5688296453355085
  0.4213760468993735  0.1781313692328990  0.1484102653498716
  0.4645142704145421  0.0872841816586101  0.1941159561733197
  0.2489930765263339  0.0607222413058053  0.0144330213222884
  0.0191672528778136  0.3773504789694070  0.3473841508356936
  0.1357563673418629  0.5340091919321005  0.4472615133190693
  0.0776261847705337  0.4573340426510004  0.3948058450211610
  0.6754007071889719  0.1076298700732069  0.9190663843884204
  0.6540008963468574  0.1307280131971914  0.7949208946052709
  0.5779913409069166  0.0285828354502254  0.7875107629003161
  0.6951649546576303  0.3654710861059141  0.9381629783209943
  0.3050700057572191  0.0729283636385526  0.0841126383417188
  0.3679752108932102  0.2719094419799133  0.6729649661464154
  0.4372426970926981  0.5073963870370801  0.5479810296197107
  0.1351279359442011  0.9483949419088556  0.1782192334842807
  0.8800586474254556  0.8315890579086997  0.6710495163957187
 -0.0026209863451068  0.8152410700701543  0.7149676050449736
  0.7177004727941347 -0.0031990707585304  0.0795696215083165
  0.6642615666960825  0.0426168690082994  0.9857545369362323
  0.9715693231710641  0.9359799689648126  0.9051272439031710
  0.6905893063872945  0.5951701132097931  0.5601451663174334
  0.8920763550725117  0.6521048874208024  0.7687810878672668
  0.5861509915046811  0.2406207371995411  0.0747254320142604
  0.5500085972256545  0.3589165637114049  0.1253653214498667
  0.9411535255716010  0.6897415779356173  0.8336390476960074
  0.8474712521307497  0.7992632400163212  0.8356204933823067
  0.4479999314156099  0.4075450919435520  0.1376632180888267
  0.9698104359651218  0.7836322274227380  0.8810038573721666
  0.8808342898898652  0.7306410747568137  0.9155489996290684
  0.9251971975029466  0.8990532180599780  0.8426939179361641
  0.6149303578999966  0.5538518385914143  0.4344046724238540
  0.5119159766081887  0.5523261574189335  0.1685027752949576
  0.1595791192309198  0.8449335621444748  0.1404398024842103
  0.2088194333307271  0.7966685867947358  0.2276601680155024
  0.6316396146685607  0.4705899040651810  0.6794944719298690
  0.1847828545728731  0.9334119079087292  0.1439996470367018
  0.7922083128842894  0.7549960544006428  0.5464522673220363
  0.8054417115090523  0.3634221411190207  0.3359265553647032
  0.7940391985662214  0.7435870833579784  0.6045146082506517
  0.7101221098320415  0.4557244982223924  0.3816075845298411
  0.8171432227491597  0.4705891979879400  0.3589460828297661
  0.3941640357410509  0.3987813565434226  0.8314239528911246
  0.7193620457518758  0.5626281851905541  0.4149164869750142
  0.4499405367755480  0.4233482384144277  0.9570156204042154
  0.1356173600132870  0.0907530205836145  0.5688049881415010
  0.0867159072458616  0.0502395450155595  0.5621527445318694
  0.1412464951667311  0.1190536362755634  0.6759938314810602
  0.2517093639352609  0.1194928957428134  0.6589961908832829
  0.5796144591634033  0.7956018743892457  0.4643352508786470
  0.6929123319793772  0.8708585808651734  0.4245247661946305
  0.2424476562880572  0.1982943551469640  0.8099632305177650
  0.3024309270923559  0.1918882407660484  0.8316137216586126
  0.5434295726968849 -0.0415376925600925  0.5818746496721459
  0.5857239913560005  0.8575076527671246  0.4495489727537927
  1.0001892461144928  0.1454698468691879  0.3611870282568752
  0.4394132317364908  0.3137536430516087  0.9731989249375060
  0.6113901732156063  0.5328733551551936  0.2666180972219404
  0.7118629342043589  0.4387431799411580  0.2164432343529815
  0.5732492041606134  0.1171845364373795  0.1076064975925861
  0.7602635684120607  0.5462674423963065  0.5418270777184995
  0.0786896939021974  0.9170962233318471  0.1676414398611681
  0.8594762584047756  0.3791616134201961  0.4059013480483262
  0.3302585502603773  0.2546751845049132  0.7747288217903424
  0.7041048622675234  0.3511334642347933  0.0061472381162652
  0.3850298407159474  0.9733112540482940  0.3385399190595482
  0.4818693179187338  0.4543327979686430  0.7951713955742252
  0.4417992580754539  0.4364349618545723  0.8957436952865077
  0.0453789443247175  0.0686084241342671  0.3418720667826045
  0.5406207102572114  0.4802112101427873  0.9229151348118914
  0.9489475309316837  0.1770108162238055  0.3364916237559874
  0.1881663834900282  0.1546922569613629  0.5126201113215687
  0.1905737373418641  0.1255041505212849  0.6359736708236171
  0.8977778472583313  0.2083379817314815  0.3087728991447991
  0.8328603523088619  0.6601726337420623  0.7465545922159414
  0.9965237150116257  0.1315788574837789  0.1920900039456599
  0.5680794556986617  0.5443440730787031  0.8645762147493309
  0.7956351109074745  0.2383105243419701  0.1481065800295487
  0.7162486600045651  0.8588118979828177  0.8349381070751729
  0.8120672755796361  0.3832079083515239  0.0384413063700259
  0.6599105359971194  0.4205414040702442  0.1455573076695482
  0.7769895278596801  0.8867767073454069  0.9625027491041772
  0.3283282710666541  0.3919701803116829  0.4691671310203532
  0.6047468813496394  0.4239101157874121  0.2417036976834105
  0.4775819507397727  0.5543906649781630  0.5552862322264681
  0.4995570962453427  0.2772886933815346  0.8865088977023704
  0.9939782864311995  0.1056878359014735  0.7998249244066613
  0.5819882170148492  0.6346040844090863  0.9440820434689489
  0.6912275627127138  0.2406374144543796  0.1087583891485550
  0.4048650147862504  0.5792337902670162  0.2415417118991783
  0.9618049766217589  0.7131220829201839  0.9982955244480761
  0.5499479551214129  0.3928670633763834  0.2335510969498315
  0.6029685679066378  0.3873855708930339  0.1374898353380317
  0.5390737854963227  0.3947955084062600  0.5315283464055820
  0.5033525918244365  0.4385658619099089  0.1435222435423237
  0.5104612673967200  0.5820781138281830  0.2748228262293539
  0.6534966682430228  0.4137608069126192  0.6946194718118448
  0.4471829079586798  0.4392908058105583  0.2414301477765738
  0.2051580030302099  0.7684794349638744  0.1204035706579836
  0.7022456424200989  0.4513183861677759  0.7610923028149347
  0.4073612919368159  0.6252443991690332  0.2854794855451676
  0.7304515744075593  0.5151753401195439  0.7022559148688157
  0.7281835749490192  0.5476085659415973  0.8077622596165965
  0.3644988589732224  0.7491714930068284  0.3494889188204817
  0.4125615467323093  0.6883965443118510  0.2680836080249491
  0.7642458871364008  0.5798051258802158  0.9043574994339965
  0.8652846087145722  0.5104610886003116  0.9678307876808371
  0.7933462715095869  0.6755598185593948  0.9528145686196006
  0.8330736120611467  0.7282291981765732  0.9555214086749098
  0.6393816534228168  0.5536932145176390  0.4983890460768567
  0.4057101950271085  0.5950284981705000  0.1802982642297121
  0.3900642257141773  0.2478201957407404  0.7962237542712978
  0.9513872987424941  0.3195630958672471  0.5252910797127032
  0.2140554924996884  0.1356771537595968  0.8675128641139636
  0.5739306556969107  0.6132725269144179  0.7792992161337915
  0.9526499999045299  0.3189669252930058  0.4665481294109286
  0.9623979211419390  0.3818462999028182  0.4437791859646871
  0.9351243318547483  0.4487924185684162  0.5108211837274796
  0.9820805204495120  0.4229262766055907  0.4888671770648299
  0.6868466426102708  0.6793548050171956  0.4802635979092082
  0.8182560664079183  0.6496541887939448  0.5234766765044677
  0.6844808297911188  0.9289228366966390  0.7519295164418183
  0.6741715217625517  0.9722387799746423  0.7939987687358632
  0.7341823278523854  0.9654465207281197  0.8170406592398813
  0.5615631998098904  0.5511742889830515  0.0736788183243848
  0.3646259166065592  0.8196243059291968  0.5552324865697903
  0.4839442438113016  0.7844881640793976 -0.0019930356629436
  0.5083679300822740  0.7512234533650252  0.6131950832287433
  0.7202492927910988  0.7915551685792088  0.6221199784569651
  0.4128097751729846  0.7379634718002550  0.0860733973612520
  0.5900889724070872  0.9010379248904418  0.4961207147345613
  0.8616441502902666  0.5896329503849125  0.5671966996706099
  0.5582074466267580  0.5020893264732617  0.2568191400545952
  0.5223698856106375  0.7505322955367384  0.2878407729552077
  0.6648720310939442  0.5164502020971566  0.2325938001033033
  0.6120291410604998  0.6625553284438650  0.7817506894177785
  0.5250420925919164  0.8543582340603414  0.6016298802805328
  0.5346788526212750  0.8557993117501960  0.5476101099874822
  0.4921779914095744  0.0606345413309503  0.6430435241412931
  0.8959571795152531  0.8369330522764559  0.9020398622843464
  0.4236719427972501  0.1135482142414271  0.6643198360028395
  0.4724806758982508  0.1506752714934224  0.7294292234323152
  0.5641935364595954  0.6119006118397808  0.2844253675725504
  0.4608934792761920  0.6270224328507995  0.1889423397450168
  0.5493873825737950  0.2513583101027602  0.7401305233684006
  0.4582554363004399  0.2920833587396526  0.5298178693701466
  0.8549122108672013  0.9183697549137403  0.5952204768967395
  0.8052759568094566  0.8902052227441664  0.6277161193693647
  0.6066301114283337  0.6404406645419889  0.6168359513853402
  0.7643655766771280  0.6794129806376418  0.6635587982599909
  0.5582083985546687  0.5358788427828397  0.3607976916974470
  0.5931882705538005  0.6868109978980628  0.6592276736434541
  0.6626648312875191  0.6677799324887130  0.7428748938187560
  0.7338187305539958  0.6164901102808263  0.7210514953557053
  0.5511240493687164  0.4992311273903357  0.5385919161858188
  0.7208832777434857  0.5279124559747298  0.6429883853835076
  0.2369052265014439  0.9194487022774473  0.1100673036314965
  0.5728794256569354  0.8954355414153397  0.6643477580306727
  0.5746058192381919  0.0123432239216778  0.5759566779148194
  0.6561004756945112  1.0101530873689681  0.4268866579530550
  0.9036143781792971  0.9402275175587331  0.6557439417155914
  0.5411439415488765  0.9146842962435631  0.5337266160271011
  0.2334378442453398  0.0807841203611383  0.8884264782888420
  0.1341727594238132  0.9209261845561982  0.5777708925211782
  0.6231022213986041  0.6517903570287435  0.8430021323312229
  0.4096046980306921  0.2206744278522697  0.9171924561880545
  0.1863353090960405  0.0428958760097650  0.8233653222500201
  0.4857466126447082  0.3901021292131723  0.5808775601082047
  0.6508204026499622  0.7136076150622136  0.7845071826825338
  0.5799458129983869  0.7310264257675075  0.7017042386406072
  0.3576616225031347  0.3171507232026848  0.7172871017706340
  0.2793627875133503  0.2155010350809315  0.7082803353025725
  0.4401374723957954  0.2534396226488304  0.7563182494848625
  0.4783925448974035  0.3020066066846213  0.7628005536656168
  0.2635448584241251  0.8213824744369002  0.0753979835059903
  0.4559315889901939  0.3590294348902143  0.7460133023497556
  0.2106161251130251  0.8316499730955291  0.1050722700915768
  0.5039790989540920  0.3973516148730980  0.8129214706221305
  0.2331439864391871  0.8739180471022464  0.0620712844583565
  0.6123099211198877  0.4286953952787654  0.9017577623667706
  0.6024704176001336  0.4408742302348500  0.8409375663107781
  0.1343588192167823  0.9647340709382437  0.1180129705387552
  0.3017546739666433  0.1599561277606982  0.7255290439533608
  0.1176188671270404  1.0090543152437779  0.6792427619862738
  1.0035950630046573  0.1913083579136762  0.4053348360917620
  0.3005319739099808  0.2235036474456931  0.9352270106748058
  0.6491775523423042  0.7461154420340856  0.8885962950323779
  0.2249041744325688  0.0910540191270890  0.8249880540197939
  0.6014126666656318  0.7095555306463833  0.8248917819583306
  0.9040243874418058  0.3035992900890043  0.3995778036329856
  0.6112920148278114  0.6963039591805713  0.8860223634282760
  0.6714423214620644  0.6894133268819335  0.9082107473191829
  0.5186305975375999  0.6892589293178041  0.3036071327965916
  0.7207778977860175  0.7305386665669925  0.9745618069026853
  0.4235749048030625  0.8573791545899011  0.2820497540006870
  0.2575437569907090  0.0274152722577870  0.9117529712691282
  0.3732733019029330  0.8716417698973649  0.3173932333586021
  0.4006964885967000  0.4859147909636288  0.6520547154121037
  0.4495893115908641  0.5246564342491812  0.7160966061751103
  0.4868449062129757  0.5747591156582866  0.7201085258710238
  0.0333693195849330  0.9775812862157643  0.2497005684419043
  0.5341879359831210  0.5950908188871357  0.8814300613990278
  0.6177329203405129  0.7818136598335639  0.7037714238749183
  0.7943765224214582  0.2242922648539103  0.2090537307230607
  0.8512892628042003  0.2855032689898867  0.3235795697907211
  0.2490016623363799  0.0893778241660128  0.9454182477985585
  0.3827078774592684  0.8028603602288351  1.0118514346995584
  0.5358609527423068  0.8466299338120815  0.6630638670857143
  0.8197155896923142  0.4984282851946001  0.4630561310175932
  0.2545192031739881  0.7546084973216473  0.0855106259360240
  0.1528566616362908  0.1068695326924738  0.7386113230751040
  0.2512877749267992  0.0186843041574725  0.6435739983441341
  0.1754003600338410  0.9811621460878890  0.2760847623417717
  0.3003444383056963  0.5645034883733380  0.0430978850952213
  0.5177294203794860  0.1192586550267414  0.5800626948994506
  0.6783941757531121  0.5431662843847325  0.8467854387628128
  0.3218981252464398  0.5847965246439848  0.9806919775698318
  0.3713004552976637  0.2107890192461394  0.3539370407030049
  0.3755133988706618  0.2572531626946886  0.3997140270713298
  0.4619150503127523  0.0564029710118765  0.3185086610375839
  0.5476303356371007  0.9956670297042395  0.4569750135505685
  0.3675282068005686  0.1636397598340416  0.3103214614881417
  0.9113978892910807  0.9749015530014149  0.5324264341856071
  0.1005115976905522  0.8669264046713276  0.5789281788488745
  0.3187251103529214  0.1911802452493646  0.2838902813752954
  0.0610206526001630  0.8550741496654078  0.5112837045325698
  0.1082636805320759  0.7672902090536846  0.4933982163191749
  0.1962273326876165  0.6250590435483597  0.4458355366256103
  0.2523828136870674  0.0707811389022767  0.1818620725815207
  0.3956155139579169  0.0510996470337902  0.5100427829554049
  0.6236094174574369  0.4149429231226131  0.9683043638193943
  0.8306818871584725  0.6928412383064603  0.8504318642306473
  0.8047347620544644  0.5962705746928932  0.8038235455926468
  0.4338170571191827  0.9342817459806286  0.4366191748737708
  0.3458773720610365  0.3621594706187146  0.7641334986312480
  0.5008749283862173  0.0723040020922541  0.4781261776049214
  0.2970996464145961  0.3235754687243698  0.6963075461592905
  0.5270728857152158  0.1596822722108128  0.4769699072429197
  0.3045725887563541  0.6107187575270850  0.0838775107033048
  0.2364548765223601  0.4550549126565855  0.3359767846384836
  0.1347142850510352  0.5021593411640098  0.3411723302748365
  0.1425915447437810  0.5975677353750900  0.4298819917842383
  0.2897171599783157  0.4714361739703507  0.4091217815173334
  0.2361502823072651  0.4919430524498946  0.4369382262104782
  0.2841858695879865  0.4114024031144381  0.4269301515293669
  0.0434647002691147  0.6734003713552410  0.3164470512796088
  0.3814862433698152  0.3154819514298670  0.3763079228394134
  0.2802807965492510  0.3636650133696214  0.3853561017519557
  0.3776983781775135  0.2702737177510833  0.3349215325186619
  0.2446371898903842  0.5644114188537612  0.3601782383678140
  0.0350340641077618  0.5325262383965832  0.1833471699444389
  0.6256850024634223  0.0842189902335945  0.3624183591666961