C  Cr Ni
 1.0000000000000000
    38.7210597765861735    0.0000000000000000    0.0000000000000000
     0.0000000000000000   38.7210597765861735    0.0000000000000000
     0.0000000000000000    0.0000000000000000   38.7210597765861735
 C   Cr  Ni 
  50 1596 3725
Direct
  0.3179771752909586  0.6653087772118739  0.5114872345027820
  0.9964791189777207  0.1398466908521174  0.9715633482274559
  0.3431156684932293  0.5497249608658245  0.0149115531855918
  0.8193748352512966  0.7731132933198240  0.9843705199659257
  0.9855664077375698  0.7976462419688856  0.1039778689542601
  0.1822706040294776  0.6254740481995331  0.4970372030139408
  0.7175046706687054  0.7715884316935848  1.0033987368439765
  1.0434868437980849  0.4946194441178554  0.9065490731067806
  0.5975029103715096  0.5333872307562951  0.4803242289103848
  0.2784543771332242  0.9202668117693231  0.4866578116800247
  1.0288621049612132  0.8975306875030838  0.5217145001325939
  0.1155682576562826  0.3913759843214688  0.5299865832203448
  1.0412190374639674 -0.0292020107659395  0.9620473503433382
  0.7753211693638734  0.0784097703398270 -0.0218588417417681
 -0.0307092209773768  0.8366382397337623  0.5743908221249502
  0.0581334404077202  0.5853097192649980  0.7319658217182360
  1.0457411461325812  0.8851883277155015  0.0172362966637647
  0.8404034913028209  0.9574653850861143  0.5803589921984215
  0.2306638208222494  0.1310412500143786  0.9180196818953970
  0.9871464232505857  0.8121871515041643  0.6662223891722191
  0.4864868672995609  0.7692516223808151  0.0381431510158059
  0.1581464677207889  0.9603552557226013  0.5026444905966109
  0.5101466140779474  0.2519867628730085 -0.0040924129646919
  0.6119190419648589  0.0441425164159506  0.5627643444713054
  1.0235803865960413  0.3912310563676645  0.5013842409736973
  0.8107209476651660  0.9521681060018476  0.6995328423078068
  0.4780887546252207  0.0680754978192437  0.5967547905220386
  0.1077652991693154  0.1386803556112636  0.9444789615627293
  0.2554389867489392  0.8243839977786750  0.5222229929108250
  0.7814303792915859 -0.0034272909068206  0.6542419829599896
  0.2571585062307528  0.4474603062465061  0.4480227047430879
  0.5254697455174694  0.3500820958379767  0.0892479883724720
  0.0862146904483256  0.1004561700986897  0.5593246206840045
  0.6519888345867615  0.4029498214772464  0.5477940963047375
  0.2789618179870682  0.1058001063643763  0.4104879752830417
  0.4959318083576134  0.1378170600802455  0.6535968511146285
  0.0935968895728873  0.9492716390445892  0.5795556399074064
  1.0557186614224903  0.8632406365144021  0.5717821685943574
  0.5382015439351858  0.0434202930124393  0.5553355946695467
  0.8772391430992067  0.9056408410480278  0.5164610664813193
  0.7407090336163399 -0.0271268620942574  0.5610926438354654
  0.5200481709065776  0.5387379745177648  0.0179019419126371
  1.0355536792784397  0.6594127114480255  0.7174904971351334
  0.5750821057320246  0.3534283604535604  0.5219171072426086
  1.0124096103080269  0.5174471296061279  0.9130820831468811
  1.0095667346501180  0.3686979839226917  0.9619215587689097
  0.9417015263370927  0.9790395722811586  0.5788115794079181
  1.0469031057811979  0.4594247276329678  0.9881841693074935
  0.0454150643493082  0.9413587369273342  0.6390542179341296
  0.0879281242810279  0.8778055969306982  0.4833283514331255
  0.2718322501150768  0.9472596953538146  0.4419291917046348
  0.9402919200404223  0.0850279153435167  0.2450553253370850
  0.3932711424385971  0.0499702357730410  0.7225552984341569
  0.6989819212567666  0.5177458412755774 -0.0310069834591128
  0.4836862403415123  0.1385758546754636  0.7908160197778340
  0.5217707147699130  0.1870030017597619  0.7959457206729678
  0.6570607358191215  0.4403939683884584  0.3114116708845992
  0.6934227694064128  0.6326361677946200  0.9255931147944939
  0.7477857873973199  0.6762906894452547  0.9931672384488470
  0.8537621932115039  0.9466495356464937  0.5316439580658697
  0.6513034227136717  0.4106374992909518  0.4346915117131867
  0.5545840458035175  0.3712694187745625  0.6666943630475617
  0.1567418903576725  0.7794381225118299  0.3855601360507637
  0.7328582670538202  0.1316991548465629  0.2150545574345238
  0.4259454196406982  0.2334878885134192  0.5889841508801071
  0.4260832098243504  0.1929962109185055  0.5456411474181089
  0.5972268529206228  0.3218670902429968  0.9141095286290792
  0.3233101848920782  0.8704221183530834  0.4146653063701369
  0.6503161279692793  0.3787045166007003  0.3314890654745445
  0.1353051979632480  0.9402562534481894  0.0158704089801347
  0.0684225351540041  0.8243459329856975  0.0751267699001283
  0.5780751906342575  0.2160502074482070  0.9423825817797586
  0.3570599355136435  0.2817894774478762  0.6117102856636238
  0.8464564659288978  0.2255141043748410  0.3413748124694355
  0.4832174564902358  0.3712467985445715  0.4652079612194254
  0.5024135829289454  0.3405456502313385  0.0462278830352145
  0.4372075828173219  0.4752271196186752  0.9983811081916001
  0.2545162606199298  0.6886053756077201  0.1005445242324181
  0.5126846274623559  0.6190294610634812  0.7571062610625028
  0.5544915873754616  0.4029937338789104  0.7746120293473304
  0.5304983755932740  0.4934138872943577  0.8626018435496887
  0.4732579592298066  0.5230037854872100  0.0109752887122627
 -0.0145961655660409  0.2401076119698804  0.9932936230983346
  0.2916027277565811  0.4552768356014842  0.2406247271843585
  0.6649618269846904  0.5707085283411510  0.9870018727190534
  0.3537937043340178  0.5930874838642478  0.0465086003488344
  0.0086427236769783  0.9705768185047634  0.6551899752050615
  0.6728342127015084  0.4887615549033784  0.5803847960848486
  0.5926025034274247  0.1716593631867289  0.8797959327192805
  0.4848445124656650  0.1718764218351473  0.8963608607137339
  0.4799168380611708  0.0206192621212820  0.8681017878239938
  0.7409998232746421  0.2254249098351594  0.3045672878515115
  0.3352026593313550  0.0904671334270376  0.8064129576134405
  0.4180268981549776  0.0271998208711259  0.8481356722665292
  0.8424299942031184  0.1787763478060607  0.2980070898216042
  0.5671516450109259  0.1559351179958567  0.9823537525968621
  0.8275437250478489  0.0261112528627097  0.2262405852325984
  0.2179775918773192  0.9033703819051283  0.2562015675489568
  0.1019537283071304  0.1835349747769241  0.0402546132726390
  0.5901023792984216  0.3014144665736947  0.2834455223577410
  0.7158430920889464  0.1551640673758531  0.9217123509321754
  0.7302854131775517  0.2308961606147142  0.8053392524286277
  0.7151232505833476  0.1237047286294508  0.8168390556781399
  0.6316693257559614  0.1879865521039844  0.7794042817808261
  0.6537012455584791  0.0968768353962759  0.6878075032558582
  0.6868299175347646  0.2090865381642850  0.2332249509454704
  0.6527504638858377  0.0713253195938916  0.5773382703554510
  0.5407250855753003  0.9970560550161000  0.6872114239145858
  0.5311498349306178  0.0654749227909962  0.6012207108636285
  0.7801959519877146  0.2691171560526092  0.8723677744653686
  0.4064726089391074  0.0474603493112270  0.0107944507891014
 -0.0053527389484600  0.2993436512510593  0.0266161336795217
  0.0427601897338290  0.5647431186837157  0.0539071084897258
  0.2681937805725558  0.2228127834439529  0.2573565989691182
  0.1692232810952755  0.2998905622148409  0.3704251963839307
  0.2335355654905234  0.4087902991573658  0.2942205017100095
  0.1784276433338061  0.4087062890563584  0.3862397755112488
  0.5506401985270626  0.4266355938106673  0.3368882494559877
  0.5771558347526387  0.0300686793456532  0.7884558331058441
  0.7038586070273023  0.1340806611750868  0.7573279482612794
  0.7923610614297950  0.2584812603792829  0.9313409280055908
  0.6043640686853800  0.4085386814716838  0.7352827140862622
  0.9173835868956942  0.0210159209888952  0.5760324285420551
  0.2738036306401199  0.9158629532577582  0.3261176645957695
  0.2673639550083964  0.8559554706224148  0.3448193779471893
  0.4552551375679386  0.3271132864230493  0.6396122290338119
  0.5550951092884971  0.3355093179026580  0.5621496666655194
  0.3141772934107157  0.7951346453762461  0.2613555966989522
  0.3599241789247243  0.7198521104284064  0.2426419572057320
  0.4888120582852473  0.2584559015171428  0.7171181422923836
  0.4669966433622265  0.7043215270704586  0.3371763156024544
  0.6189940048352498  0.6133805999494103  0.4170967711628950
  0.4210372154109696  0.7650377634689562  0.4190277755193451
  0.7957081073713717  0.9753585156595421  0.5576901627049359
  0.3179867543994771  0.8260452205529186  0.3699870213408720
  0.5702621776574053  0.2263404084700950  0.8669648918544592
  0.3226126713373667  0.0685459042774674  0.6369382404799268
  0.8992249512174454  0.2413978986194808  0.4168052640308640
  0.5728894142472264  0.6885579857163503  0.4351137897569207
  0.8526216638714524  0.8159111726149799  0.0048866085799442
  0.8671183133263255  0.7753090890006306  0.9579503326774486
  0.4801167185344772  0.8402633075487161  0.4757986018332634
  0.3913159567841987  0.9148339595415099  0.5997335604786730
  0.6851297817319740  0.3772758738368670  0.8792500347568940
  0.9464338938844995  0.0985791384601318  0.4121326747269270
  0.3149806184326483  0.1806473170668518  0.1142097276220433
  0.8965790882845577  0.8360195477159175  0.9021025406614218
  0.5313611739084861  0.2027347133379477  0.5202602199557894
  0.8511122985895848  0.8733059870881025  0.5453078163573192
  0.3984917477047605  0.4396685094684997  0.1084948604193190
  0.7106940206074054  0.1986355645940428  0.9646373044180061
  0.6937526046945423  0.2136146544144715  0.9072420712118403
  0.3528485756954681  0.5325976162488704  0.0651854389281765
  0.4955552088723954  0.8630256651931550  0.8720357448347736
  0.5284109553018997  0.0248500593228703  0.8271284443513482
  0.5387270135888910  0.0138782028672624  0.8916644693236516
  0.5274345000842748  0.0601704854904867  0.9329459539991075
  0.6281373619955161  0.0690569354691589  0.8550636853199046
  0.6986271588773938  0.3471899931623563  0.3594722008340320
  0.8776258753413949  0.8627320575633947  0.7777152548088321
  0.8316483425655046  0.9879307865289669  0.6713244458304155
  0.3435055860773428  1.0210684251990576  0.4949288518085809
  0.8953703361612610 -0.0181898746751705  0.6948479462215745
  0.4672287330231825  0.6885377991341463  0.3970993695737624
  0.6416062338257849  0.7575519778511518  0.5482763645482721
  0.6976104842384786  0.9022220380723310  0.5352810023169716
  0.4248311740657447  0.8261768618854448  0.4041295347321667
  0.7468163318097846  0.8890719110983915  0.6682585195692342
  0.4294518105845633  0.7807953564613033  0.5292782880943908
  0.7955317792151305  0.9253737263909517  0.7361861484051020
  0.4725673400480892  0.3652082981444714  0.9814271694291353
  0.3268323958708703  0.9159857741675277  0.4734852837355900
  0.6271378040402338  0.7362038582940564  0.3828883571965871
  0.3980593047077806  0.3927190312511748  0.0642636488354457
  0.3539696552085970  0.0438134844277391  0.1101691857786241
  0.2083885599814534  0.1530003742995488  0.9668073058323571
  0.9821847221413729  0.5124883156800527  0.1147330964846009
  0.0798795581571645  0.4062286462154440  0.1245184355792421
  0.2501965330763513  0.2943989037791783  0.0201216359916939
  0.0297819814684865  0.4347322787866142  0.0986989741458818
  0.1781127175801369  0.3453793291339156  0.1829645348871485
  0.1336042576326117  0.3432984518847271  0.0456169146771901
  0.2985229856834936  0.1250316882273947  0.6186963471848647
  0.4359669624868427  0.0752603610647431  0.5682132604200298
  0.2947735791451666  0.0985561100400901  0.5099627625551633
  0.5068164513206928  0.0819477713841990  0.8085947637318674
  0.4769105133970863  0.6623123347735019  0.5168213045200003
  0.7943183503553692  0.7221555031848946  1.0008584993788685
  0.5254907522081611  0.2666832746837863  0.5038256707191496
  0.4108678304055415  0.2478833010553568  0.5243648256359367
  0.4686571134872888  0.0172998702638090  0.5975853700401597
  0.5998795182871783  0.0610587074842825  0.6146289801444272
  0.4980613837381246  0.3031960086462758 -0.0040217500350127
  0.4084382902461616  0.2810458929768954  0.0200631170313896
  0.5546476181139297  0.0868782181396767  0.7696430597274239
  0.5368874355726743  0.2632720871347730  0.0402411563927757
  0.3041321651405600  0.0746798896135696  0.0831620166660444
  0.8657675326687524  0.9065550120243778  0.8203192609021592
  0.4754146106337728  0.2387777394711788  0.4923612506127881
  0.9728491970596800  0.0234961892770902  0.4809451894724366
  0.6268050458414444  0.1650139072818943  0.0563342033036937
  0.8258462985716628  0.1560601817000609  0.9045737165296572
  0.6211802940619812  0.2476530329517312  0.9879433225445308
  0.4766376251738193  0.2355075471047258  0.5483718532061722
  0.2563034238464265  0.7362198760714515  0.1444987397458407
  0.1026345108153529  0.7981758964849502  0.1903696133960467
  0.2135093604004197  0.8415769061113725  0.2721916523165113
  0.1635828138369493  0.8744245164167538  0.2470978261941351
  0.0620073286387219  0.9211271805131251  0.2573976313378258
  0.7713870199394823  0.0124027660736037  0.1516602081171517
  0.0946075580398784  0.6596180456589399  0.0526551376442856
  0.2548930810050462  0.5865593725346688  0.0129213644398355
  0.7679794584706252  0.2802081705496527  0.8110771140665729
  0.7199473918422277  0.2423168056023947  0.7461481462015382
  0.9614940332087207  0.9350252259334787  0.5758691625295320
  0.0653084045736786  0.9779837271990733  0.6128832166856767
  0.9102750143712501  0.9104764254884257  0.5524957458027538
  0.3713130271076231  0.2115195366362368  0.3535468239311223
  0.1326115576258944  0.4553392638329231  0.3002792755312024
  0.3048295367632770  0.4521093617055581  0.4742216944790540
  0.0328418336839732  0.5179332136256541  0.2449049381467946
  0.5815074108921198  0.2081713182478203  0.4251478901859104
  0.6761198757543330  0.1073656877258385  0.9167500777915267
  0.4474647944170992  0.4569704918978889  0.4025832693503365
  0.1483177331755492  0.5774131045557626  0.0395576496021755
  0.2079954256970759  0.1646293051446769  0.1393987990573059
  0.2128799430417957  0.2089684579632554  0.1856335403302021
  0.2586525549572074  0.1695690549096139  0.0424653939454981
  0.1468651155076515  0.6577163094456741  0.4145367530183868
  0.0614492890797020  0.2524920843115742  0.2941369743184759
  0.1187148302686034  0.2992392194729726  0.2380431797606241
  0.6068296800326881  0.8281776975574661  0.7469291249727572
  0.1109337845384087  0.2888367923761893  0.0718743758942722
  0.0882270223734733  0.4312165704949576  1.0017800839013260
  0.2234290488729333  0.3097044751822613  0.5031059220360548
  0.1332646068245332  0.4231595100083142  0.1968403923312139
  0.3894722249361133  0.0106943609507459  0.4610649920330939
  0.1898186329822722  0.4693980002447356  0.1426503454076559
  0.1440822840520143  0.6112535467852670  0.1400279703290888
  0.0649280702131843  0.6261868114301593  0.5692570672617879
  0.4207509828967377  0.1801806608021634  0.1479673608157115
  0.4643978017159159  0.0892262760124661  0.1939511903676447
  0.2483274111052544  0.0636052246242460  0.0132132108504773
  0.0184685313305044  0.3769440738371649  0.3474195750937387
  0.1901145031737493  0.5010888532154364  0.4727567434808951
  0.0776779835098831  0.4570420591966954  0.3945495093090830
  0.6354027069299182  0.3718714492885056  0.9205578307111255
  0.4921546360429740  0.0582212282824151  0.6451270006499669
  0.9929641191094586  0.1054610752980686  0.8015740472190974
  0.4384170490137946  0.5066060662622550  0.5468867205655147
  0.1344987573669232  0.9482074719791139  0.1782536630068602
  0.8804265964489770  0.8303273761384012  0.6725690870997015
  0.0415780943144607  0.8204615743087356  0.6694343210872788
  0.7177996812249617 -0.0019448318901183  0.0787334943556051
  0.6653083205440509  0.0392647562093253  0.9873739792375656
  0.9723909900566423  0.9340307588437275  0.9080485762011981
  0.6902640130040067  0.5962799580058181  0.5591094314162341
  0.8915470247652756  0.6519600570241966  0.7682931654294654
  0.5822364520142426  0.2417778457709026  0.0752555978824758
  0.5513881920567403  0.3602838128281489  0.1293862946885309
  0.9015150966763217  0.6394514115380837  0.8278251692859715
  0.8470677558590618  0.7992311207966539  0.8347507155424739
  0.4483655566205694  0.4076836756066691  0.1375395353109183
  0.9694723858633995  0.7827869596402638  0.8803797251621285
  0.8795311259145330  0.7309773781627441  0.9153799248142873
  0.9245547975785351  0.8991312078106926  0.8424454517139206
  0.6152718341365829  0.5538667108173827  0.4349524887122169
  0.5094739313028853  0.5488517177230431  0.1696194109324967
  0.1584663670236483  0.8442597896765420  0.1407499999109181
  0.2090125405703918  0.7961438042603848  0.2274200894484169
  0.6323703410008235  0.4705578526313999  0.6792928235713287
  0.1828590838798680  0.9335627779472632  0.1440735044287732
  0.7928344626814733  0.7583065543291064  0.5430052056400683
  0.7602552327397117  0.5475215346394908  0.5408086659111271
  0.8055051963507247  0.3635706067128091  0.3354925715919965
  0.7101382951938269  0.4556970996644226  0.3812780524448139
  0.8174111739739128  0.4709765803233789  0.3587537915455579
  0.3450299482144909  0.3934363635860790  0.8710923344624026
  0.7200464614583110  0.5626963205953511  0.4149519957949321
  0.4510858308644883  0.4231830356859522  0.9566500659195819
  0.1360791506307092  0.0898753118158088  0.5694468159731387
  0.0873808533035924  0.0483687033529041  0.5640633669035843
  0.1796471100728996  0.1706341469423401  0.6811977625525470
  0.2501773432323423  0.1193115155098387  0.6600561722081179
  0.5804085306234755  0.7958536740971206  0.4650951196498508
  0.6923875741768520  0.8715379000962767  0.4253353327780324
  0.2535697073919423  0.1534147792753570  0.7651783764248814
  0.3239293207153456  0.1347777210753814  0.8487629231391327
  0.6856096658391646  0.8972129032926106  0.6335733178808129
  0.5857443352353426  0.8575554275870888  0.4506447852537677
  1.0007394731047901  0.1450294156412988  0.3619922841515266
  0.4396840021152039  0.3131484327787924  0.9720796708729361
  0.6118305707779053  0.5330400720672054  0.2665846078552477
  0.7118219390000626  0.4388930769077271  0.2155316539564762
  0.6239994772208071  0.1221745447958255  0.0125542315537993
  0.7945861815894122  0.7452356886312493  0.6043709726940694
  0.0779916739906319  0.9179604946546650  0.1682980935066491
  0.8581169749393758  0.3796651794918112  0.4064973293688705
  0.5073766878695087  0.2646519596714215  0.9459251991692622
  0.5242977980061440  0.3735277481910488  0.9369666905745143
  0.3918643550863777  0.9696180462601334  0.3320073775442678
  0.4822923305739276  0.4548120092821695  0.7959141833297950
  0.4041397590983543  0.3863661304286020  0.8921686647353911
  0.0806383972161108  0.0557853019206349  0.3941894776497461
  0.5413642838850268  0.4804191721383483  0.9226064215936238
  0.9489623914915335  0.1770120377030003  0.3371515200533968
  0.2024254189990859  0.1649434567461253  0.5208588157638808
  0.1891101026242281  0.1253604166719186  0.6371758543012390
  0.8975133251930166  0.2084948335290205  0.3088560877178987
  0.8322704711345368  0.6605477336308623  0.7454738418039663
  0.9961566510981584  0.1320035183419344  0.1924503800615153
  0.5680360428653629  0.5433129530051579  0.8644460001256362
  0.7954324903805094  0.2384913051847868  0.1487976486689492
  0.7155942456936739  0.8595314317154837  0.8328395768962520
  0.8171383199183615  0.3675167298751973  0.0397278026220300
  0.6604053685732924  0.4211936173196987  0.1436373790627205
  0.7965304298714453  0.8259630715561511  0.9846221330927534
  0.3278276970791931  0.3866474853185460  0.4614309600173431
  0.6044734252793490  0.4243241280183371  0.2412727867892280
  0.4775997997577976  0.5527388742846703  0.5552173533928674
  0.5087534540753166  0.5152201959452273  0.0652994431064885
  0.4566610816590803  0.4274241437779836  0.0146046144141397
  0.5820038848481316  0.6342863795783429  0.9449014594888147
  0.4007323961214093  0.4856412453397114  0.1530728908554591
  0.6893238776709890  0.2394808399311966  0.1092700947585048
  0.9605005536764857  0.7119519050794026  0.9986388238955087
  0.5502559857795851  0.3934854947737615  0.2334910957102398
  0.6097548165810971  0.4064076261304219  0.0687922687230925
  0.5403092081053213  0.3925480383890014  0.5313831323476665
  0.5024495336104030  0.4386968617694092  0.1440316389034327
  0.5103724426341686  0.5808168215119632  0.2738903448172526
  0.6542970979996381  0.4134352540343532  0.6949878033060810
  0.4477413647740096  0.4399933246863577  0.2405299340631199
  0.2053288473541248  0.7673366709003335  0.1214905477597046
  0.7029638070190604  0.4512767725417809  0.7610387369684180
  0.3578790360074762  0.6580864128275821  0.2573939725644515
  0.7312279371529369  0.5150680791052860  0.7024247474620883
  0.7285489635095447  0.5477844458054468  0.8069085361618482
  0.3643907387296887  0.7500911370819240  0.3488266741098128
  0.4129612456075043  0.6878064582047370  0.2671323246866144
  0.7640623747343975  0.5801002097151620  0.9036323191197596
  0.8803121646536782  0.4633907834124718  0.9253958659485116
  0.7930496468061571  0.6755237248338161  0.9526911686329660
  0.8308972762466172  0.7271897875618314  0.9552680425738144
  0.6398725669356738  0.5549168567389402  0.4975283746061079
  0.4050094366133347  0.5789686528491629  0.2396352724362655
  0.6591814455305509  0.3248267313119476  0.0508111574450720
  0.9501309523727071  0.3213302079196164  0.5259691079057637
  0.2149580166963157  0.1361028025547731  0.8668831753418325
  0.5738685629670335  0.6129122701705840  0.7796105864052058
  0.9509253925159928  0.3186099837868559  0.4674717894975745
  0.9616296596722227  0.3821739761112878  0.4444747561606531
  0.9344151843988547  0.4484365631351913  0.5118135248302165
  0.9820777737761399  0.4233742936483351  0.4887093045628605
  0.6862246764720692  0.6796302739272277  0.4786816943523776
  0.8189196093761791  0.6503503140997283  0.5231124584212118
  0.6942253168533268  0.9157103643238945  0.8145436481193370
  0.6732663686477880  0.9723276329895213  0.7944773052875201
  0.7327301477042730  0.9647270868049088  0.8162201552069502
  0.5575270193280469  0.5044649371347554  0.0300160796744833
  0.3656752990586655  0.8185279706594594  0.5570875375028446
  0.4792389384111032  0.7900925319068182 -0.0069503988663970
  0.5080235062775095  0.7513943430035734  0.6164940811448406
  0.7023307540617064  0.8516970489058076  0.6029484954396016
  0.3732365750397271  0.8053521868535495  0.0871426545925648
  0.5909086449673127  0.9009942469748272  0.4978622691612052
  0.8616342948839102  0.5911704204507312  0.5660020888995311
  0.5580528855035620  0.5025922242316685  0.2564049113466537
  0.5222370589856485  0.7502224410568795  0.2886925142200755
  0.6643618641366091  0.5167495267858511  0.2323627931971533
  0.6120628243436996  0.6631090913748331  0.7816253044331184
  0.5238962557776510  0.8549903015176457  0.6033100415379663
  0.5357753494583755  0.8598874417284322  0.5487858462113785
  0.7431845644254067  0.7655783309994673  0.5217464681152484
  0.9066343480021357  0.9416656748917231  0.6557396296875171
  0.4316898571789152  0.0661478541223829  0.6233372230237932
  0.4722318847469841  0.1504514463795499  0.7297580601944770
  0.5643032900069617  0.6113529619802478  0.2844997901479497
  0.4620198319008773  0.6267124944672970  0.1878854070067686
  0.5497606729768422  0.2517116860896723  0.7394515922111562
  0.4555978363284086  0.2913397054504109  0.5303112863464836
  0.8459910562831172  0.9389090952584784  0.6273965338159214
  0.8066507066291682  0.8934339125668835  0.6299513714583219
  0.6053057765759469  0.6414790765866416  0.6166797408959251
  0.7637166532486761  0.6805532911172041  0.6626565761365203
  0.5585248508939448  0.5358758477286559  0.3609230665303198
  0.5922803537212450  0.6877426742441066  0.6585109982699305
  0.6618816032253309  0.6687238872859506  0.7421841206173083
  0.7336641756096227  0.6167156217588315  0.7202597832898149
  0.5511170900478619  0.4984862410966568  0.5384325875406106
  0.6601503623902046  0.5342719434565454  0.6215234468311417
  0.2407350744708676  0.9820284297381620  0.0927682149492573
  0.5721099909365626  0.8954027346647373  0.6646094155066450
  0.5725964004377871  0.0160824071495277  0.5792545498313922
  0.6551387072423176  1.0106435280740513  0.4295160892109627
  0.3453350536645035  0.1293122635010291  0.5775474922311677
  0.5412072003901053  0.9159389723691119  0.5344008255378525
  0.2326464022156050  0.0812906271512860  0.8894470213735014
  0.1335184866404809  0.9179596448113385  0.5796489936667832
  0.6230460142439790  0.6509845425570234  0.8427347362018980
  0.4104558086007677  0.2210604485144271  0.9197700901554550
  0.1870317008639772  0.0427046702981037  0.8234805824714287
  0.4872773981038440  0.3891448899177424  0.5802300910636263
  0.6515281055513645  0.7138119296475508  0.7847031251395440
  0.5072532826749467  0.7836709566290467  0.7226829414349245
  0.3574535057111880  0.3171342449332181  0.7181802629250514
  0.2797898380854366  0.2144660473518452  0.7093220570936494
  0.4495838844054718  0.2409615237877148  0.8186556167046828
  0.4787423682896295  0.3026913340984904  0.7620886254441129
  0.2875300378772258  0.8596689860497060  0.0303196912792032
  0.5061398182393484  0.3645914800144716  0.7060980400253080
  0.2114019775556409  0.8317296777681115  0.1054676461643415
  0.5050637649678972  0.3979077087995768  0.8131503417931866
  0.2319169119175125  0.8763697199514519  0.0647784022445452
  0.6139127152009611  0.4277146523740423  0.9030757262100372
  0.6031095527099295  0.4408514658217832  0.8409616884773150
  0.1329351286784046  0.9649936400820941  0.1187981396844329
  0.3017219759582122  0.1590909489077034  0.7261182962419098
  0.1154819695975503  1.0100907600772380  0.6800890618624456
  1.0036130028015247  0.1911102416647067  0.4070912511345585
  0.2650545190305590  0.1633004969291141  0.9405557447069989
  0.6487070607493418  0.7461221143416606  0.8877170731485293
  0.2255240247620621  0.0916869795241603  0.8254038290583469
  0.1518573949624511  0.1071310294138404  0.7396660805433132
  0.6011057411191709  0.7091730405894793  0.8260310194776574
  0.6110183677130647  0.6957089522859414  0.8860536391866282
  0.6711904405377472  0.6887049980933811  0.9076817494745325
  0.5182996438730758  0.6885900702294944  0.3038899875896464
  0.7208112353861157  0.7280079180814931  0.9732916818199274
  0.4198034436339240  0.7980198985022888  0.2960495865265098
  0.2570429857774765  0.0281541549999937  0.9118260045468356
  0.3732732535141017  0.8740850769038159  0.3171365319586179
  0.4014852092236590  0.4853938128170301  0.6518158295521147
  0.4502055081450216  0.5242312112200124  0.7162378330836365
  0.4876171508783627  0.5746618827712036  0.7209062799553176
  0.0330138751589845  0.9780642674617732  0.2505535575016966
  0.5087151225830291  0.5507037736436053  0.8435795863239186
  0.6320700667475226  0.7384027782579693  0.6614575125527496
  0.7937509047370662  0.2242405763635691  0.2090370248694702
  0.8514917191791493  0.2858895643043014  0.3236160499927547
  0.2479265291215496  0.0912511098034483  0.9461612322818818
  0.3791668579712956  0.8049863070386711  1.0205400101065509
  0.5358281573053694  0.8463425188641636  0.6636013274332595
  0.8194082209588579  0.4974953409683547  0.4629534330672461
  0.2547298823846618  0.7528930236928837  0.0851807649283095
  0.9040262420980081  0.3035954093038908  0.4001434365299479
  0.3308505358008033  0.2544429167539737  0.7753231491842141
  0.3903180305945393  0.2478282595931884  0.7969732570897299
  0.5273697963149769  0.3071483004452318  0.7238132797024474
  0.5514108922728185  0.2201531882168520  0.6330688704150442
  0.6784679029099520  0.5428876560911957  0.8463541231866232
  0.3225830003536273  0.5846071444321107  0.9797941867868942
  0.5473114409250541  0.9953615216844841  0.4576426214380941
  0.3676320058576213  0.1641396639944708  0.3094444737375276
  0.8944641784344857  0.9562761473886277  0.5885579679407749
  0.1047165860818244  0.8640428795381759  0.5782585697947596
  0.3185353854450618  0.1923650089651730  0.2836538609240843
  0.0585872374365471  0.8557442925157410  0.5177309333630042
  0.1098694443809767  0.7674368424180835  0.4907299201461867
  0.1952132805762267  0.6239568308621710  0.4471822054046031
  0.2523935540266201  0.0718425097446478  0.1815679380008044
  0.3952727316965567  0.0561252980049323  0.5066369833517154
  0.6239919193732384  0.4144644487512286  0.9657780765581583
  0.8302951835855544  0.6928083067583357  0.8495238517088333
  0.8042629678911821  0.5965086348382364  0.8030757890398874
  0.4332827722212775  0.9336238998342068  0.4383599276752229
  0.2966632491383628  0.3562117696124827  0.8030740865591348
  0.2975640448516386  0.3219406263538806  0.6964535008317777
  0.5263845641541441  0.1605363886105208  0.4767303709456631
  0.2363728580200174  0.4547793418131142  0.3355002125107009
  0.5129734306137338  0.1721904934837038  0.6237066269774875
  0.1347524756485557  0.5016441560619577  0.3417933315965845
  0.1420507596019057  0.5966897319846614  0.4290819727798215
  0.6295148248716019  0.5370367213095849  0.8861673173628213
  0.2892936756356495  0.4707364097180754  0.4085439498777666
  0.2354149759070183  0.4910921340476340  0.4375106104428386
  0.2847036353838115  0.4098098702725801  0.4248784395357336
  0.0436497872597926  0.6727174423967252  0.3159864468828305
  0.3800592529054894  0.3181145556721894  0.3790994427983319
  0.2793413334256986  0.3630952690506054  0.3838363627820881
  0.3770670212404040  0.2712416029453517  0.3359346784616392
  0.2446187626980381  0.5640038531377072  0.3602843210334750
  0.0347605577767368  0.5320538228470403  0.1842769282631978
  0.6253223926627225  0.0836496011681157  0.3618071493317137
  0.4021674861062111  0.0155085962913048  0.1390703692069631
  0.5117836796775308  0.2335834184338329  0.8418647729415721
  0.4453310953908576  0.0896304140601233  0.7871484547025480