C  Cr Ni
 1.0000000000000000
    38.7210597765861735    0.0000000000000000    0.0000000000000000
     0.0000000000000000   38.7210597765861735    0.0000000000000000
     0.0000000000000000    0.0000000000000000   38.7210597765861735
 C   Cr  Ni 
  50 1596 3725
Direct
  0.3794946901409908  0.6669457244291590  0.4845038081371059
  0.9968130198291336  0.1395855206895930  0.9718757729917158
  0.3430009995428289  0.5494589381277852  0.0151883055455318
  0.8192578277121894  0.7729214997379250  0.9841650861480662
  0.9854237306254073  0.7974667989587795  0.1036787886465509
  0.1814502754638634  0.6256890921139771  0.4971880735928036
  0.7173199637602748  0.7713889498157009  1.0033752076452287
  0.1410604309679170  0.8698874211002287  0.5706073424654269
  0.5966600484316490  0.5353206540754275  0.4790857887025287
  0.2789851897632117  0.9198738773167318  0.4852072706535784
  1.0311643244905002  0.8956577974502374  0.5235272566313174
  0.4782121231150536  0.0677771972770137  0.5965893146434585
  0.8688703780279621  0.9627083068562141  0.6631898442993031
  0.7706010823120675  0.0813288365898999 -0.0156942011543566
 -0.0303481259261429  0.8360477317471657  0.5744008843702656
  1.0134575419861358  0.6074616090559894  0.7647288089156223
  1.0455213133194485  0.8852833152825395  0.0170908976275289
  0.8397621529808696  0.9576753453018008  0.5809875300963415
  0.2645879993821584  0.1865343576780493  0.9218188245262550
  0.9881813286156896  0.8121646176671483  0.6659449078774363
  0.4392550659516977  0.8099414351801122  0.0183242818692143
  0.1595993570905928  0.9611588532642611  0.5027931812157913
  0.5099405634904013  0.2518480681465196 -0.0043218374979882
  0.5383591671414546  0.0431129377339795  0.5551997023973202
  0.6828648739697248  0.3597121318121656  0.5032934509937085
  0.0454019784998899  0.9423009833625036  0.6385749149404046
  0.6118965541910651  0.0443465082921315  0.5629994965367205
  0.1094975870121572  0.1383922654335321  0.9429416559145951
  0.2571371371421403  0.8238151212165054  0.5207471317275952
  0.2810746746831022  0.9988630383292578  0.9418079705747049
  0.2576696599202613  0.4473115375046333  0.4478750720489675
  0.5253019892600818  0.3501493233928784  0.0892518264894877
  0.0856032135199433  0.0999117735200956  0.5591347190127233
  1.0238320202476086  0.3918554613835660  0.5015670150591655
  0.2787465358938054  0.1062175116573019  0.4104430723850474
  0.4961601521283616  0.1377139659866557  0.6535071874293181
  0.0938997760945776  0.9494802332479491  0.5794148147130264
  0.1153024932207722  0.3919144571762683  0.5295697402648732
  1.0441021475414838  0.4945595226489901  0.9071352220624439
  0.7809359702271446  0.9946045194411527  0.6565072888306340
  0.7407734902585831 -0.0274998537342763  0.5619304763590780
  0.5198608449459822  0.5384729971749662  0.0176231137447367
  0.0371339431885376  0.6591732108915273  0.7186401329235756
  0.5765420003180638  0.3533912107310305  0.5220269674274657
  1.0129231501483249  0.5172240016843938  0.9136353929437234
  1.0094599797162311  0.3685195740511815  0.9621215486498231
  0.9388763601150298  0.9751913089269297  0.5757027670587705
  1.0471017967385421  0.4589440828557729  0.9883290737780945
  1.0408593157956456 -0.0291546656615216  0.9619476915756384
  0.0889618926106181  0.8759718676436192  0.4850635053615857
  0.2728318067560819  0.9459104100398955  0.4399793943727210
  0.9403027332062803  0.0848134921630210  0.2450786483979886
  0.3935402250192924  0.0497978159599441  0.7220129890134663
  0.7185100029832205  0.8256181657855683  0.7272658506611978
  0.4838506380300063  0.1385678654631085  0.7907298658652239
  0.5217698288654119  0.1870476984601457  0.7957685821470445
  0.6571651288955899  0.4405752808296996  0.3115267587741867
  0.1752591329887330  0.9815046990258274  0.2756026512580276
  0.2193379920210997  0.0199550795250156  0.5889685077477347
  0.5547312936208659  0.3715022507130259  0.6659829121609273
  0.1565220652097674  0.7797324443074145  0.3850414185389167
  0.7328984891023582  0.1315497637791523  0.2152271331886341
  0.4261258466222216  0.2334118574524716  0.5888760717343974
  0.4282439103292046  0.1923856220002710  0.5460712412604767
  0.5969231380088542  0.3218391164237474  0.9138972802518400
  0.3240406222953481  0.8702068931713656  0.4151861697411547
  0.6504857258540864  0.3789541414160338  0.3321466032339819
  0.8539195658244602  0.9456273142154052  0.5324032792549646
  0.6529804267537310  0.4129439293544075  0.4347777227963590
  0.3903161258828034  0.2479364994537219  0.7964459066070187
  0.3779071190787175  0.2254923125842313  0.6290682542383094
  0.8275586374450582  0.0258530926186831  0.2259019047707772
  0.4061169682968467  0.3218831263921075  0.6784167119274132
  0.8469076792077084  0.2249421733673574  0.3415638297255191
  0.3307062687472264  0.2546029758422209  0.7747501078445225
  0.9930974482134350  0.1054672552926090  0.8017528788949232
  0.6588895920035472  0.3245363121365620  0.0515370741687826
  0.5069041005885120  0.2645798456729130  0.9456219973553817
  0.4553071362839783  0.4263735325376681  0.0152946696370583
  0.5114009649494083  0.4178457277206418  0.9793068230451785
  0.5086361612596384  0.5151230817492275  0.0652972803001090
  0.0809175968636144  0.0199168452339850  0.5145384880863404
  0.6089740377119437  0.4526683667579061  0.1211288038828970
  0.6307187782720843  0.5038574992480320  0.7825400819010907
  0.4568711239390436  0.5349924683791883  0.0911224907748651
  0.4025834342559996  0.5330757816762104  0.1957612244038509
  0.0162741941754335  0.9221030725457821  0.6017444579969770
  0.6724582611365908  0.4882746188533723  0.5801016997975984
  0.5922545783667373  0.1715897129189099  0.8797258917465148
  0.4843863698005159  0.1717839445158797  0.8963070014834694
  0.4796165958480164  0.0201240941776351  0.8686581491080905
  0.7413355410001267  0.2252499040032729  0.3047272337497011
  0.3357860623906386  0.0904155372076909  0.8051968790335615
  0.4182247064696538  0.0270367461436957  0.8478733792495370
  0.8427346695167418  0.1783876638159739  0.2982056622385751
  0.5775425088108019  0.2161275685711982  0.9422617028317922
  0.5663532153801262  0.1559151152658006  0.9822493096173249
  0.6850799191026561  0.3772270418896086  0.8791182630077999
  0.3097589593697369  0.7808738472224572  0.0938907516538957
  0.3077751084204476  0.0289473094769473  0.8680735639952304
  0.5911488294362665  0.7207415809876978  0.7634895421329205
  0.3599071450294514  0.1403278150235496  0.9703788762192844
  0.5598837203293098  0.2622134882431172  0.9802451720123777
  0.7043925362494041  0.5863647002029535  0.8833344742678894
  0.6444124070157748  0.5931261616751665  0.8617626938924814
  0.1860791031376180  0.8110081551487027  0.9442344698414358
  0.6993758303025016  0.5177660832439285 -0.0310234805870431
  0.6935803616830771  0.6324040419270542  0.9255379890653533
  0.7477666320504454  0.6761788098609730  0.9930803645105675
  0.0681379672808633  0.8243326098731614  0.0748919152866728
  0.1350449177378013  0.9403263897371883  0.0158672853537449
  0.4836383955367110  0.3710311888242895  0.4656562109082097
  0.5023722801920898  0.3403977029269406  0.0461767022237671
  0.4376357224603620  0.4746487142992183  0.9981969473373293
  0.2544271318925067  0.6882509748555635  0.1006727870319542
  0.5128008785896403  0.6188566484625211  0.7568463324196245
  0.5544860119830504  0.4029003966344779  0.7742571693499241
  0.5306100914865511  0.4931678460745968  0.8622469011156215
  0.4732753802716087  0.5223409540331175  0.0107902912668149
 -0.0144714031529457  0.2400932207447989  0.9934456768955063
  0.6649742625435167  0.4515315722927993  0.0269478393088070
  0.9468384842169789  0.0981916511486342  0.4126710076964121
  0.2741160040595734  0.9161963567682365  0.3260934388478943
  0.3919357184785809  0.9143640816788270  0.5993103267917136
  0.2184406130426922  0.9036768389325043  0.2559001847396165
  0.6043377680150273  0.4084102738922044  0.7349402112365812
  0.9173638018855916  0.0191284315192061  0.5764805539667156
  0.2176799749779610  0.8871277288020810  0.3169993107246392
  0.4550507541756239  0.3271800715294561  0.6394621265844033
  0.5548789026814339  0.3360574288186758  0.5617504146232272
  0.3144562071590987  0.7951549723261543  0.2613799350030062
  0.3600038203454079  0.7196951271648832  0.2428893198963077
  0.4888478524160266  0.2585236810902006  0.7168461933472637
  0.4670686790938403  0.7043256607308689  0.3366189751133359
  0.6188705742135895  0.6141213074577331  0.4166770539712509
  0.4205957716778507  0.7648389431990524  0.4182983642461998
  0.7954095355124857  0.9758537993800178  0.5596015292424651
  0.3174705854478745  0.8254702334638014  0.3702063236193398
  0.5699658223249450  0.2262787839976458  0.8667705623011580
  0.3228790550664573  0.0682094571359889  0.6363913568903908
  0.8994810892878171  0.2396404474547495  0.4176438677211722
  0.5734835388426268  0.6887070957694451  0.4349833085756170
  0.8525414731826365  0.8156388443577776  0.0045468864495685
  0.8669606703654723  0.7751974141465573  0.9576080017187899
  0.4803649809671576  0.8410606303554276  0.4746793371981733
  0.4605387944647856  0.5988023608242176  0.0830091105680715
  0.8964223494437574  0.8360637848905891  0.9015573334441693
  0.5509159648774881  0.4267989666061108  0.3373491417057332
  0.8522430969609802  0.8753281023120003  0.5439403510409025
  0.3983351415347778  0.4394725812532460  0.1083767236094800
  0.7097509916317416  0.1992771607407152  0.9643021916992163
  0.6932054735257674  0.2139550753038721  0.9071417929575216
  0.3528622082688328  0.5326217967998692  0.0651927963346180
  0.4957962042258314  0.8623810615798885  0.8725969392295312
  0.5281452053472738  0.0247082641100770  0.8274106413061199
  0.5385587232328969  0.0137690079504361  0.8919689489772730
  0.5268814162956845  0.0599278202910243  0.9332097235331202
  0.6280159799817924  0.0688174534168745  0.8554390068306946
  0.6988987996874629  0.3478008418345251  0.3606745938649596
  0.8776044434459027  0.8630012551513147  0.7767572354336222
  0.8290295592463028  0.9875094543450644  0.6760496908793332
  0.3434869800711506  1.0203474494052174  0.4939702456908648
  0.8983238160057355 -0.0175189682935250  0.6979268259850411
  0.4672364488317245  0.6886569855163558  0.3961091629152078
  0.6407533099357975  0.7576320586380945  0.5480046375899000
  0.6979745781522706  0.9019988475079923  0.5356095548079004
  0.4290243521237098  0.8901581935317919  0.3895869277350857
  0.7470595684232515  0.8887911886932801  0.6688448112220526
  0.4240665389263499  0.7909233210758343  0.5236174873330609
  0.7966130116330573  0.9293205880517198  0.7295544658339898
  0.4727119979775433  0.3637249788411502  0.9810970607892917
  0.3270898024775221  0.9154194849258882  0.4729815213550053
  0.6272159930852657  0.7364030128412671  0.3828001244274399
  0.3979765047353261  0.3924087775266957  0.0641650108050168
  0.3538065832856125  0.0437862290991783  0.1104877405300444
  0.2032726450937457  0.1528210753465543  0.9716254975452221
  0.9820450961320121  0.5122389590432456  0.1147749169440284
  0.0797926184415570  0.4060840160465327  0.1247887253932992
  0.2486894382028502  0.2947954317135215  0.0195324325820608
  0.0296913655613740  0.4346186884062572  0.0988966450119285
  0.1780807679270859  0.3455924767450967  0.1832245929972661
  0.1335157268279904  0.3433370362325142  0.0453383285733527
  0.2985984901322545  0.1249830600069715  0.6176584544452135
  0.4362949885435314  0.0751451305202297  0.5678145950593918
  0.2959795772835175  0.0989029423871522  0.5088263125392658
  0.5067034429630471  0.0818805260466689  0.8087631618210238
  0.4791315698546715  0.6622813731465106  0.5156004259208392
  0.7942238717858118  0.7219932908991048  1.0007341035531807
  0.5273324404967670  0.2674162971267920  0.5044364826616335
  0.4112209671556127  0.2473214387374709  0.5245669038121554
  0.4689446393205666  0.0169683966460395  0.5974079794840744
  0.5998245187428830  0.0613180679970830  0.6145979790056574
  0.4980423410900801  0.3029009005525608 -0.0042187243020769
  0.4078556468172557  0.2803780318241938  0.0191104023238221
  0.5545271871825014  0.0868713946494117  0.7698286597171677
  0.5364281676675582  0.2635871642096315  0.0401418807382808
  0.3039264624360016  0.0746188160894390  0.0834100323784821
  0.8655188589934367  0.9066827147103301  0.8189022561183532
  0.1784394514904609  0.4086405890434928  0.3859412508575402
  0.9726804107012186  0.0227223232688251  0.4813495022084434
  0.6264356092640346  0.1650200624182459  0.0565810215630203
  0.8260676454695807  0.1559820348258655  0.9050038382013748
  0.6207733638247869  0.2477580277299592  0.9879972902690681
  0.4772851606912613  0.2360106713363486  0.5483321709718167
  0.2562874034353026  0.7362971548978917  0.1444915494334974
  0.1026904752679103  0.7981892998824431  0.1901308264969881
  0.2136629728606222  0.8416627280088923  0.2720378292830821
  0.1636297124346630  0.8743746109983892  0.2470889721178819
  0.0614435323754144  0.9209953213061870  0.2573012014761798
  0.7712400484943290  0.0120754016058167  0.1515704743825083
  0.0951398236583396  0.6595433396421875  0.0527124999593034
  0.2617557698033808  0.5938199013106279  0.9543780623865444
  0.7677627052609906  0.2801564872956158  0.8111962952937820
  0.7198220738315517  0.2422915808757823  0.7461442476346931
  0.9602465346592026  0.9312132859546058  0.5743895850387861
  0.0657366906317004  0.9787070180014164  0.6117702217312193
  0.9020103005654653  0.9103370849189066  0.5459395088411843
  0.1902669441834925  0.5006350580522574  0.4728127354382148
  0.0777801630866370  0.4566289295450732  0.3948171605353496
  0.6760348873056353  0.1073660099164427  0.9171027877919099
  0.7036487550780453  0.1341433910575572  0.7574703927828961
  0.5767691398125639  0.0299268237213317  0.7886401547116818
  0.2916905655584930  0.4551899874635799  0.2404603664067834
  0.2336807445274518  0.4086870511425483  0.2940010007917372
  0.1695125458640298  0.2992932954808900  0.3700099870352893
  0.2682477756891383  0.2227620765966609  0.2570448473756377
  0.0429626254910060  0.5649825246693549  0.0545033063062174
 -0.0054543952832036  0.2990177750801836  0.0266634027117567
  0.4059936884559561  0.0459414541037227  0.0110583724980820
  0.7800755002830245  0.2689356463737654  0.8724273926767480
  0.5311975801434408  0.0654368824543929  0.6011551371615214
  0.5401810771609334  0.9971096426928596  0.6872603899281723
  0.6532061074102317  0.0709588953582391  0.5776526211963191
  0.6869354828979145  0.2092500077896629  0.2336068221193823
  0.6535662631910821  0.0968819900332727  0.6879286191176593
  0.6315412170437795  0.1879801308624285  0.7793867126901987
  0.7148924985592865  0.1236817657941981  0.8169620032215883
  0.7301166302045078  0.2308644953689422  0.8054739905300595
  0.7153333611102096  0.1558936458966718  0.9218701572540918
  0.5902973178416490  0.3017500833142474  0.2839261431088272
  0.7921524900530136  0.2586448848245670  0.9317605173948453
  0.0930960720121846  0.1446884319470352  0.9890103315069348
  0.3146318323971048  0.1805455356394752  0.1138220997858900
  0.3568065551586568  0.2817894450771817  0.6114196425261956
  0.3539574525398581  0.5934473703778861  0.0458991053002301
  0.6650914207149222  0.5705409082902154  0.9868247063777822
  0.6350676538996405  0.3718835813727950  0.9201996588122379
  0.4922377133406612  0.0579811483209382  0.6449780782551886
  0.0659541136249035  0.9194661455185107  0.4958901681408590
  0.8585755533157681  0.3788632462602990  0.4073647483754983
  0.1342456829580173  0.9481073414276567  0.1780383788819740
  0.8801377384752180  0.8307310885367655  0.6720759080111108
  0.0414489481059689  0.8203730348879971  0.6692168630487541
  0.7176311247465408 -0.0021529899659961  0.0786929714840154
  0.6643159946850337  0.0388279784962038  0.9878579895206182
  0.9721637953614520  0.9341925591306482  0.9077719267195959
  0.6904502460749694  0.5959461791206199  0.5593117697951345
  0.8913943735694859  0.6519482993430937  0.7679890082324056
  0.5816584187538009  0.2419663198935853  0.0753440183492764
  0.5512376132141548  0.3602145881216471  0.1294940451269337
  0.9017971507888838  0.6393882831225282  0.8275524581155600
  0.8471126929642938  0.7994175722793871  0.8342691420162541
  0.4482051008152521  0.4075716301299003  0.1377681751052150
  0.9695414606034102  0.7829169565120857  0.8802887190961127
  0.8795863819482899  0.7309400200963317  0.9150513355187598
  0.9244322166135728  0.8992716963883927  0.8417339252318788
  0.6146525199454519  0.5552410079896641  0.4340255972071102
  0.5093662393171390  0.5490037652247404  0.1694417036625485
  0.1581929640990383  0.8441725388220682  0.1405861573928629
  0.2092994502574776  0.7961944264377845  0.2272043359007901
  0.4377468228143352  0.5074174052574354  0.5461744600090651
  0.0778133369672611  0.9179023396467197  0.1681514663917143
  0.7934143494741035  0.7586178332024733  0.5428876748364188
  0.7950089147500567  0.7451377283996358  0.6041958104481534
  0.7602789194304764  0.5469117318549471  0.5408221840359840
  0.7100379514220844  0.4561539723084767  0.3805853992459369
  0.8690075288708072  0.4550754865344317  0.3267512761181905
  0.3451929300381402  0.3935870228582715  0.8712361503028913
  0.7195193655687351  0.5646418035698810  0.4140154324676096
  0.4520095092478115  0.4220510173761989  0.9571075801848963
  0.1357938238586407  0.0893286744802158  0.5691953819391743
  0.0864991895676310  0.0477496738831798  0.5639700867240770
  0.1795724408562688  0.1705567914223746  0.6809506882648042
  0.2502738645300457  0.1190659396269346  0.6594683285000517
  0.5801490480082557  0.7959722317368920  0.4648050774974597
  0.6926953461049383  0.8715373767404253  0.4252254612476712
  0.2534111778958703  0.1537090278111578  0.7642196496425706
  0.3254403029501558  0.1349346183520408  0.8461654179506720
  0.6856626335300789  0.8973280381506823  0.6345696076813643
  0.5858725060208790  0.8576821164062894  0.4500921631504485
  1.0011657795798701  0.1445006248253149  0.3620989790044702
  0.4386425297870302  0.3118108371297305  0.9713312105357539
  0.6117772180915396  0.5333337556263094  0.2662351889275784
  0.7115159835238167  0.4385773853490201  0.2154300989319662
  0.6233183014024360  0.1221817094326706  0.0127527561731226
  0.8059256188239106  0.3631590293479691  0.3359795080425264
  0.6322624680677071  0.4705269370618164  0.6790610844224709
  0.1827722096483368  0.9334957003102752  0.1441057629285230
  0.2466082345850295  0.5631661576323020  0.1362241285901352
  0.7516115198142684  0.7249951882602059  0.7045261360468866
  0.3911231089807972  0.9715052422699314  0.3333514343135184
  0.4820862751490353  0.4547864621283981  0.7956616602510825
  0.4044627019951760  0.3862234277847535  0.8923090012246503
  0.0807968771336425  0.0550275162473505  0.3941055461793967
  0.5414885270298155  0.4799630760471528  0.9222351408268981
  0.9491329533287012  0.1765258690231981  0.3371575585662473
  0.2025735600163671  0.1654058133382370  0.5210407447947164
  0.1889052155439354  0.1253011666064905  0.6372612137605811
  0.8978649741063248  0.2085772382436576  0.3088471666704206
  0.8323868400769521  0.6604025899319874  0.7454149192289664
  0.9960567588879808  0.1319154337934700  0.1925800182746280
  0.5683233432234351  0.5430609560034131  0.8641921918531956
  0.7951374701179792  0.2383606714763822  0.1490138619071935
  0.7154679855434575  0.8594705387605094  0.8327906228570563
  0.8181658869798927  0.3696263958356928  0.0408400790269870
  0.6602034076945755  0.4210467110327605  0.1435490056424154
  0.7962130734606864  0.8255349309120912  0.9841680521967533
  0.3280003177549315  0.3866133310760628  0.4614091324628937
  0.6044412929919699  0.4244277458196525  0.2415830094189520
  0.4772560563832188  0.5530302379333779  0.5549828705427858
  0.6908447550263306  0.7311728771485221  0.6809030714562566
  0.8494700041560019  0.7689237331264716  0.7302237785833652
  0.5819838537101812  0.6338937285020637  0.9446250664579019
  0.4048505474076905  0.5789645910470160  0.2399633617572247
  0.4006311060066014  0.4855477004374956  0.1530702630776063
  0.9605302789359589  0.7120969537326619  0.9984162687592373
  0.5502689669785575  0.3936603945105829  0.2337486807876996
  0.6097031131547248  0.4060899097238190  0.0691256683990795
  0.5395838089554964  0.3921534798931026  0.5311345248493160
  0.5023676172683477  0.4387613880360877  0.1442153561849850
  0.5101477263166958  0.5808809452577527  0.2736842481083121
  0.6543715384241598  0.4132515277113694  0.6945089804483034
  0.4476966476642401  0.4401370002057501  0.2407816746330589
  0.2055291127315774  0.7672152665678087  0.1210531327979136
  0.7030059561902159  0.4511088437773467  0.7608556382466294
  0.3578474945865887  0.6578911398272189  0.2578171858573743
  0.7312766542366169  0.5148544682126437  0.7023979792727515
  0.7287483148952925  0.5475958641182721  0.8069824365609850
  0.3645604364750207  0.7499055784155998  0.3489322253249996
  0.4128710056380247  0.6876326431267338  0.2674047476063026
  0.7645096656397626  0.5799479618802633  0.9036579319050254
  0.8807492082733446  0.4632222459110837  0.9261788087925932
  0.7931039804575817  0.6753396453911874  0.9525760775995870
  0.8307468448582136  0.7271421905248097  0.9549470341184935
  0.6395829566258772  0.5558024396465360  0.4974164599890241
  0.6889896630038626  0.2394358965008314  0.1094950090511222
  0.5025292307236432 -0.0036709971889589  1.0031648649423865
  0.9515673911675373  0.3226397675851552  0.5269541831169577
  0.6489486413303428  0.7459159500220300  0.8875798993373186
  0.2349842187783096  0.0822331013136823  0.8893059094747583
  0.9519144910328469  0.3175218619018668  0.4691038960323636
  0.9624583676931295  0.3812954846125419  0.4448122271376968
  0.9350858335577071  0.4488677058571019  0.5122117726368118
  0.9824286548338224  0.4232491251520314  0.4889140907628430
  0.6868259823545629  0.6795038501940909  0.4788218418238370
  0.8186921308197369  0.6504187337815591  0.5230916657550385
  0.6943037979767588  0.9159215812949381  0.8143477072845028
  0.6726018681919242  0.9723287854625662  0.7945548726892173
  0.7320304442728033  0.9645080565124654  0.8160725288340405
  0.5569563787702472  0.5039623861994432  0.0298640581616733
  0.3656496380046555  0.8180856808216413  0.5573948853727261
  0.4815352658173295  0.7834812374852769 -0.0008088536670264
  0.5084588220782078  0.7510416831187851  0.6141426069691821
  0.7023340134383522  0.8524023264343974  0.6032361297881758
  0.3667414168962075  0.8108703547715569  0.0955200263178573
  0.5912002598767965  0.9005815083359637  0.4977454940252987
  0.8615537109814874  0.5907393067908264  0.5663340221078349
  0.5580196842733952  0.5027634617739215  0.2564395092033349
  0.5224321214722059  0.7505097370769438  0.2882387398505430
  0.6643425959139738  0.5168110065963666  0.2320282392640571
  0.5741116453301292  0.6127302444300438  0.7794714773916563
  0.5415604701236737  0.9152891543508554  0.5345250893840725
  0.5360555129198877  0.8574941438191747  0.5485928166595889
  0.7434266712144854  0.7656319085656721  0.5217999082972268
  0.9104474052731342  0.9392059955259711  0.6528952412141158
  0.4317524643707823  0.0658967914501022  0.6228953513871126
  0.4725036580186951  0.1504294747801027  0.7294854679913509
  0.5641371675516775  0.6116827071559804  0.2837787099835166
  0.4619200130209386  0.6261151107971940  0.1879082634203348
  0.5497916604435183  0.2517302240337108  0.7392120163889943
  0.4554860485682115  0.2913962408040089  0.5303471370185815
  0.9104324048350485  0.8980407898870340  0.6105284637510535
  0.8044679164519022  0.8921613888327861  0.6313685042221251
  0.6063111439669103  0.6408042630420534  0.6169893693600822
  0.7638924102681115  0.6802671452105233  0.6626134365590787
  0.5582473470615352  0.5363386825442384  0.3606670385449584
  0.5929868575429474  0.6873235393196836  0.6588617988979946
  0.6622180989433131  0.6684375745648424  0.7422741447680401
  0.7338177274567628  0.6164330807486751  0.7203158074089506
  0.5511832171157229  0.4983903970903568  0.5381898083869959
  0.6601987992890722  0.5336776026640025  0.6212550387786413
  0.2409328186257852  0.9816726916664581  0.0924702444699536
  0.5721443889274268  0.8949698472148684  0.6648383904586551
  0.5726051013313620  0.0163015282853893  0.5798281711169381
  0.6555104349107639  1.0103917479866800  0.4294578647516498
  0.3457758780789200  0.1294513711412763  0.5761918686343263
  0.6123574287461406  0.6629194707432234  0.7816228204618083
  0.5243667300324737  0.8544903802277565  0.6023653365687756
  0.6232637585938273  0.6507787902259586  0.8426370392788078
  0.2156247909017359  0.1364018219032721  0.8682509840806550
  0.4094606804254456  0.2202132429216928  0.9191477545506239
  0.1870373572058377  0.0431927215160575  0.8230312550966623
  0.4866703509551556  0.3892789466102305  0.5802808243904555
  0.6517914851541554  0.7136454869967973  0.7847111759837342
  0.5075295096520825  0.7833509502041232  0.7223436158641382
  0.3572288705048803  0.3171885664716476  0.7178063551480869
  0.2796444130396400  0.2145069247308334  0.7086956634518835
  0.4497137192177298  0.2410653198605255  0.8183187014743589
  0.4786987559136723  0.3027344704825172  0.7617977080564180
  0.2870116347402817  0.8577456995142039  0.0284121515641892
  0.5061080559080912  0.3646496614480043  0.7057793916353948
  0.2106266614567011  0.8315919422319743  0.1055477249529181
  0.5050507467518885  0.3977511365001966  0.8130540935970230
  0.2317008663734892  0.8760484706293966  0.0644321719236433
  0.6141178737695313  0.4275803585359943  0.9023980088690191
  0.6031417632509330  0.4407313542333958  0.8405299420169732
  0.1327509750285157  0.9649886298613155  0.1187258956608823
  0.3018442813922999  0.1591383100088183  0.7252710852344256
  0.1152787944631672  1.0102792670910861  0.6800494407777019
  1.0043621102684186  0.1903233223989362  0.4073228556253125
  0.1338029438172242  0.9187333118033892  0.5814925749177783
  0.2498670535596522  0.1395326776569325  0.9353810245159222
  0.2258389626538469  0.0925044568106677  0.8251568596956327
  0.9043125596969919  0.3029517146538837  0.3999481856530197
  0.1519989222751291  0.1071657430266094  0.7393105004913655
  0.6111874497765899  0.6954270744850097  0.8859188331219469
  0.6712194737541161  0.6885176071706534  0.9076806079639566
  0.5183408190438965  0.6886859237598126  0.3023393469157850
  0.7205984933870384  0.7278308302774499  0.9732585178083655
  0.4201537480743253  0.7975478331725061  0.2957047117361801
  0.2564220687165151  0.0283199056093071  0.9086398317765765
  0.3739595189008594  0.8735368064444072  0.3167288851476065
  0.4011377924819456  0.4855101596181151  0.6515161057652823
  0.4500309896518752  0.5242350411914831  0.7158943313198800
  0.4875477877404216  0.5745801482533440  0.7207180970658260
  0.0329486968045851  0.9779108508290785  0.2506626644384097
  0.5091911367735066  0.5504515650557906  0.8430101636143436
  0.6323052858023616  0.7380255306587910  0.6618553691127530
  0.7936854089211670  0.2240480807953060  0.2092928771006202
  0.8518103602679121  0.2854361942759781  0.3241499220937181
  0.2484097416706142  0.0783616210685047  0.9511532605770675
  0.3835060947315596  0.8068468769614878  1.0135189993366460
  0.5359905188738741  0.8461141167375453  0.6635430400378404
  0.8203771357931272  0.4978227427625449  0.4626556244032966
  0.2554211228780344  0.7526180828149214  0.0844932779316120
  0.6013571580149086  0.7090622522438627  0.8259118753092710
  0.7612116542154798  0.9198967909121257  0.0612117334083287
  0.1507208767951473  0.7571778739475303  0.0482198009104998
  0.2364985964198806  0.4546922252292773  0.3353790980257879
  0.5279621564075233  0.1608241270958014  0.4769546424722730
  0.6786296764762557  0.5427048914726277  0.8463050774267934
  0.3221122623348305  0.5844066508838145  0.9804261582795609
  0.4645459978038766  0.0903060138435503  0.1943513157265820
  0.4205585539195296  0.1805705186259095  0.1478740821508525
  0.0647339355820978  0.6264001249335707  0.5693390142442798
  0.1442873476914082  0.6118810396804063  0.1399028964574452
  0.1898763110464908  0.4693629314628074  0.1425981818305666
  0.3896739062250202  0.0104389495491491  0.4608165289697722
  0.1332342685261491  0.4227414615377331  0.1971852316719107
  0.2233773865377614  0.3098629502283550  0.5033135692363477
  0.0884809918967732  0.4309117913917085  1.0019246959455392
  0.1099501945350361  0.2889826470297071  0.0719338497797255
  0.6069130093769286  0.8281055193426068  0.7470639432759633
  0.1187162860176929  0.2990396335348744  0.2381329905583601
  0.0615906310642414  0.2522087810495833  0.2943494644723806
  0.1461934142252169  0.6575774726591029  0.4143478113074065
  0.2576901837112510  0.1702692823412516  0.0400755538954449
  0.2128795117486371  0.2087594602939840  0.1854024535218266
  0.2080111157602447  0.1642931933594098  0.1391979299036954
  0.1487857855584551  0.5776066252989158  0.0388857483339358
  0.2971199071383642  0.3221286685730139  0.6960799304219091
  0.4476597077999685  0.4571380374022344  0.4028624880748531
  0.4770981052609776  0.2394096177931628  0.4927511902561738
  0.6297075438930182  0.5367931168912342  0.8860301269880043
  0.5327802310645966  0.2027250619554679  0.5207210830499293
  0.5828017936971287  0.2088448080514033  0.4255778471571680
  0.0327695835561781  0.5178098409259874  0.2450317946893668
  0.3052878641742117  0.4519490324844463  0.4735467176551755
  0.1326177241155005  0.4551946951866803  0.3002358414120240
  0.3715714810770800  0.2118530329286935  0.3535799566594653
  0.3758292866485866  0.2593413462583719  0.3993549595013349
  0.4616500150273333  0.0586855735813779  0.3200369566693802
  0.5474031902518847  0.9948003563917208  0.4576049389795803
  0.3676687871622762  0.1643542407273003  0.3094155527732123
  0.8941549063357038  0.9527370950396974  0.5882827944448387
  0.0917973281937331  0.8627171529587397  0.5795716524715443
  0.3185924699897805  0.1924431390459144  0.2834477977222573