C  Cr Ni
 1.0000000000000000
    38.7210597765861735    0.0000000000000000    0.0000000000000000
     0.0000000000000000   38.7210597765861735    0.0000000000000000
     0.0000000000000000    0.0000000000000000   38.7210597765861735
 C   Cr  Ni 
  50 1596 3725
Direct
  0.3814301592020143  0.2948826310811277  0.9953333408785757
 -0.0018053890880874  0.1346468248464799  0.9718509729180330
  1.0210496863831302  0.6123784475303244  0.5439010567803937
  0.5238367135184435  0.0354332113858940  0.4731822568790355
 -0.0194470792343061  0.7984604902130461  0.0997793541264556
  0.7739212496905009  0.8435884001290257  0.4909780988961696
  0.0544944667294683  0.7702390576170743  0.5796039438218508
  1.0046963765736463  0.3675447231045734  0.9671887268795162
  0.5950900129824169  0.5333574669922259  0.4797925937183344
  0.0102842434773870  0.3157364622879257  0.9134085069691377
  1.0521483265233320  0.8750958864846810  0.5680499683903488
 -0.0688646414509259  0.4146186101239109  0.4710895742727116
  0.4569065587362948  0.3341475726518364  0.0111452739457491
  1.0215257566891038  0.0505975647817308  0.8589734625109905
 -0.0194365381399281  0.8086656314014106  0.6705195881879330
  0.1291917403150702  0.3934676467084364  0.5371974390755327
  0.2668580609736446  0.0216154349132777  0.8892766662445447
  0.4576242228362757  0.3766802419183906  0.5347800691357490
  0.5735822432192463  0.9730893096325434  0.3820516851307781
  0.4800045243439295  0.2411213253842569  0.9221703233067561
  0.4989088721989459  0.1643963292786192  0.9720924072980716
  0.1848201445873894  0.0799323955730194  0.7275421937191739
  0.5624372771971116  0.2025059685435955 -0.0313514691931356
  0.4445910936203224  0.0386163939377006  0.4267036941037774
  0.9480317607277194  0.8902571554009099  0.5642904336549762
  0.1075279006788154  0.6677342707181897  0.6812276160142143
  0.8582154514131127  0.6343343799299584  0.2340058026948448
 -0.0073569055421192  0.1578253862627921  0.8939416807083396
  0.9972789839768257  0.8215062669087895  0.4769407552416151
  0.0473941042037916  0.5991247557619411  0.6703028266552623
  0.2216965112770702  0.4262212650547054  0.4408135358021913
  0.5157962090137451  0.9865031550558765  0.4202611426490923
  0.1895642518470793  0.0344441204253453  0.5402820438696438
  0.6135601124053722  0.0420339335675156  0.5628249463609183
  0.2326419862405006  0.3018986654126030  0.0606965666371614
 -0.0110061005503607  0.3835221836897095  0.8949436981369456
  0.0339743686205351  0.8661065106919358  0.6679876728528920
  1.0075267956402472  0.3900489543939323  0.4846342293883665
  0.8328604769457854  0.0299596272660160  0.9270049440424565
  0.8493910620083478  0.8956958236818423  0.5271136515497203
  0.4395143445094309  0.2363663479297151  0.5287047173006180
  0.4407048745883104  0.7112686338343751  0.2413161555195359
  0.7064619676810909  1.0166890223494780  0.8969226279617100
  0.1028837701484647  0.4046434168006006  0.4647801571060193
  1.0144272873634184  0.5214014673053579  0.9091508511126754
  0.2300760981656925  0.2476647075761008  0.0047391324767859
  0.1610659188862975  0.6442388550174255  0.6327259313076418
 -0.0200672496419589  0.4374888322371391  0.9442459079213608
  0.7943395992730564  0.9730608409506415  0.6298191564309061
  0.2874900482164535  0.3403178600850147  0.0069789941721383
  0.6561884936391633  0.4394721693719458  0.3116406666942389
  0.5347806516519075  0.1766876288994970  0.8578911285884855
  0.4835809727141446  0.1386988594994503  0.7900988590389025
  0.6199496580121353  0.0588476010175174  0.0187637853200224
  0.3945429444853619  0.0504738751720710  0.7200030316805835
  0.8832229329138955  0.0582964543789863  0.2360049710047912
  0.2791577606893821  0.9473686065848173  0.4419023780555323
  0.9126106463231037  0.9861791660610785  0.9276419443691202
  0.5823725080012552  0.1822128827658639  0.8181380272932406
  0.5853821923327123  0.3641719650149979  0.9589556738097944
  0.3229144241968127  0.8697599747592933  0.4197883693325134
  0.6499371111881492  0.3785454578551746  0.3316110307383350
  0.8584433103877516  0.9472408814191547  0.5234965803047402
  0.7131385712135238  0.5031095254181924  0.4224357627697690
  0.5559731126090888  0.3734450768564956  0.6604508279754392
  0.1615676866326024  0.8448807248552846  0.3723384527060676
  0.7328098446402118  0.1335293619421981  0.2152937563119060
  0.4483719355245323  0.1746047838772413  0.6076390210613393
  0.4335579013401783  0.1902349484862926  0.5492341056305070
  0.8458849520240951  0.7674664776647915  0.5015053316999702
  0.9273527551911260  0.8437128350070868  0.5649618896829911
  0.8290859458893477  0.0440691189816794  0.1657077658510952
  0.5238399624249775  0.3724700175917217  0.9353564789808416
  0.8478558563121477  0.2275223370591720  0.3405520937472870
  0.9465842163314929  0.9809389501535517  0.6388979351158758
  0.3093342512319784  0.1172176045058866  0.1296969391802120
  0.7186470067657642  0.8266805691602980  0.7269399529692120
  0.2235713399829185  0.9487917763069030  0.3049974467895456
  0.2489672957391983  0.0178069260379796  0.6421530229060125
  0.3273483710245983  0.2201027383959742  0.6698021708234418
  0.4000215264159783  0.2031722452893551  0.7519600781157575
  0.3898743759258145  0.2467388756836112  0.7962167437798561
  0.9890399840666428  0.1051884474714603  0.7983743221004449
  0.6609871858789222  0.2964774022429839 -0.0022989112815528
  0.4980925269496201  0.2767880596409212  0.8856404074371614
  0.5070300168619248  0.4720988124033070  0.0222474469675859
  0.9035150860986743  0.9352449385425162  0.6466652862924317
  0.6594166450456050  0.5331505819821033  0.6208676801984452
  0.5354703195505390  0.1699011677332381  0.9370272988462036
  0.4460077405554787  0.1205417955923634  0.8894986933611276
  0.4807343721707769  0.0209124617389492  0.8665829604282923
  0.7465898874427832  0.2870507114226963  0.2844318325869302
  0.3956362764393133  0.0833734680438950  0.8259261451280290
  0.4676881828014304  0.0316363275988852  0.8036203861063830
  0.8423560366639808  0.1808282482059038  0.2961076488437583
  0.5225855088703195  0.2199415322833317  0.9049257418496287
  0.5737971808567108  0.1538030262464629  0.9851293930163271
  0.7334233590545682  0.3811045720990681  0.8379694793859318
  0.1355499638312013  0.0483556732207548  0.5228393215645295
  0.6297042564822539  0.5034042666387046  0.7821984383792639
  0.4570401724372957  0.5338014204129358  0.1010481132816479
  0.5141846862890493  0.6124821186479886  0.1526292237598596
  0.4161823307125496  0.2782786874413902  0.6315224543397566
  0.4621685856331934  0.5964590992003345  0.0832154348053195
  0.3263733171345041  0.8013995877713295  0.1046418124984454
  0.6611192840780487  0.4365182242537635  0.0836750276646597
  0.3104371506904999  0.0273095584777107  0.8643170259331632
  0.5889281034952039  0.7222721424818158  0.7628961346039734
  0.4018579745019287  0.1208802398990492  0.9281359303417063
  0.5638717678917401  0.2553462650552565  0.9733123401965939
  0.7040380154583111  0.5857099482415471  0.8833002596892626
  0.6441062487930094  0.5931139699709665  0.8630028676946190
  0.2241241098651251  0.7418609762166172  0.0191900487714017
  0.7142532685520544  0.5736761776459099  0.9445939754303081
  0.6927857007918191  0.6306129716828635  0.9259810994013304
  0.7438409888885800  0.6763591572343773  0.9898223024273431
  0.1292446092878451  0.8548046604489353  0.0893407514228757
  0.1212693661559675  0.9176428224448543  0.0103580189279317
  0.4971449630588804  0.3453752868403138  0.5306452233293663
  0.5748748127165365  0.2061576150417915  0.0188206370089381
  0.5586109032369021  0.4856350977084821  0.0906553127284177
  0.9739068281431498  0.0408572931945051  0.4195884566775522
  0.2728220368322384  0.9166744979074812  0.3321749322503078
  0.4342953603087241  0.9131069354626371  0.4966831043938785
  0.2180922243578811  0.8883690156657061  0.3215864713879122
  0.6167576657890471  0.3655712289738967  0.6842611000294482
  0.9139618237705758  0.9713867494267755  0.5306647783109861
  0.2681852210353161  0.8552676435617962  0.3502488201761362
  0.4672938498207918  0.2836990328565336  0.5919404605971357
  0.5674250839429856  0.3278751826292323  0.6161153305416746
  0.3150107580893111  0.7945095108636079  0.2647004316530906
  0.3606736573427640  0.7192186990469788  0.2424003744085923
  0.5096396966458264  0.2017120528295776  0.7340604282537061
  0.4170974342569648  0.7172161994065672  0.3746539933820932
  0.6187085313632277  0.6116560411329369  0.4159338869278753
  0.3703063244199202  0.7926761057042637  0.3952176427112437
  0.8105960089553320  0.9659194500664048  0.5574754209532121
  0.3185891755713773  0.8242962759762825  0.3723550251052390
  0.5697770139917919  0.2264229334566515  0.8630471117966044
  0.4266498232191570  0.2365628173727515  0.5835386176614560
  0.9006645436384305  0.2405920365225159  0.4161903675141441
  0.5263600768266781  0.7601666455880262  0.4571471964461210
  0.8056929707293431  0.7867516222624326  0.9314697307472943
  0.8753537914663783  0.7787347411321919  0.9581255039902252
  0.4768329533869328  0.7797115875744229  0.4901767904071364
  0.5062227625184659  0.4550935302292300  0.0816675192473045
  0.4791094437522013  0.0040648877422362  0.6646501085517724
  0.4068263512109629  0.0290339956753619  0.0745716715681349
  0.8685476761977864  0.8526352630515600  0.5482533845233997
  0.3987506716889588  0.4379450822187826  0.1083057303019265
  0.6949587806164678  0.2112952694435575  0.9111113258412470
  0.6713876236184972  0.1558901810774524  0.9582529130039544
  0.4002743886440137  0.4554640656862852  0.0463497822180040
  0.5292954465200386  0.0250902841736682  0.8274946479215474
  0.5897864806738579  0.0188648911611361  0.8504368206072979
  0.5401719751517807  0.0144407687095078  0.8922276997801719
  0.5285959825617979  0.0622124706833368  0.9330546358432964
  0.6297621816418579  0.0664241929675907  0.8533750046159781
  0.7544733269552879  0.3789716086237871  0.3696935437835285
  0.7775957519672387  0.8201587439651471  0.7489454182975578
  0.8335222295425325  0.9880094984210881  0.6674973991050226
  0.3625057760873233 -0.0315796046742924  0.5762644635504497
  0.9051026623690774  0.9664632849028127  0.7524300346476405
  0.4740298520213636  0.7322460379211919  0.4430530562145169
  0.6410156471282725  0.7590353183135078  0.5492426415781781
  0.7626496754699851  0.8753956039094641  0.5651205761590370
  0.4758746221720500  0.7935778064710814  0.4293041570697376
  0.7597121751394481  0.8431380083145037  0.6223090435117506
  0.3824736303152198  0.8821850413447928  0.4878204353987639
  0.8091643574413072  0.8825301163736906  0.6877365258794831
  0.4013531670020380  0.3385364309331399  0.0140226465563906
  0.4986034452329433  0.3437231715712844  0.0466058582211013
  0.3044773868098768  0.0719317066254493  0.0849681800769063
  0.4459671502798552  0.3640039053656335  0.0929583141215207
  0.3542815447204697  0.0406801100885547  0.1117147724260923
  0.2655961204787245  0.2270893159119843  0.0323742294804086
  0.9787066924720247  0.4535715637312269  0.1368421657248608
  0.0806492962918986  0.4054249802140777  0.1267497284223073
  0.2531182590137189  0.2923804010576685  0.0149958544409904
  0.0255082618892205  0.3783383680002751  0.1209895799453043
  0.2262663765592818  0.3157013981848835  0.2098942768951609
  0.1329632886269920  0.3456849170600297  0.0444686395147997
  0.2996939504472677  0.1246097195197809  0.6183730871691927
  0.4353247280497623  0.0737268587446244  0.5658135216362683
  0.2493287843594355  0.0740908495046691  0.5562036598348419
  0.5060376674719304  0.0804414670688248  0.8079911809970765
  0.5195559763329474  0.5663322364246666  0.5109545382712767
  0.8019803769396336  0.7129168861589937  1.0013219321971449
  0.5318806641663715  0.2517065220979633  0.5066462169434259
  0.3903887445858272  0.2448872008396048  0.5229105304659067
  0.4178204386864876  0.0099168904281489  0.6419435029605429
  0.5041742745174905  0.0472567951882239  0.7007784721298341
  0.4909123340123302  0.2954698988833446  0.0039826361623729
  0.4416251493278303  0.3174228479550042  0.0565731223130379
  0.5546931172565458  0.0868185604017702  0.7681778702242673
  0.3285681332424095  0.9140932097146490  0.4713744498508940
  0.8390239918440640  0.8449141288390977  0.8771998243381450
  0.8705340807213086  0.9061290736563559  0.8149140751873046
  0.7799816252756364  0.2663682528456450  0.8715018612677516
  0.9716754236827473  0.0230618501200598  0.4792219209330719
  0.6307277867224835  0.1650039123379067  0.0552923125888403
  0.8175631583339671  0.1932013207563735  0.9456560544199067
  0.6754549268430454  0.2605795099369108  0.9503793397556058
  0.4851565000155875  0.2347701178411075  0.5494973473514334
  0.2579826573496744  0.7351381296253287  0.1454875934401580
  0.2116137851473816  0.8159784575586738  0.1662269765649880
  0.2625538112293574  0.8263455535643865  0.2388413477300295
  0.1629512806583061  0.8749994983829519  0.2474318354146254
  0.0628089022179858  0.9211358859538616  0.2578643182110702
  0.7716782699193123  0.0131497154755520  0.1553169545102014
  0.0967100999242064  0.6629845902699929  0.0535746478800619
  0.2653975573466968  0.5846527961326777  0.0126236406748527
  0.6961395989136747  0.3316410909796284  0.8316747367735827
  0.6696270772399908  0.2369210133544758  0.7827823351927333
  0.9552057490473954  0.9382756570064482  0.5782818575673471
  0.9979420051513513  0.9861540604932337  0.5951248193123692
  0.9003270880252860  0.9044923121907916  0.5441373217823808
  0.2338776321130006  0.4097344956138252  0.2930624990562232
  0.1692218458522733  0.3011826619485101  0.3675446819545903
  0.2176953154552701  0.2386402218058440  0.2907811795567967
  0.0411914237048806  0.5648224706592189  0.0562005955784675
 -0.0066149628973001  0.2932597583032747  0.0274763623857503
  0.4044160066486327  0.5130072077645336  0.0334686838948461
  0.5398529248986002 -0.0389044756502966  0.5804124762439371
  0.5284962053882460  0.0082691662543715  0.6235015012808754
  0.6011693152497052  0.0590369084949088  0.6142677516907238
  0.6871106113545216  0.2101255173129918  0.2306520350592595
  0.6522233954013656  0.0965238420732518  0.6854931461859888
  0.6411842461389902  0.1429918442029633  0.7314307013404738
  0.7142831968507135  0.1244121942591352  0.8149868123597471
  0.6916017052476111  0.1793896589978411  0.8000607219537917
  0.7166557955760490  0.1532294635906663  0.9229600598382519
  0.5907597756609055  0.3017781877070604  0.2817247963537265
  0.7899853412994645  0.2553967347604811  0.9307372316789720
  0.0485596121095964  0.2080511688842068  0.0179668417172528
  0.2605428821582573  0.1488164535831291  0.1036446825672154
  0.3627230818388054  0.2384731379107257  0.5684741299022427
  0.3606430356459478  0.6414971335134908  0.0939512544070684
  0.6652354400152938  0.5680694778038347  0.9874267764270367
  0.2907175014591653  0.4550626605107869  0.2400361699132527
  0.0003536986492506  0.2292421471967863  0.0510004876217923
  0.4104343730181181  0.5809326353174300  0.0134363211423348
  0.5796372396259257  0.4977317628007363  0.8210227588371686
  0.5320008961303572  0.4604705076277908  0.7568135240234530
  0.5918458673613146  0.4543485416278483  0.7786805907885000
  0.2786326500231204  0.7237607705683423  0.0487842638863092
  0.6933463315425276  0.3651946399984419  0.9388357793370768
  0.9112258006890872  0.8909105518582192  0.6049482703792934
  0.4707464670595905  0.1147704295792301  0.6156923284943537
  0.8588105236685787  0.3813048351496857  0.4077444352768637
  0.1350941159898719  0.9496713495679442  0.1788038063099343
  0.8809873506579161  0.8292018115886975  0.6701170758994005
  0.8878957354861611  0.8166018540777902  0.7317870748586882
  0.7171104332280840 -0.0046726941187868  0.0815319817932601
  0.6774552753918488  0.0874066003397835  0.0369712128797090
  0.9804262614597925  0.9364104176015552  0.9096732164495983
  0.6999927181333782  0.6571601099960395  0.5353528562758381
  0.8808563123625778  0.6972488781189204  0.8098326888057448
  0.5841208110737434  0.2394605704667817  0.0719784223436526
  0.4954107997716131  0.3754022064088315  0.1585463224252895
  0.9792746377143421  0.7389998597515681  0.8366347483575289
  0.8984358214616952  0.8043705993414539  0.7946490817846882
  0.4474951843702450  0.4082992768384934  0.1346104102278480
  0.9692386737902826  0.7846965536039643  0.8798279795867088
  0.9199907557620255  0.7795906346859391  0.9195258116560617
  0.9997743781181884  0.8784340828303526  0.9244686692617010
  0.6123275968833684  0.5523693243578461  0.4339415545663617
  0.4549226321886852  0.5171295251055865  0.1615259068276286
  0.1634603703160818  0.8469377659828895  0.1407965707381601
  0.2093610170413358  0.7978163436218014  0.2263010864491864
  0.4120909349638288  0.5642560507790200  0.5313931085597068
  0.0804821720366717  0.9175012463104200  0.1677328797946357
  0.7951057461367345  0.7518216445403400  0.5478841855853305
  0.8470028091646973  0.7446775521935474  0.5672630824949555
  0.7597197415013383  0.5484677203015845  0.5424231276212367
  0.7607284322551754  0.4407675039398668  0.3491392399362838
  0.8161262362011349  0.4730290051447416  0.3578753948334096
  0.3941380343450510  0.3998843892680289  0.8300964964222183
  0.7185215481099837  0.5613839862704644  0.4136936716295060
  0.4495252187349338  0.4220400513871440  0.9563034236252980
  0.2183569786950153  0.0169502671563479  0.5847352530944416
  0.0871271756386869  0.0454718935637026  0.5637943485537877
  0.1376462732249340  0.1189762304105827  0.6751026335811282
  0.1994925837695439  0.1145990405949777  0.6961862070053242
  0.5829863719566818  0.7949075106815435  0.4638497851523560
  0.6389515071236385  0.8420505517102117  0.4133496824047402
  0.2406722857586151  0.1977299546615430  0.8080255271716985
  0.3004558334871602  0.1903868301615572  0.8302995153066138
  0.5421738118413929  0.9148542996539568  0.5346466101888135
  0.5874403118498530  0.8564851682296799  0.4512283727009164
  1.0001448509274531  0.1461671955838173  0.3615768351159498
  0.4246457019222010  0.3301317346439989  0.9071562654868167
  0.6117734560087599  0.5326515543680224  0.2651645578109177
  0.7111117555763095  0.4395440396401671  0.2164939173559318
  0.5776539385409410  0.1634670099935051  0.1505379549962100
  0.8051564545067740  0.3645413579895917  0.3365885927609318
  0.6912489836163503  0.4639516804689773  0.7005466491065704
  0.1649063896000404  0.8920857650131440  0.1858177107910427
  0.0764794850864319  0.8895406687590235  0.0578465941419593
  0.8830062462502735  0.4480432349400925  0.9877166977906083
  0.3863816289849613  0.9737730914351054  0.3415206645209863
  0.4310004376037219  0.4486118784624493  0.8354258979684023
  0.4421140815010597  0.4362268546353315  0.8967245684711569
  0.9947835868270062  0.1002470118458035  0.3157920705761227
  0.5410906549304425  0.4789903238845571  0.9224093848857912
  0.9498204670788876  0.1788421007074080  0.3353512770953716
  0.1853607888923003  0.1525095049061344  0.5149412681360764
  0.2275848905579534  0.1742006761937252  0.6400458148080199
  0.9541559166930701  0.2403829094735534  0.3187869413008495
  0.8332612780301307  0.6594974833253310  0.7461492670314984
  0.9967295928883881  0.1327431015281486  0.1928111771162732
  0.5836944762543961  0.6002202306665367  0.8409309993129901
  0.7955686139231596  0.2390150137243472  0.1461835369808436
  0.7186336535539409  0.8604907696728856  0.8329937166693542
  0.8067496701305773  0.3464119402389653  0.1683452015934727
  0.7074377941832262  0.3943226459909287  0.1733531986726006
  0.8103862446841013  0.8590945337310942  0.9835728960556134
  0.3712479445360908  0.5152395953984061  0.5289874209526249
  0.6530332281757116  0.3934520542939208  0.2700275980816249
  0.4793150022487088  0.5539003587662920  0.5559511935772816
  0.1649112325030355  0.7534654054664025  0.0535161359881663
  0.1077622383016887  0.8163874577330438  0.1293473899237908
  0.5804700068717012  0.6337531753173464  0.9450760458815199
  0.4048747623761963  0.5787299568084826  0.2401618778260128
  0.3517842226983186  0.5624672557805330  0.1695965789837076
  0.9641218209495963  0.7136295697211075  0.9990171031502125
  0.5490830651574267  0.3922457405221624  0.2317700193735554
  0.5994803270237936  0.3768632240673632  0.1983624707951191
  0.5383287281526170  0.3939229810226791  0.5290902621999665
  0.5567264966641261  0.4696721485912239  0.1515889424582775
  0.5106956065148157  0.5801997029808533  0.2750108098501168
  0.6545188555904835  0.4138546239612703  0.6958867752858828
  0.4526947389586398  0.5018421662259124  0.2221914873500469
  0.1574752204474709  0.7840909827664766  0.1560060218079709
  0.6422397241065523  0.4585645766812150  0.7395992178811330
  0.4083410941807851  0.6236762951555832  0.2837988085990248
  0.6898893303929021  0.4964914576446454  0.8033620515528398
  0.7496877543037392  0.4893236430188533  0.8242541362196163
  0.3568254846460734  0.6562434257115994  0.2586280927191899
  0.4094838867135018  0.6853129911465921  0.2691352375249605
  0.7635314881997609  0.5792881738562323  0.9040957702613061
  0.8334792939833752  0.5578558188936554  0.9896983541734151
  0.8144149246557615  0.6181595552846577  0.9683631080106245
  0.8800515546040039  0.7305058365935074  0.9144031987171030
  0.6378720350069105  0.5529990676042568  0.4977946695700089
  0.6880201530407857  0.2253151624272436  0.1699030156558771
 -0.0012644224626474  0.7987249850178729  0.1507406682183727
  0.9172978280823009  0.4102893309503690  0.4200989163551732
  0.6497647063547302  0.7481423587997876  0.8875663224250109
  0.2343418167258321  0.0674942931757065  0.8908071787398867
  0.9532098422469716  0.3185042653317453  0.4701555771845646
  0.9651183779522979  0.3807018929285517  0.4513120954391843
  0.8830711937012974  0.4097098996705193  0.4954979584005734
  0.9785062114999371  0.4311162153944840  0.4878956818844449
  0.7235691491553121  0.6116139507268442  0.4566573360828346
  0.7978364495269785  0.6631406979187465  0.5149354717458091
  0.6873471309419980  0.9296786748802173  0.7475287910819515
  0.6728830191684041  0.9720596034436263  0.7869524866647982
  0.7392835204393341  0.9672123776779246  0.8117038518555713
  0.5609223863766448  0.5017800556489711  0.0314913087149152
  0.4246025854077657  0.7864380054214467  0.5250842429955123
  0.4864264508746872  0.7813524734873479 -0.0012782365402695
  0.5085600031775268  0.7522709949208899  0.6153718888762579
  0.5469886436203265  0.7998350222475580  0.6210918532403538
  0.4159650879137451  0.7383474939396706  0.0867522489604461
  0.5924695855812893  0.9005691505759190  0.4981632583527281
  0.8475128143253967  0.5997515588961762  0.5014713058419563
  0.6093429017221702  0.4854800272901819  0.2227747644249165
  0.4702305128192095  0.7193869003590678  0.2799275768372786
  0.6640368232473309  0.5169365612204129  0.2320557088566915
  0.5743057784230157  0.6138556799792180  0.7802714840136152
  0.5424917672960751  0.9302631053279734  0.4730180920441145
  0.4821836030464070  0.8232181725119038  0.5372327554150349
  0.4096492435253956  0.1247289503959290  0.6008854150649812
  0.7313156287258072  0.7160723381202218  0.4790959471973322
  0.4223253089566243  0.1136302653053625  0.6611220275395077
  0.4601415777403096  0.1627648751290086  0.6667288233505606
  0.5142033132862224  0.6254586823646144  0.3186939589860351
  0.4656029690980362  0.6700849343281396  0.2315831849010268
  0.5217848466370490  0.1879670397073790  0.7963125618297527
  0.4501011381682583  0.2864036476155806  0.5316909241079876
  0.8377305138073358  0.9441911385691965  0.6226504996022439
  0.8005485606149357  0.8894788059969344  0.6285417122467345
  0.6053508458662185  0.6406389422027196  0.6177798849154748
  0.7631184228349619  0.6789483371424264  0.6633002850046552
  0.5582787850563197  0.5346935903129216  0.3603891354192960
  0.6529826611404564  0.6800161776166573  0.6817000935539598
  0.6623311677745491  0.6688644144934965  0.7425183173135205
  0.7349527930460016  0.6164953303942690  0.7208769390821542
  0.6104794521046690  0.4909923734438510  0.5616521182100229
  0.7194760649760431  0.5273632161935482  0.6419641395100678
  0.2384930331288799  0.9209389465237070  0.1057883775067705
  0.5730989209970256  0.8955377121698572  0.6642139259759866
  0.5765050139587513  0.0099257549213788  0.5809923109810868
  0.6550073536716507  0.9929733545907934  0.4877231520709025
  0.6828143506719805  0.6802823606440555  0.4788476611170929
  0.6118315117395394  0.6647048278254928  0.7823068880638464
  0.5946203489071158  0.8829594321114010  0.5602348484009361
  0.6233662683045883  0.6518422756886627  0.8444754059783213
  0.2724423327775589  0.1252692902454400  0.8899012355493632
  0.3593588389417108  0.2131458315618045  0.9578940060664761
  0.1860351777574450  0.0400028811351888  0.8263666520743107
  0.4691783774580006  0.4356648517064567  0.6291254481575783
  0.6508088867961256  0.7150480282542000  0.7846002299603692
  0.5793455287114281  0.7326558536928256  0.7019758892881786
  0.4072683857166183  0.3230628554744195  0.6771079138655057
  0.2791491508035696  0.2149932981055216  0.7078514337536636
  0.4172562267232737  0.3103776149914220  0.7388618593834373
  0.4776643597750355  0.3039797860745996  0.7597451791577265
  0.2734570078736104  0.8259328850816148  0.0746677224812063
  0.4551634049453709  0.3581924080391671  0.7438133101901642
  0.2169397718657332  0.8338895074157786  0.1057369363560170
  0.5035284390653877  0.3968302031412538  0.8115579754885487
  0.2360649360047707  0.8799587693758698  0.0578093766918702
  0.6120221751721162  0.4278829141480635  0.9001294536582403
  0.5530920307273611  0.4346239685816996  0.8797792525857077
  0.1346537806870389  0.9649924873981682  0.1174077644519726
  0.2138860021035796  0.1024468969371547  0.7632492629029580
  0.1573379243939959  0.0595465936640818  0.6904816393053175
  1.0030959654468454  0.1910583738902903  0.4058083122748407
  0.1652864090343740  0.0150568199959970  0.6374397556910472
  0.2594330470903276  0.1705387843220661  0.9273341659171521
  0.2142640329246850  0.1319826358573416  0.8698103701563590
  0.9053145786800896  0.3028972754805631  0.3986308082455269
  0.1077323542998022  0.0536653350874909  0.7328319398625287
  0.6108558220571992  0.6967270711356842  0.8862768561355469
  0.6708089491772915  0.6893373190080926  0.9060361831687247
  0.5200299639121442  0.6880191507274694  0.3025317550350338
  0.7197764532338033  0.7265725882782138  0.9698386089276467
  0.4251221682084059  0.8563987059743561  0.2817052863198623
  0.2404044069621086  0.0593254018248360  0.9544587844500588
  0.4250908031308171  0.8410699890155773  0.3429936842544020
  0.4011993766091604  0.4878833865225371  0.6517289807564591
  0.4494459596197101  0.5252828651608171  0.7171150034194290
  0.4877761279653203  0.5756647059130587  0.7208731834823584
  1.0338501375245526 -0.0046764408059329  0.1900553000474324
  0.5339295321991220  0.5942067389031664  0.8830222985368132
  0.6288952027264073  0.7720211169767476  0.7650489476883284
  0.9034870935719972  0.2717382851726436  0.2904127494362719
  0.8517037505857405  0.2863751744419203  0.3234683157062220
  0.2293683844338425  0.1177846981097697  0.9332350393819996
  0.3837424469422840  0.8060978893003454  1.0109989372002255
  0.5354391192581015  0.8478034692404248  0.6618636121634769
  0.8199477425820250  0.5013488898085585  0.4633947913881949
  0.2692148032076742  0.7629135656120326  0.0903078918622450
  0.6010676511928503  0.7093326000843899  0.8260288019048406
  0.4820397785258898  0.1066430375600699  0.6831522640259852
  0.5817701331143377  0.1498194559837156  0.7095567717811774
  0.6739595529119063  0.4206958307280995  0.9223724261777336
  0.3447016328644806  0.0802989680833594  0.5280937542078376
  0.6778312829752619  0.5415731001161679  0.8459200188129371
  0.3095761418116551  0.6258740847165118  0.0216413378478883
  0.6284398928500036  0.0342204192598327  0.7444085564643051
  0.6528175619395731  0.1311909271224418  0.7934533327125214
  0.6768005199963746  0.1052847991441857  0.9166476151100208
  0.0778107898814676  0.4589482501424767  0.3939888201532427
  0.1373272030051016  0.5341332805284705  0.4499499435847980
  0.1291225700128112  0.4422063511060664  0.3617650987240974
  0.2501311854847842  0.0477876567114436  0.0160929681134742
  0.4642910932027354  0.0861682642094584  0.1941853219534854
  0.4211231668097210  0.1777903615958130  0.1487776121524001
  0.0607289075233500  0.6371882233680302  0.5674373582191753
  0.0901872162391649  0.5801036385046430  0.1328749591333376
  0.1386687274371873  0.5008653521575145  0.1166668984545479
  0.3648283535180246  0.1382607286813440  0.4387950363090080
  0.1369961548971624  0.4858348689846945  0.1763015199938871
  0.2223205246728141  0.3096469267107438  0.5041109588981522
  0.1362670143199054  0.4088077689241061  0.0273883057919605
  0.1097094950081870  0.2899003496155613  0.0735900632096420
  0.6065732681564504  0.8291125652856579  0.7461454719427237
  0.2526918311973703  0.0705109345954296  0.1841019240294670
  0.1062434870930821  0.1771482789823791  0.2732424563433591
  0.0609015259380607  0.2533523599689429  0.2927178058841410
  0.3077596203643282  0.6102437567511522  0.0861785114331487
  0.1496013466489109  0.6561675450737335  0.4159064393937895
  0.2047953212475711  0.2026086973049500  0.0162172560558904
  0.2142754779892908  0.2082750516775841  0.1843209528139627
  0.2089424169654596  0.1636500735738205  0.1398827992688617
  0.0893355439641780  0.5389639749759504  0.0335813161932541
  0.4225345617140218  0.4029253444939147  0.5062516535495172
  0.4782869546434049  0.2434883066072489  0.4900572716264776
  0.5310834986654681  0.2216021725021445  0.4588738563266603
  0.5834600879694922  0.1917461164672211  0.4850022270232258
  0.0324284913469938  0.5197173122217525  0.2465349440734430
  0.3433690816722604  0.4433189999801290  0.4273888058154937
  0.1325590466168148  0.4568609432158061  0.3011291910585951
  0.3713830143424843  0.2111820167137985  0.3530668093907526