C  Cr Ni
 1.0000000000000000
    38.7210597765861735    0.0000000000000000    0.0000000000000000
     0.0000000000000000   38.7210597765861735    0.0000000000000000
     0.0000000000000000    0.0000000000000000   38.7210597765861735
 C   Cr  Ni 
  50 1596 3725
Direct
  0.9903373695392909  0.8493533439338008  0.0161090241480102
  0.6972515188845134  1.0137498370383169  0.9047364744781213
  0.1392314566485284  0.0433519526207404  0.5880691399442071
  1.0595276219326748  0.5844968920452019  0.7338714387816428
  0.2570476597975441  0.4482920329660128  0.4467841170263449
  0.6025720139870606  0.0817041898955160  0.5713324586040230
  0.0841850999546830  0.1036574689658676  0.5596293433180045
  0.4565508559420172  0.3352551578829016  0.0121199637668622
  0.3840514307066477  0.2987505144324702  0.9933477552129127
  0.2719969538781311  0.4368105175023254  0.5179660971719100
  0.2278712724880819  0.2452857532202975  1.0055163393588589
  0.0204645092402100  0.3906983002668826  0.5595170690349849
  0.8286149789074642  0.0313004055789635  0.9366839909536011
  0.8483479757784791  0.8973932639085891  0.5301345963808981
  0.4905343069622687  0.2849342410947853  0.5216775724348306
  0.8815028364402910  0.9867526532361480  0.8276450834445287
  0.0361981748357444  0.6596680865238068  0.7173214670940509
  1.0114749078527776  0.3907668337123548  0.4840698829359887
  0.0171550682241332  0.5207814483975326  0.9084887783558127
  0.8462386687077815  0.1085455399173727  0.9133870357218608
  0.0487546510233339  0.5992667121791344  0.6656249382177046
  0.9820810829758908  0.4335604985593042  0.9411046657711438
  0.9845116948527020  0.9502057569637463  0.6152861812818369
  0.1137330591227276  0.9485644265913358  0.4784139532836423
 -0.0712375701830635  0.4105820333776020  0.4681959372235041
  0.5110490833511242  0.9556615721494872  0.5474778952337652
  0.9482132376572701  0.8914324458626923  0.5666132227372559
  0.9968432180306802  0.1363128016027161  0.9700679742088907
  0.4574956305102835  0.5672558237125713  0.0480930591900068
  0.0008787764576795  0.9696446749701183  0.5444027090923226
  0.9844616246995166  0.8005255634706139  0.0968766055480408
  0.8904778948822104  0.7956104886501092  0.0694583492912247
  0.2179251812504596  0.0513893538561895  0.5431282533370341
  0.9301597944698063  0.3134546312510325  0.4382456711518248
  0.5955746956926052  0.5333234828910115  0.4790852011616260
  0.6201013876299540  0.1809877963500523  0.4978767571406284
  0.0469797020893209  0.8739183770507529  0.5719572311739584
  0.5794135025118841  0.2133919207527682 -0.0196901993318318
  0.7996707821407933  1.0020185486649240  0.6673434241375381
  1.0182709876036551  0.9845547770090317  0.8535271007830006
 -0.0123373882958134  0.8117795323496978  0.6661594053254699
  0.3543455603853792  0.8529200568901193  0.5222185130895176
  0.4088286839582713  0.9945081573667434 -0.0175314256170446
  0.4363378766057432  0.2367898052005960  0.5280765106107203
  0.2743876106336036  0.0224760632904892  0.9080001304034868
  0.5028066762954340  0.2008771720422758  0.4832310989696778
  0.4999221037344159  0.1726625096652689  0.9444920041281003
  0.0992946947942902  0.9573871621909591  0.5781120267346812
  0.5389856362875521  0.0488283976694956  0.5556660899933353
  0.5109743127556723  0.2523907984093535 -0.0033628846450978
  0.2337374388861695  0.8359660943128262  1.0179140083677807
  0.1391071183118947  0.7397094130758983  0.7728188519932020
  0.4352702321496915  0.8024707864298177  0.6386327346720502
  0.2252030456017919  0.7614565323120908  0.6328002873012790
  0.0906489566535454  0.5993075860210783  0.6923211991193007
  0.0221155549479799  0.6068694324845690  0.7102209047245763
  0.0334824022975903  0.5891881152600710  0.7779541173098858
  0.6840221259600728  0.7954951590990260  0.2719411878370780
  0.3464969061166968  0.7060661775158015  1.0173783687603617
  0.4309717517350882  0.7170014474215534  0.8208784342963210
  0.6077736562003777  0.8960088878631890  0.9556828671646671
  0.3715661640114085  0.9579729146948035  0.9728217392430999
  0.4697480679075459  0.7682224196382353  0.8248327657489305
  0.3701407746717242  0.7240336386834745  0.7989080110178384
  0.3981757867891320  0.7866650710595198  0.7412496179567609
  0.6651590191873952  0.9862358972894022  0.2462295150934917
  0.7879042150753383  0.6146122596974408  0.4779532067055696
  0.7785844555732894  0.6530093826981322  0.4028169318074256
  0.3369289135902778  0.7595385811353744  0.6154014134388525
  0.2798512490091546  0.7455038467699618  0.9819934804719678
  0.3855283621941440  0.7973346155057693  0.6795246034887488
  0.3364958646732851  0.7623016657569360  1.0009276798541558
  0.9836190146220419  0.6079905964640787  0.9716295268991451
  0.4977798597319681  0.8295964746598271  0.7632238547650841
  0.9875270432000647  0.6290418395694730  0.3657754029680763
  0.3204181661439423  0.7553900390267797  0.9396029610055628
  0.9754544972586402  0.5058708948334550  0.4026262098759800
  0.5320495694479056  0.8601764953026215  0.3171721587509838
  0.2121740393058398  0.8283148517395276  0.3353193099296176
  0.1423967770410918  0.6054065113456530  0.9097661050247714
  0.9601971289721093  0.9159593272833846  0.4526634871212924
  0.9455193206561395  0.8231703109759330  0.1196599256661932
  0.3688445434326850  0.5578033485841383  0.5712314464392990
  0.8275642816906182  0.5580512928980719  0.7270652236015901
  0.8766213385743490  0.0209476656775307  0.9569321658595183
  0.3949184245592890  0.4564142053247252  0.2752143114347599
  0.5498903320422792  0.0400351756808816  0.5077389602518521
  0.4592155711102257  0.8130687373673029  0.8684214777758197
  0.8408161728279958  0.7936475025994418  0.2125962348876080
  0.5485403828871902  0.8684607771836715  0.8293078044292009
  0.3092887884490991  0.7647588239092186  0.8808097169420311
  0.5689895767965695  0.8126589368546110  0.8476512660064128
  0.3112291423737291  0.8103056445115292  0.9826107249700291
  0.4364403071911481  0.8358514202280412  0.7425897482486908
  0.6952690574086913  0.7840804329985173  0.5618614430294392
  0.8245293458343742  0.5794946980326867  0.3841977346817726
  0.9514125756512611  0.2577137482224310  0.8723953191659340
  0.0180437811017367  0.9802656702201170  0.3400658670047413
  0.6801043990577511  0.3261248516422081  0.6037257444821796
  0.3392223319931861  0.6997451252563814  0.9611118245672232
  0.3467196592819933  0.9985455186211456  0.0644086055185360
  0.4622722913192054  0.6773520718072029  1.0059768641808240
  0.6585701677227994  0.9511842168005055  0.1325490274119995
  0.3936977812237886  0.9810870811449359  0.0310191563855521
  0.8898986109488664  0.2217808543236440  0.0201520101385578
  0.0565902717923087  0.3529872566159372  0.6070565530081047
  0.6336807424694765  0.8594449100646959  0.1239112960877695
  0.3942338473842596  0.9826516182818005  0.8106489134961483
  0.7621735519555231  0.9211003065763832  0.0654081879100444
  0.0958391838958104  0.3999060685970947  0.6169654771086537
  0.8704642286491583  0.3448775867431773  0.0081228988686805
  0.6844241389825618  0.8101838149657196  0.2128987822896806
 -0.0005183654740978  0.8141906563819218  0.6166423281955435
  0.6709976719359939  0.6094463968789843  0.3212305974169314
  0.4103885686569159  0.7060085529106455  0.5947955824510841
  0.2279455487015644  0.8282161707463052  0.8421374931216009
  0.0069454967097313  0.6172105949560612  0.6468831710926313
  0.8355191924834001  0.6854892216352838  0.4127890478027452
  0.4437053041477855  0.6382189945157074  0.6738818068546787
  0.0892560000547907  0.6994516498940631  0.7095265175806820
  0.4982820685183626  0.9154326170416577  0.5777468197011301
  0.7838992803836135  0.0752886698458662  0.7964706918147558
  0.1079057834746324  0.8449248800042709  0.2369763924755981
  0.8396201446248880  0.0792982652420260  0.9567078022792588
  0.6706548443217606  0.0400049274472203  0.7038995700658367
  0.7184078343816825  0.0454706791040406  0.6643743397075155
  0.6509790372459769 -0.0247009914155849  0.5538853678399398
  0.9141196019962106  0.2384273347088444  0.9714753666786318
  0.5096043360326357  0.7229066794888146  0.0117687542763269
  0.3317544750627205  0.6731173521735562  0.7952559658143384
  0.7679357861876537  0.5169775897914087  0.2709177481192194
  0.0411524072828881  0.6426153385347910  0.2099555020787742
  0.0991421915809302  0.7363654908467264  0.2045383469113425
  0.8743228747771181  0.5504986682353975  0.4109676706652139
  0.2289211117612076  0.6302581331925506  0.5086049709473595
  0.9214716162201695  0.4740528243854183  0.3944293125953882
  0.5896916109728005  0.9527122511726654  0.9388880776052886
  0.9727115668707988  0.4583257176136730  0.3612847117499953
  0.4213448116708135  0.1806665175930456  0.3793466385755967
  0.5104410883744150  0.4854014544607130  0.6345359321549507
  0.5980260148640597  0.8733004422004221  0.7871831892807184
  0.2014235074825943  0.6895735113184015  0.1947051411139001
  0.6871349145135952  0.0273420583854083  0.7601790475054124
  0.8834643522943599  0.1430524361769284  0.9271398795409425
  0.6164411607246177  0.0422616395505490  0.0859773418270646
  0.7010610433266439  0.2677238562011245  0.6212868934491403
  0.1525666053972381  0.7506605115391067  0.2794182587446480
  0.6581644329690052  0.0361047883497332  0.5307181117522627
  0.2467640690487911  0.2822586514578150  0.6308868367987104
  0.2202059742432819  0.2538562561329598  0.7930968832606754
  0.4746648977467052  0.9032351830738391  0.2288760758359207
  0.1095478202766028  0.2227640185271551  0.7054827788202579
  0.5314401005606308  0.8741372421171582  0.2568798963838040
  0.2186789256429888  0.2206768776286094  0.6865512324704582
  0.8285180710195780  0.7109430636188714  0.0608711227916922
  0.2047288714231172  0.1773290327938364  0.9097422428848302
  0.0706247708816228  0.1724778404868237  0.7017057288692263
  0.9460510988306747  0.1623822070359544  0.1664485328792389
  0.9505564223803897  0.2076326034812546  0.2123960902834047
  0.0059107824171595  0.0135549647570569  0.7057530567672562
  0.9418461932950414  0.5524452454467974  0.0314359444885560
  0.0499809232209641  0.0639459085515943  0.7131709831383422
  0.8583327834102461  0.9601333019571243  0.4620916036341601
  0.9103395312398191  0.9479664954489744  0.4255718809120318
  0.9561883341321241  0.8571933655014642  0.4622590799736365
  0.1204180057919693  0.9503680592895913  0.5266915079024003
  0.1435418835444554  0.8594560562054506  0.6960636322785918
  0.1823623971828185  0.2363790372187863  0.8929536202651484
  0.2693004982803903  0.2932572491065623  0.8602239456164434
  0.2329554841222610  0.2704105081837769  0.9588888821113531
  0.2306444823948056  0.6994969517948851  0.9792189036623412
  0.4634120143534750  0.8975901016888058  0.6821515411745358
  0.8706167153392724  0.6897537886670106  0.0268800631459036
  0.9727241917595753  0.4242261160286723  0.2589919145465683
  0.8368392254031436  0.7176748897938403  0.2889539682980091
  0.9102810395540804  0.3311984716080084  0.2722703939393099
  0.9587215568033102  0.3006583789809636  0.3010889127816873
  0.9547880309314094  0.2532731633929912  0.2577892397828574
  0.8973259733694632  0.8112723877072924  0.2841308576298811
  0.0989601206881350  0.7789686907042680  0.5815521655217311
  0.5514888164940768  0.9869814813878609  0.7485054068246166
  0.4908497022000001  0.9918853522693832  0.7284142350874842
  0.7213821153739627  0.5941131893209404  0.2878163371182267
  0.1552275490798655  0.1408769636488064  0.8466497459500585
  0.0233603931006406  1.0315204368112711  0.8732695218085096
 -0.0251955420639193  0.0439097624464374  0.5872946771999852
  0.0504525583224653  0.8214786251418849  0.5791206961202791
  0.9881359268965867  0.8614165961795228  0.6667682087850773
 -0.0016530806552933  0.8121858724156598  0.7165015341336368
  0.3178657378151994  0.3310163180321560  0.9292084624771632
  0.0209125435869643  0.5182047000992372  0.8580947249180920
  0.7707101263818210  0.4970958872758062  0.1067909629567591
  0.8680151966141737  0.4219689514453260  0.2240642344032718
  0.1163779211501444  0.9016954152747622  0.4563483005195018
  0.7848570296328830  0.7777000148295807  0.1405081892108479
  0.2791977486570268  0.5321368348366163  0.7111522192826597
  0.8980389867958073  0.8045510415558231  0.5126842707760201
  0.2477015276598682  0.6027460236781421  0.6309160081953086
  0.6656436774660931  0.1035187663644999  0.5161573273217344
  0.7488792160806449  0.8872884281966932  0.4993831834649735
  0.1471928449527672  0.5263202540379466  0.5066429390843123
  0.3290672139487697  0.8713547223200171  0.8689779587924739
  0.5464660204863594  0.8425282439202890  0.0575702221508153
  0.0635069267652431  0.6366483136643011  0.7559414260950293
  0.8405971237772927  0.7249829163432354  0.4584080680348775
  0.1154872519480016  0.6609904849157090  0.6382803392850538
  0.1050029701991786  0.7001217014307757  0.4998985435818896
  0.4956612173248177  0.8748304653988976  0.0370652861491091
  0.4383094253474597  0.8712543766158706  0.1333320211167228
  0.3601246048824314  0.5010210015455987  0.8560681021255038
  0.4405510752929875  0.8870110902692797  0.0747160031968997
  0.3773598355471681  0.5771129572544560  0.7374182078040522
  0.2960997691385658  0.9390330551961100  0.7859035360986132
  0.2408493307440530  0.5146571516969044  0.8124007717247135
  0.7936283960125513  0.8016626249092746  0.4855376124978170
  0.9786178821666507  0.5539685578890420  0.4462669735533672
  0.6351164040319355  0.2248171763294430  0.2662899510009993
  0.7329316979898570  0.0087691128648224  0.8665418893280505
  0.7422407494367446  0.0236491285567898  0.7877315683725191
  0.0602989133061670  0.2497210575488193  0.8517609127561203
  0.3362766614010069  0.3480384216814636  0.1228107145039269
  0.9161923262157867  0.3609720984662854  0.9037836980188252
  0.0792789151817544  0.4081708599845563  0.5634235356937042
  0.8526086801470344  0.2167597776603823  0.8480565181871411
  0.2949528642217426  0.4371901366758681  0.0739177487863409
  0.7521556880997256  0.1060887698915756  0.5993406662403944
  0.3455616842725574  0.4539268775650771  0.1425963428478900
  0.7998874374231756  0.1451791508238569  0.6761080622546131
  0.2458442362805209  0.5492065430749922  0.1934233485013335
  0.8639781875976071  0.1733656863180615  0.8041759042045035
  0.2478053935634904  0.5643473719896966  0.1349339388401005
  0.7908745317509110  0.1905749310785761  0.7216152790163188
  0.6328742267877816  0.6726697166353359  0.0106855655872315
  0.8413873121088802  0.2288330723981906  0.7876405068471153
  0.5786898014497807  0.8329497474443156  0.1139019918386756
  0.7862594609877500  0.7139447091187509  0.3879951503193994
  0.8278496906714183  0.5768581264428516  0.1577317981436063
  0.7898303764444667  0.8230323133494599  0.1856407352687636
  0.7916688306054842  0.8087985092484157  0.2465124711331474
  0.3590327670682795  0.0726679346642111  0.9876042750081837
  0.8529904226162992  0.8985530690372049  0.4783466396003601
  0.4378029888875737  0.9559503452438848 -0.0020816404177130
  0.3790698574722015  0.9101754797587627  0.9318696446685674
  0.4195798515628889  0.9632987144157064  0.9381633328006814
  0.9799784921058905  0.4655636635563568  0.0742490726282196
  0.2945594915587263  0.9746516894949205  0.8927063087686788
  0.8893468759420897  0.5499947972375603  0.7492638464496431
  0.7818371852763188  0.0492768163948172  0.9526249987154559
  0.6778029295414700  0.7034768077853457  0.1821712796781803
  0.8428168877854247  0.1500736783210566  0.4213798592054278
  0.7571864709022844  0.2924696440563845  0.7491651691314639
  0.6855951738308130  0.3445443059945137  0.7729722635649693
  0.2280022099429291  0.9637327483488670  0.4770581309129290
  0.6366266362975485  0.3066069009582074  0.7038365283396578
  0.5897045185620979  0.2703095522736205  0.6379392865176192
  0.8694676586478629  0.0719668747484496  0.4875299755141468
  0.6278615991359475  0.3197820468996715  0.6411946138623217
  0.5810302800810285  0.2820555851133041  0.5767574640683425
  0.5639196323007307  0.5714111057926240  0.4679766967657191
  0.8620207264439395  0.6254372180833156  0.9265297015596461
  0.6105126899055366  0.4900156912415138  0.5014034138393091
  1.0115745838641561  0.4527612150803973  0.9768766536447775
  0.8568668362375598  0.5218598818373856  0.9085521183602666
  0.8537280549918974  0.1379535157944770  0.4797736190427815
  0.7503716960520460  0.3644074967637225  0.4345479289025990
  0.9267429102331137  0.6830828698300008  0.6055161228807145
  0.9519871407390454  0.7767385572582183  0.6516958126284739
  0.7387211332388033  0.4348852573761066  0.5608289847162877
  0.6534103117038184  0.3912729124146550  0.5062334463303468
  0.9919262467176759  0.7255785570084713  0.8965878593293710
  0.9517051602136719  0.6766042282722033  0.8927228295533636
  0.4600967951651894  0.6269423181974898  0.4158276112233775
  0.5090384732235540  0.5941262519096475  0.4421914103241989
  0.5058738872332694  0.5503815467290119  0.3966938745689211
  0.5512160371295721  0.5079322625936664  0.4834516714201114
  0.8447585028695149  0.6143333049158269  0.7001981875128581
  0.2728240268341580  0.8874841203196807  0.4572906694082963
  0.8186091416913676  0.5714862346521196  0.6674652898608119
  0.5929977809538685  0.3831087198668563  0.4292095290478861
  0.6375254242042636  0.2561481272190561  0.3723679535351697
  0.9308163848946707  0.7012183512264474  0.7711440981982555
  0.6840933325051750  0.1794651781185734  0.3550961570791085
  0.8738195646707501  0.6759590860180174  0.6454121668987808
  0.8364859206306053  0.6292351063662602  0.6372156931314723
  0.8296755932005263  0.0594822958662911  0.3390508064706594
  0.7802347988935613  0.0898370914605366  0.3086385095623617
  0.7311623526134524  0.1058212262132385  0.3410452968810196
  0.6063711695992388  0.4922965160975823  0.4455000766272759
  0.6873026318998140  0.3184866905986907  0.4883531022506670
  0.7412858204890954  0.2561302234377211  0.4117139189013572
  0.7976315854783806  0.1680363910385484  0.4535833721393730
  0.3531315805470381  0.5956078971004227  0.2742979661241255
  0.0662127582620347  0.4026419809899826  0.8875308528261182
  0.4002041388604830  0.5191425667151581  0.2569786658263820
  0.7844950873514993  0.3873725914120659  0.7992700530403252
  0.3516186920973181  0.5803978529952598  0.3349120314621753
  0.8566588100719497  0.3353807389530641  0.7758697713936408
  0.8195667298092961  0.2535051559387882  0.6654796017223792
  0.6240919781185724  0.7366648525085059  0.1555123181475680
  0.6292490354530337  0.8004544255855345  0.1397225547412897
  0.8545846509651925  0.3681206414238840  0.8817378675106489
  0.7579072978524403  0.2611909091092077  0.6425189675515440
  0.6536198296606315  0.2282741169327826  0.5532523657818914
  0.6702183985547804  0.1730535737431577  0.5697165898157442
  0.4444525364748172  0.4263772264826530  0.3024121414176050
  0.4921492158363203  0.3631459854420136  0.2243202059427512
  1.0001245762578266  0.4691609313934160  0.9105612296768079
  0.9825022721016923  0.4711928006843157  0.8489975105352567
  0.9671635328052979  0.5184879289969391  0.8928341490006388
  0.5365601219547613  0.2855481602244477  0.2112413454956397
  0.7319019869116781  0.1965355543063579  0.6993714193023082
  0.6012676293185883  0.2253059923752403  0.5927490814372810
  0.9534731822264184  0.4107968177921033  0.9057326610527277
  0.3047092878565360  0.6563597878803579  0.3536154485240132
  0.9639750968777301  0.3986562967537888  0.9717877005615443
  0.7743816672675630  0.4000880705183860  0.7387388660229273
  0.7885743063494961  0.1824628099135523  0.3941216682593620
  0.7264123514905052  0.3625247001306799  0.6689906480381808
  0.6668931343096040  0.3688194028779821  0.6446537506375007
  0.7239059818138599  0.4377856692673979  0.5016873473325191
  0.1976881032135849  0.3210860722578582  0.0258448156992920
  0.1408321435677707  0.2132596736253656  0.9924136840965612
  0.9173064770991597  0.0101146519317069  0.4109838870827994
  0.9350042469685663  0.5707972790924550  0.9056481645264801
  0.3228790616942415  0.8499724304816347  0.4774953261195568
  0.8983564938617355  0.5378467432725599  0.8090197811703558
  0.2689375545649078  0.8169778856019323  0.4765755342193219
  0.3104612701176540  0.7184731392353261  0.3389378233543259
  0.8832903805151683  0.4301324911783404  0.8237555242136672
  0.6713825143422693  0.2037450616149984  0.6785927792600227
  0.2648810165966725  0.7950760216222839  0.3630020015320206
  0.6306596839365384  0.1539187684840892  0.6710561399712103
  0.5788547678531348  0.1173936727780855  0.6033377523469086
  0.2098593251403701  0.7672753775026567  0.3499392366783362
  0.6105551758976212  0.0705482435975204  0.5196208972304310
  0.5603127188470217  0.0929065408282179  0.5462401605349008
  0.6653065546309715  0.4997595703725958  0.5204390122985015
  0.7517091653977578  0.2735813590918719  0.5799501254791876
  0.6917068740833781  0.4316589903629526  0.5987054065983826
  0.7902113856865366  0.5078008185226539  0.7244358972406707
  0.9897401800389651  0.3065213344266369  0.8788328047626545
  0.3780151716577129  0.2726199295020472  0.1060850970347392
  0.8856472193720379  0.3970556555558880  0.7194979459235646
  0.9329376652070296  0.3842392314659089  0.5121127621235176
  0.2416137252075281  0.4677293635934963  0.0459699416329529
  0.8701476316175202 -0.0404240370804579  0.9767223020148151
  0.7261962203741401  0.6397626369321785  0.1028430877179916
  0.9819023917235566  0.1837887812376429  0.9483390017004112
  0.9461208271859387  0.1303699344530462  0.9564265082606165
  0.7933255451022155  0.1027811299326208  0.9101889258495433
  0.9964777980094411  0.1362632959445994  0.9143074744221927
  0.8996580420824783  0.0554811587820577  0.8410993059712973
  0.8487364065622560  0.0582671205250701  0.8972369917964290
  0.3647263867291459  0.1825758187126975  0.0153554797842971
  0.4130136952908323  0.1083678761545697 -0.0070460844540735
  0.4588078994110941  0.0692876093335947  0.0205513616453995
  0.9940851734487374  0.7207900276940429  0.2294236212175695
  0.8456631802162170  0.9768218423070121  0.7359359065631293
  0.0147576098364881  0.8408468510356546  0.1116295620926593
  0.0233193398001483  0.2014632426960436  0.8484437940756262
  0.3617022984328559  0.2520379411604750  0.0029850500781285
  0.0219919656552502  0.1680396902942141  0.7434981459627120
  0.1741476952866644  0.6963305102249515  0.9578415304759226
  0.5319582117284556  0.2406857517002931  0.1698454121348440
  0.9807489548080482  0.4868570650207996  0.0149423607064276
  0.0674129152628898  0.9495887846455718  0.3654206413502518
  0.9618669022646102  0.4961510913701844  0.7287106632344713
  0.9234681673942188  0.4464461457929010  0.7234788677663012
  0.1120079933383746  0.8728682497601116  0.3460952960021817
  0.8749449606773916  0.4102530371565624  0.6582542779842856
  0.7645485647131655  0.4103045470630087  0.6785033710447197
  0.8635589672833285  0.4233149544675404  0.5998362367203218
  0.7690983276158175  0.3810846760752452  0.5609839477384030
  0.8649587719123195  0.4099137127583036  0.2846242258587522
  0.9394992929408527  0.7768259332258999  0.0793870251178677
  0.9296158426148313  0.5671408644846099  0.6500399516193153
  0.3042866538571615  0.6435700992717338  0.1868931030239751
  0.8827016746352420  0.4091039422109117  0.4979839218255060
  0.9683653938928979  0.5982476191528705  0.7470464175899739
  0.9212021597543573  0.5807087550561590  0.5911171807013804
  0.3919036734075145  0.4103076840755226  0.2341477712275747
  0.9715017106328681  0.5864196763310375  0.5497553936326235
  0.4398942634441445  0.3466191213776204  0.1561825791166853
  0.0020819055397496  0.7051134476836141  0.5176157167267524
  0.2011257839733286  0.6736026667327040  0.2564997180342023
  0.9332639382834851  0.1167946830207469  0.7815131877518736
  0.8615063950542627  0.1374377412897139  0.6986596821170966
  0.8807052685187370  0.0825355241342128  0.7165402288731414
  0.8961188213713321  0.3851901621011358  0.7799094284089465
  0.9792762668605204  0.2848786392563870  0.7115833579072600
  0.8678933725668355  0.2893973405826741  0.7309525241301276
  0.5542664770357644  0.9515853113042481  0.0948386518294514
  0.9183613528926131  0.2623993960216133  0.5838779398417654
  0.8575223405367340  0.3021534956616920  0.6704254239835022
  0.9284902451221565  0.2489172178938196  0.6452652391417587
  0.9215415470177047  0.4604738506643474  0.4530036893063608
  0.8167318765623328  0.2195494591040566  0.5600532327479709
  0.0064568995905492  0.3797651582799574  0.7583569469699863
  0.7573412306230570  0.2302647823477047  0.5373994381352659
  0.0455101426782493  0.7205010725361864  0.1339837042223896
  0.9465682245442099  0.3564774001880117  0.6345055554849621
  0.1486467631444402  0.6753428695893140  0.1231819315189733
  0.9885307720071164  0.3706254006519695  0.5235646324005796
  0.8414243881953495  0.3298383807255292  0.5477561942252444
  0.8542115969451636  0.2484059246653370  0.5092780765377047
  0.6315356497865222  0.1933856244265851  0.1610044125045104
  0.9726331978116624  0.4838031863810900  0.7885184003430362
  0.5379288493836922  0.3525119030874840  0.4233931458537131
  0.9334539662383337  0.4335512702137822  0.7833162003079485
  0.0265312496486828  0.3547763646969703  0.8806548990108097
  0.7147549955630792  0.1418433102326718  0.5356469974680881
  0.5158186049741609  0.0874856877661198  0.0958100873859267
  0.1479326868644542  0.4891204640305835  0.9500418439935188
  0.7640505897118797  0.0515668889041113  0.5647128624933183
  0.1897009317956689  0.4375177372497943  0.0365432153782470
  0.2439077881554685  0.3604519530797624  0.0157641402811551
  0.9528281738224740  0.2248351377795968  0.7677607849270800
  0.6637898664372383  0.1629094182163345  0.5075272844134990
  0.7114378470677827  0.1477816799787172  0.4694918137956656
  0.8617535758348032  0.1045209975311531  0.5936565476362620
  0.8196999839205569  0.0886066866770231  0.5089755200568353
  0.1879004403037303  0.4227298500810459  0.0988008207272544
  0.2450252669410299  0.6935402509595627  0.0424334595294535
  0.4762594459963537  0.2237490422003666  0.0986683238708825
  0.9746652481286631  0.4214150932978519  0.5604007862050266
  0.8795744045768533  0.2780132476057892  0.7912888528624974
  0.5175837613826200  0.1323346768331444  0.9714262635332142
  0.8293473172789988  0.2405889138802556  0.7263555186286008
  0.5213695838532326  0.1458998350777253  0.0808969727583546
  0.7700657332741144  0.2151784195512294  0.5983472764943534
  0.4708479675595669  0.1635334322021018  0.1148163175667426
  0.7412527687514415  0.1508681019849233  0.6554757511620762
  0.5664655465409827  0.0739778818807248  0.0592202602532394
  0.7917589085752575  0.4758790941470003  0.6219896803494761
  0.8736201765259818  0.5187956860662999  0.3072172521720892
  0.5482827462759103  0.9763707845051416  0.5151072052977553
  0.5647011986822124  0.9747958439753760  0.8133460636477821
  0.8830586778939363  0.7455952199296561  0.0702636106111478
  0.8912944686931155  0.1491354483156487  0.0954829273049371
  0.1967101778474871  0.9285953200492424  0.8667761569674973
  0.3111933988373237  0.5109550662006982  0.5092792284328869
  0.8749127435380295  0.0004816296531356  0.0218468535595347
  0.9466667347839911  0.1790830881990847  0.1043083801154194
  0.4378245145823239  0.8274756307893193  0.0868308326533625
  0.1103155476272141  0.8726415336561590  0.9045984256312746
  0.4172995636934830  0.7861634554292212  0.1289633148495791
  0.0563987304130532  0.4158467579218483  0.8263304843605755
  0.5618320952097252  0.8881433324702123  0.0017641449629585
  0.9088645231555429  0.8812147770567348  0.1937466246781979
  0.8004985969509303  0.7591050582709816  0.0389233071414761
  0.9394157549359723  0.7022050106275355  0.1582146008679891
  0.0753415980857244  0.8454937883188430  1.0121757180388311
  0.7861411195152251  0.3563391304011115  0.6915205491167075
  0.3925408161383386  0.3793673523205236  0.1296369912372572
  0.9874384498933522  0.6112342050055420  0.2018176783289992
  0.8541530169288798  0.3149570677110130  0.2012367899054819
  0.8908175389476962  0.5181095633818007  0.6459817513297015
  0.7600336439172659  0.6477403574899397  0.5582949782225850
  0.2189388886854414  0.8582103487089391  0.4466194204417075
  0.7216792558848152  0.0287954116995225  0.1874130987746577
  0.7018941557640586  0.0494185197230359  0.9421830603118476
  0.6198759807803585  0.0692189765038387  0.1940025850527349
  0.4662965761478806  0.7249365450803985  0.0490154225769876
  0.8792102001550831  0.5952889321095157  0.4542291569126806
  0.2108636725463976  0.6542866362593338  0.6403614638607660
  0.8841973734249907  0.6209947292358118  0.1055522712772755
  0.3803710036070925  0.7114369915281827  0.8590401675206766
  0.9334178905829333  0.5935163376165786  0.1324388950481679
  0.0613843363854072  0.6513764068595551  0.6758532991951267
  0.0665389187921100  0.7221528584544472  0.5870996163087312
  0.9957866647321922  0.1494020567295871  0.1307502525020324
  0.4530588358606363  0.6590968336375472  0.8392314327663829
  0.4479828836641437  0.8976736542895064  0.0142816943975770
 -0.0147016025477806  0.0819217488704526  0.9686427185240536
  0.7302322453735043  0.7020736837410841  0.3148652331328560
  0.5760620880081972  0.9648377843546744  0.8738484474589749
  0.6117113494505190  0.9981784741396467  0.0415930035059280
  0.9559602817611600  0.2690260760205744  0.1959926339646582
  0.0729957127440053  0.9172256423284794  0.5597777862536131
  0.7236884750733598  0.7852579875368444  0.0100581985705996
  0.0543714170809977  0.0961274768696370  0.8203755426660835
  0.1875313495947351  0.6104456448409676  0.6075570038238545
  0.4243775457893815  0.9174604052263358  0.2621148867327476
  0.8057746655805702  0.3313816127021890  0.2336092668976207
  0.0229022118183270  0.9195765222560474  0.5982078330551681
  0.0943911937997359  0.1461049085625265  0.8263386077797874
  0.9128749056193379  0.3459042946796543  0.2111824318300590