C  Cr Ni
 1.0000000000000000
    38.7210597765861735    0.0000000000000000    0.0000000000000000
     0.0000000000000000   38.7210597765861735    0.0000000000000000
     0.0000000000000000    0.0000000000000000   38.7210597765861735
 C   Cr  Ni 
  50 1596 3725
Direct
  0.1747407200698989  0.6369743477056433  0.1143103530070459
  0.0667626149143103  0.7919341487127690  0.5051272538144039
  0.3895498532772487  0.7137644650789142  0.3369415046114303
  0.2727071732807476  0.6661457783108035  0.6230558549110341
  1.0150689070967698  0.6399284036379668  0.1750748297628016
  0.6886086211927205  0.5416720965483511  0.4385982265501451
  0.7211079515171068  0.6274775505926908  0.5391312835960764
  0.6598265732070056  0.2030283482169813  0.1952709954748248
  0.6071877404203971  0.5458510779142234  0.4837259220844471
  0.3725883885972334  1.0654817301205273  0.4854388958291819
  0.7959452324144456  0.5737731894028401  0.3529277525585132
  0.4817963690553088  0.5600242978756623  0.3008605885154945
  0.8393978991825386  0.0286008960273000  0.9202748128114508
  1.0244115057933458  0.0496383548817409  0.8551509607514469
  0.9959641903400758  0.7355264362478080  0.7005751098530133
 -0.0083639050762725  0.4329540676057765  0.6044481000942845
  0.1302402485301217  0.7799188710964281  0.1203596188798095
  0.4566575114182463  0.3753364963901185  0.5355335406630259
  0.2281048416825125  0.0518648376861419  0.2176963254161517
  0.4901754791943045  0.2851880694327195  0.9734439311942362
  0.3607772250159294  0.8051964945070076  0.1170666445055992
  0.1861364682771659  0.0762246048205527  0.7283965946189209
  0.5541510478460101  0.2096687995161610 -0.0080529630283366
  0.3906690761298344 -0.0126504910825189  0.9197624785748857
 -0.0678818643485931  0.4158111701427129  0.4718466309276324
  0.8570807202714046  0.6241310167742221  0.2940355430241056
  0.2640859395465679  0.0019972900944665  0.5594740831085526
  1.0314523137381881  0.5621688971011440  0.9561566469802173
 -0.0050760978629780  0.8447238305622455  0.4146785971961691
  0.5859675133783373  0.9284736208817640  0.5568001530999023
  0.1331143049466932  0.3515735956522381  0.4376479043115790
  0.1716850878025745  0.2902900956011065  0.7440758579791603
  0.0641842291464793  0.0986484031681612  0.4979573244456357
  0.4533957182760240  0.0845793360673157  0.4677353414348814
  0.6810623622515002 -0.0205595233069424  0.7311803752206493
  0.0216077651754638  0.2774661321385761  0.8636347411179255
  0.8763233969341344  0.7627558577421838  0.0698821935545597
  0.0055566252854090  0.3646253177109092  0.9661202822348024
  0.6382336299939816  0.5958737104361435  0.7018467514395261
  0.8050929854258544 -0.0069004487985859  0.6691856253522895
  0.4982945231266481  0.1722872920945477  0.3809028223378170
  0.4405784050651318  0.7165423560789043  0.2394524008698322
  0.2697694783091477  0.8838341294107074  0.6473646533347165
  0.7706931629689998  0.5791256710855467  0.4692442884708448
  1.0120631499973223  0.5158343839460379  0.9065080689473961
  0.2286409652104719  0.2471248640794874  0.0065406197025818
  0.7324676657398868  0.8247000270516124  0.5781555251000363
 -0.0209793274255066  0.4332575112447515  0.9433646532967639
  0.5855830521754571  1.0257527266685429  0.4379202568878701
  0.0037788048440305  0.1016638801086032  0.6623636530540613
  0.2763316541723466  0.9509540946373650  0.4397090208935752
  0.8821412343960426  0.0436163973060258  0.2976894250325162
  0.4327601686596587  0.0979962137411754  0.7268912257620442
  0.6395318839409321  0.7008572759092287  0.5611015040201977
  0.4833360856030409  0.1349074047850994  0.7933617310569145
  0.5355173803036292  0.1697842318654302  0.8565341544762569
  0.6550974548175006  0.4441297659158144  0.3124937911714922
  0.8849158039440272  0.0865742963699979  0.3408940330281094
  0.9338636420314443  0.0544860075926957  0.3671588167395584
  0.3243963739243321  0.8719144652534049  0.4159886457408013
  0.6488161141350344  0.3812722700675011  0.3326789166673962
  0.8589077567774073  0.9179518199274702  0.5281568617707491
  0.7063068309517317  0.4430708495406898  0.4416634701547971
  0.5557896014452692  0.3704989568608413  0.6620185693630095
  0.1608687094640397  0.8457941744523788  0.3743058842804275
  0.7399042400097768  0.1989084645975258  0.1965918191848286
  0.4494762944531784  0.1732485305773362  0.6087819275623770
  0.3814041194782238  0.1922103138463037  0.5304887496084183
  0.5931003201919646  0.3134650411191090  0.9131396911131727
  0.9306329735541652  0.0103054458775578  0.3210481382261428
  0.9800296736816528  0.9777512746656583  0.9535404859167117
  0.8295142781335849  0.0473711002382193  0.1626372392608544
  0.3279662375740889  0.2176398124405913  0.6710583850770611
  0.8454068836016250  0.2291057212963510  0.3398161912857068
  0.5426689064014554  0.0948380729701430  0.7068753168561885
  0.7403227385932956  0.7663869347864662  0.7443634785301556
  0.6184440962796151  0.0672435839306478  0.0179389419314895
  0.9196479929749221  0.9857355529355037  0.9276424073527249
  0.5832008157911668  0.1770738425100634  0.8171024778699194
  0.9338813867481908  0.8474173160044818  0.5632637226709319
  0.8493897313236168  0.7701565671276590  0.5021243654125614
  0.9556893620358147  0.9771583001277172  0.6355066495004589
  0.3094979609435705  0.1207026779727907  0.1333336664413002
  0.7200480527310695  0.8234305127459283  0.7257299930272428
  0.2198715163877014  0.9493021105481237  0.3074383329347767
  0.2521782993085409  0.0159934585508463  0.6433214867120522
  0.9106610386761196  0.9344592380695841  0.6496645473814483
  0.6826368873366476  0.4735520607093499  0.6423241635182079
  0.4889304225185838  0.1665977229970200  0.8994926725012434
  0.4472414725699562  0.1161977973285026  0.8958159635539024
  0.4787475129655894  0.0156169909281224  0.8695687973683259
  0.6935938906787150  0.3046705270599747  0.3184889121310345
  0.3943561308894082  0.0803321064181561  0.8298912257867812
  0.4172195094658779  0.0224482936384201  0.8486588890590180
  0.8416062026211641  0.1828258410581876  0.2948456530725701
  0.5224324756627866  0.2126212689311562  0.8974911685512384
  0.5730534687275058  0.1636706904272419  0.9801344916509964
  0.9934442879509940  0.0868713214587786  0.3768963663886990
  0.3899561984580417  0.2432973420388794  0.7977948181227029
  0.6647199541080077  0.2835675328774696 -0.0087987312240587
  0.4969569536426547  0.2733485108736928  0.8813709459812933
  0.5599544491356734  0.4434238420630058  0.0474877312656511
  0.5203264287683637  0.3654742741092405  0.9371703616795213
  0.5077864449053267  0.4594764621850285  0.0838437356593534
  0.1434028758006135  0.0466174157347651  0.5243968699084289
  0.5597415003883207  0.4896744391350085  0.0921261012604717
  0.6298359021346989  0.4994324127997783  0.7824191314289451
  0.4576450597697903  0.5364202095274712  0.1015808929905656
  0.4587890088415638  0.5828545349164177  0.1421996839921992
  0.3566325713937552  0.2822651099162820  0.6125631988511696
  0.4617697080530888  0.5993702176747230  0.0827960476266249
  0.3160322692759498  0.8036540527141769  0.0940388640577393
  0.7146904912231169  0.4483649609790253  0.9875074168385961
  0.2462290278016138  0.0309181009059321  0.8485492204000006
  0.5898442230763085  0.7195152800267129  0.7628542125574298
  0.4025469224780439  0.1211782478360257  0.9340288426363385
  0.5684278516224109  0.3292134090119754  0.0272686544787296
  0.7034059398006537  0.5804230774372010  0.8842130094352447
  0.6441195625969884  0.5877222380642845  0.8645252260744597
  0.2213241388986765  0.7399508368113651  0.0194292695306885
  0.9923312509273278  0.1009811901728842  0.7985665787513008
  0.2690157752578866  0.9170222129507458  0.3330996079477095
  0.2160259971973494  0.8889791816771594  0.3226136708424265
  0.7127391327587562  0.4334716123565408  0.8230958795096101
  0.6165982104090604  0.3621306379197745  0.6860695149760491
  0.8984429690797664  0.9660870842530356  0.5298253867913426
  0.2686772317972373  0.8568065797253331  0.3489907419173572
  0.5076165490271092  0.3340307838115160  0.5963573261056143
  0.5669236133070105  0.3261436584606826  0.6177869038113768
  0.3149835397122784  0.7972678637703561  0.2630032217639994
  0.3654285500824021  0.7683906256467221  0.2873730177415989
  0.5099740940179809  0.1981175977283653  0.7346023333342159
  0.3648244924692011  0.7545678278771141  0.3493261225407999
  0.6159547244430291  0.6135451474992664  0.4167254594765797
  0.3712126981189666  0.7966634363556322  0.3946847461151988
  0.8293141548367789  0.9675671249254018  0.5419387063932402
  0.3198144035568737  0.8271515221800836  0.3710124469778726
  0.5715959976163941  0.2203914132659558  0.8605637794376525
  0.4256104978533866  0.2325410811026034  0.5882923407991747
  0.8968644685268939  0.2408810014010462  0.4169215570900850
  0.5267180296401583  0.7625096374160111  0.4574631384357976
  0.8091018542425257  0.7819057241530285  0.9288556671017624
  0.8742286222985947  0.7810281836555109  0.9583912323643969
  0.4773989564925730  0.7835827179038655  0.4891499467447734
  0.4358936405407576  0.9160929398182837  0.4969289276605500
  0.4002877657681084  0.1999116729406679  0.7541394475015930
  0.7330682952486944  0.7158621328648485  0.4811974124306548
  0.6416968230248993  0.1380620628100190  0.7306081212034465
  0.8764053365223928  0.8453705695905112  0.6075627100425338
  0.4002326141175311  0.4366028915967120  0.1081829359128704
  0.6927998047629481  0.2046590050917800  0.9045473899202360
  0.6666465347865013  0.1395333412650437  0.9597340909463190
  0.4033828812080557  0.5021225147861210  0.0933417339236005
  0.5270471369461782  0.0203584199623646  0.8300362148309720
  0.5896029834587191  0.0140272733608853  0.8521515778156996
  0.5399264218196201  0.0089013552413199  0.8931513443058606
  0.5294393828635272  0.0550617138175989  0.9363746186861301
  0.6279617213590692  0.0603203758330160  0.8518004975130565
  0.7533630015293395  0.3810002462855612  0.3690260273467367
  0.7790680907735529  0.8165092802733850  0.7472032189291038
  0.8419863543512046  0.9654946782801498  0.6479104582931515
  0.3334966276012996  0.9787202143467609  0.4569933033628849
  0.8991048423050734  0.9653080741005103  0.7547683756839425
  0.4740762379230515  0.7367861912437299  0.4412958479202936
  0.6386438413840241  0.7592676092073907  0.5500065427022784
  0.7747896577697855  0.7998426888034524  0.5730701929277643
  0.4767202541047627  0.7977732736593871  0.4277251873312484
  0.7640421030826127  0.8431644073489839  0.6201999358602694
  0.3805301719329033  0.8860063511148919  0.4853987934766016
  0.8096192636022389  0.8813825693943330  0.6883853462613291
  0.3984484198084658  0.3875836106943035  0.0611195340517152
  0.3247167761172408  0.9150626219634294  0.4568458952261317
  0.4820091217068408  0.0025087020238893  0.6653242097825561
  0.4462669611600760  0.3670663019570121  0.0956900005336143
  0.3545526399898975  0.0454157118592526  0.1151598056850574
  0.2655179501895874  0.2322214644137461  0.0353265403033909
  0.0335611392281910  0.4876061581312747  0.1415230412896951
  0.0807491031847318  0.4070497637819497  0.1266783505478084
  0.2493196542500634  0.2938486021689685  0.0168020881859302
  0.0251478248366775  0.3791846138928129  0.1206257143687644
  0.2248068747753861  0.3179024442663951  0.2112198701111923
  0.1327987970808462  0.3451331106885016  0.0472993368021952
  0.3013268561736597  0.1227449297814842  0.6208737210062618
  0.4146364928455884  0.0827833120209382  0.5607086662090798
  0.2912146749858860  0.1354831871892609  0.5632759923954471
  0.5050768285654370  0.0772025755014467  0.8106944351403372
  0.5292213339718703  0.5556780584750498  0.5187244482959189
  0.7827743849074336  0.7087672213404018  0.9900174571448506
  0.5179095152761585  0.2919643724700363  0.5559836810373511
  0.4155434780533758  0.2431257422081422  0.5246663469140678
  0.4207092982141507  0.0086417351544734  0.6423966279358757
  0.5039449857308976  0.0456273612888366  0.7037834041615693
  0.4766161894889258  0.3110189575331091  0.0135257556189743
  0.4346688309599510  0.3235946444045829  0.0583895118330577
  0.5544639776014363  0.0822030705114548  0.7692100541105648
  0.5001112432126901  0.3482934743264087  0.0600486312885019
  0.9209446102607060  0.8923541741989139  0.6101919908869492
  0.8671232209710070  0.9039003796771721  0.8172068114836530
  0.7136781103609641  0.1189411182926763  0.8134580307931222
  0.9664915322268196  0.0251787609446060  0.4798338329905144
  0.6315399217566399  0.1727117060615211  0.0523038359361081
  0.8158618284765166  0.1894096040960699  0.9462218874799897
  0.6747465293769748  0.2469461649478609  0.9462721647369087
  0.4789550857596909  0.2348560888201962  0.5496922971845906
  0.2583252253165966  0.7387931178465916  0.1452715353456807
  0.2109555607380447  0.8191294599200672  0.1661363653584110
  0.2618691190421739  0.8292191164001529  0.2372815695947723
  0.1671091828577570  0.9384265359491399  0.2353817742340240
  0.0599339637217693  0.9239730224784767  0.2581876025841293
  0.7716457424293834  0.0187989498235245  0.1521661968918506
  0.0967534266618732  0.6630781543013919  0.0529480404674141
  0.2606927740006191  0.5813364122889185  0.0136852835326895
  0.6958116535101703  0.3273355463363502  0.8321786059841552
  0.6695863831471806  0.2325676357450174  0.7810614442263746
  0.9717055821897204  0.9187580678939208  0.5743958001697637
  1.0010771078378218  0.9812988492471167  0.5879250715729296
  0.9329106646388832  0.9577681937604582  0.5856115034672866
  0.4966772953169035 -0.0312622714121845  0.5620066744446999
  0.5308524081584014  0.0070194273051143  0.6207479642842537
  0.5516061103287708  0.0502435005944457  0.6622374484301339
  0.6893421745625715  0.2125093722682959  0.2330072105131364
  0.6515071575436067  0.0922110150740792  0.6852018608803974
  0.7127040570613763  0.5662080799571825  0.9452693512131326
  0.6919637215330315  0.1744003521348661  0.7978806642432615
  0.7648826134173599  0.1554643347914488  0.8811071317245338
  0.5895479643600054  0.3049378235230500  0.2829541620803730
  0.7892920340066156  0.2494631094370580  0.9300211640400664
  0.0485635805120532  0.2093704009838866  0.0189964992194151
  0.2596288077589979  0.1508273514233875  0.1061369911767177
  0.3656723667200439  0.2393749679292803  0.5640278486178344
  0.3605274924327426  0.6466109419355502  0.0901813378498942
  0.6628727149124296  0.5634680108043364  0.9886835888242674
  0.2907539570110108  0.4563787697107672  0.2419088308619301
  0.0007311027553394  0.2286203610158319  0.0532541801358332
  0.4100315273286460  0.5826440410238631  0.0125018854274103
  0.5788818297870351  0.4933047040142323  0.8228982024994844
  0.5317825994396593  0.4575629133394558  0.7581158034612626
  0.5911133071119901  0.4504231571829279  0.7796448186093815
  0.2776231909112007  0.7247026528566644  0.0472594202631942
  0.4049873623179032  0.5150780027194407  0.0354740300708423
  0.5766673179169440  0.2619584744796382  0.0167150983458797
  0.4482865189565887  0.3387071471333872  0.5739968603794784
  0.1168467688801536  0.9030209449988690  0.0159108108034974
  0.1470215653991120  0.8636568191638497  0.0798269928234308
  0.7361713696457222  0.6715126982993592  0.9865204552761742
  0.6906786024337284  0.6254530040454379  0.9246936051399760
  0.6905302582647432  0.3557741707086566  0.9468208265376588
  0.4112761365091735  0.1235750201721375  0.6056104336591370
  0.7711818809954422  0.6956561172746734  0.8259978133139277
  0.6919872957959974  0.4602397127052723  0.7009209457344221
  0.1353560898805956  0.9572336872596247  0.1869152711019595
  0.8841016565030101  0.8298692893363099  0.6686626734548771
  0.8896562667472024  0.8155096900924667  0.7309209138050154
  0.7172791932080230  0.0026987912726356  0.0779162675422675
  0.6775794503344060  0.0960333206475515  0.0312696853964519
  0.9784905234622017  0.9356688286880134  0.9095446298816668
  0.6933164108173715  0.6683972499905846  0.5330277415922037
  0.8805985729695562  0.6940974263437061  0.8094312541123937
  0.5842109578640933  0.2538772869710333  0.0719419838095852
  0.4956805316389957  0.3813088750062552  0.1640824216837928
  0.9572253873160154  0.7951785088980461  0.8160550259348260
  0.8984137424605257  0.8022314815482114  0.7936197024525046
  0.4488572222997677  0.4116047202866736  0.1375438739834728
  0.9677521536155970  0.7827368156334847  0.8766756836077113
  0.9179964968388394  0.7777290139520247  0.9184229648990381
  0.9997490973002876  0.8772772667498581  0.9240133433511218
  0.6093558494420012  0.5539029286442548  0.4338584804493144
  0.4547736277636961  0.5199409537040994  0.1614586144545654
  0.1601485390997765  0.8547281703166248  0.1396641384503487
  0.2089499136041078  0.8001061473720282  0.2259694348789417
  0.1108977706012935  0.9194230072586018  0.1568374132184784
  0.8571616225758947  0.3827634243637041  0.4072436067047621
  0.7979351748646095  0.7484793572838038  0.5429848279237562
  0.8495475327065481  0.7494275394966308  0.5661101982828503
  0.6906377447595253  0.5922121863371255  0.5594400617164372
  0.7597319513253519  0.4438357990590446  0.3493058150438685
  0.8150818603581078  0.4746622592735125  0.3587255560577541
  0.4015751011882551  0.3829727076678294  0.8914744738061586
  0.7666929739262062  0.5476785758740927  0.3806139822305388
  0.4481402404248342  0.4196937244383501  0.9562550035329689
  0.2263377031929040  0.0205744379101203  0.5902142744481212
  0.0980644839035942  0.0353534169121176  0.5627335748847857
  0.1404058434293627  0.1158695521597136  0.6752913489687384
  0.2012393970251225  0.1113968548658540  0.6971691310015591
  0.5837615905315034  0.7973057020523440  0.4631014224978314
  0.5830311519261731  0.8136292030075041  0.4037780262552788
  0.2412915087988770  0.1942633686286818  0.8101930631085010
  0.3016032591048928  0.1877186749142985  0.8332409174691984
  0.5408670889917948  0.9212412994530100  0.5360559948284862
  0.5878605765224808  0.8588950425590272  0.4518990679214449
  0.9988580168726768  0.1485530157421519  0.3602768773854300
  0.3729097061859817  0.3196320474815723  0.9590349287373727
  0.6117376727680559  0.5370172444570074  0.2661482330245576
  0.7116332534910492  0.4447124768307638  0.2168745815858437
  0.6302712327460045  0.1972986194199308  0.1569456980387954
  0.8039593770273005  0.3670753998865066  0.3362680987997739
  0.1630025327533839  0.8954317575060734  0.1876528361064326
  0.4157162362617045  0.5651818280873185  0.5319966109730274
  0.6932877829507416  0.2742346567228489  0.2145213211821634
  0.5757706226281052  0.3412685078595359  0.7890650991461764
  0.4369714931664764  0.9527988582688507  0.3746424751241273
  0.4305633163778200  0.4450288404079643  0.8364026905426442
  0.4408078567329654  0.4321452811072816  0.8968765670022716
  0.9943873092237457  0.1031956052074029  0.3168829317976873
  0.5522220255137612  0.4577581828098536  0.9857423428875099
  0.9464873208052068  0.1797752107540045  0.3346146696657082
  0.1577739218209997  0.1928937074907008  0.5604282066530257
  0.1707494860496254  0.1801290510129774  0.6175751275986149
  0.9523892932321737  0.2428358921053266  0.3181387921548989
  0.8341771363266693  0.6563405077236912  0.7446725515949889
  0.9411050884267230  0.1030758103405318  0.1841479815204480
  0.5833421701736067  0.5952584386341416  0.8428440480486356
  0.7965818540701066  0.2440973359266007  0.1460220490372605
  0.6778769638374906  0.8054175679680304  0.8281883386945695
  0.8069117423717287  0.3514989328372424  0.1705838511774927
  0.7080387822711804  0.3984574187565145  0.1754043856852297
  0.8165816071139266  0.8653490759369370  0.9823043860572088
  0.3755895914966651  0.5116520586708700  0.5315102225555516
  0.6590983652909354  0.4591951148569585  0.2519120268668143
  0.4798904545105306  0.5539004684514715  0.5556661826629489
  0.5815721905859762  0.1455811679134750  0.7105533383481388
  0.5977567285647524  0.2851749480114260  0.8045488410582299
  0.5786119226885134  0.6293439463545112  0.9450810284003778
  0.3540801276450966  0.6122733979896218  0.2135616487091230
  0.3522623517047340  0.5654951177328555  0.1699680822997604
  0.9551059895239457  0.7093052496184186  0.9989228407803180
  0.5481688372785481  0.3973791255411671  0.2345545534697358
  0.5994264360580397  0.3822381217133506  0.2013516148927560
  0.5395480388027357  0.3946994085974590  0.5321672761946055
  0.5549873439419428  0.4586842747967713  0.2160176647760119
  0.5122238592794951  0.5862008741743141  0.2727489196686952
  0.6546767429009500  0.4103834744399793  0.6961461068951080
  0.4534926211322841  0.5048073766986296  0.2224981048152165
  0.1589340218341093  0.7895012166277376  0.1585671227375630
  0.6423384034333640  0.4545594775877309  0.7411439876312951
  0.4066150776149117  0.6279654471745107  0.2820216838656517
  0.6901510341753662  0.4914769702147395  0.8048406253281751
  0.7489281635861963  0.4836942222292508  0.8255771676290492
  0.3571235642218404  0.6589941345502277  0.2563778553031851
  0.4138781606889819  0.6722730946972919  0.3275142725524708
  0.7617004114035664  0.5729537603268174  0.9047691637829492
  0.8326118043013725  0.5565683454024687  0.9902257042407132
  0.8080228629465526  0.6104516685659339  0.9703696583819941
  0.8758017892203664  0.7273993489556685  0.9165559486926897
  0.6506972274038985  0.5411278359402015  0.5623004065178209
  0.6913082401276871  0.2304858892518676  0.1685859239494353
  0.5626426101353635  0.6297495321487308  0.4553844111052824
  0.9147545046385934  0.4122855921722424  0.4202245471251044
  0.6222174334327227  0.6461337903169611  0.8443217922427760
  0.6121472591258779  0.6623357989541659  0.7838186248932868
  0.9510509525399118  0.3216373876246574  0.4676981451331442
  0.9600397389830581  0.3823264429121342  0.4465366337562403
  0.8837279118163401  0.4105471820280267  0.4965407566215312
  0.9820681924260272  0.4233832885055505  0.4895060285075689
  0.7270180165581011  0.6143176869496280  0.4535855108611579
  0.7977175074550675  0.6206400789947015  0.4850829427250620
  0.6851510759255446  0.9267608406216991  0.7482053669682913
  0.6707700265754805  0.9690030312887558  0.7849526678888762
  0.7328197056363285  0.9614937303513669  0.8126171882580951
  0.5580453836178455  0.5037448905320466  0.0335386905713107
  0.4251880114115806  0.7921523876397206  0.5239459467590966
  0.4867809429537670  0.7776530494054292 -0.0001268555821078
  0.5097736089896283  0.7497049244890958  0.6138293857167501
  0.5482839115783856  0.7985373696953540  0.6216212694953174
  0.3843993940778363  0.7490970930627372  0.0253305555941767
  0.5924659015387976  0.9037291959704541  0.5061717148042792
  0.8216531017469607  0.5696292170392234  0.4481393928945722
  0.6098819851172465  0.4903353828056931  0.2242706814827377
  0.5251647878450336  0.7542411955346497  0.2863975205019784
  0.6648217544662199  0.5212394666918341  0.2331185038828039
  0.5421718575331340  0.9340303566028728  0.4727490677826585
  0.2328730858395870  0.0726176598520987  0.8910186781112350
  0.4820532435671832  0.8255693493067983  0.5360150345540412
  0.3057516644193696  0.0761930128203316  0.0877834312255061
  0.6804371756536087  0.6852431566098243  0.4748323850575335
  0.4222299101907385  0.1099692064995692  0.6651598825401819
  0.4596990565198320  0.1603257694046067  0.6688847493270557
  0.5147231641672142  0.6318530517346589  0.3180861357223412
  0.4654249481933793  0.6749511169505191  0.2295223184833739
  0.5222059775961603  0.1834697077029668  0.7962210281006572
  0.4595314072462455  0.2881266764281930  0.5304051721403266
  0.8661718469588862  0.9350281166550656  0.5939647951258612
  0.8125434228656897  0.8985104169560635  0.6283938961904652
  0.6068631127063067  0.6397419748197467  0.6180147592999546
  0.7656606603278984  0.6772244541659731  0.6615068625098708
  0.5607002839093567  0.5843190727016285  0.4076294993102590
  0.6549417267622842  0.6788624180325965  0.6811797090140609
  0.6635682904854530  0.6657530185125358  0.7421935419642727
  0.7363508395790732  0.6136173630495874  0.7204190851736975
  0.6124890147160291  0.4919402577870722  0.5603543035405392
  0.7205317144693036  0.5244436411485230  0.6441329584942541
  0.2407571131099511  0.9246888235915591  0.1089964650216953
  0.5740084455114027  0.8938869393792158  0.6643707881280996
  0.6339362826271649  0.9188164289921972  0.5670886111032536
  0.6549366055799521  0.9913218679591900  0.4914996357444115
  0.8367316191096077  0.8417859730095637  0.8765278278717532
  0.5929143808894656  0.8743428564979324  0.5625373561654060
  0.5740396682184348  0.6104243536865207  0.7815951827713400
  0.2572539324384565  0.1670136726067415  0.9314029362346385
  0.1676997630830110  0.0113024891256612  0.6373307252104341
  0.3568580243346113  0.2118935171645887  0.9605839988737092
  0.1869293081681596  0.0366750980486524  0.8270274187376846
  0.4711062400713143  0.4329664389698165  0.6298636029354565
  0.6513464798451496  0.7106723572779454  0.7831387827603913
  0.5804618338336641  0.7306268892927205  0.7023216060928186
  0.4065970620519697  0.3202709118269912  0.6784660344599862
  0.2795427719919807  0.2125149472651297  0.7092063222075493
  0.4168277129753569  0.3071366951611677  0.7401312447687660
  0.4767600942623311  0.3008338876315239  0.7605087469515929
  0.2669832502460450  0.8325321805155147  0.0682875316168184
  0.4546378990368246  0.3551065705496774  0.7455091610899404
  0.2130066210369354  0.8373392205415322  0.1062845184800620
  0.5031631612208189  0.3928240406277929  0.8123506271189767
  0.2372616862369883  0.8837055404394446  0.0595732193618380
  0.6096046745980201  0.4212766251019619  0.9011667751025412
  0.5516660427439147  0.4300484494208450  0.8805027806930201
  0.1810648735088911  0.9356224861612557  0.1477549084669627
  0.2146501282407914  0.0987772501317946  0.7643465048602651
  0.1601571064773953  0.0564029375507411  0.6901458071302594
  1.0018116202042906  0.1945972455576065  0.4049701583053418
  0.6604956648033105  0.6979303590025356  0.8430422285010252
  0.2746585408851106  0.1244979603375484  0.8933868215685318
  0.2141885887009091  0.1305147527883415  0.8705518220894262
  0.9017212790932907  0.3033771033316799  0.3986086333423131
  0.1483952717334324  0.1048095593622302  0.7400806711800321
  0.6095621568190980  0.6920047960471273  0.8854595212514653
  0.6686208334697218  0.6846376600629005  0.9036826210086824
  0.5206129388859022  0.6922061800858388  0.3020757415804493
  0.7191011410307511  0.7228668618005627  0.9664714717476621
  0.4225861071120497  0.8007748307896384  0.2962832992350468
  0.2421763433304921  0.0569785490864256  0.9543306496384069
  0.4267451296976986  0.8460601831830222  0.3409550758509256
  0.4025334871975287  0.4852454459559843  0.6525823793948186
  0.4495951122296269  0.5215875494225479  0.7174270396611044
  0.4881709630873425  0.5726581379987640  0.7214686215950975
  1.0331524121308486 -0.0066359237354161  0.1936391606212207
  0.5333998972919562  0.5896728042921739  0.8838407356661825
  0.6290670226806694  0.7685276750884736  0.7645327097055963
  0.9018348829310777  0.2744854395113214  0.2900085707739205
  0.8502271254145995  0.2893042529543653  0.3231501582444244
  0.2249199114868626  0.1164984684500217  0.9348488418343093
  0.3794708473717061  0.8100932049815250  1.0086279204903448
  0.5369889040128384  0.8447952511994098  0.6634816300756509
  0.7709122185301526  0.5342171675608670  0.4422689852209061
  0.2652466139402927  0.7621545137835957  0.0888896750435368
  0.5995696420128108  0.7048677045790936  0.8259603501594001
  0.7506198322576965  0.7535729464430743  0.8071390103373627
  0.5736702949853693  0.6896175962662530  0.4350922218077892
  0.0441275620410550  0.8375619526221121  0.5188420094432562
  0.0172659921540402  0.8930687719843107  0.4919101987426894
  0.6772956567845033  0.5364322113308942  0.8473959982597652
  0.3090759477659085  0.6259913638673598  0.0215763427667719
 -0.0057695803320836  0.2931575575572615  0.0290393499845033
  0.0410103153580862  0.5656335930475522  0.0563231945166575
  0.2171311882274710  0.2422305211979088  0.2933616563435273
  0.1686234380845162  0.3034942299184541  0.3687575274494367
  0.2334167339200152  0.4114438745549635  0.2961124266467782
  0.1212031757972833  0.3790526961368780  0.3886208837942647
  0.4975365585298473  0.4445063096125069  0.3709488709258631
  0.6261745262611694  0.0297276473364355  0.7452796675952568
  0.6530619989016605  0.1253769521990202  0.7924948611107696
  0.6788682059392447  0.0958108226280334  0.9155494540569531
  0.0754299304588701  0.4619003466514465  0.3923621476201603
  0.1369809727129789  0.5346588799144383  0.4499556526927073
  0.1284248422326491  0.4449147912845247  0.3597868671356311
  0.2496059285055306  0.0496130197786835  0.0163235895131083
  0.4594063502749179  0.0455229469964377  0.1468202047434687
  0.4211842547980474  0.1829375679707141  0.1504558592018139
  0.0332899961796655  0.5855521767018640  0.4518595422430833
  0.0915792316762620  0.5807363643949472  0.1314411757205569
  0.3681359072986822  0.1670595433290278  0.3100682531600895
  0.1401263940583423  0.5015802623395732  0.1163602503466554
  0.3115832420184300  0.1704283903309876  0.4159270878443203
  0.6275736018131789  0.5313551790177224  0.8877485342132411
  0.1380245961215106  0.4870874114883815  0.1767233350796702
  0.2828225883074745  0.2999101263558727  0.5298646372883130
  0.1365520602526009  0.4063224561219190  0.0274489684490854
  0.1088930626816508  0.2901601122214720  0.0751632328027836
  0.6677751733443391  0.8182970072854564  0.7682965714854434
  0.1057710962960799  0.1790397668279673  0.2754746944887974
  0.0080335806814745  0.2723878501593132  0.3266608954271924
  0.1491488042667747  0.6573559629201831  0.4168803813992368
  0.2045332719089455  0.2029793242976078  0.0198356435949817
  0.2144927396047624  0.2110347699805026  0.1875942382848562
  0.2639734581559044  0.1971455536636234  0.1539317879107248
  0.0890760405866414  0.5389118870309380  0.0333208735511467
  0.4221097975480386  0.4014651428481780  0.5048548019158259