C  Cr Ni
 1.0000000000000000
    21.1200000000000010    0.0000000000000000    0.0000000000000000
     0.0000000000000000   21.1200000000000010    0.0000000000000000
     0.0000000000000000    0.0000000000000000   21.1200000000000010
 C   Cr  Ni 
  69 259 605
Direct
  0.1657650454416952  0.4996892595991602  0.0783383690069063
  0.7340035803609640  0.6827723686085506  0.1763590901391001
  0.2410227175689587  0.1556366463792841  0.5061790634889701
  0.8144057002047775  0.9387541230568107  0.6610309064410859
  0.7423486534130458  0.5823202966720845  0.0809505110615378
  0.8424919275321786  0.1719446635204089  0.4168543531848469
  0.5840525124439636  0.8366166234137998  0.3273800720202710
  0.3281086163981057  0.7441930619186077  0.3277992946634747
  0.8278048570335329  0.3281498944114238  0.5902673895294349
  0.9193755137734990  0.4186091507559396  0.5890411325830304
  0.5814758670259951  0.6460986652722741  0.3260253107949765
  0.2493353005835129  0.0087551313116259  0.8361134254337801
  0.5726368682210889 -0.0057258046958220  0.5013490071061619
  1.0009681565354369  0.0047620748798789  0.5852371808381236
  0.2500764044512415  0.8274636932065815  0.8373577836093976
  0.2414083432442074  0.7472772872369622  0.2373862500588638
  0.1666192450475448  0.7859599640937863  0.4755109589218353
  1.0029008264143109  0.6590382048398772  0.5805743161580131
  0.8336119468315270  0.5886593100156439  0.1699203485611133
  0.6845849698152497  0.7334718815097845  0.3179946721957508
  0.9138903450452677  0.6663812064012639  0.3346833635794146
  0.6625255127622702 -0.0066961992222713  0.5969975865478249
  0.4921692884494331  0.8383495167986382  0.2372088325169610
  0.4154016572728085  0.5788943549790460  0.2454446643516510
  0.7507107102707868  0.3309525084147372 -0.0001385294432350
  0.7447083947124455  0.2595106408263756  0.4153674653399130
  0.7452808240440519  0.6726723595106744 -0.0075511617344528
  0.4961491356748777  0.7445198630148540  0.3284487844860508
  0.0934946749528895  0.6603553642165502  0.6775559801194460
 -0.0810515177651007  0.3294108045530660  0.4971248742184515
  0.8250321680298203  0.0046948619485393  0.9186871531908518
  0.1641114023231275  0.5780117552631233  0.3292273870159197
  1.0045444902388003  0.7545825650825499  0.6769792531142645
  0.5038850700973815  0.1651304071878885  0.4165433327965561
  0.7587340562405595  0.0865892843918938  0.5996089382457268
  0.9999347807714593  0.6697660277553299  0.2423639883756475
  0.0929406793835914  0.7564462379300801  0.5832076809995069
  0.7532228394005047  0.0800923539935618  0.4124105002780969
  0.5787703274074357  0.7436886918654594  0.5937305422698315
  0.8197619429524801  0.8385412040296025  0.5760481710588223
  0.7617246793185324 -0.0115916465908955  0.5080672834963351
  0.6610147104643337  0.4179639992602008 -0.0010854652133807
  0.1646151343324032  0.1671460652545529  0.2477469378439616
  1.0003092306001098  0.0060962645139995  0.9162230367325651
  0.5721348728513284  0.0890942360933698  0.5934576314009979
  0.3357334571822280  0.3380366890812876  0.4123036531871326
 -0.0895716204521094  0.6590213170737930  0.6754639166921051
  0.6636330867607325  0.0885895498982542  0.5018138730448150
  0.2412372361065519  0.8376082696801441  0.3313621607152404
  0.0017892636884365  0.4951835153537357  0.2515870834860842
  0.8401028809272832  0.0791841809461194  0.3234265812860956
  0.3312473395564564  0.8385889685922610  0.4197975735353305
  0.9116161453372812  0.7481969367405422  0.5774758191406497
  0.7360125456021472  0.5825247356199191  0.2631517509761626
  0.3343461604946398  0.7429990319837154  0.5098127115640293
  0.3326358878574316  0.1560231264828729  0.4115565444125194
  0.3360066997942549  0.2459750287903384  0.5077899179911735
  0.2414166796626445  0.2481308494318642  0.4108404248167923
  0.1582940436895168  0.8283511352940420  0.7460835587777610
  0.2414061072081830  0.3383579864622795  0.5076296900115395
  0.3383635434617562  0.4270947778796673  0.5088601363878892
  0.6629763065073273 -0.0037841972941123  0.4072839345120610
  0.6718046009815919  0.8270793887102178  0.4202586121669102
  0.5843434390886085  0.7393705448947253  0.4194817513521490
  0.5830460178212749  0.7429192429367429  0.2308685541296765
  0.8350541195241953  0.8367380380739973  0.2436267198813625
  0.9138009909924906  0.8431321355894067  0.6709677897199674
  0.8198077788323965  0.7502190519059464  0.6737113566881571
  0.9154642976599886  0.4958233371896794  0.1597914451249897
  0.4945685405021233  0.5817425114945202  0.7530300801968743
  0.1608288491418506  0.0022657779735386  0.3269893806087473
  0.5804867016842781  0.3381567699135383  0.4162336275575181
  0.7395573361315284  0.3326705727072751  0.5906224430126403
  0.4925469752364296  0.9162107010197409  0.7550193005564066
  0.5731615522752059 -0.0010078261829388  0.5912858339398748
  0.7465918442434958  0.1670433410553182  0.0815692584777297
  0.4133893974109121  0.0865873157216457 -0.0005190425528040
  0.3313245430036840  0.1581656622655579  0.5032332853792928
  0.7456672233124181  0.4929706945805602  0.2510754471632897
  0.6641948295205357  0.0841002608877113  0.4121850163732169
  0.3325902659157472  0.1663508394280750  0.1629842635431155
  0.5746424464564130  0.0859502002497052  0.5019075838444359
  0.2539892106168629  0.1655617890520460  0.2445137243409519
  0.5806239476016151  0.3339225998741956  0.2474410258924162
  0.2488639484009368  0.9185296359844177  0.8359862945713866
  0.5727463056849844  0.4146869306160294 -0.0028691639948764
  0.3386279217481603  0.8346300828035829  0.8373472061588068
  0.4964011725297076  0.2508382928892170  0.7552139329550013
  0.4140206162399234  0.5760140822391613  0.3360514693692804
  0.2468178436157265  0.9193085591903232  0.1593986658015547
  0.2439645268904362  0.2480449148290446  0.5032619105522009
  0.1652450339060895  0.4971908247077318  0.8366523516117428
  0.3297723508788649  0.4163413382279256  0.7535459284998698
  0.6672947021715782  0.7408752135212336  0.5869263567917964
  0.8219071168839779  0.6603377107215115  0.6719522273018096
  0.4129176483260706  0.4980950680874241  0.9171154570268282
  0.9295383285614438  0.0844814082278186  0.3262933721703060
  0.8302780723434660  0.6765334344544894  0.1588958048146772
  0.4139114679083539  0.0015359008832252  0.2432373427821025
  0.4932345363833795  0.0842802264365485  0.7572358045282077
  0.4106798604897160  0.7483072644379388 -0.0009213249367679
 -0.0016002739467041  0.5811649810334945  0.9174028723035016
  0.6725821958844217  0.8290534198381494  0.3252741124711980
  0.5797932985250664  0.5790416816792313  0.6722474976595010
  0.4970338661244065  0.6569892040700355  0.5024340460376681
  0.4969181249357199  0.5774787603305696  0.4219709995794562
  0.7477895941373954  0.4934165419595148  0.0830102713538375
  0.6599456370365681  0.5061556135455968 -0.0047674310596221
  0.4963869597566952  0.4168662373341578  0.7535617560620780
  0.4977932292145388  0.2526532628802972  0.5894138064549531
  0.4962305873945966  0.5792032023220246  0.0773802338240051
  0.2488014344690079  0.8332991523038925  0.9256899408060002
  0.2460908381738922  0.7509101854599767  0.1494207618907830
  0.3307998109739454  0.9275063403831719  0.4169011816460821
  0.3291883303563309  0.2506661169943559  0.7521716206531162
  0.4117332710887634  0.5823015939178451 -0.0002255924002317
  0.3380022454040141  0.0012356195915715  0.5040183323522055
  0.3310623008485793  0.8360532650006890  0.3294232376334554
  0.4972761569707363  0.2498751659502497  0.0818586552707771
  0.1640787220241451  0.1685273065549731  0.6712512530406741
  0.4133571756107626  0.7466618743045057  0.6709208037367530
  0.9121073067626712  0.9202624651983006  0.8315804694123761
  0.1603978563544449  0.8343750982197398  0.8367394159622862
  0.9136272816902825  0.8380083682578712  0.7614252883940478
  0.1636948852509242 -0.0018996098024298  0.4999863285998728
  0.3293634361002604  0.7478696482922648  0.5973433056090465
  0.1620374494596858  0.9202048063268101  0.2425015869148682
  0.2448588939365488  0.8401854123477329  0.2403351051631330
  0.1652148372772022  0.6627476679936054  0.8405425148338997
  0.2490963834746021  0.0874576115297497  0.6697033328904225
  0.5780818489397679  0.7525018673365287 -0.0023946687457592
  0.3327199518803188  0.6631441207211273  0.8348059650537352
  0.9189789373716525  0.7501252358647610  0.4879533705014445
  0.5759507418703751  0.8333671242643939  0.9166782218907334
  0.2504201171565318  0.1699426837467868  0.9187337948520993
  0.3313741589912384  0.3322412224710413 -0.0019366468269454
  0.1662534755542689  0.4960966297985247  0.6718131586761699
  0.1667412209212795  0.4087614895535743  0.0799958508312211
  0.0834371774987881  0.1689111139732400  0.7527329649076965
  0.3305052598778766  0.2491279435203937  0.5972874321088500
 -0.0016012164014472  0.0042009432117841  0.0056171413150646
  0.8226173477620558  0.7484215454461015  0.5830559558668429
  0.0852442090513725  0.7481548433696193  0.4936267268325173
  0.2451962696273092  0.3374933623185121  0.4154587375716902
  0.2455155542132411  0.7416561774437470  0.4936187338596535
  0.4135265171523536  0.6654128748152498  0.0791649383599713
  0.5022467882933824  0.2557812859061159  0.4151874024362291
  0.3307475521889846  0.7495206211035320  0.0769518583939483
  0.1804761400223549  0.7561052961759207  0.5750115207102464
  0.2456318529916315  0.4265874392009689  0.5031566960151407
  0.4969497897378266  0.9218423657648375  0.0768701154407190
  0.1524764720445944  0.1660243766551760  0.5025982677426276
  0.0797999077418151  0.8352210496201640  0.0774282761050345
  0.0897076384990243  0.8332136084946146  0.4203654041816034
  0.8304710611162306  0.3321374355926012  0.1640578096651447
  0.0884466506393624  0.0024239368649405  0.9194067200698619
  0.9156508949248547  0.1699556479225242  0.0801336495511556
  0.0817510731389745  0.9225841255909273  0.6707727894446083
  0.0015261422163705  0.0933521748962289  0.5870228785929974
  0.0798470677158623  0.8376842351178095  0.2421291523302686
  0.0000872741393874  0.3314032862617187  0.1631523005902513
  0.3320231587032624  0.6535615338903256  0.3298086061378468
  0.9186348419086149  0.1686226127946136  0.2440055894039437
  0.5806615691182396  0.4153959247199754  0.5065023304883216
  0.7457734822506596  0.4971552599855590  0.5884777337656978
  0.0027680978600124  0.6668729652296363  0.3334666872820443
  0.7436037616788659  0.1679451958268907  0.9156504438307814
  0.9159925144826854  0.0929993072224825  0.8340098620864913
  0.9168061014265456  0.1684021191771340  0.7558647705838295
  0.8323093827570742  0.3338015832155470  0.6799945706439962
  0.7532790759072089  0.0812206187932771  0.5046525327772293
  0.9173028665950088  0.3336405248673325  0.4088130388303693
  0.8358851377579618  0.1712071714433980  0.3239662150843134
  0.9159813181856600  0.2484221226484974  0.0013626428692772
  0.8299034731729160  0.0035472941090802  0.8295587713130802
  0.0753371218145476  0.1679068367393680  0.2448654500100981
  0.8326951593049349  0.0245727277146908  0.6735589756000572
  0.8237352029759965  0.8410902182616522  0.6671538635541850
  0.5771158543768855  0.1783745796383946  0.5905073789496150
  0.8458029662122221  0.0912059264149788  0.5839708800135841
  0.5760222833656076  0.4986803634556088  0.9154450402855117
  0.5812328171586670  0.0033922921420942  0.2411617235431540
  0.2494674737714031  0.8330300653743363  0.7479304057408731
  0.8345664263659588  0.2591277402455325  0.4134278550895387
  0.9155826886317423  0.4147647823282017  0.8359658401342488
  0.9163576325211819  0.4142171718232679 -0.0022278369061766
  0.9143679253736789  0.8379800001658131  0.5800744100303663
  0.8268301134883155  0.4187055411729389  0.5895374015857555
  0.0039838568880868  0.4966726236833497  0.1609919936149447
  0.9094158084052976  0.9308429385935728  0.6733190498433407
  0.9159095606631051  0.8360154238931201  0.0767054188281309
  0.9138757146624087  0.6646428044877088  0.7654914634389871
  0.9123120958036789  0.7507889912976456  0.6696434135578134
  0.0028061078231496  0.7501157386314504  0.5842321803730057
  0.8311010945618268  0.5759004595091802  0.4216282430750317
  0.8331164825435845  0.5843943444631461  0.0778701419494682
  0.5798175634198905  0.6501423601859941  0.4196669742990523
  0.3330152879548275  0.3362938755326991  0.5035303972062875
  0.0806535798580021  0.9193720696853941 -0.0028763066100124
  0.2484436316822035  0.0027429667724484  0.9243152554678747
  0.9166942688018053  0.4189579483250196  0.4987847743514307
  0.9177949786367207  0.3293919929141918  0.5876978454299724
  0.0825071051212388  0.3359001891982579  0.4145890545115182
  0.7428891803302315  0.5888249424325055  0.1716597558165957
  0.8356497702448735  0.0840539725094105  0.2358082393250555
  0.8291593456090171  0.9154091901802744  0.9151406033022983
  0.8414648422961736  0.0837024963817277  0.4126580564317097
  0.8260357076128403  0.4976095364622181  0.1652037066128800
  0.6595791686553979  0.3290423996971342 -0.0000190552696357
  0.5776793220582032  0.3312155182243950  0.0815448666313860
  0.7484354543393058  0.3328898829597576  0.0892727222312048
  0.8309482409203297  0.0050463950102435  0.0071901952865058
  0.6564090550678565  0.0010116561012807  0.6851576448264998
  0.0013937885172865  0.5705518463442587  0.5871823062249698
  0.6612010325031389  0.1692056619288644  0.8382759536664691
  0.6560691224737939  0.2560302019075857  0.4158014354855035
  0.7493472969024413  0.1674826422608197  0.2472639126258704
 -0.0009717243292916  0.0851810926520173  0.2431374155174678
  0.5808351925232812  0.1679290282418330  0.2458391585782156
  0.4956787641312858  0.2508174715249362  0.9184711616399802
  0.6583089073098493  0.0015206480597605  0.8353032977917231
  0.6646711873442014  0.0855692814885469  0.5917808620788940
  0.7516124210803280 -0.0030794104927843  0.5977728032067924
  0.6642770728414567 -0.0048042572188840  0.5041460998967130
  0.7492592246260108  0.0853295209680097  0.3213534055647058
  0.6627525956333992  0.4153842879250080  0.2479981554755826
  0.7459038260649768  0.4168044395495785  0.5079774059153601
  0.6626536865162351  0.4160923079741063  0.7554289051548080
  0.7503950615135693  0.1700480094508682  0.4133721592367340
  0.6624900932590593  0.3348697658785745  0.6740558149683983
  0.7459689561632664  0.1762689452958957  0.5903794241838064
  0.6591160760766231  0.8333280376949013  0.8381303509655674
  0.0811431350251359  0.3324144216347752  0.9171866568438589
  0.8313825209346256  0.6646796574349120  0.8357406913764390
  0.3320101485534340  0.7476318693265325  0.4182777320590864
  0.6715660610902976  0.7493949318130578  0.2292206839521458
  0.6650977369844072  0.8401154686079878  0.1559881194707280
  0.6585805492231720  0.6672176341890493  0.8335546384807432
  0.7499209476575736  0.4209164246050826 -0.0021444936396812
  0.7593641414217508  0.8375179658235650  0.4125628525081693
  0.6628673676484060  0.0029377088215274  0.1626892299222140
  0.7467021073672861  0.5817777202381755 -0.0083142672749994
  0.5838137306289960  0.8345891026677577  0.2373616205264218
  0.6531513126709186  0.5782445903880941  0.0778847298698989
  0.7476758101148639  0.8407483380258037  0.0753839554856455
  0.6734126832221411  0.7398753086674497  0.4114659876551592
  0.6589178337612951  0.4141028098747384  0.4186200045750912
  0.7461099123936250  0.4989984830465832  0.7562816712379342
  0.7449078887417526  0.6727079660470585  0.0820254249982268
  0.6614926582195464  0.3337156878364181  0.8341254497373307
  0.6595110299473708  0.7473296743364813  0.7589062894472235
  0.0920710758236632  0.7511464864173820  0.6726512111630596
 -0.0019618010604100  0.9157509836516223  0.9170825632355538
  0.4160402974989719  0.9152208960228346  0.6719808838645724
  0.5742073985924785  0.8332374977090872  0.5908047597348081
  0.5805297902453581  0.8287561081939411  0.4167794907221421
  0.5789916852481191  0.9205973473222147 -0.0023564048155822
  0.5796332674326389  0.0861045804095992 -0.0002221460208129
  0.9159133364250478  0.5713838322138611  0.6740084288779815
  0.0803606286400971  0.1645114838939632  0.4158764861508872
  0.5873231083024790  0.7398809435112353  0.3246107577089519
  0.8266411854472165  0.9215714546862349  0.7562459343619936
  0.2501990866501950  0.3320818584879539  0.9175121978338691
  0.4844164535006277 -0.0039759734356339  0.5023963939498353
  0.9113031109506231  0.4969622463016154  0.2510269553766156
  0.1644630887422141  0.6661495949466708 -0.0023342857870808
  0.0757272121081878  0.4988497145877265  0.0779221627140872
  0.1679197553099209  0.4945855859169146  0.1674402755935044
 -0.0009647463181602  0.6699967403404623  0.1536470460453649
  0.2490472462975190  0.4978085147277033  0.9153479103753419
  0.0825982864333688  0.3345714830556905  0.7537279542862179
  0.8339016445185115  0.3331040091145419  0.8351093735474435
  0.3309250821218123  0.4261503672042273  0.4169101028558432
  0.3332069815326753  0.3330852149890955  0.3225386626638216
  0.1635379962404036  0.4987823803587830  0.5020210960129787
  0.2483667565701627  0.4128234226500069  0.1633476373688008
 -0.0018595840481643  0.4965382895749232  0.3406970330256254
 -0.0017361781152062  0.7503899816350323  0.9162194443958683
  0.3310049394517391  0.5807056710017923  0.0787607168928895
 -0.0000031745056657  0.5780852930267468  0.4178253410758029
  0.3331669813120963  0.1678591550738146  0.6724606995769521
  0.9132045373129465  0.6585712802056344  0.5843136054253509
  0.3312190996243033  0.4140725483745257  0.2479561495880077
  0.2437713963307129  0.1590077764217694  0.4155991309812174
  0.7468959437773521  0.6713065401287676  0.2629544554804029
  0.9159704595059235  0.7565582154765925  0.3347415847529416
  0.2475113627995592  0.0004275424072112  0.2427356554153478
  0.0835044699035268  0.1695888714663658  0.9181655539362595
  0.0012859484340328  0.9169387508603802  0.2437979533743576
  0.3336820210390612  0.0678867193875930  0.4141839113464399
  0.2473068143769020  0.0666959282625383  0.5011561622246604
  0.2528374620218632  0.9207400212127891  0.6716489842487275
  0.0819749288207774  0.3354275562345004  0.5897804383901057
  0.8343764535462774  0.9254487319056635  0.2412946872408609
  0.3350787976219673  0.1655873851961187  0.3217648584037914
  0.2392639971967458  0.8332382282793032  0.4222010406702358
  0.1640888873291965  0.0766015717673330  0.2450780770202206
  0.2540091128917288  0.9297730227155377  0.5007023878983435
  0.0013087534058659  0.6630649233654820  0.6731916810263525
  0.3328404748255930  0.2477248194867424  0.4156769744418672
  0.5740308076883450 -0.0018133085325142  0.4120415915867888
  0.3291126888757839  0.6637370834901176  0.6694635149587873
  0.8307579825333536  0.2394709480213121  0.5918793550321600
  0.4128793298239792  0.4119789851510324  0.1632339548503710
  0.4944228624343763  0.7488531755258508  0.2389504994134014
  0.3314840700336921  0.7479303735996735  0.2382162322061996
  0.3319047028489508  0.9195098569493941  0.0794387551738547
  0.4946833534595186  0.6636402254722102  0.8353836392926129
  0.2414070753363196  0.7472815231847068  0.3270166392190120
  0.1655194754412724  0.0868956928839819  0.0800671197885701
  0.0917147547864923  0.6630035482093315  0.5860890948492565
 -0.0028301319588034  0.0012664173735209  0.4944936849585080
  0.9206044690138023  0.8337684511645460  0.4144734096133469
  0.3307801371302300  0.5818443360691068  0.7537082922503381
  0.0000171158118627  0.4055271884190452  0.2477933994977372
  0.4949740291059244  0.7408997606074715  0.4190836973553994
  0.4946737508455863  0.8349410740127421  0.3277171643414067
  0.3264641518750598  0.5799549311685744  0.2430387585504762
  0.4928734684732204  0.6536462440620471  0.3333369049507929
  0.3318347345133751  0.6527780703878430  0.5030490675486788
  0.7524270753781559 -0.0083339182256282  0.4176311819925528
  0.4153505145307026  0.5804681871448983  0.1541263139193989
  0.9141442748325000  0.4164800575701862  0.6782063534046233
  0.1657787814434037  0.2512986778417313  0.0810580574187604
  0.2476368457804522  0.1658847426053609  0.5960132733159516
  0.4255119387314976  0.3342093251900156  0.4160636248285409
  0.4150386791552509  0.0869862904679442  0.8361373400206494
  0.5791826252805868  0.4981979314975122  0.5903700098525161
 -0.0023976907351360  0.7530902772253962  0.0764174264606588
  0.6607470096246032  0.7509326049290879  0.9161023989121967
  0.6606541479886029  0.0041104583745948 -0.0010680876330713
  0.8339761353901199  0.7546993440638333  0.0755248717434540
  0.1615129992596098  0.0030166981700821  0.8337229573815007
  0.0818878781612464  0.7489346209049842  0.8381954616383185
  0.1646493022776103  0.7491369948738339  0.9181314858049670
 -0.0027368117644835  0.8351799003729362 -0.0036928453548802
  0.2442473929880146  0.0016437840308431  0.4098057548721382
  0.7451915754290451  0.5817428133337210  0.8351894187930221
  0.7444162607402530  0.7515710889034919  0.8352769696829214
  0.6505174321646899  0.6629562900841055  0.1550526773793208
  0.0833515127869963  0.4130450339408865  0.1624343332548089
  0.7658498598422228  0.7574670213510043  0.3337147428124225
 -0.0016197195756228  0.9177127193854897  0.0783621566658522
  0.9174548886001861  0.9196642293779456  0.1601865432705164
  0.6623426916828465  0.3316811184704712  0.1653777810767552
  0.0829767887349105  0.0874035249701573  0.6710482903013777
  0.8378210588201592  0.8415984213600926  0.3318021996498112
  0.0733422168020672  0.8366414002645277  0.7541871441463850
  0.6646701250022239  0.9119682591838288  0.4146467637243851
 -0.0018954732474160  0.6641097861520751  0.8391703456237199
  0.9144472784181209  0.0054881068003740  0.5860564081450570
 -0.0029918027285425  0.9224146213237115  0.7535057555827317
  0.0005668347626912  0.6646874043065283  0.4937876526530198
  0.7465094795934475  0.3340840094023808  0.2464679047831425
  0.0024920039855930  0.0838496758898984  0.4149666191209355
  0.7466375445982785  0.4151509430985779  0.1663639789497430
  0.7460126293833217  0.6602915435406408  0.5854691196972327
  0.6625398420046018  0.3343556946192066  0.3301781662563968
  0.7339292458818919  0.8292701636117972  0.5915961662815152
  0.2505813318480426  0.0025732423096158  0.7494965201732283
  0.6652426036949119  0.6603309669459838  0.5024459623443319
  0.5806887556423566  0.4163397023382378  0.3319463579327188
  0.8365158184441628 -0.0072733211382955  0.3293031541238324
  0.5756066033053098  0.9170803113493797  0.8377436018997748
  0.7468845753566570  0.4140604808774024  0.3319369423349708
  0.7473450997949191  0.5770556756928520  0.5033879190315420
  0.7475026386389624  0.7587703964726686 -0.0046340849537932
  0.0838622720713342  0.0867312321055795 -0.0004765147299622
  0.9210337465071748  0.0915974548446464  0.6722765359322912
  0.0781238327396473  0.9223020244977045  0.4977736986502529
  0.7437706957163062  0.5798435906937324  0.6729136234908647
  0.6633015100150889  0.5784716750773098  0.5887588825157561
  0.0805148556478013  0.0008562261754825  0.4141144181345147
  0.0832962245941693  0.2515875784653640  0.8359669086801124
  0.6603041491277089  0.9190021654579141  0.9168426997506329
  0.2464951123194805  0.6597621791066590  0.2425774482087839
  0.7438618173250118  0.8367728512146995  0.9149797310969197
  0.5765310488370647  0.4950268080263366  0.0792094670709989
  0.0870031649520582  0.0022062210475021  0.5875256412502045
  0.7540627975276134  0.7648639601050977  0.1545444895472482
  0.7430565828441950  0.9189688817711046  0.8348874292686662
  0.0813791730072396  0.0811190715404699  0.5004589558206057
  0.7459195687646746  0.9031080876567119  0.5057499081485054
  0.2481088453094075  0.6617037176076658  0.5836816601590176
  0.7494687672504610  0.9183204609056397  0.3264362426209482
 -0.0043771342129786  0.7495017861399037  0.7626387568005015
  0.9225535062786764  0.0903632210299909  0.4986564163714153
  0.6559925221714512  0.9073504086451871  0.5898721368813341
  0.6552447913222018  0.8299018489754203  0.6758100599319421
  0.0816881405803228  0.6629409661357415  0.7628434484881931
  0.4949219668994412  0.3331579570000328  0.8346764759259478
  0.8296760068749564  0.7510249786719619  0.7599255418838867
  0.7474016112622864  0.8382272812317717  0.2412142383329921
  0.4182305610350697  0.1662626100342272  0.4145674584622022
  0.6602010297410223  0.8269019693125313  0.5075671417538596
  0.0032193527862869  0.8339194459082049  0.3316124110079662
  0.8364854347990907  0.9246945689499546  0.5742016817606129
  0.1665688010810873  0.5785563884893248  0.5864771603349457
  0.7446401558031968  0.6644356153987544  0.7571283327315286
  0.0016131099176455 -0.0009632112063498  0.3276240536663336
  0.0787679488153339  0.0833807877333220  0.3289018559246466
  0.9178312658297275  0.0859261962168321  0.1603993379459076
  0.1647351321902321  0.5811844411332553  0.9172430566915282
  0.0818075941851775  0.9192280873639548  0.8369881462207750
  0.6600181991394691  0.1713806493034610  0.6737026579922143
  0.6614155556022001  0.3341140956631877  0.5053058023555027
  0.0831147877668659  0.4976875200274400  0.7556357032792477
  0.0837592071658679  0.8443857026163796  0.5840485203445168
  0.8321812296379800  0.1658514504914027  0.6746337280182508
  0.7464019049455864  0.3339194500623861  0.7550991233620912
  0.7462227578106122  0.4165349808480904  0.6735772781707712
  0.9146515324437211  0.9192331975613967 -0.0020743194943751
  0.7455872618308943  0.3444318629614878  0.4187622076329225
  0.2483444379293390  0.0027043319403207  0.0803014910154554
 -0.0004947168547103  0.0016741935679555  0.1604585514480512
  0.6615641917348885  0.2521286684899517  0.5901353063318041
  0.7470601999612292  0.2527061676154124  0.3255790792565244
  0.8283328147904018  0.3331795954784064  0.5011188350431930
  0.5777804368516807  0.0862205025971484  0.6798441553355452
  0.6621884328431387  0.1682447280644994 -0.0005405712941211
 -0.0006326040273015  0.1696712120077116  0.1615827379583979
  0.0812578816464226  0.8343337589338055  0.9179027198885343
  0.9192947637144491  0.0010126892511540  0.2429445271043806
  0.7461202295070394  0.2520529277787557  0.8357097809009612
  0.9142644300139068  0.0884312337622225  0.0014882458026544
  0.7498646430616343  0.5731494193904623  0.3470944774131647
  0.9156246363465178  0.0027293313853762  0.0802744562610639
  0.6628786727869049  0.4972926727590323  0.6726279233001629
  0.7456073432764521  0.0870134479794159  0.0000644202721027
  0.7499923530374021  0.6594583636218411  0.4218463736960917
 -0.0008194326960019  0.0049815966962004  0.6734815239801811
  0.6617531140773831  0.5812087261322629  0.7548572485013225
  0.1666092776659585  0.0051482982358263  0.6733642437357303
  0.8324895845843500  0.7472885815130497  0.4193280492821261
  0.0810826364353676  0.7504166683641484  0.3295684973198847
  0.7476544274089046  0.4154178315566821  0.8347863232472614
  0.8327082574286980  0.0017110197206055  0.1589520801168465
  0.6644087260348115  0.7546910913083923  0.0762740289642327
  0.7461833214055349  0.9202529358814163 -0.0028191064416447
  0.6567241921750845  0.6654272682249156 -0.0025769367806867
  0.6650014183640174  0.5730349544675357  0.4242470699691068
  0.9148321519940619  0.6692939982161564  0.0773606124104746
  0.9141535853310613  0.6603026958098611  0.4217257946168535
  0.8285271813240994  0.6629072633492434  0.3399671815562593
  0.6617829773542584  0.4970443314345227  0.1642745812303963
 -0.0015207068334397  0.9179740882780946  0.5824907521297457
  0.6510736873579762  0.5750801113965270  0.2476666099494780
  0.8305307146062617  0.4968093678943539  0.5019558092192743
  0.0029343238228694  0.9147941111047335  0.4135095996585666
  0.6608188603241105  0.4992349520621313  0.8344709962518045
  0.6634021629974517  0.4954739504165499  0.5059929197445443
  0.7459188822334872  0.2501001256656727  0.6761408392545677
  0.0821160753925776  0.0024081825937949  0.0796464982882966
  0.0019698930054888  0.8334853638028079  0.4980127642717483
  0.8371012927656051  0.3324651226216167 -0.0005635078112919
  0.6622687085444504  0.4161214348371634  0.9102950735890546
  0.4939001677052194  0.5815599560980426  0.9160531621546044
  0.6648856684408149  0.4933463847984896  0.3363159532043836
  0.9164827110099246  0.3327974431180433  0.7552327000069912
  0.8321905531528239  0.8368837199372393 -0.0038008961437288
  0.6602702471561096  0.5832349956775245  0.9134458869702058
  0.6629595320534704  0.9216706869991477  0.0778597526490744
  0.8305125404671118  0.0913061772157106  0.9175874309105230
  0.0813810266187836  0.6618901076281920  0.4152664202657512
  0.0040275703601045  0.7511959263976190  0.4137624195762408
  0.8287611830085787  0.0908649791631276  0.7596696996164527
  0.1776487605656970  0.6639403891119001  0.6693404300111384
  0.9152260537062838  0.5786418051517273  0.5012907765235020
  0.7344194434103249  0.7481051624720110  0.6755411822410651
  0.8289921396706640  0.5806036535369762  0.7562490971151600
  0.1553326059393110  0.8361710270318179  0.3279588188965901
  0.9151842907252409  0.5803063141161567  0.8373523509370873
  0.7446191084251785  0.6676493728476446  0.9076511017168042
 -0.0016819046838048  0.4143635383263384  0.9169405200079247
  0.9128665785223494  0.7519157430915652  0.8390618276531827
  0.9143980140721484  0.6660954922930588  0.9157187623910643
  0.8315705698414532  0.9192281789416655  0.0778761506917250
  0.8307058354990322  0.4146717204196044  0.2483378052574478
 -0.0011016127187439  0.2510907781105116  0.0806660912424643
  0.8317218671541536  0.4981398472578651  0.8364339846924689
  0.9151049067788927  0.7521643914617031 -0.0051410733792984
  0.8309468516794126  0.3341365870983675  0.3300222461880101
  0.8298051447160389  0.5803314402161686  0.2573847796168588
  0.9282798880728209  0.1687522496752739  0.4128027547468149
 -0.0004790592642534  0.5821913447858474  0.2468544261339892
  0.6629467264419696  0.2501394649027061  0.2460387733676849
  0.0809939230830548  0.5822307871054695  0.1605258669899541