 C Cr Ni 
 1.0000000000000000
    21.1200000000000010    0.0000000000000000    0.0000000000000000
     0.0000000000000000   21.1200000000000010    0.0000000000000000
     0.0000000000000000    0.0000000000000000   21.1200000000000010
 C   Cr  Ni 
  69 259 605
Direct
  0.2520494692444836  0.2604561877403466  0.9099777506458887
  0.6536646880501712  0.0087212066019318  0.2536434391923025
  0.5730681743193069  0.8384284139024860  0.8271465100732230
  0.4889621379413728  0.9137933185648801  0.6660945836488825
  0.8369226977296558  0.0074358749503985  0.2480848807152790
  0.0736554854456134  0.2498767936053818  0.0891104944165046
  0.1596056627703439  0.1689310644536892  0.9066015465879020
  0.5872841206581785  0.4948168402790836  0.8281357399369703
  0.5788244647868245  0.7450237160711763  0.0913166145954159
  0.0747927464662079  0.4227857505554701  0.0851277414256504
  0.1701917654417162  0.9265828783590740  0.1669163548506219
  0.1700481749493025  0.6539950015474215  0.2613708004857672
  0.5865637336228429  0.5846279586785470  0.7387468416249413
  0.4980972733016284  0.4953824303379848  0.9193002362106576
  0.6544632734720923  0.9119420223071453  0.3412071764644936
  0.2558300739060650  0.1679933862763127  0.0060865747853862
  0.8385866409277443  0.9175854644255175  0.6616485784744519
  0.0756382008002115  0.8282733107300396  0.8254063945948702
  0.7582145478036160  0.9314796193947613  0.9268808299598461
  0.4925877755753648  0.9957073439342745  0.0728652797558164
  0.5787677343596475  0.0080929779985268  0.6688562348601882
  0.7481161783471877  0.0069108845993167  0.3422138133343604
  0.4115806892119406  0.8322493587256690  0.5018232380261276
  0.2476839946438802  0.4145760427586280  0.4194778232292488
  0.4918100078522119  0.5848898400247530  0.8271320127277205
  0.7461834682915903  0.9100289261864655  0.2459346311518216
  0.9833842340592184  0.8455831392181808  0.2676328291647925
  0.2602281449533010  0.7375770880907426  0.0760701481291197
  0.2487216727953215  0.8264202275813319  0.3359420351213176
  0.0754215868285495  0.9209637892327999  0.9182458710441254
  0.5883350268040324  0.4063688040173107  0.9214716631169771
  0.5728116812961119  0.7423050195170274  0.9187352169493507
  0.3294653572519735  0.7533969468487669  0.8333299969684016
  0.4974186550191074  0.0915051512350563  0.1734183851715023
  0.9155494222952940  0.0857209453894314  0.5836671208674554
  0.9803936402158111  0.8433945591358787  0.0736201073823973
  0.5856555130173418  0.0916367606384973  0.0768898340021836
  0.6637102029976277  0.8371332807146386  0.9236778426695729
  0.1571715071820056  0.0792733498760583  0.0024565362945140
  0.4180195349788560  0.9192048167615434  0.9096399408760402
  0.3317717808399088  0.9181254880321807  0.0018540943336033
  0.4028527330913990  0.0961332181882317  0.0754784385489332
  0.3314519812272216  0.6602344503235328  0.7440121827487107
  0.1658282658543265  0.9217052110887508  0.8243286447024400
  0.1632903595743144  0.0052311973716538  0.4245873485689722
  0.1700031107130238  0.7425048673436454  0.1684397816529468
  0.4070978460846196  0.0015812311395378  0.1738991774795789
  0.0784084689177948  0.4971772477679071  0.6659772145222144
  0.6677154985555919  0.9140368224460810  0.6656629889042849
  0.6669772001752925  0.0061206967892491  0.5767216622251751
  0.1578925664838163  0.9149889715080729  0.3389739053818001
  0.9109412248451410  0.9949024734918969  0.9961278782819909
  0.1689698829610738  0.8344015861550517  0.0758248734389412
  0.7494838206465948  0.4140316734830502  0.0847391509975508
  0.7560693692631435  0.7431874349576451  0.9210154519875211
  0.1614514252600117  0.2615253169554581  0.0007754153464398
  0.8422081881684670  0.9101035434305039  0.3381631906814542
  0.5810753955117312  0.6636297121918920  0.3366514495396507
  0.3255934368502598  0.4976233521896457  0.9179131614583430
  0.9835353031147877  0.7429695649338633  0.1688394678748842
  0.6734882196712633  0.9956634749555875  0.0740799262961493
  0.6662313508314125  0.7436786432132916  0.8269362229116975
  0.0761044104062088  0.7399198659951963  0.0746120592137331
  0.0775169261832188  0.7449596016728184  0.2605323905323931
  0.5065817660978956  0.5850706160059672  0.0114196391694585
  0.4076043412309007  0.6714458417846967  0.0044799821212876
  0.1620602819369330  0.0965171921658860  0.3339168159444942
  0.7578701346354202  0.8386935118663672  0.8280429029142519
  0.0761689063399462  0.8385790004332029  0.1679732051025816
  0.3304579472067116  0.0877647462787266  0.5834909761327959
  0.9971999581038573  0.7461245163495016  0.5817637205993523
  0.6700755715229317  0.7450310654985447  0.0892520617360880
  0.6731680085537339  0.0911360865521405  0.0828428509817824
  0.3380603114662367  0.4142792411313795  0.4192228028354720
  0.6665423964349426  0.8248782478346433  0.6607228994956685
  0.4154106466773543  0.3340808474029692  0.0874641743990532
  0.4154055989271503  0.3339919902445817  0.2533976457364709
  0.7591456660616365  0.0080312535323489  0.0834305329216414
  0.6637110256210833  0.9158994414887931  0.5743424756447054
  0.3319628438988038  0.2526213679498240  0.7445182855013684
  0.2473715803074904  0.2508438388526251  0.5022308272095813
  0.4980170049928623  0.2525207996670087  0.2547013340038429
  0.2468674043712727  0.3497974001153606  0.9137808647619134
  0.1636791933108036  0.1690261169485926  0.9997094660776924
  0.4968254779286926  0.1707697666290132  0.4996778935874077
  0.6658507702831681  0.9273379068354096  0.9166264909198395
  0.2488500532849784  0.4954319232160403  0.2552846366165090
  0.5799674836838878  0.6557382536067853  0.0900430097343585
  0.2472752414240057  0.4142965463808403  0.3299288434859071
  0.1635648766980965  0.2563291459474744  0.0901322068732214
  0.0765658603624625  0.4229886895326424  0.9948760800221792
  0.1614535050575281  0.6624412673006863  0.6626196354251788
  0.0771613535604138  0.4151714128199775  0.8288223244480432
  0.8290024647110357  0.4956530794815427  0.3368918474886614
  0.2475508567781723  0.1691518271634783  0.5842821198519745
  0.4213751567146948  0.9210572528790876  0.0005326729589115
  0.0753007222677595  0.4202007014129637  0.1750901901561546
  0.2397921927065441  0.6633321998866991  0.7467282426964700
  0.7496407900631840  0.7464746236147078  0.6630280517930787
  0.7467679082220147  0.5785955721345699  0.1711448716177843
  0.8332880121053520  0.8264999450229409  0.6612002100727126
  0.3293349336924470  0.4922872947634784  0.8272898094263172
  0.6769886550061667  0.4963720911957475  0.8297632199815774
  0.4147190142052706  0.4142397594556019  0.3352611605127831
  0.8297001971502350  0.4969644894514438  0.8303676960579552
  0.4963329394579367  0.4944817566335142  0.8287628149359569
  0.3341618988203927  0.4078041454342015  0.9165332412200159
  0.2459190500983172  0.7477982653313452  0.9891912586448693
  0.9158941295941626  0.9195445186474233  0.8261960115585675
  0.4054886275320824  0.0048673760186586  0.0823341181952118
  0.2590763138511276  0.7430164258978448  0.1676038728180286
  0.3263584753589273  0.6626186155361327  0.8327381772289246
  0.7490369931610784  0.2515871454471175  0.9980300363624988
  0.0774962614537227  0.1615574436834054  0.0854407537959775
  0.9092885168152627  0.4995168622191601  0.9140385093444076
  0.4125213664434713  0.7418549954199982  0.4997573700946747
  0.3367122723266518  0.8331445732048284  0.3364391721300756
  0.1657611332081780  0.8343599890322521  0.1666307263980241
  0.1632517115717106  0.5766538407985612  0.4217273842461782
  0.1629813040105134  0.6524626766812094  0.1683881304283479
  0.4168185443907737  0.7481260908350276  0.1764337672192892
  0.1670493929385504  0.7437777455018767  0.0792497666673623
  0.0789404144276138  0.2519910460688708  0.5013939198237444
  0.8321740970325946  0.2517086961921808  0.7476754988972623
  0.1571060441293311  0.4135415815891678  0.4191558340800539
  0.1672632869030304  0.4973218607184518  0.6628082869040897
  0.9148029747528346  0.1754160604577568  0.5831108838467393
  0.3317956085927629  0.4970721370219639  0.0080265703991444
  0.8325262463103340  0.1701739732531158  0.8300458946127406
  0.2490220481155409  0.0049578293271022  0.2553073622491302
  0.2480374362886599  0.0060892009236413  0.5847979642700168
  0.4891978184419688  0.0044042883262136  0.6662230371529851
  0.7471783112301079  0.4958933154574531  0.4185468021338424
  0.9114890056638363  0.0888849006129631  0.9980858623991575
  0.4078669814189148  0.0917591922513522  0.1685264770174401
  0.5829250976117272  0.0016422589939272  0.0806206311874222
  0.6669727549678779  0.7465589408936433  0.7371767787423015
  0.0766423452345181  0.5789857526150726  0.9950828452213367
  0.3322550023298894  0.9170608806578456  0.0907707138352709
  0.9125873493972135  0.3332429709124943  0.9157411266368997
  0.0758800677048439  0.9204582607826109  0.0072383483609724
  0.0722715867358879  0.2531976099783888  0.9983680407814385
  0.0792342690911600  0.3341694630889145  0.4186029409271649
  0.9170159688279503  0.0899291645909538  0.3374438820280336
  0.1628003788459019  0.9162014576784273  0.4267817357928731
  0.7482656838545052  0.8277362131629995  0.4226262191144475
  0.0746611018846818  0.8346332660278588  0.2582342625235232
  0.1628361402327725  0.8328876989045504  0.6610701704959070
  0.1659939341326655  0.9187516017431043  0.9142759551614281
  0.0786205057947803  0.3321719340348533  0.7475143404417887
  0.0767842821100889  0.6559272073740638  0.2567862227404324
  0.4124429031757972  0.5796114468746184  0.0053409180703204
  0.9122374958447046  0.4163015169927995  0.1705791185364537
  0.0756134508790836  0.5121105792775906  0.0823591546371781
  0.6647753703935371  0.4136047371548149  0.4173477257994749
  0.1649506280656768  0.0111563288606580  0.8251387282997634
  0.2472815860845416  0.4142460539904922  0.5082464039098405
  0.9122460807444509  0.3323918950395058  0.7480641353708244
  0.8387602776983528  0.4157839309811862  0.0846147940729356
  0.0798312366848034  0.0019802057132750  0.5851125826133721
  0.9946801779518064  0.4965312348163052  0.3385336546817483
  0.8323030876096948  0.1727348256926824  0.1680233637080556
  0.9926476278867904  0.4128689527232337  0.5818769069143789
  0.6680966342024733  0.1741231129455438  0.1686308645146302
  0.2471416795897400  0.5040718356383378  0.4195122421681429
  0.5844872910101014  0.4940923969483039  0.7389916249620225
  0.4133943635823426  0.0060967940639838  0.7485488528097388
  0.5817109312768477  0.5723302363320317  0.3365941357396947
  0.4988604004383403  0.4951878695023404  0.0090134154603848
  0.4988854184946780  0.4938583599607302  0.1726464974711306
  0.4141383652682384  0.6605762870647780  0.2530568885823661
  0.5013761861337158  0.8322545744270793  0.5000307798712895
  0.4020931106008586  0.9185200054095936  0.6646840540733447
  0.5811200375285005  0.6616984495705149  0.4257863563004552
  0.5751942030651652  0.8337702507616552  0.9178097077541630
  0.5801854691964771  0.6609036494617290  0.2464152275107487
  0.4930112940058016  0.7496180628862732  0.2551560976761390
  0.5822475447943304  0.4959315966058149  0.4188812478597090
  0.4956046060862317  0.6606355288897038  0.1736487713217312
  0.6655181170960379  0.7464694098727456  0.9178508027137270
  0.6640740614152131  0.8235226264115482  0.3382803393246572
  0.5823474330280124  0.5815708389343974  0.6506421880470518
  0.4112758877763671  0.9120388092405488  0.1712028441412178
  0.6668033841423813  0.1724371674217742  0.8287439926651489
  0.6677693352003041  0.0042922844471950  0.6661235529181410
  0.3308862191988183  0.0892704496058583  0.4183851012014967
  0.7525971524740780  0.9278681020852592  0.8333144501906260
  0.4106581805439011  0.9231074202169167  0.5006321678921161
  0.5875248354265306  0.4954512777026485  0.9176203197057394
  0.5752201380982708  0.0043682093208481  0.5780287444478329
  0.3321963862804445  0.9193012114843968  0.4187921488580419
  0.7499752294631395  0.3287650389606329  0.9162329648998018
  0.4972862176743329  0.9185312955582676  0.5743125923853237
  0.4139114965194662  0.5805464494981242  0.3368527812315793
  0.4963712635694414  0.1711905359880837  0.6643163438515712
  0.8319779288570665  0.4963509151529435  0.6638327419873956
  0.4967534565639030  0.0006868208487196  0.1671188893916891
  0.7512477855046891  0.0022319526005264  0.4311048416958324
  0.9131566544367129  0.2516019198344202  0.9965718809210204
  0.9105660151763050  0.4981549889507909  0.7474922737153116
  0.1620806835968643  0.0805671820563973  0.9105882787606653
  0.2399492373272839  0.7468733582010797  0.8288510696263743
  0.7464137497167027  0.5791449742886943  0.0014480484063418
  0.5825806196305395  0.5841789410377353  0.8284020605524395
  0.3311069172091871  0.5802746527154857  0.5833431188200733
  0.8273803313034582  0.6614461203064119  0.3381626658683112
  0.3340818965804674  0.6597341036494347  0.3383834755936848
  0.9972568356834263  0.6601662553454669  0.5033362004487273
  0.4985452817345707  0.1815193328633189  0.1711053630137904
  0.4148150885671609  0.5812935969103163  0.5012489671530762
  0.4123850014981977  0.8335460956151606  0.4126038947455820
  0.7477410335001646  0.2514622509058358  0.4992010500330050
  0.3304432053993094  0.1720012582583450  0.3358962046301651
  0.7475420983344900  0.2519219800701090  0.3360852550044970
  0.7481619442720490  0.0977830559382595  0.3389173983468610
  0.4977312061766701  0.1732263366362102  0.8291654006017996
  0.5815047989594152  0.3348017125360266  0.4180192070796494
  0.1635021473455898  0.6619461843475800  0.8298363360025180
  0.3286259363905123  0.7515228380425362  0.7421038107523723
  0.4969126805738795  0.8252850830525732  0.6617070101785194
  0.5851015064176054  0.4053953870784444  0.8284827400253677
  0.6663405996807577  0.0079934037999381  0.8302609784366431
  0.7531611476159322  0.8367810942531392  0.9190004223592122
  0.4959171644651366  0.0891686085068801  0.0809381932178156
  0.6606028107800993  0.4135280441560535  0.0878032178024754
  0.6630734749987871  0.0030171822052433  0.1646181954277170
  0.5837895420330619  0.3197418457741232  0.9150542190666329
  0.4161217605216746  0.3333820816699745  0.9147770484143785
  0.3286519590624786  0.9202868836000231  0.9117112538340335
  0.7476826589805819  0.1706148177025274  0.4182995397019543
  0.9953401956298390  0.1698217173256704  0.8291576851565123
  0.5769278487697161  0.7475918934941183  0.8294468224985797
  0.1623282365399107  0.4957549379929894  0.9985374408440927
  0.0803805048034210  0.6497357311291129  0.0833322292810646
  0.9938658604959267  0.5791195062741663  0.4190855966823533
  0.0806545191098735  0.9292419322023054  0.1654039353118426
  0.0792224910146239  0.4147662118120575  0.3365975047778890
  0.9133142033676375  0.7451522490223244  0.5032597893199340
  0.9888479892635010  0.7469867494089915  0.2582577432993085
  0.8346527165387410  0.0030315714142457  0.4958929763418627
  0.9963177668112950  0.7444177431504720  0.7461003457316139
  0.7503386710771958  0.5796473864495650  0.6617379654584905
  0.3319812338606524  0.0871161958793755  0.9092289878899587
  0.6679936171755366  0.5795124363811311  0.5810620455512153
  0.0792393754710995  0.6634805977172515  0.5816454116148396
  0.0798405218749194  0.7430331365580073  0.3497422444169257
  0.7486454679762676  0.9143109120643713  0.3389603284159354
  0.1668241472318156  0.7439426682671677  0.2569258129835379
  0.8316625305482239  0.0075781666098610  0.6643572901199761
  0.9876164677914464  0.7468289667476992  0.0799196063677542
  0.9989423367099678  0.9163499566921324  0.5816063973929285
  0.1615859556160674  0.2571599260019880  0.9116982285723610
  0.2524320378573778  0.1693545745207665  0.9124077498368828
  0.2509297917566174  0.2572840192468860  0.0021709511922313
  0.5813406277853022  0.0084986798948995  0.7583473407269010
  0.2462930698986334  0.4157312778723010  0.8262088830105887
  0.4152748859069989  0.4137973355728914  0.6639337608797868
  0.7479633945752212  0.7469877817108864  0.4993118660351702
  0.5778668069679761  0.7483048413495643  0.1809751854254839
  0.7483761224290657  0.2514209507312307  0.6639281104371539
  0.1647144171807260  0.0903157321039884  0.0911293415504432
  0.8474655671834223  0.8339932707704500  0.8290722317278121
  0.9134071932121729  0.6623085407236247  0.5814321280833350
  0.4140683877280682  0.6643210941102814  0.4191409878608788
  0.9115464029422992  0.6597825413546616  0.9152508453879651
  0.9311771128890302  0.9136170519207996  0.3317810615618890
  0.6656346675307993  0.8356000922723875  0.8311700937671990
  0.9088166964486605  0.5823702439494201  0.1710007834818322
  0.9859252600238307  0.8303888817734228  0.8303690530431491
  0.0757097215617703  0.9190262170648865  0.8279155800762802
  0.0811472143257243  0.8313824260101819  0.5828096644498688
  0.9948763521505575  0.6613131884623579  0.3404440395825502
  0.9172916003243332  0.9059257192199123  0.0093645769782586
  0.0756258472008373  0.8334933179365573  0.0771950144571353
  0.9975204581042703  0.9165867012562203  0.4215508062226378
  0.9124740639877726  0.5792405390329961  0.6653954233748797
  0.0797804115745430  0.7405788775442647  0.9854699024869312
  0.9243719035027469  0.0089710328476846  0.2515432711245110
  0.9868995475594278  0.8340471396036899  0.1686234736104068
  0.7552570633249680  0.7483535271315337  0.8299166942201244
  0.1638860151908359  0.5814717465201709  0.5840100974514482
  0.2463690511862412  0.7469801644278156  0.5025151666129749
  0.6649322901319542  0.0957459356525690  0.5802467540989760
  0.9933544309808447  0.6532831995764069  0.1692156101583910
  0.1634142779026861  0.3326529027169107  0.6654446661376200
  0.0783440245989837  0.7386613969517222  0.8307934066189663
  0.1625449479799432  0.0939260347801543  0.4224017537077080
  0.0790600794189865  0.6604355475844841  0.9141340464946905
  0.0783689020810217  0.8293590436561736  0.9158366924258741
  0.0673394252414444  0.9170147617174583  0.3365176264165546
  0.0771054464196747  0.4966514157213089  0.7549861007379607
  0.8343757301900515  0.9170984721876829  0.2484961084081057
  0.0778086948331182  0.7450157264025539  0.1678213701401148
  0.0790443722456377  0.2537465256935474  0.6672792762097679
  0.1652214717713946  0.4218190998522693  0.0868036209051644
  0.1595602730557079  0.8263207939850783  0.3392265391590288
  0.2466159137245982  0.3249973048169434  0.4202120744689994
  0.9089860607414301  0.5825671523519578  0.9965349117994153
  0.1610073519568381  0.0049824103515694  0.3346047302146688
  0.2478922476919994  0.0874704141348347  0.6640298728545598
  0.6702161153654239  0.6623063102173603  0.3370800265852445
  0.4959358638838290  0.1738711759192449  0.9969508957967724
  0.6586589589191012  0.0025321766648520  0.3417675420534582
  0.6654306201812209  0.0087463849123654  0.9875713347186229
  0.1633823888076924  0.9223299532740824  0.0784096187798497
  0.3412062504520060  0.2572134025587705  0.9138076856348083
  0.1659210615813489  0.8312045194133006  0.8290688400085844
  0.1647983961667244  0.5742611776818746  0.0840595392171098
  0.9944998062307726  0.2523741762559913  0.2535509707395578
  0.9137879415713600  0.3344038983626166  0.4175040790875136
  0.9155295707865307  0.1712257220040868  0.4180381611470018
  0.2467744839912712  0.3341991935591235  0.2516231160573883
  0.9846334661487799  0.4193185352311837  0.0841691289442521
  0.3302536602247566  0.6635080548448739  0.6550768201901366
  0.4162052469569438  0.4145125511739623  0.5026803299060663
  0.8380032110213105  0.0022682885242319  0.3388632070795567
  0.5788295157351172  0.9171018491398936  0.6636192235360531
  0.4963263629147883  0.5844998265857860  0.9187298390541423
  0.4956550685451186  0.4064789113167714  0.9160066791599077
  0.5784353623198327  0.8351443945602698  0.0879887586294518
  0.2474750719763890  0.2569664886549980  0.1730698005487830
  0.7467462793954037  0.0036141570252464  0.2510888601194319
  0.6580546408968547  0.9167118590328897  0.2509479192050458
  0.4955249144154092  0.5803938443434196  0.5811967035006508
  0.6655632471613097  0.4128184557626043  0.5823290269110603
  0.4971961331246947  0.4129438198839609  0.5825356550262735
  0.4156835280043051  0.2491659582506124  0.5004327488763217
  0.6652224343641577  0.4143380348527038  0.2527273885122813
  0.7476164762385171  0.7473910658072498  0.0068365742390998
  0.8284538063296787  0.0879545058464627  0.5803109904327040
  0.4975731458652955  0.8343030277280669  0.0023803843957722
  0.8312422316662809  0.1711313444860867  0.6645972409584459
  0.7470449231671598  0.4140656379513023  0.4999652710141173
  0.6659190656540113  0.1710347251812345  0.6642811895250123
  0.4943228728739692  0.9164485932217319  0.2524953306812816
  0.6649486511626974  0.2505113600042095  0.5814580036505389
  0.4944885491269125  0.6706153492011889  0.8318973501970410
  0.5853927827984977  0.6566439457557575  0.9189598810371353
  0.6671923900413457  0.1719909388400539  0.9991262512662525
  0.7473240120746154  0.4139347295830472  0.3352144364122906
  0.9146735191449658  0.7434878264435245  0.8275787386518382
  0.7475922291623992  0.3323953199579412  0.5819860604761276
  0.4135871830111775  0.0879533674334207  0.4998880311234580
  0.8311335634447790  0.3322097767859558  0.6639970096558359
  0.6656544737552889  0.2521019240476268  0.2531979038803382
  0.0802749145639218  0.9178650338379577  0.5040438092626353
  0.8322133601789993  0.1712345763424498  0.9980759936958175
  0.6634629176140627  0.1724765148067248  0.3361128419728314
  0.7469214042696055  0.7447936712247636  0.1710356543393734
  0.5812105403638453  0.1750114140648589  0.9126438815538876
  0.5783732508078309  0.9163975985829589  0.1701402961839014
  0.7489055013076588  0.1727017910019440  0.2520167143725598
  0.8300183807013212  0.8313865943291502  0.0021189369665273
  0.8320471370321574  0.2503643036063219  0.9141318658684519
  0.7493879492635993  0.4149413758191638  0.1730228465381569
  0.9191228026712615  0.0020184128532710  0.4176046699194830
  0.9975353967326317  0.9282372875302216  0.0897256246289927
  0.5782291864828375  0.7506311855416168  0.3352987662234810
  0.5802052801006640  0.9193698896533202  0.9990365153985084
  0.7504586580259662  0.1725094927865814  0.0845234965198526
  0.7483863587017913  0.3328508283319196  0.2521103159644862
  0.8342355426445021  0.9138371768598434  0.4245754498659229
  0.5806362850857150  0.0943132286902467  0.6647844081472790
  0.5815460683518190  0.8300263191466480  0.7407845009320511
  0.8297722061380295  0.8242475872112188  0.3405040767315677
  0.8326178164670049  0.8287143000050515  0.5012246391281662
  0.8309501562304870  0.9169606570268228  0.0846338601818085
  0.7496006845965588  0.0163399975395673  0.9109877361284072
  0.9125956721230596  0.0908903949112084  0.1675582360819341
  0.8337449346562609  0.0059630042968314  0.1621369517729148
  0.8305114398071729  0.4148084164802411  0.9144919682268330
  0.9948572586453067  0.3340420582737459  0.8314885244293660
  0.9117923146954192  0.4152016086617957  0.8312649014663313
  0.9115761122232965  0.0049870699057475  0.0842288537489523
  0.9142188051150512  0.8298645408174132  0.9179911858666355
  0.6664391933052366  0.9202023557434834  0.7531363408745357
  0.4985689223396627  0.2547686685438407  0.0851614348871405
  0.6655157169452590  0.0896469940339770  0.7477720968307888
  0.6600671194904703  0.9105577792896979  0.0888037492159305
  0.6642826216636307  0.3335432298446420  0.3350945184534836
  0.8336743808444589  0.9200876116930579  0.7497076298891610
  0.8243731620775816  0.0005249222262829  0.9946790052711100
  0.7484894522101055  0.0881573935284413  0.6643181331529096
  0.5792384214312327  0.1712512390053851  0.4172516961495756
  0.6602981909938642  0.0065595642383446  0.4914623065219141
  0.8437075297706373  0.9162637067563608  0.9167487195117077
  0.7497133668898386  0.0898059651265801  0.1689543286711418
  0.4944633007919835  0.8322349313256058  0.3370031950910717
  0.5833686743491572  0.9248365392040769  0.8322790720251975
  0.6682488528681547  0.2495104056219009  0.9140965476243788
  0.6659068001613975  0.7465374828585047  0.5799784009573109
  0.7505099243708316  0.4135805808642159  0.9966224085187698
  0.9125738387323047  0.3330036001438746  0.0834492578761687
  0.6642305014439064  0.3329057685054536  0.5000925862312706
  0.7495408208945954  0.2520512707388923  0.1688264770500225
  0.5816500712167416  0.4155336028107253  0.3357953312005056
  0.3299494651676710  0.0897567491090659  0.2543925967921030
  0.7503716442096713  0.4977742413369617  0.9165914181282571
  0.9940398703641460  0.7417614059363787  0.4252147075775425
  0.7497120424769078  0.3274242763233135  0.0844704324539027
  0.7504748935087504  0.2504602001550636  0.8301522333382731
  0.7543344136064006  0.0030362012698936  0.5769039788062419
  0.9161761548131782  0.8306309007790941  0.7419887930872794
  0.8338462103254474  0.0891473774448672  0.4184864588095283
  0.7498715907390681  0.0059856595376186  0.7477984533073722
  0.7496568096207386  0.3308238306238631  0.7460521230333849
  0.8315725324877196  0.0877327273681026  0.7477942800642944
  0.8332735107271760  0.9159181251364932  0.5748353881400573
  0.7504778487600672  0.6643780415574707  0.7451074079065430
  0.5808932579977548  0.8323165403966281  0.5802600073646641
  0.9967919934079874  0.1728105147422462  0.3363258178895449
  0.7500675035960025  0.0911913348045591  0.9973977868302548
  0.6658128084893417  0.3334488737221388  0.1700886755487528
  0.9162489054477444  0.8303418162383951  0.5813586117507925
  0.5789703196628625  0.9182306879011415  0.4974176104665930
  0.5819719206719458  0.0934809546169092  0.8309062330596679
  0.5818148856873583  0.0924064741537034  0.9895495333749718
  0.9116134372881058  0.9189465743080063  0.1670427228827900
  0.4954591265454061  0.0883820111687564  0.5824822361309197
  0.8322306177194499  0.1715421766863601  0.4992267751182173
  0.6642877322293064  0.4952599794531356  0.5008181010220010
  0.7446456100729753  0.9156839049201393  0.0115950829614299
  0.9152705731147903  0.0039778431560921  0.7468715751787666
  0.9112385694682188  0.5800347585613879  0.8305953819738447
  0.9128240277266115  0.6625870883324139  0.7452715009989048
  0.8312675630045605  0.4136950157797653  0.7480217723645620
  0.5037046406718809  0.9217238678345159  0.9118995992449547
  0.8319084494824338  0.3320397995738521  0.8317958666111892
  0.5827787061046698  0.0088520337318855  0.9094576124069185
  0.8310218032915836  0.0939265723523942  0.2537512844869688
  0.7483912475841922  0.0905108619524271  0.4985855975148039
  0.8236356632153660  0.8313159682140991  0.1709323459323773
  0.6619900252001337  0.0906431931648173  0.4175899297105041
  0.8327026683643798  0.3323706288129382  0.9985156148006583
  0.4877551613945239  0.8346466618637322  0.8285291654915303
  0.8284488873626177  0.5806877785053246  0.0840810857102601
  0.7488537322152661  0.1712123434186284  0.5816264166840536
  0.8337300600403745  0.0897865628003222  0.9126697709297666
  0.9175351362655096  0.9161778949131009  0.5009840976923643
  0.7524285734416373  0.9167490212478189  0.6614493791297961
  0.8343202205369382  0.0051817982600902  0.8298659225174740
  0.8306304643028886  0.2517335474371299  0.5819547246422976
  0.9136190459771024  0.2516051212587808  0.8312786753448277
  0.8327305000326880  0.3332347218293560  0.1686108886190776
  0.9138818089720098  0.2521544825867477  0.6660820002801020
  0.6634945665001705  0.8291638629064617  0.5000166190406041
  0.6651486121329280  0.0937343635367165  0.9111241625818909
  0.7492423962485061  0.8288859997314605  0.5795403181037964
  0.7470531525559163  0.3323395460942472  0.4175933811104795
  0.8274223197401415  0.6621368422420445  0.9997251111297253
  0.7499401658494066  0.9130419542588573  0.5006120863578412
  0.9107115393154472  0.4987117181164515  0.2539537593928716
  0.8283130355142093  0.5796883886862534  0.2550279709262593
  0.8335977898956919  0.7468066968920311  0.7451828482730982
  0.9125755549444888  0.4150232689026325  0.4995327312042482
  0.9111297961489609  0.4171012315804632  0.9967920166011481
  0.9146368731707084  0.9988822606553401  0.5823517516516536
  0.9130694767934597  0.3337251738676588  0.2526245778064232
  0.9134735509823725  0.1703691184015511  0.7476267719109864
  0.9151407472839872  0.0056857482984615  0.9092186256296039
  0.8313963670720413  0.0914551890569519  0.0826901276199991
  0.9138741880316688  0.2528704754286759  0.3364221419954140
  0.9983934659991609  0.0070570868558169  0.3359804923381753
  0.7514458112989457  0.8331880751596410  0.7415169689340172
  0.8309688651526994  0.2520101663966270  0.4179247159300550
  0.8309322502087503  0.4153135653336053  0.2535799073436864
  0.5009450226938382  0.0071761080636269  0.9875497449125128
  0.8329799340225577  0.1719154918357436  0.3366034039404455
  0.8305889639057252  0.3329152941533397  0.3359665162771736
  0.1624457372245301  0.3319291178269981  0.5030072056774674
  0.9947287738228668  0.1703137093214165  0.1688960584143418
  0.8314589058252714  0.2516596189542302  0.2531533803172536
  0.8293712846775712  0.4143256749635896  0.4178037107317226
  0.8328170157964864  0.2513068931822675  0.0824379223190453
  0.9126456240882740  0.4155230408421760  0.3365956507995160
  0.9147637438623765  0.0888918548845494  0.8280798792556656
  0.6665546597407640  0.2514790403087672  0.0841207485761484
  0.9878598061807445  0.9171980590314404  0.9153757615104481
  0.1634783108180870  0.2526560865943988  0.7470773884575640
  0.2489449647047125  0.1691843471614357  0.7455200326198529
  0.6739637850285566  0.5795770975936047  0.7442099809882058
  0.2480098855267702  0.3312595793689787  0.5835096009923653
  0.7483970314028613  0.4957667305559079  0.5815549656745722
  0.2466141540723314  0.3370730004363566  0.0878585781604391
  0.6650210499295889  0.5781683479898063  0.4193802963223840
  0.2498721907494197  0.4179004284791407  0.0047384255261518
  0.9143352130289348  0.1699918411845075  0.9136277701982303