C  Cr Ni
 1.0000000000000000
    21.1200000000000010    0.0000000000000000    0.0000000000000000
     0.0000000000000000   21.1200000000000010    0.0000000000000000
     0.0000000000000000    0.0000000000000000   21.1200000000000010
 C   Cr  Ni 
  69 259 605
Direct
  0.8302720816395417  0.1702770612083745  0.7445247797999065
  0.5780528524480010  0.5037964236449298  0.1713786437690837
  0.9003524553102076  0.0694563103160836  0.2569513345172784
  0.6512243951679449  0.0074422231243673  0.0978603388077949
  1.0014897935261569  0.4119957721868236  0.8338082152921321
  0.0838147154152182  0.0775189937802516  0.5854210680833115
  0.5880584612831029  0.4100833926390162  0.0721515403176184
  0.4109476072494800  0.1672673613506645 -0.0003170658006287
  0.8278577390526262  0.2501256013141105  0.3382550337484291
  0.0795711308980432  0.5909283937286526  0.2553860250714841
  0.9135052128113582  0.4167032666116042  0.7414256770077646
  0.5004131595774817  0.3438581877289466  0.2533183266873054
  0.6654147929284636  0.9134871052154470  0.6700903511262590
  0.8370251041850273  0.2604708877239795  0.0071174409043000
  0.7411933211429877  0.1711181910880169  0.0075024689522049
  0.5820446572554441  0.5027844940382933  0.6657556141543981
  0.7470533313381310  1.0019633400637176  0.0019991769774311
  0.4867647598525960  0.2553539234250194  0.8278824585166953
  1.0067756080830768  0.5057128651717190  0.7414698115822146
  0.4098735028550056  0.7461844078093464  0.9156690458022849
  1.0010379436592183  0.9144044088273037  0.6639099120816094
  0.4115341146439176  0.2487244181249703  0.2497964881407536
  0.4991851618882107  0.0827303111390454  0.6657493946666967
  0.3233775284053944  0.2525035805310449  0.3399975663130949
  0.7478365966996877  0.8192727551723644 -0.0041834166837219
  0.1720175897436827  0.4998798075954160  0.2574625611102871
  0.8396597529076456  1.0033614115799152 -0.0850199463706471
  0.0849349359108071  0.1697074648407948  0.4965601178382203
  0.6535647728191932  0.1685641929903306  0.9138756839171549
  0.9913123794844364  0.2512698882997940  0.1609139217866169
  0.9971842990987343  0.3417261053674007  0.2540094918416375
  0.0054453269695139  0.5949157349866890  0.8358983347510276
  0.9917191867947242  0.1616769381581512  0.2585349933761875
  0.4135152737022915  0.8356313198728075  0.8282141862761341
  0.5031790424363086  0.2527905495421940  0.1565442197268088
  0.4137797134956906  0.4185151888945843  0.5810704927197866
  0.8323389035830625 -0.0042624466592407  0.7431779492548874
  0.4120978095254240  0.9104373810613011  0.4178068136139206
  0.6529887108100776  0.3512433508940985  0.9169607010208760
  0.9266747107363119  0.1637876655629401  0.0051064768735429
  0.5779490855750834  0.9134315007556097  0.5795511504872409
  0.7425110228023163  0.3527780635318241  0.0103409499921326
  0.0863333439960334  0.1650755485102402  0.8307679223439084
  0.9272537858460035  0.2571181674508973  0.9087677778349788
  0.0813516662866033  0.4972600621747897  0.1669923029290910
  0.9127316495402654  0.2483627979111984  0.5822001614786141
  0.7485583408734247  0.9109831092180540  0.0958557636054237
  0.0879749196945608  0.4197918847863182  0.9187911125320646
  0.6538734339748650  0.9113296016788002 -0.0028346409596167
  0.0839402725929179  0.0694866788250161  0.2548445142945860
  0.8415070231913081  0.9109058705805512  0.0012029137786021
  0.5059081099828869  0.2460168238840056  0.3410567795351322
  0.6607468151570842  0.2563831186402389  0.8209623212338261
  0.1743318891977410  0.1639411030210112  0.2550944178802778
  0.9103013840095533  0.5063685086258973  0.8349902964539347
  0.0840165959443253  0.1605898583463890  0.1603414697792540
  0.4952897906206272  0.0783522601512623  0.1635225466737055
  0.6550426926972553 -0.0034349726287259 -0.0902013946377358
  0.1735726193120478  0.2539826704636780  0.1629589811842772
  0.5815847451368518  0.0770497125105042  0.2549931083850481
  0.6562592080389414  0.8218625461610658  0.0911587669386434
  0.0823252290098336  0.5889781906050785  0.0766081088506489
  0.0820512662554966  0.5831913694227665  0.4246220553381624
  0.8456489210352923  0.0088955726926001  0.1002602095550019
  0.4071140515428730  0.0813100775322997  0.5807798050185519
  0.7465711881558909  0.2595732953825858  0.9125158322481109
  0.6641220875521455  0.1752668563916743  0.2563247146618324
  0.7404410621347000  0.4231295433829653  0.7468262937418825
  0.9868289521451906  0.0648330690230474  0.1543965808560375
  0.0818364598892205  0.7506668848662671  0.1675991041234308
  0.0803456947786168  0.0714234603877661  0.1645829678852841
  0.2477731054228268 -0.0058595103409064  0.0839217931204808
  0.4108698763774254  0.1639013425917618  0.4194969292257570
  0.0831256406855156  0.0772003801875994  0.4951754959624299
  0.1678259839494581  0.5027575277783137  0.6617604378985703
  0.0815915613111729  0.9134346264676075  0.4982459297076763
  0.0005682414248854  0.5948059506536740  0.7461942200684716
  0.7469595523647474  0.8220772590678762  0.0883760867508562
 -0.0009310440211042  0.4159386318666338  0.5833746061724754
  0.3271396658056422  0.0781145519432060  0.9147904942314147
  0.1697550792584412  0.5893045564872624  0.2515063641499814
  0.7469649915668624  0.5123881560141245  0.7462338230090659
  0.4930244653168165  0.3349214029456867  0.6654580039378282
  0.7475774566513090  0.6694468780054159  0.7486989729553485
  0.0822133605867621  0.5881067158852968  0.1670355577987526
  0.8305972005995315  0.5060671456928679  0.1700297131254805
 -0.0010148764279961  0.5900561488622258  0.9239509363402649
  0.2516461845425593  0.4200307255482651  0.0006306701212465
 -0.0044088836081957  0.4205095581345877  0.0816960649082419
  0.5799882804751991  0.3355398634816042  0.5780224359541101
  0.7477616922575802 -0.0041984630300769  0.4183622337553555
  0.4946140554564666  0.2507865827614263  0.7382135213642244
  0.7450283494625488  0.4205681840198466  0.6564551392851242
  0.7463892480366783  0.7471029549034136  0.8309471169609740
  0.9156231154909201  0.7513054547470305  0.8325815834063343
  0.7425739969987356 -0.0006644138276368  0.7482142827165701
  0.5828932601852916  0.4232287720612798  0.3387431754750773
  0.5878881558694306  0.0839492534540364  0.6635410807705534
  0.9147808400878840  0.5861042149756776  0.3366486046002545
  0.5637194115953613  0.1660668857434182  0.9134749742230954
  0.5789653131405876  0.5864636960566662  0.8318543416336088
  0.2483335864409959  0.5831527354596237  0.5025034737817313
  0.4967398112258062  0.6675818402098247  0.5001477042660656
  0.1654862394679690  0.7513265804354666  0.7472534709102944
  0.3318126252238546  0.5876784945303213  0.2515182267424698
  0.4914381473773808  0.5032750122033325  0.6666063827058132
  0.4143999601497379  0.7480983998043053  0.1678225193094529
  0.2478986258287288  0.7480627214264192  0.3338366072654566
  0.4124823894956014  0.8350494725893913  0.9184487459011998
  0.4125744349783029  0.8321479934269683  0.7393770267782815
  0.2487132198703907  0.9121120408062432  0.3333306720818058
  0.7483434626050044  0.4223578634358944  0.3384630716454559
  0.6628601899940822  0.0827822381896659  0.5794795911411293
  0.5758129177511838  0.4132237495000099  0.6623783442381024
  0.4093597477598627  0.1651104723508792  0.9100687420204149
  0.8301746058925331  0.5888238848125222  0.5820181980024166
  0.6678278323483265  0.9115131838479870  0.5795074936487833
  0.6537265338033530  0.3452297688951298  0.0073420851293526
  0.4965035922538941  0.1655429711904270  0.5011820615944367
  0.6684475524323870  0.5060107267729260  0.1689961876835583
  0.6700495023571827  0.0815713079906404  0.2580683889108498
  0.7466133476105115 -0.0001399189219478  0.9112027679767158
 -0.0081461320981385  0.5035450338125690  0.1654114894785521
  0.8316943567529055  0.3403845867959412  0.1717657042720699
  0.6572769292569025  0.2591032010165044  0.9126455194235745
  0.5678358792861629  0.8289962788705441  0.0851698847684653
  0.7457586487393809  0.1692992317534645  0.9158913316189670
  0.5764715200060125  0.9146365025426377  0.6691820906173271
  0.4897555250599547  0.9117889627617886  0.5821814071987810
  0.4970137767602745  0.0822001548525266  0.5763345663555381
  0.7444374573168299  0.3340122083236151  0.7429476533713596
  0.9226957619586252 -0.0024080113850412  0.7482217892932845
  0.7479297346005905  0.6690937846706828  0.5803250791041015
  0.8381065816329257  0.9150334154155951  0.0910440734771496
 -0.0055607714579531  0.1649809119639258  0.4973560018635219
 -0.0040430920089826  0.1663271693109457  0.3485579405497091
  0.4993773939388125  0.2536826608667605  0.2513931140428620
  0.6648087385929348  0.1659895921755959  0.3467942889417293
  0.5804555356379060 -0.0032195483300895  0.4201144373247297
  0.2481960273167755  0.5855156260117912 -0.0006895498382297
  0.4117131554000582  0.7493493476580994  0.6672088913227097
  0.0834112805819427  0.4995873059827062  0.0788970911762185
  0.1665715835230540  0.9141400896308581  0.9164433554559025
  0.1713072271979634  0.0760871630261636  0.9149535455415235
  0.1658445746297303  0.4180115527047498  0.4201428035485039
  0.1737841315185415  0.0793796707299360  0.5833394569672072
 -0.0023890113462652  0.0034985302538926  0.6651866696119987
  0.6652641397860918  0.5848717281744268  0.2554261709009534
  0.6636938623375301  0.2533091404797260  0.4214704853896769
  0.3304065699350852  0.4187469001710193  0.4184915938736449
  0.0027802027075612  0.4156783987542750  0.7442520005693838
 -0.0016662398135942  0.4196959174276755  0.9229459008949241
  0.9116715587399115  0.4181419293144680  0.8312475530437213
  0.9204958389946410  0.1656021998640131  0.7479608066873528
  0.0812302985912689  0.5001328132032650  0.2556935652385423
 -0.0023269397511413  0.2515479226901867  0.4171115288480594
 -0.0030401404123876  0.5880076623365806  0.5819982887605568
 -0.0099340917653480  0.5850077427912511  0.2515603618039557
  0.8273231182141016 -0.0078851713343233  0.1864116155050183
  0.3243045804337402  0.2509779036385434  0.2511062642937339
  0.1672692699161071  0.4110888591518878  0.2539290067259582
  0.9146383929217400  0.5074975513841485  0.7431274036952006
  0.8324504782454978  0.5098327536960835 -0.0001950954417597
  0.0023381840376143  0.8302660911816846  0.0004158025941406
  0.4912325105169579  0.1635945143262858  0.8286461571574628
 -0.0056202691821324  0.0821219034495529  0.5792855285602894
 -0.0023048351936317  0.2510614723885594  0.2531287464858543
  0.1685376452116243  0.7527380281243323  0.9162404521249548
  0.9151176099095349  0.7504859451354320  0.1695659511167230
  0.0858907338634684  0.9088462654520739  0.1672553805286930
  0.9153442824736657  0.7509092370223709  0.6642377610833923
  0.8330506572664184  0.9061670948579884  0.7494282948306178
 -0.0017865462693403  0.8293203911966787  0.3378373393535320
  0.8309518630747242 -0.0012685391722227  0.6545702347539022
  0.1700632793517934  0.2515826303345599  0.0726016316539706
  0.8337190737708999  0.9129228759378687  0.9112237507171721
  0.0824894255714762 -0.0087366190657655  0.4188529162691221
  0.0826328920115923  0.8303235919736225  0.4199180034020923
  0.8301459224609428  0.9106106989957194  0.5815483988785179
  0.1711469594179821  0.5862213407649519  0.9159024225480981
  0.8307589096690339  0.8299810208394024  0.6644113386536162
  0.2463952600704433 -0.0039245992777467  0.9164852180106768
  0.7475657906677160  0.6663386437622086  0.4187252950586414
  0.3304171627487476  0.4210179142791638  0.0793791313674310
  0.4087164318006319  0.0753635584283973 -0.0024317018473402
  0.0012478909437731  0.5042921012149099  0.8325846735834681
  0.1662273006782872  0.5005251253552641  0.5017297546301733
  0.9354310402642008 -0.0014904058234285  0.0872352149615451
  0.1721430168021823  0.5008280443023125  0.1657850854055272
  0.5807271867865639  0.7481647115936495  0.8328094973437300
  0.8351966491499343  0.2532692340214039  0.9134183591819465
  0.2481379719628453  0.1668446587098684  0.7471084036698988
  0.9147692021511460  0.2507384434783986  0.8209753322926835
  0.6654396918558595  0.8233262092001438  0.6657970523092077
  0.0023920156271647 -0.0016728404031762  0.8311777896969330
  0.0836313268461301  0.2511795353608245  0.1648668207153001
  0.7467506463312600  0.8277983686343232  0.5804706058520432
  0.5001470624487370  0.1657892636746043 -0.0006819447385659
  0.9145345371448056  0.4187231161549828  0.6523136245550256
  0.8312376176948542  0.8277642941315355  0.3385039602407914
  0.5789554411520214  0.7462115535468187  0.4985374151631490
  0.4124505439286371  0.1724318514051837  0.5793029319058921
  0.8360072440445974  0.8229707869179634  0.0009126985568714
  0.4088736042553426  0.2501104573966835  0.6657921222239160
  0.0025354867515071  0.2515732193766209  0.5830611462973980
 -0.0047665498366274  0.3398483198061310  0.1637349918722813
  0.8338198729785828  0.1677188530924001 -0.0002240707962105
  0.7515862288209917  0.1703715899740611  0.2536414805104365
  0.4105955324760401  0.5851538762139218  0.8316317987485597
  0.0007167973780468  0.3325011072882504  0.6619200750754219
  0.2453827345416095  0.8343893037284478  0.9158358735805155
  0.2495779263617107  0.7487986805828070  0.1666083876815398
 -0.0073349966900862  0.0724053508117220  0.2502277187964971
  0.3281647882201638 -0.0057416063652134  0.3346091865292207
  0.6606475440801218  0.9077690896055770  0.2617174525879933
  0.8270576643808282  0.2525358037807210  0.4264457185792652
  0.9201140491937095  0.1641358788033173  0.9128439363454758
 -0.0077269149576870  0.5859305819975976  0.0858310841780246
  0.9141233363787928  0.5946090146070523  0.8327266026720808
  0.6579034866174791  0.0002760674211397  0.0024124582792139
  0.3311792412715299  0.1602903712623771  0.3397201092856935
  0.8235869893696254  0.2516714773387055  0.5808697819810547
  0.8983142324045911  0.0755079857578423  0.1665397359434126
  0.2468499260353929  0.5834720063061913  0.6640192347367778
  0.4128589804839583  0.8274037188122055  0.2517372213487121
  0.2486831335532313  0.8312658245535013  0.0847358519510527
  0.4148056023390617  0.7476182829507130  0.5008587474430504
  0.0862919862694285  0.6703975460202045  0.7472924125644065
  0.4116799531109073  0.5844494058260050  0.6648074637014816
  0.4149739157429077  0.3281657157035176  0.5825739760172479
  0.2495294836324930  0.6696521994068281  0.0853551889390184
  0.5849358759299319  0.0747914970393646  0.1644693968433653
  0.0840620267412813  0.1664047629989367  0.4086006353190605
  0.4941840451946807  0.6664276641574557  0.1691807196462407
  0.4093171830513039  0.3411010199067785  0.2497005788360725
  0.4102411424198626  0.2525566537162076  0.1606727942405195
  0.7475263561539175  0.9112862307564693  0.0024002431204881
  0.5794835061992002  0.5046766792428545  0.0797923371173569
  0.4063957630412143  0.1577687762397769  0.2532866827367646
  0.4120557793830420  0.7466871925620182  0.8269715599501932
  0.3290285150425705  0.6667199463456212  0.3347251635239309
  0.8318816423505688  0.7487686966759601  0.2559193716447680
  0.4953958728811170  0.0800655927300364  0.7541933570104747
  0.4087827589346308  0.0822065135139882  0.6704486469876062
  0.9030894113598815  0.1625140619612778  0.2548222658579001
  0.0817131342567960  0.6733411996362555  0.4197419176219400
  0.0898197672718990  0.2553432830441951  0.8284641385302635
  0.3286588039333504  0.4186656669874539  0.7483024123124888
  0.7472212418873609  0.7467438242403041  0.4980161475518604
  0.5807279212005426  0.9136316944668772  0.4907119386599495
  0.1718312130767466  0.3315047763515989  0.8305875756683749
  0.1727465504495421  0.1628396122234692  0.1647469927196479
  0.4891226252411737  0.5002118496131730  0.1634934972885460
  0.0060454607402343 -0.0029723719079572 -0.0025144816846360
  0.9064343899138428  0.3408391513929817  0.2527022302213884
  0.0839067439150254  0.1682651848187280  0.5854177433998613
  0.0898786632834166  0.2526564198649444 -0.0009536702901870
  0.9124208185943364 -0.0059200281158908  0.4197661262958207
  0.4917015732037612  0.5049638168120040 -0.0034489988301847
  0.0828909935111439  0.1621035279535727  0.2545068879597629
  0.8293098134402047  0.0804029783425742  0.5808732775559275
  0.1670347372236195  0.3340030077520561  0.6641081844320089
  0.3189395160120114  0.0809072406146893  0.5819988240755103
  0.0857673890863464  0.1671289321005517  0.7416065506069985
  0.9232732483156804  0.2531129404541234 -0.0015618181316305
  0.7437482844852074  0.1729605793840668  0.0960027215717645
  0.6582236364875400  0.9136865947921318  0.0885038223578844
  0.6641650105545004  0.5873877278776961  0.0848397964925086
  0.4919849132958947 -0.0118390545862265  0.1709795136608807
  0.5768400744799155  0.7447164870802270  0.1697577666190297
  0.5792048647538578  0.9117841466403280  0.3373527629048362
  0.6589760047780228  0.8239212168721680 -0.0006953771729148
  0.6637525222785234  0.8290518352577035  0.3364244420756443
  0.2476445934119207  0.7485673300179833  0.5008326819918375
  0.2449706615283274  0.7507704504625794  0.6662258361648276
  0.7472398368946245  0.0006811264082248  0.0924517484483076
  0.4937023651866412  0.6653324029251290 -0.0007698931259861
  0.4115084466559473  0.6580453906675640  0.9143991926120153
  0.5800027611972063  0.5919923682416081  0.6648807382011674
  0.4138186432940805  0.2499786612921452  0.3406297460096208
  0.7482060383198907  0.5124224983178592  0.9153205696515306
  0.6747881134730188  0.4282181833884174  0.0868898612817270
  0.8337996591438709  0.6679508694750135  0.0009120585312015
  0.4056376994111568  0.0784793451909631  0.1667550250109367
  0.6636369850367354  0.7467958326578259  0.2563419433628110
  0.7445086133057875  0.3485350842714549  0.9180985616716061
  0.4939014459395973  0.4211769144226101  0.0791351091859934
  0.3292967128062431  0.5864197210445858  0.5828549704275441
  0.6515427201232902  0.1724702406279012  0.0031690258700799
  0.4094241181548151  0.3381737402849596  0.9129728637735953
  0.7470839518980629  0.4221797841455284  0.4995091770327890
  0.4136364893695448  0.7476704338253407  0.0042166467179141
  0.5028251826452551  0.4202651926429178  0.5794419888067207
  0.8298076593944433  0.4223847290635323  0.4188309663592943
 -0.0009825057027006  0.8247249947053444  0.6635917156412783
  0.4917733842357784  0.3431737530097022  0.1638754324865317
  0.4136828938719167  0.4175531984979701  0.6711030517653261
  0.4960842254988055  0.6647621569273383  0.3347100082256151
  0.6606210607577986  0.3453509228489531  0.8264262691490066
  0.2453458334625401  0.5850944481541378  0.8315632265659503
  0.0823532082069320  0.6775200634747349  0.0839320474778000
  0.9138468836914376  0.4199856362677490  0.5008020781347454
  0.2499953381477213  0.2511995911850061 -0.0020565448629891
  0.8330883434275378  0.0928640702782934  0.9131193080128200
 -0.0028607699627332  0.3363242018955961  0.3438122160105738
  0.4131500383699656 -0.0054964524017193  0.2504455675360141
  0.4926476288306633  0.2518968617321821  0.9173413115776826
  0.4919234736089871  0.0789369666309143  0.2547608370324764
  0.2448814147469371  0.8309673664001911  0.7461501070505532
  0.2477381405507957  0.9127359006144021  0.5011002742452151
  0.0007483552956698  0.8288704318201883  0.8326696675703003
  0.4932266139747722  0.8284706359347227 -0.0016211160998588
  0.6603693042730234  0.1663344955245142  0.8246355580975483
  0.4134458472061393  0.5045443585389288  0.4179895025536493
  0.6597799438345789  0.7337380665023501  0.0857827190344339
  0.4098745605940209  0.5053602802607078  0.9128494286543024
  0.5827092319450861  0.4148737922200429  0.1655271419205597
  0.1683264920567135  0.2538769401800792  0.2523211632944108
  0.4939835557953159  0.1737253692096384  0.6605809800054236
  0.1679240859889475  0.5844719776656906  0.5824497171708430
  0.7472235539422096  0.2603352031881911  0.0039519740092113
  0.3254552478486183  0.4166627261316875  0.5830219595336574
 -0.0048313767642358  0.1613244138441921  0.1678812988566516
  0.4110691213818848 -0.0027564724248554  0.7463102353831056
  0.8361171102938916  0.0003654331815158  0.0054298542228904
  0.4128275563764902  0.8213686173883868  0.4180205977251465
  0.4112523937136189 -0.0008864686952855  0.4173725254121494
  0.1724400937292137  0.0734530068305421  0.2520537255847662
  0.0822364973213796  0.6679323294268855  0.5838551978982612
  0.1704869209268530  0.5866745162498689  0.0834976397782767
  0.1675578657465877  0.6699188502507402  0.8317205850521158
  0.9156918555054288  0.6693933255977947  0.0853161161515700
  0.0001927017355611  0.6712053579284784  0.0011733594441545
  0.0853651069998031  0.5066819431038524  0.9167665807401262
  0.0833635462261339  0.8297462580379276  0.2524077046570896
  0.1668435952558265  0.6696113547116055  0.1671613453971969
 -0.0022024060062501  0.7492853900023930  0.4186647731055705
 -0.0015652060042606  0.8309576289452664  0.4988195598721562
 -0.0030839384412380  0.6691236818044451  0.1686493661326931
  0.3222733303227431  0.7506104911294069  0.9158159000248238
  0.1672040853716609  0.7507144461792776  0.0841679580366346
 -0.0007721501633821  0.6700097289223088  0.6634299712581218
  0.0816699065403372  0.7504175816770446  0.3367682781402692
  0.0917312432877202  0.5863845490974907  0.8327560032954073
  0.4946004172205280  0.1660452917518502  0.1691293866273525
  0.5803485097065674  0.1675733390885831  0.5801454345639951
 -0.0058643364548783  0.5854758128740130  0.4202657720435176
  0.4897102321842450  0.2521636191069684  0.0719169806765912
 -0.0021142426301243  0.6683340659795669  0.5010333275189538
  0.1643769985113630  0.8318788859110131  0.6635940103467383
  0.0832523862942003  0.7497929963730298  0.6647056478418247
  0.7482116107690567  0.3421459944132336  0.2533664398577237
  0.1656319269794916  0.9126077182545591  0.5813043658884904
  0.5775077087707707  0.1680165450719311  0.2558820964004377
  0.8327634403905170 -0.0000499892139856  0.8295799759730029
  0.0815239348648309  0.5846602692130711  0.5091046817231387
  0.1665591709857160 -0.0055661668302724  0.0006476627274110
  0.4933203983585834  0.1593713560202071  0.3384107329888184
  0.9157759801633777  0.5883360009022518  0.0014327361289278
  0.4977874057214627  0.3363388056978029  0.4985974850826150
  0.1660317139627456  0.7495123162043286  0.4185976216494139
  0.5770230406092576  0.0831516171044202  0.8298211761704134
  0.4982059543998026  0.2525142632354501  0.5788583762915103
  0.1692870684935746  0.5022785481722790  0.8317131165384537
  0.1658660671228230  0.8332156640794746  0.8321289933549522
  0.0820847827172907  0.9096343675739464  0.3384890529057807
  0.1657416582529727  0.6672049977610001  0.6640826636197544
 -0.0048361307068129  0.5023304795702924  0.3374345614343987
  0.1666041519461313  0.6692802221584881  0.3355959683219824
 -0.0022540499019538  0.5035164695003661  0.6558064093406665
 -0.0043773417055670  0.4192491884384661  0.4202332662086705
  0.3282561491463202  0.8313212780521201  0.6647397930280569
  0.2489869164571225  0.5025222574592928  0.9150399009530907
  0.2476846505844512 -0.0064042657365241  0.4175099560507013
  0.2502530731843610  0.0758379733152010  0.1659267889790581
  0.4942491068722067 -0.0043627176552982  0.3365298152483814
  0.1677933424501800  0.6702490008731130 -0.0002651911588087
  0.4092109970100860  0.2551844831105819 -0.0052555898316976
  0.1664905394258340  0.4184822767886354  0.5825831917103483
  0.3289828983372095  0.0768573219828249  0.0817649307794693
  0.0830023749322530  0.5848451983925945  0.6635570084145069
  0.2473481674621147  0.5016793878854825  0.7469707082104622
  0.7452846628907267  0.2519459499284098  0.6606052483456887
  0.4129074523593981  0.8280988695282124  0.5842882643306395
  0.3284432256546218  0.9139793144229272  0.7469711372391123
  0.4119997592206019  0.9150807902139827  0.6657574802880808
  0.3243713950390301  0.8332836847224194  0.8300879392338958
  0.3274404819357628 -0.0029292988208389  0.8310185998914414
  0.5012865361191126  0.8318751905071874  0.8306834096076331
  0.4119568155531741  0.9141889766164508 -0.0005436930852685
  0.4910508690312916  0.0808487165706849  0.9134068945771914
  0.4115141678707135 -0.0045123831263434  0.0844085016728029
  0.5815421378899713  0.2508928988442130  0.5001367418027943
  0.4911286916288540  0.3393460412097896 -0.0034430624819722
  0.6642943767527765  0.3376417205461522  0.5001452214516792
  0.1674656656672878  0.0766542380254449  0.0837605766993986
  0.6662994103783690 -0.0078161449974621  0.1819105706544115
 -0.0031364986998500  0.9131355499752877  0.5767517708672781
  0.3251719977415121  0.9104600687910859  0.4173203006780125
  0.9196177576207096  0.9125676381038169  0.8326164141751093
  0.0816684574865852  0.7495574090745608  0.5007581135290874
  0.5677251398806061  0.3387385051137317  0.9137461779889868
  0.3271390314394380  0.6671885007702136  0.8301978523139457
  0.0846535905479260  0.4171581691793413  0.6636515910868995
 -0.0029790885233097  0.5013443186345399  0.5032193547669424
  0.0850959125699738  0.2511813973876686  0.6649002772347975
  0.0861662029218939  0.3343150905767817  0.7458150290440971
  0.0930919643382112  0.5011981588404388  0.7469240911394873
 -0.0013034718558129  0.1657570144496727  0.8297132652029749
  0.0128857904156759  0.2497039150355601  0.9137742522556408
  0.0007951492612197  0.3365751766085331  0.0000585530887707
 -0.0013601519761272  0.5042988615523982  0.0005655167746526
  0.0859054442957874  0.4179056896329326  0.0050314455298947
 -0.0059857360102905  0.4271002539971124  0.2530657331775409
  0.9134144419948724  0.1611772007527429  0.5806425001393584
  0.0809281105470715  0.4174447368035639  0.3368731837122457
  0.0820288245588368  0.3363797765235126  0.4189396282616863
  0.9120384433549068  0.4207464446659718  0.3385374902207538
  0.0830391634970427  0.5000849981812596  0.5827505824368537
 -0.0022839880938685  0.3353485049616781  0.4997527699436556
  0.0836587151479967  0.3352169403820376  0.5825156639098771
  0.4129228584610564  0.5851922706517242  0.3344627927906410
  0.5769377209584838  0.2555591476410071 -0.0013707522414047
  0.9161924001666926  0.2484062942678063  0.6687357335989369
  0.5739443950912477  0.2522374644735300  0.8276292704546727
  0.9145527183985454  0.3303383694316308  0.7427295717607372
  0.5776342057732635  0.1667952925689994  0.7452066299510280
  0.8288604549339528  0.2533603328410247  0.0936430449205025
  0.5762029881465014  0.1713069741677450  0.0869071418714223
  0.2503122685485930  0.4998169918539047  0.5825293814021507
  0.5873905963269567  0.3422224598486143  0.2549666841500252
  0.3310416843743434  0.5037270131817690  0.1653749425809479
  0.4937553236016277 -0.0024322132030408  0.8302216641911921
  0.4137565959699728  0.6662632307147061  0.2514484364211519
  0.6625426330206011  0.0840344768809635  0.7463627949472680
  0.4109580232337984  0.5037376354421281  0.2514665901467302
  0.5784759428082917  0.2528146001353734  0.6608161866904436
  0.4967161706645782  0.5041787942074206  0.4985949430510321
  0.4960865425122155  0.5862124009818054  0.4174086574869533
  0.9151244790953130  0.2522289038209385  0.3370849380386817
  0.0834856099557603  0.9137854534222588  0.8318332857211413
 -0.0025983288033132  0.9120237303444767  0.4188492518138899
  0.0835991865615543  0.9125515808391533 -0.0006479426270106
  0.0919414326272915  0.1639542721685077  0.9171375605250922
 -0.0026299313144110  0.7511265548139425  0.2521815695671100
  0.1704877855668876  0.3364596946524666 -0.0017037984758665
  0.0034197744508046  0.2497027522103205  0.0751834824402378
  0.0908835273289502  0.1651656404011118  0.0735717723343447
  0.8247751866863965  0.0928552119023412  0.0837881804107821
  0.9123300547609302  0.9124213670215789  0.6635630646055214
  0.3304905129540230 -0.0070136294667515  0.1673369362505309
  0.0861481937607100  0.5883956891259893 -0.0081215246050504
  0.8301904036795748  0.4238146008061784  0.2543278515143281
  0.9173333903456450  0.8308790738805303  0.9156971131690205
  0.0004595543882713  0.7504838032028014  0.7477788744593193
  0.0844388849413266  0.7509504045169856 -0.0017928917011311
  0.0003690199752237  0.8307896839724572  0.1695074349530818
 -0.0002696402252557  0.9062969414697352  0.2572091849975439
  0.0835020646206585  0.8292122650513446  0.0840230466014184
  0.0863325219115546  0.0777199534644943  0.8311967306983568
  0.4974728932717206  0.2515598765189611  0.4253876596454655
  0.1672356034764542  0.0818100709872019  0.7486627923064720
  0.0023908261818404 -0.0199441189354735  0.1741031973757450
  0.0028956233249754  0.9127030189675641  0.9145382660693000
  0.9147120912951561  0.6687931388104686  0.5820520564919800
  0.0831703127030282  0.2531472741183154  0.3349069086411500
  0.7480493856940879  0.8295421605422423  0.9091731111355740
  0.6596500979952947  0.6635149593754902 -0.0018105908908189
  0.8327235923521058  0.5860812703539825  0.2539968717671183
  0.8273519021507738  0.1620759308589120  0.3413877700924695
  0.8154883929588709  0.0815210899233965  0.2585301058579258
  0.2595335615977127  0.1608977246964720  0.2514346276369387
  0.7475861794776344  0.9096630502177797  0.1824434493047913
  0.1690049325826652  0.1634953468365285  0.3409957417856646
  0.9130892068792434  0.5049242863642645  0.5806074273135973
  0.0874201638737117  0.9147536697483825  0.6667854150868378
  0.3288483513630731  0.5850397595090867  0.7478094273394280
  0.5790846042677092  0.5871658637584598  0.4991273519800328
  0.7453193665513946  0.3373002402234491  0.5799580527504946
  0.6622149507994493  0.3375617467228058  0.6601588980627987
  0.2481939667802353  0.6677528682366507  0.5833344808615184
  0.4128792287972101  0.5062157837968647  0.5811808147227925
  0.2459330621933599  0.7514605416418829  0.8304012205670804
  0.6615986919911289  0.4214595849519088  0.5803602846083151
  0.6684987000522439  0.5071895470753299  0.6617306969474966
  0.4952943029678912  0.4204880580389336  0.7485465015733541
  0.3275096982079223 -0.0033551964416560  0.6660313689697095