 C Cr Ni 
 1.0000000000000000
    21.1200000000000010    0.0000000000000000    0.0000000000000000
     0.0000000000000000   21.1200000000000010    0.0000000000000000
     0.0000000000000000    0.0000000000000000   21.1200000000000010
 C   Cr  Ni 
  69 259 605
Direct
  0.0748501565484478  0.5038264412291468  0.8380136090077699
  0.3322830962294683  0.5798741654674441  0.0050780199035896
  0.9198071063085674  0.4129573927945568  0.9114974736230826
  0.9908616245974333  0.7569499742093565  0.5031800251675276
  0.9178893702296258  0.5921394603358404  0.5789949594324748
  0.8233000907907315  0.4143195758405658  0.0067656753026990
  0.2604345696635707  0.5017869931860558  0.8441253460184993
  0.8254974951630657  0.5076974815310875  0.9105649738952675
  0.3432657658190399  0.9045875492563066  0.9895379004352288
  0.8243968165858364  0.4970298908650951  0.5829869373497591
  0.4289985881391923  0.6800638231233154  0.4838760280315951
  0.3353637135500573  0.5793912303735530  0.6765232508805801
  0.4961679861107267  0.8293963544539102  0.7413743328138890
  0.0720097574665495  0.0854944290381266  0.0797825119337263
  0.4251229662121521  0.5782348196745015  0.7628499038079645
  0.9121726910516650  0.4963652187277491  0.4919204686420900
  0.0750636042744242  0.1728547371719993  0.1742235374794646
  0.5816943644731479  0.7414049610809896  0.4209008693376349
  0.2487710691518994  0.0010402428350790  0.9901967877287429
  0.8246649417241897  0.3231939755803443  0.9140460694880256
  0.9097770610507937  0.9298805056377151  0.9173675107766021
  0.4085834471738732  0.9236202635620642  0.7420305578245077
  0.8213398749878746  0.7496468865533354  0.0082630804964692
  0.4974047258765793  0.3314803746421288  0.0933041119545933
  0.9193022215791256  0.5058085589810021  0.0089791338514683
  0.7493213862334968  0.3290968899276639  0.6643763653037570
  0.8186738678384115  0.8387540413314120  0.9141797564248867
  0.1521086539547200  0.9037871003257367  0.9865933433017990
  0.3434626978590254  0.7658158024296545  0.6818298184471846
  0.1689266406811199  0.4108942035049985  0.8346018710868097
  0.0863197209129085  0.6608404771831154  0.5032338884945287
  0.9926410796398973  0.7446763230233611  0.8256875571420953
  0.1797664873217293  0.4219213918874522  0.6467273306458796
  0.4961885160248394  0.8327523723111065  0.9295239285474570
  0.1678035207638330  0.1747149677663357  0.0813095166885856
  0.9931297303334513  0.3326531535733223  0.7517275157541689
  0.0007598305308846  0.8413105286186191  0.9228320781122892
  0.2420737845110581  0.6713761022676354  0.6745460233797627
  0.8299534861846586  0.6747377063242148  0.7514768951221529
  0.5892600113696035  0.8326237167180216  0.8352457303134991
  0.3321210613898815  0.6747263063534416  0.5797232428855141
  0.4995667555720198  0.9272683668305238  0.8336102862709005
  0.5830038442130424  0.9163178743451594  0.0863733099102734
  0.3320150838727973  0.5817933579206671  0.4871492740639403
  0.4862894472561964  0.8282435913558506  0.4279475020255293
  0.9951228638520567  0.7490525784045807  0.0156389903424274
  0.4989896904914229  0.4171521462279094  0.8309847176975730
  0.2431446022939449  0.4876251498888998  0.4918167367830877
  0.4998314754681102  0.3253115203074313  0.9153144385550067
  0.9887280451335434  0.7585121947539541  0.3196511075197427
  0.7432337025361607  0.5804972167114482  0.7494111082464326
  0.0884430779244981  0.7487852384691681  0.9234258413176653
  0.0805254686092043  0.3305584305457162  0.6568131120778276
  0.4035882282542383  0.8307799714264039  0.8374496989038664
  0.2307129188676004  0.5731937632141729  0.5883158158113919
  0.9271460849104158  0.5814621545000671  0.7657148692696139
  0.3377716540365682  0.4857331319057383  0.5813202707278445
  0.4979002821385047  0.8319998907109398  0.2458313430476226
  0.3372539928547853  0.9995768864037176  0.0874769591696289
  0.5802393160796721  0.9232912408122286  0.4169287260026917
  0.9901208801355023  0.6608172926548553  0.4098665623745568
  0.0901452628763396  0.8399126191529493  0.8295034909655991
  0.1618631148088458  0.9220060798266104  0.6645133234415302
  0.4277689817353498  0.5818114126022543  0.5789852694431780
  0.1613688907480671  0.9948264354838966  0.0852538782241825
  0.9900191265932958  0.6560312717128823  0.9259121957691557
  0.1774695874099356  0.5137665901760498  0.7392814603791326
  0.0860836433534771  0.7561386983890507  0.4094118759641772
  0.9179986086929672  0.3211320639130801  0.0070123725423763
  0.6635786025338428  0.1629335829851560  0.0038604660753009
  0.4063483315370591  0.8319657145526482  0.7462735476787277
  0.4140012347943606  0.0146006995076667  0.7449811996794528
  0.6626977711372216  0.4122071431895121  0.5771464026243009
  0.3332477097365580  0.4902893669955228  0.0059204653726171
  0.7471492280497684  0.0052736617058425  0.7471962625555711
  0.4102176626158682  0.9231050623304060  0.8319634964851960
  0.5795822177620453  0.0116795442659671  0.4163878866718189
  0.6691599800670393  0.9180913108544396  0.4175924917065201
  0.3311774341037404  0.0838644499982928  0.2518298749424948
  0.5800381133541556  0.0835901552001822  0.1714061961956402
  0.4989066505904823  0.3287498237792224  0.0038426500582056
  0.4996438430972188  0.1664243944468508  0.8303583445623969
  0.1626969754353884  0.0035843630185544  0.4956046958316745
  0.5814470989552573  0.4974647346499226  0.2508795650217484
  0.2509521893765235  0.9251782153472689  0.6619543712469410
  0.5839918429178366  0.2475190963279209  0.6630442631638593
  0.5853286760677665  0.4934336292292511  0.5785658369680353
  0.4990933383603099  0.9211882946565556  0.7423431150159112
  0.5875263762152737  0.3290918407161845  0.0864527210219621
  0.0774386749049130  0.0814979116169305  0.1732492274216517
  0.1650801097304632  0.8309768461217810  0.6641404434322865
  0.1706203490314284  0.4176387243386690  0.7411015197085672
  0.2426692176549197  0.6658032062686131  0.5820656976455884
  0.9956707354139357  0.0830882530419855  0.4151910748043391
  0.9962249029506762  0.8374959398309705  0.8313787608503702
  0.5800769175332531  0.1649072587891142  0.2532076576847468
  0.0800941187567566  0.9208598485473415  0.4973540717823375
  0.8288384105597035  0.1630252481820174  0.8308336604790156
  0.5002944264614895  0.0103139793259895  0.0010934780947767
  0.5840792451539506  0.9203749348177780  0.5077545671970199
  0.5019981541582215  0.7412749751452699  0.7509689818336346
  0.2479591291387179  0.1673811296972537  0.5783961310090217
  0.5130155297713067  0.5838885485550391  0.7509614315242854
  0.5000061520405319  0.5806559283762580  0.4099888747342473
  0.4105353553758235  0.4080697162815152  0.8367700005520853
  0.4287695057250572  0.7490081712223059  0.6638932863171502
  0.7443584970716752  0.3296551433977628  0.7531989648892948
  0.4066038336093846  0.8390202468116119  0.9277072415069362
  0.2491018849526911  0.6646523478015111  0.9229183073666541
  0.1754205293684345  0.7545764566403540  0.4116633551310649
  0.3334532676431006  0.7446113198862186  0.0916499664610526
  0.4144133799148552  0.0877880615059764  0.6615038045232723
  0.3318401225041149  0.0010715880081739  0.1759618176392830
  0.2475490647560564  0.0901826465516001  0.6607760074969391
  0.4166233278703080  0.2485401549412914  0.6631232345626027
  0.4989635608651406  0.6619212197902186  0.3294861107148457
  0.4987095787862931  0.1668301805789907  0.4972229672975818
  0.2483979999283571  0.9104580197442268  0.0002912515462098
  0.3327954619725861  0.9101353054673686  0.0839435663661514
  0.1646803573953688  0.9224888151317627  0.7545718890742718
  0.0813442000045546  0.7511325246274619  0.3202616780716135
  0.5887054249962320  0.9239098033428503  0.8320653255189071
  0.1642007614061422  0.9076885452409994  0.0831764952907240
  0.0853144248936374  0.7454163428705253  0.0133178354884201
  0.0831698244924508  0.7498481500235651  0.8340516526684152
  0.2464519040529931  0.5807125284671758  0.6763976390120623
  0.4218873733054578  0.5847165332114833  0.4897692645805133
  0.3339222104708044  0.6711824198739650  0.4914514680612054
  0.0825037157174879  0.6637908764890785  0.2495826501020040
  0.4981106240077817  0.3301186662472489  0.1796164057209751
  0.6641007127660530  0.6681723737499980  0.6647992450984540
  0.2479057234453271  0.0934700382735261  0.8309175028647029
  0.6633222082119675  0.3307430517793767  0.3335337044490015
  0.4086963657860726  0.8348999819497493  0.2513515861041438
  0.2476860543770756  0.8357623878314578  0.2491894682211774
  0.4210533030341822  0.5855030140168869  0.8505634118822550
  0.9827556281145963  0.0840860189088395  0.0868162660494440
  0.2492756020333145  0.7607554788815349  0.6667511612736794
  0.1631851008247801  0.0016253344569754  0.1748135787146833
  0.5837543798097427  0.0860719618321277  0.8324128828870265
  0.0793484573070920  0.0879737951692330  0.8314134762318183
  0.4138235216503485  0.9258235983463025  0.6528187706959058
  0.2425247394734164  0.5794202652112146  0.4963922742873373
  0.4126660501935798  0.0837109130659865  0.3343007588192463
  0.3337817835411740  0.4922018247433437  0.4924138776004612
  0.3382307699532094  0.3221854089567973  0.6642920905008880
  0.3326457194657206  0.2480507142990006  0.4137995453121998
  0.4145473305680452  0.4144723094227685  0.1703491150378259
  0.4145773779909163  0.4936266282936156  0.2497795611650300
  0.0899277081069699  0.8398353370269265  0.9217092905027817
  0.8387193617925883  0.3292500597741376  0.6631853356228868
  0.5801237012195205  0.0052966561222823  0.2530793984163477
  0.4114235122707792  0.9188486528133568  0.3327297625517774
  0.4926072765059640  0.8327804018453312  0.3354723560324493
  0.5861495806787347  0.8375199012950729  0.7446560686752446
  0.9116184958248452  0.3288408479804188  0.2512351523421247
  0.7476238323230266  0.0047413662566695  0.5809008333390887
  0.5001549433907675  0.3247988437012953  0.8279142573653397
  0.4970457522011253  0.8359079201464383  0.8369888040990948
  0.4921863142095893  0.7390940116636788  0.4176683009390446
  0.3337422244418687  0.6714240502203437  0.6693776107823085
  0.4996811286845885  0.5812209751036147  0.2515915037138418
  0.4988755054608499  0.0055335010942783  0.1728140895643906
  0.7458844213868947  0.7528940994206532  0.4999656197306172
  0.9943197421619306  0.8469078866488383  0.4978922267571388
  0.4220970175687907  0.6715007320283072  0.5787998513375898
  0.7445412019942802  0.4129991848326869  0.1698453787311988
  0.2485114827786528  0.4945537371356956  0.0877261876612523
  0.8260005605498336  0.1649806982987464  0.0035146397846387
  0.0731360305538677  0.9225925405867318  0.6634561492625720
  0.9100653633532949  0.8392666555748310  0.9193068753577929
  0.9050303286360121  0.3269276598083075  0.7487668531293882
  0.9147422148307954  0.3244397340521830  0.9168417168956513
  0.8276268442767747  0.4145898653653536  0.9159350258879269
  0.9125566251863080  0.5803807057165138  0.1732033028610319
  0.7419855306028271  0.5802094669952065  0.8400506145028258
  0.9184782377399738  0.6726432315627878  0.7478461837733518
  0.7442347266187899  0.8388054035916324  0.7449028166669922
  0.9131104154085719  0.0033547163583847  0.5804815970969756
  0.9012314440793672  0.7557070469686172  0.4976493731974519
  0.5862803802736366  0.8321575837632327  0.2518796133182701
  0.8312135375797025  0.1658052798806051  0.6626931476503809
  0.0723029999390629  0.9969144660949442  0.0877180324084706
  0.9101390964777314  0.1680343495774836  0.0867830072882072
  0.7315895725790886  0.7506881195479349  0.0071352327343911
  0.8268086853362858  0.5035178857133710  0.0048288094130935
  0.9107265633877394  0.2452420500177562  0.6618841255520483
  0.8281835638735783  0.8399177908356676  0.6657704651179757
  0.7447379050555185  0.8341933707945749  0.2523960856090233
  0.9989824045497852  0.4935394250687580  0.1715619554407747
  0.9146764462265553  0.5008863024068364  0.9194563799494310
  0.9100825163047518  0.5872048696946701  0.4905759194182908
  0.9143550006080858  0.5001694319336615  0.5808528015440453
  0.8227310999877547  0.4986649633090596  0.4921776674659565
  0.8248243159548472  0.6666110012447174  0.3298522765700420
  0.9108840844314200  0.8356354944207667  0.2513061204663941
  0.9131881544818989  0.0057271597678404  0.7465163541886132
  0.9113207203681774  0.1663697416377012  0.2550144722969546
  0.4248742895526618  0.5821842157675264  0.6688867564358162
  0.1545077116242697  0.4964856720805356  0.4903531254624823
  0.8269255805997058  0.4122743583825503  0.0965653843027092
  0.4984234643993021  0.2411333513503919  0.0867745581962663
  0.7335664551551738  0.4131629930875842  0.0045862699563687
  0.4982407924789349  0.2367579071771924  0.9182170300577834
  0.5805939581682550  0.2476083370289098  0.4961642841524917
  0.8257751462239612  0.3251132316078713  0.0045311227311419
  0.7466176621527314  0.2484414179823661  0.3335005772611431
  0.4983133922126557  0.3311707238234159  0.3320692188693071
  0.6630226561004409  0.4137849710593857  0.9201875079543951
  0.7449519149024313  0.2467010744272813  0.1707537979381365
  0.4989859381872478  0.0160832342098788  0.8303254596102770
  0.7448086107650502  0.3297697714283124  0.5743542731079228
  0.8294275181790923  0.1646894020224698  0.4956606858985645
  0.0787027859895282  0.0903398595098895  0.6608705158978185
  0.8293794169651844  0.0846997453636862  0.4160364043270476
  0.3317254562118689  0.6639162198313990  0.1712168930844070
  0.5804396667251891  0.0849221677897847  0.3321262819912332
  0.8218484384641684  0.9275441956842069  0.9157661088518376
  0.5836209390782604  0.5831301271859328  0.8373940261525948
  0.5009388918285765  0.6650762422780955  0.0062654609097140
  0.9113851608914978  0.0010647644996617  0.2539823011852195
  0.7462092086420399  0.0039083690023371  0.0860391371399462
  0.8334844445689186  0.5846126560322568  0.7487393494669996
  0.6678482972378276  0.8379616947185149  0.6654957666647846
  0.4906879997242713  0.9192871114527956  0.4178067084041884
  0.5794652742860700  0.8324207921837361  0.4193139277581834
  0.4985417297220033  0.9263533964226343  0.5817794618360964
  0.6713051090783332  0.9226880300269623  0.0889498584507496
  0.5810357378517758  0.4981203095195183  0.0876296074456781
  0.5865140306238985  0.8356751778686308  0.9248210758732544
  0.7471583666332678  0.0832375521331383  0.3351770998256717
  0.6668571132319459  0.6631936136799914  0.3309978610578800
  0.3419634991176360  0.4904423081979751  0.6698893679461390
  0.6591691860819967  0.3299796161416547  0.6619423218450099
  0.0850037463220918  0.4120747050210168  0.0058565768351978
  0.8258053960258057  0.5882714761787851  0.5812539636405407
  0.7433377214491502  0.7508636365448319  0.1699740626758847
  0.0781689269214676  0.9199155438866713  0.1695302223294245
  0.9126593274586947  0.2320594530313831  0.0011386917551382
  0.1608282141487211  0.9979495483844570  0.9941772913179160
  0.1701382994386648  0.3297331012366883  0.6616226098753113
  0.1661482068617171  0.1674026340668532  0.1739470522669196
  0.2559469662437636  0.1676846579561868  0.0860474676531876
  0.2480153954900545  0.4842232563547490  0.5836023222787691
  0.7408691713680639  0.6703021267616941  0.7508803916111870
  0.8257673117381918  0.8402336469199402  0.0069914432796681
  0.5825301620350163  0.0861244504513087  0.0027206059728027
  0.9101441258932416  0.0032044381619955  0.0860506091827754
  0.2584732490404997  0.4100865308579363  0.8354350964985572
  0.2494743134905635  0.1672214029265620  0.9145999549365552
  0.1688347996620319  0.5010383683616713  0.8307055057091642
  0.3363994741136223  0.9998572302196391  0.9978426850244085
  0.9999010274174563  0.6601649744547038  0.0144364539101725
  0.5007815090914435  0.4153120335656906  0.9220336200837598
  0.3309582510312356  0.3299627902101744  0.0034600801623957
  0.4265704028677625  0.4923277384591849  0.5810309930672929
  0.5022605134020626  0.4095229578997222  0.7423865459835347
  0.6661472804151646  0.8389739277139211  0.5005995398612196
  0.4221801487688931  0.5824602680129453  0.0027936080373698
  0.3316723626715842  0.5798216704342081  0.5825222996484936
  0.8248845686361613  0.7494867461303441  0.0975394682440534
  0.6627417175214817  0.4979833840676630  0.8359094391661724
  0.1631319009172242  0.4124272172903787  0.4132340598867803
  0.7466255397282283  0.0026170167386552  0.2533203836533568
  0.3317432913849496  0.5809438888160817  0.0949046961828042
  0.9950605050640513  0.7528387093910708  0.4107277558851967
  0.9908616219372530  0.8376445255708752  0.0118956565324245
  0.0769442691752062  0.3273043390901462  0.5672149304189131
  0.9949454693431661  0.4125924797445941  0.4096610451012175
  0.6634821704382253  0.1639157311960583  0.8325932968082640
  0.9952573524668740  0.6665604519868020  0.3203253403857497
  0.9941395813274057  0.6669209861409869  0.4988077392191624
  0.1655850360369118  0.5777412412218634  0.0902597100500289
  0.0814355502350835  0.7546706381357734  0.4989225727402953
  0.0777117486813057  0.2410003474255142  0.6611058740230714
  0.2482479647713591  0.2478073211200123  0.4953396731225909
  0.9942718536208259  0.7492812806308695  0.1045559473370369
  0.1625358569869682  0.0842395052175175  0.0840171770591938
  0.9160868223678836  0.5860819157090186  0.6689003847140829
  0.6641526067448340  0.4122606062585021  0.4125937651402217
  0.9110019221703511  0.3304734334884262  0.0948404877703868
  0.0820959107856701  0.6645505537105802  0.4104391153810020
  0.0808771416410726  0.4944730522815007  0.2490018131010528
  0.2482829366027723  0.4939890919099942  0.2509241735627109
  0.0835915407727002  0.6583433126777032  0.9258767440740667
  0.3294206242832910  0.0044115415295489  0.4968024450167270
  0.0790188396503361  0.2447486166703893  0.4939316692219464
  0.9916698351223799  0.6554289225956579  0.8361060716995011
  0.1642258995378422  0.3309900485136886  0.0009685878025985
  0.0829819684053147  0.5006613273676058  0.7432240155414599
  0.1536939694205876  0.6755459424794499  0.6657318419193993
  0.9965343216680118  0.7491034750700688  0.9219998710324924
  0.7413215333578341  0.4919745526843706  0.7513073495602285
  0.0004762189078072  0.4928388934696330  0.4889284174581544
  0.5833341258782102  0.0872590617927147  0.6633578175890822
  0.3306597256028135  0.2497196861618753  0.2535135840723774
  0.9982361602309208  0.9294859154492495  0.9131018579000342
  0.2479858824356149  0.6645613420832333  0.2493462027474216
  0.9950958088888618  0.3283877502354417  0.4939709150083617
  0.2476089465181427  0.2481698131742874  0.3326655618482743
  0.7407382322793998  0.5832583745016928  0.0072087165371354
  0.8291490230398003  0.3291849675001975  0.4947038008737686
  0.9151535888066402  0.4129658133688701  0.0050749728081683
  0.0099278409893541  0.4187713639716655  0.9163842770365160
  0.8219415419231106  0.7502598393874232  0.9188200332258500
  0.9965014117892826  0.0849905272822436  0.5794927250383513
  0.9900464495339673  0.3292491851850561  0.6609444145249209
  0.9097810708095860  0.4960499493263834  0.4034269949520623
  0.3335687512756844  0.0894849436146655  0.0854126844871605
  0.9113633959615266  0.4982179889360366  0.2502076560232661
  0.0779602376292899  0.9283596556449597  0.8277691518655359
  0.0786346217151836  0.1730235494533683  0.0849655526183054
  0.1628133637034215  0.0014560245044976  0.3321014521955519
  0.7447250028989832  0.5806785619606712  0.1705982202178190
  0.0796075434038468  0.2492570929020997  0.3340783952372690
  0.7355606561676908  0.4968069630197045  0.5797564884136978
  0.6630759154726137  0.7486718248098800  0.0905693587138694
  0.1655398537595390  0.2495989999548967  0.7464882195819684
  0.0822104879618717  0.5935215624487012  0.8358663382615434
  0.0836195484191132  0.3315673831604822  0.7476418450518928
  0.3193874173004749  0.9262963905685442  0.7458278074286392
  0.0832744535350817  0.4206842735325684  0.6592269296380451
  0.1612992856080023  0.5099345988640382  0.6513695581245453
  0.3260726367779241  0.6653262557333842  0.3242711010058777
  0.1639699548835446  0.0829816845544119  0.2522473081425584
  0.0795226923618099  0.4143683495715946  0.8291620889300421
  0.1658368694008918  0.3221818297960766  0.8314309302108313
  0.8273185541752832  0.9190813921031470  0.4162060168557986
  0.7437979898654354  0.7526123277363220  0.8340252475606322
  0.6629319402371369  0.1662602085608509  0.4971146747475286
  0.0684673816642044  0.9209877589353337  0.0054113639041936
  0.7469314475980650  0.8353957278101649  0.4164075967637599
  0.6638089389894378  0.0043993790896928  0.0029801970848604
  0.7463508358188825  0.9191530708823193  0.3331926229732965
  0.7476640821288445  0.9205517133091788  0.5001396973113287
  0.7453369217009858  0.7508866393143414  0.3321637724209749
  0.9116000010632442  0.0014394022026826  0.4164887624979346
  0.7467979912507836  0.2476284720153695  0.4963111450540167
  0.6652311436009992  0.2459718655923326  0.7483521510580062
  0.6648065655969194  0.0028366685308544  0.1719659511632035
  0.9949425541998650  0.7580465341091186  0.7397873894521173
  0.0089466756130412  0.5877198266618472  0.7416314008311128
  0.1742098042972310  0.7461748996400333  0.9235063452694315
  0.0829342678483787  0.4942833621631190  0.0897513171663641
  0.8269898280593843  0.8364342004861427  0.3324718691217210
  0.7456849745006702  0.5816054789192405  0.3312982723235102
  0.8277185381946301  0.2447414933780525  0.7494819509284366
  0.6680948378865669  0.7530095595897432  0.5842844590481366
  0.0757181677906637  0.6775640073959006  0.5876372412375485
  0.6642263668115422  0.1657963017937829  0.3335822786534767
  0.6651213504515805  0.0862614230025291  0.5808710011647755
  0.8256318983796928  0.6684609525719769  0.4977761826492489
  0.6627922557699337  0.3304478952423027  0.4953338729995747
  0.6636805130655828  0.7489328229554406  0.2518572819069210
  0.6650197291748939  0.9243827516258960  0.7455390194145836
  0.4162730913323389  0.2462339662259678  0.8327368296256061
  0.0797628289834518  0.7587955947291941  0.6648227054204463
  0.7342174699019850  0.8363994753066771  0.9236697472920969
  0.8298884259134388  0.0039999550692417  0.6638814970212602
  0.6637110606745406  0.5817560544855234  0.5792864200174728
  0.9963101745280788  0.0076625782049363  0.8284196272133230
  0.6647246472665317  0.4960531270444659  0.4942037523823794
  0.7458179696087401  0.4132344200521059  0.4946848033039028
  0.7461998688622963  0.1661355767202624  0.2531625648562869
  0.1665868663133310  0.7462100512878767  0.0909827354053006
  0.9936395121589705  0.8398524723149347  0.1688627221748370
  0.7474572159147276  0.8378102761502548  0.5829632802271815
  0.8259459767035320  0.9210569313124345  0.0884671377890586
  0.6740237684965049  0.8390277265939676  0.8313693033916831
  0.7394380718504399  0.6677680465877078  0.9220167722154191
  0.6641932414740700  0.8348667710778824  0.3346413547650706
  0.8260185785397719  0.8373617499554470  0.1713033886663242
  0.8293899884966437  0.0849095444233659  0.7458715086713456
  0.9128650342167305  0.0832101384697957  0.4973786463422392
  0.8289584074571875  0.9217616176989238  0.5824771939435733
  0.6635902458291905  0.2474629783760826  0.2523559637023069
  0.7471755916658758  0.0022443625389567  0.4168903654982206
  0.5809909220427677  0.6643081360999489  0.0890382727757122
  0.9931653672491375  0.0829392603861621  0.2531395336555854
  0.5814975590360452  0.0058644662218538  0.7461786498554169
  0.8287834626418107  0.0010050237247494  0.3344846393395104
  0.6638043480504381  0.1661404919904138  0.6633861342892660
  0.7434548658090369  0.3286253546536405  0.0884718997775649
  0.9929732882086425  0.7597515867423831  0.5894653253004221
  0.7385667186194425  0.3282240048279115  0.9175897845405714
  0.6631500956871864  0.3272227710016995  0.0046546479822277
  0.7458131340700301  0.2452617291163206  0.8330502600548221
  0.8287054433564799  0.1656248976628455  0.1712408601900935
  0.8285522048103612  0.0018984014126433  0.1709450917437884
  0.3336879195360106  0.6671490835872022  0.0047620457288284
  0.5805336666690635  0.1655185645044535  0.4148457550483269
  0.9902438566886074  0.9204745586430950  0.0891111197733807
  0.7465631807723272  0.9198921875235881  0.1721496998570091
  0.7458877880835685  0.0841582672148618  0.0028910942970652
  0.7460687028934064  0.9250710175906300  0.8296028563073802
  0.9090023142259096  0.7576690788702013  0.6658010579438126
  0.9057313159838249  0.7548812280790564  0.8351169866690539
  0.5826588101709758  0.8293435851996074  0.0897117902062597
  0.7480329292386068  0.9229887190407202  0.6649444596245493
  0.8286567353258983  0.0835719454294077  0.2530579689564296
  0.6616801929579953  0.4961884179604596  0.6655912814025352
  0.5827407429757616  0.4968547691983626  0.4123255449195258
  0.9952292355962802  0.2483581564157404  0.2517217827225925
  0.7468157224354300  0.1648319632355641  0.7487402216371285
  0.9954505346266547  0.9234435714199009  0.7475575037532655
  0.0787596567453178  0.8345330168630806  0.0888866027295164
  0.0799194879334702  0.8387356697183503  0.7429635423582015
  0.0795846181951147  0.8369699881323593  0.2483184045467345
  0.6640949879992193  0.7528216324617599  0.7490118820549018
  0.6639961030370520  0.6663621548231043  0.8370998756379578
  0.7452368242466753  0.3296526003275033  0.2517390130466188
  0.7456674524907297  0.7530892980140539  0.6661735092622517
  0.7458898947962566  0.3294315293267476  0.4150155945789264
  0.8283583020651464  0.3298678199142793  0.3312663998129956
  0.0797778207460603  0.8393157786556676  0.5803140890650575
  0.5842197543530608  0.7514246677473331  0.6653031876407531
  0.5818334976462410  0.4135385108335262  0.4946616530372648
  0.4129750800109732  0.9209817135776449  0.4999122988081118
  0.7461316371444449  0.4969697195021854  0.4121130684002948
  0.6630126684804466  0.4134064523533282  0.2512442471854898
  0.6625284387198188  0.4117339835346053  0.7493316210286761
  0.9938527957142321  0.2457703093786997  0.5774321871996380
  0.8281762407282266  0.4120553629301995  0.4121610568110708
  0.3306346233022538  0.7501096657413332  0.2489370091480963
  0.5833835628101968  0.5789785909202737  0.3310196786374882
  0.3320999431011785  0.4129911927912008  0.0869755016887765
  0.6641651914695427  0.5802743276566460  0.2501557335997361
  0.2493459182427652  0.4020343467191815  0.4939113351238532
  0.9948735881023160  0.9208411323598320  0.4151639213652904
  0.2476990100224396  0.4119974051573744  0.3316980968985488
  0.7438779590961028  0.4986679761200803  0.0882794981502440
  0.3305138910936913  0.5779261926299091  0.9180590274310357
  0.8294048915625873  0.0027861066912992  0.4980355502132296
  0.4181257677886930  0.4952659742166028  0.9232037777726820
  0.6640201131565820  0.4959492013194805  0.3316487214092432
  0.8271515900064098  0.3283072257962045  0.1716080769920391
  0.7447640010188875  0.4969048147716965  0.2501271421893865
  0.9124387334986021  0.2480339726641156  0.3328024348172516
  0.1662922217115824  0.3326265261680454  0.1709163765056855
  0.9936516926709242  0.9198656230413631  0.2509988329628667
  0.9946009558978890  0.9222236386221808  0.5815549809972226
  0.0829639664793162  0.6615226102292876  0.0919533962869046
  0.8284653111373387  0.0053032645588165  0.8294067049028598
  0.0044026804661587  0.3310988083107482  0.0003613472349034
  0.9119286368265830  0.9232300921982690  0.8270618712978994
  0.8275532644032763  0.0038059428216990  0.0032211558794440
  0.0798131780833842  0.4947403708186702  0.4070944393623072
  0.9986615926983470  0.3285403604317456  0.8380976871003747
  0.7441552733422033  0.4139973078061999  0.8337534912477760
  0.9954333622539587  0.2435804158839928  0.7478941324346043
  0.1652457559926187  0.6658576232002703  0.3290622384954501
  0.9986747420710305  0.5000134602172829  0.6621417357398124
  0.8274041148833886  0.4992738795679690  0.6693759385081710
  0.2491785132056310  0.3274696261778814  0.5782343660007884
  0.9115849517471225  0.0146983307898514  0.9144800357892596
  0.7443844820600288  0.1638985930904730  0.9172588518935547
  0.9115061264633189  0.9231412712049228  0.6650980746407464
  0.7448752579541279  0.6654239714050898  0.2501553025158400
  0.7420795406248152  0.5829419539520646  0.6617314753932723
  0.0795113989582523  0.3296028671040996  0.4136012976791206
  0.1657851376487697  0.2488239705121714  0.9166256005455913
  0.9094804147895723  0.8369401787000255  0.4154182305001351
  0.4107446975332202  0.3300206030069325  0.0865442521810124
  0.9033246743823589  0.6703949724447937  0.9231611385362622
  0.4173543161152660  0.4963287256227247  0.4123540649657342
  0.8262715100977104  0.8404071144200247  0.8273664254701369
  0.4993303129924778  0.1670373374752165  0.6619903773668369
  0.6631656510651069  0.2479099504649548  0.4142062323248197
  0.5804957078240308  0.0058163144958845  0.0869899364832904
  0.9080275642938954  0.8364000962547544  0.0902274292278325
  0.4993234759397965  0.4182230946371252  0.0867591855353525
  0.0761923815374533  0.4116857405938457  0.4911216253433292
  0.3394917706790794  0.4069882543596027  0.7500130357546766
  0.6642518101110004  0.2436296618099181  0.9180726565430227
  0.4162516961374176  0.4124882857968110  0.0045655848867906
  0.0793694564915803  0.1655949889274527  0.5779317142025909
  0.1640146402418633  0.2465861432389430  0.4131038542498920
  0.2485603388751993  0.1659008741161502  0.2523148198698596
  0.0044372562573511  0.5834681209729019  0.5794691240357658
  0.0794734514165684  0.1659469102833943  0.2592945294518844
  0.0803516614752458  0.1677707048708103  0.7472439857766966
  0.4181427214904636  0.3260378527047328  0.7482596215712010
  0.9960633767504753  0.0016105837721871  0.4979307896124935
  0.3329501980714991  0.4117766626527086  0.9224271946172882
  0.9958210078181214  0.1643527440513121  0.4951338426503515
  0.2501143058879937  0.3302683336618790  0.9190867599943088
  0.8247363968565086  0.7527186341795383  0.4148199993816177