Cr N  Ni
 1.0000000000000000
    38.8525295221951836    0.0000000000000000    0.0000000000000000
     0.0000000000000000   38.8525295221951836    0.0000000000000000
     0.0000000000000000    0.0000000000000000   38.8525295221951836
 Cr  N   Ni 
 1596 213 3725
Direct
  0.9686375046443862  0.8466121513952932  0.9762661374683591
  0.5528862945554719  0.9778533033761294  0.7507216671904884
  0.8932423430073001  0.7828959509709671  0.4041873610301512
  0.0931784105174060  0.1495134622308618  0.9946585802588757
  0.7359610358835156  0.7466194655205992  0.1289997118156591
  0.2993240744891048  0.7332631223760496  0.5307055190401750
  0.9034555205370077  0.7629116367622818  0.5274898041599724
  0.4144913255590893  0.6297344199511142  0.9962452808254665
  0.3935461952836629  0.9900926665365992  0.0320332556464504
  0.1861593324826396  0.9022061033247497  0.6938659663176123
  0.3214297808359776  0.6743571350789872  0.5385447551595565
  0.0821752140006396  0.0146093290801027  0.9128297364549397
  0.8988627695259924  0.8416202692033270  0.3865407863819008
  0.5383726293063920  0.9246838480662453  0.5785482476341312
  0.5395507757792043  0.9024766489881817  0.3539583058038723
  0.5774146778566578  0.7674397291363834  0.3521978067808263
  0.6053406529928113  0.0527994254724485  0.5100828700459096
  0.1119193808744220  0.6694426832775531  0.9920506910878120
  0.6275997607595710  0.7519235370728714  0.3181428790977650
  0.2065940828805182  0.5817942443639051  0.9833444264399636
  0.7600673306445792  0.9894614340585960  0.2840812035560232
  0.2574203632388616  0.7039486167526613  0.6309130142269320
  0.0342331261737054  0.4773218948111593  0.9793542481475690
  0.2082021851127353  0.2043780651773154  0.0218079107469283
  0.4472074929649669  0.8169981492917613  0.8029001879286247
  0.5431859292755126  0.8609767670292749  0.8287959630840287
  0.2604871349689356  0.7471509417098525  0.9096606302096679
  0.5169497848793860  0.7682929522038840  0.7793067595450526
  0.3207019852421146  0.7475558847998404  0.9315168449516166
  0.4372646499413342  0.8300221316453726  0.7397088255149082
  0.4740710577705373  0.8791561827673050  0.7443754031875619
  0.7914323420992294  0.8122371623646510  0.2420866515972109
  0.3496823846186686  0.7659976181271431  0.9895370049777718
  0.3827311929616625  0.8096506430150456  0.6118976780775338
  0.3260628157111826  0.8578679287148042  0.9375278091769568
  0.0350796924444093  0.5583821486348743  0.6499996435138499
  0.3863206566765941  0.6662226511289276  0.5653636433706480
  0.3688697352025428  0.7031805389898997  0.6160301983092517
  0.0957444119814438  0.6958081312702307  0.6868146003534129
  0.9928694402206522  0.5361795747566371  0.7442456890783764
  0.0911175849075634  0.5742364573801587  0.7586246382389057
  0.2386295715562797  0.7732673561965456  0.7840405626756970
  0.1426286961105882  0.7311017816059816  0.7540748850082150
  0.8231156589711327  0.6309591589335433  0.4331184126591746
  0.5969734372097932  0.8965847147821088  0.9595617795036943
  0.4858757328503497  0.9395019615506204  0.9673937306700211
  0.6741654584356578  0.6754735202570114  0.3009678477296840
  0.8065566745342490  0.9637640535445965  0.3141893952518107
  0.0627366455962634  0.8725112344645194  0.1999753924118851
  0.0362635521856632  0.1271454316459565  0.8667553807604446
  0.0590911360620292  0.6472459356301167  0.6796719671520097
  0.7490709619491742  0.8138063935629870  0.0377846882375049
  0.6429304506970618  0.8536378133230509  0.1158559286698504
  0.6530944664070760  0.9609681629192147  0.1384936039988033
  0.0760834461586082  0.2870689323453244  0.6379365760821462
  0.9376766838777368  0.2033501877516466  0.0423391766370201
  0.4529981251141518  0.0353063130381291  0.9785442609223750
  0.6497545613855250  0.9476917363227112  0.2040748630655694
  0.5117380941519786  0.6761185776848416  0.9535347246443021
  0.3387083583052583  0.9610654331769846  0.0256405954835285
  0.3684945052418692  0.5849283950336273  0.9295896515877484
  0.3515647444756170  0.6411651187256658  0.9046634229553909
  0.1173829648820938  0.7739418027873186  0.4740611329150050
  0.2793885911185732  0.9747699650101670  0.8254224229861202
  0.5480348821727601  0.9112987021082307  0.0513356211493150
  0.3395582815242886  0.9403958264520960  0.7438520710110539
  0.0637896903125670  0.3303284740025611  0.6802127624880286
  0.5009512153699426  0.0021063480010797  0.0065039314823489
  0.5847271853256040  0.8100908660109617  0.1678731679947049
  0.9839943586374249  0.2908703195512166  0.8821486437962447
  0.9685350740432599  0.3475479154372113  0.1038160338066373
  0.3887929696273080  0.8219836503067622  0.7789153936418503
  0.0006806886596843  0.7802978755634122  0.4411871665317092
  0.2865082534243993  0.7688516404667255  0.5785785788397475
  0.9466164217078654  0.2036005021776313  0.2778438350602960
  0.6819142546311335  0.7505474210729052  0.2236477668504880
  0.0102660893388477  0.8547447110161709  0.3614927908486405
  0.8828450964537847  0.1012667115053452  0.8191940001448084
  0.9972610441504560  0.7369470065772169  0.3927942004001023
  0.4908799576597002  0.9841532912889958  0.3775566991922946
  0.1005146571947324  0.5593790822127044  0.8184710876978709
  0.5447501446221631  0.9652241636722818  0.3347347398402133
  0.7749668756898843  0.6290588573115948  0.2937941221388358
  0.8787384944760170  0.5981330962662763  0.2266845877650435
  0.7708584368597695  0.6133633659737362  0.3526293429104837
  0.6418176346966087  0.9021333287468148  0.8591434438264732
  0.9389907427048531  0.7162016666739013  0.3208378190298639
  0.9153757201588755  0.4463273925323434  0.2914130455152480
  0.1645594112384678  0.7110878083630576  0.9879058243032421
  0.2335549283709966  0.6898659901122665  0.9636263643123980
  0.4278868451734988  0.8442608030080067  0.6765955920452645
  0.8603675113593645  0.4160047733290943  0.2820729854822215
  0.9037406427277719  0.3714914808108768  0.3743138541958118
  0.9648080419026157  0.7704958493083071  0.3140573883173468
  0.8985766081469120  0.3257931369115143  0.3322917606845905
  0.9511710126338839  0.3110077739899689  0.2954535378488303
  0.9683556724686205  0.8126048312951359  0.5367084091073656
  0.9899079788967207  0.1418868962122056  0.4347200313111710
  0.6060590370053157  0.5201857088545577  0.6700330497552553
  0.9959867155007619  0.7198089813256059  0.2227207790094847
  0.0781012811809432  0.0160938953661980  0.6318984722954311
  0.8836354944381672  0.6276439943581473  0.1034597409635409
  0.0625829853876517  0.0458414610102126  0.7763447245211473
  0.8573983757982115  0.9637930981725970  0.4519990769512179
  0.9608073119008016  0.9828090033780764  0.4210867254278011
  0.9525037702312280  0.8589487762319022  0.4608463767035934
  0.1891366945368889  0.0386291637965724  0.4774800711056583
  0.1351328304941294  0.1703241819261964  0.8938478675184046
  0.7681162709670687  0.4582396673972495  0.0603483240311755
  0.8644660442019314  0.4293080648793405  0.2203047497435210
  0.0756343729943129  0.9170076973572736  0.5442088802769053
  0.0046860298806072  0.2786615976140223  0.3244793703352021
  0.1021272414669506  0.0941286649694728  0.7826355756840041
  0.0236996978103235  0.8693627481544620  0.5529806703478130
  0.8488808988670220  0.3089965831471111  0.2619425491833415
  0.8103498759257403  0.3670424502151521  0.1085786993519286
  0.0275591889953399  0.1139037364868431  0.6947436443596353
  0.7486286446671687  0.7652434103610540  0.9838777602249128
  0.1294386215479660  0.9844114054549125  0.5323457408406943
  0.0038261799199790  0.2626554975798809  0.1593285620990628
  0.5311019064963777  0.0143404113418604  0.9161451186309613
  0.8933903326379296  0.2365239843582676  0.2498132994230200
  0.1503352914602687  0.8279707021398265  0.5846011965277973
  0.6778586711357687  0.1891734297267578  0.3570073324871814
  0.0797016240843418  0.1512505976645308  0.7651064775901900
  0.6582970431266409  0.5066252751459354  0.2953583458231690
  0.1117613416828975  0.0795331765440577  0.8469045260005966
  0.0713176005540757  0.0339027784460464  0.8431453649646701
  0.0342671846451970  0.0835180262780328  0.5883033715619908
  0.0542281092155850  0.8148112440867800  0.5826253611363510
  0.9561081846820486  0.7824972945094566  0.6535219643207598
  0.9970955235081650  0.8242144541245384  0.6022086870228928
  0.3464235013728877  0.3632632197732814  0.0061598522178016
  0.2630017858744116  0.3143170787840650  0.9673712758897547
  0.1611145185539535  0.8109808948469495  0.6407265324048703
  0.2633183377693403  0.2823086114919775  0.8639814821553831
  0.2461531477567587  0.1738373900132659  0.8749611245365533
  0.8323727224262992  0.7443772713632701  0.9930851486189888
  0.4381625914995285  0.9187124406481051  0.2531934268278898
  0.1069342969494145  0.2151145225875076  0.7114224662174431
  0.2149651054706699  0.2458330627123587  0.7990847002241519
  0.3915461859625134  0.9462087559849554  0.2219362775402934
  0.0682351443642886  0.1955243275824901  0.8109714677560164
  0.4825443935838805  0.8424358631532031  0.2363279325468485
  0.2646929869372552  0.2211450837337444  0.6564605483861319
  0.8397951458799977  0.7188803141448186  0.0578397271373573
  0.5715427391679304  0.9609979727404285  0.8813524218666249
  0.1074369061547624  0.3522589836244510  0.5805846890936610
  0.8409187809892787  0.7660181427093302  0.3296108979792367
  0.0913966775292990  0.7047293859617240  0.5043211196425366
  0.4417678702270291  0.9446885575035301  0.1231415742568135
  0.2700543687378764  0.5539919624976821  0.8234698993310998
  0.3701476293167268  0.8275060164169525  0.0198833554692000
  0.3479954174149872  0.6235159067539580  0.7328024117786825
  0.2840762899914535  0.9451867967259325  0.7205822417232397
  0.2363493568372154  0.4730840723120501  0.7129013825871898
  0.3725147106898975  0.8093328332397199  0.0896982411939824
  0.5759689187639723  0.7276284631602601  0.0194392693231716
  0.4688479554382612  0.6599303931265484  0.0589547969813521
  0.6270070110997960  0.6555128536243533  0.0056193037370009
  0.1303105744988030  0.4434444067183403  0.6258273866069950
  0.3116054580937488  0.8757885454405163  0.8031843589108593
  0.9230377673287442  0.4423274938497893  0.0641522115464285
  0.3412223743241495  0.9661333503692202  0.8546259461944494
  0.3031701802226732  0.0025386289209744  0.9295871206242138
  0.3181557869006965  0.8582750534006041  0.9996440550468446
  0.7984948098226036  0.9262904781194357  0.5006879477351037
  0.4007796787988444  0.0071985427606205  0.9659076359081685
  0.7430668240166824  0.8422197657253468  0.2144067251166316
  0.7429819406425565  0.8243593946904971  0.5093999263290285
  0.7830999219807404  0.7221397946415898  0.3804987980406901
  0.5424364105367255  0.8993152402145925  0.1191109135400856
  0.8714550426263012  0.0865087595176040  0.4136338695809796
  0.3426602191346644  0.6518194028360127  0.8403938808006862
  0.8279236519907149  0.8137585163930225  0.5432390957732118
  0.0646233748650493  0.7480868140476076  0.5488809235609452
  0.1022590448293578  0.6707522341385392  0.5834919182466795
  0.8227758138910447  0.5369142975442270  0.1141781411124533
  0.3988242211649057  0.6466843026848141  0.8662292607633912
  0.8887076117799740  0.6867785551680705  0.0866781202348662
  0.1983193374785887  0.7109038043228100  0.6081660369910150
  0.8557035034434279  0.6559697125251164  0.4861246200726698
  0.3053656754586319  0.6021202131606639  0.8349886452054990
  0.3341613512839984  0.6658000272287363  0.7771643056575718
  0.9620040349337899  0.6086783227755334  0.5071494756487691
  0.9953055926112379  0.6872759653769923  0.7925469154070551
  0.7857665144416447  0.7180730744064732  0.1543073829186521
  0.2902828667425073  0.6322413197393323  0.7118241301261232
  0.9174848683876105  0.5270462279018568  0.4420596625171314
  0.3231280493018447  0.5311640307891010  0.6800242656096533
  0.1716615170589527  0.6197583555063962  0.5543281658821197
  0.6943403757391142  0.9148110377472524  0.4787718867495458
  0.2138959958761318  0.4457904703272346  0.4849283921951407
  0.3640081370890609  0.9103964527407513  0.8721529079372110
  0.4918589920657805  0.8737924985785165  0.0379302455970195
  0.8380094017162052  0.7356830246725576  0.4534731722443094
  0.6527732872483120  0.5551852990944957  0.7369942449935256
  0.8915666398472135  0.2537371851941397  0.4152140553045240
  0.7135421822073531  0.5481372224827321  0.7589075688077626
  0.6390452167960080  0.5996536512694054  0.7881562610702543
  0.9039904804206890  0.8172468745034495  0.5142302410345239
  0.8227865791375942  0.5462378407897981  0.7410459810624014
  0.8379584051848536  0.2045537992394129  0.4677201842132260
  0.6334648636528788  0.2999801574425122  0.7048167443536114
  0.8257630359172511  0.2273723703800713  0.7249353595628382
  0.6112328073126103  0.3561373907852468  0.6894544603760135
  0.9349452675043947  0.1153011907411065  0.4223839801081694
  0.5733423718324816  0.3076267925390926  0.6836061591429518
  0.8657183498311133  0.0747556956486837  0.4796394790610888
  0.6387111409098810  0.2709085360733550  0.6012423291417414
  0.5401821136623987  0.2254504666425301  0.5761915155085028
  0.5254613267019008  0.5548153979262621  0.5216737005872546
  0.9525035332080900  0.5458374291262437  0.9438219298448053
  0.6505967630759831  0.4592124100224068  0.4801634157755869
  0.9976285003278883  0.4319865183421869  0.9781802238597880
  0.8572461063155230  0.5049370368191780  0.9158017478358075
  0.7366648683716364  0.3140005230623414  0.4553782127455075
  0.1198469277735743  0.4146856364779313  0.0202213074820773
  0.9106708470175898  0.3425701847188226  0.9088727723366677
  0.8497357418033008  0.3505537285288398  0.8857535468585811
  0.9126629569039311  0.3118027086541790  0.7998879129926476
  0.8832476429299960  0.5388397418310502  0.7634962730466767
  0.8360745648157362  0.2465994852159390  0.8912991730886520
  0.9002365430096044  0.3549156665632365  0.8481764688503532
  0.2984300022367509  0.7036681451448703  0.4788799079251563
  0.3908404663434574  0.4614273512581437  0.2781399596298230
  0.7437976907611628  0.2954535218090039  0.6879404557071851
  0.6548045016835897  0.1693487531663932  0.5028745942913269
  0.4916377064773639  0.4150093601750854  0.2699529790286526
  0.9871014150370627  0.4410724299319836  0.9174021068809225
  0.9749124756686219  0.4569963136162251  0.8569728023686040
  0.7375803446056622  0.1731078653920789  0.7579894385624522
  0.7313267554783315  0.2200103653277740  0.3665940817031788
  0.7853741260999377  0.2368355695965070  0.4385498206402511
  0.7794613449045020  0.3732782993033754  0.8008141290656168
  0.7772418437019271  0.1434099734211888  0.3525609722074743
  0.7111813351534251  0.3979942962350588  0.7171594653084986
  0.6608228483094450  0.3616551226518497  0.6517470584279315
  0.7143651072221967  0.3691120907669603  0.6057175400860547
  0.7355047045020416  0.3100964278706892  0.6272513733178077
  0.9369559718457559  0.6239838873758803  0.0025471691437753
  0.9168900735280378  0.0094917621662942  0.3964810512618464
  0.9379637571772126  0.5580241617547689  0.8918149501143037
  0.3308817062629667  0.7976369944843374  0.4853642245677208
  0.8935940171733089  0.5234386883837991  0.8205578396806176
  0.3229750742128083  0.8128665943166279  0.4230935309154545
  0.8781045726968781  0.4132762470191955  0.8299507616451525
  0.2534269401253429  0.6798380792992068  0.3890391977203794
  0.6284541589791891  0.1478739451226746  0.6712337569620520
  0.3251406066505108  0.8513012581193173  0.2962257577921377
  0.8838543865295696  0.2654419849910436  0.9602454497812425
  0.6614356792754323  0.0187299931375072  0.1189706797562515
  0.7065949753879840  0.8838267705397925  0.9452990088580843
  0.3996708711248296  0.5352372016816133  0.4834785379429619
  0.5009861249862857  0.6011370364094231  0.4437042810149417
  0.6681201938657518  0.0557502792651512  0.9314155968861551
  0.6820736937655550  0.0545823741042730  0.8751112497139506
  0.6447296447216760  0.0010467808148008  0.8741376005908662
  0.5990572811454221  0.4603989665009534  0.3480959577550614
  0.7161151905663858  0.0232641611132596  0.7261657076438517
  0.7285142349601966  0.1651113421942111  0.9215476331396009
  0.4742608000499442  0.0225876190037452  0.5827247606212879
  0.5784789054792600  0.2482609023094666  0.3024607982137071
  0.7644981040996464  0.1481663099136125  0.8800317950704671
  0.6996300096402763  0.1573147604842262  0.8587843353682800
  0.7674224748450138  0.0699062376300451  0.7266608614146208
  0.6999258549124876  0.1256194730874534  0.7532686078537697
  0.6250011955155230  0.0364541791351510  0.6913284564880849
  0.6848281699614208  0.2627445176047881  0.2776487583097378
  0.5498093073036119  0.0477457341509412  0.6628315895766854
  0.4903661859505835  0.0555047684908709  0.6408443675274587
  0.6566265955634066  0.9843527367953275  0.0114480907535685
  0.1663487515586983  0.8421483188422253  0.3607445977733599
  0.3594608008352955  0.6799383312234362  0.4199908580617151
  0.3512164687352048  0.5982452786190615  0.2742994827717415
  0.6783635295469218  0.1180336023724298  0.5767819209230284
  0.4046279033607015  0.6149208807362714  0.3431641312209235
  0.6187418881381396  0.1643925150565677  0.6100870740602444
  0.2938367070060414  0.5547483899501520  0.3271099168528380
  0.2091742010189338  0.7689243126898511  0.3381083712066140
  0.8137651772291354  0.2723870087183644  0.7701353448684719
  0.6557505689287769  0.1049339318240731  0.5140801479301453
  0.6986791167740685  0.2617634002184901  0.6235735306686431
  0.6615631022911184  0.0737735936891170  0.4032320026221822
  0.5588217718764659  0.1986720059281357  0.6948594815240308
  0.6299618658668100  0.2977382378221916  0.4779494935663789
  0.6146558435814458  0.1376986399336163  0.5554045648449016
  0.9304270572224734  0.6859535929086943  0.6035022523383540
  0.5364878847343498  0.3378956466749297  0.2562753340716651
  0.2287171234608440  0.9693486056570569  0.4609661564954172
  0.9284806374560987  0.4487103997820794  0.8948636370492616
  0.2186915493872792  0.8470834368595055  0.4465713580059965
  0.4798471784412500  0.3076280572635766  0.2481870106542304
  0.8012954459545406  0.6917342615052962  0.5022389694436585
  0.2182836671460108  0.8931420913135476  0.3080059431711844
  0.8356661525840494  0.5046414554892906  0.6959844856036698
  0.2749018799441004  0.8864775990711993  0.4462313528561549
  0.3237010003055034  0.8298812019659086  0.3647963481674636
  0.4328791408055798  0.9038434085324207  0.3158485723837174
  0.5181839267126976  0.1806129849918561  0.7968375805544560
  0.9812779073768608  0.1096434097380308  0.7328292368132345
  0.4755949537350359  0.3130104281767235  0.4763748767405148
  0.8163684484811076  0.0685967766846492  0.6824931156272879
  0.8418409712294320  0.9787612471367579  0.6064875726386476
  0.7476969028309359  0.0401844992292925  0.6144979239670452
  0.8211481153236027  0.9022189398702274  0.6288165348819443
  0.2384334017288494  0.3361023905529499  0.0728887445750389
  0.6355324733469919  0.5875409160503571  0.6168807673193475
  0.7180332583731796  0.1492976068345636  0.4515545479331153
  0.6826928940012655  0.6208338886167102  0.6859781286952517
  0.8611960062748558  0.1267886327553952  0.5246914829124161
  0.6401124644993671  0.6371706981998078  0.5049861933770859
  0.1893745610570215  0.4861567077190280  0.0808341763151243
  0.6619743781398383  0.6553259656266555  0.5651509117341732
  0.4733307583857724  0.2317165801152633  0.1008555299267814
  0.6766142285896551  0.6477781156630699  0.7936708982393806
  0.8878340351355344  0.2170556750907441  0.7469153268857395
  0.3142557843428658  0.7646925010219281  0.1464823457326946
  0.8380276955758172  0.1859633329641265  0.6778452085078371
  0.6966525597417921  0.7279157444652021  0.6792929023577209
  0.9585978657274947  0.1981005043872140  0.8274056267358270
  0.6005055192873570  0.2958308794615040  0.9659888496265486
  0.7805733650066795  0.8130660464379500  0.7526916015073429
  0.2711389728219731  0.8619151166769182  0.3360736743447884
  0.9528634941813484  0.6778631207543692  0.5051268671521595
  0.1741120674646636  0.9348550900219399  0.2148685114390652
  0.7632922846491347 -0.0005759629281641  0.9900506302957167
  0.8370314182348693  0.2173133838720447  0.1730879415764367
  0.7805359888592073  0.0905506500371157  0.9018898028454289
  0.4328775091730358  0.8901646370265417  0.3786132820189478
  0.3726978129861379  0.2827903006078256  0.1090829156002655
  0.7632524557951591  0.6535355103449707  0.4670916129486691
  0.0267079617860609  0.5750233981138374  0.5937286383453085
  0.3966052037331204  0.4794371984107568  0.6580571730086747
  0.8678215280624807  0.9602675904947690  0.9812856756931336
  0.6641247250902275  0.9778744461432403  0.7299228209149535
  0.9792447116044906  0.1620125715505283  0.9493694857496509
  0.7389331540836120  0.7927900158389771  0.8522650781783707
  0.9781057542734657  0.1125755889816288  0.8939293613053316
  0.6712539095473290  0.9621099210100750  0.7985007563307789
  0.9924244614624185  0.0965601783533562  0.7951894518008281
  0.5831043042859448  0.8118263571034212  0.3981826944632939
  0.3622536392590578  0.1759740214250246  0.0810857020108380
  0.1990789686786265  0.1389711975061173  0.8106111046656614
  0.4646000128885585  0.1418827310028122  0.0058443289910717
  0.2603577587460110  0.1304685460930579  0.8314151153215951
  0.2817013309657402  0.9393696661245667  0.4954473640155917
  0.6287020305598572  0.3568876766771228  0.9156634188499633
  0.8617400716109633  0.9968480690777465  0.3229925865995252
  0.7393687393696549  0.6393145434575535  0.8162267791283843
  0.8952768248847311  0.3618725723959458  0.4390998135201274
  0.7353489763059819  0.3627662244334286  0.4992995362869111
  0.7843627119810604  0.6755891831663186  0.8829474853485115
  0.8082959486839332  0.4473780356734262  0.4863675297575530
  0.5909440023299156  0.5504200530641014  0.5456386867866738
  0.7524378519214718  0.7495018875259136  0.8075856893884903
  0.5713803230040087  0.6138557202517273  0.5214115796137888
  0.7980808076918487  0.6305129275048956  0.8384211008024935
  0.7048011695871897  0.7126434944373836  0.7402488662534259
  0.4632562472775691  0.2775673827536577  0.5967337665973924
  0.7396495764293789  0.2611768700353814  0.1821791325520135
  0.6025025577898097  0.2653200117385103  0.8634544322668244
  0.6221167807166991  0.3428032031485304  0.7499849834993335
  0.7386925420164976  0.3539693850851584  0.9008085193510367
  0.7238072934351016  0.3979793366147509  0.9449792075443806
  0.2538712938646183  0.0626818237999493  0.5451089029267085
  0.4136958491214952  0.1226847847578251  0.6061822985839297
  0.3637975184974905  0.0179222501433410  0.6164039086471682
  0.4483481627782958  0.2005038401073409  0.7175974531651619
  0.5079175721848316  0.5822266141616350  0.2747700729418617
  0.4626230556644043  0.6595160221919528  0.2896678380398396
  0.8396391536623389  0.3171620716226843  0.4914240721752151
  0.4417130255441528  0.0797808009882567  0.7922948376586447
  0.3930727602440025  0.0443348495019154  0.7234602780048630
  0.4359400660198864  0.9368088588678627  0.4244167495779395
  0.4585498964314871  0.1873879278978453  0.7780982949479557
  0.4697582721378241  0.1729432068571623  0.8421852337638905
  0.5181742104621470  0.1276974267592158  0.9731076820430690
  0.7759194278151398  0.1125800482960313  0.2454094359102358
  0.6809826403492414  0.1957146015127284  0.9008341753343164
  0.5227230268290747  0.1924263746220940  0.9583009944527443
  0.7850979309440695  0.2180317066869943  0.2719282622047169
  0.8374492587888110  0.2352223155106014  0.3440816019612184
  0.4171196753126620  0.0161333212204291  0.8467708348880888
  0.3919128988176115  0.0743558145159652  0.8325155398095614
  0.3210079980069953  0.1850731618246664  0.5742844015856806
  0.7321092307416900  0.2020569488428719  0.1992448174631045
  0.7365517932451701  0.2800224177404286  0.3484967714870756
  0.4502428690933830  0.1736126939208089  0.6099495599886307
  0.7402963828351847  0.3269317554133003  0.3928768645555290
  0.4260961478216154  0.2320516203277018  0.5966907337804348
  0.5758958055450021  0.7314171625957987  0.4740043038335013
  0.5328650093837565  0.8426439253305624  0.3713207558273199
  0.8082049931594637  0.7672045770328967  0.9389867655352042
  0.7348687778508101  0.8269032784190045  0.9725052472125660
  0.4268537616976879  0.8124342239261098  0.4587634922691180
  0.9368996967175696  0.1298207802128195  0.3549161188082822
  0.0639104429930310  0.5113837775017733  0.8211445194805504
  0.5379933248283572  0.8766112120721702  0.5285942289102228
  0.8921025083647466  0.8144734351474503  0.2764882576562271
  0.8686717409165572  0.9892154806940017  0.0867041985874183
  0.9420916318333535  0.1869350611512682  0.1019961709123907
  0.4203327236363081  0.7935816248854506  0.0563534914685081
  0.1415373799884080  0.9068610955527585  0.9015282939919037
  0.4226924977187196  0.7480497054918432  0.2433572198822353
  0.9512911885157497  0.8113110331802746  0.1833242673057623
  0.8329229942042947  0.1679274527216183  0.1267288211328019
  0.3257156580379863  0.4275003532525144  0.9169609997273563
  0.9929942480389740  0.6445233458749141  0.0791136024250247
  0.9437423562397590  0.7052468135763632  0.1566073152936190
  0.0755617407278626  0.8388615998659645  0.9908135704190505
  0.1565678508176528  0.8385799256815023  0.7466601236921883
  0.3390216514878805  0.9750341689072823  0.1960839922547799
  0.8473579482020941  0.8100390563409596  0.1463359160043885
  0.8554643085639468  0.8808165715481739  0.0581522573177123
  0.0054596630864203  0.8131825196350220  0.0872762420235939
  0.4036514150647311  0.4946785050014476  0.8202748447289154
  0.3805655398951643  0.5513157571515891  0.8063013880894001
  0.2553233130054509  0.9071223595810830  0.8880206967320390
  0.4529335267758018  0.5333233325706862  0.8868123698792791
  0.8823288281026506  0.1107739840030175  0.0472333200948830
  0.2791829726345133  0.6172352698899469  0.5348147943217758
  0.7825451746530865  0.1685082938225934  0.9981933677075143
  0.8570938912359388  0.9478352029147246  0.2756674196501741
  0.9442972919430372  0.7197867505533281  0.0961780425888617
  0.0901287575113806  0.0962722186204642  0.5452093331956418
  0.8547549305566536  0.9035351573137186  0.2335676731990611
  0.2157861418880625  0.7329600426035026  0.0095550289840453
  0.1012204626059757  0.7359353008069125  0.9605548580862858
  0.1752773557050152  0.2979574368522970  0.5544598529000907
  0.4210821089321919  0.5732868535607888  0.7088456028720538
  0.5196056300935746  0.6727650125658947  0.1332256045798653
  0.9209805069924781  0.9754835908240832  0.0526670461434380
  0.7283090307283897  0.2146385354222363  0.9600351970859534
  0.9828747610849636  0.0678787288452345  0.0380171315953200
  0.1609215543506373  0.3713126483771066  0.7033777753796582
  0.3609114220789977  0.5812018890362270  0.6858223023404744
  0.1931752378409550  0.0380460237020421  0.9999368772985943
  0.8593682930067255  0.9327889369299872  0.1070559634453112
  0.3307460949874755  0.3656869953928711  0.7067479885181025
  0.2692785034627539  0.8997166072391194  0.9585640733430874
  0.3793917309229977  0.8569340942199907  0.1310126847666686
  0.7911912520120660  0.7939015112001651  0.0761865365138287
  0.3212809392366950  0.9207965657101947  0.9113645869767267
  0.0420591963176549  0.1279494663613525  0.1574570333390611
  0.3456166950459738  0.6084572674108244  0.5575250611151171
  0.9276136613268020  0.0662888193666522  0.8980391220892829
  0.1916540750714984  0.9150463436112077  0.8636690552216508
  0.4785612733940755  0.8094022790107268  0.1296680636041575
  0.2033212849950219  0.3191194753400557  0.9522387218542574
  0.8277783304188817  0.4399206966179016  0.0325338891462790
  0.8200590936088175  0.5018684506202341  0.0120337240850921
  0.8707260888477197  0.4586598791099727  0.0958722311439297
  0.1427412733232011  0.2957553465027850  0.8232830903209278
  0.7098372252937108  0.7300414685660954  0.9034800498616029
  0.0395260909469054  0.3089314451902048  0.0129568631289541
  0.4400711376246053  0.1018120712398212  0.5084264966873834
  0.9857195020547742  0.2612108276705012  0.7745719566566391
  0.0051965509506590  0.2792823834683593  0.0988056605175143
  0.8524470719121254  0.2913090233980913  0.0924821595153641
  0.5959804765336091  0.8338354705204197  0.0400832030631303
  0.6812770908343062  0.7478556053828312  0.9987099823399571
  0.9873766231125425  0.1120108671750196  0.0819736354637876
  0.0842026595891262  0.3024898772666891  0.8045497576255846
  0.6614714339213963  0.8108867753403622  0.9957804632871542
  0.3416495567196347  0.9915228218916459  0.1326405162923876
  0.1498962858996332  0.4716499466401596  0.0181601875488299
  0.1582152385091903  0.4311523880875029  0.9152551262711475
  0.1098801740278469  0.3953788724518169  0.8515382084083521
  0.9247071528359203  0.4889438599044802  0.1085219343218140
  0.0933978351203316  0.1180822120237160  0.8909322266345123
  0.1530264628576073  0.2808173750067960  0.8845076025603934
  0.2666676376348930  0.4339047498094234  0.8964092627432282
  0.4289376830284886  0.5785802710652486  0.9535790115218685
  0.1783666970495328  0.3762759837885348  0.9327633145942386
  0.8086045850588230  0.9439213493089036  0.1419470706805848
  0.0256047214443478  0.9743806106717045  0.0854885139815119
  0.0002354674673379  0.3057545224940006  0.4947374108083546
  0.5429269367771280  0.7046528109986053  0.7958518691724695
  0.8979946569760797  0.7945091236266587  0.1139342783160004
  0.4525246741949582  0.6527138410559503  0.8274553561797162
  0.9011509351123653  0.8087106844770681  0.0500366485928044
  0.1265363099577083  0.8005723435111064  0.9053328026454902
  0.1699084336925880  0.7963529261524173  0.7013813653260973
  0.4444729812350731  0.6649940569162935  0.7637261797775137
  0.1618610543199887  0.2321167536611613  0.5111222884574889
  0.3042584096934363  0.2715621387975866  0.6594861707938720