 C Cr Ni 
 1.0000000000000000
    21.1200000000000010    0.0000000000000000    0.0000000000000000
     0.0000000000000000   21.1200000000000010    0.0000000000000000
     0.0000000000000000    0.0000000000000000   21.1200000000000010
 C   Cr  Ni 
   9 259 605
Direct
  0.7447536174834827  0.4951105096903465  0.0057251951923298
  0.6542194788155321  0.5885378963969201  0.0018800946502044
  0.8361016811599059  0.5915420935756610  0.0003248610679565
  0.9241679857120384  0.5894738840232169  0.0918865776597148
  0.8359845423529002  0.4956301438425673  0.9069037837900000
  0.9265172104536152  0.4955282551503678  0.9999767778924976
  0.7448268024995607  0.5883976272620286  0.9059097625649515
  0.9981748008969935  0.3305926230335917  0.0858185457675712
  0.2489702386209856  0.5840930921417608  0.7510526021470296
  0.5819922117156219  0.8340776585316068  0.5824353956148806
  0.9167775168177464  0.5841669668640279  0.6653963465585827
  0.5002719355393435  0.9180407169277277  0.7482636598425849
  0.1669178004170175  0.9999776703166985  0.9993871362141608
  0.8313332112259301  0.9169705129287482  0.0843436149741380
  0.6650779129692015  0.0836319607039573  0.4155796756086080
  0.5794086866034821  0.1643225849923294  0.0827446259886573
  0.6645780546678551  0.9985630159081919  0.1674356974828144
  0.8314207530247547  0.1657864244856831  0.1673053818450120
  0.6656053709072179  0.9173464469529955  0.4173902042215598
  0.7467861535521125  0.9175528790888898  0.4977344030087664
  0.7472884370520623  0.3300639638593825  0.2536835620648802
  0.3325194829929010  0.9191756313270529  0.9166932216447481
  0.7485494870246988  0.9188966726938912  0.6652783473044753
  0.0842043665563127  0.7533449868111973  0.9990498211836305
  0.5825213008916122  0.1662873838690302  0.7491069835296565
  0.7482380732323237  0.8338858996059834  0.9133630330757038
  0.3302413249910784  0.4164442971895305  0.2500762316156119
  0.7489828356368621  0.8357623680838642  0.7477246160620836
  0.6625175035764088  0.7537785713429626  0.0853069327825398
  0.7477648130973766  0.6788132712161785  0.9127499391534369
  0.8379254323301473  0.5882769186280132  0.7470693779381242
  0.5831926507817066  0.5846858694112953  0.4998396783445342
  0.7476490455015419  0.7546807316062042  0.8310517790292670
  0.6652733092347438  0.6680280456861436  0.3354938299511580
  0.5833189439591159  0.5013990743606392  0.2505907145694891
  0.5810668664085954  0.4143956818744609  0.6656464422451479
  0.7483587872027727  0.5024593124945480  0.2473493816234447
  0.0001521071585074  0.7509422087964498  0.4157546422131942
  0.8316336710120718  0.0010244286588885  0.8344926922073131
  0.7469490559145918  0.2506123805193339  0.3330313592675050
  0.6628524499654149  0.2478527495237305  0.9161182954297539
  0.8307034695358176  0.7513843309844119  0.5834844177461563
  0.9169926747531630  0.4992653889322153  0.2537221951791988
  0.6630579554665382  0.4140611060210972  0.9149464028039802
  0.9984166432736844  0.6694345257155164  0.3349382476987016
  0.8327004300925195  0.7497968033937210  0.4174127785183240
  0.8319495222112776  0.6695066255644593  0.3351317424045264
  0.9181623659795367  0.4976619867082024  0.0904127043027206
  0.7473435067783758  0.5887692317962231  0.1707042818992074
  0.8313601932646947  0.9983920934175282  0.6651460306316772
  0.9975384628369421  0.1659997867951846  0.4981219086854722
  0.9149599760562505  0.9159120582588440  0.3329588787311163
  0.9990360108435776  0.9184837458982612  0.0842680465948489
  0.7478830816324077  0.8339517794375861  0.2529980471194996
  0.8306058284108927  0.9987572939752698  0.1660846192356310
  0.9258579217818275  0.4971719682550378  0.9092286134230276
  0.8347791018785558  0.5875058406258230  0.9092700478583081
  0.0134263718308360  0.5838594456427481  0.0866890624965455
  0.8343105027157526  0.4979317607328782  0.8173278587296241
  0.9159699224661216  0.4130097686103377  0.6638073308283610
  0.9187010007372725  0.7553053977791611  0.8313546167859114
  0.4164592721394686  0.9182001541900314  0.1679736932626738
  0.9152047635920358  0.1640603259468979  0.0836349074177777
  0.6643639284043891  0.9999016716116054  0.8333480995557128
  0.7473675414050305  0.3311572597862968  0.0835145264539812
  0.8343135817264797  0.4051347850345682  0.9137753549737573
  0.6635615816083559  0.2481810255546357  0.7483572292820481
  0.7485404930331651  0.8367573329708454  0.0841408610859557
  0.5807813714929458  0.2499192748100370  0.3327267326768082
  0.4971985939073612  0.1652497454689638  0.1661097233066260
  0.6643795972249512  0.0833951545653923  0.2497181645573961
  0.7454387502541240  0.4964270161949161  0.9121133927380735
  0.1646439920385167  0.6663859834282191  0.5023538514416833
  0.5806759143323329  0.4982625698738262  0.7472187930875189
  0.2499922149484925  0.9171267267971088  0.1654133293214863
  0.1679449244847611  0.4153125429657988  0.2508358278108203
  0.0840458131696719  0.7534598634110869  0.8310863468362550
  0.0808836989045154  0.5829768448761259  0.4976400290194563
  0.8326066429283737  0.5880253700280730  0.0916908176316077
  0.9987297404417051  0.0828307908516790  0.4166831672410652
  0.0828567979869649  0.2500631865736346  0.3349530586537114
  0.0813842442296260  0.0833608811668099  0.3348421586859623
  0.1654550346210561  0.9177744253700101  0.7485043335543504
  0.0853854255933986  0.5847931601621016  0.1711472662508343
  0.0037106207883463  0.3285830185790637  0.8307163629332658
  0.2502602040981794  0.2466267545192307  0.0001617510718315
  0.9981302260098762  0.4990754026800257  0.3338674811218135
  0.3329664331479553  0.2486954653062725  0.9162020435755307
  0.0860999277870951  0.5005491399766632  0.2538101876428081
  0.4138349508492216  0.4165642281783001  0.8339006489106979
  0.0841429122681585  0.4977276478298363  0.7479488857291227
  0.0830915652134669  0.0002339897078628  0.5813501874792674
  0.1648287082602732  0.5009313728282024  0.5005575924212827
  0.9155448879209693  0.7555684176724921  0.1714214996869717
  0.8319979670475783  0.5843622311083615  0.4159780922112070
  0.1649772241956022  0.8356858017978805  0.5013883209887481
  0.1658713260883768  0.1661100251357285  0.8316002783820758
  0.8318262296426407  0.4157902530706181  0.4170456680963452
  0.0842273908940210  0.2473148322443344  0.1690354097878393
  0.2506552814449662  0.1644445974773379  0.0840110026955089
  0.0822759336192143  0.9187543577901541  0.1657804908718914
  0.2508883670815273  0.7537792544149485  0.0006008859272314
  0.0150621380946791  0.4976704375949548  0.0013910195308320
  0.0895353977771349  0.3310116654475974  0.0856757517812308
  0.3338707470237022  0.4178926310994656  0.4173964455207335
  0.8351039614042047  0.4993178114223152  0.9992090972747767
  0.8312522646161473  0.0848492067020581  0.9167263612528941
  0.6649406239603038  0.4167226085183210  0.4173690049629153
  0.5798758217686545  0.3336448002478953  0.2503067108750306
  0.4145591054153057  0.2488358614422825  0.8338278459272609
  0.8317471931314149  0.1653671206870512  0.8338826860351691
  0.0834002582150260  0.5840073613064205  0.9983780169356964
  0.5804019480625523  0.9191540581405999  0.6670089282753777
  0.9154734912904522  0.5836430005869040  0.4985459074136266
  0.1671785479107723  0.1648973567785948  0.0002409792589653
  0.8336077678958246  0.2457749441501756  0.9151398955197063
  0.8311297942641718  0.1654801514817973  0.6650687271166827
  0.9136595483315744  0.0828844810702144  0.3325739996913584
  0.0026295843444530  0.3291131585224640  0.9958565725051278
  0.6649783835327026  0.0839956535908920  0.5819444354733148
  0.3316072919575030  0.7514581043500020  0.0829336559298501
  0.7475736368207443  0.0835381363641252  0.3327413914479210
  0.3323641937295748  0.6659641213682060  0.5007279376409053
  0.8323484943320204  0.6813092442634946  0.9987273808719216
  0.0835368363207376  0.8351579915299585  0.5815937405295033
  0.9250457029476408  0.5862283819333778  0.0009550428589546
  0.7454302460454540  0.5863535909963783  0.9984681466442565
  0.4984299742018030  0.3348773649979782  0.4986252411390678
  0.5816821356293095  0.0830447915703594  0.0004665472402766
  0.4145418166045005  0.4174193494763754  0.4989405448480765
  0.5661854112823295  0.5864224689920551  0.9998744196116187
  0.4966890670153253  0.3328976189157342  0.0014823672688112
  0.7505278733603251  0.5012236799798451  0.0972396670209024
  0.0814125727220667  0.6676152380192683  0.5810137637306335
  0.0868694840089516  0.4153344683086725  0.1715895824898915
  0.0001946340193034  0.9188897350285520  0.9171624927539787
  0.5813259883388701  0.9173339700140872  0.9982474533749401
  0.9986562765015038  0.0831045262641192  0.5814301771713751
  0.9154356215570278  0.9171270967452669  0.4990611707026246
  0.7478723814216733  0.5829214236621821  0.8153440970610851
  0.6559859244579755  0.5850728569640787  0.9100956040449591
  0.4982518934530842  0.4153215108606755  0.2492774649496747
  0.5819909185539185  0.5841326414128712  0.1699407292108597
  0.6639127477545789  0.6780997384684599  0.9990829354574137
  0.6611728087405683  0.5853590175174356  0.7467378620926410
  0.3307542073292009  0.7514940715193661  0.2504905749496818
  0.4162320081824259  0.2492608524606223  0.6655910790719129
  0.4142813920350004  0.4990727746378787  0.9164197825639202
  0.5808480290512985  0.4136323961791826  0.8328874800492551
  0.4974324176554365  0.4153785181317188  0.0849186834649536
  0.7489621550379220  0.5828631190221187  0.6706797764707362
  0.7504656236806918  0.7524588636269045  0.6630881135535530
  0.4975622353676072  0.4161854035854400  0.4174373337895067
  0.4138716333252360  0.6679856484360062  0.2502734324178494
  0.7500516571726116  0.4123727070522402  0.6629225663159161
  0.5829892811111848  0.5825747431642480  0.6671933504603910
  0.2488956498543691  0.5835429074547974  0.9983890569843119
  0.3330625589026514  0.9179031234140312  0.7485323819965195
  0.4988944892041098  0.0000891673524025  0.4995249621409549
  0.4985431569656334  0.1672612540687706  0.6663248053820336
  0.4975591253144827  0.1660394095986525  0.8332340369543569
  0.3333679823562531  0.0839923347994047  0.9158987992311854
  0.1668512298301432  0.9193550933944339  0.9171732748480262
  0.0829494714168808  0.8357023084012856  0.7505847332888634
  0.1656767246433188  0.9991403703268061  0.5007320597468575
  0.1653728307459909  0.9174655598777823  0.5825689583428484
  0.2487581418874370  0.9165198449894660  0.3345166848434487
  0.3323684713168270  0.0846916617008301  0.7475106151907795
  0.2499159498933090  0.8339591855250984  0.0832901065626801
  0.4964256452747094  0.6690255842315822  0.8302113311453083
  0.5789930375794656  0.8341112834203965  0.0835529892409357
  0.4981062176976744  0.6668533749489797  0.3325224153809258
  0.8319039370752326  0.3295130901838770  0.8302446287148523
  0.7477808143117595  0.1648460558328649  0.0842786687722638
  0.4152418923821117  0.2492467589941853  0.4991523718654310
  0.5813796808478719  0.0016178042768183  0.7479137453558661
  0.4986166450697940  0.1652479139897433  0.0001386822827215
  0.7483467812395858  0.3324767964022592  0.5826643706713193
  0.2500756459777050  0.0834836352814426  0.3343202124484579
  0.4169079704632265  0.2488335280011240  0.3328512617368442
  0.3331634234856448  0.0018468943783953  0.5003758300174207
  0.4162940111248880  0.9167067455997689  0.3347567659735242
  0.4152142005783290  0.9181387525666000  0.6657401500550646
  0.2494119651568484  0.8352591007994306  0.5818410523091312
  0.3329070327720453  0.0843236483350943  0.5816657486379061
  0.4985258950128238  0.1663586668812269  0.3332572929767239
  0.4152666454000866  0.8338391689865191  0.5822519668857771
  0.8313103799955022  0.1668086835643674  0.4984176577317931
  0.4147223914444307  0.9182741343016499  0.9978949207434682
  0.2504482836641470  0.7517949927076868  0.8311790907484564
  0.9152996142206454  0.1644553020149473  0.2518182100619164
  0.3316828848295716  0.7503812494049166  0.4176999841573232
  0.1667003146229093  0.6688955027103043  0.3332788483756211
  0.4978546509786462  0.9976554776121690  0.1673701090475358
  0.4146845313008269  0.4156133434748836  0.6658795977310704
  0.4153906210689800  0.4986931487721706  0.7493964160590944
  0.2494382497044348  0.5849328817608397  0.1673575169128731
  0.4978454249939128  0.6678402073684182  0.6677513557119966
  0.3318796386186121  0.7508195426894996  0.7494789567993888
  0.4981947358360111  0.6674809469921373  0.5002359197950517
  0.4979830668954203  0.7505778085817951  0.4174947691421416
  0.1666016871208298  0.8356844239521514  0.3329331834878454
  0.2502851606926221  0.9199589669397904  0.9983665623283090
  0.0834214779633499  0.4138481645180598  0.6642751237828660
  0.1659892422686850  0.5833920907308000  0.5815058966825016
  0.3302825234926065  0.4167197616797108  0.0846363067704345
  0.4990213044945145  0.8347142542623874  0.4996167166820318
  0.9175588284314735  0.4060975596402533  0.9985029433356535
  0.0837824878935694  0.9159729080783682  0.3345436466160266
  0.9168638766634047  0.7538404563843805  0.9994133315059027
  0.4172426449831259  0.5836963211536357  0.9993151882058690
  0.9152282837544249  0.9169192728200072  0.6661137659784798
  0.9162866548619476  0.1651901802870305  0.9153661573576731
  0.1662667949777338  0.1663999612153288  0.6663876096785158
  0.1657590151266309  0.4996529155572700  0.3318492119529947
  0.0855650258292285  0.2474924931717673  0.9993865738779453
  0.1672734368432503  0.3321666070567769  0.4981714521244910
  0.9164336206078986  0.8351895658418441  0.2514364973808483
  0.0831942947027490  0.7519788346798612  0.1682707971293486
  0.5812665745899676  0.8345837315352110  0.2524020840302728
  0.0824140444497970  0.3319911016582391  0.5802154949667115
  0.7494076109473795  0.9985475065289174  0.0833469726053401
  0.9986564212056531  0.0832701747648425  0.7475632005157367
  0.9169565654209318  0.8365132055462897  0.7488847852396399
  0.9169679967485630  0.1639482075761197  0.7491675515995762
  0.6647087645669529  0.6646693276765896  0.4995312658725811
  0.2488905210982532  0.3324800743967358  0.5807731798127170
  0.7490328930537483  0.4057475817041164  0.9996747174162229
  0.1664327995138608  0.1662381173972633  0.4987464438377429
  0.5785572660722212  0.3328837237231703  0.0832249600670718
  0.8345830280616048  0.6698442383732619  0.6664732074784289
  0.0034517627881021  0.4207279900984872  0.0891211357056384
  0.0832482878855030  0.2476002854600728  0.8316968283258126
  0.0839295230649609  0.2476714890956581  0.6641410538445300
  0.9151926945794573  0.3326382116742206  0.5823566835347347
  0.8326308218921141  0.4155221009815186  0.5840562690292248
  0.6652961558213425  0.5835362691820271  0.4174599997441348
  0.9993234703881859  0.4152890615223933  0.4163330919986547
  0.9150574996229921  0.3302364600161925  0.2536236912447911
  0.8331976403389706  0.4964574301423039  0.1711163830819191
  0.6565475741660217  0.4970715509672008  0.0005288449018149
  0.5788328186695393  0.8363526036789021  0.9158094491039287
  0.0043136748615780  0.4991359051375931  0.8285304039511522
  0.4974213163527443  0.7517833609458686  0.7486087836677817
  0.0013932415930680  0.5851711638487257  0.7479049266113811
  0.1633899379206240  0.4983123907489506  0.6659543060955244
  0.0820394026591442  0.0825021635744878  0.1664034578842777
  0.4970854720700000  0.7523020286051821  0.0840730803350571
  0.4161273241988150  0.1644104177138550  0.0834948864147850
  0.2497054829327338  0.1644038870980736  0.4150096395220554
  0.4956995780448080  0.6703279103735805  0.9986315233998462
  0.4153906150489768  0.6674566294899508  0.0838630931027327
  0.2473878493089486  0.4944307203905919  0.7477141048335050
  0.3341535918371590  0.5832950206284557  0.5809388560917771
  0.3341284297634013  0.5013330188346108  0.4995346056259626
  0.7467038243651537  0.4949685962471692  0.7479019264882247
  0.2491309543089590  0.3328862575305473  0.4173038916708049
  0.4151742905726550  0.5860205444234623  0.3322019406063944
  0.6626286903615833  0.4983805242588988  0.1686119427461707
  0.4146082721258960  0.5845968946091534  0.1692291049782638
  0.4160735344489088  0.5836507338286636  0.4990520082987517
  0.4963324969198347  0.3331218569150389  0.1659176144151417
  0.2500714056044185  0.1643793127255611  0.2515355169797098
  0.4983845256542754  0.3326647562566533  0.6652002997840940
  0.1587916556377321  0.5841860511569152  0.7470828187972579
  0.2499558950677417  0.3309031321280042  0.7491020539646993
  0.2506101520085703  0.4157505654639402  0.1684558387208526
  0.1672832664649835  0.4147918292756989  0.9155989822787716
  0.2486000851595624  0.5015370151708715  0.0839047471864938
  0.2500673734925574  0.0010860556284606  0.7491707550093275
  0.3317475875076496  0.6683884694994109  0.3335530665858182
  0.0839441446136363  0.3303983419597075  0.7472707510196671
  0.2488140931032701  0.6669866164780565  0.5820577321100031
  0.2493043865601991  0.9181297651312141  0.6659888553341861
  0.1655099097362290  0.5841112500568325  0.4174947064058970
  0.3321387111590063  0.6666469428456027  0.9994359246769283
  0.1652865537817080  0.7521995399653971  0.5821682903914800
  0.2483646156535552  0.7505621149678063  0.5001101067788921
  0.1661120889627352  0.8349208470193518  0.6657340284662614
  0.1662259889836306  0.4168220147422262  0.4164819495582145
  0.5813177301450959  0.9999846760908554  0.9157348998886327
  0.0833426055583297  0.4165511416103959  0.4988131880612188
  0.3329149390452339  0.0825059617450679  0.0842020450081612
  0.0835279524282109  0.5847226574526845  0.3350476372271563
  0.3327017222692216  0.1649464675849561  0.0000151555788022
  0.4984582119111432  0.0823840484339644  0.2495992895159648
  0.0837283763981568  0.7511344977309745  0.3344473026635095
  0.4147268763409740  0.0009882805105264  0.9152362737681258
  0.1674375659340643  0.5854561701705120  0.2518131989340652
  0.2486873369638804  0.6672530794342465  0.4175695594011538
  0.0840907266064361  0.6688983915859188  0.2518790936049353
  0.3324359786945628  0.4151609987884437  0.7486925476411471
  0.4984262786238692  0.4985013344858585  0.6661834814987423
  0.3324558396185011  0.4983395277114971  0.6656148792999595
  0.3327860475045855  0.3326649452686657  0.6656285009538775
  0.2493974458633318  0.5008281021854410  0.4169240030964947
  0.1673421291612610  0.3305413015428446  0.8320248924915409
  0.4979098573299142  0.0810276614666755  0.0840520323204621
  0.0006191502764087  0.8360282712185274  0.9999962034158721
  0.2496402537081652  0.0832631422550910  0.9995900617089921
  0.2492152920168822  0.6686085244973218  0.2508673555697650
  0.1686919590812214  0.3299637705684815  0.0006927554009013
  0.4157486338927590  0.9989137680552530  0.2511446485478998
  0.6652033787423045  0.3337741385921594  0.4988581216554657
  0.8347675685409923  0.6721861455701524  0.8300951020388054
  0.5802216633913340  0.1659975100127778  0.2502884556578434
  0.0830384775626465  0.2488028426943253  0.4992399843219046
  0.4166005979933847  0.0832768949663240  0.3335426711867263
  0.0827715695094346  0.1656384653696335  0.7483151233799724
  0.4980591601200237  0.2495426284651318  0.2494861008208323
  0.2498497895045195  0.1664945556294480  0.7489679144145865
  0.2497041353931337  0.1652393305646188  0.9157683769999839
  0.4151950640249503  0.1657966564560364  0.9167267087412748
  0.4990182189486732  0.0838695645483117  0.5819961338383741
  0.3322297938357521  0.0010246841985321  0.6660239322600162
  0.5818563105605863  0.4169455274486127  0.4984642563534174
  0.4152946678482224  0.0010160527716907  0.7489127171650530
  0.2498740198787525  0.5009221088687120  0.2511760473471396
  0.3328703436309370  0.1669706489892632  0.6656021060312897
  0.2499356659697396  0.9179822560950894  0.4994987580915817
  0.5803954905857788  0.7525233855377311  0.1687668941501544
  0.2488020830281886  0.0831006405161688  0.4995368612005495
  0.0829644230108308  0.1654946742756527  0.5816596290942743
  0.7483309778409241  0.6722141255767426  0.7477085605403659
  0.9155896882825701  0.6678104756839812  0.4171184736476644
  0.9994849453904585  0.0835265031816664  0.0845856665746860
  0.9995797584831274  0.2477383306267197  0.2515852935809202
  0.8324647563643011  0.3276138736406503  0.9995774244192438
  0.9149132913188140  0.1657979904381112  0.4156030602703905
  0.9199655820839318  0.4113546659881733  0.8298848030732530
  0.7479316937577660  0.7564702058849265  0.9995829955309197
  0.9993228800415490  0.2489516335672864  0.4163819994742661
  0.0012184691747700  0.2464998283756207  0.9153531484348515
  0.0031652075285088  0.5859487343772443  0.9141983086217187
  0.0826986567566139  0.1659014829971573  0.4166171269217662
  0.7485878842110137  0.5838802261858274  0.3343249048169989
  0.8316953393014672  0.4995853252240680  0.3333954965456910
  0.9155414533063913  0.7519553968028873  0.3346962950622094
  0.0893005252425693  0.4979907884749369  0.0888010866622514
  0.1687069174781195  0.3300970109358475  0.1692443660313516
  0.2484079754682677  0.5846845042057375  0.3345934012820452
  0.4162928743673460  0.0818908562721449  0.1670527012901089
  0.1654082438016692  0.7526991324997858  0.7492506565899120
  0.4145262424448520  0.2489013551129475  0.0007005860333623
  0.4978135591780164  0.9182404499448026  0.9158638809661759
  0.0831587551119946  0.0008273300853954  0.9161983184353361
  0.3317712191582489  0.3324110012651965  0.1677343193038433
  0.3333610704118272  0.2477271489848139  0.2510096454704150
  0.4142884136949788  0.5009456548225367  0.0838287601630304
  0.2501676382179634  0.2479057790309831  0.3341454712201002
  0.4144901525400564  0.6674657072914444  0.9156122266055265
  0.4150249717070285  0.3336948662247797  0.2503486632423217
  0.4984940760943615  0.5002734556511285  0.4993536776305167
  0.4132254899049433  0.4167047809721857  0.1669563678535346
  0.3312857936888374  0.5849985171446800  0.2502975800298215
  0.4142116152106469  0.5001915708912289  0.2502252600900782
  0.4170738756457594  0.4995599975948679  0.5831260789589127
  0.3323032189044501  0.5844102804995855  0.4173322953669847
  0.3331555939819191  0.1651274398829141  0.1673930171490884
  0.2490077785428899  0.4152435278513332  0.8325405951297111
  0.1663802205504246  0.1648486372065304  0.1685139163629476
  0.3316659606802235  0.8346501039679642  0.6666219594243504
  0.9154246219016527  0.4993140349019701  0.5831803245724525
  0.9159963083585975  0.0820216845665639  0.8326443160877038
  0.8311715485312905  0.2472253729969288  0.0846382837097257
  0.7475709631450582  0.4132054718284612  0.1689320531912003
  0.1661495562624528  0.2488944476998551  0.7480715337378020
  0.9186994437258491  0.3277987901882206  0.9129637427151672
  0.9116190675149233  0.3302897094582579  0.0853256200014711
  0.8310147808185510  0.3323495832617059  0.3343550940203322
  0.9167596639017666  0.4144967110691016  0.1714956637630317
  0.8314021057565043  0.4141508180740344  0.2519579228011619
  0.9145061267627699  0.4152792355312717  0.3342894483898000
  0.3324014034469341  0.9993531637400211  0.3336833352945761
  0.9152771158511175  0.3329845707044832  0.4166342796285916
  0.3331790951618533  0.0828141346201441  0.4166861136979207
  0.9997916789200786  0.1649642188986848  0.8315165924528604
  0.1661457202479111  0.4159355907510866  0.5813096328089530
  0.1665816700810561  0.2474876182095558  0.2515502425901748
  0.3320231425438390  0.4984026950931594  0.8332790028488417
  0.1660405920400429  0.1653487200294747  0.3332784116078728
  0.3329591101123532  0.2498569025001937  0.7491333844741909
  0.1675443884117234  0.2467041159918894  0.0852718770883818
  0.3329253604596409  0.5832501770771372  0.9172190461817940
  0.3326676424876265  0.3328891123049235  0.4989780827713093
  0.3311542817704185  0.3323081904196905  0.9998368700296795
  0.4159083063566990  0.0002058777542032  0.4169983608067901
  0.3334458251814347  0.1659565713284871  0.3337290516223246
  0.1665648303054346  0.4985485179297032  0.8313062640587859
  0.4984485745807233  0.0831670351223140  0.4167207551008666
  0.2489558065052862  0.4155351319049121  0.0003721025488311
  0.1657584596041501  0.0002393299283629  0.1673244676191930
  0.1669202017320167  0.6692199246552741  0.9999064158197682
  0.1654329582287568  0.6701508793581777  0.8331625487711594
  0.1671163661965400  0.6686178640730333  0.1666877431045834
  0.2493638174460225  0.4172905824888051  0.4990650187153770
  0.4980603408347702  0.2503841620915002  0.5820258083391532
  0.1662906137604630  0.3318009815854050  0.6638829166752999
  0.1667532468087262  0.7521233330867976  0.0828595661509660
  0.3313831563813794  0.5004504564989376  0.0005899980546682
  0.4149436365544797  0.0839140969632178  0.8319416792844148
  0.2486352990584977  0.4151164925020999  0.6645924927884653
  0.0833498673503867  0.0827721051329478  0.0000426142775536
  0.4973713905471451  0.4983659244990828  0.8312041630947813
  0.9988376321802067  0.1647399545425336  0.1686852251442067
  0.1658491302979087  0.0846237199047754  0.7488206194944590
  0.4139380173123148  0.3330554492136743  0.0835300246490421
  0.4154450145463154  0.0010540384636054  0.5825888582446095
  0.3326630363420874  0.5001519051572737  0.3329891027804376
  0.4151518641559663  0.3325827965801439  0.7493002560901963
  0.4153642842781555  0.4166737818303556  0.3335109070796965
  0.3324499937970187  0.3329326152326594  0.3338375661261447
  0.1665637443754064  0.2479160395079366  0.4163511694331382
  0.6652191931820683  0.1662849418145934  0.4987448514185819
  0.3326070092209835  0.2497570009071532  0.5819867284505671
  0.4153182582790818  0.3329727397854347  0.5817188597006477
  0.2479911308200568  0.6714221473376129  0.7481762094747229
  0.0849219944410176  0.4135158733059945  0.8312571963775442
  0.4142024644392173  0.3326427468865236  0.9168550067019547
  0.5802902282837527  0.4143735508213530  0.9991489833621600
  0.9992790286201821  0.9176758200002754  0.5820328597577384
  0.5824262255494089  0.5836964705854235  0.3343991182863475
  0.5817255124846578  0.4166698937623854  0.3332741166022998
  0.5819974560233374  0.4159044101544803  0.1676342363741594
  0.4979669808987327  0.3333663327022314  0.3335640179621264
  0.6629311727134229  0.3303926003820674  0.9996401629678693
  0.0829244426880003  0.8351466453262469  0.2502871192827685
  0.4991334224458193  0.5848652969043833  0.4163261706143511
  0.5817101054238839  0.5003775899409821  0.4167622688042548
  0.4146811480785779  0.7507255277161161  0.3344639297776572
  0.5811666229183113  0.6677158963789805  0.4165238612370089
  0.5809299283281891  0.1658588756899438  0.9166195744251547
  0.6644273306181623  0.7520981262209601  0.2515148155594285
  0.4982228647822569  0.4163413251112603  0.5825749272049305
  0.6641117237850414  0.3321964136746507  0.6655954261289283
  0.4967796205977950  0.3324512232985613  0.8332200407718129
  0.7487081641010049  0.0009770267751491  0.7498143844419453
  0.8320338064781447  0.0828308777998996  0.7494990714743017
  0.5816601522006362  0.7494877113766495  0.4998832468128171
  0.6655239174029338  0.7503892782991394  0.5827327951901936
  0.0025035249168858  0.6704922166256508  0.1686310741363345
  0.6634653383303499  0.5871167427967998  0.0898010586387872
  0.5813622256108009  0.4998767580988818  0.5831018840546834
  0.1657902122674207  0.5854015158027690  0.0835965346058061
  0.8320502258539517  0.8345802818922639  0.4992011218822937
  0.1659875405088183  0.5841121460783595  0.9171600205667884
  0.8331177853069331  0.7537081288638900  0.7481643964482843
  0.1690022637723899  0.5009459368047885  0.1688451036427872
  0.5788799453992401  0.5840642912983486  0.8291226566344956
  0.7491521417368108  0.5834258161261231  0.4992417148881274
  0.6645297260911014  0.7493184481411999  0.4178322356419710
  0.0015316936748841  0.5852439979748045  0.2532662180257932
  0.0831875911433791  0.4148720733156000  0.3347929932554228
  0.8321026573049571  0.5858891670479107  0.2522960629703042
  0.7479489728692971  0.6723448445810426  0.0842202346551903
  0.6650230218373783  0.9993626840333474  0.0000712108873413
  0.3316844999371084  0.8345918825840384  0.3335883713248407
  0.8309937103998449  0.1663436964756004  0.3329473303392846
  0.4156480995051513  0.9173625533243233  0.5001871920687720
  0.3324815811210370  0.9176740018215025  0.4169902810238705
  0.3322381011390612  0.8336457084549557  0.5001438376691668
  0.3328429708800472  0.9176698568909265  0.5823754259632828
  0.1655536262044528  0.9996416398039762  0.3329626357979054
  0.4161880032760590  0.0833369517223252  0.4999338028923754
  0.2501748237417033  0.0834917941564093  0.1680358062839902
  0.3328246423579981  0.0011121791012064  0.8316316062603547
  0.4146485302025834  0.8337320401680625  0.4174989508921834
  0.4144601655680242  0.8351157447208672  0.7487646782114814
  0.3328245272807731  0.8357315854652922  0.9987872870539430
  0.4984106405647435  0.5834156193962378  0.2502812960943442
  0.4985599486908202  0.9168727764020641  0.2511840139968030
  0.5805901251200623  0.3317074407433116  0.7494558343641751
  0.5819921095828308  0.0837299912233033  0.4992774535978703
  0.3315808235174129  0.8352301660457175  0.8320043647603433
  0.9155882072015591  0.0011020598646987  0.9164695607738861
  0.6618448840628709  0.7549199966204239  0.9147174679539356
  0.2487861365596033  0.5835922850097870  0.8379962348734072
  0.6634754722890145  0.6701727663348310  0.1686771634149630
  0.7478502676433626  0.7509260334169420  0.3359686412854185
  0.7479822047707531  0.0832946881671284  0.0006404108329283
  0.9976376475715681  0.4989689216361159  0.4989545053706770
  0.7483777624024599  0.4165917711772320  0.3335537586753716
  0.7476836029673266  0.3305930096694947  0.7480003890432975
  0.6619729313468234  0.4974427416287706  0.8298571426671368
  0.6653484549170361  0.4157124771107636  0.5831137531281636
  0.7484890154080668  0.0006265390844082  0.9158920184089260
  0.1662301238675681  0.0001137018773759  0.8320980359406872