 C Cr Ni 
 1.0000000000000000
    21.1200000000000010    0.0000000000000000    0.0000000000000000
     0.0000000000000000   21.1200000000000010    0.0000000000000000
     0.0000000000000000    0.0000000000000000   21.1200000000000010
 C   Cr  Ni 
   9 259 605
Direct
  0.9180062603786912  0.4162438822364881  0.2513051817716118
  0.6637733984199203  0.5846586902097309  0.0047894290804107
  0.8265302940188636  0.4954301406669090  0.9139788420785244
  0.9178323296245396  0.4974698568415071  0.0089692296660545
  0.9171938583006605  0.5918067900912427  0.9152355599763518
  0.7518414060185025  0.5794024296707168  0.7472295509498504
  0.6614424572591241  0.5830945429248863  0.6596716320112933
  0.0095481870911519  0.4965032226015453  0.9139556371129917
  0.7496436574754782  0.6721684368815473  0.8366553045797561
  0.7475917097258037  0.1652803056257525  0.0841341581667874
  0.3313397789224380  0.1657745066208296  0.5001870284538070
  0.6662105496752262  0.0828649906654693  0.7491038087493158
  0.4970334706608753  0.1655234076790026  0.0007310460585804
  0.5826086706403099  0.3313106957394467  0.7481878305323111
  0.4157095681838951  0.1657698204605793  0.2522305915164515
  0.4138450743617611  0.2479780646653530  0.3337102076176359
  0.3330032261773176  0.0006248342616472  0.4989725047527481
  0.4146009357255598  0.9170908746336428  0.3335244556495092
  0.5001053585168777  0.9996894688983093  0.6647746717718922
  0.2502658064609554  0.8359071344692712  0.5821369659836676
  0.3318257977164960  0.1662709925848531  0.6665864183737128
  0.4982911157032859  0.0851126849999981  0.2506219883468134
  0.4144883322931642  0.8348242520242136  0.5833244369723786
  0.5816510380368537  0.2489969729229315  0.4997487404509424
  0.3330830629645135  0.9175426736579362  0.0836586716063802
  0.2515079620818875  0.7520545375719235  0.8308411164144912
  0.3321753568990009  0.3308063441824964  0.4997292843655751
  0.3310853019702397  0.7485661298597115  0.4192581328827146
  0.1657057272182136  0.6665537122802804  0.3341738197436504
  0.4154504687625225  0.9994418562137466  0.0845011812253824
  0.4989583480090017  0.3315393977764740  0.4993959385131055
  0.4148035130637605  0.4990874221968154  0.7485689665289815
  0.4159849401061509  0.3331607850329018  0.0850473481167039
  0.4978706776662541  0.6694489514436551  0.6670994675497572
  0.3321949008695029  0.7517693860850537  0.7494244579384339
  0.4978839641883419  0.6703728762985609  0.4977387098700241
  0.4986868825261714  0.7505918923236010  0.4181672328891031
  0.9149283226214212  0.5888059039710606  0.0070827126728962
  0.4988113657295679  0.7504302730559080  0.2494633758360366
  0.5709598952964360  0.5848695569999016  0.6638209878238486
  0.5778879609324703  0.6714795770307481  0.9166570402940150
  0.5736598712184617  0.5817681390826739  0.0022900969514212
  0.5833754843226656  0.4979818044028485  0.9160721288343512
  0.3315596013454475  0.7490900994403875  0.2512123549869359
  0.4154294574152950  0.3303837158991318  0.4162659024190710
  0.4146260562644800  0.4997370392055327  0.9160186589072251
  0.5803089292804945  0.4128472605144633  0.8336311768083925
  0.4956687799502244  0.4125441223944555  0.0844202032067574
  0.8373238638049533  0.5853099095354964  0.5804386628307509
  0.6655898309391355  0.6744414526614481  0.6649431809089533
  0.4962576618921943  0.4988981128768711  0.4972079363177900
  0.4146649746498436  0.6661041405018291  0.2507827262068182
  0.6614738661184354  0.5830568032698155  0.9144805598563925
  0.4973223341650111  0.4155669848643431  0.2534310133336710
  0.5803227483076590  0.7513227362166277  0.1687059831735924
  0.6611126587036321  0.4113589498560550  0.7486787523669076
  0.4992177854827821  0.9999774925216874  0.4982373575542005
  0.4998127792875188  0.1653981441988542  0.6669188780219363
  0.4985084322339480  0.1660457581372812  0.8334137314975745
  0.3325305274631101  0.0839883296414650  0.9160169880440507
  0.1668198785747053  0.9995623939154208  0.8342956932074221
  0.0853851668771330  0.8368010913282110  0.7497105038807120
  0.1662487988651201  0.9174540391332088  0.5814616407237899
  0.1651963594959007  0.8357562362435119  0.5018654613841433
  0.1677249565366833  0.8347220814816327  0.3346875270207551
  0.4980551931286489  0.7531127428934562  0.0838540508691748
  0.2501699864878364  0.9155736580886884  0.3340620737093482
  0.3328554103121208  0.0841227606504736  0.7484283551381069
  0.4173581683344776  0.5820881909248981  0.0014798198387181
  0.3336991721130946  0.9188094994817849  0.7485368906677609
  0.1674221729198399  0.8335218093698696  0.1661513969567283
  0.1673669671440783  0.9187398085758133  0.9151226812589360
  0.6642866237581152  0.4924347514562088  0.0030386963865272
  0.2502220186511059  0.7515550373595197  0.6664310347639285
  0.8328460173568879  0.9989359514682548  0.6649714637508897
  0.7486167377506483  0.0831234125268873  0.3336621895814660
  0.2510948436336146  0.7529631530130232  0.9991425987673911
  0.2496649943845015  0.5834930973986044  0.8332791340172978
  0.4982728157701483  0.7530085836103532  0.7487898829322108
  0.0847848190109270  0.6677787681521687  0.7497545232861976
  0.2510027334742080  0.4993584898031210  0.5818028956659226
  0.1661630640918084  0.0825768799737105  0.2503750724306079
  0.4170485828601106  0.6694664897651891  0.9149406513394293
  0.4983586314418830  0.7531061103877379  0.9164372250110079
  0.3324617066914423  0.5828337645428279  0.7497776376522448
  0.3334219419567688  0.5832985172193987  0.5824959252624065
  0.4151427477553492  0.8362864774878116  0.0838664379145693
  0.4155859700945418  0.1654867936706525  0.0841691255552351
  0.2495065524646471  0.2494081173150575  0.3338935253690516
  0.3325930566291053  0.4996522054961735  0.5002999020692300
  0.4972700176892390  0.6674516607196775  0.8331860978631905
  0.4142713832441696  0.5000466302097337  0.4177652799904423
  0.4143461547014068  0.5839445525792649  0.3339440824795105
  0.5790868883472299  0.5827405944437302  0.1667311940379836
  0.3334854426131200  0.5835024961849193  0.0822239058589951
  0.4134889580763522  0.5008452150792083  0.5814521026394922
  0.5793655445517657  0.3322548319560379  0.0857755025081168
  0.4162511023620246  0.0844995709487174  0.3324377935842649
  0.4149659711525535  0.4132719756219645  0.6650299493516174
  0.1673828617736460  0.5833415794735448  0.7498112985873555
  0.2499301195448030  0.4154050010617622  0.6659073003071381
  0.3313495284949388  0.4159067849115441  0.2525487037429754
  0.2489492808765381  0.3305826285020098  0.9155942600413578
  0.0014120501301591  0.2481286254720436  0.9172259608908864
  0.7483560653373760  0.9199220000280760  0.0023692881802464
  0.9160321186221553  0.0836147028492316  0.3324313670153859
  0.8330983777519152  0.1667252336248095  0.6663141738705248
  0.3325615324739874  0.4137904243532964  0.0833514909357380
  0.4984006573587694  0.9176758359854628  0.4175788039275152
  0.9996722235785904  0.2480241661860960  0.5829484629995838
  0.0844647736909802  0.3296192974291338  0.9177745614982933
  0.9141419115466399  0.4069528192281418  0.0020340717528497
  0.7481937378112149  0.5824154588123245  0.8360637921923486
  0.6650847527157913  0.5831787035829631  0.4176646917162553
  0.6632058178653718  0.8351829986264202  0.1696315894802962
  0.7490167624866416  0.0840946974863655  0.0016033742489183
  0.9166374983000557  0.8364451198970306  0.7482980821952560
  0.5826325872626160  0.7519211032233796  0.4993083713300226
  0.8304498178208852  0.5000951232067469  0.1682060763848688
  0.6635525592410650  0.4959784150951347  0.1698529595430857
  0.9159066438825382  0.1669941407313609  0.2511044319224237
  0.9163818022924731  0.5002510928969592  0.0985438618315464
  0.6632499960464318  0.4111518820375591  0.9167481647491189
  0.0827749904226610  0.2474729142763487  0.6660572140813492
  0.8331223734195560  0.9996499619137166  0.4987709477223064
  0.9168328443622795  0.3338748684197775  0.5810763172517956
  0.8333067262681715  0.1662969619927058  0.8327101332124629
  0.8343180048622973  0.3322277316970454  0.4982787098619034
  0.1694559230810237  0.5862373655558603  0.9152754591157862
  0.9176507110815263  0.4168930359619566  0.3410983970578871
  0.5815415710748604  0.9184717513290138  0.6644991740494939
  0.9178444728517934  0.3262232662041754  0.2518324266129512
  0.9172851547377450  0.5842928205579795  0.5019161806446937
  0.9164351526773669  0.4125011020526645  0.1615059187778853
  0.0835237585951639  0.0822703993333558  0.0001644838809603
  0.8342594783683430  0.2458437396217727  0.9158422156657937
  0.8328772721770962  0.1667169781643164  0.4987062416769986
  0.4141389178651987  0.3309576273991128  0.9155887417876606
  0.8347113823273365  0.4131130903422369  0.7478903388964252
  0.0012086147348751  0.7510170520026042  0.4160096357323357
  0.7490437811089034  0.7512772832322082  0.4988217427451451
  0.8331612137347106  0.6691082283457459  0.3349403111463716
  0.0032865126714627  0.6714362409768028  0.1664762628534820
  0.8325196277832283  0.7537044070142369  0.0861254616319116
  0.9148137118260573  0.0002098568168436  0.7483378660305197
  0.0019009963035710  0.2481330559491298  0.4155168754662297
  0.9152689197318591  0.9158767622560170  0.3334985213910285
  0.9173854271868738  0.9990722179657071  0.0851244039327382
  0.7486179923495704  0.9170362304271001  0.3334155953319445
  0.8337503793900385  0.0004413365749230  0.1678062952682934
  0.9183095901315752  0.6699439196838883  0.7469462700429653
  0.9166953444715794  0.5056517633934469  0.2471645920938893
  0.7485010732496062  0.6715536620146635  0.7453762601993248
  0.0016652448387541  0.6684251277854403  0.3349170204053350
  0.9178000308367267  0.5007469367806543  0.9179901290645857
  0.9178593667199695  0.5832010533967051  0.6630097214951500
  0.4965473924973206  0.9190604221497417  0.2526361706323625
  0.9159607725148037  0.1652074179078463  0.0839268572351165
  0.6664188258477280  0.9986994931315509  0.8334104463660290
  0.6639203734172187  0.4110198504299151  0.0853043211344806
  0.8340817367672665  0.4066541732394606  0.9173037424058206
  0.7499400752320228  0.2490296923600240  0.6650243685442345
  0.6642315123598710  0.7521386947094937  0.2490115219667971
  0.6649897547216600  0.1659848566434647  0.0020986079905465
  0.7489478035391575  0.2497506956900292  0.3338337200702655
  0.5825499189542771  0.2508287309135410  0.3347086319305205
  0.9176774780094985  0.6797818351151672  0.9183433773903088
  0.8333609928419345  0.4961489810759782  0.8240125997392913
  0.8349550082130148  0.4134019606038963  0.5808307931588431
  0.6643826768887134  0.3306484426375332  0.0015927899630378
  0.8260015274327841  0.5862037859365810  0.9177559257000995
  0.8315803196008638  0.9985715826289004  0.8329548240943345
  0.1646661856586973  0.1648193146895386  0.4993509889732249
  0.6651257797716460  0.4164541517506773  0.2512961991866718
  0.6661633554657909  0.0835458363008614  0.5821378543838839
  0.6644951945459400  0.9994935325327888  0.1690980369935272
  0.8321672356227844  0.1664604663963220  0.1678575614031422
  0.6659006505826117  0.0837986919849818  0.2503388984992492
  0.4167272785742903  0.8339830118529461  0.9152718233028921
  0.6674239052604665  0.0836800148096436  0.4161375286740995
  0.5804784742284773  0.9196978079504426  0.8322605973176600
  0.2485950131921476  0.9991726415680400  0.9153094283840671
  0.6643875634102768  0.0008386779574451  0.0005741507928584
  0.9163398196474712  0.6668439973904587  0.5808733093728040
  0.5818389664138863  0.8356422668268513  0.5829223353786309
  0.6661503466632013  0.9165671288845647  0.4172110288610952
  0.7504415017907584  0.9190328938189787  0.6639951385459714
  0.9155903640660196  0.1654884567169934  0.7496796221736242
  0.6643185658791184  0.2487476709991671  0.7485393327421467
  0.9167494044067562  0.8349768462738670  0.9181519019449590
  0.3320387533810570  0.2482909713910624  0.5827815285151331
  0.7498573776480697  0.9183121805529195  0.8322482235990526
  0.6637172680717437  0.7544701429763019  0.0885283084139872
  0.7477562613622398  0.7553670252303591  0.0045813490201755
  0.7477760419284283  0.7602182742744547  0.8327138357248369
  0.6645674779283633  0.5826849892695907  0.5709713756803130
  0.6650978735472778  0.7536393592793355  0.7471254539797634
  0.6650592220110944  0.7530687174593372  0.4156725319318126
  0.6656578490530344  0.4984531679751872  0.3315438721068644
  0.5819929865280219  0.3304735493160363  0.5793729728931933
  0.7485920372037975  0.5006147667779240  0.2523779591130196
  0.5812194007467172  0.2491379315221541  0.1672208094292220
  0.7367646821227648  0.4955044964397999  0.9160382931258201
  0.9981969661799928  0.1664650079323636  0.8328065585800074
  0.6635685935410800  0.4917401956604944  0.6622048760846091
  0.6660135677310882  0.4997901888747490  0.4976099865297339
  0.5821396273746483  0.3315023108575292  0.4173026528359287
  0.2497093284021028  0.5003510699641331  0.4177230421594288
  0.0847704744996702  0.6659090047489142  0.5814851377540531
  0.1654869965326206  0.6668643002014696  0.5031653548640941
  0.4155168469238467  0.3317811502145441  0.7478991633926719
  0.5807789711934522  0.9203222069214685  0.0007327650785381
  0.3319935623903730  0.9168368616634461  0.2512802674147854
  0.3319986638434694  0.6685816042326705  0.4992776819281658
  0.0849595978314664  0.8352694246782441  0.5809208779914694
  0.7540738324325570  0.5857300288448540  0.0052719888984631
  0.6642768784124840  0.2473952385453773  0.9183551335561203
  0.6599662586764672  0.5826479538340904  0.7498661613065836
  0.6629313809755808  0.5813000906688479  0.0952939192982275
  0.1674155771003333  0.3323146412792137  0.1673076446958027
  0.1682573682676370  0.5852128761244894  0.0835689138110223
  0.9987054078655175  0.0821875198033910  0.5824724495694281
  0.9984332336178189  0.9171276959977039  0.9177298608757777
  0.0840023735438187  0.9170872590101458  0.3345193422328869
  0.9976317201427028  0.0841319733682004  0.9156903504613038
  0.0022975601345074  0.4983821581983722  0.8248788995696366
  0.8268076482032930  0.4983600254803637  0.0048176320127198
  0.4963408776109596  0.5821778393904123  0.0847796007643268
  0.1670236928206028  0.4144775590429172  0.0841212478458728
  0.9161877289545814  0.8346841924440906  0.5799647843749954
  0.0840976184971926  0.9993257204254372  0.2516946557049379
  0.9169485573351399  0.1662613559552531  0.9156085676111485
  0.0889951021481748  0.4150879661701143  0.1659180154228070
  0.1640537973875331  0.1656378540166905  0.6671557904153953
  0.0839819812646384  0.4171635909470517  0.3357873867173750
  0.0841737736071446  0.2470369040259423  0.0000405168357371
  0.0850855734273716  0.7531335983961718  0.9990232589976638
  0.1646016954282870  0.3331923085838857  0.4997306562050439
  0.0013467068074781  0.8354878073339707  0.1658952740540732
  0.0840269632535443  0.7513272240449612  0.1662873515889579
  0.0850966853884088  0.4146674802286770  0.6664828577780078
  0.0037179267233711  0.6711043376840170  0.8300276751397478
  0.0851575606751128  0.5848037790344344  0.5015523883003895
  0.8324534794406363  0.6707528161580207  0.1686290612203898
  0.0827754277893284  0.0007723910331233  0.4147165605202563
  0.0844589932083140  0.2473402082913644  0.3339827765035887
  0.0828595765300934  0.0814192214883492  0.3332093577935691
  0.0856327938641418  0.5864755494041600  0.3335985092458055
  0.2503723161762541  0.2481331339174122  0.8333132632445663
  0.0038322801900013  0.4170891305898553  0.4158936802158209
  0.1650923954554704  0.9181804143232167  0.7490335390831502
  0.0878825750847426  0.5857632164860288  0.1663829331880081
  0.0023049457334879  0.3297815127842732  0.8317899247141350
  0.2489506358495242  0.1660643419630161  0.0840694572035128
  0.2486599650822351  0.4144041041978617  0.8327486722613046
  0.0078800321697779  0.4986489466995598  0.0042778396724894
  0.1675611097902827  0.6668286455266432  0.1651223829411446
  0.9984329794850596  0.9991925102231586  0.1658291942277573
  0.2505286658876941  0.9990403953322886  0.0831196102711295
  0.0846672430686052  0.2485707874915338  0.1660068151398537
  0.0845233116746420  0.1649924696219651  0.7478863391709217
  0.8333683791659466  0.4158542490799599  0.4168204230449306
  0.8333589003499066  0.5850559054233944  0.4141364847079921
  0.0003977704847367  0.9173870769478748  0.0848227177508983
  0.0838778517874671  0.4160228902391444  0.4995223490254345
  0.0845677824174615  0.9994031520398931  0.7506209832217772
  0.1664503422735240  0.4140458670175579  0.7486434379035192
  0.0841437541097602  0.7510283807864597  0.3341470808793862
  0.6596069930174260  0.6698265220121251  0.8329277247385218
  0.0018961488622154  0.5849517710886740  0.4171732904515629
  0.7479274650859156  0.3312918910929316  0.7482319618052334
  0.7495548122602917  0.5007587753679212  0.4156754945295683
  0.7478224852389308  0.8365374978931516  0.0860213605139178
  0.8321927786565646  0.3309559642454342  0.8316934898844213
  0.5822677025314635  0.5832058602210486  0.3342365639615422
  0.0859555861557687  0.5011385658277279  0.2505794845937372
  0.0075413155745803  0.4164602657522445  0.2504251361669804
  0.7505746670084710  0.7534122853241835  0.6635899051461721
  0.7491632996482707  0.8353466298911447  0.5813751519821756
  0.9170488538309014  0.5854739721641266  0.3329825054303724
  0.5797945520530391  0.7535983735655351  0.0025913544385991
  0.5795748110798387  0.6679048157697490  0.0853575843225086
  0.0835803940939588  0.2472948784246754  0.8321436906869155
  0.8312618666990085  0.6727031082177463  0.0031864061953897
  0.0831981224760257  0.3317922341362839  0.5826610551003574
  0.6655715012700179  0.0830216417843614  0.9173688358948731
  0.7484638118446936  0.6684318513591483  0.2506063736333790
  0.7484221071814334  0.4113320112496950  0.0021766964707624
  0.0018721193804510  0.4143169416499621  0.7483544553241616
  0.1667022797535802  0.0826119883565724  0.9165965870149617
  0.7486287649506987  0.6677721560102086  0.4159524981377365
  0.6652638334182619  0.1665029562532924  0.1681639827005916
  0.7479763700308133  0.6702833891268638  0.0874692409372691
  0.7485958898586671  0.3318905354036095  0.2518577847870603
  0.6648780368219599  0.9186720182345895  0.0845538624165463
  0.6643148335124841  0.5824895469285303  0.2499684912985070
  0.9171681128666223  0.4150327614144698  0.6652837641536057
  0.6655320603828395  0.3323984094163620  0.3337299490935901
  0.7467360679926576  0.4121811589468782  0.8309100620090151
  0.7492039145564227  0.3321637173430863  0.4166712723770554
  0.5803428146686530  0.7519122608189677  0.6647848190541962
  0.0845550284726503  0.5011118220312387  0.4169641757560962
  0.3331278980712192  0.3318634572659215  0.9996733231284954
  0.7501271107502738  0.4162929525139958  0.4982763396114784
  0.4151683636319437  0.6675564390509772  0.7497319450791766
  0.4162866358566871  0.5833128315173600  0.6662476314739704
  0.2487082357179453  0.0831015082692108  0.3328296530820519
  0.3334473992930724  0.7516622414229542  0.9156054338403911
  0.4152325584245444  0.6678509798094550  0.5826600337218485
  0.9995079769569729  0.9996557514961937  0.6661794888367452
  0.2500901340527590  0.0006277007499747  0.5825013636526762
  0.4157787209812487  0.9185062028240611  0.6650962628107207
  0.9169314725607558  0.8337322017731500  0.2512091222312131
  0.0058410073885180  0.5885442477395920  0.9160215987416972
  0.7474258375151541  0.3299303547395119  0.0847276422900657
  0.0858068294214395  0.4991703564179286  0.7484178672151848
  0.0844509203750140  0.4993451737563849  0.5830391169337329
  0.4972792481152623  0.6689545566927227  0.0007922708741330
  0.7485189806470850  0.2472129336465084  0.0003246413125525
  0.5799611432497177  0.4146110267893025  0.6634410591562588
  0.7505494795686118  0.4983248068540563  0.5796582348179193
  0.7498927024844746  0.6681737022616843  0.5798306473927742
  0.5809666731019602  0.4160136723589288  0.3343991658016729
  0.6654666470666033  0.4165442613557931  0.4160709675214599
  0.8340295122179823  0.8351949232351771  0.6647651911322212
  0.4158362323656011  0.0835740667105210  0.6655666333986474
  0.4989811045155686  0.2485412939855893  0.7489042593576463
  0.4992392191717912  0.0002799897812514  0.8323946395982625
  0.4988277644906493  0.0834163540159918  0.9168079075152765
  0.4154832614108981  0.9182079501594079  0.9998583376568110
  0.5798470480055785  0.4971859501250007  0.7487820311151633
  0.1654257891197896  0.0834904553937588  0.5825232738685274
  0.4152534526996868  0.6677940499133328  0.4161285997899113
  0.4150775370228161  0.7500351048276449  0.3337505201597813
  0.1658073219990369  0.0000852780247996  0.4992518180410272
  0.3327401944722149  0.6674882346503308  0.8327496900215081
  0.3321125843041354  0.7507602045803580  0.5829879968847386
  0.4154357704454258  0.7513368656535448  0.5003039200884436
  0.2506770891784263  0.5835035413144508  0.6666846846496538
  0.3327370630594119  0.6671670421013668  0.6672935490147411
  0.6645143022841086  0.0821360013977323  0.0853478740948590
  0.0008697719515789  0.5836542677497777  0.5830324172799277
  0.6654820807095270  0.0003602143615201  0.3338286772035953
  0.4982858860140451  0.9180769757898996  0.5817009243871586
  0.4990305306769447  0.8343672212471085  0.4992275703126784
  0.2503165128292576  0.7508656180525489  0.1662081204620057
  0.0848920128483666  0.6670879942623957  0.4182958477224180
  0.5815715866824779  0.8366573679311540  0.9168106615817028
  0.4982277334783690  0.8355414278690603  0.6654657610696166
  0.5803394716699837  0.8356303915993899  0.2520243350009005
  0.4984305415645596  0.8354898737826878  0.8322517928989827
  0.0837755882956815  0.7519715877412463  0.6657556365356794
  0.5813131109922561  0.9176363169154336  0.3342088035319549
  0.0007867349230243  0.6674328320088472  0.5002472554982046
  0.5804582762765481  0.9182050189235523  0.1686236160120805
  0.6656699777218864  0.9184596002664009  0.7487690934829291
  0.0006386400562829  0.7513360387781031  0.5822891753661125
  0.5821504836625276  0.9174194778807023  0.4996632173159300
  0.4977043402833644  0.8335506005461712  0.3335004868517595
  0.5822234926427501  0.8365618739538700  0.7480689408902222
  0.0007224498197240  0.8344217655778923  0.3339893235486223
  0.7492137209831653  0.0002220214123572  0.2511330277152176
  0.4975699342724063  0.4150007889933052  0.4165815105869560
  0.5820070609654113  0.1651908416510070  0.9169125266694741
  0.7479016282478181  0.7525038960869621  0.1682822354441417
  0.4156759587241212  0.2482709720589773  0.8321759364433501
  0.6654072359513526  0.3320999006110253  0.6643120244636406
  0.4976204570014102  0.3314055937741728  0.8321336955563151
  0.4969306815218847  0.4148085402257483  0.9156573385617598
  0.5807264385680648  0.3298957157055361  0.9167523291301189
  0.9188112698932790  0.5845928577522868  0.8270118229929716
  0.7484313131354722  0.4138762521080659  0.1684341472778631
  0.0837632514567993  0.8346770351414493  0.4170533003818987
  0.6645081109997228  0.4150517349650329  0.5794336000929047
  0.9989896123489844  0.9173639049204263  0.4153604414622092
  0.0015086553838523  0.7516331136603533  0.2511559920019326
  0.4964533331997197  0.4981222935023372  0.1682831961298606
  0.9180082294503625  0.6693939722803478  0.2510753793314320
  0.0849635840502007  0.6697418723956045  0.0819263543421003
  0.7486620128544520  0.1657700136885577  0.9165678668301579
  0.9177740178556512  0.7521497544373821  0.1680816214126398
  0.7495075737368533  0.1660805017709305  0.7491676770546546
  0.0858063864954690  0.5841780062744923  0.8312818625887342
  0.5827676920374164  0.1653391379432108  0.5826396974410610
  0.5830955969633266  0.1662703406455418  0.4160545613482138
  0.5827648680041950  0.0835547714360337  0.8325209300291266
  0.7502503135189958  0.1658107907785689  0.5822346666656781
  0.6643266312123367  0.2489420758623466  0.0839720337995821
  0.6663313379129773  0.1664868543096312  0.6654918084978839
  0.0019448172877703  0.5851508299318940  0.7474788932368118
  0.0017841126192774  0.4991656375445862  0.6652000738852853
  0.7489232094275743  0.1660649187038262  0.2510094713178872
  0.7480189745327301  0.2484926605081884  0.1675332157328366
  0.6657106244608834  0.1665181445929013  0.3337085351917440
  0.2499832970335719  0.4990481081212657  0.7487838624172317
  0.6658255210410209  0.2488436917760996  0.4164336282340393
  0.6639039588459823  0.3316579081559158  0.1688133489700366
  0.7506241501246261  0.2489118004282175  0.4997673440186337
  0.6664043355010950  0.2486430369053906  0.5819128753828118
  0.8332660501449312  0.7508706470330565  0.2504795955039892
  0.9184072557843661  0.4976932932087484  0.7470856734916211
  0.7493007578274939  0.1661613192883721  0.4161226931425731
  0.9169970268880174  0.6709667688067928  0.0854070764603477
  0.7481092680063176  0.3296939803602577  0.9163058112507888
  0.9168645882930779  0.7542631833452511  0.0025176877530958
  0.6637225158167531  0.8375816775799398  0.8332230390445934
  0.0820739188014608  0.0822624050817758  0.8331236509277872
  0.9172209052279544  0.3317856744222385  0.7483774772932517
  0.0016105264067836  0.4156760825046699  0.5823501507259685
  0.0827135775791843  0.1650338871540681  0.9164358413185333
  0.8325490688774363  0.8342803728800136  0.1676458494076239
  0.0010067171553049  0.2476006493228010  0.0842660606559925
  0.9185982760847308  0.7544306542895578  0.8309417358129731
  0.7460148683051135  0.6714783217834174  0.9239394155165879
  0.0002188654291191  0.1653185570950963  0.0004288588404181
  0.9174376246592250  0.5890259263070423  0.1682149012394225
  0.7499326795334696  0.0830751448771958  0.4993217123578769
  0.4977192774732551  0.4153002923053226  0.5810408622634008
  0.0037758590303830  0.4140902140403886  0.0858420402949725
  0.9171395140509937  0.2483417037305450  0.3348053701974000
  0.8340682550781597  0.2494245691023850  0.5819788736787509
  0.9181194685523226  0.4169323101289648  0.4968074210890210
  0.9158616736922061  0.0831689122866646  0.0007369839998693
  0.7492433041991304  0.0828489789772651  0.8331007902142732
  0.0021873382933474  0.3313525457721661  0.3340183354911150
  0.8338344606510407  0.8359238135986697  0.8331761036629208
  0.7489847158806457  0.9184695476190703  0.1683938418277956
  0.6650873851948598  0.8343198468341023  0.3326538545933543
  0.6659608573185423  0.0007428941465393  0.4986947996167010
  0.7486060286725235  0.8342378008394263  0.4157371137455088
  0.7492829752634235  0.8342673726041149  0.2506566680721450
  0.6658399142632885  0.8349427345258458  0.4993441993242296
  0.6656178330793390  0.9179648943439697  0.5826449737257566
  0.0010677233338787  0.3325388121594250  0.4991438955002107
  0.7495290219018380  0.9178799103260475  0.4991276786359953
  0.6654579355143261  0.3294268691796391  0.8331201035454668
  0.3320175501712899  0.0837583129316962  0.4170826214582083
  0.1666854878763140  0.4156992441511071  0.5833390659336682
  0.3322663168856283  0.8354964455297488  0.6665577763989369
  0.2488461292841610  0.3328926442896703  0.2512838506900902
  0.1668181393834242  0.7519634420141411  0.7486659856715597
  0.2497639801090288  0.6672132960468629  0.7498753892180096
  0.2501308248025835  0.4165150540483036  0.3348550807605620
  0.1680894546373555  0.7523990032215528  0.9161846109259055
  0.2511142674316061  0.6687660352577824  0.9159921765745019
  0.2504723889959919  0.9173274485156814  0.8313842932574514
  0.1680233712480548  0.8348930992378040  0.9993474288336184
  0.2502749852383684  0.8342339102841634  0.0835040153838471
  0.0842536705611017  0.9169165024729655  0.1670780785584209
  0.1671675641323742  0.9165056880710976  0.2505447452684799
  0.2496112237635782  0.8327669191606761  0.2507098998901947
  0.1661324629600254  0.3322239092547806  0.3337471753699874
  0.1670767136834142  0.9174181793828696  0.4175147767894655
  0.2496297901918873  0.8333011173931801  0.4176501306353793
  0.0830827579450064  0.9994148675368573  0.0840122064198219
  0.2493408908358025  0.9994320536845112  0.2508025893915088
  0.2482821656203633  0.3313940048307519  0.5827253287942612
  0.9999487817329612  0.8343481320655922  0.4994566739188969
  0.0004767112631922  0.1654900894608939  0.3329433387225001
  0.8345476433823061  0.4993548295691925  0.4984644711453318
  0.9992022710436268  0.9995754124648332  0.8330427550716821
  0.8331582344518889  0.6683317051771154  0.4974116673296733
  0.8343827988345764  0.7519975297783743  0.5816905495255101
  0.0838528584160831  0.1649548885096994  0.2502867478062926
  0.8331836025069017  0.9171884175309524  0.5820348857709935
  0.9161821884089643  0.9171650283648183  0.4994482551491277
  0.0816479257586237  0.9184445645104306  0.4990495308442368
  0.8330243500740413  0.9170640281258204  0.7485309150662753
  0.8326781935242911  0.0832453556263858  0.4159168545515067
  0.9993422469294663  0.9995765667192660  0.3326828799959143
  0.7484465032538282  0.8366835453257430  0.7480176677520211
  0.8323149825538642  0.9176555259035527  0.9170882098979676
  0.7472630760582162  0.8375847608128100  0.9189716526890228
  0.9167568458302444  0.9176195967592228  0.8325793329056740
  0.5822368237850322  0.6685202742764941  0.4161716083065577
  0.3332708972729623  0.6676049686710347  0.1664990465824054
  0.2500034165911269  0.3325503205761050  0.0840183480215792
  0.2486624437721612  0.7502425335626028  0.3346200281254159
  0.2499704251154671  0.6670839879142242  0.5837490776632500
  0.2492850033067366  0.5846673199823087  0.5000075680221989
  0.1695787459983628  0.4997388462239183  0.0012876683687775
  0.2506675862835937  0.4997913198063243  0.0840476216580658
  0.2499692438616428  0.2489707528708205  0.1665349051655726
  0.2497663288942595  0.4995005791633767  0.2506727263632980
  0.1675374762031739  0.4990572432593181  0.6662036580828450
  0.2502532986084282  0.8349730061229524  0.9152353137879834
  0.4991620103570070  0.9187151164542111  0.7481061373437038