 C Cr Ni 
 1.0000000000000000
    21.1200000000000010    0.0000000000000000    0.0000000000000000
     0.0000000000000000   21.1200000000000010    0.0000000000000000
     0.0000000000000000    0.0000000000000000   21.1200000000000010
 C   Cr  Ni 
   9 259 605
Direct
  0.6634139245792287  0.6716006525674083  0.7495500816976161
  0.6579658674541553  0.5859888333198366  0.0065298101705564
  0.8374972875765380  0.4951429490196779  0.9112308146420788
  0.9251091798893261  0.4963868985081215  0.0056184493204517
  0.0855184030001581  0.5851741082840617  0.9152956127283755
  0.7458945047205580  0.4935938186255849  0.0065042910456216
  0.6613020855209746  0.5779562636013673  0.6624869757652034
  0.7486140266001288  0.5884364428858232  0.9127835727573503
  0.8361163880110718  0.5803644159002723  0.6629268384706067
  0.5806608578938044  0.8362705703449890  0.5820869178494904
  0.9183319114815576  0.6673023829273372  0.5807070924106967
  0.6666381125053402  0.9182011065612610  0.4171101897023296
  0.2477559105077440  0.9995499914507064  0.9157443533464548
  0.5799706535939133  0.9196545674324864  0.8336369012860432
  0.6649187045022980  0.9988402934215007  0.1673406454529976
  0.6649692815608917  0.0005070052946846  0.0013420678778493
  0.6661137794683113  0.0839271565772579  0.2498122113747669
  0.8333959808716170  0.1659036747045717  0.1677424881146104
  0.4147607907085742  0.9198073858879567  0.8331230708585086
  0.6660465666945258  0.0839331885318011  0.5829212004450557
  0.7488546506085760  0.3317502113486048  0.2525116621491958
  0.6666647115904342  0.0837398230021065  0.4155633245767950
  0.7499034233685857  0.9178003816598468  0.6651068608565832
  0.7489915575853443  0.0828867639580201  0.3333234832336186
  0.6658732094142106  0.1672626725976982  0.8338036212378374
  0.9187864829874705  0.8359243676271353  0.9186762796988853
  0.7493892873635082  0.8357765750665064  0.9170286480776728
  0.7484748359701143  0.8333688653859769  0.7509600121615787
  0.6613995828288634  0.6758659923926202  0.9990722474994725
  0.7478567258552147  0.6779454797679501  0.9172906241065500
  0.7519226317247245  0.7547068561456413  0.8324006030347931
  0.6636909821609980  0.5815900489409161  0.5728079749695119
  0.6643064636593865  0.7612419765109297  0.7498764363866540
  0.6656001675341470  0.7520700723801791  0.4163270191011751
  0.5829108453427960  0.5829195426028848  0.3343352171575343
  0.5789738128988179  0.4156000832171088  0.6656424809194007
  0.7482009078993827  0.5005506823145843  0.2499622121901632
  0.8336727369421792  0.9994167700911967  0.6656700866811410
  0.8338138279156390  0.9990891459265471  0.8325504474579334
  0.4970293737788302  0.9180822788631553  0.2515903660060851
  0.6642917799523900  0.3306025099335311  0.0001491170664265
  0.7484525109873867  0.8342306923383837  0.2507325916345164
  0.8337546002115473  0.9996269921393888  0.1674207503241060
  0.9208983716032003  0.6685495056875929  0.7460001016179650
  0.9170639000918951  0.5012147613602026  0.2499052865339394
  0.7483059247325008  0.4950291333332927  0.7471083709540168
  0.0013708862952755  0.6688118575268138  0.3338420961147942
  0.7488114155648590  0.8361574421137501  0.5812948106615115
  0.8328083697226241  0.6682695998451712  0.3347661095551991
  0.0022539570763454  0.5863768830957831  0.0863304786464692
  0.8327955131310643  0.7530781984135236  0.0851166005831921
  0.9149895236772200  0.0009522949907480  0.7486181427144218
  0.0013424918068260  0.2495466220902622  0.4142340441866103
  0.9147793424062605  0.9156337766645631  0.3334929621288142
  0.9162080653221609  0.9993862196929935  0.0836812482899240
  0.9269271693579306  0.4968772972490727  0.9150204560278561
  0.6638221864837343  0.4102307588792485  0.0850780026706386
  0.8372945036337861  0.4047499310767100  0.9158008426492896
  0.7507808385458475  0.2476641268533665  0.6658784533018791
  0.6653461941066736  0.7527547018639567  0.2508691397249227
  0.6662045046339620  0.1663226583639270  0.0021386137821119
  0.7495419312392784  0.2484998901404474  0.3323441465043409
  0.5828368304782181  0.2497663781088172  0.3325379029396399
  0.5817278876266396  0.2484271105177978  0.1660796891447541
  0.8406045120910017  0.5872042578415720  0.9149512163821082
  0.9189155360528772  0.6706482997488298  0.9178840846584279
  0.8347600580390743  0.4967019462338353  0.8225357584409287
  0.8351754739554145  0.4126206430344659  0.5804654384061096
  0.9161949410130592  0.1653137602094747  0.0848015138685549
  0.6656264930098478  0.9992230188480674  0.8336894758010442
  0.9252038871770660  0.5827711703976427  0.6647653506546856
  0.7470432734367976  0.4966002220940226  0.9144343711194981
  0.9156173082355378  0.4181217641269149  0.3347045757756871
  0.6639066539910800  0.4873674444496480  0.6639979750778494
  0.8331525395691666  0.1675403381447695  0.6647268690277925
  0.9160344874620723  0.0819461704201626  0.3331371451028642
  0.0835141388087019  0.7536910535721488  0.8315967863410686
  0.0852317331559508  0.5836595474091114  0.4998608549348360
  0.8335321395718618  0.6699075182568083  0.1683751716092768
  0.9993377301982458  0.0821969598336183  0.4151537029412415
  0.0844541526131757  0.2485164682369810  0.3327451666137485
  0.0826357062812493  0.0814290478994501  0.3332756494566971
  0.2492329700665609  0.2492452443276600  0.8350841630622470
  0.9179227415028142  0.5013874089686472  0.4154954190114968
  0.1653352419547063  0.9190214330073000  0.7490816291460026
  0.0851558475408401  0.5846288634874051  0.1668668252108629
  0.0031275391703674  0.3298159109648161  0.8318526989743872
  0.2479922722276494  0.1664990897792731  0.0844694282357037
  0.0855755420279393  0.5861097404747435  0.3330053510459733
  0.3320327139658368  0.4143838263265446  0.7505898219469206
  0.0848929459694720  0.9998670231381431  0.7507109548533886
  0.0858578242995570  0.4155650861261064  0.4996184959763350
  0.9995972150223533  0.9174927031381822  0.0849667656839068
  0.8334329461198260  0.5828049686819646  0.4156106200688766
  0.0834921647146020  0.1659124326255129  0.7495956001058486
  0.1673748557676645  0.3322531952236624  0.6660524518489888
  0.0120891660016600  0.4991898220271257  0.0046477679673252
  0.0833650914457194  0.7505516637051408  0.3343156968172580
  0.8331057445200623  0.4152241772851274  0.4138438364353251
  0.0843600386298594  0.2490693464384363  0.1685529961218035
  0.2488956870210741  0.9999487248033029  0.0832716376068514
  0.0835450310975986  0.9177601400747409  0.1669291180593161
  0.2498056023837696  0.6683427876885039  0.0833113243852632
  0.8350575089783573  0.2468571652441632  0.9152606236122893
  0.0032010556105493  0.3305716820086673  0.0029358608159078
  0.0825113021724033  0.0826298020224489  0.0006258433620719
  0.9180606578278254  0.5835345939237272  0.4995679812955663
  0.6652451449337441  0.4975103649195141  0.4985979605127203
  0.5805020444715576  0.4163756433786682  0.3322188561354322
  0.9171371942194587  0.3322268542998113  0.2523116779144426
  0.2474017112398627  0.2487106950820634  0.6651172606815081
  0.1647757274146511  0.1652063176616841  0.4978823468330111
  0.8356407298666978  0.6722639817440027  0.6634120313364121
  0.0820078784892622  0.2481860842497952  0.8330556421522485
  0.9175365728601096  0.4054803988189861  0.0014690714549746
  0.7514163611030430  0.5832272998180716  0.8232651510706137
  0.6641443954548699  0.5825122202651242  0.4163649118613728
  0.6643173205133188  0.8344306562365792  0.1694748917362695
  0.7497438271452549  0.0839578576701201  0.0009630910451697
  0.9183503635416772  0.8364411604734876  0.7489837406164194
  0.6574332734000010  0.4943345113428477  0.0017451305428854
  0.5815758298745393  0.7528416173819276  0.4992541819312359
  0.9992395500900122  0.2497727750378088  0.5815374120052648
  0.8330740274158434  0.4996576263954220  0.1706866361387060
  0.8327303477644565  0.1671822929602479  0.4981464225857484
  0.6621802232929836  0.4969432554350540  0.1691057488813114
  0.9165092749168149  0.1656775056388708  0.2512323360036353
  0.9173219720131133  0.4999629532462181  0.0948483257546441
  0.6634793999570275  0.4117484561179884  0.9143130798885856
  0.0846322461648996  0.2482126456290512  0.6658240757640842
  0.8328790132379787  0.9999522725742161  0.4988593744259814
  0.9175540164728184  0.3321891536299639  0.5809667600859367
  0.8344432734310335  0.1666043402718201  0.8331822073855937
  0.7504364878015526  0.4147662156603399  0.4974780096195781
  0.0861271711273529  0.5865126567914387  0.0049131237372587
  0.5816332085066678  0.9190873794803327  0.6647316541267602
  0.8334909908739102  0.3307568772650065  0.1706065996494246
  0.9181184750354787  0.5883395710786432  0.0040787511037460
  0.9165999997760512  0.1656456869382598  0.7492948953823254
  0.0838424995162197  0.9998378834334514  0.2514066941173831
  0.4966187924533812  0.4980065230295351  0.4971084630808827
  0.4153779275657836  0.6662085867179411  0.2523834683950706
  0.6575075509739867  0.5834420897381264  0.9151529158817745
  0.4987627613763543  0.4155165499151215  0.2540477343032669
  0.5803983684686221  0.7531290905469593  0.1675336171559358
  0.5682424315640281  0.5835812895858105  0.0026930141741390
  0.5816003155683201  0.4959056295208372  0.9137900103446115
  0.3318989676859699  0.7499779313196313  0.2512212041571994
  0.4164914105959212  0.2492047717032757  0.4998753229387069
  0.4141215232011357  0.4993762974583489  0.9164558980379659
  0.5802291246040180  0.4130278449060247  0.8322114525753951
  0.4960528956055800  0.4129244996793601  0.0853192691744347
  0.8348633446477934  0.5828663282814118  0.5733953386628394
  0.6646151914096594  0.6695107791003340  0.6597692758736173
  0.6639776748413934  0.4124015294114426  0.7496345931659011
  0.0852141203376476  0.8365236807244616  0.7498385528316416
  0.1666180088894501  0.9179243507972279  0.5818417936130136
  0.1652221341812148  0.8355965446786158  0.5018073353065420
  0.1665911441458371  0.8347067532034369  0.3337176404208398
  0.5813488027278851  0.8347326154770075  0.0859753239484433
  0.2501367356138738  0.9156973227967270  0.3346030759077385
  0.3320751034140891  0.0849454556354593  0.7490040796119217
  0.2509030374581010  0.8330410892007775  0.0838819547430705
  0.5705474394785581  0.5822161494730087  0.6642573865451770
  0.4182723149783853  0.5827880583971328  0.0005021574497043
  0.3333580488833134  0.9194167268898422  0.7492751600656455
  0.4979892362795016  0.1664307910080585  0.8339939820162274
  0.3310171605169521  0.0842290261860260  0.9178660310688392
  0.1664238170267905  0.9999403614325458  0.8348359288538812
  0.5779092349028526  0.6700379567487468  0.9159045743560488
  0.4996341275190884  0.1651929202431660  0.6665646450155117
  0.4993507284645013  0.7510564005297321  0.2512113064538058
  0.9996719302090997  0.1668892846682913  0.8315337546566973
  0.7489630503373366  0.1657669303326271  0.0834390430936966
  0.3323950468884470  0.1667290948114315  0.4980481630254436
  0.4995576798698146  0.0002605261105400  0.6650554264811149
  0.4964000882967384  0.1659760152048466  0.0020775161160458
  0.5831575089275033  0.3315171504021374  0.7483118255402526
  0.4137188741996057  0.2473101824378839  0.3320773223902650
  0.6664910839991462  0.0834969435590398  0.7500208202983373
  0.3326600766321485  0.0012981793570038  0.4987792957713098
  0.4146838708112456  0.9173663001650688  0.3338411459190702
  0.4155693963514557  0.1659748505469215  0.2517244725036796
  0.2500225321905448  0.8360191504852656  0.5821116200111757
  0.3301539026907440  0.1667133747146038  0.6674133639552752
  0.3320717183284239  0.0836766959837320  0.2510932462795130
  0.4142590055774434  0.8354496303253666  0.5828545287021506
  0.0842083226401835  0.7523512427886622  0.1662763862358323
  0.4982660620779054  0.9190418136374605  0.9177818118215798
  0.2505321054983738  0.7518379146516859  0.8317300782823601
  0.0849299234622626  0.4130866795938298  0.6648783755528044
  0.3305980957842352  0.7486765786188646  0.4193819963767293
  0.1652897412821085  0.6671838219045101  0.3327677875942663
  0.4163588039114321  0.0003355172554480  0.0841088458115899
  0.4984613589031053  0.3299603258677395  0.4981391859531262
  0.4127237063576932  0.4985988211977808  0.7480108825094619
  0.4158162301675096  0.3332697730125773  0.0853852860210262
  0.4966137577734356  0.6689895733021468  0.6660766299697863
  0.3323364278620968  0.7519272925624964  0.7502692413956713
  0.4978209100857596  0.6701609127001814  0.4972163124929322
  0.4988067508866982  0.7496883998755067  0.4197901209787141
  0.4989910024449591  0.0003799900599532  0.4978173620018479
  0.1673478500201886  0.9185016135586291  0.9164725713326602
  0.9157124459080532  0.8340457971240931  0.2520043343939654
  0.2502385584818609  0.7519415304198430  0.6659055397545655
  0.3324266527548752  0.4140873082497498  0.0839577399111328
  0.4973581401263480  0.9196412208773107  0.4168505227826353
  0.1674237169763304  0.4152738240595844  0.0844187068083588
  0.5805029484710044  0.2482570981786045  0.4999306194230200
  0.3329054710240740  0.3313231254064637  0.4980550737836805
  0.4139417371891896  0.3305447020422306  0.9160948950548368
  0.0846880454996784  0.6653446289863649  0.5820394622469924
  0.1649129497726775  0.6659734397082896  0.5029506626631408
  0.4158840951333917  0.2465789959943241  0.8336520142477475
  0.5824736776147530  0.9997049250049347  0.0840168066082572
  0.3328230600188839  0.9178197873459830  0.2515839019123061
  0.3315330433130624  0.6681130417838166  0.4993425659003253
  0.0851796759411401  0.8353956372981071  0.5810524406749917
  0.7492719987363798  0.5857824115355120  0.0036836548089104
  0.2502496894719342  0.4999875198067810  0.4168164755454384
  0.6646384094466016  0.2470549765373749  0.9171943090925280
  0.0013164400191294  0.7507662943522271  0.4157760591571428
  0.6628054969396234  0.5813198273344886  0.7528408257888796
  0.0848725654287441  0.7529629839785440  0.0003675837185484
  0.6615573131561390  0.5834820431643364  0.0970686162706945
  0.1652248541010083  0.2487742182277800  0.2509514583770868
  0.1691202932807477  0.5850136020954700  0.0849309370954779
  0.9991950931396859  0.0827790599301517  0.5821560979202439
  0.9984183641016366  0.9168106181134352  0.9180973201335015
  0.0843383080666851  0.9166894912204728  0.3338866037727632
  0.9976497258055735  0.0843206771259667  0.9163376188043852
  0.9947258661577539  0.5875191643184082  0.9160807503484159
  0.8357029303481905  0.4978236888542233  0.0017010574325511
  0.4963108714588207  0.5827927450967566  0.0858209274733462
  0.9168250206102431  0.8351414421222020  0.5793686394902390
  0.9175563458053551  0.1672543213585404  0.9162950296178478
  0.0869407181303414  0.4165256261573772  0.1676307436494731
  0.1647316543662846  0.1668656009529154  0.6665305520556424
  0.0838043711210574  0.4177857230816407  0.3332759749391896
  0.0824448599054070  0.2487719632899848  0.0018438439130934
  0.1642515511088352  0.3342614272615128  0.4977361511717791
  0.3323916915601864  0.7511250408856427  0.0825291947690098
  0.2503239214997531  0.5818160210895538  0.8309157753987073
  0.4969866613054985  0.7532798366367157  0.7476437938079046
  0.0008901243192675  0.6682577606613406  0.6657409100858459
  0.2501351565955107  0.5829454361996723  0.6668673994291605
  0.1654017907563242  0.0819127928593647  0.2508309161023348
  0.3312044709752128  0.5822821247940776  0.7487973088505071
  0.3327711150199790  0.5828090096212708  0.5827043245768697
  0.4137930901957236  0.8340499628084533  0.0836100099369773
  0.4149806698161181  0.1661730765711627  0.0843855565995391
  0.2477088468029413  0.2501483872611018  0.3316404763764642
  0.4153626448653062  0.6680215531034707  0.9152464453480004
  0.4147570547827821  0.6676592547702909  0.0840918758116743
  0.3330581853702608  0.4995567906478069  0.4998718222120729
  0.4151075042936173  0.4991944723617589  0.4173041207186342
  0.4139455740991232  0.5847894432103160  0.3339835806718857
  0.5790976716717328  0.5846970830308558  0.1669816117417563
  0.3329959548353643  0.5846535852596699  0.0827562306174856
  0.5793800130244114  0.3323989436194811  0.0854736557620794
  0.4956332881248675  0.6673846134089427  0.8341147840557473
  0.2481653756862185  0.3311326454456991  0.9165462926458711
  0.4139448329773040  0.4989522785738292  0.5800506026926044
  0.4151203014619705  0.0843703417796191  0.3310897600222112
  0.4146571433621703  0.3303305370499320  0.7487270267687184
  0.1683674344550446  0.5822938480525449  0.7479796706880391
  0.3306673984134887  0.3314032679036132  0.6680696452491407
  0.3322762262617522  0.4165648139700657  0.2523355625492089
  0.2490932290316821  0.9189772181715481  0.6656511738789379
  0.1665759389204236  0.5833792256511753  0.4169087296194984
  0.3313270067780205  0.6680914340357442  0.3345032871770833
  0.0845149869949754  0.3309405471984655  0.7485735914136930
  0.1676582167449684  0.5816539534581470  0.5845951014048797
  0.1665659981721475  0.4171592615273806  0.4159305391397459
  0.1668277341614391  0.4997370257023415  0.4993593976477501
  0.2498542251630915  0.2489341649010719  0.0013661535705537
  0.3330849836569353  0.6671384045097599  0.9991567402627661
  0.2480544887642694  0.7507537048861933  0.5013989380333340
  0.1667152718372950  0.8355627497258181  0.6654185367675652
  0.2512750137819110  0.5844540351934384  0.1665093812225927
  0.4982846858576246  0.0007062128705515  0.8333726470105228
  0.2489533970599853  0.0013089403212597  0.7499152943885787
  0.1659519621547228  0.7517830050436219  0.5837120049578022
  0.1667804401047430  0.5006035310166325  0.3331061894737395
  0.4144028602872881  0.7518989491757738  0.9993611536229624
  0.1672561870437892  0.4987712240199962  0.0017124503211848
  0.1657902831766736  0.7504956059606540  0.4177393545303164
  0.0824110159803124  0.9993501926375228  0.0841751618402028
  0.1668076271317163  0.5845968650501713  0.2501846973446467
  0.2476810372188800  0.6671378619066295  0.4178255771575135
  0.0840914703377038  0.6686131707315320  0.2499624673357320
  0.4967094034976844  0.4137949140241249  0.5813198683323433
  0.4958214696173995  0.4975488728799335  0.6656217763012567
  0.3330718162912700  0.6678025994502590  0.1672174366208592
  0.2492240277225867  0.3314405564781278  0.7511608198141051
  0.2492248093424322  0.3328770030971334  0.0849579774673155
  0.1663591095693953  0.3315129090014325  0.8339378137198762
  0.2484908118730064  0.7506225733178733  0.3348303774126336
  0.0007682240164690  0.8343508842151852  0.0010654086110411
  0.2491418423187998  0.6670596702373833  0.5838284943688031
  0.2497261987375024  0.6683448208226275  0.2507741807102300
  0.2496111982249072  0.5837576100033576  0.5005893160029476
  0.2503703458647646  0.5001354306199906  0.0845868290178333
  0.2506935138272430  0.4165427034894915  0.1668795468538318
  0.2496561331054956  0.6672452736335969  0.7494208203614778
  0.2504123637954810  0.4168643060028332  0.3339559243017655
  0.1673641573631703  0.7528049054913046  0.9156558238350048
  0.2506573948300161  0.6680537231826948  0.9151797343304060
  0.2501136440583506  0.9180187597844977  0.8315469168555154
  0.1672863416930032  0.8346835702899777  0.0002923276214233
  0.1670037796991274  0.9171147197982745  0.0836031458991523
  0.9988653186817755  0.9997537966437761  0.1676656738994918
  0.1669557443992079  0.9167283826829047  0.2500978630520806
  0.2499212077949907  0.8337347449185544  0.2511698170998634
  0.1658316460225491  0.3335631217164826  0.3330125948690213
  0.2502592232260827  0.9183192710923072  0.4994748098822148
  0.1667822389027089  0.9170202400658138  0.4173085454669447
  0.6637381279067260  0.6705991144979977  0.1692239818251758
  0.2490952725644930  0.8334650706131785  0.4175440699719224
  0.2493492801584136  0.0837989775231927  0.4998434739417821
  0.6649909235734988  0.3309168208089390  0.4980546318107174
  0.5805426031241049  0.4146199042713054  0.4984652342694853
  0.3322909549055548  0.0851832424731739  0.5823277609364652
  0.4149467450303809  0.0019462262623412  0.9160220728943064
  0.3318982078027658  0.1660545671540381  0.0014502828822442
  0.4980032844755436  0.3312710955736086  0.6668009160355126
  0.3324099910365433  0.4983513761264501  0.6656158268660439
  0.2488816952165619  0.3321369641793965  0.4159585759665535
  0.4987435635290791  0.0837516739000527  0.0840947732384313
  0.3322108167176175  0.0831560299298387  0.0835888194509744
  0.1669597782253802  0.3308112720729660  0.0015615589293724
  0.4984485492159117  0.0840735741362504  0.2498543788145463
  0.4150204377833420  0.0009706126585556  0.2511436376180476
  0.4148594184023660  0.0833696857339323  0.1669362560321986
  0.3321579635160538  0.0006209207483141  0.3333616607514693
  0.3323595145618343  0.0844096337709670  0.4163118232334145
  0.1674153500417686  0.4151162658174574  0.5819764348271566
  0.3319766617236161  0.8357812757765070  0.6667114183680324
  0.2484918307173683  0.3334655794086110  0.2506757328919632
  0.1669582848748161  0.7518895299821009  0.7490067976709995
  0.2497246224494887  0.5841433739857153  0.3342637105235460
  0.2489576719926674  0.2485740969751163  0.1675218816885837
  0.2490675929910985  0.0835228190937673  0.8334524023953995
  0.4149582570820808  0.5001253382948869  0.2513959899710324
  0.4147368602228848  0.9186546199735629  0.0007890555378105
  0.3314135068787249  0.5840403640497470  0.4177558371508456
  0.3320015245795729  0.3327361451217293  0.1683969709286103
  0.1656880099249089  0.1651903255144207  0.1677065306565527
  0.4146057304490737  0.4984353601984670  0.0847698471621173
  0.2490687000224670  0.4149493735188153  0.8358369220011149
  0.4973427153353680  0.6704113674480098  0.9989895485904140
  0.4146900238821675  0.2490934349916886  0.0008921727113738
  0.3325195389400732  0.5004199743128075  0.3342395163022756
  0.0825731141082487  0.0002145342609075  0.9173504986855744
  0.3322633006554267  0.5842875992279515  0.2518599775153942
  0.3316079493115405  0.2485622243478796  0.2506408420360131
  0.4149694787011127  0.5843512245193750  0.4976580304712878
  0.2482574366497194  0.1665144289232078  0.4161210026895767
  0.3318255532738500  0.1659303186672142  0.1675427883912734
  0.3328065467448573  0.4993044055280609  0.1674358088468365
  0.4148125460360791  0.3323653711215670  0.2515893920352759
  0.4979902463514120  0.9195486308852627  0.7492181334632523
  0.4155561589039337  0.0023502133508581  0.7497946185920055
  0.1670556440967386  0.3327420824461031  0.1682927063803543
  0.8375726549696422  0.5853323412571937  0.7502289341622411
  0.5821551468848598  0.0827511470068039  0.1665553009770349
  0.0827207736113057  0.2492971864516482  0.4984397489204927
  0.3308296485233233  0.1666806568644320  0.3334971705051092
  0.1650611269636131  0.1660203108486158  0.8341326954098923
  0.4988106314540136  0.2486747590758882  0.2507356048905331
  0.2477681750683049  0.1664843322358450  0.7502041393759624
  0.2487558572398232  0.1661412028219051  0.9169349797064079
  0.4155196223422705  0.1655741657050698  0.9172168606172635
  0.2501794251264514  0.4995621435664095  0.2507760482777943
  0.4987702210405532  0.0840515915862573  0.5825952926439385
  0.1671763375025530  0.4978094181288499  0.6664265087057420
  0.3321151549206536  0.0014701334776377  0.6671476606947517
  0.2496467848457048  0.8358805864019700  0.9152002881619292
  0.3317921790203991  0.2490364511871289  0.4162256932381236
  0.3320612835996206  0.4979486557420768  0.8332271636217752
  0.3317858270612666  0.3319757918852090  0.3324117990679062
  0.1685339016288241  0.6689812964900642  0.8317461666101601
  0.1658383460873364  0.2487199454203285  0.0847542907484992
  0.2500513454262712  0.4153464016922129  0.4988767383009959
  0.4145932558242130  0.4142177109043246  0.4988544420774066
  0.1678654166961673  0.7519098943235955  0.0836431011141911
  0.4147225436974820  0.0018899546078829  0.4160717836112344
  0.1672182675868482  0.4140588488800525  0.7499721862437859
  0.1676165061350079  0.4980794333444575  0.8324598922413767
  0.3311358045844482  0.2483388467181490  0.7506420690473479
  0.2495472937537780  0.4981887520814588  0.9165320523194025
  0.3328925107407107  0.5827405926127606  0.9165192305585592
  0.1689783625005280  0.6694128008228705  0.0004189959881863
  0.3324560544768667  0.4143884493487639  0.9163830453027584
  0.1677537354935095  0.6685172726150574  0.1672020097099091
  0.2482027385761292  0.1657875052929880  0.2505915513959696
  0.4139089021121511  0.2479173174284079  0.6664754876601235
  0.2508430644150134  0.9171623482091660  0.1666731932234452
  0.4981631418563172  0.0840304885844351  0.4166957449838422
  0.4145207633208785  0.4141246671346971  0.8324884164414906
  0.4151098777121034  0.0844210695064238  0.8332730976411398
  0.6659076645397404  0.1661255842556592  0.4988938442837002
  0.1661516484647718  0.1660575236178104  0.0010416440782093
  0.4141055570655851  0.3308809622424558  0.5826307246629683
  0.9998600388389962  0.1648640938503377  0.1683320852045880
  0.3327915009219168  0.4988493854127552  0.0004800158682459
  0.4142037490542329  0.4159661573454966  0.1685013686024652
  0.1655862424897276  0.1655067549731159  0.3332856049127537
  0.3323820732716239  0.4155111621927175  0.4164248035947948
  0.2503985666261696  0.4138789171511559  0.6657668128484308
  0.4148068019631417  0.4163386988888075  0.3334585407342958
  0.4956986296731783  0.4974408844704578  0.8323307239014711
  0.1662479546854664  0.2496400121296680  0.4155812300883500
  0.1652876694560896  0.0831667236486649  0.7502648319652047
  0.3317639694309141  0.2490306749697337  0.5822303663739506
  0.4155414452908553  0.0019923439312493  0.5821262680353807
  0.2488071484794780  0.1664959920197625  0.5818847670553435
  0.3325274122167929  0.8353912925245031  0.9997109586785781
  0.4982365862927592  0.2480177581616354  0.7490943052180981
  0.2496706821175174  0.8351815698228309  0.7491590171996335
  0.4986399439603895  0.0841169988199730  0.9179808228921141
  0.3325799486493002  0.9173886446175826  0.0837508578409040
  0.5787731244833720  0.4967722035246179  0.7499371663135100
  0.1658399393352828  0.0844744505934780  0.5818604150253316
  0.4148669964346360  0.6674936879984347  0.4160736540901273
  0.4148919947165888  0.7502962301090095  0.3343445759104799
  0.1659487234056084  0.0002589144698412  0.4995340615874995
  0.3318032322095674  0.6669234058075351  0.8322256309758522
  0.3317296042397688  0.7508800077307284  0.5827075282316596
  0.4149507154316834  0.7512469206099089  0.5000657476517959
  0.2501597965830158  0.4987175237961199  0.5825459066106421
  0.3320156085888830  0.6672454874002114  0.6667466993908919
  0.4143404827983885  0.6675455839952914  0.7496259717956542
  0.4150307463658784  0.5833852576553050  0.6654963579904029
  0.2488321769866933  0.0829824931398267  0.3325994928404697
  0.3324348451578240  0.7514448354570133  0.9152987407673188
  0.7498072171754765  0.3316569376030414  0.5805299527417827
  0.7486576238314472  0.0006741223289317  0.9168114903520619
  0.2502668637889486  0.9179679436168533  0.0009011327084919
  0.4142919860392187  0.4147877374004289  0.0001579607061957
  0.4146743921887999  0.7510992963044130  0.1685246969496293
  0.4136022898770413  0.5822193645579503  0.8330513038685959
  0.4151998172352325  0.8332480496225704  0.2520134844442267
  0.1659645308707227  0.0826930754289124  0.4160589968875293
  0.3325140721518923  0.8331485929347724  0.3340111262051444
  0.8332614014796396  0.1656132125668723  0.3331946992508539
  0.4150074719688259  0.9184316481741355  0.4993408055040368
  0.3324225477454226  0.9174463298081421  0.4165245825825358
  0.3324906148318770  0.8341559451851209  0.4997987969489921
  0.3326967138790241  0.9185480797386354  0.5824991971793549
  0.1669473571854856  0.9984688029440698  0.3338280347516150
  0.4148329964139136  0.0838519847592840  0.4997628273139956
  0.2497844520249962  0.0826931686151875  0.1663703031112267
  0.3316260381330353  0.0018454468995588  0.8330280565289993
  0.4151719882920297  0.8337104387058561  0.4167394755783611
  0.1663124543482985  0.0829940443330058  0.0838665125664861
  0.4993822627011780  0.1674946041279472  0.4991072918412503
  0.6658226817014374  0.2482541375549221  0.2505653342925911
  0.0820277454032513  0.9173160548019820  0.8339466477157197
  0.4982393147369211  0.2481801851820958  0.9173335032001795
  0.4150218186200728  0.0831184729714477  0.0015374764001673
  0.4982284841490490  0.0006754468411147  0.0012708755502697
  0.5829454126004543  0.0835650109957963  0.0009066510103618
  0.5815641558657291  0.9177058535261731  0.0008835101340263
  0.1669675875523397  0.9997424980113406  0.1666577188217360
  0.3326458469818609  0.0004183436875466  0.1667916183758487
  0.4978437791746907  0.1665252895617795  0.1670536332285617
  0.5819427365135202  0.0014635762811157  0.7498460712002933
  0.5825266636555041  0.0004271327793754  0.2504408440328117
  0.4986545419990687  0.0007927498247198  0.3334182371941993
  0.2490989928065840  0.0824638439586199  0.0009518630722713
  0.5824066596765943  0.0008341193250094  0.4160156097471940
  0.5837641926560199  0.0827066903858473  0.3332063599443741
  0.1672946380666615  0.8342799560894594  0.1667791264831119
  0.1661356859397314  0.4170032552161549  0.2511832183118035
  0.4980623641534900  0.5839166929455448  0.2520199622863689
  0.4150719083799389  0.9173194505154698  0.1678356649524320
  0.5822104032628587  0.2481724814203518  0.6660788095460850
  0.5830683933447431  0.0832158487089013  0.4993600263359421
  0.3323199178413432  0.8358835115505568  0.8324265856878026
  0.5824497634302476  0.0018246087376734  0.9169932653304618
  0.0837140946571143  0.8350161575949911  0.9168350806030118
  0.5809325538310073  0.2485863663401903  0.0014784051327633
  0.4975125945567654  0.2490686369414617  0.0843114858410736
  0.5823948460285074  0.1664469153491582  0.0838560145547926
  0.3321861955932636  0.0006037151861202  0.0007034271429242
  0.9995512685054857  0.0002080494458330  0.0008152342807534