 C Cr Ni 
 1.0000000000000000
    21.1200000000000010    0.0000000000000000    0.0000000000000000
     0.0000000000000000   21.1200000000000010    0.0000000000000000
     0.0000000000000000    0.0000000000000000   21.1200000000000010
 C   Cr  Ni 
   9 259 605
Direct
  0.7476548509597463  0.4965230186376994  0.0008453047861170
  0.6547318167565886  0.5913088026186015  0.0009998489510859
  0.8384523505152000  0.5915674379054184  0.0007167101947663
  0.6589788497942283  0.4985438238765433  0.0934555324002655
  0.8365642419076074  0.4954865840200571  0.9049997146894277
  0.9263245097136902  0.4952742104283672  0.9973916930175497
  0.7450988951753479  0.5891093992426355  0.9053950068380227
  0.0066853073926485  0.4993366917425791  0.0898993923845932
  0.6601039013997880  0.4077562525647338  0.9994243071982698
  0.7488529571798056  0.3313002767940104  0.2532684856423989
  0.6647445181129443  0.0000057328621279  0.4990314831400485
  0.6662526342861822  0.9177922589347095  0.4174476482664814
  0.8321141100080067  0.1653966016002085  0.1678397020912609
  0.6647114005558433  0.9988035959734040  0.1677001966938168
  0.5805734576617516  0.1643165831515890  0.0844437854621937
  0.4990782927495023  0.9185582646233185  0.7479318155103396
  0.7478703631967119  0.9165605310569928  0.9999519178508626
  0.1668176889207417  0.9996431460206766  0.9996375338098465
  0.3317902840132237  0.9185595997119727  0.9163129531384482
  0.8318147033421983  0.5024477202587573  0.6668779043745608
  0.5813259849699352  0.8342135837383112  0.5820111911957061
  0.6662706394649436  0.0829745490674376  0.4162128703036536
  0.7476070386461744  0.9175041765048494  0.6660830212715824
  0.9163011397958593  0.1641573971129108  0.2513866345519496
  0.5817433352102621  0.1653840386382447  0.7474956486215570
  0.7486432143763065  0.8370479947310321  0.9162475249500048
  0.8330508435339252  0.3286316636983524  0.8299571527274772
  0.7499275458315162  0.8367538045660722  0.7470618113096162
  0.6644403539517270  0.6795581602837201  0.9985630493732842
  0.7467287037805544  0.6785231778578782  0.9139506228915374
  0.8367061002029076  0.5865741897788757  0.7487198235118694
  0.5840457708863466  0.5856406517542593  0.4982448328587114
  0.6641394362200139  0.7537539762557012  0.7479903235669889
  0.6659757778351193  0.6689329928383015  0.3354587557045718
  0.5829163962246530  0.5840308406301545  0.3361357984072868
  0.5799394193153502  0.4142215069817544  0.6642975474626029
  0.7496265008287787  0.5008619595499210  0.2498837084628906
  0.8329940103981147  0.1664237402566135  0.4988711002632486
  0.8323261082111651  0.0008533008138697  0.8331616106065326
  0.9164877292050005  0.1644948162086857  0.0826238167037232
  0.5806339697511721  0.3295917634193195  0.9140549013770816
  0.9985930023456134  0.6690158979953226  0.3344458447380175
  0.8335667183395652  0.8352425335984642  0.4997725862153330
  0.8335262569957274  0.6679268281491494  0.3338338542886584
  0.9165843017388496  0.4992327478549138  0.0876682731387444
  0.7517355879451663  0.5868116606022865  0.1694101172077133
  0.8325249183411048  0.0832009438937951  0.7497911027341052
  0.0003674683303097  0.2488789460916771  0.4157583781024202
  0.9150347855751313  0.9155857590084785  0.3327303112677624
  0.9999170811718100  0.9177778668686664  0.0841558336081627
  0.7490747679640247  0.8347397875358283  0.2512767015229510
  0.8330566515606534  0.9988981316164616  0.1667146981218860
  0.9155813151000817  0.7509405329891735  0.6656328507462232
  0.9170634410052892  0.5005721250393058  0.2537568741088176
  0.6622054654683904  0.4125202966041145  0.9088271048575860
  0.9258977072546078  0.4971027567219244  0.9074723123799638
  0.8334565465141872  0.4040393011823421  0.9127361393756841
  0.7479194760685730  0.2471070163950298  0.6643924208442188
  0.7490900192827264  0.8370513847404967  0.0836093395847776
  0.6654969854634397  0.1650621538495612  0.1678798375536779
  0.7489986856124878  0.2500099821815790  0.3334957143510365
  0.5813592857207481  0.2493062555158392  0.3336407200928878
  0.4978088464200441  0.1652904595812301  0.1683944603021676
  0.8351516927639724  0.5879309270421762  0.9087345585888392
  0.0016292418433056  0.5899908688550367  0.0849731604533967
  0.8336609250984314  0.4981743464587864  0.8156264047154752
  0.9156417078576726  0.4151312382831652  0.6638218481581764
  0.9176062596729211  0.7551607300503619  0.8294730520895626
  0.6645028343314577  0.9999919795440587  0.8324008174273700
  0.6645233847778511  0.4088917030908835  0.0904463264288281
  0.4160308505739693  0.9189834091180362  0.1676914033152710
  0.7462338798277776  0.4971271394605317  0.9085778770189497
  0.9200117358040282  0.4046889333471304  0.9993870495464680
  0.6654339230977415  0.4999318791134897  0.6659058334388089
  0.7513671592845711  0.4128257543610107  0.1693614214600757
  0.6594397846361995  0.4987096462201100  0.0026435319707782
  0.0851616602325639  0.7527473097659724  0.8306582154538654
  0.0809691567864923  0.5847144606898528  0.4999407486230595
  0.8357335095952750  0.5864727912113383  0.0916937224133686
  0.9995976870279801  0.0821215992261772  0.4160622256554000
  0.0821699038165852  0.2498177559421224  0.3358053195229647
  0.0809954839134566  0.0829964145165543  0.3349639774951076
  0.2507070700905545  0.2485578844116501  0.0003122242276167
  0.0836416019311882  0.5839081830600332  0.3350831052266977
  0.2489133206209013  0.2482241289673904  0.8329899767783873
  0.0820337937908438  0.4162450353106022  0.3350553705244618
  0.1653413669012363  0.9174876427768894  0.7477456095801872
  0.0864391496644383  0.5021152310203966  0.2542917283617218
  0.0041238202621989  0.3292535670275640  0.8305575555617484
  0.4136339108269017  0.4169119091517123  0.8336905329156942
  0.0836993162394698  0.4985515393623545  0.7471957941223073
  0.0846433070245985  0.9179263983906493  0.6676253411641896
  0.1653541782194252  0.5003746470659690  0.5006467748198513
  0.9165049102753875  0.7541319276951826  0.1696845188630460
  0.8320744463287619  0.5850436172193449  0.4164823895460262
  0.1649650891822455  0.8352099250425177  0.5015079846562464
  0.1661476279561148  0.1669051364708786  0.8319343657300748
  0.8327838919508769  0.4163273894682353  0.4175115518182063
  0.0832130545553077  0.2479653127109988  0.1679639080392162
  0.3318811106051960  0.0832746825845630  0.0845480378085661
  0.0824365971218371  0.9175392684987242  0.1659126150446145
  0.2514490168711889  0.7534180004185043  0.0002134778430710
  0.0144994169610765  0.4987450359670814  0.9985973882667262
  0.9166758617620634  0.3303867648671537  0.2521797792843635
  0.0835574120464470  0.4154229287563261  0.6644367392448924
  0.0006989829124592  0.4161634877632701  0.4165173998516602
  0.8323560038373538  0.4165717621331956  0.5848211059760012
  0.6660587295395383  0.4162497593104891  0.4165780032201250
  0.5810031790901025  0.3325063020278822  0.2523996110354573
  0.7467138447904309  0.5840386868133827  0.8147561109265798
  0.9171153153616356  0.7528024068499189  0.9992046996517124
  0.4159053555634610  0.5845186232153122  0.0000300143068364
  0.9160314975967404  0.9166962736734164  0.6668528645885229
  0.9170875271785819  0.1663849505672736  0.9157612067505592
  0.1655577009971065  0.1665215403686177  0.6662910418850100
  0.1648378332976398  0.5010287875796318  0.3332397469389102
  0.0841910186527134  0.2490948141080537  0.0000883926533023
  0.1667323769361645  0.3325925376075002  0.4991578923561095
  0.9167946503153883  0.8350518867210280  0.2508719945385631
  0.0834594506692641  0.7512415356290468  0.1674049017172592
  0.5816700822044361  0.8350687061034729  0.2516470934523307
  0.0827077810855103  0.3325592791793304  0.5809704110197876
  0.7484248062012636  0.0834195792368263  0.0003835226444722
  0.9983593059804726  0.0839530463344145  0.7487797742078994
  0.9167383892255990  0.8358146126691354  0.7489752423786483
  0.9167368648310653  0.1649371979837569  0.7497252424345989
  0.6638371885192411  0.6667069513607184  0.4976863044517977
  0.2498436008330368  0.3324577339109510  0.5824918944256200
  0.7529234006902031  0.4069197339789172  0.9999957958105847
  0.1652035913410726  0.1658388576150629  0.5003129472780251
  0.6635734829573748  0.3199867242780930  0.9981458855188555
  0.8326703342651891  0.6677171162935767  0.6660991293044054
  0.0029195084914363  0.4084067339381639  0.0868493294496251
  0.0834119930251906  0.2490093622260071  0.8313441820364940
  0.0834563850498492  0.2485117977459402  0.6638665226556874
  0.9156112930729517  0.3325381956217909  0.5821469801492509
  0.6662203922608412  0.5845340444185531  0.4150191312130259
  0.9148677051009029  0.9163547926639497  0.4991696321598568
  0.0842958703723211  0.9154988547018792  0.3342003240066863
  0.5804431004935543  0.9173466743791316  0.9990404144534161
  0.6644379783941815  0.5893415926949925  0.0920966714599682
  0.6593396263824708  0.5865782227385058  0.7478183172373798
  0.3316673533705332  0.7508487105132041  0.2522469335689704
  0.4167463745419057  0.2488676500054381  0.6647765851012416
  0.4129786898081342  0.4993793687055801  0.9148008863905178
  0.5787538882374000  0.4133565236285324  0.8330897998261514
  0.4940341827497899  0.4145686161334888  0.0860112538396707
  0.7482853873527207  0.5841549044305708  0.6684414286237105
  0.6662025711894447  0.6683396699841802  0.6651754469718709
  0.4973188916093282  0.4155012228475527  0.4189147592430529
  0.4140535570787612  0.6678628137056905  0.2511945055235296
  0.6557378550250360  0.5853449970533973  0.9105234369782105
  0.4961428745022582  0.4148844307734396  0.2515076232112832
  0.6635277708225553  0.6697013087799600  0.1692647137861396
  0.7494850343100613  0.4148577964416643  0.6644708804932513
  0.1656262854023819  0.9997201054855629  0.5007729568819879
  0.0835146677984175  0.9158925767397414  0.5022204037349236
  0.1662024388499110  0.8353970056551409  0.3330136781153564
  0.5788646599761724  0.8345997576511593  0.0838698052630505
  0.2481581690169420  0.9169363393086214  0.3339281334041683
  0.3323525888711946  0.0851480740334174  0.7480512629712336
  0.2498179717929855  0.8331357488887162  0.0832663904112773
  0.5822669703666091  0.5837879832558850  0.6656089407385709
  0.2486884230759524  0.5836532448096808  0.9978005542323884
  0.3322971094882923  0.9180642077755384  0.7476899594207260
  0.4986156314429446  0.9996870674091306  0.4985343337765293
  0.3324321252185834  0.0845274277383007  0.9165120169273919
  0.1670116698557464  0.9185785980383401  0.9163077842506983
  0.0839381451725892  0.8356336038972209  0.7489018634080787
  0.4953417987146654  0.6696545642419164  0.8309064833433846
  0.4966098232927588  0.1658573686280302  0.8329460885098493
  0.4143192923648714  0.7506971685568606  0.3332240226071934
  0.9991233887616090  0.0823607380169311  0.5820908497058096
  0.3326398006490636  0.0842993262900033  0.5816846506977030
  0.2501458656351014  0.8342619778216849  0.5825254300632451
  0.4149736701769159  0.9178318678427667  0.6654316341120009
  0.4157158696646180  0.9173129233326243  0.3352546248540010
  0.3327452619429809  0.0007650761221551  0.5010348976399527
  0.4135768426611162  0.2473717893982134  0.3337756827032381
  0.5805547847568316  0.0019828682399840  0.7474349458956704
  0.5805911878898543  0.2481764755206667  0.6637314225803091
  0.4976586308684412  0.1641198940350931  0.0002863103592852
  0.4143599999202905  0.1646797827810818  0.2507072060216899
  0.4157721560166129  0.1654285799691994  0.4162769803080167
  0.7476850802321880  0.1646523511683430  0.0839594098569140
  0.2499355453857474  0.0838243049493522  0.3340432426027066
  0.4146749060481538  0.8340486276217566  0.5828752653143953
  0.0845502521961431  0.7525742963689716  0.9986795747942012
  0.4990588648318507  0.9176794207457738  0.9161992264890723
  0.2511622481952250  0.7509439503706121  0.8297727952185514
  0.3293346750759885  0.4160143841877189  0.2514622520313091
  0.3312998581177455  0.7500581520688197  0.4176021123694605
  0.1653220628438900  0.6683146858331044  0.3333320811562500
  0.4972398490819088  0.9978473410790002  0.1681485184776801
  0.4970739954531410  0.4172807751577980  0.5799353339874888
  0.4155528011945382  0.5000451789494657  0.7486885492038612
  0.3288012388450797  0.5015790644552194  0.1662008003796690
  0.4979500342469314  0.6683323411919679  0.6672767038987738
  0.3308263246780728  0.7498889803751145  0.7499152631218746
  0.4981202425825383  0.6675370896532816  0.4993644074884662
  0.4971667543000509  0.7511590558011857  0.4166990852749090
  0.4995088016875049  0.1672793170861395  0.6659905471843792
  0.2495499246545012  0.9195859779372124  0.9977970607795981
  0.9996938356898502  0.7514380520703844  0.4167325909776941
  0.1665931193701845  0.5843222280837196  0.5822105095797456
  0.3291626995034343  0.4168657758530653  0.0840068107046164
  0.4981021376597755  0.9175104126699879  0.4169181426532301
  0.4145617366667685  0.2484375777944548  0.8331935119715747
  0.8321085345368130  0.1655237916272198  0.8321835149288552
  0.0837418140157312  0.5853224965424493  0.9982301739408213
  0.5803893521728517  0.9176115380140998  0.6655826216817771
  0.9154566272913297  0.5840735104115766  0.4987359225486024
  0.0835622242620777  0.0822085402462207  0.9993489705489584
  0.8339676844440908  0.2463405424395956  0.9147397032682421
  0.8319483213133171  0.1638306759017175  0.6649283509938235
  0.9150847539410684  0.0823113311398360  0.3330358619168579
  0.0032921136359782  0.3298773034230784  0.0007479882550640
  0.7495407009515120  0.0839760702283745  0.6648770814887893
  0.7489367902422129  0.0823768371079278  0.3341062556268884
  0.3329222447022503  0.6675512805708110  0.4994003381553916
  0.8336724787087024  0.6807212000508082  0.9983048375717040
  0.0837948171661791  0.8343042368287418  0.5827934775950859
  0.9279086586341340  0.5869813962466498  0.9997593024273351
  0.7469518942431805  0.5877894243957229  0.9982417178808486
  0.4983172513534288  0.3329929590871070  0.4981562639500033
  0.5800116654267393  0.0838463268475044  0.0006754226723394
  0.4141535091779963  0.4173304041000115  0.4987507100588545
  0.5656373207338423  0.5867940805841008  0.0001746251247579
  0.4944056172087951  0.3314604021172575  0.0009897305464318
  0.7523381715380124  0.4992591277865705  0.0924560995051317
  0.0817496567737118  0.6674783507108530  0.5816677117135500
  0.0955757383408057  0.4989685079861679  0.0893517657929271
  0.1656493875115165  0.6664457787546553  0.5028570943740174
  0.9996034591848528  0.9181574119220000  0.9169398066061278
  0.9157896192264627  0.0834439132629520  0.9997809600575395
  0.8366308708638356  0.5002249985561941  0.9968166160820502
  0.3317017235193346  0.7515447249295097  0.0836573616608008
  0.1678577951951281  0.4145508869407984  0.0848545878690510
  0.2500772903526126  0.9162744418506419  0.1649795291663602
  0.0869330352972610  0.4150628516492719  0.1697835572766979
  0.2477914787695233  0.5013044660508564  0.4161285034276491
  0.5767562212677784  0.8379299686921098  0.9169409605579339
  0.0054555055277420  0.4994446874424889  0.8284883232708681
  0.4972389035607180  0.7511580018444495  0.7480660744778207
  0.0020442052687639  0.5847011535687389  0.7477302493068323
  0.1659273037436643  0.4999356584324728  0.6664235765047678
  0.0833885887982326  0.0828253901159363  0.1663952907852993
  0.4948641491654415  0.6703562757767744  0.9981666754823730
  0.4142699941933218  0.6686016451936009  0.0838784384436925
  0.3316594560517082  0.5826866918729713  0.7498011795184826
  0.3331264594247058  0.5828040060235963  0.5818875461323028
  0.4956593907192561  0.7523093115775358  0.0850390912064096
  0.4149108978118257  0.1653324467261240  0.0850321081358863
  0.2505095393401000  0.2479110809654343  0.3349667619823468
  0.3343260819612974  0.4167394244799853  0.5817481662866205
  0.7449695696631310  0.4936957344467824  0.7484033251151817
  0.2476813742409564  0.3333024869094642  0.4181369903510387
  0.4141128185048872  0.5849419338176669  0.3326419936487800
  0.6652061247884993  0.4999487836646990  0.1815038591619538
  0.4129869236901376  0.5834959320325103  0.1700610244085980
  0.4162594477956686  0.5003942227214646  0.5828034856914460
  0.4956307070777320  0.3328388101514382  0.1698356205391379
  0.3335445219021442  0.1663249004488581  0.3327447491415753
  0.4981297552845005  0.3326005063481654  0.6644515279317401
  0.1653267417900240  0.5827208464638368  0.7479656147891935
  0.2502801497936712  0.3310906782813818  0.7486366660493007
  0.2517630204000124  0.4179142383057587  0.1691945635879941
  0.2487765271978836  0.5003834964321592  0.9170051895352528
  0.1651578527866718  0.5847813818690034  0.4182593414839577
  0.1652274773805775  0.4172049346866176  0.4171809063253542
  0.3311019996348683  0.6676792948921056  0.3349243087429731
  0.0843669242213591  0.3313462901520978  0.7467198336199505
  0.2500980068725809  0.6665633338370247  0.5829309844040138
  0.0830349432991453  0.4166944306504917  0.4999789888383014
  0.2497682118672460  0.5851315072399855  0.1673152557348104
  0.3319279821170793  0.6669674019844725  0.9986898358772118
  0.1661109469902967  0.7508735074449142  0.5829265127591785
  0.2486462361490075  0.7504359724982963  0.5007959964936533
  0.1677369053474484  0.8332768067169671  0.6655441013934690
  0.2499800080928060  0.0015710186697648  0.7493678253106251
  0.5811597167466065  0.0002813051444816  0.9158888363697666
  0.2498704020817091  0.9182181480604606  0.6665933018337690
  0.2491966350351476  0.1653824704269305  0.0832637657385338
  0.9999590771422089  0.5005148863841435  0.3346270961932136
  0.8331839803297270  0.3327596279771506  0.3341482439357346
  0.0827899994032903  0.1655534681882140  0.5822000945830236
  0.2479748571914202  0.6676837857355495  0.4178420561757661
  0.9176605627161452  0.3290683176104624  0.0857643166425202
  0.1675332346593260  0.5866202929696801  0.2514908458120989
  0.0834381058801090  0.6688541627399044  0.2519989667399678
  0.4989394597997057  0.4992600006833352  0.6655880835899063
  0.9174697234778832  0.4140512031165010  0.1701655441801516
  0.3331360196480437  0.3327646709979904  0.6656830661157647
  0.8338228973223303  0.4151095383384610  0.2523649152193756
  0.1675970059064595  0.3305572018113286  0.8317676186093891
  0.9164005518643972  0.4161239992675288  0.3348336314932064
  0.0011909460135981  0.8348608677595796  0.9995963510601829
  0.9164323127169639  0.3330801016856248  0.4172339417452994
  0.2491740759418638  0.6692445019450316  0.2511364936393926
  0.0005875910198427  0.1658579045964642  0.8325635408470416
  0.0834502197955636  0.7506031446238900  0.3345629504531057
  0.9153503094643161  0.5002105940318545  0.5826043138751865
  0.7484250038988848  0.6727716248284087  0.7481340475243090
  0.2485943953532943  0.9177025484077410  0.5007239207529124
  0.6643103949474874  0.8349655107225022  0.6654985276102787
  0.0830175422847924  0.3323849385501139  0.4176325928673182
  0.4966573065978063  0.8350082869197366  0.1686022035991532
  0.5809735152114918  0.9177835220661944  0.8315251423759132
  0.8321900079335610  0.0003494872236814  0.9998057354108619
  0.9163666973016666  0.9169464286462981  0.1670154405836264
  0.8321165694011907  0.0835334150200826  0.9161969622885892
  0.9165807365039133  0.0008730782183516  0.9170287851953766
  0.9166984610985112  0.0825297258685265  0.8338831762314354
  0.8330591652085952  0.2464104000382427  0.0851036836492479
  0.8353535631765099  0.4979343319904775  0.1711766972455775
  0.5809401890577240  0.7529619004210552  0.1683063289183723
  0.1661211151371740  0.2496561059935043  0.7480208215494810
  0.2489327062530687  0.0830743733374183  0.5001521450539756
  0.9196209060408447  0.3281849724552565  0.9134644174192359
  0.6656641010102977  0.3333919991155855  0.4979734385205417
  0.5813714151861099  0.4167103279070112  0.4985100461035127
  0.2493685857791630  0.5015323951710939  0.2536566671796761
  0.0021763752328590  0.6721206013152715  0.9985776057931652
  0.9160644228971876  0.2489458015095787  0.3340069665814777
  0.8317533748499865  0.2484205859705742  0.5822328825610124
  0.9152284762110708  0.4161558117488455  0.5000279965397723
  0.0002900142802828  0.0839244911567078  0.9170339917456569
  0.7487175854507068  0.0828013936123372  0.8327468116654719
  0.9992701600262235  0.3322365095597579  0.3340970089854662
  0.9179450854751506  0.8355640229342967  0.9156577175614939
  0.7483014081972804  0.9171099741468168  0.1669931099642337
  0.6650940705239143  0.8346128370548724  0.3337498012011809
  0.6652858054358144  0.0827259928728904  0.5818599015072713
  0.7492524556950274  0.8343308316990434  0.4173995230053191
  0.7482613304324875  0.9165508245545688  0.3333417265360186
  0.6651324307583476  0.8350875401264207  0.4996964134177461
  0.6650171143010709  0.9174652102094086  0.5825606382155389
  0.9991142196061241  0.3328527205195353  0.4992198451180322
  0.7488003087216352  0.9169782721687636  0.4997256882373739
  0.6636054428068884  0.3286732952764242  0.8305997785622795
  0.2477687405474749  0.5852025614243970  0.3353677197965552
  0.9158937685900977  0.6683508582464941  0.4168840403052206
  0.7484013115199489  0.7568850816110524  0.0004567875183946
  0.0831707316866643  0.0005900316430900  0.9156600961624494
  0.3306060531183853  0.3334350817168346  0.1680370191624496
  0.3314543636896513  0.2492700890766712  0.2506035941618079
  0.4136678381947240  0.5007326148033864  0.0844928724711162
  0.2484954441622761  0.1651306329328985  0.4165285908982463
  0.4138070656187087  0.6676270648940845  0.9153188857094408
  0.4139223628945288  0.3332441267409359  0.2514615303345231
  0.4993938108420867  0.5009429136492338  0.4981378063199592
  0.4109081647782295  0.4168969720973790  0.1681461866585542
  0.3307665143219957  0.5844705757521890  0.2520077647625242
  0.4130068790355435  0.4998035151684536  0.2516101922317819
  0.4156355705387959  0.5841479014348663  0.4993613054554307
  0.3317112207901299  0.5850772794400000  0.4171959402970577
  0.3321897185774305  0.1654079211093564  0.1677260134176491
  0.1654147096817040  0.1657330780611943  0.1675466842563624
  0.4147569683890921  0.9181625764921851  0.9983831045449538
  0.4144862268575822  0.2483696707112890  0.0013326413019424
  0.2492423408614120  0.4161195679194747  0.8312595710037616
  0.9164325511222975  0.1651418216398084  0.4158133675336360
  0.8325696679995710  0.2486966245797418  0.4160636818669537
  0.0823036176064817  0.0837674003033182  0.6655215550566232
  0.9176428526612932  0.2477469221388595  0.9999545277123441
  0.9995104620273587  0.2490874057013590  0.5822804065109344
  0.8330961640761143  0.1653872852154420  0.0004948422122646
  0.0012143366623497  0.3306734135403823  0.1698946733397981
  0.8316529430385032  0.0825438479184720  0.0837440016669964
  0.0867532193598517  0.4124874052509198  0.0002355831647257
  0.7485552092037921  0.0821110042066371  0.1671486818309309
  0.8325461619685899  0.2482895385046730  0.2512012879339428
  0.0863824686888610  0.3303390993010527  0.0854402727225168
  0.0000998209391576  0.0832107811342080  0.0836961561927267
  0.0006434516584121  0.2486907676162536  0.7475147116814315
  0.0005345346703545  0.2479434369797040  0.2513674918195157
  0.9165292439818128  0.2469287245354583  0.1687180253567220
  0.8341256787234941  0.3275739961880911  0.0002082574702660
  0.9203315727864163  0.4113812054762728  0.8292600603833156
  0.3312008725280958  0.4995564967121786  0.8323934331576351
  0.2500681091599558  0.4164786578136082  0.6650432436227248
  0.3318161567607807  0.5830853464437868  0.9161619847398524
  0.3315266608240779  0.3327109638232254  0.4991261049341487
  0.3303324316553422  0.3322587977401040  0.0002694111257082
  0.4145935101406540  0.0005716792340991  0.4170171613332560
  0.2484917505836695  0.1653229514568946  0.2512932890522394
  0.1672514732595702  0.4996408613189197  0.8303371996978546
  0.4986828248128884  0.0826753670709624  0.4162035929076859
  0.2483806946843468  0.4166557462335110  0.0002266494741634
  0.1657218374592042  0.9997952904115364  0.1664955554704308
  0.1673353739614005  0.6694362453716232  0.9988559043660094
  0.1673191735619418  0.6688293998122400  0.8318999138622353
  0.1662490727606650  0.6697189760351869  0.1662381045635572
  0.2495725396533283  0.4171389200708877  0.4999822401128118
  0.4987384736957190  0.2497544662477781  0.5817296918285413
  0.1667019294233307  0.7516580418605001  0.0821760457494202
  0.1665023801463738  0.2477274002109552  0.0838172885149938
  0.3324685520105065  0.2494505038345952  0.7494785692675218
  0.1665982255727722  0.3326420695379566  0.6641805131152074
  0.1655879172383657  0.1654848029808108  0.3337991227350655
  0.1664625283454471  0.1658530315689960  0.0000936871784577
  0.4966276244237064  0.4988401653519190  0.8317823527129636
  0.0002420560247761  0.1650070453054707  0.1677707625821921
  0.1659133851610541  0.0850337901880108  0.7488568827439817
  0.4125461417428912  0.3327347335600384  0.0848810504386402
  0.4151144764903654  0.0009391674596376  0.5823501073825338
  0.3319954308817268  0.5000782876661894  0.3346574468711928
  0.4146210343095991  0.3319936706414949  0.7493834275761380
  0.4146508328156719  0.4162140626387121  0.3348891484157857
  0.3309151581568266  0.3318700409668832  0.3346574396705877
  0.1658886879749907  0.2482169133724157  0.4167858287705872
  0.6658398751044419  0.1656891248205098  0.4979000949796000
  0.3321324974549894  0.2494748339434434  0.5819432978462196
  0.4151973772336257  0.3327244134799968  0.5815040688355927
  0.4145748176772054  0.0833671527906828  0.8324054207834954
  0.3311910657982938  0.5004688382067085  0.0002077563219287
  0.9989320317048650  0.1655884117450330  0.4988380252127064
  0.7493560412973351  0.3330431316955805  0.4166111557531361
  0.4973394736644127  0.4146544514887666  0.7489335636071435
  0.4989096047650325  0.1665735853204974  0.4983332720117675
  0.1674840768720283  0.4153380872282263  0.9148504613937944
  0.2501684390028411  0.7501139414076078  0.6656695543743379
  0.0013092118892306  0.8354761476416805  0.8321774057267075
  0.5797229776701354  0.6703382706292437  0.7490143394609123
  0.4947258485480096  0.5855780586084540  0.0874435619120431
  0.4137989598607187  0.7515643097168482  0.8309954760717724
  0.0833406975977762  0.7510064790310566  0.5003826580694218
  0.5711020591738311  0.5008233781757976  0.0862861278313536
  0.5793075479030142  0.7536535670892838  0.8314645411437518
  0.4950532171613955  0.8346419853247012  0.0006246199569191
  0.4141449892588086  0.7505721934357164  0.6654419788738543
  0.4983638682372699  0.2489311111914783  0.4157553987668093
  0.5821192489843000  0.7520471726972785  0.3342429217393732
  0.4964638579812521  0.6690645736245835  0.1690556795065619
  0.5813555426018977  0.6686801579629384  0.2530907535306628
  0.4992628597289098  0.5840398913668580  0.5826828114191962
  0.3322935755871794  0.6663193522445302  0.6663712802999712
  0.4139913565333698  0.6671179814832552  0.7492427634900890
  0.4150124184930468  0.5841373877396678  0.6662647075778938
  0.3315473060468032  0.0820178260163100  0.2505340296953538
  0.3306519031454483  0.7506791730348965  0.9153445875886467
  0.4152594434702194  0.6667153286941758  0.5826560786465993
  0.9991037878613704  0.0001166077060719  0.6659025243974073
  0.2496955812310665  0.0014233623586532  0.5830687630498189
  0.4975006972538154  0.0009569736681052  0.6647988916996692
  0.0007983398167503  0.8344337912501032  0.1665299472524794
  0.0857757363236066  0.4991228954747098  0.9121493800324292
  0.7504589273283899  0.3293513614249547  0.0857159128020376
  0.0820043370995368  0.5000246067367337  0.5829137026378574
  0.7495350269922716  0.2466071188707311  0.0002712434130076
  0.5779417891474354  0.4986635018086146  0.9140936043798342
  0.9999845053489249  0.3318788986069255  0.6643080028765744
  0.6641643025734199  0.2478529647153499  0.0865306647476770
  0.6652110930814232  0.4128860247365351  0.2528405148950422
  0.6643935369777091  0.5878566256207843  0.2530227271304139
  0.8342590579374215  0.5851934902709189  0.2516334485860768
  0.6638868653093872  0.2480609867735517  0.7472374082757619
  0.7483602357693818  0.0004599872581479  0.7489482011780452
  0.8320956596889096  0.0005244039313329  0.6661658272593365
  0.5814046535899740  0.7505170521761140  0.4993925632182121
  0.6655463053523486  0.7509724044832979  0.5820814627237760
  0.0011380514050236  0.6700876386615413  0.1685139882226360
  0.6638123810360703  0.7537009048329575  0.0849469093338787
  0.5823116835801849  0.5003182874737783  0.5816291968958096
  0.1667156289722068  0.5864781323623220  0.0823980713438084
  0.8329110733502075  0.7512228819378464  0.4165661844856642
  0.1666606480477903  0.5846565604742294  0.9155119485374474
  0.8327887555652845  0.7538113896776657  0.7479882635488213
  0.1701954682871139  0.5011494630091596  0.1716256280122777
  0.5780554648311352  0.5856787496264255  0.8302674406737236
  0.7488371928142887  0.5844562248148379  0.4989431744497367
  0.6654620587017308  0.7506187769706097  0.4172762932723104
  0.0006009683646531  0.5855389302287879  0.2525936593505489
  0.0854696313848936  0.5853146565182893  0.1695557139958762
  0.9178458533851016  0.2481416771962909  0.8308288384698397
  0.0828407231056238  0.5011170313002412  0.4170702803053593
  0.6645147612900248  0.0834815236301055  0.9168425181889857
  0.2488430914126905  0.3310865739439255  0.9162079956485806
  0.9991407086992022  0.5843264037573984  0.5823950558000119
  0.7496254688378147  0.4167214153026432  0.4990903682598206
  0.0005932445797398  0.7523660550238732  0.2512482428468965
  0.9169839996864637  0.6696943667038645  0.2514699451960810
  0.7486926322601364  0.9999070410175530  0.2501487806841721
  0.0844334611879557  0.6696224133768273  0.0824666638094583
  0.6660837772875962  0.9996002422729510  0.3348052511953789
  0.7485723454553078  0.0826656148766606  0.4986463191766691
  0.7494592339778318  0.9996501681479514  0.4170539142441146