 C Cr Ni 
 1.0000000000000000
    21.1200000000000010    0.0000000000000000    0.0000000000000000
     0.0000000000000000   21.1200000000000010    0.0000000000000000
     0.0000000000000000    0.0000000000000000   21.1200000000000010
 C   Cr  Ni 
   9 259 605
Direct
  0.6662691976056846  0.5851789383734501  0.1762452551258893
  0.6676373875101732  0.5853078009910673  0.9940004601310573
  0.8301727758693180  0.4976385875993712  0.9197028543534649
  0.8328956439360337  0.4177593500015764  0.4989431039803566
  0.9181410844801557  0.5013256411557011  0.1663340839409655
  0.9228161755630340  0.4958333257633755  0.8268538354026160
  0.6646770048980937  0.5841318791139820  0.6661922148897230
  0.5737256944939805  0.5850830385500049  0.0846892696400321
  0.9218909007320641  0.5891951623029865  0.9198572485841524
  0.7498310445446623  0.2506180245548070  0.1672979925775112
  0.3325477426411972  0.1650725980281608  0.4993729420605422
  0.4987640963452002  0.0846843685574370  0.2505921684313345
  0.4978035234198076  0.1658647219334866  0.0006346076060743
  0.5843645749866240  0.2489671078351156  0.6665276217583134
  0.6660815595054902  0.0821913047578954  0.7495338455893203
  0.4992501401100364  0.0006674264066809  0.6649967517182174
  0.3333100017767839  0.0010226893892900  0.4988400097611134
  0.4153195681140298  0.9173081027077505  0.3339527170175510
  0.4167679792963708  0.1664111848790012  0.2520086042031675
  0.2504052606429502  0.8363267638144718  0.5821299943954943
  0.2499910602077310  0.0829721553996253  0.6662105188913622
  0.4146438774356792  0.2474959840046595  0.3336140493431478
  0.4150020968046063  0.8346810004125663  0.5840461839684192
  0.2495301223277197  0.5001347237316273  0.4180381669769094
  0.3327292611756609  0.9173374939814996  0.0836558284413756
  0.2508692094997367  0.7525660075313882  0.8305972129482442
  0.0015169240525185  0.7513445839825423  0.4169444772385921
  0.3310043110203995  0.7494892065361561  0.4197759404695758
  0.1649156537575418  0.6667040931578506  0.3350010649329732
  0.4166651275370767  0.9990292899877808  0.0838000606155206
  0.4995221162835344  0.3308814143241016  0.4988225956045577
  0.4138154800904581  0.4985580289927893  0.7466025064256809
  0.4161579549793306  0.3340151949300285  0.0836089698680481
  0.4978947894836164  0.6688475144365156  0.6665778314178157
  0.3332080303011474  0.7519192223415760  0.7499900658184419
  0.4983080133711432  0.6698415532769255  0.4978780713140287
  0.4983507912539324  0.7511235575781249  0.4186212338817598
  0.0009277193722190  0.3309648488027555  0.1672933955317802
  0.4973653976322862  0.7516505076024987  0.2500657324809752
  0.3323102533500934  0.0847514532917863  0.9164897230688196
  0.5794169848474232  0.6714502516953446  0.9147383577945670
  0.4969976996558730  0.4141737149736767  0.2531636532925752
  0.6645631315743283  0.6770294057133757  0.1693291112519883
  0.5773731371239791  0.5839621501278699  0.9950387718097263
  0.5807817207158941  0.4981451404853069  0.9161295278077819
  0.3301007385872111  0.7501459505801086  0.2517041394539051
  0.4154275598975511  0.3298977332676288  0.4159102454934892
  0.4128774007324930  0.5015076031973508  0.9140886702313565
  0.4958734087579065  0.4151064525371200  0.7498542853007372
  0.4946738062069361  0.4133109966481917  0.0826715271893202
  0.7541632265642066  0.5830230118228106  0.6655704402468857
  0.6659446935013683  0.6755320704701541  0.6660739473676623
  0.4972156310121767  0.4993849270423296  0.4975950560556925
  0.4107186773707878  0.5836923214979194  0.1709555015997309
  0.6633842402929383  0.6762230324390567  0.9967641760885370
  0.7489229288707973  0.4977284040858038  0.7481499788140643
  0.1662501977428151  0.9175903690961215  0.5815683705180636
  0.1651684254992674  0.8363194431748483  0.5022111217802345
  0.1665796563332052  0.8355366500381424  0.3351033902619351
  0.4939972987927609  0.7532090351526253  0.0825012770432445
  0.2499672306132693  0.9167471322581199  0.3342465687992524
  0.3333260801251590  0.0835316531314338  0.7494136577121812
  0.1660858526941205  0.8332366407902019  0.1663766734965104
  0.5753084769534970  0.5842196316907188  0.6653025624432597
  0.4116997058048741  0.4965462765450302  0.0835780993095510
  0.3341632357486752  0.9182679661990237  0.7490090167804213
  0.5000252553949021  0.0001541443042411  0.4990054043322413
  0.4169361583997170  0.0822617760003824  0.6658717638077285
  0.1664807396312553  0.9996529575382944  0.8345035751633448
  0.0851863167466750  0.8365147772342384  0.7497283520278625
  0.4986489143209024  0.1649649304811289  0.8326144800339219
  0.1667353626471196  0.9182918560383224  0.9158039255890633
  0.4139900115161970  0.3311586581819437  0.9149283404336735
  0.2509851106663532  0.7524097873511858  0.6663515664867528
  0.8326405875557999  0.5001963275588226  0.0096451179639597
  0.1677213281861858  0.4149509093388089  0.0833613287999986
  0.2508004808157721  0.7528353386041851  0.9989116233081388
  0.2478502547424537  0.5832507505302139  0.8323142969109543
  0.4141519069575453  0.7522347608824266  0.6662090881439111
  0.0851607189796019  0.5842547790331954  0.6649320047769589
  0.2519067902459591  0.4984944356381977  0.5825676248826049
  0.2498834969630560  0.9982982538647832  0.2509048604371775
  0.4172861203266549  0.1657420516533457  0.0844981901860064
  0.2494053560724089  0.2485204228810134  0.3334291959524713
  0.4135224771039491  0.5824939368642282  0.8329292065540731
  0.4962481966168938  0.7529878822590316  0.9157214130469873
  0.3312203617817852  0.5005863830181002  0.6646905138926809
  0.3336959347585368  0.5840475324886121  0.5822995551649978
  0.4150430120098992  0.8346976402184714  0.0835988441156512
  0.3332248741266077  0.4992399088862418  0.5003016439446092
  0.5794492808466336  0.4926835553925765  0.0837565573233653
  0.2496988505946298  0.5833963851243030  0.1665051925998373
  0.4959077552226060  0.3321184049140744  0.9989881023041756
  0.2499504866181629  0.3312169943809282  0.9154936055699964
  0.3309741642814235  0.4152092605146973  0.2524239506244397
  0.3308471318737157  0.5843294569760750  0.2506215200281104
  0.2514591684181424  0.4132648692368480  0.6650142505583748
  0.4142684459494917  0.5002000012025194  0.4178393500078287
  0.4158473246311010  0.7517547228123121  0.8324494097119658
  0.4149383511340890  0.4999951518226185  0.5821607222297550
  0.4172796703670024  0.0843065968572746  0.3318171749824896
  0.4149658941297569  0.4146221804572506  0.6658199397424960
  0.1682802011830340  0.5835654384430420  0.7478932471594739
  0.9979528329802975  0.0846077292993358  0.9162956319390951
  0.1661664711467960  0.0818743369738442  0.2498670522948235
  0.9988738093046235  0.9173195039782491  0.9175004097139966
  0.1691588095798929  0.5853519013671121  0.0835954884318594
  0.3333470929164363  0.4145217714402905  0.0821522509406023
  0.4991717990185948  0.9173868841358381  0.4176381896322319
  0.0845626259210234  0.6670482515863099  0.5816466119703796
  0.7487388229401845  0.4142276080332151  0.8333606193191698
  0.8332559392234697  0.9999253192509139  0.4989796839317177
  0.8332836014600407  0.1663890458064738  0.8335209618424227
  0.1689603232878830  0.5850610464225985  0.9160171590643115
  0.5833379775425089  0.9177899389617329  0.6652753058905572
  0.8347029964128377  0.5076213765177859  0.4986347078753007
  0.0836185990807085  0.1665739711855940  0.0843382735339576
  0.8335367571555971  0.2477822684134259  0.9166025596214091
  0.8327697574086188  0.1664547642479076  0.6672276153722441
  0.9153401537258538  0.0838955354740985  0.3319820786355774
  0.4158565113112855  0.3310725930372366  0.7489895553964488
  0.9993741542453883  0.2458396403612501  0.9162103799190312
  0.5817771483037638  0.9177362005009750  0.0006109151503365
  0.8328848100412561  0.9996013680318968  0.6651091189299922
  0.3302349286604518  0.9181423951982537  0.2509354346715814
  0.8333128117049128  0.0826100319490608  0.2504901878427964
  0.3326219595163130  0.6684628186518740  0.4997246013406785
  0.6664813863039593  0.0006516375441725  0.0009419385504286
  0.0845000090336350  0.8350547508925413  0.5819664802238905
  0.9168305518366949  0.5873567952860934  0.0093410222312504
  0.8330012320104619  0.6707843234900519  0.0016761008748345
  0.5815441593482193  0.2484860569411322  0.4989732371330788
  0.6639704369946086  0.2473477640431580  0.9167316669200526
  0.3332421329616833  0.3304307800302430  0.4982208747238751
  0.6640681108380286  0.4924363214129303  0.6670458366300261
  0.6651217806283694  0.5837997114368512  0.0857648815386325
  0.1660102341595121  0.6672033082719024  0.5032274069679822
  0.0852740422105140  0.7532614605973273  0.9990020273673227
  0.9154801000074598  0.1646078363967937  0.2521782603776440
  0.0852083016357610  0.3317664888325228  0.9170397561136728
  0.6648764640139228  0.5834450187296355  0.7563685321181050
  0.0025676129160794  0.6694495690498361  0.3360337582272582
  0.8347138984236182  0.7498453502685626  0.4170658701873615
  0.8342791199146515  0.6696322178627917  0.3360617723539087
  0.0043852751082177  0.6706908229282058  0.1661514088093646
  0.8345880998145644  0.6709788207770384  0.1690901046312613
  0.9147001930621679  0.0001855947158687  0.7490332138417745
  0.0017771697441259  0.2480068178278822  0.4148374838811553
  0.9151307155816133  0.9166594683263216  0.3339105685750662
  0.9166293500901894  0.9984126032521857  0.0847449777272979
  0.7483745707816088  0.9159583733156184  0.3348909210909666
  0.9171715283358842  0.9158026282594232  0.1656585642784150
  0.9159587841334828  0.7531687782894021  0.8307712467796836
  0.9186272904449674  0.5011254440342428  0.2559423474580865
  0.9200395081265724  0.4982364803162760  0.9186797272238840
  0.7489523076475377  0.2488018663757215  0.6660936034702307
  0.6664100048505777  0.7511834323540368  0.2493378658012601
  0.6659336799730015  0.1641502111480814  0.0027291331887623
  0.7495174977535555  0.2496220577147358  0.3346318809449254
  0.5832084488525375  0.2497699422012314  0.3349607753180251
  0.5810572021187735  0.2498511114146294  0.1665408795029411
  0.8315474695753974  0.5885249049873945  0.9160800454222697
  0.9198069306051604  0.5891229200870112  0.8291989415825899
  0.8303703267338095  0.4987911039369954  0.8280204335247457
  0.8345509129087969  0.4142790278309089  0.5884696586949234
  0.9175947776766202  0.6698043737576367  0.7486835554310579
  0.6650902886937227  0.9983277742402434  0.8336322494166150
  0.6630825783211802  0.4149107046011585  0.0843580623928744
  0.8310367652150054  0.4076107372665356  0.9176148186521512
  0.7505774819800931  0.4149707579312148  0.1678767872733804
  0.9153970248302341  0.1646597336092066  0.0833169107171508
  0.8330177488298628  0.9986106054099058  0.8326908336114726
  0.8328248152762995  0.1667294569209770  0.4986998464519553
  0.6656184091119183  0.4156721853674137  0.2508162860100892
  0.6661008590687871  0.0832299587699161  0.5826923637515842
  0.6664424151194381  0.9170244474811485  0.4172033568282880
  0.7488198543237756  0.0825367939458135  0.1655951969719769
  0.6676546570243590  0.0828814373479409  0.2477527913103329
  0.6663102732394034  0.9997552229910811  0.1672412207044550
  0.6656053019478289  0.0832689593525188  0.0847015812689216
  0.5822623265380860  0.9205150027581469  0.8332372391558350
  0.2486367924977931  0.9991043484624080  0.9160963353040423
  0.4168313901769626  0.8335403088606056  0.9142081376701962
  0.9168289155910040  0.6674281849801138  0.5828795922226312
  0.5824208897658443  0.8352256371770620  0.5836133960682861
  0.6669092096491278  0.0833688327393418  0.4170757625895802
  0.7511366139712780  0.9186477242006224  0.6646870954028760
  0.6636868434659768  0.4945349899798511  0.0000206916873917
  0.6647677882324785  0.2492275100032140  0.7492613369369195
  0.9159473096374016  0.8324597124494929  0.9161600502769893
  0.9997755752526104  0.2481467358538102  0.5835750249882115
  0.8339477924851023  0.8346138749175415  0.8321830323700122
  0.7486606921631814  0.8350172891845511  0.0842355700202739
  0.6642383581274012  0.7544092982649550  0.9154403637120418
  0.7495646178604225  0.7520524941355267  0.8331950021291326
  0.6638086415155795  0.5834794459611850  0.5762516546507761
  0.6653538677421084  0.7525305133764438  0.7489087536390885
  0.6653679027756683  0.7542528478536348  0.4177929239005084
  0.6648119835503492  0.4971706133524465  0.3352461012862779
  0.6655253219847140  0.3319503583440426  0.6673999056060597
  0.6652693373670198  0.5834365486574651  0.2641577207854945
  0.4974463647361280  0.9186467688851567  0.2519536536386530
  0.7416585048601867  0.4969729583064539  0.9134690310302536
  0.8329945841113574  0.3300674105734877  0.1680833591352831
  0.5800240356717932  0.4150792713879869  0.6644320590726965
  0.7441551216735133  0.4166965334200149  0.4988060232101021
  0.5819026179593749  0.3308397281645610  0.4170314029875515
  0.9174902173436109  0.3315748560178339  0.7483606343753917
  0.2501110076566899  0.2478812606855536  0.1659350479299735
  0.9989846934086212  0.0828457725165597  0.5831584928836088
  0.0843247652343250  0.9174814156432368  0.3351862792118157
  0.0111118397520375  0.5022814619942279  0.8330672429983349
  0.5757347028138508  0.5830466684747048  0.1735313069857099
  0.9157754784058513  0.8348542808770059  0.5813113507135259
  0.9142823076685873  0.1655618309197253  0.9164611917989915
  0.1654971451660241  0.1656135049124801  0.6664339108781189
  0.1651739749101306  0.4153179454775531  0.2525682382581632
  0.0839380865548743  0.2480850762907481  0.0001236295176446
  0.1649608867898574  0.3325004391472730  0.4993517413318864
  0.7498136336364104  0.5843183631370947  0.8289814887271084
  0.0007411662643327  0.8363108540262832  0.1657939161219674
  0.6641494961853919  0.5839997160489567  0.4151324306053266
  0.0838056775976379  0.7515070778274254  0.1661439990913765
  0.6646590955490793  0.8344172344127451  0.1692913743602368
  0.0848452174384688  0.4149818946598459  0.6672563687271397
  0.7486462315846558  0.0817657911944002  0.0007036696389622
  0.9985404577827349  0.1667490537565728  0.8329053019238357
  0.9158317731741152  0.8336800316710595  0.7507480169567252
  0.9152079001449049  0.1652573352936828  0.7506268069722313
  0.5835655172396399  0.8343599701575082  0.4164507214399151
  0.2489574099872949  0.2471174545631290  0.6661162091536273
  0.8280153238301956  0.4978425771850140  0.1674911359471027
  0.1653812924063107  0.1649757826826663  0.4996591198493445
  0.6649004696636566  0.4926917597168019  0.1687034828795063
  0.9197934903534583  0.4983928188603003  0.0759900898575128
  0.0852888819037203  0.3330443769051133  0.7487136315196473
  0.0032469413464719  0.3291494351979428  0.9984651633078594
  0.9177487059128183  0.3314343916923222  0.5822636804936384
  0.8347893706270629  0.3279439772901621  0.4985254435852408
  0.0840627403319873  0.4162498110095929  0.3342551509419104
  0.9179396695135802  0.3314983682415915  0.2515878871587460
  0.0047488767413305  0.6685632663649752  0.8302222354179081
  0.0845150159482380  0.5847037142771275  0.5027717647268283
  0.0086997376406640  0.5006402854166031  0.1664927638383322
  0.0819388188630779  0.0013400720347882  0.4162645680879065
  0.0830515763177938  0.2478949651277228  0.3335823155264954
  0.0823497457013562  0.0811299838870637  0.3342515801010281
  0.0030872733700227  0.3308335845558242  0.8353070602928997
  0.2489693124931411  0.1667891379777577  0.0844784778611023
  0.0844426502259741  0.5860376070091907  0.3347233026392692
  0.2510140411429017  0.1636706834192471  0.9155544073772429
  0.0037046606432065  0.4164763122469344  0.4153513796012632
  0.1651442874972256  0.9183472655136118  0.7489920683439519
  0.0876138497776024  0.5854312655752666  0.1667931810972468
  0.3314424327149898  0.3315236035197411  0.8335905800547638
  0.2508068155286089  0.9980971406158181  0.0837780796180581
  0.0828488421205217  0.2476510281126436  0.1650150809574316
  0.8347883124475134  0.4165224345501285  0.4096288774913598
  0.0837994776344115  0.7512428013711355  0.3347696765441174
  0.1671355214318588  0.4145614738217874  0.7485891629937939
  0.9982651284868622  0.9989264005034896  0.1661586711308223
  0.0846006722806079  0.9992681168133553  0.7507886194194726
  0.1674247936325017  0.6675293638696924  0.1654287650670515
  0.0106382620134107  0.5854744951797972  0.9156883716315231
  0.0844025518910127  0.1648820829189333  0.7485621506483464
  0.8351127359183668  0.5844860642104156  0.4166139636605631
  0.1665828217585021  0.0006381953421394  0.9980724929293668
  0.0830240373287146  0.4154682068824359  0.4994951188057918
  0.8320384434785491  0.3302055580259978  0.8327104427677896
  0.5806340875219106  0.5840845209016605  0.3343390327671126
  0.7488781650624518  0.3317203305640123  0.7498240746203295
  0.7491806239151004  0.5013359546554542  0.4160708906723663
  0.6653865892367360  0.7534820277233084  0.0841653927370060
  0.9184371725232778  0.5862710774956694  0.3338935216018171
  0.5797626340932613  0.6737837383683403  0.0838086902634577
  0.0845334006670653  0.2477772099812421  0.8330662364826603
  0.0853058231656566  0.5010670079094239  0.2509540506880476
  0.7496312740204064  0.7522781326546759  0.6653198256867550
  0.6641207486571614  0.3304486973809356  0.8325853787592346
  0.6639331842377802  0.6711338851642094  0.8316704665589552
  0.5790331362059357  0.7540193489284700  0.0001962619230607
  0.0027865157547555  0.5848510941089328  0.4175911739603992
  0.9191933375736365  0.4161076617867547  0.3333843208441090
  0.7542397872596180  0.5868411092768746  0.0031910663741142
  0.5787164567632902  0.4138084298235404  0.9978214650376411
  0.4971582601734898  0.3322256412499828  0.1687593038748389
  0.6631661921138178  0.4131485774870960  0.9158990295136518
  0.5808584709740182  0.2475304933893981  0.8333739102236211
  0.0022851268100110  0.4152494817119475  0.7498178705788217
  0.5813361201075442  0.7508960297620854  0.6655896217154992
  0.7506887184998137  0.6693075750851506  0.2527769741833027
  0.5804068155535574  0.3323926292981948  0.0837884778309008
  0.1669252123075226  0.0831541170621151  0.9168984853553742
  0.9988865092891678  0.9171936234355994  0.5829662684518523
  0.7493810620504986  0.6677639236289739  0.4167886326742886
  0.5798437208815147  0.4978296112378683  0.2524168716691216
  0.7496057162066700  0.6713726372836282  0.0853588610920592
  0.5823589992626286  0.3316429696028362  0.2513252111748092
  0.6653767740788888  0.9172695649947578  0.0837576044095465
  0.5792694687230503  0.4134930844853080  0.1690562886692399
  0.9186711396137863  0.4143173422879292  0.6660366076784003
  0.4983903237905561  0.3308019539702378  0.3339063022379290
  0.0833824980014604  0.8345292883849837  0.2504635646516989
  0.4952062180188847  0.6686488136850263  0.9985058795399985
  0.5789558536660413  0.5833331877976409  0.8328504710155415
  0.0844977833152067  0.7532032149916172  0.8317330272203963
  0.0874976370686833  0.6695936899911625  0.9160445966938997
  0.4962335507584635  0.5835687537054142  0.9150406269421090
  0.6641227435653847  0.8348904307076871  0.0002843835188253
  0.0008830223699078  0.9164185592808937  0.0822662993036148
  0.5828866089047580  0.0828413585897255  0.6658583449250353
  0.4990187774741673  0.2480823624968746  0.5823799619739685
  0.4155535596164162  0.2482385976049614  0.4988820261729258
  0.5807449061868361  0.5845808962146463  0.4972491033367195
  0.4983036829807614  0.7519601927121305  0.5833203704920181
  0.7491986837044528  0.6689603297985699  0.7494726067117182
  0.0861640758607816  0.6680428739689286  0.7480672475670245
  0.7488037804065777  0.4998748678294263  0.5825486564182010
  0.4965964285910409  0.4990546404860254  0.3341499762475142
  0.7493793565586675  0.6673660909922640  0.5814258142679962
  0.6643236733214946  0.5000434770964205  0.4983595003327201
  0.0864842862255489  0.4998438686855570  0.7476373152220538
  0.4972411808328728  0.6679781859267037  0.8319109981611263
  0.0833799899555584  0.7513820932243511  0.5010269933963621
  0.4872663338313304  0.5827701055548153  0.0834722629022421
  0.5813829638888860  0.7533123376281490  0.8324344781604056
  0.4971614738784192  0.8357134783019425  0.9993956774648656
  0.4974520862590926  0.7520575220766620  0.7486996497547111
  0.4985922073985292  0.2473409887893666  0.4157848631427082
  0.5813823524475866  0.7516912022327843  0.3341164592619151
  0.4954072011424688  0.6686766141146296  0.1686548423469504
  0.5799176979772234  0.6697161656665908  0.2520401757548958
  0.4973168868287944  0.5845332834406672  0.5808340181120282
  0.5808183074017819  0.6680886448817992  0.5815853514269822
  0.4970300660532076  0.5826032745875954  0.7499434120180120
  0.0835314102541281  0.9180277093683705  0.9990085902564130
  0.0018703812685068  0.7523247023816021  0.9150323096652752
  0.0845942748038027  0.8343089544719093  0.0824305246290935
  0.3334258366592900  0.4141107965469883  0.5811188317532568
  0.4953657244691141  0.5833131760329473  0.2523198415486817
  0.7486629860346679  0.9171389868836055  0.0002113927387226
  0.4976523129675984  0.5843827525585997  0.4169303612323904
  0.4153143625689498  0.2481085114829961  0.8335871136698367
  0.5809984647988499  0.8354852227707090  0.9155795215212866
  0.9997972646907585  0.7514134866535479  0.5830845888044774
  0.5809382010241113  0.8342090445094859  0.2514152580425705
  0.4981541786370569  0.8340360329280493  0.3335446638963153
  0.0839086945013425  0.7524997870976438  0.6652359967890688
  0.4993030953062637  0.8343192238801089  0.4998454282800953
  0.0006930090915160  0.6679998718699313  0.5011376804726947
  0.0850833385628100  0.6673507091691391  0.4194440762200357
  0.6660074294416857  0.9180183599526617  0.7489202019497562
  0.4988611877008274  0.8352890157117913  0.6665099093848543
  0.5827477696982427  0.9174573751516101  0.5000074819059630
  0.4991277123634459  0.8357319134843869  0.8314156626116630
  0.0008822776308785  0.8348430557119313  0.3347165902484489
  0.5822297138182121  0.9170880156642476  0.3336905576454754
  0.5825461393325180  0.8357214699983089  0.7482354190837500
  0.5811752088737946  0.9168297022605116  0.1676250493061370
  0.2492138550891279  0.7517034481032069  0.1669386319000926
  0.4988790512263344  0.9178885761273642  0.5827181134819849
  0.5825777130196325  0.1649113057137232  0.9173021814030806
  0.2496103676784636  0.5837612984180571  0.9996146606840672
  0.5830915138927827  0.0004643081309326  0.5828318922591255
  0.4154179893997313  0.9184250507519015  0.8329600712507556
  0.5829515437272290  0.1649460015550961  0.7495514944989200
  0.3330271440588619  0.9180319999403390  0.9164643172813416
  0.3323834875314474  0.8345289964513262  0.1677707267273735
  0.3323887108078271  0.7526616049864565  0.0826159873346397
  0.5795578810546776  0.4140001225790815  0.8334368080096215
  0.0001715908976412  0.9168149293848636  0.2504504967444842
  0.1682799643364269  0.4141446963982250  0.9165327679972579
  0.1673911600881666  0.6683287426528791  0.6654619591964753
  0.5810619347300181  0.4997519747581509  0.4162772865688175
  0.9996940181383193  0.8344675912493359  0.8326740108346645
  0.4975582476146483  0.6691909345689807  0.3339521870728886
  0.5802210185617570  0.6686489620340275  0.7500994607653173
  0.5821915974385401  0.6692539649857139  0.4162761156452401
  0.7507250747041119  0.7524589821433928  0.1676687941271156
  0.7484875163505119  0.1656880998065973  0.9163112040022384
  0.7471668986956762  0.3299009563066536  0.9167541911820558
  0.5832803887489401  0.0826091561596235  0.8335297129650872
  0.2495193943821693  0.4992285679033377  0.7479438283698394
  0.6646416987158594  0.2492538577221755  0.0840139224524405
  0.6653347859734636  0.3327350567172797  0.1683830822349671
  0.0039952541150572  0.5850183138569979  0.7470292197574845
  0.0885632923114299  0.5853115330343821  0.8311182276489333
  0.7491669547194941  0.1663246267870238  0.2499186269397504
  0.5835355734082207  0.1658229072746709  0.4160942046157187
  0.6663727462887796  0.1663509629248066  0.3328574661429357
  0.7495481775116011  0.1659838804797508  0.5828539418210337
  0.6659030592682569  0.2483787861740415  0.4165574226079434
  0.6663085702036784  0.1666588512393709  0.6662559770147199
  0.6657736595807954  0.2490642030217132  0.5834897971468479
  0.0032152760528698  0.4996522740518108  0.6649843149849832
  0.7504349914666364  0.2487202486072326  0.4996231910183915
  0.7495284027194750  0.1669484411538844  0.0845784437305374
  0.5831685508127339  0.1655093780765749  0.5830757460329267
  0.7489561997444171  0.1657098550651590  0.7499789740352122
  0.7491362800008241  0.1654853677936360  0.4164830199417027
  0.9170159355258488  0.5864519016355030  0.6653399845777789
  0.6647176882817990  0.8359522614761398  0.8322002202856122
  0.9989872889013083  0.1655143091694661  0.0006977232235781
  0.8335653697689692  0.4138059386958426  0.7477973846020313
  0.9183993762984246  0.5010136940041925  0.7411599413766400
  0.0824402028601506  0.1652304627251334  0.9169171359834587
  0.8341197869796249  0.7528492677565826  0.0848844188283524
  0.9994249236042461  0.2481628201415768  0.0837396992213539
  0.9168896184869963  0.7523943590369389  0.0004328078058694
  0.7480252693522113  0.6695126966708693  0.9152587715235047
  0.0825220417103540  0.0825578457425534  0.8332611075550177
  0.9182480977597212  0.6713891503297932  0.0848888943615084
  0.0017392180588648  0.4154113001613768  0.5833772495840174
  0.8347184245510643  0.7515022154573870  0.2508591054079657
  0.8335578900522643  0.8351748236650058  0.1670456785480101
  0.9187871844263158  0.7527516314347200  0.1676343875245739
  0.5817508705760618  0.3307280229829144  0.5822727046613121
  0.8322157912039595  0.3298183678345979  0.0006308058531998
  0.8329658702455367  0.0838724008475551  0.5827153322355928
  0.9149841087218934  0.0009524993128437  0.5826586495863392
  0.9153707463063950  0.0837684464062113  0.5001084043764986
  0.0031954017562604  0.5011885276472778  0.3340279334183408
  0.9986882442041466  0.0008086878940373  0.4998512298751194
  0.9163575974592495  0.8339424058520032  0.4165682124965803
  0.8332592937773674  0.8337426539856693  0.4994798594677395
  0.8331332149866798  0.8340116628745133  0.3347651645759499
  0.0010330407673863  0.6688799734519565  0.6651727391419414
  0.9169719809353124  0.7505143986009878  0.5003618167078153
  0.1658607991919802  0.0003784410116775  0.6665223559683658
  0.8331955577441584  0.6691669513310323  0.6650704387338577
  0.9174996572647456  0.7523573780739902  0.6652871480751515
  0.8323210118623283  0.6698338180575402  0.8315175604602558
  0.8310692851550374  0.7517328680903259  0.9164985050248647
  0.7485997038299564  0.2484265211476069  0.8334442918431988
  0.0010356193493207  0.7523951503951216  0.7474728894428092
  0.8330565779490015  0.8346221692146808  0.9997853816259386
  0.8325446098950634  0.0821382750137725  0.9159989280829107
  0.9163750105451419  0.9998068649245906  0.9165452922599049
  0.9154126840560446  0.0819674985507386  0.8323652779686065
  0.8334432840779002  0.2483815935307274  0.0845583847021535
  0.8327380999699130  0.4130352239549861  0.0838737165618460
  0.0829155601608759  0.2484670188175108  0.6667415011855532
  0.9180511312612240  0.3296431937340122  0.9172396385597267
  0.9174839813937278  0.3312899319033894  0.0840506179866691
  0.8339041813006053  0.3312047458203020  0.3331386128804756
  0.9172983017023985  0.4112515036025986  0.1670369506633516
  0.8337840505583969  0.4149190908177651  0.2519118888155989
  0.9190162332680581  0.5016280482513011  0.4151420393062701
  0.9186340502556704  0.3317058831871244  0.4158837877850384
  0.9993951648810934  0.0828614848021371  0.7498149853636579
  0.9177434375524266  0.4999064858782719  0.5836401697166417
  0.0829925572603829  0.1657388238065444  0.5826582032911477
  0.8330879244028343  0.5864863367016492  0.7483528179318676
  0.9179681772947385  0.6677649210426678  0.4176860045722677
  0.9987751111945736  0.0829164627540972  0.0835591744662123
  0.4161339412836519  0.0832111023699599  0.1672813418584686
  0.4992291365304852  0.2488376597011802  0.2510353875537543
  0.2492115110708382  0.1653577651895460  0.7487907658070709
  0.2495722677049544  0.2478676436603036  0.8336334831488402
  0.4165383952694620  0.1649495936153545  0.9164303840388681
  0.4995159871266486  0.0831895271828403  0.5823243817629495
  0.3332314681236322  0.0008336590165000  0.6665658047711942
  0.4161790044262400  0.0009978482871806  0.7496081262597228
  0.3330737328700507  0.0835503026736971  0.5828238201133652
  0.4153376065946310  0.0013668374737360  0.9157225105533139
  0.3324314884142897  0.1655565214971268  0.0013721568885431
  0.4994750458896451  0.3310164142133439  0.6652331472981500
  0.3319726326435223  0.5838546677024813  0.7494952403124515
  0.2487590694280382  0.3309405344381884  0.4169534879031316
  0.4989835159260690  0.0834403038245728  0.0836213056365812
  0.3331471985367884  0.0827096466047511  0.0834704699415680
  0.1679791174339156  0.3309973420883249  0.0004662197018004
  0.3323612406174934  0.0835636322859650  0.2502259920056445
  0.4158633962198895  0.0007066337272101  0.2513565130653645
  0.1670893426413703  0.0826675015173832  0.0836128110243672
  0.9163506294278482  0.1655613866875141  0.4160890542906302
  0.9165305209831638  0.4085076178584736  0.8340796685113655
  0.8321751129960115  0.5877621286730237  0.0868374308256346
  0.0000468235686349  0.1655907014564671  0.4994834482159451
  0.9185270801445119  0.4127141711992622  0.9998907614556254
  0.0035722442097231  0.6704146091924527  0.9989844490175001
  0.0832612325138484  0.1650283618498231  0.4162037696317054
  0.7515597802866985  0.5849378119008245  0.3355587243924733
  0.8341836281887923  0.5017339999379090  0.3344897242944244
  0.9179230030942271  0.7508158205352885  0.3348543627739809
  0.0024201488875307  0.4163519916370549  0.2508235058723306
  0.1662177456650599  0.2481111391509879  0.2499244364405238