 C Cr Ni 
 1.0000000000000000
    21.1200000000000010    0.0000000000000000    0.0000000000000000
     0.0000000000000000   21.1200000000000010    0.0000000000000000
     0.0000000000000000    0.0000000000000000   21.1200000000000010
 C   Cr  Ni 
   9 259 605
Direct
  0.9163192653235681  0.4154133606217715  0.7478105513465926
  0.6633166786067768  0.5831736300450940  0.0047846907153892
  0.8265432063762593  0.4962298113315784  0.9133977676663153
  0.9156380345497336  0.4968758709073924  0.0087996832588436
  0.0059861079924741  0.5901107636768109  0.0062968189695105
  0.9176612307983824  0.6689380108756500  0.6632484275552819
  0.6632585766666153  0.5834941431007210  0.6633821556948385
  0.0084543119354815  0.4973790911810455  0.9126149709542269
  0.7484839509153385  0.6706846671038745  0.8331295243142578
  0.3312954988611228  0.1656952388349827  0.6668707653264155
  0.2506453024267636  0.8358881801146284  0.5822285498099964
  0.3320068370179184  0.0836514827113182  0.2510291520047119
  0.4145591323783770  0.9173041470507075  0.3334495402936098
  0.3325889383571344  0.0011981403836826  0.4987892756478959
  0.4998523974015185  0.9996411807638742  0.6650415215941625
  0.4154134503929025  0.1657025171466193  0.2516549974073162
  0.5830551129891871  0.3316210255962628  0.7485728201537286
  0.4963794411820152  0.1655036121585717  0.0016858694655071
  0.4137048263026548  0.2473536328523767  0.3326683539307267
  0.3323696080033156  0.1680462013496859  0.5000334405970444
  0.7489479029862000  0.1656448841200322  0.0838080543314740
  0.6665488861441813  0.0832003167937073  0.7500348968037208
  0.4147654822708104  0.8352444513411846  0.5828221806769204
  0.0851648372151911  0.7527404902962895  0.9987164272626033
  0.4153851760982918  0.9196428382536725  0.0013499297896756
  0.2521698257668637  0.7518341465042258  0.8314678658693335
  0.1659659165063904  0.2486486346414314  0.2503319288689801
  0.3312000896707981  0.7487992145825453  0.4189096503007959
  0.1664034530550356  0.6669171631104119  0.3335369521139705
  0.4164395449557510  0.9995107973999845  0.0834308675130805
  0.4992082583647954  0.3307496811802158  0.4986935980804566
  0.4146014781313497  0.4997331236429228  0.7488461298001540
  0.4162007477586802  0.3331551119715334  0.0850870116817677
  0.4982132889369513  0.6692287199847351  0.6670397792016404
  0.3332731450896911  0.7517964299479948  0.7506657831866275
  0.4984522685337557  0.6702960149926167  0.4972895711278267
  0.4989360606092716  0.7497021616741639  0.4191558050928015
  0.0016266267692197  0.7506381309446074  0.4152711711984999
  0.4989982100165339  0.7508113677256441  0.2500107019342462
  0.1662871033510052  0.9996624477831311  0.8345397659624786
  0.5803118241177739  0.6688775242617268  0.9168896769260194
  0.4973023929569726  0.4983758733992489  0.4977993134275977
  0.4152659300057049  0.6661254600151428  0.2509100371497910
  0.6630685835519756  0.5825418175793304  0.9138913047081241
  0.4989707323902526  0.4154431228670342  0.2538416657421657
  0.5811045148059656  0.7525896107683392  0.1673216858367718
  0.5727261193231824  0.5815538520247211  0.0017319157192724
  0.5832047480277615  0.4969006916346750  0.9158680905408958
  0.3320810561821405  0.7501081311840839  0.2501331566273548
  0.4159618476562178  0.2482583106879112  0.5008934695856924
  0.4149693764757101  0.4993565905507149  0.9162686895474155
  0.5803804762806707  0.4128618461982964  0.8326897806922419
  0.4967269164109649  0.4129421623058815  0.0849896707693640
  0.8338074101415111  0.5831731710673077  0.5796581386077684
  0.6652371935982943  0.6743608632363798  0.6650547489838815
  0.6633802089941966  0.4124076333103783  0.7481202723753260
  0.1656447566909124  0.8356487277784521  0.5017137081915303
  0.1670731177044624  0.8349187278546832  0.3336513613003670
  0.5832191235559668  0.8347071552121993  0.0862610408402919
  0.2500847548328872  0.9155540801624441  0.3341628445922163
  0.3322277114574762  0.0841767856694514  0.7487838736486422
  0.2487243342424638  0.8326866870712321  0.0837532473925728
  0.5719733455958155  0.5839850026536519  0.6651405269277316
  0.4187828296407832  0.5819040842979589  0.0005749369130523
  0.3335624456046076  0.9190470429714213  0.7490392296992083
  0.4989505455152514  0.0001819279336883  0.4975863234656778
  0.5000001920061277  0.1642867222264975  0.6669903899765208
  0.4979686173210192  0.1661473612774501  0.8338762883110641
  0.0852906314406254  0.8353666691239923  0.7500229207979163
  0.1666499597932998  0.9175012276975697  0.5818197252592185
  0.3316777125800934  0.0833706270759619  0.9173525559250441
  0.1671908564285373  0.9183489742912421  0.9161158139024514
  0.1663583371518603  0.6664751405525664  0.5025119155421155
  0.2510927040150102  0.7516883747390899  0.6656157453820823
  0.0839733073668555  0.0003885913075502  0.2514536161287777
  0.0873368952703885  0.4165057936285487  0.1678495480815489
  0.2507386058755039  0.7528315417009035  0.0004993273026855
  0.2516519240325026  0.5823789243528875  0.8320144643599755
  0.4982418350322704  0.7534020734761114  0.7489915958731328
  0.0870013189697598  0.6678664138338579  0.7492451985740988
  0.2524357343234843  0.4992019762817095  0.5811803966237846
  0.1656462478920040  0.0823501646201922  0.2507146057034622
  0.3325771407144158  0.5823377258136633  0.7496382090213105
  0.3340496168730007  0.5833069005616905  0.5824329899197441
  0.4156664372834202  0.8355071452162679  0.0828897618725210
  0.4149962562940946  0.1657799002111324  0.0840119171602025
  0.2482603951291182  0.2501687639776426  0.3321813914823339
  0.4165958750188998  0.6679848635392251  0.9165891357307658
  0.4987411006428539  0.6696622503521263  0.9990096606842077
  0.3335546653052087  0.4997351827538888  0.4997128755448987
  0.3323671486639445  0.3322280681585840  0.6678860109770278
  0.1682305065599935  0.5831554325205084  0.7489856466162912
  0.4152288951517302  0.3306450936821042  0.7485634570742821
  0.4147963216676835  0.0842281905106410  0.3311963876077678
  0.4139338682431457  0.5001914765760294  0.5807500695481156
  0.3327519759763494  0.4163671383353701  0.2523248488896263
  0.4973871110856485  0.6676609086710432  0.8343010556401709
  0.2492064362260356  0.3304074204413774  0.9160345894580012
  0.5791657039142967  0.3320157936160382  0.0851246265461375
  0.3339431639646328  0.5842426260429341  0.0819365204976394
  0.5800088677481058  0.5839536523854436  0.1660972427484507
  0.4143686609989266  0.5847504341054957  0.3335677601542492
  0.4156503941354291  0.4992016299446458  0.4174639313523554
  0.1676138149808176  0.4156570987193208  0.0843050904719561
  0.2512188825433266  0.4996838582102425  0.4172060908135428
  0.8262526267042011  0.4975382075836076  0.0037996290556985
  0.9975490588640413  0.0844075165970557  0.9162848958107014
  0.3330622186482849  0.4137004514801593  0.0838206212217965
  0.4973654209598514  0.9195320528315882  0.4164367509719130
  0.4157182249233858  0.2463602812267939  0.8326223216152888
  0.8340489103316554  0.1664780732652387  0.8334619591928828
  0.0967119498689828  0.4989996842534451  0.9165158213740101
  0.5813115689166115  0.9189074432502478  0.6651239553393498
  0.9168350285900946  0.5827732493859702  0.4982106464770481
  0.0823532983049277  0.0827943920219844  0.0003901066469176
  0.8340411353513341  0.2465089075632192  0.9157861918877898
  0.8329659184290757  0.1673303869450981  0.6650244723049310
  0.9171850713421931  0.0834902304226308  0.3327172632928637
  0.0026945655619204  0.3309472744816458  0.0038076504890445
  0.8338191349531496  0.9993487478657647  0.6655052599527906
  0.3324874516096124  0.9172771935383821  0.2504632657046598
  0.7489061339391848  0.0834340940545199  0.3332739477401423
  0.3326204507494918  0.6683553585573753  0.4990921301841167
  0.7493416144968039  0.9187017755973976  0.0018396376965549
  0.0852558279484589  0.8354645866468267  0.5805859584086654
  0.9131564991481286  0.5888524063239571  0.0024724699088645
  0.7541051302430229  0.5858756693843827  0.0035758871003152
  0.5800585446223127  0.2491208643950544  0.5009924989802627
  0.6642237446314965  0.2467978343438220  0.9174883121283112
  0.3337253842986145  0.3296830396821027  0.5002087566464244
  0.6630303956830620  0.5825053783850090  0.7533548334012877
  0.4142648781239425  0.3308197579749679  0.9157367570081310
  0.6637271709953836  0.5823053967440058  0.0951622622914645
  0.0860412971323168  0.6652471192281776  0.5796799965529392
  0.1694177809761724  0.5851104278106299  0.0857405706976978
  0.9982109264067742  0.9167679293291993  0.9177341926273237
  0.5828321605558477  0.0000498361331239  0.0846921256761106
  0.9990921321588649  0.0824877564269485  0.5825227761287280
  0.8330808628695716  0.0003644805172209  0.4986903156193511
  0.7474180745088727  0.5805242160710125  0.8304595028737234
  0.8339005997634757  0.9997780573731944  0.1677678498929514
  0.9187811204241785  0.6678085805285456  0.7526565379711410
  0.9166138704130907  0.5000242242486014  0.2487964593511097
  0.7463168655013749  0.6706121529901342  0.7435344328456491
  0.0012551474684006  0.6682588835229373  0.3348713145516365
  0.7483658034115314  0.8364525764717938  0.5805497924149845
  0.8320122081514731  0.6681143280386691  0.3349530960815102
  0.0021309338074191  0.6715848766577314  0.1682840356283812
  0.8326535094382640  0.7534314931849898  0.0858360766818220
  0.9150413778654169  0.0008185936304274  0.7484795578765848
  0.0001745602169225  0.2492561535762137  0.4157512213096970
  0.9148587105214856  0.9157890282025088  0.3334189966615335
  0.9163822203267316  0.9993241172889761  0.0839120254701484
  0.7480921602330382  0.9169187684743690  0.3343763935523293
  0.9172295890094848  0.4984207716641144  0.9171558355705993
  0.6646592320230298  0.7522290272539593  0.2502738251119068
  0.6659319089527675  0.1659503010836139  0.0020548169072323
  0.7494080700858351  0.2490806467186883  0.3323643674974545
  0.5824025319459530  0.2498057816240314  0.3330713558680837
  0.5812746621397296  0.2481540584739159  0.1661046595474710
  0.8318478250178102  0.5878962282527642  0.9164874847797942
  0.9154031262433114  0.6689256326969450  0.9177173322638816
  0.8296711345353762  0.5007778157805024  0.8240062325700658
  0.8326401970303895  0.4138402650334368  0.5798785010125227
  0.9159407435522150  0.5789168979541873  0.6618313446530301
  0.4970568378367245  0.9181451836331952  0.2513053014116264
  0.6643570245793957  0.4108887883315444  0.0851354061394579
  0.8336313048549798  0.4061042273031467  0.9173779412203236
  0.7500290276761357  0.2479148583109443  0.6659009155165612
  0.6644446424824613  0.3307233964829114  0.0017065118330886
  0.6658307719966746  0.9985653584424472  0.8335753520565319
  0.8336628840510932  0.9988265526519100  0.8324390792793173
  0.6640573770235340  0.4105442968799382  0.9159202696569750
  0.5807022476349588  0.8362387519512596  0.5817322187261726
  0.9157724547548729  0.6655328073461859  0.5733146125648266
  0.4158430687997519  0.8365144782748980  0.9163451240630801
  0.2469579914583101  0.9999296513092560  0.9153681348895225
  0.5806717181429726  0.9199760077423148  0.8326470819007206
  0.6652635817950376  0.0004586105180892  0.0008630198883413
  0.6670336502327805  0.9181411359593082  0.4162189625273674
  0.6661310892019700  0.0843190989835234  0.2500444461318862
  0.8332475143172747  0.1662923730949186  0.1680976155322298
  0.6665712155482914  0.0840895728790587  0.4154606686579194
  0.6660399869796354  0.0838642293424076  0.5827000464176552
  0.7479147976321759  0.3310803899141048  0.2530667951481772
  0.6650660906487162  0.9992170798721749  0.1680165870085362
  0.7496192001260751  0.9177868769271984  0.6644163935672120
  0.8327230162980319  0.1670820001282306  0.4981416083373999
  0.6655448286905273  0.1668037471906071  0.8338890954115599
  0.9177256206392188  0.8357485494066723  0.9184693872238688
  0.9160083806681609  0.1668148338764635  0.2504001153038596
  0.7472231816935109  0.8347625238834964  0.7486771256579974
  0.6618037830767310  0.6735218757829541  0.9992563989809443
  0.7478289801945811  0.6699277428673550  0.9231325436963737
  0.7486093007370138  0.7604013986022767  0.8316604576694904
  0.6637819162434463  0.5831323345717948  0.5736756648049871
  0.6635613509503551  0.7546883701793258  0.7481088973274903
  0.6652477276313633  0.7518709831947240  0.4157005698029632
  0.5827897165404714  0.5827859695031057  0.3337631500643462
  0.5820461437077979  0.3302652586081661  0.5811300010836304
  0.7475103744628854  0.4998196599103746  0.2503453127824152
  0.9160089647831589  0.1657244611382167  0.0850170327455330
  0.7374613668857023  0.4966749556952150  0.9148944678032688
  0.9988411486675360  0.2502028549874950  0.5821512515423800
  0.6659649173943811  0.4927048499915566  0.6653773451122039
  0.6653933470206649  0.4985544629989589  0.4987435998661094
  0.5803662593199381  0.4164123573897954  0.3324097616490944
  0.9146916692270399  0.4059846455638941  0.0021791032739049
  0.0845439901776127  0.9168769828548673  0.3337693445316122
  0.0001462701637551  0.5898735321973548  0.9146166339436976
  0.4970776255191620  0.5829437830572329  0.0845069863004257
  0.9166553328635576  0.8350972638671323  0.5785245899796986
  0.9173421827234981  0.1670459315112461  0.9165392018124833
  0.1631814046952161  0.1662327639123892  0.6670551880571111
  0.0846486585521484  0.4172261794527415  0.3342687401321632
  0.0827940672384787  0.2487508294617165  0.0019264221569580
  0.1644296964024122  0.3341301154701499  0.4983111971859120
  0.9158932867257288  0.8341637370235124  0.2523735979990952
  0.0828249468771401  0.7500537356064677  0.1665016283312858
  0.6637572324819423  0.8342095715689776  0.1696724016292938
  0.0855100206844383  0.4148546194467071  0.6643484838844299
  0.7495171399474398  0.0834738511728135  0.0011411439483326
  0.9995795309938755  0.1670370511661142  0.8317993069217835
  0.9170980135420227  0.8362577879082244  0.7496371004396282
  0.9163715814788607  0.1658336787507072  0.7497018953684947
  0.5816322500296107  0.7527252387343352  0.4987559117645324
  0.3317467438785804  0.2486515055925413  0.5829158214174552
  0.8299823624430328  0.4988918584597226  0.1699797364382956
  0.1641209497108377  0.1655881126314283  0.4982578166753829
  0.6635501092079226  0.4962493155978905  0.1682778902589444
  0.7476159022589431  0.4965948162364401  0.7462703523373182
  0.9147172157829495  0.4976705882398307  0.0996743536293194
  0.0827747643545119  0.2486786454617265  0.8329774753745892
  0.0834314016277497  0.2489617712387797  0.6656705084810199
  0.9172969558793672  0.3316951431036949  0.5808328787716251
  0.7497633672478516  0.4152242884915295  0.4982971035726536
  0.6642676484292137  0.5824215214318335  0.4163783772266610
  0.9161618628922688  0.4172062660574848  0.3332718937607402
  0.9177232969510926  0.3334338378753502  0.2515396622556310
  0.9160584152614014  0.4133243407727426  0.1698227348836371
  0.6647455881270035  0.4924504087914319  0.0029652922618499
  0.0833101941868741  0.7524323199364811  0.8323980908165743
  0.0855474146371994  0.5835618979490862  0.5004180368659827
  0.8327901079899463  0.6703236114199188  0.1692206362488375
  0.0001371296473205  0.0829966549590674  0.4151737949060585
  0.0834253083643675  0.1663891854830276  0.4164498606793973
  0.0818731989562555  0.0822421037185559  0.3340159911680262
  0.9175357256176935  0.5009033386538415  0.4152921352291985
  0.1652197212791118  0.9182326475860847  0.7491382638383204
  0.0883415399631397  0.5851715299406155  0.1678346824834707
  0.0047174738065385  0.3281743525763710  0.8337860809982425
  0.2483131089522712  0.1664004265374340  0.0841076538138422
  0.0859213271461350  0.5859628849625903  0.3334596302846214
  0.2496784915158994  0.2490793529676855  0.8341200499230922
  0.2502225862254412  0.4152976981059011  0.8339224103677533
  0.0846595640091547  0.9995524795618882  0.7507804112090269
  0.0856844520116229  0.4152997523422183  0.4989186392201567
  0.9997750046340881  0.9170805913670719  0.0849411091385184
  0.8328014154977499  0.5825429110663780  0.4142796359200981
  0.0837247955898102  0.1656901330651440  0.7491897705617613
  0.1659036170735098  0.3342724232739601  0.6660176668625538
  0.0049937694842936  0.4996999455129480  0.0035077688442918
  0.0842850163135632  0.7503825761738389  0.3345594491187221
  0.8327988509467558  0.4154993847303625  0.4143915494513827
  0.0852742745768299  0.2489512286192013  0.1682344028095029
  0.2482379940351738  0.0000267840731259  0.0832184722669674
  0.0833097495241337  0.9174485209670478  0.1668306661295864
  0.1673159987917971  0.6664115023830683  0.1653584190935853
  0.5805664723903052  0.6691575734553166  0.0852066511601231
  0.6590010706146171  0.6701765621273930  0.8328432455862419
  0.7474403689527299  0.3299069894763936  0.7484584907888797
  0.7490856377983214  0.4997834836032827  0.4153470384095764
  0.7480382915664288  0.8350097171151420  0.0856474481808604
  0.0018621643151586  0.5835669981451609  0.4159396179852236
  0.8317520051959686  0.3294065145717929  0.8334633089665326
  0.0845627429587910  0.3309286091985738  0.9186204075208714
  0.0857583098142809  0.5007656798303095  0.2509211976696947
  0.7500132498722378  0.7551643715507627  0.6635463560196529
  0.7479645291678947  0.7513771415605655  0.4980136010118745
  0.6649462396480532  0.4993562899643398  0.3332357764199880
  0.5802714063173198  0.7536769271275440  0.0008392806187449
  0.9165509767417215  0.5839191177862567  0.3325875629368039
  0.0012695403934169  0.4169689570187754  0.2511613298556821
  0.8324720105800664  0.6721509950213601  0.0028009851956150
  0.6648073321864816  0.2475556475993754  0.7491611162090875
  0.5802316194875807  0.4991246194785425  0.5804076288430680
  0.5802109243258311  0.7525272450702943  0.6644476005345488
  0.4971683312593645  0.4961343035427410  0.9996862405398060
  0.0044404186157960  0.4149532265134731  0.7494007504274357
  0.7482889483383154  0.6680610774295414  0.2508813691633948
  0.1654636337842823  0.0832619276133808  0.9173799253828486
  0.7500094545244964  0.0000516966104713  0.7494901897975087
  0.7474805885948491  0.6668736585444222  0.4153775013076620
  0.7506833837791906  0.0833154221054278  0.6659395714594377
  0.7487936554434594  0.6699761069500080  0.0863381558681473
  0.6648607763928319  0.6684843118941298  0.4977237331105882
  0.6657042647183602  0.9178924326995817  0.0847350884451524
  0.6646740912960881  0.7532645406236579  0.5811554908998510
  0.9172193537230376  0.4168876608729818  0.6605458266288710
  0.0001903402315462  0.5843582149293282  0.0934136702907288
  0.7466934438513811  0.4123276711310959  0.8311066446795288
  0.6653473447085082  0.7522385162215728  0.0848971672982284
  0.0868025523768805  0.4998030087172589  0.0858905792349848
  0.7481467295141770  0.6677561647397171  0.5797598973183452
  0.0010152745700534  0.5823659598063876  0.5805810084508066
  0.6648907111707554  0.4146297835156127  0.5804940902967756
  0.0012562143542998  0.7513265218702021  0.2522014113040369
  0.9170034636981295  0.6693157060257666  0.2518976474557937
  0.7490091563866685  0.0001602562061748  0.2510610421145106
  0.0838213727958070  0.6686081159382635  0.0826610684426610
  0.6656219374623114  0.0006655954921431  0.3334208003201751
  0.7495599813315614  0.0833166522943044  0.4991835795042445
  0.7492821426831273  0.0011041001685522  0.4158958558266164
  0.8326792174197961  0.0827006081541384  0.2504261670871744
  0.6658936651784146  0.0004950670083457  0.6657983723697224
  0.8335394527167144  0.3318726582371518  0.4973085336522540
  0.7494182021927089  0.0010384801543054  0.5822029510281378
  0.0860320590367404  0.4993082992490531  0.7477946697757251
  0.0002195335234474  0.7526526747697839  0.0845916865214648
  0.4982486199105213  0.7530330696462429  0.9165903128712252
  0.5803135445245405  0.4149391298020083  0.6646036480720007
  0.7491449167953227  0.4984146579321857  0.5805323362755700
  0.9995520894989756  0.9996731941760053  0.6661317776913537
  0.2498704807301335  0.0010291791740944  0.5823139996091620
  0.4155271376048003  0.9189036570051663  0.6653215429378789
  0.0005345601147013  0.8345390418460609  0.1677446499451172
  0.0024942217573722  0.5020151010841596  0.8266854289184046
  0.7476904931949623  0.3300175832387253  0.0849187784845371
  0.0851893363550441  0.4989861434302031  0.5816810958432566
  0.7489327189806891  0.2472690663244659  0.0004812399103469
  0.7484695735744349  0.4112902443438103  0.0021691506689565
  0.0832703596950917  0.3325962439744061  0.5817878552806502
  0.6659514688353263  0.1663323162123715  0.1676151197134581
  0.6644524421539026  0.4147331388194285  0.2513789153505308
  0.6639778404603951  0.5834043976987440  0.2491676028919023
  0.6647846960897823  0.3318796074830246  0.3335472567718512
  0.7484414665238831  0.3316190499603537  0.4156527032730099
  0.0843035398849298  0.4999807752026993  0.4160476444005685
  0.6658463098971106  0.0835743639396517  0.9167654355319770
  0.3329051986652299  0.3318433766144676  0.0002495220015722
  0.6653071777934343  0.0824348764402390  0.0854077465308418
  0.8328768337370305  0.7506041069415827  0.4154450746192755
  0.6644207575398474  0.6670634824373198  0.3331068083873509
  0.5808558280077708  0.8351926393981040  0.2524109157281624
  0.4979624574421177  0.8340520338252454  0.3338254964367965
  0.0847688974297450  0.7520862052328452  0.6657120067721007
  0.4980941656232349  0.8353915719075169  0.4985059630009734
  0.0017444188265814  0.6668076014612304  0.4985466463038693
  0.0856712201851284  0.6663907030035958  0.4177511773961757
  0.6654016612974133  0.9184454160851314  0.7487653043064809
  0.4978044300199084  0.8359946868136139  0.6654315340983594
  0.5817433372061993  0.9179594376029769  0.4987398351368964
  0.4980199400549621  0.8364779069651637  0.8329300371062792
  0.0009990558587014  0.8345797712018693  0.3335052165199626
  0.5811860575730541  0.9180075662648446  0.3341186370629547
  0.5811654325847598  0.8367130833700447  0.7484379745266732
  0.5816071234579517  0.9172831879203682  0.1678212795284617
  0.4978576522956168  0.9186616984134748  0.5814708005560014
  0.0014309699143474  0.7516287770516138  0.5810081907064063
  0.5811695390808082  0.8373143885500786  0.9161575059278853
  0.2508693683687506  0.7505104580570728  0.1659333656547839
  0.8287896195816890  0.4119441336245814  0.7473041953595149
  0.4157332133482080  0.6678886846272774  0.5825494678429070
  0.4155515173711147  0.6676564939612382  0.4157577761960118
  0.4150845465836237  0.7502894972011618  0.3334517397235962
  0.1659976900341438  0.0001728101162931  0.4996194818204088
  0.3330997515083492  0.6672273165347986  0.8331036540775386
  0.3327217588078789  0.7508416950565994  0.5827752582111817
  0.4155387117001739  0.7512881940101515  0.4998731289313395
  0.2514018833148313  0.5833488048723199  0.6663676232594435
  0.3332688368778394  0.6673536054436273  0.6673590941063546
  0.4156965432968928  0.6676506855812596  0.7502770605094402
  0.4166815630592074  0.5837395790515306  0.6661720549537783
  0.0928028886175876  0.5835944371177535  0.9998944829758741
  0.2487208195428464  0.0833988713153248  0.3327808761367702
  0.8331182609015028  0.7542737217330651  0.7482681361951371
  0.3333264543001599  0.7521607667981869  0.9166790876278363
  0.1690346860620364  0.4999306106341320  0.1674689386668903
  0.7497386930485473  0.5830991424769064  0.4976058866872303
  0.7493285721578505  0.1654730889946222  0.9169978134270567
  0.6629472134016984  0.8375460515234114  0.8330966407545359
  0.6649546183984217  0.2489642491326733  0.0841608158179814
  0.6637279080052232  0.3311826965322695  0.1685959152859779
  0.0026421550331699  0.5853820492749859  0.7482941556819699
  0.0866437669002689  0.5856192240281511  0.8315242067871953
  0.7494839421820820  0.1661437761091443  0.2507412960299868
  0.5822579564775697  0.1664227461357921  0.4158119606200641
  0.6656547580508543  0.1666225836121999  0.3333428060852237
  0.7497613872745353  0.1657083394331415  0.5820025288665704
  0.6647899747651999  0.2491372323788300  0.4158484518756639
  0.6663132125380338  0.1657516805887761  0.6655791834982081
  0.6657866795785828  0.2483240000713869  0.5818784693521178
  0.0022379947215386  0.5006845400944151  0.6640154383663095
  0.7500222900571110  0.2484096364283230  0.4989176452306072
  0.7485429936197260  0.2491476198921657  0.1679471152192147
  0.7500157649760907  0.1657812815596101  0.7496742724232853
  0.2507726719241161  0.4991068053868474  0.7490023765230472
  0.5831964003720236  0.0829450260799812  0.8335759644054969
  0.5822976210756584  0.1653835569553745  0.5825986870358327
  0.7478612225465440  0.3292576482638304  0.9168677290075733
  0.0001800244162899  0.1661453977793047  0.0018776139188629
  0.9172216810469142  0.3282591499003019  0.7483119483620246
  0.9174324547160295  0.5028818400802425  0.7483226062585463
  0.0822951084519975  0.1661271752415729  0.9172345450444361
  0.9156197344183385  0.6702623918382128  0.0867447828204454
  0.0007142058764547  0.2488336612084183  0.0862601773591121
  0.9156903069307160  0.7533596420284184  0.0009782625270863
  0.7487863902015489  0.7539320031784209  0.0015233045078250
  0.0819155853059199  0.0826135894993139  0.8335978597900378
  0.9153870616724957  0.5868528273269694  0.1708656067735887
  0.0014416715173184  0.4159614980790777  0.5812079811239719
  0.8325184863208391  0.7511194786809302  0.2511214975194283
  0.8328254762430953  0.8346648336001765  0.1681462785387097
  0.9162936340039439  0.7520124185387396  0.1688284676964527
  0.9174771268298642  0.7533460086682181  0.8321070467562174
  0.7489098737011110  0.1660834718430305  0.4158394363771539
  0.0018158061085141  0.5850416270377293  0.2500930555415504
  0.8310403105230856  0.6676039787217370  0.4964273210800046
  0.9162712568899070  0.9166114778651762  0.1677656057263628
  0.8336868095295284  0.0833241310432463  0.9165229553512169
  0.9162546086407366  0.9997924929838080  0.9171909629605098
  0.9157751202140740  0.0825813215262994  0.8321696078915116
  0.8335238795310458  0.2480169615419878  0.0858934781879871
  0.8310790863336514  0.4119298001968987  0.0872392908804775
  0.1666070705940971  0.2501955484888302  0.7501315414116678
  0.9182730282603093  0.3282176174464925  0.9167345161779137
  0.9175777748687857  0.3313899587030422  0.0868478687506748
  0.8330430122571090  0.3321276225907979  0.3329745065655043
  0.8323148443192581  0.3309490260525416  0.1701196365208745
  0.8320222925874574  0.4150439372633046  0.2518486409893252
  0.0012206430784099  0.4170510678113222  0.4149744621925814
  0.9170972753346199  0.3335023311305892  0.4151777299026443
  0.9993993835411671  0.0830012672149729  0.7492777175634115
  0.9164310062909735  0.4987192151379259  0.5792137281502853
  0.0826611105232445  0.1663569041902556  0.5818202432970991
  0.8329765468825311  0.5851670366513506  0.7463213687757543
  0.2488536777114703  0.7506358250080790  0.3341936258342574
  0.2506516536327590  0.6669005203581444  0.5833128362374782
  0.2500932217762078  0.5842769665725754  0.4994961230503424
  0.1707589735805202  0.4988606949282457  0.0022139562472519
  0.2516320360026368  0.4997043300234855  0.0849148854281502
  0.2492507418257181  0.2486485765384818  0.1674801363206274
  0.2506313135826824  0.4995699532807265  0.2507448774863730
  0.1681611082395358  0.4989006414897569  0.6657556663694423
  0.2498643100662345  0.8347756207056151  0.9161008694933581
  0.4986253905279245  0.9189978492930390  0.7487036255386579
  0.3319358726229194  0.2489519915450407  0.4171785455986936
  0.2493367831659641  0.0832729225653553  0.8328398202185996
  0.2482710838977867  0.1663228605115697  0.5831145617941481
  0.3329197371288023  0.2486941156530376  0.0836376667270135
  0.1665017241585267  0.7505781193238074  0.2496617479101589
  0.2488542200415147  0.3320040055050184  0.5824108762556248
  0.0002122297575067  0.8344534743711146  0.4989824501847130
  0.0001251792213020  0.1671228139354779  0.3321174624360911
  0.8320461377349597  0.4985962770646917  0.4979180661772032
  0.9166218071664495  0.8346177607661929  0.4149227871110057
  0.0825160766693245  0.0007991271635805  0.5820273737526238
  0.9161308829095383  0.0833148035741443  0.6656799649491807
  0.6658444856187870  0.9175080833115491  0.2504579722589492
  0.9164073578685951  0.2484697479810150  0.6645605334614605
  0.8318437788151991  0.4987509146192618  0.6635888574214401
  0.9165084955515095  0.8350027737197919  0.0848245163186030
  0.0847373488870903  0.3335810254198814  0.2505053530563853
  0.9157710436584843  0.9990942518562780  0.2513594178611406
  0.9158877495677888  0.0831499830308979  0.1674946535739679
  0.8322177254776366  0.9175935300285658  0.4161218272330726
  0.8325306038065553  0.9999740881372488  0.3337266946733273
  0.9158136332181925  0.0007310816593734  0.4158936904615956
  0.0831118213027542  0.0001773700063157  0.4153330108711884
  0.8330099640981937  0.0835375835286681  0.5820989123676017
  0.9154282793576490  0.0009731134589531  0.5817135340261607
  0.9160489432848221  0.0840409043812412  0.4993391721679979
  0.0014411422158298  0.5004784609559786  0.3324937385175096
  0.9990448174711600  0.0006976118580539  0.4989662434536791
  0.1653098144674174  0.0839663860275228  0.5824067543687488
  0.8330014226220236  0.7533333160219464  0.5803994008652240
  0.0837056170670457  0.1649401871029711  0.2508058446915765
  0.8334054237335619  0.9173188112300341  0.5819121161405464
  0.9160445269995880  0.9175668723122209  0.4990042380889735
  0.0821272342908270  0.9182477171302267  0.4996011170660549
  0.8332785771820285  0.9167702911424723  0.7490355438442435
  0.8330358997667143  0.0836952281691829  0.4156052978954733
  0.9992461711986111  0.9991012288681704  0.3330055879304083
  0.7496475585010374  0.9169973727499363  0.8324713762743219
  0.8329790105764012  0.9175890988494032  0.9163117996629438
  0.7487885568447971  0.8367371871040693  0.9177277784528181
  0.9171889449125591  0.9178416363491845  0.8325916337449992