 C Cr Ni 
 1.0000000000000000
    21.1200000000000010    0.0000000000000000    0.0000000000000000
     0.0000000000000000   21.1200000000000010    0.0000000000000000
     0.0000000000000000    0.0000000000000000   21.1200000000000010
 C   Cr  Ni 
   9 259 605
Direct
  0.8346313355207992  0.5863163604955217  0.0025708830861659
  0.2501159262916725  0.5017277464127525  0.6636265281868191
  0.8355473960846673  0.4942414913626999  0.9133741196171562
  0.0002560659075050  0.1659742395648666  0.7498994412611657
  0.6618972917146649  0.4962180061295251  0.7518211277108325
  0.5831071684905129  0.5821784870991739  0.0851336743416853
  0.6674728054524721  0.5883529196581373  0.6639469475375075
  0.8336279034655794  0.4999939459326401  0.4187397622723555
  0.9175916739461120  0.4985179552812327  0.1680046651054274
  0.7513879307566431  0.2512323438377758  0.1670933082171985
  0.4151767722351214  0.1659496337577787  0.4154450069858278
  0.4978527236085394  0.0849606830699059  0.2506505189325398
  0.4994551531980490  0.1678811336309921  0.9993343761898833
  0.5820123465122825  0.0822780109519645  0.6664174259410059
  0.5803140041524414  0.1666369188841504  0.9167389832882383
  0.5827395650139290  0.9994432494555545  0.7508259917229779
  0.5836008710844353  0.0024346317398999  0.5841170198745527
  0.3322506391459908  0.9170388458698638  0.4152188795701272
  0.4147183267177846  0.2504363321260338  0.1668294549612044
  0.3333944371196734  0.8335934672514348  0.6668190727123988
  0.2503970695830499  0.0808583942415845  0.6665357240930635
  0.4154553617228419  0.2491000007650915  0.3348488966528986
  0.4143987165324241  0.8333895596615083  0.5836564857000454
  0.9175538114492070  0.8335105413418671  0.7505338016263957
  0.2516421622927861  0.0823247403257860  0.0007478311393661
  0.2477578046160988  0.7505139511443136  0.8342805396127523
  0.5836985201736448  0.8347108355824607  0.4149678234412721
  0.3315930757151858  0.7497571445644701  0.4183896874871080
  0.2493840364753602  0.6675854806634940  0.2502699036931319
  0.4974859914289746  0.0849685678916487  0.0823959723391328
  0.6647591113242979  0.1639329372620278  0.4982274232805630
  0.4969999292866172  0.4995910747704000  0.6633569568258657
  0.4979167496900175  0.3334573309730743  0.1691134442042393
  0.6648198560511431  0.7546754346527808  0.5821646871372004
  0.4157019900529628  0.7531185010097188  0.6646159225649978
  0.4996456869478134  0.6708343504359791  0.4974577811430894
  0.4992365719947260  0.7507554894492464  0.4166548296223200
  0.7498073993862006  0.0005321795484268  0.9188467208626326
  0.4988315019561003  0.7501570245554782  0.2508059965776780
  0.3337832287920651  0.0831724773133001  0.5827026916185036
  0.4980031582531787  0.6673762184550202  0.9990115952846483
  0.5792730195218665  0.4995715739106361  0.5803846936385044
  0.4981946134721853  0.4989415575475694  0.4981801055372791
  0.4985214075313808  0.4987379055785767  0.3342100462769397
  0.4920849249802698  0.5846679386099797  0.0832336743038797
  0.4977231832409255  0.4143794632806463  0.2521719306869981
  0.5816242345238413  0.6732393337952498  0.0839947964392177
  0.5812870642815122  0.4911716948949526  0.0851676496363000
  0.4974360883809167  0.4129990529208797  0.9176097540262869
  0.3303253301431599  0.7474221630275104  0.2492707278500404
  0.4153861644844303  0.3296415824824726  0.4153493407151801
  0.5818799542252134  0.5838242706579692  0.9956195737189040
  0.4985946286777044  0.4138703332939008  0.7490609143964730
  0.5800726895749022  0.4139651978771532  0.9989525866758592
  0.6622431488392604  0.4972327218262954  0.6607815738087689
  0.6640213452343585  0.4076192398559576  0.7474708491332234
  0.0834443907468470  0.9993981727161688  0.9186758678384169
  0.0835306537105865  0.8335073323471388  0.7494555524057840
  0.1659694427680824  0.9152437801173432  0.5819689795103739
  0.1659633163419310  0.8354921269474781  0.5000925349742542
  0.1650240975599074  0.8343274076958347  0.3331525710284466
  0.4983263164626623  0.7497567345313384  0.0822774293316462
  0.2488187273353882  0.9155762218406851  0.3323504258959566
  0.3321898576042805  0.0818211767846886  0.7483708189265607
  0.3324014254923085  0.6668448505525829  0.1676053407720054
  0.4981326922502315  0.6713495969589764  0.6667788180885061
  0.4153384550630317  0.6679782225143056  0.0837359550009953
  0.3341666551344121  0.9162534389320283  0.7514226441918062
  0.4155417116137867  0.0845041736667786  0.0020837216187980
  0.3308126982076480  0.0827152055301394  0.9176015184928191
  0.4155851171706260  0.9996879477915825  0.5821249480219871
  0.2484799194688670  0.9190562522146173  0.0018751075452181
  0.9150160739921878  0.1683674486977240  0.9163054993313952
  0.2496248864770791  0.7505267671551183  0.6653674069105442
  0.7502936470123891  0.5847853309465378  0.8343058197059825
  0.6648804343405704  0.5834771422748145  0.4169472027821888
  0.2495980917782063  0.7509807738510353  0.0002870974700592
  0.2502452141777209  0.5842111890356433  0.8340216895650787
  0.2502477463596893  0.5916606532728703  0.6653888001482534
  0.0834280361633914  0.5858770477616010  0.6659842991036052
  0.2510597149217167  0.5012251515435635  0.5737108409514319
  0.2501558380141472  0.9163266145385975  0.1672781131561615
  0.4974339071328882  0.7522652240805237  0.9162621218445078
  0.3338939312226814  0.4160561420449906  0.7490639091980754
  0.3412501031821390  0.4997110820216632  0.6650712899391802
  0.4161498109594964  0.8334855986067314  0.0834959543127884
  0.4149972391521491  0.1660825838690005  0.0848372094299176
  0.2495579841372332  0.2489160579220975  0.3348378831118109
  0.4166924126262009  0.5840242724077410  0.8344989303272220
  0.3352315177149199  0.4999034064567024  0.4995417075538354
  0.4151150604516841  0.4998376751895943  0.0849089691015113
  0.3350697318952393  0.5846286562137819  0.0835008916391946
  0.4966448219817236  0.3319466868994993  0.0010374158044347
  0.4156748398712631  0.3316694501196213  0.9158049866461123
  0.3319709659822400  0.4165003330498936  0.2522516636507586
  0.3310775676715943  0.5845961366893125  0.2512410500673558
  0.2513665277563567  0.4118210516902690  0.6668195327829035
  0.4158125199823254  0.5002265530520597  0.4167755013150615
  0.4171231011490630  0.7516843916801924  0.8348630516036691
  0.4164906859885226  0.5013915421590733  0.5796903818471073
  0.4165441606445374  0.0819731487540179  0.3327612312255478
  0.4156564880062106  0.3302638761204423  0.7504167882922538
  0.2508160108008783  0.5001827914017497  0.7544493678206211
  0.0034545296044727  0.3307437048135777  0.9977371031844334
  0.5807615625198935  0.9177263650158302  0.1678300835410526
  0.0850946433128283  0.3329050031440542  0.9169475378429748
  0.0014907196809841  0.2559174038819188  0.7498443839797234
  0.2502754493979654  0.4170827386598058  0.9997142917927265
  0.4998443447343985  0.9165997297743136  0.4175413505861469
  0.0903027230502161  0.1656687733304182  0.7482390230279662
  0.6736088054256276  0.5827524498734624  0.0842023820291596
  0.1668875332369590  0.5839383369317013  0.0819322388153417
  0.0017222249850987  0.0018962312675193  0.9995228552139198
  0.0002848886993200  0.0823578782204536  0.9175360579483668
  0.8308189261281805  0.4964014505229251  0.0031425870209663
  0.1684054660353465  0.3314202043024231  0.1676928058253572
  0.1654292105155636  0.0828518152861462  0.2515692932925615
  0.0016045040698961  0.3320741122001431  0.1678391109938014
  0.2500748827734233  0.5003042720953338  0.4188533381515875
  0.9993951959900599  0.8344754935730304  0.3336791460846414
  0.0873510479307068  0.1664321101717773  0.9176536079727081
  0.0828380524151423  0.7505952369065706  0.0003384142553879
  0.1666568115418665  0.3316762516466767  0.4992400119381725
  0.2488789293846807  0.2500550765573568  0.1677489996528348
  0.9981452644465385  0.8334289423041936  0.1648444176169584
  0.0840942850458138  0.0794963695823663  0.6649284517521623
  0.1677492081068480  0.8354714709676120  0.1648392322697309
  0.0819412126506518  0.9162690976592309  0.3329247776739331
  0.0824500842233262  0.4155284233937525  0.6655115293075963
  0.0018173721470778  0.5006890346790239  0.8308901117565646
  0.0019778942736283  0.1661402511143643  0.8418640258388197
  0.5813727887853519  0.5823450812985684  0.1748884982241393
  0.9099811797217845  0.1664910812639261  0.7501208553378970
  0.8333516048712023  0.8332109966398503  0.6660657411945671
  0.2504576153326004  0.2488284637002770  0.6653202242636155
  0.1673931742152741  0.1648265199516042  0.4999771196559542
  0.1662722182055172  0.4163026971004668  0.2521422976973112
  0.8275253709020540  0.4977767903325862  0.1675837275007649
  0.7485187103758734  0.4148873111799453  0.6636421659671250
  0.8322780136818781  0.2517541196342256  0.9170225418569655
  0.7492600612166118  0.9178744140172200  0.3334520305352608
  0.9176796929449230  0.8340066392013697  0.0843386589283335
  0.9166162203542322  0.7515736899304454  0.8326491229645846
  0.8357431556345153  0.5906532542460147  0.4153198395804324
  0.8338724844174119  0.7523405708086359  0.7485514602705544
  0.9173996557323111  0.7514628450070314  0.3344899567776569
  0.8348732012982694  0.7503326445856868  0.4162104545231776
  0.8328503865692956  0.6692638073576047  0.3335573521114485
  0.0018985235420514  0.6671933960115820  0.1664440704908419
  0.8304902383895764  0.5846068279215741  0.0924909558751164
  0.9142485829984720  0.9992523162620798  0.7493176185501266
  0.0018116546424540  0.2477544357143092  0.4166494360853453
  0.9160395449569099  0.9156493905869501  0.3330322029850687
  0.8312705545702308  0.0018732596624800  0.1671115164127145
  0.0038874618332071  0.4991000910617071  0.9991828643222790
  0.6640223068904526  0.4149364012605495  0.0845724175536240
  0.8307088654206150  0.3330645929351811  0.8319027119657063
  0.7501562628595164  0.2484249689260345  0.6651691213735903
  0.6667953414715845  0.7530864949472028  0.0843666626069117
  0.6648267647892226  0.1667415251637605  0.0025646125984278
  0.7500380367851023  0.2491220015126938  0.3346402607499586
  0.5832069755048201  0.2493442023067113  0.3344962923674976
  0.5817358147595701  0.2496182889382783  0.1675903964399745
  0.8345578588784573  0.5848411929829178  0.9118399591194202
  0.9187927086348315  0.4994728735184613  0.7493142559804499
  0.8335366793388647  0.4974491530563264  0.8240947373111237
  0.5002764155033258  0.9178492832529394  0.2486161381822447
  0.9163998920808508  0.1669328710575590  0.0834015230749933
  0.6644873849534586  0.9991577069413360  0.8332101665809903
  0.7479215874472370  0.3318026815911584  0.0843282386035353
  0.9172648195654721  0.6692599011603241  0.7504883427968917
  0.8300639301019469  0.9998157069282262  0.8361693221943350
  0.7467991145649394  0.3321720817751708  0.9162731551854695
  0.6652534393346921  0.4142555334734148  0.2517371649192890
  0.6668555042454002  0.0813840835970191  0.5820697832924431
  0.6660109988805686  0.9995933614254229  0.4989000960628907
  0.7503767101291409  0.0850209017692395  0.1656243989714214
  0.6677798706575959  0.0846707533581111  0.2496283760377445
  0.6674372866705426  0.9180130298743224  0.2499499240839814
  0.6661615933418069  0.0842698738336342  0.0829968284299587
  0.5819558398828354  0.9206908048269216  0.8340303207650773
  0.2504473845829857  0.9988557545264906  0.9168053503038316
  0.4159929555397316  0.9181376803607183  0.8328585911399012
  0.9173442358048981  0.6683557573842940  0.5820258386513381
  0.5837168494933140  0.8336598600218693  0.5820651773111711
  0.6663773348931955  0.0839237772017161  0.4187337404675429
  0.7514871355219832  0.9154901614460894  0.6664499474783820
  0.9993443443246447  0.9153385930345167  0.5820802784539949
  0.5820818822166457  0.2468622263230209  0.6654588266964699
  0.7500188144403878  0.8328581918436823  0.7520273494683686
  0.8317118944839555  0.6755613180690860  0.0003355034835541
  0.7481387875442147  0.8334983984997011  0.9168298183904865
  0.7484174496759781  0.8335698673635333  0.0852378552660965
  0.6666962159419553  0.7549100057783417  0.9151546143042115
  0.7500454154295696  0.7518145590896663  0.8328929704055711
  0.6641107156792567  0.5850468631514630  0.5755230700483394
  0.6665143833791283  0.7531790243584938  0.7511801860271753
  0.6658878773579112  0.7531118795729019  0.4161102849489211
  0.7488841540254568  0.7522988496421896  0.1669248438760759
  0.5832001963193183  0.3291511686459373  0.5812680488226489
  0.6677912696240305  0.7519706995557143  0.2491593574195339
  0.9178663654271710  0.4997527041790094  0.5830693931908454
  0.7439601912022222  0.4989490740830577  0.9149294738325767
  0.3330297262097690  0.6698682969232072  0.4953659724442058
  0.5697262166363666  0.4986284225300771  0.7488580428884959
  0.6632796856642630  0.5860324252470126  0.7534048776468611
  0.6651024678969844  0.4143576793898297  0.4173341247428923
  0.0851924646145079  0.1677494045430294  0.0857542623787280
  0.7424937085090209  0.5827006851027337  0.9971375967345124
  0.9175469411869853  0.5886441539209600  0.1661265711426466
  0.9993384103517357  0.3313495921414525  0.6639404169433772
  0.9176578015714058  0.3317300801366546  0.5819939243628803
  0.8333561648541670  0.3332119944256052  0.4994287052566114
  0.0842571049538296  0.4164616567965250  0.3350069095567392
  0.9173163141745531  0.4081809366146285  0.1668586538143265
  0.8314102622369047  0.3294426559977558  0.1681930898580680
  0.7474632463609755  0.5840736054904052  0.1689100039272875
  0.9154402306737146  0.2506121021172263  0.6648772116651320
  0.8338824174369640  0.1664440960679952  0.4983659660445556
  0.0011835874605753  0.0820080066416191  0.4160222743441078
  0.9161589209970191  0.1660800019262647  0.2510350948401531
  0.0018819874529511  0.2499647423444954  0.9166365035102502
  0.8327988727424898  0.4042431569831649  0.9151579861950591
  0.8337233640593739  0.9984375415132249  0.6666057363534083
  0.8339641470809422  0.9990142592007044  0.4982147094814660
  0.8332077844161225  0.0833853832626023  0.2491715826148448
  0.8326414471911001  0.1680848702718862  0.8342693818497657
  0.8320276978406653  0.9994312056285027  0.9996750642692391
  0.1677100498348726  0.6678752686520498  0.8339500187837302
  0.8327333630073528  0.5014696063975277  0.3296582838050391
  0.5825690677398290  0.8350493360180067  0.7502620498420809
  0.4983000455412346  0.1652292323089367  0.4987889683172587
  0.8344608885004849  0.4996822143719824  0.5077589266282970
  0.4160316464009173  0.3289548480217368  0.5832248178303018
  0.4989732423240740  0.2487655529173818  0.9167076935152837
  0.1657526730217641  0.6672784888879063  0.6666264427068481
  0.8332645298058134  0.1660322788628610  0.6657415828091874
  0.1645200891036292  0.6681411699323221  0.4996462619044542
  0.4164075067146655  0.2485445866572170  0.6654715644533380
  0.5826279002377850  0.9178049819929789  0.0013006189625689
  0.3314851529991616  0.9162434246725055  0.2492397510216492
  0.0002718221182335  0.8337278387231986  0.8324785580450784
  0.0835760128376533  0.5858740798983254  0.5001303325558352
  0.0068588829154725  0.5000471344012486  0.1674784088735365
  0.0828600540903382  0.0001679626529551  0.4172119689271354
  0.0825673670127387  0.2478556249370946  0.3341610044872625
  0.0815395671675525  0.0815611574341557  0.3345002152875294
  0.1668500411799018  0.0813686134589598  0.9176940641073649
  0.0028475217221705  0.4156121907172817  0.4165094153410627
  0.2511152780050566  0.9993222382483328  0.7496980988509215
  0.1674160204679719  0.4161670862661961  0.0831782753295921
  0.0023002600626848  0.3329849413441474  0.8330508054267904
  0.2501376630444536  0.1662872679617901  0.0852318202316283
  0.0849378500334293  0.5850833876740423  0.3335133681081406
  0.2504591706926705  0.4166302590758927  0.8341721579519384
  0.1660086528195076  0.9165535864671589  0.0838067981150084
  0.0839597462939399  0.2483459665109113  0.1659669921016431
  0.8337202535991129  0.4094717897823186  0.4173224980000305
  0.0835430316335886  0.7537661831136355  0.3325664693432094
  0.1672776175864817  0.1653665519517062  0.8338487035767048
  0.9988391896941455  0.0015055131654564  0.1665690253168416
  0.0836831952484934  0.0000581330951754  0.7477895600601170
  0.1680406878930489  0.6665395771064802  0.1652776085359737
  0.0007729875778172  0.6692488036977985  0.8321258542591806
  0.0001312787749526  0.0761014050243924  0.7497184764368949
  0.9163902307753579  0.5876561946261164  0.3345113038071367
  0.1659673094242007  0.0007500514812732  0.0018952078104629
  0.0825351352468665  0.4161148835649870  0.4986913842133129
  0.7486919766400724  0.4991715309190106  0.2520710518293426
  0.6660009146151854  0.5833465902876980  0.2513817350999444
  0.7488630731532957  0.3310261318250603  0.7477595148352048
  0.7441686336902136  0.5000103859687383  0.4169648759688437
  0.6655399486978792  0.6688336245777720  0.1685266619646253
  0.6649994507833419  0.6693119260485533  0.8337973457926044
  0.0018698332954247  0.5852872070948005  0.4163593447282122
  0.9176411310670332  0.4150934700958689  0.3348483452958010
  0.0865976530093030  0.2501489626699683  0.8332825488867190
  0.7492788506253508  0.7520842258702538  0.6659177022793989
  0.6642383501119670  0.3308117308067228  0.8330521637806715
  0.7471485466381005  0.4142973539610800  0.8307761798520346
  0.5821957154960119  0.7525260408753998  0.9988686626176514
  0.6649251248318304  0.4988403669543812  0.3343746580358316
  0.0843841425392042  0.5003286983593976  0.2510383038249415
  0.7472704476814971  0.4959900171942404  0.0838140616258115
  0.6653553418595078  0.6698332787168076  0.4979183106702722
  0.0834843290713709  0.5834488408969998  0.9997291323129751
  0.6654761748201194  0.9173987435303681  0.0837481130277533
  0.7508126265623891  0.0817361534473079  0.6662483255585586
  0.0011421182613151  0.4154792072818085  0.7483905482578326
  0.9174577458312442  0.4154237864834521  0.6652290486416980
  0.6637766464048168  0.4135791405164268  0.9168515377823659
  0.5817234734485343  0.7526954893725779  0.6659887815297693
  0.6647017756554517  0.6750239840515553  0.6658518264179717
  0.0024902392805720  0.5843761939725192  0.0837550963906969
  0.7490813981450789  0.6682034893962191  0.2509297783443313
  0.6643903350553513  0.5847173998092847  0.9146957366724335
  0.2498808415530110  0.1651025114173100  0.9171090329176490
  0.7555414074840974  0.5853044127955358  0.6650340439083801
  0.7487245805946767  0.6680144372357836  0.4164737176509268
  0.0846400366571370  0.4996722389765944  0.0831287359159954
  0.7477727058151152  0.6699456060339696  0.0845313057345226
  0.7490172511300437  0.7512115209987154  0.4992047377135306
  0.7495654004161597  0.6691654783181780  0.7501412024349867
  0.7484536084198600  0.4995072694688932  0.5815452738521604
  0.9176599212514311  0.6681477401081459  0.2505162891107129
  0.7492976950509005  0.0007396826479333  0.2505129231849823
  0.0843920380248719  0.6671514233884861  0.0826869415788056
  0.6658627494676628  0.0004349137765904  0.3328746103758330
  0.7501175801408322  0.0825304483611629  0.4993424405361339
  0.7502973714456177  0.0006458643029876  0.4161199017968221
  0.7497185235958279  0.0831913737697215  0.3331612017108534
  0.6664479127042854  0.9991639413138563  0.6673097211873100
  0.7504863899077928  0.9998403236551713  0.5819614898281604
  0.0003930176738516  0.7503494055646679  0.0835360460721353
  0.0015582436952342  0.6688257521400435  0.9994923316619122
  0.7485966315283564  0.6694004220946873  0.5815275817814101
  0.6668561159798176  0.0825169986846398  0.7496005019505798
  0.6643513244669429  0.4990970264224324  0.4995727218167781
  0.7503650392591319  0.9995452292898892  0.7509004875852127
  0.0838710969999138  0.5003059939367183  0.7493565572091474
  0.6652972815791190  0.6699469703229289  0.9989248183030639
  0.5766248589672199  0.5858100264135334  0.6645965537176478
  0.9166281027595066  0.8337654156398961  0.2496376908826502
  0.0841838053980664  0.5003221684056829  0.9163772357792894
  0.6642949105569543  0.3318971366706394  0.0007672836765046
  0.0836213315562445  0.5006976972174568  0.5821944486970478
  0.7484758697176479  0.2499252324923650  0.0004743108970160
  0.7473751481248728  0.4139165059251764  0.0002446770703010
  0.0838344620009838  0.3327241415391315  0.5818661505246446
  0.6667627429562398  0.1654024027411687  0.1678087113911148
  0.7493054109216813  0.3318607052984524  0.2520551298528864
  0.7489417821204861  0.4136351551068487  0.1685110930554146
  0.6659043783809474  0.3318554072242670  0.3341698690787037
  0.7485034166671112  0.3318091820483380  0.4169778376831980
  0.0839670234562658  0.5009656443988512  0.4165415253930185
  0.6658609749146351  0.0837132357870035  0.9173923307416040
  0.2501680636575471  0.3333903169022470  0.9173508593123736
  0.0006233666036932  0.5843155754165352  0.5837651470881711
  0.7490526689841311  0.4155071532746425  0.5002780390316298
  0.0003307978350921  0.7513159685755841  0.2494284883812830
  0.7498326739064055  0.0845749242378602  0.0004824942334056
  0.0851635188113744  0.5844468240987214  0.1664375119699396
  0.9186295102190324  0.4981289801882460  0.0787200228025163
  0.5817589961759451  0.8356602176222495  0.9167704021462275
  0.5827225784512382  0.9176725890897403  0.3318794947911713
  0.5824326157651735  0.8344319989654270  0.2511272003814065
  0.6642337801491641  0.8353348933223824  0.1681491678989485
  0.0837425558144965  0.6679875468638681  0.5829832311794865
  0.9999910989268038  0.7506521562485278  0.5833011529427853
  0.0009216148613933  0.6675997526665411  0.5006954165365509
  0.4989564309934763  0.8345407569203356  0.3327474112368308
  0.6666699631354388  0.9166982967600865  0.7495113532562191
  0.4999150748075306  0.8343943012968892  0.4987816285769357
  0.5825422278844367  0.9172150515662421  0.4999080758608547
  0.0828888227981849  0.6685235451336391  0.4161774438210261
  0.0007879696830848  0.7517666455977617  0.4165189300451422
  0.4990205378013688  0.8346634576178001  0.6661429481083512
  0.5829340709641795  0.9174025260732759  0.6665242699751416
  0.4990553596672364  0.8355597349484009  0.8337177925168536
  0.0835650795989301  0.7508000047636303  0.1656618835384217
  0.4996070266387111  0.9169007003637321  0.5833550807116555
  0.0019924172519263  0.5854227860346570  0.2508646184653154
  0.4161757792322163  0.9164028518998906  0.6661161410936320
  0.3323607976810941  0.6682936176836392  0.8342984263920840
  0.3321742697525861  0.7497097208452388  0.5814904291833909
  0.4164133701361524  0.7520730838007312  0.4989390476130036
  0.3342688003461105  0.5869399700735694  0.5807299249558987
  0.3324159378255381  0.7508924565426132  0.7505956199756738
  0.4153380307240170  0.6694778251164589  0.7510201993076903
  0.4172119630079510  0.5863749637490487  0.6649238673329677
  0.2486184816983266  0.0819895874726327  0.3330568219869836
  0.3321820855323281  0.7512548061807431  0.9162610469075608
  0.4165142480689469  0.6696138063759781  0.5813678142820701
  0.7509718916355876  0.4990017012246408  0.7482423375206755
  0.9990544468170425  0.9980504982855112  0.6647291090628298
  0.7493383709683407  0.5850536509817582  0.4997380934943491
  0.2509748833473193  0.9993429151063379  0.5829563790985284
  0.6660521765298943  0.6687434427803450  0.3336553236871073
  0.8317713545001849  0.6691948808645045  0.1677832482193011
  0.7489185443721948  0.1670525374862808  0.9173908194978092
  0.6649026014131580  0.2475152091701054  0.9172644328543321
  0.5831142239967375  0.0824546273155875  0.8331106252623895
  0.0011710832738629  0.5002397065979564  0.6656973108261343
  0.6653227126648057  0.2494540668056063  0.0847041066227509
  0.7500674546020306  0.1681652867765628  0.0838889501337774
  0.0009382824577813  0.5843999392791411  0.7490251940853668
  0.1620640197236846  0.5010243794300292  0.6652252446947581
  0.7509075168100844  0.1670210914597222  0.2512403093870185
  0.6655754719937216  0.3319506495698507  0.1686670977893657
  0.6663130677285066  0.1657668679940418  0.3331806165450357
  0.0831594336489283  0.5845150033051598  0.8327702430333875
  0.6660189154128373  0.2477804159824814  0.4163613135476926
  0.5822901240685114  0.2474911129770814  0.4989909038979617
  0.6660717585672534  0.2470431755567153  0.5822589816113692
  0.7499434958755010  0.1651739910669130  0.5817385685907444
  0.7500544705154056  0.2476229036832019  0.4987676202218467
  0.6660820785266865  0.1652597047356051  0.6656195200167462
  0.6660384649753925  0.2483808702507820  0.7478588153570930
  0.7503539045801926  0.1661963834236083  0.7486550799502429
  0.7500438142420353  0.1652386766071198  0.4165051864728973
  0.0011489854214466  0.4169849613023567  0.5825018172525587
  0.6643064347107147  0.8371625163684134  0.8338193853958822
  0.8328588604002629  0.8348605552663600  0.1664657417666361
  0.8327938157036161  0.4143262891251911  0.7465763497603781
  0.9172080997236991  0.5845805970996059  0.6660418691300097
  0.0854751228754724  0.2485413080582415  0.0018059114155569
  0.0004002782164554  0.1671075183575549  0.9994751624253183
  0.0004700413995873  0.2495576693276218  0.0834248260515306
  0.9186766057362363  0.5844288448939032  0.8315853265082264
  0.7481937042522165  0.6689762297014175  0.9158311117765674
  0.8331529231784308  0.7520941624273308  0.0847335488122157
  0.9175975082093104  0.6683036405423772  0.0833216172640880
  0.9175882635981041  0.7513656479199852  0.0000822551571500
  0.8341563976893448  0.7513877954665645  0.2503872920268685
  0.0845144717786702  0.0804215533427411  0.8332573876651741
  0.9173603077941683  0.7502367584049643  0.1661749153262744
  0.7493053845100410  0.5845984247596312  0.3342603606332474
  0.8335364285823978  0.9174389633008817  0.5827906086264100
  0.9146612159574836  0.0816986818809976  0.8343006227741884
  0.8341230161989863  0.2496901542511638  0.0833722785931901
  0.8322674882930308  0.4134059225596627  0.0842766732283802
  0.0843225260724253  0.2502275125623786  0.6653639132408755
  0.9190130150369573  0.3319231851560175  0.9159062727605410
  0.9178301076741604  0.3325773828550704  0.0828486122492395
  0.8332076592236507  0.3311547981505182  0.3343677469840093
  0.9177500257374798  0.3320950104184996  0.2520742588627501
  0.8328233354160618  0.4139208919321496  0.2512638044376833
  0.9226808353394491  0.5007530650478152  0.4167316491339049
  0.9184317810135093  0.3319787938265075  0.4173407997634150
  0.9998037554114786  0.1658565022618669  0.6619803058342337
  0.8339533651506745  0.4146768146360296  0.5834815887771674
  0.0847792485644066  0.1653565607160135  0.5824835193983134
  0.8346112947676115  0.5850307402931317  0.7494212623324695
  0.9194358717816771  0.6692567269004639  0.4182489899966206
  0.9990938789970002  0.0841149101992432  0.0834481121447836
  0.0004328104484074  0.2491356472254670  0.2503347214201102
  0.1682920772128193  0.4997665460793237  0.9999350160047081
  0.2501564774635294  0.4999529548941991  0.0838104090543366
  0.1669937524325303  0.4995763436417671  0.1666206819413204
  0.2493881226366694  0.5003678373715403  0.2511456095114375
  0.1666271067920717  0.5849264266006201  0.7507643266652031
  0.2496002267769643  0.8338498074623022  0.9177591961929217
  0.4988495449109333  0.9171394352508258  0.7497803955666349
  0.3319499514022593  0.2485553695425197  0.4168323710228453
  0.2501545903690711  0.0821875719734155  0.8332981112251924
  0.2500336387478070  0.1655807084741259  0.5831465369510369
  0.3318710716461837  0.2498267305818266  0.0851230525306958
  0.1655857376671175  0.7510830823099724  0.2487718950913854
  0.2496484312874214  0.3316012891467607  0.5825637437920723
  0.9998060895163491  0.8340947854979631  0.5003660316212357
  0.0004916227870286  0.1656989366179593  0.3336506280768045
  0.9174835436916237  0.5849776848437933  0.5010867525671743
  0.0000062691023579  0.9992820327663354  0.8343736013783744
  0.8330506682856476  0.6684957024005632  0.4997708410220669
  0.8339420106912990  0.7513213737905473  0.5833546264518245
  0.9997374279285623  0.6675112805245366  0.6659619292904794
  0.0007620275331003  0.2486978815654861  0.5821798353865094
  0.8342860316568544  0.5000057016544485  0.6652752930363598
  0.9166271399544516  0.9179778921072661  0.1656857284851910
  0.0839744797063897  0.3323359708803308  0.2510121105391718
  0.9163560915472850  0.0002184608543140  0.2494829435404875
  0.9157549881973794  0.0835864702963647  0.1659139797769830
  0.8331284884759681  0.9166631047065307  0.4160800297921002
  0.8334088687414862  0.9999101700976898  0.3327630702025559
  0.9167922988762208  0.9994986198471612  0.4161681977000435
  0.9169562803288881  0.0830340918533887  0.3332286429581882
  0.8327013760802919  0.0825902877444346  0.5820337669420517
  0.9155035254115760  0.9996287342294734  0.5823732595316017
  0.9158135860604695  0.0825532620344272  0.4997109088699970
  0.0027038731562949  0.5013088498500765  0.3343709097324101
  0.9995650840447513  0.9996414852828356  0.4997434041198073
  0.9163756365379576  0.8342517457835479  0.4168619436583577
  0.8327576643428451  0.8332429484389817  0.4993228415304835
  0.8334515823092069  0.8335451042427424  0.3333529797579102
  0.1670357260532954  0.9988860717917227  0.5002763881859130
  0.9161573015367757  0.9170752501526978  0.4999589156598303
  0.0827928071886122  0.9164608166654313  0.5000700823747740
  0.8332010679343396  0.9161749119221611  0.7516233138516697
  0.8338311061448455  0.0825777952825359  0.4170264631022147
  0.9991952545466747  0.9987752106030581  0.3321058029501550
  0.8337618687292848  0.8350323865061584  0.8340428673996818
  0.8332628935599953  0.9162520552230978  0.9175213180581310
  0.9177515623243597  0.8334006614152635  0.9166446960996353
  0.9167496196665812  0.9176989183769717  0.8340059082347114
  0.0826453827896060  0.0834224204270770  0.1668567583364641
  0.0827789323707325  0.9991012040766536  0.2497042576121990
  0.9993909298361339  0.0830361625054941  0.2498475982593033