 C Cr Ni 
 1.0000000000000000
    21.1200000000000010    0.0000000000000000    0.0000000000000000
     0.0000000000000000   21.1200000000000010    0.0000000000000000
     0.0000000000000000    0.0000000000000000   21.1200000000000010
 C   Cr  Ni 
   9 259 605
Direct
  0.4156919618604322  0.5866629195347470  0.7503954068341027
  0.1647142850470995  0.1662695301778508  0.0843707196716091
  0.0007126222498175  0.1646070686047036  0.9157545327419936
  0.3329867164108701  0.0823609709677764  0.1693229988125907
  0.0828628259295447  0.0837664885982835  0.4179049749425672
  0.5846573048810129  0.7508918851715201  0.0858088896476112
  0.8323707318843037  0.7500445495201924  0.8330641688100275
  0.8311324666140567  0.2522329255179590  0.6657225076610795
  0.1663869592264160  0.4174365664047309  0.1685437557679805
  0.4197654015256551  0.9183442832975168  0.8337164721371388
  0.3352567973214681  0.8334934209323385  0.6662432613620897
  0.4996445990828168  0.1677083731024378  0.1688993618300991
  0.4157164052287487  0.9168027186993385  0.4993881540466938
  0.4989188777074219  0.0848904035127795  0.5812686277613284
  0.4996428599391470  0.0013962104147118  0.8325863154961638
  0.5814122959634853  0.0015867148685414  0.7492057628346547
  0.5826228561044661  0.1668964677938264  0.7498197261597608
  0.5834059943660963  0.2496344485320263  0.0018116422665848
  0.4983115392627557  0.2484920233101022  0.2513857858575280
  0.4998118673523498  0.0836484154210994  0.4159482489924469
  0.6664497970000847  0.3338012065515158  0.1676682390428439
  0.4996870476384428  0.1668318072254700  0.3342859905942817
  0.4153623939745218  0.8329247028871354  0.5818435936262900
  0.8343908928951642  0.1652448627587554  0.4982824582743264
  0.2481726482021084  0.9967679574604345  0.0824051879609767
  0.2471012852074081  0.7520392828674853  0.8351119303384332
  0.9155067907113683  0.1662510103674711  0.2514761424820747
  0.3319604016668116  0.7493504689199840  0.4172534358931733
  0.3318594335230667  0.6679705309357847  0.3318801344025907
  0.5826717404792425  0.0831132769614003  0.9999753317015019
  0.4991189679561826  0.2494162418257932  0.4164456535891012
  0.5021560314877734  0.4164731976099600  0.7493700291105608
  0.4976443728048530  0.3339436238205736  0.1676471709578410
  0.5830672045245576  0.7509076632604930  0.6649373384900990
  0.4152826720572028  0.7533456479335766  0.6627258044385584
  0.5011616245732456  0.6677399626103485  0.4989913062937558
  0.5009941470230977  0.6687494168845234  0.3319876806613317
  0.9208146577651742  0.2501300407327754  0.6674909503805967
  0.4996749088795294  0.7490749861985094  0.2520719252685047
  0.4146799719860304  0.0006937751016706  0.5819070777198578
  0.4994320313265621  0.6651737464791379  0.9982263902136194
  0.5001715726606567  0.4173175171562348  0.4164558448079942
  0.5012423877329387  0.5852592071845867  0.9174442911161420
  0.5004290878085276  0.4981254366800772  0.8350806884183077
  0.5815838116397494  0.4164356672806836  0.0015072860088080
  0.5824979211919402  0.5837232589619070  0.6636806886079831
  0.4996552792094970  0.4985539538994573  0.6633954327365932
  0.4989873602706784  0.4987842640400098  0.4981533242874069
  0.4990413627152439  0.4986880157030206  0.3347684707839188
  0.5834106187511948  0.5807435247567693  0.1672251928250095
  0.4976597372311390  0.4176070770824895  0.2515242902863193
  0.5845030651830530  0.5834551388259783  0.9980129778895038
  0.5837458040566704  0.4992077166405558  0.0846349930542335
  0.5835788857519953  0.3333624970034693  0.9188464013494201
  0.3317231009816579  0.7493731300085120  0.2518604616547457
  0.6642517364715798  0.4162527392382478  0.7501195527144777
  0.3329402384669615  0.9981589353114217  0.0005074735931714
  0.1661031626313122  0.9150560401259238  0.9172015156091585
  0.1664402089728827  0.8353087418758810  0.8336426801369772
  0.1674248657149188  0.9149905295358839  0.5833104961466936
  0.1659941767767255  0.8344016398348532  0.5014332563849194
  0.1648297692409754  0.8333374080509598  0.3345695940759594
  0.4952537398194537  0.7493258792288008  0.0839562782461996
  0.2470722682500318  0.9149504736439992  0.3340583820210744
  0.4165257926391314  0.0841495863481169  0.8327202789580719
  0.3320226341141268  0.6653882122086489  0.1663885583948450
  0.4162735110637846  0.5822161847786775  0.6602391120924512
  0.3321623237496503  0.6679189166743977  0.0008302058249316
  0.3344960310343547  0.0830151489125520  0.5826556847741450
  0.3314201036665284  0.9923141149454724  0.1670319049113275
  0.3360544792380331  0.9160916372607660  0.7507020643612016
  0.2506040655032317  0.9180989906691949  0.0004117118851479
  0.0842523017250442  0.3314877894241999  0.9159392222972426
  0.2489733624964077  0.7507984586791201  0.6659433969097731
  0.8357076050975177  0.3340167728755232  0.3336089049574766
  0.9162678031566872  0.3341018175357576  0.0826767468264283
  0.2505793731866328  0.7503787444825962  0.0004643578448323
  0.2495159741187768  0.5826843224580991  0.8347989623102756
  0.2505995203384837  0.5831737129985399  0.6659187679191413
  0.1661996105044645  0.4997273758135912  0.6682148375138361
  0.1657173868766009  0.4993351745156602  0.4986666781043472
  0.2490040134298276  0.9153035683715592  0.1665094009806407
  0.3326946386553121  0.4981156695039968  0.6652967250114409
  0.3324013907813012  0.7498299741422598  0.0828678378480669
  0.4190728758202589  0.1672705846938271  0.0841967854773796
  0.2496865034659778  0.2497362299101432  0.3341804903716686
  0.4171981745706457  0.5827014026413201  0.8406796524587317
  0.4994183289260312  0.7508269363649184  0.9163073907103640
  0.4182504695649116  0.4955739163386205  0.7486314354883290
  0.3339131035718067  0.4990038093398894  0.5012496154040961
  0.3311162062623213  0.5852250342134885  0.0847639362995295
  0.4155971528306203  0.3343670120105393  0.0840017427954986
  0.4165465939159592  0.3339718777375325  0.9178146752425110
  0.3312559651893663  0.4179116320065713  0.2509904902580827
  0.3324735698093200  0.4169912663435120  0.5820214028572893
  0.4154691536100359  0.5027988611769887  0.0847366674616862
  0.3333378021642331  0.4174005069241257  0.7497718270294130
  0.4165036565633675  0.5842415917602535  0.1675953308053481
  0.4159458183474485  0.5001756988706150  0.4167968453140762
  0.3253894883678207  0.5851865371364825  0.7496369687807339
  0.4163355344444084  0.4990032860165168  0.5811316645153424
  0.4182783314800575  0.1680355657151562  0.2537105482181095
  0.3338939841367727  0.4149591128081850  0.9187546863842465
  0.9159774582719737  0.4162063479956457  0.3348212035585497
  0.9136672365767652  0.5844058220691019  0.1640409761563126
  0.8335254651414042  0.3338052901511725  0.4986653899499081
  0.8317410499270941  0.3421713282262817  0.6662005519122356
  0.3330789649579362  0.3336627148386404  0.9993145528522149
  0.5004120027101178  0.8345022407134800  0.3339756882845799
  0.0004091075092067  0.3322980342494984  0.0014948012071105
  0.0822632280097616  0.9143354617525171  0.3338177440184594
  0.0022001483795726  0.5007152162119841  0.8324465434656135
  0.6682002392079799  0.4998177026327609  0.1664173836441908
  0.8317024557373069  0.8336835666006540  0.6630507301730819
  0.9999831770356135  0.2550217361147385  0.9153251161341377
  0.1681748401614972  0.1663081392577577  0.6674644492687293
  0.1654744789414301  0.4173741499171520  0.2586891575883827
  0.2496498745729876  0.1645496752858890  0.9134830055637011
  0.1653766388882840  0.3329403249635011  0.4989576144139511
  0.9977307199257784  0.8328696267682492  0.1655210050815414
  0.6670947088498214  0.4996466914064308  0.3321373518704158
  0.1668717187071584  0.8336729688221561  0.1656482976520615
  0.5826844293357570  0.9172088680038400  0.1697325911382510
  0.0855836196036108  0.5000300798217451  0.7491976531277743
  0.7490429586207917  0.0004881641762455  0.9156896860601407
  0.9993391145090269  0.0754324082611544  0.9153769843289139
  0.9180199351516571  0.8342660747696551  0.7476609382983360
  0.9153747786075985  0.1652615514557799  0.7486844397726162
  0.5831380138148967  0.8348434676765819  0.4157056658215599
  0.2502829984040498  0.1670646584311333  0.5836795785085150
  0.8348594008007233  0.5016503554860141  0.1646039671470328
  0.0845008060171779  0.2501338422186485  0.5019594896777489
  0.8341844356232254  0.5835265401451809  0.0812092972141766
  0.0852919967138940  0.3340683236927862  0.7490891621437754
  0.9170832469817451  0.4156343955450946  0.9980976192452954
  0.9170606117367086  0.4178129368446346  0.6672798153897073
  0.6674061548030540  0.5830669981781358  0.9155464115394847
  0.8324510598484693  0.4153906234649711  0.9149819083575876
  0.1677711646065524  0.0006843149446945  0.6662527843852633
  0.3348020863324347  0.2500030300643141  0.7506179133576270
  0.8335596540373335  0.6668807426059137  0.1654807718496024
  0.8320938362277371  0.9157795704886955  0.5833752043264853
  0.8338312702485636  0.9155887357177855  0.4184678462846724
  0.9171559460505821  0.9150672312767302  0.3344067323714813
  0.9156285479448723  0.9157807887663679  0.1663863276043875
  0.8330803605367404  0.8330720326485418  0.1661307886515131
  0.8329165117501030  0.9167716139903894  0.0824040958803119
  0.9223922201907278  0.7515696686647302  0.8311076560122849
  0.9158047808999886  0.5849436468476145  0.3351618093191385
  0.8338197625923944  0.7507030904971191  0.7427719842006539
  0.9174955227906919  0.7494748305589218  0.3357834950804740
  0.8336565389353165  0.7500073739613597  0.4187711561848337
  0.8351183213073312  0.6679228189906341  0.3363851897248555
  0.9995619116970236  0.6656953997932830  0.1649645317865132
  0.9169881411717025  0.4993579712529424  0.9163663933103035
  0.6644735478239719  0.9192330217057259  0.7479630182368617
  0.6666471341039879  0.4155450207750654  0.0846653024693682
  0.8317568158490976  0.3332537013385397  0.8351281600691125
  0.7412768357744510  0.2503802381807562  0.6662297397143080
  0.6748770672318364  0.7521106912376578  0.0854783520896535
  0.6666886797140055  0.2496477509435453  0.0852526849774928
  0.7512404305023388  0.2513583534296884  0.3337922701497978
  0.6671954907171874  0.2512322209597910  0.2484075202409976
  0.6672317103327305  0.1661762675506827  0.1678993394842920
  0.8346041253384326  0.5820785264272436  0.9183357051165901
  0.9168202736637506  0.4998089252150317  0.7506964780902280
  0.8331289708860357  0.6628231109785130  0.6643984758629506
  0.5842873262700500  0.9166020256549099  0.3346305773566362
  0.8328067051743614  0.0816209083951355  0.0848273054952484
  0.7500186488284140  0.2491596534308050  0.0006792886935694
  0.9167396951747159  0.4999611413549019  0.5839932131244898
  0.8315561662994021  0.9990996782226929  0.8345292053633004
  0.2542700331681053  0.1684004466103373  0.0822428796046391
  0.5833692347626513  0.8331139212907986  0.5817999795890862
  0.9172287891959880  0.6657841744901934  0.5828817570028400
  0.6657334867175545  0.0841999337042132  0.5822666624312525
  0.4988715064981052  0.9174468589348463  0.9165520676413869
  0.5823903523492586  0.8337610396931499  0.9163109938435222
  0.6672624391029657  0.0007459864365686  0.1680404669595726
  0.6662480158927230  0.0003811560505347  0.0003760556261947
  0.6695368256201890  0.0831565964428084  0.2494538710537418
  0.7494478136360379  0.0824438147165308  0.1689516743141695
  0.4998854823339292  0.9178891991073354  0.7486593629039177
  0.6635034891758330  0.9996776749828221  0.6658237048534655
  0.6682315194044409  0.4165025198132434  0.2494955601311462
  0.6677796071151836  0.0827771710588392  0.4160721101096035
  0.7486108038102438  0.9186631054952593  0.6645980438363631
  0.9996676653988601  0.8320784249502419  0.3350897389991228
  0.6648600262909273  0.3325146369625048  0.6652266219956765
  0.6661271711875728  0.8368039098079079  0.6642362716876399
  0.0836243606838377  0.7502733785670710  0.9994779545921206
  0.7473534011978157  0.8344613331249503  0.9166075685904417
  0.7516682410701320  0.8357424560428951  0.0844223259210192
  0.6675971896414566  0.7523679026431001  0.9161266685946775
  0.7424853167827214  0.7514411086089602  0.8322350581576151
  0.7489627442649808  0.5808008127463833  0.6655480718138361
  0.6649349149765802  0.7514162898345568  0.7455675882257129
  0.6680641846085559  0.7494283061479945  0.4174477714244270
  0.7514645036614606  0.7500098937124858  0.1687061365964815
  0.6656803455687957  0.3329489938882820  0.4986623679270839
  0.6687990619963046  0.7498034765225874  0.2513103197192162
  0.8331571757940921  0.4995671703326948  0.6673283909251724
  0.7480341231584119  0.5815884202280616  0.8330297908295083
  0.2493095892131573  0.5008708421948933  0.4166167464360295
  0.6649611135092538  0.5008257551663410  0.8337082804818586
  0.7482094146148899  0.4992699609890777  0.7497232784988936
  0.7494935228752660  0.5002682968647696  0.4167603041270076
  0.1647872095256243  0.6665913381031828  0.5013642448999409
  0.8328507813323005  0.9987856205304928  0.4987476858000774
  0.8311088064059097  0.1653505886253294  0.8330862545132183
  0.1666521283023764  0.7519045795392024  0.9143497869905831
  0.5820580595358493  0.8353239658727465  0.7485381733598455
  0.8322182588090669  0.5823366238021556  0.5834557619685841
  0.9982421093441407  0.1671057539292806  0.0043836760788501
  0.8335986497521134  0.2507289390600616  0.9158531752582643
  0.8331005268683186  0.1625431036577443  0.6677666279277958
  0.9144962856553948  0.1670387141704684  0.4182415017058709
  0.9146962073068908  0.2512258263764022  0.0015706677830077
  0.8309018778803334  0.9982530667892887  0.6654376602138845
  0.4176200060269147  0.9162594574335268  0.1679421421208696
  0.8343189300449511  0.0828208187183449  0.2510855949098278
  0.3327911829874519  0.6686992927199398  0.4966303434376323
  0.9165385247808885  0.9974530358376729  0.0847250689963092
  0.9174187359620575  0.8331069625268972  0.5839387930135853
  0.8342902833306955  0.5011586189989018  0.3342914300365422
  0.7507888756708736  0.5830196078058276  0.9986099933077051
  0.4987634029827223  0.1668440116096797  0.4978687787541605
  0.6657358520151754  0.4149354956013282  0.9191461680047868
  0.3317082251827959  0.2501385617893142  0.5831662135437611
  0.7478584981770383  0.4168208514671782  0.6660996945839085
  0.4169075523536511  0.2505558455118007  0.8325410296478567
  0.7527717895549799  0.5843611370168592  0.1660710751609576
  0.1672939758656822  0.6667746598921136  0.6676598936555098
  0.1651398407111621  0.5837353099928602  0.0821731706763614
  0.0009369622218314  0.9997899726764136  0.0001634025770985
  0.0906089140013033  0.1659036423129136  0.9137054034260109
  0.5833714099508123  0.8409846295781923  0.0856437230212547
  0.9155382573573133  0.5819930347591045  0.9981006409753559
  0.2562646690664264  0.4164735405162057  0.1674884759387621
  0.1654748205886233  0.9979988052459157  0.1667824297758141
  0.0771120219761996  0.4167549639712722  0.1675056125148079
  0.0840436809097183  0.9165672184390875  0.8317346543143768
  0.0839436526070136  0.5836319734494466  0.5012898942189304
  0.0803875701641278  0.5856484703147798  0.1673056956091560
  0.0830789269620655  0.9929101388164183  0.4190762743407894
  0.9984515427588628  0.2507010849989929  0.4171592040089685
  0.0809950429638142  0.1678510510453244  0.2512270227313346
  0.1667460307532060  0.0830432652427467  0.7485009780663046
  0.1646290171859916  0.4165335584158201  0.0783845805160908
  0.0016065736750065  0.3339502091027294  0.8330292693911762
  0.1668880602322887  0.2557937595212481  0.0838168475663164
  0.0815079327097034  0.5878503305556572  0.3333003554012413
  0.2508940865884396  0.0835555089105557  0.8325545492744433
  0.0810177392857034  0.4164135425055088  0.3334155585587866
  0.1653422528222704  0.4165075627017507  0.7501485204469223
  0.1655493007431534  0.2482986853639760  0.2518894863247807
  0.0003317764901783  0.4171289573054672  0.4171481944798371
  0.0810647971482629  0.7502664358212167  0.3337578250482404
  0.1676722788587744  0.0803832342467958  0.9139803868815299
  0.0011483271864123  0.9997782578040079  0.6654458186139049
  0.0803458133022921  0.9974399554120896  0.0834639927073602
  0.0835981212618939  0.4165515705243648  0.4996885802961767
  0.9985151120705997  0.9992643227190310  0.1661152381697159
  0.0820973964211297  0.6678687206198513  0.2485717704945244
  0.0003447490527862  0.6658815670141669  0.8337058068804228
  0.9989337171213223  0.0828549444368379  0.5844639098919359
  0.9992433856944966  0.6672151970212450  0.3345301740314958
  0.2511011386007743  0.9994816093261093  0.9149752466393967
  0.6667888820403585  0.5826948951398606  0.4156010297807143
  0.7520695193638154  0.5005514869844528  0.2505950502220256
  0.7473190662297422  0.3341625299949204  0.7501216272223202
  0.6673674837354733  0.4170353525890407  0.4155430020251430
  0.6687889263127118  0.6652677931531329  0.1672522995815395
  0.6680882566217026  0.5821264402877357  0.2506091013794923
  0.6658816475593509  0.6665556110611831  0.8321144921126716
  0.0806434771420325  0.5020824520792796  0.2514737776199726
  0.9993413350759818  0.5013425380312569  0.3341567709878329
  0.7487409673470424  0.7502393407353520  0.6647813122456993
  0.6650729516213568  0.3329607566218263  0.8351022316032052
  0.0005968382932228  0.5834345348555073  0.4176635459691676
  0.5832625205573367  0.7499474426399222  0.9967584868579069
  0.7474465381341796  0.4166064366018729  0.8335868310630657
  0.0856310070009571  0.2502894906809767  0.8309419799895648
  0.7497555836696088  0.4990730814781000  0.0824111380216459
  0.4997657550379840  0.0846458640966162  0.7494241360437752
  0.4997199898357672  0.0835372570261178  0.2515832157333504
  0.7502173417157648  0.6665018685257857  0.0821608936421117
  0.0012132365223432  0.8341160589385969  0.8322717884069285
  0.0017090388263072  0.4171926886060662  0.7501348119689395
  0.6676874870168569  0.9178176718144859  0.0844298795529058
  0.0005376310035700  0.3343292140175193  0.6668054501548422
  0.4992222886894408  0.0840907637227433  0.9165977157338696
  0.7482236717393252  0.3326147831052031  0.9175707546311450
  0.5002547964478891  0.0005590805353489  0.9998028899643020
  0.6658021547992943  0.6661509867918091  0.6651493100031748
  0.4999728718847301  0.0827599993285367  0.0842884980828180
  0.7514851661476246  0.6662975620388681  0.2513549112449124
  0.5834303063470369  0.9999535836202113  0.0846725609632926
  0.1676986930882450  0.2495268075956976  0.9156880856251196
  0.1647315422045452  0.0817549396295793  0.2511997892828167
  0.7503329887511756  0.6667139712780530  0.4170880855382680
  0.2480328131032093  0.9966320839997482  0.2507610239191044
  0.4992466299744101  0.0012049181316500  0.6652004824449141
  0.6649816098920950  0.4995412666546086  0.6660411687389632
  0.0824727154668637  0.8332477978744232  0.9163781874331441
  0.4996417798984372  0.1668778714345960  0.0008922678339672
  0.4992166852772486  0.2502260431712367  0.0843739188012936
  0.5828271956988508  0.1662523519450904  0.0850621795310357
  0.1658190456991950  0.9995361346171258  0.9996752987377665
  0.0002159966199162  0.9176877866833829  0.9154004369893031
  0.0839702270575027  0.9167909209058490  0.6660267051176676
  0.5835265372152260  0.1668983205587966  0.2508282574810522
  0.0839793490351852  0.8338466723727512  0.7493870534411535
  0.9999384009347385  0.9169743655593313  0.7485128083292005
  0.9994636091631400  0.8334371454325317  0.6661443104030996
  0.7487412840626402  0.4992272125546369  0.5826893786647269
  0.5837325969586841  0.1670834514139728  0.4155695575680872
  0.6657834460109812  0.5822555762601407  0.5824721180217097
  0.5835446303962368  0.2504033946855637  0.3328627866708521
  0.6667446076594610  0.4999644140266050  0.4985055634544446
  0.0831903009578241  0.4166681670844681  0.6664581692407739
  0.6676095789299301  0.6670626515549909  0.9990477827041458
  0.2492542606655957  0.9977139598906073  0.4165381607933121
  0.3322496953415392  0.9151203871495023  0.4166767032431475
  0.4164148376339182  0.9155583423841962  0.3348074053311045
  0.3329131359065188  0.8332167650007886  0.4998048462360001
  0.3336289396847976  0.9166651472000935  0.5829709916149278
  0.1652988763205358  0.9970014807251270  0.3341849154407693
  0.4991244700886028  0.0012649190960163  0.4993289014948997
  0.2453909802451920  0.0830111322210301  0.1675881656536486
  0.3352539806975445  0.0007730826122490  0.8331106964934305
  0.4161687821876890  0.8328290065762095  0.4162266784806794
  0.4173683002538037  0.8330290787223262  0.7499014773478336
  0.3334296736182423  0.8333521346766253  0.9996615483928052
  0.4163170403901558  0.6671945695473798  0.2507543374207101
  0.3324146079933948  0.9153648845777963  0.2516367318263154
  0.5832696499460244  0.3324512627577219  0.7496841571988595
  0.5824129941701607  0.0843192322754918  0.4983390720662731
  0.3335013119667941  0.8338979788809540  0.8326787864574539
  0.5823389241868705  0.0007689146161320  0.9168362348378939
  0.7493730650918873  0.0822625664723020  0.0004907120065610
  0.5836358108778499  0.0008130055062362  0.2516768075834872
  0.1653270445238450  0.0786721582856329  0.0830219735394382
  0.5829172808972354  0.9175401332713446  0.4991726701824806
  0.5001026493120324  0.8340483139318919  0.8328066155954599
  0.9999997802428024  0.7500478143727980  0.4188453629354259
  0.5002015660362481  0.9167963576276815  0.2520204330351580
  0.5811154213495766  0.9176947141756777  0.6632618246586873
  0.6684976240751870  0.8359114175132416  0.1693820468630149
  0.4985076322259024  0.9170558235682040  0.5814899747504252
  0.0007679912019064  0.7490985859456339  0.5835435092014047
  0.0819890996679856  0.7499977911795010  0.1655636692355439
  0.4996273794305738  0.9172505551891612  0.4171655913516383
  0.5819332719650597  0.9173553965257183  0.8331935186371366
  0.5000477050233637  0.8338652092406235  0.4991271877228192
  0.5837625224607702  0.8340950687118908  0.2520874623347241
  0.0827122313694705  0.6673507087638935  0.4175224496880410
  0.0847238461747090  0.6663717668958296  0.5839249266634641
  0.4996798441516515  0.8338822322397748  0.6639881986356817
  0.6644955502177029  0.0001416453810552  0.8335001433133393
  0.0009247287637180  0.6656142906422738  0.5015285769824339
  0.5840559970992127  0.0839404267418763  0.3338769407511010
  0.3320371128138117  0.8325969657149564  0.3340993393578454
  0.0013081947841739  0.5003805965159234  0.5003504272060367
  0.7517796401129743  0.4169447343346932  0.3335658352960355
  0.6657191136959807  0.4160633931781544  0.5817210331905566
  0.5815052190939077  0.4988222959345727  0.7475995013080191
  0.7483664914497253  0.3336838092227825  0.5817326125701143
  0.6660252898943829  0.0828594142880781  0.0845939520973227
  0.0848025985246502  0.9989650655761031  0.9150989172567012
  0.4173038639973969  0.4173858256538011  0.0014323559873864
  0.4155646335652545  0.7491216616663484  0.1680081807322481
  0.4152961424458296  0.6685251057283484  0.9170920761680315
  0.5001813334592765  0.9993102982784804  0.3349004223925857
  0.4159135221303585  0.8324691823529283  0.2512790106900499
  0.2502854589320906  0.0819346642312040  0.9990530188363643
  0.1700666165819690  0.0822804890039230  0.4173498733228039
  0.5836503613499155  0.0012217589362144  0.4162536087001092
  0.3342942715606029  0.9142493285084374  0.0832046346092359
  0.7498290297111255  0.1661539516663815  0.9178370767348614
  0.8324294401496287  0.6671439667732042  0.9986499530928477
  0.6681225424650625  0.2508377645529589  0.4159539229049006
  0.6647319996853785  0.1654607044115171  0.6660473684355461
  0.6663843100854655  0.2498810866316032  0.5808750778531183
  0.0002562026209067  0.4998969173265523  0.6677090839982566
  0.7498568948598461  0.2502134129954235  0.4980846420962898
  0.7492624119527824  0.1656747338190676  0.0842651687938926
  0.7483589057616807  0.1657584255108354  0.7497078548255655
  0.0845459756077389  0.5836723237031947  0.6672371128053936
  0.6652228324690251  0.2493828342426494  0.7508935069190422
  0.7500728670661284  0.2499417626944890  0.1676121952253505
  0.6646070329037191  0.1670635882035142  0.8340311422536051
  0.0838214460443597  0.5830617508783493  0.8327216737277566
  0.6660669857549195  0.1662263268977476  0.0012515299277550
  0.6663481661498470  0.1654877326715403  0.4979354550482674
  0.0010880252987696  0.5833915444961129  0.7496769683960729
  0.7489882298047432  0.1657579886292409  0.5819259141601687
  0.6676607416200098  0.1671599714990916  0.3323691420727364
  0.7513893110976179  0.1674377310534088  0.2511200562221426
  0.9985653975503969  0.2503614810132588  0.0847088568694956
  0.0845301905787008  0.0818451711680117  0.8310319448741709
  0.9167919935203965  0.6680304474488251  0.0808048247919480
  0.0005300829653271  0.4172192264725039  0.5832143654888909
  0.8345999739775110  0.7495472317098776  0.2514535492890720
  0.7514776446101629  0.8333574289111725  0.2516337493518347
  0.9158053658690509  0.7505336130888314  0.1655972397267085
  0.9179612827691606  0.5822840946040186  0.6673000573053612
  0.7503291579683196  0.1664818134915885  0.4165865998634006
  0.0784784241526503  0.1663887377697159  0.0848856043620711
  0.6657017158679014  0.2491689750852886  0.9188060816423385
  0.9173656606881320  0.5829286136093249  0.8330718621635957
  0.6642273939777574  0.8358356401409026  0.8311080897755589
  0.8330618856425906  0.7504979400280163  0.0822936351903820
  0.8328397642045614  0.4994272558236484  0.8332643274526917
  0.9174770260463131  0.7512230224115216  0.9989504226647264
  0.0839443934904600  0.2499864617184364  0.0000414548182730
  0.5822986555814657  0.0024927486788914  0.5815468323864129
  0.3343749116195179  0.2501807107975467  0.9160271786909538
  0.1646676617118918  0.9146381861009615  0.2499120917568058
  0.2487326361093441  0.8330176770297166  0.2506039917425981
  0.1654905322181961  0.3319230443271727  0.3339793885745888
  0.1663489739268633  0.9152654810301044  0.4184087513758485
  0.2484091133338250  0.8326546829182432  0.4171527858371573
  0.1645942369066259  0.9148625823253638  0.0821214939138367
  0.4165692440501954  0.7501216427103516  0.0004056091744469
  0.5006774439905838  0.4158531510050026  0.5809398277700079
  0.2496078235313414  0.7502376726696283  0.1663120801546821
  0.2507487349251931  0.3338473943136641  0.0833664946993143
  0.2482667628038642  0.7501556979715209  0.3339955670473697
  0.2489313421423612  0.6670203133091049  0.5825987407152560
  0.2490368877841569  0.5838044255392792  0.4992284835510153
  0.1660070346541491  0.5006303722179259  0.0002276037771041
  0.2492415756974181  0.5009072027069129  0.0832914276812756
  0.1653039574049309  0.5061318398681538  0.1676163108053452
  0.2495299746000328  0.5012377529166676  0.2516564380343276
  0.1681725902497332  0.5837981168971741  0.7504081715452011
  0.8345558594679663  0.9152678970799173  0.2510138726109171
  0.0828612764756952  0.0822361232334376  0.9994781440268565
  0.9155387719689451  0.9994125346181509  0.7486627000874235
  0.9156380619558974  0.0817359331255640  0.6662837432781289
  0.9160216228737088  0.1660459634573935  0.5836412736631679
  0.9170538318304151  0.2498392978745459  0.5002703346248319
  0.8310651606367582  0.2508847285543602  0.7548267021819788
  0.8335233875682825  0.1671486616460647  0.3338308500023900
  0.5833814275245123  0.9172990783250786  0.9998285412746901
  0.5834147161351869  0.7502889772216363  0.4980972481666586
  0.4996970968194169  0.9179280782983315  0.0840056999519204
  0.4158588715036142  0.1670429081856432  0.4163574374351942
  0.4154740079296295  0.2512241384966551  0.3350306880924641
  0.2495898326490974  0.2503038956103328  0.5006309848674489
  0.4150594322083608  0.1670971698626075  0.5820882666058436
  0.3327568747788514  0.1669007350297772  0.5000529178930996
  0.3337065653204239  0.1671635236917567  0.6657245072984470
  0.4168711460080503  0.1677015030665142  0.7496470596592365
  0.4158455261129597  0.2505483133996946  0.6660106981617341
  0.0826336557580978  0.3329273443963270  0.4164747629544844
  0.9158432677063439  0.2499810532823383  0.3343701595570194
  0.8320921472828744  0.2508529350203487  0.5772089038737994
  0.9168711167175518  0.4172436279290586  0.4997383761085790
  0.9152860611663535  0.0818571302129462  0.0004222760748525
  0.7485731554119243  0.0823004740137353  0.8332494326169231
  0.9989890942696957  0.3333635773543785  0.3335642889468614
  0.7479833727280387  0.9175476750358067  0.8326237092370802
  0.7508986258396433  0.9177133321809016  0.1680216063867759
  0.6672137200960955  0.8329854600957622  0.3343323925103270
  0.6660625200609434  0.9166948875484420  0.4167781881371569
  0.7501336592304255  0.8327694544350528  0.4173173551839841
  0.7506134416019146  0.9162806324430056  0.3354513137629508
  0.6656728846732950  0.8331749832852662  0.4988546215863718
  0.6658935857120897  0.9184918262213985  0.5819210905705445
  0.0012462385338080  0.3332687641193962  0.5002224070504807
  0.7494396212444192  0.9174311879927357  0.5000197952800977
  0.7484166883167225  0.8327916370664996  0.5817274489939498
  0.7483391953436253  0.8344396100737497  0.7480786112616653
  0.7502321014798021  0.0003185239091977  0.0839541159352413
  0.4168634900773325  0.1668430169248352  0.9155777380258262
  0.9170398349314961  0.3348127277193647  0.5823697932581753
  0.9162140543407220  0.2510472574939605  0.8320223875629489
  0.0833978433774364  0.2499504818589914  0.6669873682054922
  0.9100026907169888  0.1674351508307972  0.9160777719610355
  0.0004164509472619  0.2513207727832710  0.7497564650670965
  0.8321809603498176  0.1658060009366443  0.0012189451459684
  0.9992219664634419  0.3331001870919357  0.1673325820193732
  0.9144481590641452  0.1658313235924829  0.0839979701538935
  0.0824092903919705  0.4158530694424430  0.9984506353895571
  0.8327110522101758  0.1657864863637931  0.1673808439125328
  0.8340590146335440  0.2504300159261139  0.2506994432067031