 C Cr Ni 
 1.0000000000000000
    21.1200000000000010    0.0000000000000000    0.0000000000000000
     0.0000000000000000   21.1200000000000010    0.0000000000000000
     0.0000000000000000    0.0000000000000000   21.1200000000000010
 C   Cr  Ni 
   9 259 605
Direct
  0.6639470574497564  0.4983626417656586  0.5774941910931910
  0.6540112211453739  0.5876660152051986  0.0033506396691341
  0.6627859499716335  0.5867230258441459  0.6705108509135468
  0.9242338284097217  0.4993576810423853  0.0030519884630595
  0.8355504850940012  0.4954255336079057  0.9082348652412476
  0.7439149011736210  0.4946186565136596  0.0028907988031603
  0.7458146774749546  0.5911189741689238  0.9098426108387730
  0.0086148589678494  0.4081780887562282  0.0010898657941398
  0.8366891802869484  0.5915656794768077  0.0040333865467545
  0.3305992022388549  0.1653501104204743  0.6662338204985858
  0.2493302332552077  0.8349739223128398  0.5825844890299129
  0.4143355765542106  0.9185620712298647  0.6658223386982036
  0.4144420619740081  0.9167432353848789  0.3339538133678510
  0.3325406115709792  0.0004181070152791  0.4985255104777619
  0.4145734822376565  0.2478312440323487  0.3326971224263504
  0.6651452703728690  0.0831856242499507  0.7500597714112632
  0.5804659615176490  0.3295438426190693  0.7481578545694868
  0.4977096308409260  0.1656500445098152  0.0023756451494750
  0.4156729877565871  0.1639076843161181  0.2516688419879321
  0.3318102763255829  0.1655910480652517  0.4971615431913955
  0.7488129704450937  0.1656041650008679  0.0839027236463036
  0.3311594240120340  0.0838634414779510  0.2508194859117790
  0.4136382870698898  0.8354194425379275  0.5832591899131395
  0.9998123514497232  0.7506273704652676  0.4166853414676563
  0.4980990893747845  0.9187122852856118  0.9162151408766731
  0.2506843067096023  0.7515154282135978  0.8304405904846645
  0.0845167566982928  0.7534012597681468  0.9986420289906880
  0.3303068597775066  0.7488173972822969  0.4193051730890720
  0.1642928182405588  0.6678794594519375  0.3326514916445255
  0.4148520109414904  0.0002421279374112  0.0842499014894824
  0.4992941714693284  0.3291541193320008  0.4995968477643165
  0.4119139635171630  0.4998062002673906  0.7496088889053347
  0.4164614574122775  0.3321668185129273  0.0843703652940113
  0.4958538316840607  0.6707650259422511  0.6678817776667086
  0.3310544234869316  0.7509819876685789  0.7502549664986981
  0.4981230391787795  0.6707402282896671  0.4978254551035161
  0.4988338812887312  0.7499271825341022  0.4197472422848876
  0.2487579344456915  0.5004428787041232  0.4173272627778379
  0.4989664751305864  0.7510715447350990  0.2505467845050391
  0.4972453357809474  0.1653243882305541  0.8336622263580797
  0.5781788512762716  0.6718677720812937  0.9134697723281463
  0.4970994589876407  0.2480822575937043  0.5810281406235268
  0.4131631705303472  0.4997620728652137  0.9159707987232574
  0.5784717361319872  0.4145327981814204  0.8317022108589035
  0.4959361179587510  0.4135257122625532  0.0850737450634629
  0.7536053907965130  0.5846228903110324  0.6685733697132983
  0.6651968855846577  0.6767706183842954  0.6680740307941351
  0.4984032756880649  0.4993915744497933  0.4979636611882032
  0.4152185875215357  0.6676311292274315  0.2514548166870852
  0.6552609303219262  0.5853677340727682  0.9103363163003938
  0.4967036470210782  0.4161273946388106  0.2529440808622946
  0.6639934440043463  0.6687938555493854  0.1676836517706222
  0.5659100756072964  0.5854963937987997  0.0009262451845386
  0.5755363372422799  0.5852185491793546  0.8315985852452351
  0.3315391945616269  0.7498650072794698  0.2509255411020963
  0.7497545110399887  0.4118949193117549  0.6648752112112785
  0.0848792473589203  0.8368163368220268  0.7498869359501925
  0.1654934669211880  0.9992532081927727  0.4995688014310596
  0.0827462104067450  0.9164387337761626  0.5012160291876838
  0.1661412614097764  0.8339339011029532  0.3334083176155558
  0.5800940019124500  0.8359328079252564  0.0845312515180265
  0.2496861537903677  0.9156366596089577  0.3332688504116132
  0.2483742688357724  0.0853656004411080  0.6653925114815616
  0.2511321930090449  0.8328221474294167  0.0833221825874650
  0.5718976745188791  0.4989977634922144  0.5807343617762627
  0.2498328937264454  0.5832655975750030  0.0002341113474017
  0.3315087333628520  0.9192119057427049  0.7473221340732858
  0.4988832420001428  0.9994668857659914  0.4977739486261877
  0.3317311095820640  0.0845139064265459  0.9177052579561068
  0.1655335141306257  0.0001601454957365  0.8340000344064344
  0.4980119943710368  0.1662343088380561  0.6647019214813445
  0.1658898083178708  0.9167809168263995  0.9162083940601499
  0.0834233171967065  0.6660264649369160  0.5824447303542033
  0.1662165381375050  0.6663407367728065  0.6671034302071547
  0.1675151055785184  0.4151901327401640  0.0872393033542842
  0.1650982809609222  0.0006224713964289  0.1667101285409598
  0.3313820035862510  0.7513240542233731  0.0826565571204882
  0.0029390896656864  0.5000153486471801  0.8321653403524025
  0.4963336188142769  0.7521456799944723  0.7478954149935603
  0.0008649949891544  0.6691264547024440  0.6651498776730236
  0.1675575977760330  0.4986841031811702  0.6672640264497571
  0.0833334689537940  0.0809610690977010  0.1666355229115790
  0.3327631345720652  0.5835567034485140  0.5805335773730763
  0.4128696861350607  0.8335377218105682  0.0825696950201206
  0.4153936239874630  0.1662804358035405  0.0845880974629609
  0.2494581171400425  0.2504373249829187  0.3326535632256560
  0.4968057018704933  0.6704260316512352  0.9981405889400173
  0.4144224646985565  0.6661407688148545  0.0831090684769723
  0.3323978451133263  0.5826904474466217  0.7491338685239601
  0.3338327868455595  0.5003101306464351  0.5001562964143416
  0.2503647603997073  0.3324525595497388  0.7500605338698116
  0.1661286196722338  0.5824104114601488  0.7484739100159845
  0.4986801292769914  0.3321100739187786  0.6670999180262199
  0.4150932218562354  0.0840875763276701  0.3321016979065852
  0.4154263340232562  0.4993307943080227  0.5809555400227870
  0.2501446811913220  0.4996733173701409  0.2521967970403831
  0.6615301730430690  0.5839922354413790  0.7604037711666182
  0.3322498084244975  0.3323040179459292  0.0006667967172861
  0.5802090684132644  0.3329844322421469  0.0845479233563832
  0.3321816102793253  0.5844194338395925  0.0829340976076275
  0.5806172700285235  0.5839458930036189  0.1690437070897244
  0.4142535942083605  0.5842679473649356  0.3344343357567692
  0.3310736876345821  0.4992068813290823  0.3326666300807183
  0.8340228834806983  0.4997781421013280  0.9999367673437141
  0.0860169858667799  0.4156427734750194  0.1684555269810574
  0.9992633370668250  0.0847530197210173  0.9180050501172252
  0.9995425408642316  0.9171629369230703  0.9181446514780688
  0.3324232554728859  0.4150040661217486  0.0840575763085274
  0.4973513297807393  0.9188157090584916  0.4170728593687507
  0.1639820538270847  0.6662789697841872  0.5026582165531660
  0.8329036079815213  0.9993419168863622  0.4989694359373799
  0.8327993434517960  0.1661105763733228  0.8339027487090844
  0.0857077548677992  0.5849643632073934  0.9989592924464615
  0.5811312890376508  0.9177361288807682  0.6646767859967793
  0.9168256967290119  0.5835252562813500  0.5007023600008083
  0.0817290388279243  0.0827499283143826  0.9994016855740770
  0.8336037758084074  0.2463758183901262  0.9149176792200440
  0.8330802513353203  0.1656709002230365  0.6649373543565577
  0.9151077194454643  0.0812644510044384  0.3334928942473614
  0.0030137121866169  0.3195279805755384  0.0018589226761856
  0.5818075305025376  0.0006231875645911  0.0834693559627717
  0.8341841077304514  0.0015691609009011  0.6664508465812614
  0.3316965481099487  0.9180805665858307  0.2514758055666573
  0.7485555698528167  0.0819151822847584  0.3332756937274784
  0.3320430608817627  0.6691422081675323  0.4991570119132063
  0.7478587077615654  0.7561038926573060  0.0006339817817867
  0.0846037867678808  0.8351634931368568  0.5810341549892727
  0.9255841869794326  0.5888772031859955  0.9995830530725650
  0.7455748838706732  0.5871043676414471  0.0003753747094924
  0.5816490594334166  0.2484068460755598  0.4989828719367215
  0.5812500308538748  0.0826232684258451  0.0007410343821716
  0.3318616696518200  0.3318022136509495  0.4987762368628394
  0.6617516238673073  0.4945869804073332  0.8304833632337518
  0.4954190006337937  0.3316785968739379  0.0012022393667444
  0.6632018637418904  0.5842155051785228  0.0944975300436036
  0.1675852410865233  0.5850955315331867  0.0841864602644911
  0.4161717056927304  0.2471515530098020  0.8333727173992154
  0.2487536435716522  0.3313903581717537  0.2515158800323500
  0.8334082279488524  0.3294324716854580  0.8313902319655864
  0.9163514135136066  0.4090850208588487  0.0009413513754960
  0.7485045253605217  0.5834060118633800  0.1707773964918898
  0.9173137552758116  0.0020086142147314  0.7491096518780487
  0.0005020846774249  0.2492520343976529  0.4143830913157576
  0.9148188911599469  0.9145269993104734  0.3332404008448440
  0.0006993456899760  0.9982331109914154  0.1665579153524757
  0.7488396956752085  0.8342452338392602  0.2509303934941740
  0.8321661432530434  0.9985837780341031  0.1667136236075645
  0.9190881946574669  0.6687583277550572  0.7470122082593719
  0.9184449310431931  0.5012490013190464  0.2508570378390003
  0.6614943579501033  0.4135821699305455  0.9117156858975070
  0.9998003935688426  0.6677328346153731  0.3339933421983908
  0.7492940770738190  0.8349003474727335  0.5823415581773945
  0.8330935660533455  0.6677729767522259  0.3344526394544703
  0.9192776445711776  0.4976546070474401  0.0924660429099373
  0.9256576526827320  0.4989793855771193  0.9113072610097266
  0.8348863713653627  0.4040978737441117  0.9133415835885004
  0.7503226756288482  0.2465429980068070  0.6656450569867097
  0.7491582133298584  0.8343962094290193  0.0824495174245033
  0.6625524500628265  0.2502657487050255  0.0855871723549702
  0.7502267885195557  0.2499864693774884  0.3334041407911044
  0.5821485204802582  0.2503600989055159  0.3332220367528013
  0.5826306747737209  0.2494373466062448  0.1675372668679128
  0.8368907431089466  0.5878836996697920  0.9115410644158524
  0.9183243496997239  0.7533149189099497  0.9995802249902401
  0.8339480036050241  0.4988800092258063  0.8192247135426581
  0.8327188123393846  0.4146064756057896  0.5841574791454360
  0.9146845009120621  0.1645333969270912  0.0846980156800254
  0.6642356765146222  0.0000347700471956  0.8327071667024502
  0.6630333889559850  0.4147409073377190  0.0859677374240682
  0.5811726164051817  0.3304644931580080  0.9160509700957671
  0.4982965027599943  0.9162455101921534  0.2508136752617063
  0.8341438829013164  0.0010555049281215  0.8319798634434721
  0.9160232211815889  0.1637030765718581  0.2510383045543321
  0.5806720511630626  0.8360771008018317  0.5826922399794736
  0.8342385762738146  0.4975881164078490  0.6660457343637876
  0.4978134893279627  0.9990631027448867  0.8330761685382797
  0.2503659401594628  0.0821374874757950  0.0006547339516545
  0.7488452433397480  0.9162668702063091  0.9996377483902226
  0.6668174040227602  0.0829240883957392  0.4152722434151823
  0.5825027341036205  0.0812183324198608  0.1660850923056796
  0.6667696900077292  0.0824853333585964  0.2511694787779215
  0.8314428825567224  0.1652440954541338  0.1677310999848823
  0.6669669166139592  0.9166747873284642  0.4173975463624495
  0.6654437058720185  0.0829008987305330  0.5822841268217395
  0.7487400506891744  0.3316239553466342  0.2542738082935894
  0.3326662240514209  0.9192462454680720  0.9160247965096605
  0.7490200862974907  0.9175212834755605  0.6655593373431844
  0.0004183069354812  0.2494436818639262  0.5822987989263538
  0.6646279328275163  0.1648198554539800  0.8330888931202871
  0.7493541337289802  0.8354721899328449  0.9161802118400910
  0.8327484436362230  0.1667670921168200  0.4981557683557788
  0.7486610516899138  0.8373169665129625  0.7483940123078527
  0.6594034285861556  0.6772460938665354  0.9987893382320246
  0.7451703754642126  0.6816707176669555  0.9166626304818332
  0.8368383397657846  0.5844969052870738  0.7470089484827968
  0.6635109761915102  0.5880511522095642  0.5805202789723627
  0.6636258971870439  0.7551649763970171  0.7489136511913276
  0.6663023050296776  0.7514206967371808  0.4168895954865330
  0.5812234099288326  0.5834088717285894  0.3344406222732852
  0.5786338565844038  0.4138382965248604  0.6665488945667356
  0.7473253507119559  0.5007321481040840  0.2513234602276736
  0.0020619605465765  0.6696117432976771  0.8313477525440304
  0.7448591247131002  0.4985944362072895  0.9111787405129755
  0.6562606317405401  0.4965690605051778  0.0003207127780951
  0.6629821056235540  0.4956214384246255  0.6679200228653059
  0.6664527316171149  0.4990542197682191  0.4883534962381684
  0.5827275781895662  0.3318115130370757  0.2521300451832963
  0.0831263397410039  0.2491598710051772  0.8315856016403850
  0.0001227240231903  0.0825701984833936  0.5812660771158098
  0.0847480766297300  0.9150716003558591  0.3341274154351978
  0.0029770013799208  0.5865289100088505  0.9148367740873993
  0.4146886878086473  0.5831688684394624  0.0005240838644111
  0.9162557652446937  0.8348901195700488  0.5800262354830293
  0.9163575378024634  0.1671972216926268  0.9171751971205082
  0.1667332049990966  0.1661651430593220  0.6664355513533898
  0.0818906423507411  0.4168262726194410  0.3343851181255137
  0.0843663629920502  0.2485586152189977  0.0011121900456537
  0.1650126106529040  0.3331884744508431  0.4989002398747290
  0.9165271894439850  0.8345383895152645  0.2515223615463258
  0.6652271900280797  0.5845571367689590  0.4159699313779784
  0.0837241810414722  0.7518887753785222  0.1670032219810109
  0.5807107846683165  0.8337342310933052  0.2522890106116014
  0.0821110905357025  0.3322270961509609  0.5821317875714540
  0.7493329300175855  0.0821797945385409  0.9998714547688290
  0.9998090058157461  0.0831703713605992  0.7489780632425547
  0.9170427896526847  0.8355515127116003  0.7489519537549475
  0.8329375918894054  0.0817926257345078  0.7504246615352173
  0.5816189322167250  0.7519227893349240  0.5006070934877328
  0.2489879272681241  0.2470168716491792  0.6641823715245246
  0.8350135331780991  0.4141777301544682  0.0874552252150336
  0.1647173958500736  0.1656653765438073  0.4977546815645887
  0.7462696727688173  0.4973522185593926  0.0926559900755395
  0.8359228097149813  0.6688928208802811  0.6669233389586228
  0.0019417087946740  0.4143442298312325  0.0924596731821317
  0.0835535412145429  0.2489967609519757  0.6642143064890668
  0.9180434553211569  0.3313161420776510  0.5828411185513823
  0.7511343558725907  0.5863613451368836  0.8212078231276050
  0.6657226274446902  0.4090358853300194  0.5820971115868609
  0.0005787681199294  0.4173958395979538  0.4146637346412111
  0.9161923441894270  0.3306721673751407  0.2514675102187642
  0.8320057155617132  0.3313002821045297  0.1694260621867289
  0.0836966741382301  0.8339629742239240  0.9165114622638222
  0.0831996111170984  0.5840024154430934  0.5007345796612317
  0.8327206077407810  0.6697073970542529  0.1688064927933279
  0.9994805996891117  0.0817669377375398  0.4149958878947943
  0.0822231819894900  0.2493508003385046  0.3349526524846363
  0.0813786257062603  0.0827875003002967  0.3348240541149909
  0.1651545539022070  0.9199302186064608  0.7489467353431372
  0.0863935455197427  0.5854651294293340  0.1676187117891985
  0.0035227666185453  0.3292865248401026  0.8302177440019827
  0.2511095864028954  0.2491198119947967  0.0009662099700579
  0.0843203613759065  0.5852502704735285  0.3337795455473251
  0.2503570790153444  0.2494756556133663  0.8338282667608407
  0.9168822800111210  0.5024819332894584  0.4168630907236201
  0.3330353197610271  0.4146978768381893  0.7491960021484189
  0.0832648202198155  0.0013698348593371  0.7495388263984534
  0.1660287729178215  0.4988637361531618  0.4993860580018060
  0.9997043762352925  0.9173030737916441  0.0851200656431337
  0.8345122906299126  0.5827141280476801  0.4164879257216200
  0.1652174419046548  0.1664770977767137  0.8338886200536868
  0.1670776979366028  0.4155303637443006  0.7482280557785267
  0.0121859592680693  0.4993864058738932  0.0016591711932195
  0.1644177024647445  0.8356086408485920  0.5010200150859139
  0.8348804719025579  0.4161594776702680  0.4158474377916986
  0.0829596471739202  0.2476613100443747  0.1682439121486068
  0.2482112500182999  0.0000038597241562  0.0831989186199845
  0.0823273577323642  0.9171478068350321  0.1658970217255039
  0.2509230971391680  0.7530603349215884  0.9990416482973145
  0.5775489538097524  0.6700691695524675  0.0849843918173037
  0.6631088552741480  0.6742749426739367  0.8311343361986945
  0.6637360455131316  0.4123509492387952  0.7483375557431193
  0.7523662710612599  0.5003078754778184  0.4156580096364214
  0.7483710987330904  0.7517867276693404  0.1679425795735300
  0.0005787799363523  0.5842644435812520  0.4165832019675683
  0.7473399873563368  0.3296451700896684  0.9148538255968394
  0.0853965832965806  0.3298534214706371  0.9158260623585849
  0.0846500447303000  0.5010202947749808  0.2509160832136545
  0.7508073925209778  0.7538335007372965  0.6656292106538656
  0.7492818869972983  0.7507675035601757  0.4996726979705177
  0.6653350397256544  0.5000686326143625  0.3351466105426581
  0.5778479030840615  0.7551165436423627  0.0003076310443590
  0.9167786549488433  0.5844997613019084  0.3331975147551210
  0.0012330263036578  0.4166403429833585  0.2506663591776809
  0.8331441197436859  0.7526475888773936  0.0847099896457093
  0.3323042597942353  0.0000145352088586  0.1670776826577797
  0.5842173222924929  0.0819039297453496  0.3331692847468565
  0.9173262287064002  0.4147995109000448  0.6658063192919135
  0.0829892986292211  0.9990837030148979  0.2505060372630162
  0.0021884200933748  0.4142947752460104  0.7489825848682118
  0.8342435809099474  0.4121902332115406  0.7471776862525018
  0.5798621592559812  0.7529534945196957  0.6651692204831663
  0.4989317257992911  0.1655843617074646  0.1673788714778172
  0.7486713519183361  0.6676377969529919  0.2511330488890749
  0.5814416502759457  0.0012436682343987  0.7494078075000886
  0.1659706677261554  0.0836614213420987  0.9180437775681606
  0.5824104545195516  0.9996684968754613  0.2504449752500110
  0.7496067423169295  0.6668975936968964  0.4166732577753750
  0.4990547891347372  0.9996402433330360  0.3330305496355349
  0.8330477600609837  0.5834748065516001  0.0915708298091440
  0.2495318334086498  0.0008886354978751  0.9166139627532602
  0.6649785120676541  0.9165370737137675  0.0835607457646923
  0.5826000966437910  0.9998690374382032  0.4161724699877111
  0.1664248586981440  0.8339002649637122  0.1662106530736787
  0.7501092942006874  0.6677548389697415  0.5829591801600159
  0.0825807212994884  0.9177168732947867  0.6652311276605436
  0.5828470846962943  0.1656726470642191  0.2506878267048172
  0.1666734923079680  0.8361595904239018  0.8324509468663474
  0.0005721652090059  0.9176332098723131  0.7487162895003342
  0.0001714970701537  0.8355551265642424  0.6655266880617732
  0.4997673278968990  0.1663162019307297  0.4989506081450641
  0.6657908636103687  0.2483514468958816  0.2509589316334308
  0.0815607336448264  0.9178273744572454  0.8335566652428266
  0.4980035105071816  0.2479400180604741  0.9170625422496974
  0.4153583312540162  0.0825910305506359  0.0009637677070372
  0.4978413858474739  0.0003529628906885  0.0009038086843462
  0.8346557187454967  0.3323885689253935  0.4989387398882573
  0.6651059309715065  0.1653524846088530  0.0011256270612557
  0.0844008010049899  0.4994369946479348  0.7485006033599488
  0.5803945507447552  0.9175781096019057  0.0004439426289958
  0.4960647063028830  0.7534586664049400  0.9156782371505136
  0.5816497709875026  0.3308210905462429  0.5829785710197188
  0.7531101094124021  0.5003975536691958  0.5820599202300515
  0.4148009898161955  0.0831212461633342  0.4986996853780109
  0.2492536627498662  0.0818921030194098  0.1662612756286445
  0.3315947543945186  0.0005733710649103  0.8333567046821664
  0.4144999321755337  0.8336920545843040  0.4170912150560367
  0.4134309321924168  0.8358952863598117  0.7488837753131210
  0.3325585283867240  0.8359981327780222  0.9984818060363857
  0.4972848610481643  0.5843398331469495  0.2519375052998621
  0.4147032542725936  0.9166047996569753  0.1678614610091159
  0.5807962441912387  0.2473425445767890  0.6649523945542485
  0.5827912473921047  0.0826395054484159  0.4991986441024770
  0.3315139065839754  0.8358335932882113  0.8318682438689545
  0.6651606643085332  0.9997250921024120  0.0004577268835617
  0.1671358365055303  0.7522924423497983  0.9157593954404670
  0.5807834158575187  0.2487193958671089  0.0009427980236740
  0.4990861983175447  0.2487561141613572  0.0849485331344253
  0.5826629187448754  0.1648362144219223  0.0844017272367731
  0.3324988068886173  0.0000117504007201  0.0003264776198138
  0.9994857382427753  0.0003792186678713  0.0005483918213272
  0.6660485692246670  0.0824672360853348  0.0836526233798896
  0.1656930451647324  0.0836792646918609  0.0831640760649527
  0.2501182517682397  0.6681337546687842  0.0825884808982193
  0.2505761826806494  0.7512573508367414  0.1669100960562020
  0.5811056719509914  0.9165337221805416  0.1672959699781534
  0.5783723299060956  0.8372292857532643  0.9150796056245777
  0.0005238379934650  0.7520822732369151  0.5825506177694824
  0.6643128845773767  0.8345385262674907  0.1669158948222038
  0.4979561274548056  0.8333999795034928  0.3347417253200854
  0.0835634111085304  0.7515609519277178  0.6658788678039252
  0.4978705775354411  0.8352382246348480  0.4994095729713708
  0.9999675834962987  0.6673991821916972  0.5001016313569149
  0.0835810883303118  0.6674997141907594  0.4174384822544727
  0.6650773315457632  0.9182033553787869  0.7484675253164930
  0.4964291310871616  0.8353687392463602  0.6655091991197277
  0.5820214201965183  0.9172804299029593  0.4993691042322108
  0.4962495023581517  0.8366724238841217  0.8313076354691480
  0.9999493778542893  0.8338192572336567  0.3335639799489244
  0.5813029198665125  0.9165229450245681  0.3346109184104331
  0.4973381664994472  0.9179727937377914  0.5821644609720165
  0.5799903401403402  0.8363091941827294  0.7477514828247603
  0.4140678274614688  0.9187370519635004  0.8319193603858378
  0.1653676492349883  0.9986258653245869  0.3330223632826764
  0.2501206891566105  0.9176405051947870  0.9999757210721492
  0.4135098085091038  0.4161382071475699  0.0001184737905473
  0.4145602413430959  0.7510956462204945  0.1675129972173788
  0.4130747370447919  0.5832455729647993  0.8321345418541590
  0.4151695376473612  0.8330124102382297  0.2519503185654345
  0.1657228261035035  0.0823723541444047  0.4160463297983752
  0.3320423997595898  0.8330630377469647  0.3336258906660902
  0.8328237252116583  0.1651383501673522  0.3332897585957127
  0.4143743686652441  0.9175950984859830  0.4994699251977546
  0.3312736175519381  0.9171024661908657  0.4165455556850587
  0.5817629670155272  0.0005534641659469  0.5824558477608441
  0.3313342912116852  0.8341706228513978  0.5001388119100516
  0.4137089521193057  0.8367243436150549  0.9145814354541074
  0.3316504036419742  0.9185011522303751  0.5827800437971329
  0.5814414437381517  0.1652558879763843  0.7493718010160985
  0.3330999141918473  0.8339648502922616  0.1679439749219200
  0.7484308636426737  0.1653679775217258  0.9169057836702706
  0.7489884861955538  0.1651708214441436  0.4157738878401354
  0.5823078168864028  0.1654361779317106  0.5819522436122216
  0.7485184287499178  0.2496462381008207  0.1680425732890414
  0.5813922449174699  0.0828803481021973  0.8333547716771567
  0.2507218075161362  0.4988927414524721  0.7485368918884748
  0.6635900893108659  0.2474936996050830  0.9163143641963719
  0.6656005984488829  0.3331748767915680  0.1697516403758953
  0.9193029708679064  0.5823958475403606  0.6650688914565681
  0.0843622850653875  0.5840137302067236  0.8313674041428935
  0.7492611076766452  0.1654696620620870  0.2510286844339842
  0.5826550114149264  0.1655852388439808  0.4157491256995575
  0.6659121757030648  0.1660259049797718  0.3331757982583435
  0.7492036507040651  0.1653999044151784  0.5817504945996589
  0.6657009892156300  0.2487197873952200  0.4152340034488304
  0.6657505966495108  0.1654855904477811  0.6651102515567466
  0.6655925104413064  0.2487068263960500  0.5818443029911533
  0.0011243457160306  0.4980730622872894  0.6648137231368945
  0.7491502383729890  0.1649063089791796  0.7496720488044553
  0.7506018179400884  0.2481274255277126  0.4988090627420891
  0.9160988351790458  0.7518549840280319  0.1685019695809485
  0.8323530848298438  0.8343086969276897  0.1678280866448063
  0.7483713118535709  0.4124193832410818  0.8297815365847410
  0.9185660142262830  0.7534756439150434  0.8305219130894126
  0.6646965578023285  0.8366371136783755  0.8316493874409704
  0.0001960275586476  0.1672088395086194  0.0017453732263593
  0.9173154986526119  0.3300835470366575  0.7485069757899079
  0.9207736133680916  0.4986603606483670  0.7479757878595154
  0.0833501938713577  0.1661688183427418  0.9173929756135292
  0.9183240056284860  0.6695300302287105  0.0844896252831941
  0.9997812752340440  0.2466188012931798  0.0876088053259613
  0.0034256395065746  0.6705288973565384  0.9999048915942784
  0.8338275711876779  0.8361929454675594  0.8318915769417842
  0.0822575594072482  0.0827958787592744  0.8340337275965011
  0.9168886978838253  0.5850514047867404  0.1698157091463960
  0.0001118734261851  0.4148104259221710  0.5824375886773659
  0.8319462807815663  0.7513377813844919  0.2507945982640816
  0.4949578158439296  0.4148294961809657  0.7498612821985079
  0.0004565346169873  0.3321340719768798  0.6654477334616635
  0.4139308531520492  0.7523483809198166  0.9997034165820533
  0.4967381646745415  0.4126784706850256  0.5814901366315151
  0.3320119827164114  0.6680852557621354  0.1668931947522656
  0.2498072428079450  0.3321609401877005  0.0848316378398042
  0.2486072278270348  0.7503507651792443  0.3346322541534870
  0.2482881318243834  0.6665621654498832  0.5833942694910155
  0.2480913782506220  0.5839109527118194  0.5002307569858080
  0.1676403018193536  0.5009283235528875  0.0013045981957166
  0.2493388138512900  0.5000777057636531  0.0847711860459220
  0.2501592177208012  0.2495378313761118  0.1685924457052067
  0.3316407955729722  0.4154423699471005  0.2515453620655233
  0.2498103595786098  0.5826156546881276  0.6660625290212006
  0.2498283343875452  0.8354579089313902  0.9151412125146621
  0.4974305988334422  0.9190071383361988  0.7480470613730102
  0.3314700675858611  0.2491287971947046  0.4162238767601598
  0.2489064096585592  0.0836861863401247  0.8339940673832330
  0.2487805520875857  0.1658935999775483  0.5809669703820322
  0.3327704878655560  0.2490491561465883  0.0843228934439378
  0.8328898490519901  0.2467558378603591  0.7489968543782610
  0.2488947209525938  0.0002695910898080  0.4162231762478020
  0.4961957631401123  0.7525420109695967  0.0842103795779202
  0.5818439453456987  0.8341353673722838  0.4172576321133078
  0.4975778356524200  0.9178296418063144  0.0839864352361077
  0.4998134138200392  0.1657979777984542  0.3327368993191816
  0.4156813172775827  0.2486225042617496  0.1675685157994844
  0.2487058432378502  0.2490186672420936  0.4989011059929931
  0.4143926657415006  0.1655269833422175  0.5815625330422255
  0.4155902818107827  0.1662311992643049  0.4152786908254770
  0.3315719563065094  0.0846338575962200  0.7494327963857126
  0.4151722509027947  0.1653938219107701  0.7496389031963764
  0.3323805122681722  0.3319833013047403  0.8338076588330118
  0.3322516586922582  0.1668386403400850  0.8338920253055722
  0.3324189492193251  0.2482595371611013  0.9175468545658015
  0.4983864329684792  0.0837203199991094  0.7494188180549305
  0.8334082353554729  0.3298727898409650  0.6648108203505220
  0.9176283804161819  0.2478200485406385  0.8306674148535492
  0.0829617186799804  0.0836504496520043  0.6651487926424471
  0.9165811892414466  0.0008214415110589  0.9170307943131604
  0.9184728817596390  0.8355974218623823  0.9170228132507815
  0.7488126569283359  0.9157166729699682  0.1668099659066359
  0.6648811651022520  0.8343152741558613  0.3344375606996849
  0.6654825200784442  0.9999532795670482  0.4991670873786132
  0.7484707821256728  0.8338802063609773  0.4172544586708056
  0.7483586306797040  0.9158640895283431  0.3337199389639928
  0.6654238266719348  0.8346527633523984  0.4998144989396287
  0.6654954266476441  0.9173188683006728  0.5829597177645347
  0.9996649713144012  0.3328648283755868  0.4987806390731194
  0.7494633638680510  0.9171920371110411  0.5004587873583269
  0.6635783602048821  0.3297220717438176  0.8315412120186494
  0.6649885955719257  0.8346750198408349  0.6650595284375483
  0.0827025182555991  0.3328015021897554  0.4162535797436267
  0.4967944696727076  0.8346510298378935  0.1675836115512578
  0.5808469693827993  0.9184286278597279  0.8318774621143554
  0.8321541190423801  0.9996386272552400  0.9998339059149287
  0.9159508923238021  0.9165947936030066  0.1672422706303198
  0.8328948057449953  0.0837021186594954  0.9162085597821762
  0.7487684364614980  0.0001951920508032  0.9159658698669265
  0.8319182326181880  0.1657285617923661  0.0010730368039561
  0.0004639580187922  0.3307118468054165  0.1701301149278379
  0.8322099512513186  0.0823313485522798  0.0839278630986243
  0.0944582358531693  0.4134532609926358  0.0010096517160242
  0.7490218930041054  0.0818112468572148  0.1671314031034354
  0.8327642849441806  0.2484125005166118  0.2511562704685494
  0.0854437875898765  0.3293450337469247  0.0868502774460012
  0.0011726334618563  0.2480551181094158  0.7478113612014002
  0.9152299707757808  0.2473836111582116  0.1687370777125237
  0.8330224640939470  0.2488247126440785  0.4156267144508137
  0.0037091760402194  0.5854738704367528  0.0858107706218796
  0.9162151244600759  0.2486863534808497  0.3336735674088368