 C Cr Ni 
 1.0000000000000000
    21.1200000000000010    0.0000000000000000    0.0000000000000000
     0.0000000000000000   21.1200000000000010    0.0000000000000000
     0.0000000000000000    0.0000000000000000   21.1200000000000010
 C   Cr  Ni 
   9 259 605
Direct
  0.6651467169709864  0.5006238895615192  0.7492913608158560
  0.5828699519949246  0.0831140892667355  0.7505766062315523
  0.9988022484919544  0.1661877099606954  0.9170806631991270
  0.5001598501227349  0.2500329293025547  0.3323534752041876
  0.1660446772037950  0.4152325737744835  0.6673140232277500
  0.5830782622978229  0.5829330528399199  0.0852290422066182
  0.7499568315135300  0.5834173475663633  0.9149258831311637
  0.1662894147482015  0.1632825096156269  0.4174476606033268
  0.0004960494750226  0.4994989550880606  0.2515983014774749
  0.5833194263393234  0.8328448756963507  0.5813576630001904
  0.9170803375002917  0.6664856156102231  0.5820715532124189
  0.6665654471013709  0.9989096829085530  0.9997804900899820
  0.4155705843148567  0.9986083459861792  0.9181558377300543
  0.5816511524175328  0.9173548687212524  0.8348406266833289
  0.6669115189862228  0.0821060170695585  0.4164194621179272
  0.6670222534981413  0.0004894336038989  0.1674815742884120
  0.6688877961120749  0.0818199295182296  0.2493153269559201
  0.7493396808953459  0.0818848551798044  0.1664777908612308
  0.6653054899349609  0.0830802867244478  0.5827781540879569
  0.6663733844938395  0.9989300321411645  0.6645559103467946
  0.6674012048090349  0.4150580939592383  0.2487186348064827
  0.4964310435959237  0.9163399247234096  0.7479510083462182
  0.7502258619694875  0.9183299582877524  0.6647264316063723
  0.8336203718959079  0.0832417328267841  0.2501590573552095
  0.5823744996175833  0.2488782246672503  0.6637487136292269
  0.6676774453007924  0.8361518526039423  0.6639007687886799
  0.8315711037277808  0.9981565704718715  0.9993464142928276
  0.7492710362542306  0.8307860477672213  0.9161455315109793
  0.7496032639946195  0.8333146020903920  0.0850282979716563
  0.6668932790095519  0.7526256658453264  0.9154187409705936
  0.7511081347937718  0.7504935089091764  0.8316455099869825
  0.7509620944490916  0.6672431813597791  0.5831528013550897
  0.6650692958471389  0.7537227644029147  0.7463659456416254
  0.6677122753805461  0.7509815030706990  0.4168264193828077
  0.7514133323958625  0.7518305333389287  0.1681697037717829
  0.6664097198314219  0.3332839781531926  0.4991195659129702
  0.6677189925031116  0.7519061855398498  0.2502508486668589
  0.8317097225710476  0.9983352570757968  0.6660039669355794
  0.8315214987857507  0.9981656886648999  0.8350960166302024
  0.8303856285607207  0.3340740394193097  0.8354196340864882
  0.7497451459711357  0.2501446364518837  0.0006138740263677
  0.8346320402595289  0.7500807621769150  0.4162375747374877
  0.8334666370895465  0.6681103629201099  0.3357343064471003
  0.0002660980371830  0.6668831304906587  0.1652722774221304
  0.8340303369957363  0.6669618378153581  0.1666312447498422
  0.8331589234153630  0.9163475111596875  0.5833880969189973
  0.8348923492020590  0.0832925534500006  0.4169880522296317
  0.9173852990777739  0.9158609228874159  0.3339926490436738
  0.9166159204669977  0.9163059238275549  0.1660862887849649
  0.8346126883317582  0.8345432677314841  0.1657804352663679
  0.8327084240985765  0.9148264944294876  0.0829365733716901
  0.9164129700880773  0.7526061895074270  0.8310352591058314
  0.8329447826198049  0.5827016234641965  0.4170858510504760
  0.8359635052690420  0.7523065599314060  0.7472929622442391
  0.9178996165809485  0.7506453174454688  0.3358649136483438
  0.0011264396637424  0.4989010780396504  0.0000556230294214
  0.6675760408607055  0.2509536704100641  0.0835445660009544
  0.7498482266133049  0.2501457295957083  0.3337763886282919
  0.5897079513962783  0.2491278297700420  0.3328839403504927
  0.6679119095945681  0.1645119783506680  0.1676783803267253
  0.8405804224770235  0.5829908462692858  0.9159011962723382
  0.9178475346129648  0.4991419660943477  0.7505313363984358
  0.8350430186050362  0.5013292455594857  0.6648552595701828
  0.9165289924018226  0.5002085854724342  0.5839919863383185
  0.8340310741311096  0.6654406685998153  0.6634979136958601
  0.5839636458543730  0.9169714187314731  0.3339216494168599
  0.9143247459578544  0.1668697813623837  0.0826344204197351
  0.6674450317168257  0.9173503844487951  0.7487817837616675
  0.7510696286261219  0.2497705489991627  0.6657109025828812
  0.6689500447617619  0.7520497993044625  0.0852464713719084
  0.6672018807663801  0.4164088590362635  0.0846506574199385
  0.7506932801201538  0.5851610548701863  0.8254160181656701
  0.0019924223091414  0.4103283187299315  0.2496946477854002
  0.5745889686214982  0.5018348829898575  0.7465560621396711
  0.8345157202091620  0.1667723840079134  0.6669171183552172
  0.9998212262364002  0.0818098282430387  0.4178689492056670
  0.0844978756692805  0.9167983965570791  0.8324805375402299
  0.9995470381836298  0.6662810555249046  0.5021051192964933
  0.0854606694959786  0.5866080036895863  0.1648049028623255
  0.0815406337731964  0.9993471110931189  0.4184582757868536
  0.0816303770236378  0.2483885155559430  0.3309283334897708
  0.0814440730844291  0.1667668946488309  0.2502614190329411
  0.0845875465180182  0.5879788601637009  0.3362009797504535
  0.1675853256214187  0.0813256682400337  0.9151930920626289
  0.0018818904496071  0.4150086396534081  0.4183588656231867
  0.2503653658141650  0.9987776778028344  0.7494928404686610
  0.1670472882501879  0.4170206242627795  0.0845259567818584
  0.0012489774236939  0.3333241842115073  0.8329415641828368
  0.1682371535441948  0.2487805810593167  0.0839151490971324
  0.1666458788683100  0.4181911543685726  0.7551399216825821
  0.2511343979291152  0.9982219118377613  0.9175667273142403
  0.0002493746764039  0.6690732425375130  0.3362748341379959
  0.9158606045861857  0.0832822744839765  0.6664116621640110
  0.0000593744473310  0.6676933205835174  0.8335033711607873
  0.1643724325735577  0.6658180783082347  0.1655559754001545
  0.0817454419246939  0.4158814520869680  0.4991059972745293
  0.9994391407640325  0.0000449688103486  0.1663913483181410
  0.0840338538689737  0.9993440566815970  0.7487764771400957
  0.1682366777145439  0.1647609580811207  0.8327542624542520
  0.0814195939370067  0.7527659884003812  0.3346802291975514
  0.8335244052863932  0.4164378401781885  0.4165378883624643
  0.0830851056256721  0.2478967968507128  0.1671441094668891
  0.0819840405119891  0.9987822856612346  0.0834253363993469
  0.8315814115117433  0.2535545039973437  0.9184581653879199
  0.0011249014292488  0.2570433586812662  0.9159854860443902
  0.9996227779318563  0.1675523332032856  0.0071409944287150
  0.8333351583673985  0.5833774444264124  0.5836375079139512
  0.7554854517038330  0.4979187569525635  0.7477595919512581
  0.7490162141589781  0.4986402572676992  0.4155450093287082
  0.8332714757654185  0.4159910584152194  0.2513475183263689
  0.2509877853607814  0.2481049216748937  0.6658355772668404
  0.1657819910458924  0.1656795446712652  0.5066244838597679
  0.0007168206330941  0.2502107632793155  0.7501774051638576
  0.0854067927230922  0.3331697765824191  0.9171838884354313
  0.0011099075243805  0.3337631488594268  0.0029540550601198
  0.6599586916588879  0.5848895674428731  0.9151644261809321
  0.6662568958942626  0.5832021915051567  0.4168654566071285
  0.5822946208099906  0.9173929103272243  0.1674655486176347
  0.7489777868603444  0.9985932314781785  0.9174089477680807
  0.9172331718685661  0.8332726835809999  0.7494251529307889
  0.9157599904990492  0.5867122986037838  0.1660883733570712
  0.5833434928655954  0.8345032173281540  0.4148576102663145
  0.9151209538650716  0.2493404851290638  0.6661434081780658
  0.8337507725317589  0.5010216435843809  0.1675614188488280
  0.8338472158272088  0.1651869472409404  0.4976163219454886
  0.7498259145569758  0.5841592302168414  0.0044177663865492
  0.9154648431016615  0.1657966064490461  0.2498409276276086
  0.9183122362123854  0.4163695659324337  0.0002598157979858
  0.8337423196455811  0.4149545093445303  0.9156588138051542
  0.9987986632668664  0.3299251361197617  0.6669513864016362
  0.8339909460536241  0.0002413104997328  0.4983320734916293
  0.8337845920363508  0.3332293669188985  0.6654728588044777
  0.8311010932348553  0.1667513434220434  0.8339227944626814
  0.8331443889077522  0.3330382451830149  0.4972619905883642
  0.1673237095832562  0.6684967470067459  0.8333993546914940
  0.5797613201737897  0.8376647781264784  0.7507183924423606
  0.9174183661977410  0.3351896031355709  0.0843022229990017
  0.8321567548788157  0.5001127323473541  0.3364429142161735
  0.9135703695760594  0.1665774140594779  0.7517270358408287
  0.1659029200486062  0.0805341476315751  0.2498970130345761
  0.5828311140301971  0.3331575415111180  0.9188198995018600
  0.3320071395517781  0.7501344620984720  0.2503863372926949
  0.4993603118966789  0.3330113228815689  0.4994119479908928
  0.4987872926795163  0.5851505082723322  0.9160322857481682
  0.4975275258842411  0.5002292072419980  0.8331427917401899
  0.5805888508049926  0.4160640126295115  0.9996581384874228
  0.6656354055731701  0.5000730722950814  0.6605922864242013
  0.5795324129793878  0.4999103601554739  0.5831737830213639
  0.4982847002656915  0.5001534650015330  0.4983984026723521
  0.4987399198628454  0.4995788771965254  0.3343575742854579
  0.4921248629817464  0.5837152876996720  0.0826481273373773
  0.4975324748474227  0.4171697551345581  0.2514206887756862
  0.5820954500674533  0.5845260491023757  0.9949655034642781
  0.5827745726915077  0.4920439393339562  0.0834262972958928
  0.6641693606822883  0.4101838273666027  0.7475972003567312
  0.5827186328481051  0.6736750204554569  0.0849253938968891
  0.2471528315216478  0.9155126606456010  0.3333142237490401
  0.4990505542754764  0.0844699156697843  0.9176467558219041
  0.3318539621706270  0.6662794868736750  0.1670792680396467
  0.4160276751155538  0.5847538040494938  0.6653462009661106
  0.3329927710761629  0.6692429271132854  0.0014515650265271
  0.3346449424594405  0.9163073020017541  0.7508005221548962
  0.4155943379073270  0.9996413591719904  0.5815617783445405
  0.3338073010604355  0.0826466802387077  0.5822152312270344
  0.3337046212074146  0.0817334529729853  0.0844667481405073
  0.3329226985787944  0.9991515900075616  0.0016687465465711
  0.1658475269089160  0.9155535963625843  0.5833027244255633
  0.1659478483470452  0.8359265994213673  0.5011162059095245
  0.1653845626348669  0.8347060438337079  0.3338508274003153
  0.4996778240132315  0.6695542274932266  0.9992523419918111
  0.1659325749711127  0.8345201292249880  0.8344935223861349
  0.4991070828154837  0.7510832106766046  0.2521966740288575
  0.9997456223796172  0.1669563401817411  0.8263241469155891
  0.6667443262901134  0.3334558861002622  0.1677082077211437
  0.4145839691110687  0.1651037421802279  0.4157437874938771
  0.5830934426986775  0.0819418737149178  0.8406490553112433
  0.5831212385332454  0.2509035334670362  0.0027817909474934
  0.5837772447556260  0.1735695095769804  0.7501000181460246
  0.4978677222542068  0.2488986720410745  0.2420912963792803
  0.4100567303096317  0.2490722241591286  0.3334652189823091
  0.5845382839265577  0.0014646711537164  0.5812497994788250
  0.4157632316571488  0.9166142664317051  0.4994890733837738
  0.5815164387912579  0.9920911588139286  0.7499381644799500
  0.3347501621980137  0.8335678856864047  0.6649292485772876
  0.4150274755000075  0.9988888043830775  0.7504628842381577
  0.4984563574872209  0.1639973396916169  0.1659847405480890
  0.4145667182231519  0.8317981497115980  0.5812716857173962
  0.1667282997726801  0.8343434670202720  0.1660001914104536
  0.2498575120297881  0.0008205479676622  0.0819989937895048
  0.2497297876227852  0.7496678710860886  0.8333564616158888
  0.0759720238327040  0.4157597582344679  0.6655884310050154
  0.3316660016816874  0.7501471394636442  0.4172554176847644
  0.2491663069388792  0.5846085812681812  0.3357262473086002
  0.4977871557909539  0.0830927820880322  0.0836796978205328
  0.4989022338346049  0.2494776814615498  0.4228383660048505
  0.4964817932868369  0.4993175564330925  0.6643120803454976
  0.4977184168720262  0.3347777943443647  0.1671365320633522
  0.5835428096719851  0.7526630391327367  0.6653487229349415
  0.4148983650004300  0.7535112167618924  0.6634263896831309
  0.5003563272778168  0.6686825743564018  0.4984557472345922
  0.5006619914098716  0.6689834635261247  0.3324090943534167
  0.1663006637459432  0.9159563146621781  0.9178331514237921
  0.2496510239888293  0.9175602769257956  0.0001882925443951
  0.9977441004213579  0.8348256007073744  0.1655761395321073
  0.2491358650677420  0.7509107970712841  0.6654827970213483
  0.3321940683812525  0.3332852811904831  0.0003860714445464
  0.4994434795648394  0.8346504492959897  0.3334180532113105
  0.2489391471671031  0.4172875656481423  0.1661111275751521
  0.4982843480451045  0.1654540558770577  0.4975012486268979
  0.3322106466871389  0.2494197130051216  0.5836587275057084
  0.4143972486812001  0.2502741054707029  0.8347372517457206
  0.1657886427735604  0.6660618696624627  0.6664710756017794
  0.1659678046431466  0.6677846137518867  0.5012334826801788
  0.4145119853338223  0.3309090747157472  0.7513953365963081
  0.5829410540604716  0.8336021556164099  0.0851305110901704
  0.4166521834803589  0.9163491225133871  0.1668822182857889
  0.3326409978611343  0.6693507690327234  0.4963842354216623
  0.9178142581769394  0.8343089097955065  0.5834854349324815
  0.7500924563614493  0.6758764564400225  0.9143938625301469
  0.2496861490590400  0.5004959465575709  0.4172521114820556
  0.7483392662358429  0.3331296726674630  0.9172325226928016
  0.0000200653378186  0.8336754869955776  0.3348774257260679
  0.7514672290356973  0.4146892997648178  0.6649080149055517
  0.0822596356330859  0.7510682391181736  0.9999321610366672
  0.6731102671007553  0.5834201853190413  0.0840170043723221
  0.2498338760570688  0.1651560267261775  0.0839296830834171
  0.1652268763224906  0.5850570304554159  0.0823180943806030
  0.1666457686258188  0.9994740876794467  0.6659977579743901
  0.0003716618898243  0.0003411817548498  0.0006366993477884
  0.0820485831607215  0.9153919554263348  0.3337967220421919
  0.9988964713363214  0.0760109624475458  0.9166785097632910
  0.0006147318430241  0.5009938680171392  0.8324928220329342
  0.9160778737920946  0.5823287523998574  0.9995754826283703
  0.5820773523554349  0.5827893577918538  0.1749212903829595
  0.8330165816733256  0.8343288186715122  0.6637503431046466
  0.9075603038695822  0.1675417227520880  0.9149855975783190
  0.0874366244961620  0.4157661763356096  0.1657850052710243
  0.1680999244492435  0.1650504887933345  0.6664615435334215
  0.1683656316161789  0.4164588994931102  0.2496782716651676
  0.1686091702974397  0.2487349002613913  0.9169530113253433
  0.1662761108144199  0.3322432319373522  0.4990813567869786
  0.2502280329587703  0.7500616822831156  0.0014522386032829
  0.2503714566768617  0.5841398053021607  0.8345053737966656
  0.2511598622429880  0.5837116311152074  0.6655293278943840
  0.0829068903495940  0.5852786812418374  0.6660792473752281
  0.2524336386915615  0.5016369637209301  0.5815041345211968
  0.2489396159965921  0.9161778469236692  0.1666984081478905
  0.4980588431040406  0.7514801725083945  0.9168489017429629
  0.4170398662657804  0.5000273673461114  0.7489278654652992
  0.3354290465916708  0.5011734038422730  0.6651400911454090
  0.3312812337020121  0.7510809556967863  0.0834853506575079
  0.4159737664543525  0.1658184088388195  0.0852035774776505
  0.2523054159987395  0.2499301811489808  0.3323834336427132
  0.4169909887245900  0.5853896257189365  0.8349360777485147
  0.3343081724923110  0.5002647793898184  0.5000096898234958
  0.4150160988633370  0.5008938285087076  0.0844713275804911
  0.3333957979741681  0.5862913630696399  0.0846658957847867
  0.4130410001016714  0.3331140831133939  0.0837363681214373
  0.4154153379165995  0.3322875457973031  0.9167382594095373
  0.3293014431766114  0.4177048640571240  0.2493885923498070
  0.4169717541425468  0.5846249944477370  0.1681343528264062
  0.2561940761220600  0.4176757592060115  0.6675368728534441
  0.4159783329852101  0.5003941712378382  0.4163981284902075
  0.3316164498332945  0.6685582945514992  0.8343379142612890
  0.4159498452850074  0.5004362161654439  0.5812813359751893
  0.4978723206560444  0.1590292361704212  0.3348927822809656
  0.3331508015746596  0.3312950997552792  0.8346262105434700
  0.2515665061040884  0.5026248999490437  0.7492302166696766
  0.1661334714419749  0.4158072391547955  0.4174856700513371
  0.1669235058542794  0.4998483782583431  0.4993253057552899
  0.3317764129981022  0.6686272069213994  0.3337379546933834
  0.2509405269455495  0.3331489846996366  0.7513108443879248
  0.1665698282467629  0.5837314788352088  0.5822644896588132
  0.2484841676917542  0.5852482527750468  0.1667463102203622
  0.1675771339318221  0.9161483546612047  0.7490956277756410
  0.1662387634777788  0.7504234343342899  0.5830452301218826
  0.2496416990285568  0.4171660781648114  0.0007110393714362
  0.2481396400778809  0.7505038982160724  0.4998714133303908
  0.1672303170819810  0.8336611017930141  0.6660818945003185
  0.2506296852493830  0.9161552618571227  0.6661668934991575
  0.2498903650521853  0.8329962142415441  0.7495064593268014
  0.1662355637269348  0.5849704193321066  0.4179943885892374
  0.4161794888503661  0.6694587275801285  0.0837916204586178
  0.1665181369956276  0.5011787366493782  0.3344448890383966
  0.8329409820720962  0.2496713774560245  0.4167309651320217
  0.0005130503199370  0.3321814016718115  0.3332229769492052
  0.2505442739023751  0.4180124102055726  0.8352053944700724
  0.9160438553774721  0.2493775987165054  0.1663908905336339
  0.1651452165178106  0.6684007473003686  0.3342612086219250
  0.1680739472440748  0.3329474616792081  0.8342818381230700
  0.0006128048739259  0.8332863330835334  0.9987998878583084
  0.0016241773275495  0.4175529984847659  0.0848987176047156
  0.1654770428944563  0.5861532844090821  0.2513540786760184
  0.9162704247707509  0.2492066126912180  0.3333293924835576
  0.1652139372368767  0.7516030861333530  0.4178672933619932
  0.8332767884281937  0.2495923435081516  0.5824581540395344
  0.2479864246241605  0.6686283024200209  0.4165521693873149
  0.9165315413905387  0.4166547185405066  0.4988126398313807
  0.0822841564339884  0.6689440414415423  0.2504939534865872
  0.9151412714389844  0.0820433961926793  0.0002879516975196
  0.3341422424860724  0.4165317439194209  0.7516832476568194
  0.7497639451623533  0.0826468403540055  0.8347402944293624
  0.7497252547365755  0.9155984316804667  0.8338179582884151
  0.5841265515721108  0.7518834079832831  0.1691093628600863
  0.9163538463018386  0.3326443991702830  0.5816154025075088
  0.9148933181283210  0.2525148847312471  0.8330226234272160
  0.0830016592843028  0.2485069825504136  0.6672920224616059
  0.9156263800245851  0.2518238435104749  0.0014594034249041
  0.0835851741290016  0.3326760185292194  0.7505385618143049
  0.8327185671754458  0.1667028696700842  0.0011700741870833
  0.0010593276572405  0.3326864690904663  0.1665150863319802
  0.8329048706752861  0.0817071900107056  0.0834099525568297
  0.0838760962154577  0.4165260960924534  0.0004566523955643
  0.8324166930380367  0.1663039177655468  0.1670741995137936
  0.8336931996140317  0.2491291975451490  0.2503876296730801
  0.2495911660728543  0.0818464888098846  0.5017849731233071
  0.0849491418879042  0.3327122469613285  0.0841622645895864
  0.5833809407404152  0.3319717164561637  0.5811962819341870
  0.9162081824734544  0.3331682585145130  0.7504526786187454
  0.5824751062392411  0.4169481193768468  0.4992168838174768
  0.1674618194083018  0.3320641571179790  0.1673731676869731
  0.2490902315728440  0.9164435820143212  0.5006619366014008
  0.9157570395984185  0.1662612445678768  0.5831401133185670
  0.9159748085832430  0.2493338755468743  0.4993012139866543
  0.8320116844672381  0.2511033141158963  0.7507410113382242
  0.8336220249496208  0.1661430270485817  0.3335995397883654
  0.5832500677689901  0.9158078322962175  0.0009692756915643
  0.5838272850310740  0.7504850991253683  0.4978944309721949
  0.4998231712500714  0.9165500998227174  0.0843312954797930
  0.4990698506338208  0.0816179884892354  0.4171367828043772
  0.4154640454060148  0.1643010291428355  0.2497752047068282
  0.2497340362769170  0.2486594152961386  0.5012300059836392
  0.4156617344577765  0.1660333038263753  0.5818265374744768
  0.3331633921871986  0.1652445809662849  0.5004994966523593
  0.3338677208649415  0.1658190144361668  0.6659132456933130
  0.4152454153569508  0.1676965432529109  0.7505658467545451
  0.4156705919033066  0.2491407043025911  0.6657336037131518
  0.3334259327293191  0.1661291191950155  0.8338321572535048
  0.3320474138475348  0.2493212471611292  0.9181991271444557
  0.4161360920599593  0.1666599205043564  0.9177839371314344
  0.2481596219627735  0.6684233713451738  0.2504236094245463
  0.7501202796942755  0.9170571199148323  0.1671282075182898
  0.6664061808734181  0.9178770092506784  0.5812376395309413
  0.4153581970801536  0.2498180899574964  0.0014033182213121
  0.3314302221694517  0.5007979239161559  0.3339480108174342
  0.1676098127626713  0.9986989923335106  0.8326160593711252
  0.4158327578288483  0.5845147730184833  0.3341562777022828
  0.3321402912990459  0.2490730605367966  0.2496904087133368
  0.4164023711022005  0.5850201807405593  0.4978618370002935
  0.2536388226668946  0.1651268938457177  0.4164095164379195
  0.3319886539274904  0.1648751072227425  0.1667418501823405
  0.4138062176143772  0.3343113934871140  0.2491336556467952
  0.4984758565066297  0.9164560261219240  0.9179741010209512
  0.3312655328819621  0.5018951882291326  0.1678020968929073
  0.3315271916675363  0.3333106318529568  0.1663963996739314
  0.4144957337300158  0.5005161004481220  0.2513197785085469
  0.4155903483282420  0.5851548638434163  0.9993324470352518
  0.3326086139825936  0.5847530519877552  0.4168705655895178
  0.3317986498275516  0.5850304584407815  0.2510874692161282
  0.3326494948523075  0.6684835247099259  0.6660542859026287
  0.1671950118423601  0.1653515713332363  0.1683081813956308
  0.7509805062060587  0.9168024130098942  0.3348035972815837
  0.9994796239313058  0.0835203850221772  0.5846121551888155
  0.9180419580964307  0.7504209076728675  0.6650694017064621
  0.8350615990231230  0.6687346282765501  0.8309035594201176
  0.8348835022809215  0.7514530681189187  0.9155887331178657
  0.7489664226414434  0.2500220793394833  0.8339784125492355
  0.9175411974744333  0.6676040033437047  0.9157578001658855
  0.8328120518691529  0.8328502106354565  0.0000088701247574
  0.9170007496491589  0.8328269540928928  0.0824438719951034
  0.9158719843817664  0.9168295915743687  0.0001574339956770
  0.0828995372277886  0.0822912717758113  0.5019160539249096
  0.8349806503336672  0.9159037013297472  0.2500239780563043
  0.6673763750948224  0.8338432586378844  0.3335778145793170
  0.0835584542227049  0.0828278214853942  0.0009399688962442
  0.6662032730631989  0.9164203804668651  0.4164049835109297
  0.9151380216815183  0.0000485596650510  0.7498471806274736
  0.7505548473856658  0.8330849096618993  0.4163612985417467
  0.6665164494136162  0.8333115497066094  0.4987769737599625
  0.3339177098640911  0.5014005000600824  0.8329678680634709
  0.1671582207481687  0.1658166898583345  0.3300779703378868
  0.3320019322369707  0.2487451183687149  0.7495936379989395
  0.2499544676711598  0.5014318866827516  0.9168913578539420
  0.3327137996914008  0.5847403888279324  0.9166293327351239
  0.1663854276866060  0.6682011042141655  0.0001452098036339
  0.3334237580261484  0.4171268363096861  0.9165387508134034
  0.2484654717211867  0.6674528738992080  0.0843751344442243
  0.2493910768239385  0.1648798705010571  0.2502008935678056
  0.4155207726119425  0.4159354012936630  0.6658561087733074
  0.4149620058361120  0.0813368089430234  0.3332090791491740
  0.2498329469266748  0.2483405625866190  0.1658086682381469
  0.3324781370170852  0.0809867921755052  0.4163303730367246
  0.4154298221983594  0.4154910604526800  0.4995801826867758
  0.1664042721372995  0.5850212218654749  0.9163424371865058
  0.4152803983081687  0.9983658684077031  0.4164250687504075
  0.2501420024096955  0.4162042623850646  0.4995629228148325
  0.1675394121201557  0.5015684504493576  0.8338165932237567
  0.1666570836832975  0.3278424705804883  0.6666606312857972
  0.1654784241433812  0.7505673503028156  0.0833476251244371
  0.3324998642560187  0.5011580417627770  0.0014727314040231
  0.3319960136729514  0.4175512822732675  0.4168362351291968
  0.3332699184313584  0.3318820623405316  0.6673570049605378
  0.4142168126477085  0.4164867572977306  0.3333332865505829
  0.4150731058183156  0.5012365550540662  0.9166590221078953
  0.1668527696319978  0.2513144012063370  0.4147039841554864
  0.1675828676915163  0.0821174330611130  0.7495883034922122
  0.4153505836231925  0.3311891328156032  0.5828438587794977
  0.3329086471013376  0.9992363484309632  0.4996015208652730
  0.2506259000246215  0.0823182014526238  0.6665317773755929
  0.4160216469160667  0.4150002236967172  0.8334180499720180
  0.1672825204876732  0.1654405390642771  0.9998964319608645
  0.3312970938882340  0.3340906257670006  0.3328519601391537
  0.9983145013765695  0.1659434682623936  0.1658894178280272
  0.4147935747927408  0.3327398020775837  0.4165949790742048
  0.4133781288809287  0.4176584666799099  0.1675868303241868
  0.3320114487051801  0.3322367619634247  0.4997548933383856
  0.0004523771459756  0.3329747970293106  0.4992600013537505
  0.4983215991869213  0.2493982820735615  0.7503270879112849
  0.5829252885965035  0.1657253713218488  0.0846107308633149
  0.1663830443650539  0.0005568226081165  0.0007670088384866
  0.0005046302627155  0.9177605054383273  0.9161704935405592
  0.0833208262953017  0.9164535821250741  0.6671296570429861
  0.5840556218223342  0.1650077611002313  0.2492670471141709
  0.0840911059911083  0.8333431107214179  0.7501806048172445
  0.0001712148598115  0.9171021773738048  0.7498140111924055
  0.9989992471883157  0.8339171782899923  0.6667163962658500
  0.5836444111447335  0.1652785497134742  0.4161933413299548
  0.6673443731975802  0.2490101322937875  0.2485957166731581
  0.0007452457135091  0.8337803697210897  0.8327155749841831
  0.4941590941526612  0.0837516414300689  0.7510341289187663
  0.4155422390549736  0.0828686666815756  0.8352305122609260
  0.4986643092720455  0.9996831178014410  0.0001475031951487
  0.5820522675870696  0.0833590644197550  0.0005619541972719
  0.5832073713906550  0.9996768649159843  0.0839212087147152
  0.1658481004899593  0.9989007442388980  0.1658544447229312
  0.2487855458269926  0.9973809476199639  0.2495957663318324
  0.5824488302729908  0.4999427104928743  0.4163446234238755
  0.5000099480336384  0.7512459470474674  0.4154134456210449
  0.5833980038053603  0.6676692616446396  0.4154162663198562
  0.5828631765954760  0.1676398232152639  0.9188090343198768
  0.5839857406353572  0.7512502139966319  0.3338977550129043
  0.4991457146844114  0.2503289925807179  0.9183079213893137
  0.6664010353478504  0.3316822480364746  0.6645251521174305
  0.4983550019790884  0.3317354439440695  0.8335593595414255
  0.4977012285435167  0.4150944019363843  0.9167247676297033
  0.5807037003892275  0.4148120780836461  0.8329820044893818
  0.4974989601971190  0.4998385447818801  0.9987178178656484
  0.6675982095345734  0.4986465511150748  0.1681039533703325
  0.0828800385345565  0.8343843706883559  0.4179184420840837
  0.9999445487345445  0.9168353598651242  0.4176285345989481
  0.4984641392783006  0.4983050477785054  0.1689808566769107
  0.4983020245742364  0.4167679750466706  0.4175724167871919
  0.5832290953843963  0.4164854975038451  0.3337199802911004
  0.5841379461128549  0.3328943901358672  0.4167841367792053
  0.9992924872482654  0.9168546089406231  0.5843417467723685
  0.2499958245419876  0.3334030109044902  0.9175147261163420
  0.4159981894947842  0.6690384455812759  0.5813074594865087
  0.9998634000771951  0.9998821206341082  0.6670535729942044
  0.2499283519199328  0.9993781036287305  0.5839639530437317
  0.4160353004685909  0.9168727639821869  0.6640641938768522
  0.9172158297733076  0.8327974810864790  0.2507671971274109
  0.0830694690408926  0.5005801556247617  0.9167697505018868
  0.6661083611637646  0.3337936630430647  0.0019088223295526
  0.0822848647663392  0.5000927955862466  0.5828938689847533
  0.7504649020042129  0.3339357228841885  0.0844485352414310
  0.7504657215917283  0.4156204622704391  0.0007652839048687
  0.0823504109101066  0.3320175232624804  0.5827241950073024
  0.5833765349869310  0.2494924887511503  0.1659507497952723
  0.7499864598974726  0.3324931824472449  0.2501812677502315
  0.7509926666689161  0.4165792545187026  0.1682760553185894
  0.6670542300901504  0.3337757236028172  0.3330142107052112
  0.7497667334652220  0.3335087764678113  0.4164855379351426
  0.0842255761107349  0.5001617581206671  0.4173284206344205
  0.6669439855584604  0.0832168104504390  0.9182836518338618
  0.9183603266832747  0.6679687389493575  0.7489923493803048
  0.4978117184708932  0.9994904509599549  0.8354751672603764
  0.4994999886626739  0.1675688419545114  0.8347917672271191
  0.4157957795576387  0.9163523615694019  0.0007850159416745
  0.5806659224738587  0.4148849704316416  0.6650063184082722
  0.1664600473496569  0.0824825803128006  0.5846203792960735
  0.4168323583352814  0.6676905185337825  0.4155887428536873
  0.4159201016412075  0.7504857355898368  0.3337492218159845
  0.1659708071552305  0.9983199344678861  0.5018444835386032
  0.4151756387643455  0.7507088801229025  0.8337056948434279
  0.3316489753621124  0.7489297075785389  0.5810248067334249
  0.4167744473416691  0.7507994829248200  0.4977598202246244
  0.3337771488963908  0.5865233908449700  0.5809703391509120