 C Cr Ni 
 1.0000000000000000
    21.1200000000000010    0.0000000000000000    0.0000000000000000
     0.0000000000000000   21.1200000000000010    0.0000000000000000
     0.0000000000000000    0.0000000000000000   21.1200000000000010
 C   Cr  Ni 
   9 259 605
Direct
  0.6641475106822480  0.4920474673690169  0.9162443919508427
  0.6624054237324444  0.5847582204829039  0.0086310409429336
  0.0029551241299820  0.4970125791651740  0.9084185969012564
  0.9109442636657707  0.4965457429364440  0.0034362613487252
  0.0041139619643137  0.4960250242597500  0.0927473295798852
  0.8370906858004961  0.5877844326022283  0.8241433596049819
  0.6618931108952871  0.5835346438167555  0.6634237400018701
  0.7520744757426463  0.5873831845264537  0.9162913874435477
  0.0032099197283206  0.5906459717780721  0.0018374035310828
  0.7487606371022566  0.3316066104952428  0.2537593253466083
  0.6664366318634564  0.0830118372720071  0.5827544477744100
  0.4157389442576373  0.9194338336407247  0.8331210803968194
  0.8327814777339562  0.1654120031157054  0.1682517246387533
  0.6659124840554963  0.0834663118240587  0.2512455804611932
  0.5824204983294859  0.0012943639689512  0.9153767933699124
  0.6663600860542145  0.9173779970818262  0.4168672259347080
  0.5806743027274371  0.9188501186197620  0.8339992912436102
  0.2481513655682097  0.9995694217521637  0.9155704996627000
  0.6665289466705404  0.0834319790732475  0.4156316531256867
  0.8334109688212348  0.5833566291245389  0.5822378562741691
  0.5808392206270877  0.8358526736795534  0.5823207976150063
  0.6646235104641767  0.9991733096483957  0.1667993126268103
  0.7490666118655657  0.9174011782941022  0.6653884873741698
  0.1681496823243074  0.4142075408163808  0.0844408560206068
  0.6657459335069058  0.1662359290304191  0.8329454981619981
  0.9179034281232549  0.8358425123270945  0.9175454879379529
  0.0840532326466524  0.9998812100437557  0.2512909901719060
  0.7472149698538013  0.8356157957344738  0.7483467568315069
  0.6625458474823613  0.6749511477010545  0.0000220746184152
  0.7462018138952824  0.6775755537509496  0.9193025409818019
  0.8361631190466345  0.5844184355343862  0.7355758607602786
  0.6637792102448081  0.5819233832820477  0.5731562519108295
  0.6641030401631181  0.7533177850185517  0.7492359640060867
  0.6656231267259847  0.7518221470100140  0.4164932874369523
  0.5827653644799521  0.5829644490974293  0.3346307400475272
  0.5782473670371981  0.4165819607953786  0.6650403419291347
  0.7485131541759760  0.5003044850077470  0.2512161066466350
  0.8222397094592712  0.4961838911789155  0.0032195527037776
  0.8326904521855214  0.9989064676613306  0.8330140229070184
  0.7504168017105581  0.2474626059761988  0.6650856467134665
  0.5814892077477358  0.3294125656717799  0.9155582393864976
  0.8331772852610384  0.6688557670480528  0.3361008759894130
  0.0020230778590995  0.5873802047608669  0.0924188394161354
  0.8321120618391294  0.7536264806327450  0.0866644504459277
  0.9146413896283081  0.0007516083880891  0.7486007964868603
  0.0010728410643417  0.2488296218660248  0.4148590443115346
  0.9145748043931551  0.9155368871421770  0.3333682102849095
  0.9159946857499467  0.9992318072463202  0.0834290430186804
  0.7479653475972089  0.8344564491761506  0.2511774330817950
  0.8329838267836963  0.9995122249842617  0.1670385475145066
  0.9201824100776990  0.6685287455815729  0.7439207224808499
  0.9145078229919605  0.5013955908736241  0.2514412857165377
  0.8338441945312238  0.4130947838211387  0.7463458351995345
  0.0013067695611475  0.6695929331340926  0.3348297427215075
  0.7482418510502369  0.8357578409370620  0.5819916584938318
  0.9110474285492580  0.4953176160794819  0.9130780716989085
  0.7501315329448827  0.2496487237969196  0.3336171307977795
  0.5820759011896206  0.2499178360321319  0.3337426335341648
  0.5822579466985225  0.2489647966697999  0.1663091718369302
  0.8411193115322513  0.5867857067010797  0.9145602736791280
  0.0022911416326920  0.6801589717200677  0.0001645090643193
  0.8340783847860898  0.4945101315030543  0.8277819475418573
  0.8348278929554708  0.4122264355067047  0.5807963469446507
  0.0027596188520673  0.5858662935782332  0.7438472570767108
  0.4978803981664389  0.9170074391270104  0.2510511071734545
  0.9156902120468233  0.1650821263825510  0.0844734593605201
  0.6653298353337720  0.9994554813900922  0.8347869955041926
  0.6650285389034343  0.4130121745097116  0.0872091077036460
  0.7486755724588652  0.7534959464462156  0.1697637086998804
  0.6631479726491011  0.2506010687342046  0.0855207880080070
  0.8336478535106421  0.4087507951102687  0.9145717130420310
  0.7559821763894655  0.4951639778643925  0.9142945103771574
  0.9113247234546109  0.5880847918832464  0.0036660011492890
  0.6638691882910783  0.4916348624962594  0.6648999854838205
  0.1706932582778728  0.5862101303497605  0.0840752944159455
  0.9980539859062544  0.9164847568099631  0.9175824690428858
  0.0836007816511590  0.8352969640228842  0.9159661780173014
  0.0843125576744161  0.5842445689307161  0.5008621267336296
  0.8314412868259328  0.6722702537044856  0.1702072063894967
  0.9994739201821556  0.0818291147223679  0.4152306275727744
  0.0838823556872105  0.2484260545528192  0.3330456895007238
  0.0828921557255577  0.0816115263735946  0.3328463944376316
  0.2494146013930968  0.2488251587761713  0.8346009781211733
  0.9171920440241481  0.5036755581731442  0.4171184728220142
  0.1657644542229107  0.9188324685923889  0.7490253496047126
  0.0871147439131939  0.5857960773224961  0.1682446128173233
  0.0027680934131169  0.3299641380716977  0.8307510638008478
  0.2480395129883606  0.1664667507770173  0.0843264551749470
  0.0848500358968594  0.5864487619608267  0.3337307947765432
  0.3327413492880653  0.4146595752329272  0.7495138015767293
  0.0841555698234749  0.2488520816526183  0.1683758187086817
  0.8338121312477754  0.4160231377858652  0.4159484420928922
  0.1659179694397258  0.7511084479748386  0.4180330274792243
  0.1667044458021382  0.4141917215191216  0.7481298080520169
  0.0846577587355669  0.9996310180989281  0.7505416966816331
  0.2491415637248736  0.9998374634873177  0.0830289143332105
  0.0848356669453295  0.4158920697241832  0.4996487868604790
  0.0836074836763046  0.9178081872854437  0.1666059235058729
  0.2506914813665864  0.6690685621866388  0.0821501653352188
  0.0011698937754253  0.4998334385813666  0.0014411287374385
  0.0832430550357185  0.1656729815960698  0.7497636692422994
  0.8336024211473170  0.5828265919295907  0.4162789721095015
  0.9994982350803193  0.9171882261476466  0.0845569166551927
  0.6637588095542220  0.5836660700941703  0.0983488884672871
  0.9972692715482225  0.0842151613033422  0.9160664173754797
  0.6656307451716263  0.4962031786161434  0.8260835167348328
  0.6654670442766001  0.2471288393231868  0.9167917649861952
  0.6663953397112207  0.4977656977270409  0.4989247778788742
  0.5812074563108353  0.4166421889355578  0.3337648434140276
  0.5817252906329383  0.2486132052958775  0.5002057562630826
  0.9996925431113796  0.2487268784895975  0.5825688969182583
  0.8327045435275623  0.1667618944288621  0.4982352232231189
  0.9162271343958757  0.1650684350806231  0.2516139557977393
  0.7512697947952447  0.3290839295549305  0.9153424917571579
  0.8327518921498441  0.9996526845205066  0.4989469376760226
  0.8336289511170971  0.1662787737026755  0.8333724137114868
  0.0940680938328866  0.5855354391111739  0.9977260692493466
  0.5817038691813895  0.9184027046185983  0.6653067032310249
  0.9166498848458855  0.5827162228372743  0.4995224975729615
  0.0822944326444737  0.0827028570959384  0.0002510162544376
  0.4132717636891497  0.3307547815530972  0.9160493242451236
  0.8339264219688127  0.2469025103776402  0.9161086809505644
  0.0851341166243951  0.6660739995956301  0.5812290483502399
  0.8331110745650186  0.1670549261493960  0.6645197953376440
  0.1655559103936842  0.6669931916563639  0.5026977215751092
  0.9160053425666964  0.0816837620119672  0.3332967374914735
  0.4156324686932043  0.2477436447193633  0.8334245715826746
  0.0023089437871098  0.3295093779009836  0.0015696500239010
  0.5825405955562581  0.9996108874796056  0.0840071232804273
  0.8335049838963343  0.9992950407019814  0.6659411681525612
  0.3331701350835922  0.9176021583932921  0.2513101687301267
  0.7487441392653051  0.0825631906049677  0.3336366941127651
  0.3315782387340465  0.6688299401777720  0.4992176984585657
  0.7495375807254986  0.8349467730014059  0.9172731405015768
  0.0837803405964172  0.8356686099995941  0.5815446395142186
  0.7541420669291610  0.5858451444262740  0.0061505033672301
  0.3311220467859432  0.3322208412389493  0.4983242967584654
  0.0864685420629958  0.4153844890829305  0.1691397575958279
  0.6667494432824116  0.4936080314259193  0.0066044203364037
  0.2488664252712659  0.2480302460235184  0.6650421733329517
  0.3322078018202551  0.7499075196709423  0.2510942907016552
  0.4974399188475582  0.2487396340206961  0.5815563708887658
  0.4132346453095056  0.4994939727926155  0.9156684953554090
  0.5803585529736407  0.4142661740567499  0.8302882279706233
  0.4962423966887604  0.4137184550550055  0.0851725037913759
  0.7526137378349150  0.5826552238014754  0.6636020341146882
  0.6652192281842327  0.6744825885009782  0.6652556134224598
  0.4964471506447424  0.4989286340436329  0.4968139250763316
  0.4161442302670608  0.6668043298056777  0.2521296905636759
  0.6619878528610609  0.5839644854913396  0.9177861469728430
  0.4982153513915024  0.4160011115891863  0.2536745293780659
  0.6640049667247664  0.6700170711846369  0.1696172070633461
  0.5721510931136445  0.5822983532440019  0.0015368003933184
  0.5747513966734730  0.4988852402451929  0.9157448451075605
  0.6635427929763767  0.4117398295119313  0.7475248680288925
  0.2508169943539124  0.9156019095024184  0.3337472686042475
  0.3324584656696736  0.0847382900456377  0.7489470476034510
  0.2509766783731834  0.8330934588495680  0.0834878569927518
  0.5721084391347890  0.5836029919302734  0.6648136381397182
  0.2506115898700327  0.5834102769478796  0.0000362338296944
  0.3336444797220200  0.9190592788833284  0.7489097797571883
  0.4989758604545399  0.9999378448318137  0.4979411505752144
  0.4993384256864482  0.1663803963494275  0.6650036034020361
  0.4978761407694038  0.1664041204917289  0.8343269408447337
  0.3314899904395097  0.0841994149142371  0.9177712351808813
  0.1666085084921340  0.9998317379985286  0.8348367810573893
  0.0830665910721414  0.9172851769644369  0.5019463616007908
  0.1667189258502975  0.8343646041472771  0.3332694629453659
  0.5816574090414777  0.8344770251823992  0.0855283996794769
  0.5798229914191455  0.6684982375448241  0.9146270159770706
  0.1660023185580536  0.9995892418633785  0.5000698989269697
  0.4986245113570578  0.7494091308812943  0.2508312869579568
  0.8324728303929758  0.3298449392186426  0.1710147547170748
  0.3302082409432830  0.1663427889495811  0.6672833366190905
  0.2511727560526549  0.8351066769305340  0.5832525449818776
  0.4157015791546659  0.1658461254977874  0.2518851680556318
  0.4147530865017425  0.9170320337567226  0.3337341719723872
  0.3321662658372901  0.0001275750813908  0.4990651094553706
  0.6661750189109449  0.0838290619649907  0.7499093904661586
  0.4997039355938097  0.0000900248201056  0.6653114328375087
  0.5820886583523092  0.3306903946144308  0.7473032058694733
  0.4976681825264753  0.1659292028719959  0.0019508158336753
  0.3324120567380393  0.0837089834216894  0.2511119235055835
  0.3315076822463063  0.1655876107229878  0.4978517529478412
  0.7486017015820339  0.1653249671086530  0.0850711518053001
  0.4137152362772792  0.2478273114542019  0.3328040102410375
  0.4150509357264070  0.8351554635736617  0.5832079160587157
  0.0012603645264701  0.4172268206362305  0.4143107094110227
  0.4990553039913458  0.9184687473527723  0.9173485754121488
  0.2509698076438948  0.7524614541424706  0.8309510723507484
  0.9162988001380813  0.3307131095593033  0.2518708006974940
  0.3310012554834113  0.7490314067596366  0.4192659221451823
  0.1654214210258587  0.6679554643818105  0.3338178561939666
  0.4162111722561684  0.0000291499070863  0.0843100815302658
  0.5001823675187641  0.3292396411912715  0.5000030458134285
  0.4124683660018430  0.5000051004828288  0.7480922543025096
  0.4155366031033746  0.3334577904846874  0.0857334217937358
  0.4978125884418561  0.6689997799591308  0.6664516991373919
  0.3332644079243496  0.7518550219881867  0.7506032752699550
  0.4982189556417301  0.6702283932384904  0.4975537384304972
  0.4993288145730971  0.7497107648507143  0.4195266193759078
  0.0851517397510733  0.8362630022324912  0.7495042884300517
  0.1674096523617913  0.9185204766120368  0.9161284587836219
  0.6647059297460228  0.4159664262966700  0.5811464479520507
  0.2505775692128883  0.7520526245074011  0.6658730048979699
  0.3329454346222753  0.4144702492471170  0.0842131821306574
  0.4973648503034614  0.9192163352972443  0.4167596808999244
  0.9162020945276115  0.1653574881697017  0.7494436047594563
  0.2502142937648841  0.4999950463121776  0.4171291432080540
  0.0012225023771136  0.7511987728550060  0.4167027350682981
  0.0844301800628728  0.7524787756526282  0.9986578335978220
  0.1655671436398018  0.2489988976474193  0.2509573727142894
  0.9992769650019906  0.0821271326753860  0.5824898445424762
  0.0849422163939144  0.9165382946059690  0.3341650195545969
  0.0014783112054146  0.5881116039737971  0.9117346953493703
  0.4134535433855187  0.5836664996294820  0.0002770346049951
  0.9159939413728273  0.8351185163462485  0.5796757076559884
  0.9167104515723572  0.1671721200023241  0.9160208613619985
  0.1647301691823255  0.1665693960680629  0.6672292744729076
  0.8339911082983689  0.6705237406136871  0.6640346269704479
  0.0820523495079363  0.4170559919445084  0.3351607845257292
  0.0822186596376910  0.2489270863184138  0.8328538682831952
  0.0819981831737314  0.2489053598875696  0.0012923103005889
  0.9126300790348717  0.4052714434310721  0.0011662124993750
  0.1639105494822702  0.3338950085336913  0.4983690481546293
  0.7470117849712294  0.5845965769427431  0.8264615379154007
  0.9159748525331501  0.8349594952376723  0.2529912217805061
  0.6657921729687177  0.5826302834622238  0.4183174333186474
  0.0846521035624415  0.7531531555486304  0.1669753363737009
  0.6646854657263631  0.8343273798751526  0.1694654957198361
  0.0839868215121698  0.4153219513013063  0.6652114990633436
  0.7490999756724360  0.0829677762017069  0.0007700938672026
  0.9989445660162779  0.1666401559176189  0.8315042834134386
  0.9166232398732272  0.8350214786985691  0.7492727646227678
  0.5817028556230969  0.7526101407555363  0.4993592489451105
  0.8318818354070961  0.4989061700596439  0.1724318154953235
  0.1646754726524940  0.1654317175108661  0.4984704373809962
  0.6634089149458975  0.4971544632929726  0.1704601124163060
  0.9126139945761705  0.4998912824627797  0.0937699673986703
  0.0845470729619529  0.2472471570907969  0.6658461715325916
  0.9172355811321574  0.3324899057987655  0.5809854863623940
  0.3328535775173283  0.7507760240126173  0.0822154086456193
  0.0924099884469236  0.5000776884006001  0.9157134331965506
  0.4984331932975511  0.7509314196037663  0.7486965477260276
  0.0003923293879495  0.6685657954558160  0.6651110117273457
  0.2505812041800988  0.5833892623129436  0.6663981044628583
  0.1655429313068093  0.0819092127247773  0.2508791346650398
  0.3320386548255375  0.5830424154403167  0.7480253175277702
  0.3329379653345786  0.5841265826016059  0.5817361330637366
  0.4146205379156741  0.8329688507680292  0.0826556626390264
  0.4153230333116888  0.1661575261981055  0.0843488912567636
  0.2483993079429543  0.2501996036013446  0.3324340697873255
  0.4981565862954159  0.6685656271297105  0.9984395494749920
  0.4141069604651529  0.6658569087323442  0.0829347932556964
  0.3331931363034062  0.4997252811839724  0.4999248273568748
  0.4998368494012334  0.3328540999212973  0.6666073252395850
  0.4152550232542467  0.0845219709208454  0.3318126834746725
  0.4142754466272934  0.4990340976881198  0.5799580514770020
  0.5795285042310954  0.5840064228356979  0.8338212282527219
  0.4157852871005857  0.4990575007101289  0.4179951668517572
  0.1681545077335991  0.5838430462248746  0.7471818819086583
  0.4140224144497097  0.5846091279261736  0.3340075076265234
  0.3310326435483382  0.3316234393359532  0.6675180132264726
  0.2496976310454430  0.4989756587977528  0.2516364088770942
  0.2487775511056776  0.3303941884927202  0.9154306747689971
  0.5805373654897877  0.3314689818388444  0.0856874557770558
  0.3312141601296015  0.5843318788334965  0.0829326651006270
  0.5801580407285652  0.5840934689125049  0.1673947847356691
  0.1665851340355252  0.4998767517546981  0.4995470142601089
  0.2508218155838091  0.5845466882119048  0.1674616574783347
  0.3317423862892527  0.6680026177601603  0.3343240797485229
  0.0843778705341604  0.3307900153681729  0.7476765659919696
  0.1686253329887949  0.5825173378819974  0.5833481392025142
  0.2493749923442191  0.0011931697222792  0.7500593015950909
  0.2501249404679162  0.9186027420812606  0.6660460445273526
  0.2498929096783949  0.2491620148225238  0.0007418806373760
  0.3323105978584833  0.6685831745756640  0.9977346284114580
  0.2490781893875485  0.7512281772733329  0.5014099871050580
  0.1670576860485816  0.8353031108154577  0.6658030027938586
  0.1664929170014831  0.5838855460547012  0.4173382522607397
  0.4985057885066801  0.0013388910629968  0.8326607282489247
  0.1659354634784601  0.4170953273643425  0.4162776870945782
  0.1664867783270392  0.7523666961808124  0.5835667800016314
  0.1666879865406739  0.5007340458580706  0.3342175199289259
  0.0003592393393835  0.1652514871161274  0.3329783934045492
  0.9156027336050375  0.9173098168527976  0.4995685569021389
  0.1663227068564155  0.3313085947339754  0.8331045657345336
  0.9998204156448963  0.8347033689041523  0.4997898520591680
  0.1676850350660728  0.5845069753599760  0.2512204005671327
  0.0006647620628693  0.8337192606631261  0.0005097556955906
  0.2497022023709654  0.6685909958045027  0.2513622926077811
  0.8330878996155749  0.4981038194208277  0.4994805438551263
  0.0834902641474697  0.7503897537137609  0.3345472240317987
  0.9991477376634563  0.9993197766629975  0.8330200373789215
  0.2481481219100554  0.6676094191358614  0.4178058153108001
  0.8332512513928434  0.6672388390080723  0.4989844784815564
  0.0844955127319568  0.6691045740573502  0.2506774914132331
  0.8334726317979877  0.7527323023692690  0.5817686869333751
  0.4958290200887303  0.4987915163443389  0.6652554737911746
  0.0830671534033943  0.1647988265814678  0.2507279953870447
  0.2489362187548753  0.3310171246969575  0.7498128830788970
  0.8329241577382355  0.9172320014499913  0.5826721411939789
  0.1664672244481055  0.8350642535552739  0.5011841734669686
  0.2491324825175043  0.0834727279625451  0.4999890454957600
  0.1705110765392003  0.4981593052653779  0.0005758820238363
  0.2502667186905133  0.4998647443467170  0.0848412896607663
  0.2490703778591498  0.2484217510799076  0.1673688181169035
  0.3322174491904161  0.4167973041222370  0.2519608778988895
  0.1676119764941089  0.4988266242441547  0.6660293911564555
  0.2500291631310939  0.8359559595333211  0.9147823069764311
  0.4987778320450589  0.9187384518570845  0.7495695112612908
  0.3311037925443859  0.2492469630882494  0.4165594509847406
  0.2494475081964832  0.0834568024876581  0.8334098866777339
  0.2487554941536772  0.1659859449915353  0.5820969151512324
  0.3328502288521557  0.2488375630465166  0.0840386454481395
  0.6652558965282791  0.3318398514881243  0.4990159461435766
  0.1663836418731691  0.7519714720299909  0.2505176311147685
  0.5809138406724713  0.4150912730271915  0.4990959339234323
  0.2489082419672166  0.3316530524853699  0.5818594415882470
  0.2503034280304005  0.4160043757424732  0.1671812722688810
  0.2499326495551180  0.9180691366639133  0.5004544518337556
  0.5809586361650947  0.7515717101281331  0.1682083943381251
  0.2501632533046774  0.6685372498509561  0.9145688066678782
  0.2506083943900618  0.9179977361330569  0.8314853663419925
  0.1674572079652185  0.8350771284727906  0.9997577090087550
  0.1670457729357926  0.9170698117539818  0.0832732607773344
  0.9989748960406800  0.9997547138411707  0.1674344864815842
  0.1671281576699757  0.9168446088332548  0.2498110224948176
  0.2502703400764545  0.8336940231010127  0.2508459749471482
  0.1654730647415545  0.3332744731327858  0.3334250356417305
  0.1668593232807631  0.9169915524384822  0.4179493798771922
  0.2495503982928460  0.8339267640617073  0.4169578755189506
  0.0823240415651367  0.9993383590187689  0.0838198137111062
  0.4155013165438206  0.7512840724827463  0.9996126051993016
  0.4972931421173213  0.4139397246737729  0.5809270937521597
  0.3328042346978070  0.6676991717447072  0.1671908991459979
  0.2495550254753927  0.3323712091058486  0.0845844783518578
  0.2489656443186516  0.7507729442303259  0.3347968516273284
  0.2496609101200702  0.6677256584730155  0.5836425295950118
  0.2499548502094607  0.5841592481437665  0.5000987014885926
  0.2500482230784098  0.5837933433147779  0.3344684984159739
  0.8327276107605084  0.9166353789514943  0.7496254868276649
  0.9160590422411187  0.9171640894881732  0.8323417548985611
  0.3316770342944147  0.5839048135386133  0.4176184106440851
  0.3318390873282818  0.5839016077133626  0.2518403040369883
  0.1657234656463686  0.1652298038925225  0.1676126845762116
  0.4151318906543055  0.5847731694619025  0.4977595628329648
  0.2493190269174023  0.4150578912803259  0.8323280376978716
  0.3320455125169876  0.1659101096329342  0.1675084897570540
  0.4152678399884568  0.2492069835549700  0.0008698715803711
  0.4154775643935770  0.9183836821431408  0.0006804403024151
  0.0823476143718711  0.0000571139020256  0.9171223884329336
  0.3322356950446835  0.3324543254647671  0.1681620237555582
  0.3319247862770032  0.2484749023469375  0.2507585788747255
  0.4138991271600548  0.4990673778017709  0.0843380064988922
  0.2480336632528523  0.1660844038250854  0.4164403002435801
  0.4150409292703587  0.6673137521767749  0.9162965691744113
  0.4153419408370195  0.3319441839665626  0.2519100444020692
  0.3325559550905224  0.4999702218221774  0.3345781905120990
  0.4154067726258416  0.5003618350240229  0.2522328707321698
  0.3323690519579180  0.4996838623709968  0.1682099789028356
  0.8323608886697871  0.9168457689287234  0.9162412593288329
  0.0842815236299714  0.7536034635317311  0.8308342809031160
  0.1667483055660639  0.3307763780807347  0.0009562996159967
  0.4983644544233870  0.0840956043598751  0.2501198685555887
  0.4154845208843451  0.0006717954580848  0.2509999739183022
  0.4150720881354438  0.0833525760122384  0.1669827009628802
  0.3324977536459374  0.0004682644423710  0.3331138178476794
  0.3319585489289105  0.0837895161936457  0.4167000510974117
  0.1667904466366363  0.4152297711320737  0.5824765261726542
  0.3328506331610648  0.8352830153176742  0.6668164162482582
  0.2484660050725356  0.3327302140311988  0.2512488136190605
  0.1672592955437401  0.7523212687800753  0.7486376005998737
  0.8328273994895556  0.0828536896132858  0.4162773803965257
  0.2501872917589494  0.6681969520758212  0.7488137420103284
  0.9993870948833593  0.9986385442700987  0.3333932351190053
  0.2498645968988067  0.4172765011435633  0.3345048843462940
  0.7490242582650668  0.9167401936994959  0.8330333329821171
  0.7489578328708778  0.9171120307598114  0.0001341787410855
  0.3314793405557162  0.4987846700475317  0.8323516384475591
  0.6661818718146146  0.1655381212959113  0.4988441020015550
  0.2496772137113163  0.4154688282866892  0.4992347546052656
  0.1685943577554896  0.6708478375513761  0.9980932033347693
  0.1679000976353789  0.7522375695423417  0.0832648537269911
  0.1682661187504354  0.6692495903026471  0.1676647883755681
  0.1663967322701407  0.3315670947530017  0.6654260083069791
  0.4145865328237761  0.2484026668135342  0.6657600310062425
  0.3317848341769173  0.2486293206798769  0.7497335569229765
  0.1657609358846877  0.2487749569104016  0.0844587169634511
  0.3320519365333911  0.5830716936275817  0.9167168107224866
  0.4147085294308941  0.4143614580935602  0.4992283333107471
  0.3320661916968123  0.4145403191150497  0.9160544712237161
  0.4146122082439415  0.0014090402238277  0.4161750570670227
  0.2484081429847853  0.1659068205741308  0.2507175798394057
  0.1683074727404019  0.4994312951207130  0.8299786787303074
  0.4980758465274063  0.0834213399241328  0.4166608444224438
  0.2490272626046496  0.4990399253330427  0.9157992453957565
  0.1681181600778552  0.6690164236121178  0.8307499097299114
  0.2511217435957058  0.9171298579352777  0.1663837007070443
  0.3318377920682801  0.3318758437334999  0.3328952801429542
  0.4151759166505213  0.4161664831675091  0.3343704113605371
  0.4143352703469409  0.3312211275556551  0.5824053987588679
  0.1661772573683524  0.2493642389580834  0.4157378341586588
  0.3318693752959351  0.4983342373091615  0.9999498415780808
  0.3317251250542078  0.2487996018132682  0.5818611697774591
  0.1656677950477521  0.1657480597883054  0.3331955646186377
  0.4153283335526026  0.0844484044911281  0.8331224513273084
  0.2505758341199033  0.4149903866485642  0.6660143650614807
  0.1661086737702034  0.1660582277172902  0.0007755008903953
  0.4959382666015152  0.4986327692300416  0.8325728909354612
  0.9995308220157419  0.1645346609511449  0.1680922129747925
  0.1654954077409447  0.0828185032381496  0.7502604694394900
  0.4143732560492577  0.4160703192643944  0.1683861926990996
  0.4156756149921639  0.0015061251829428  0.5822611093541142
  0.3321353121851314  0.4155688810489497  0.4168117591226262
  0.4141232395265020  0.4149076445621193  0.8328955387308996
  0.2494316256327004  0.9996347210735159  0.2506027681558570
  0.4981723658693369  0.2489547847244012  0.9170487441014714
  0.4157314373214956  0.9188758693284224  0.6658001227328311
  0.0005007083092855  0.8353996090426937  0.1680987992165211
  0.0016674918915282  0.4980573277018870  0.8222240576057833
  0.7477144712148822  0.3300871211132850  0.0866287386750176
  0.0850606955810796  0.4992296128733030  0.5825799201023382
  0.7483493409001380  0.2477633506705761  0.0011207762277504
  0.7493177824641160  0.4101490914292737  0.0032222379825604
  0.0834638322582220  0.3316154095708505  0.5822575530572726
  0.6656444532912303  0.1656122623819517  0.1679230312563089
  0.6649588182371133  0.4155464004646769  0.2527451870148397
  0.6646486242737094  0.5839991968519113  0.2506145153186556
  0.6650193546328022  0.3318704537327939  0.3340408913337433
  0.7489807420403690  0.3319026470943663  0.4160033354895307
  0.0835531861624738  0.5005843853855296  0.4166686790553175
  0.6658386552613008  0.0839544356967764  0.9161708100676151
  0.3324475332615082  0.3317575408458076  0.0006272866417862
  0.0017083081581369  0.5832402119329854  0.5818826535350736
  0.7505786647121647  0.4151033655696115  0.4987721195587055
  0.4980718829564339  0.5835787468101381  0.2523145966202752
  0.4157315025470921  0.9166785571558843  0.1675185558042656
  0.5820355386470661  0.2482246725785522  0.6644866778874770
  0.5828653356884677  0.0828967145507584  0.4994227436750198
  0.3330289631576697  0.8359392839785074  0.8322841059694063
  0.6646558119825208  0.0000950426755008  0.0003781127460940
  0.1673845336815133  0.7530860174396818  0.9145934966444267
  0.5810342290160460  0.2489635602363602  0.0009472343107900
  0.4979543219649837  0.2495230063362624  0.0844204371977986
  0.5826196936444853  0.1664027337579724  0.0844040415636095
  0.3325914526235761  0.0004528893712835  0.0005281346629655
  0.9992786642565218  0.0000312952915693  0.0005019784204758
  0.0822486970508008  0.9176674572915303  0.6651369418912935
  0.5821959216672707  0.1664055171123826  0.2513713187901308
  0.1671966342294507  0.8362353636693112  0.8322679561915387
  0.9995808206355318  0.9172926324161322  0.7485673465793894
  0.9998175107278044  0.8350591864531564  0.6649546638802077
  0.4996792644919408  0.1669996201194079  0.4993220707855215
  0.6652931340399904  0.2483310252195211  0.2515578212587311
  0.5814060656496701  0.7511126756788238  0.3356276975554512
  0.5822068687502119  0.1659891142090843  0.7489206680411027
  0.3330639128467531  0.9192291306944684  0.9161736124009187
  0.3338070538826642  0.8339547288211830  0.1671452288697899
  0.2508334637186999  0.7527974219877680  0.9990766239207870
  0.4962649460793824  0.4155377209391585  0.7499038911030516
  0.0001386816151778  0.9171188765977932  0.2507498646686954
  0.1670232382340707  0.4135405725194015  0.9165722723275133
  0.1670528426261746  0.6683103371768787  0.6658915584324043
  0.0000624299320151  0.8356771134463683  0.8316761541231288
  0.5801121959253739  0.6687185509727857  0.7494028772655164
  0.4963674145595678  0.5826689729650567  0.0852327536607807
  0.4153094552527882  0.7515961949909821  0.8317325056370124
  0.0834165452102207  0.7513172366488944  0.5010205356962791
  0.5790747741459682  0.4964612238577771  0.0856422334223554
  0.5805643796144645  0.7523821256361327  0.8320365259142586
  0.4975653130855849  0.8350274881286277  0.0006212507628645
  0.4148005119928394  0.7517142825896479  0.6661562104496842
  0.4988225867950420  0.2487036047192744  0.4161597145309843
  0.3324484401933816  0.0831151759882375  0.0834633085277561
  0.4154374604649544  0.0831776244896702  0.0013612908291448
  0.4986815077837627  0.0006761911731862  0.0006896527019823
  0.5822771948709478  0.0833972610074720  0.0007249469381077
  0.5815490232169755  0.9175479404615853  0.0002064060363839
  0.1670891002836682  0.9997758427347198  0.1663851478015555
  0.3330091751712893  0.0002096871999857  0.1667107507287993
  0.4982556053925876  0.1664678667645894  0.1668695393362594
  0.5819779974272077  0.0014546281669489  0.7501480469337659
  0.5823140376326368  0.0004043976072990  0.2505169348965710
  0.4985491095060254  0.0002380512988286  0.3332622470118640
  0.2492915515378487  0.0824117531968014  0.0007353213462481
  0.5822344061805451  0.0002880427286331  0.4160196657960969