 C Cr Ni 
 1.0000000000000000
    21.1200000000000010    0.0000000000000000    0.0000000000000000
     0.0000000000000000   21.1200000000000010    0.0000000000000000
     0.0000000000000000    0.0000000000000000   21.1200000000000010
 C   Cr  Ni 
   9 259 605
Direct
  0.0835128483512417  0.3315477607152281  0.1678602728379524
  0.6631961275157494  0.5846065243875406  0.0051580100086799
  0.8257568459913780  0.4950763081035646  0.9127413734817768
  0.9169147481849109  0.4972063688491968  0.0082224990697365
  0.9163754759823793  0.5907722504830095  0.9136853202013672
  0.9174154213443524  0.6684296826844908  0.6634781877417598
  0.6640102139642255  0.5829659186332017  0.6632150230226350
  0.0088321649449737  0.4959999036604196  0.9120991381836040
  0.7485936800447605  0.6698662931776154  0.8335957212927292
  0.7473712186330358  0.1647347391115602  0.0836200651376079
  0.3310712359021526  0.1661777321549558  0.5002130447090605
  0.3317812315179929  0.0843313014477816  0.2519798418381637
  0.4962755561013046  0.1653465022015574  0.0015103976319637
  0.5832994983109537  0.3314870739552541  0.7484070023093315
  0.5001585538413122  0.9997255604615981  0.6646870464344176
  0.4980425976541260  0.0845591768860672  0.2503747771387251
  0.3326416093402281  0.0008409406656928  0.4990434277063943
  0.4147631985603437  0.9169462795490080  0.3341377420283659
  0.4138954587313980  0.2493508199562821  0.3340745952157250
  0.2505945135771590  0.8356694748008623  0.5823176217457220
  0.3315199360321213  0.1664971231517471  0.6665560487964346
  0.6663955893291056  0.0839851780488015  0.7494952169859305
  0.4151640628369043  0.8348526224529947  0.5828375888151960
  0.3324389123544237  0.6683004679634329  0.4994735009970195
  0.3333245934021320  0.9170872872750023  0.0834344503064803
  0.2522858983843778  0.7520669119894390  0.8308190991449981
  0.0849210196872280  0.8353896504588918  0.5806885836232929
  0.3311738083164417  0.7484319068623144  0.4193547462302066
  0.1658820418746856  0.6662713390677172  0.3342244573551374
  0.4155341479634558  0.9994798372942233  0.0850534875351733
  0.4991768465462588  0.3316758055291561  0.4996500148560868
  0.4150752116285343  0.4990142284186539  0.7484870793918788
  0.4159787410745919  0.3329285593194281  0.0850435288722945
  0.4986510135150781  0.6691738543865586  0.6670600579759818
  0.3334138807624840  0.7517539614686803  0.7503519410988052
  0.4987269028131504  0.6700196741321935  0.4975877761824037
  0.4992212291720294  0.7492659023506635  0.4194435097300205
  0.3319137453041539  0.9165175125605751  0.2517512398393340
  0.4992798049308168  0.7505592386076946  0.2502031804933225
  0.0851492586837225  0.8355020829842665  0.7500377502016908
  0.5796193932032790  0.6694624859108027  0.9169628008720767
  0.6655430003218151  0.6738498276181594  0.6650988531398236
  0.4970832361955508  0.4989340228136252  0.4982977786048102
  0.4152966055262985  0.6662353015678928  0.2509811183253711
  0.6636959106969713  0.5831572425355451  0.9145118652061743
  0.4977079020860991  0.4157509922418203  0.2531366713801677
  0.5808019363157811  0.7516228927269024  0.1691120678117782
  0.5729481591976544  0.5819350191862864  0.0017848560839871
  0.5839770637818312  0.4972037073495468  0.9160781025930909
  0.3318513283312979  0.7491880460130145  0.2515800679463626
  0.4158045747769483  0.3307813109169802  0.4165564643550826
  0.4149414551358596  0.4994226190689584  0.9155197282368920
  0.5805599660215389  0.4123903694462119  0.8334341482060940
  0.4964729133168492  0.4128196058398901  0.0846050692902402
  0.8346442450462194  0.5824166193061447  0.5802056569402176
  0.6633491207986940  0.4120915138294330  0.7481436543016992
  0.1673355880852033  0.8347498555854166  0.3347493363544114
  0.4985296291634967  0.7535150318915417  0.0839191701341934
  0.2498559488443819  0.9154794846389213  0.3341920066552947
  0.3327361557383801  0.0842750621193948  0.7483254692285384
  0.1674875668609073  0.8333156852204576  0.1662392459689796
  0.5728439410905654  0.5843340424706893  0.6652497719554150
  0.4190520705702946  0.5824711014315311  0.0006732451208374
  0.3338870268789825  0.9188769779752344  0.7483607670529512
  0.4992407877536060  0.0001054591004693  0.4978667318707465
  0.4994035735518061  0.1654847177596812  0.6664723424644154
  0.4982278826465793  0.1659725323302704  0.8332819501290530
  0.3324819098222361  0.0839317637966224  0.9159064439286634
  0.1664998897526723  0.9173149256648652  0.5817545040883142
  0.1653807960100082  0.8355450292571774  0.5018927843080498
  0.1667002450685689  0.9993548338803226  0.8341262595302287
  0.1673812848301958  0.9187273222678198  0.9151430919354853
  0.5814987687237214  0.9189040699900173  0.6644378814425753
  0.2509329768811289  0.7516268902443014  0.6656543504095492
  0.1659360573009597  0.6666114074210603  0.5028655221918474
  0.4154361529180425  0.3318656934938209  0.7478060640566645
  0.2519165731337840  0.7530730446688816  0.9996469457905854
  0.2504542904546786  0.5831174429407479  0.8332904460999794
  0.4986530984211848  0.7532865431426164  0.7487938220537884
  0.0864774060853909  0.6673787337108836  0.7497859429073804
  0.2510520940566933  0.4992415938796614  0.5820794042096932
  0.1658078871285809  0.0826298006964134  0.2508890576029008
  0.4982249549336564  0.6694997747052623  0.9983158347533072
  0.3327054676458994  0.5829433189198577  0.7498215541114850
  0.3338139405607462  0.5833250513192227  0.5826624863196224
  0.4153230623279492  0.8364705517768033  0.0839086319132719
  0.4156964117766171  0.1653334198237140  0.0839129337580850
  0.2497814664529828  0.2499412024747365  0.3342136406052442
  0.4166378060434827  0.6680357835067836  0.9159467608957785
  0.3331228393156275  0.4998309418198802  0.5007368312792667
  0.1678748919848856  0.5835450224997272  0.7494631376338228
  0.4152127475123683  0.4134273509532773  0.6653452210915141
  0.4155944267364106  0.0837358983094079  0.3331134211658401
  0.4141330011737095  0.5009000358823271  0.5820706298010243
  0.4979627820578231  0.6675134772756751  0.8343636930048552
  0.2500418160073999  0.4156139454802328  0.6661680812122293
  0.4148095921672531  0.5001166243885498  0.4180388001014648
  0.3321470831625044  0.4165674295024484  0.2525686614148982
  0.2490463894340185  0.3307432959292873  0.9153646484964224
  0.5787691879450398  0.3321428012834061  0.0850515491422647
  0.3343149889158701  0.5840527331568116  0.0821950954366362
  0.5795910371743322  0.5830678435082283  0.1669006191682225
  0.4148503388936511  0.5838779755880381  0.3340916999274553
  0.0853834431302618  0.6653174322524614  0.5800318000572952
  0.5815369711875679  0.9195355399366429  0.0007609966877988
  0.4143323877221963  0.3309303535598667  0.9153376243529127
  0.3324067615626027  0.3311457781867502  0.5002814040553435
  0.3334283596905699  0.4141876324202838  0.0829079728933457
  0.4977495325951712  0.9186623612988414  0.4175126481009012
  0.9169137656104798  0.5811310090258313  0.4989175710753922
  0.8301614297245209  0.4992389977593236  0.1697290002395073
  0.6631090764626955  0.4961810473708054  0.1685819942294781
  0.9153241870727538  0.4990068907946108  0.0981611492883556
  0.0826452504148503  0.2478427081163401  0.6663008336793749
  0.9169705430430857  0.3333245555731625  0.5820509485795512
  0.8340205657404934  0.3323552134366661  0.4980193900730799
  0.9165650855626813  0.4173419315430057  0.3330608087646756
  0.9168685617628249  0.3334050265052251  0.2522097185918847
  0.9151483018361463  0.4144612511357695  0.1692169385140118
  0.6645522417945198  0.4925227058491781  0.0028995375241903
  0.8338052322890784  0.2464749719470405  0.9151368579557631
  0.9994072168853926  0.2497456558628815  0.5832155273946571
  0.8335664312948706  0.1669223745074202  0.6658161951462120
  0.8330537232060254  0.1672720303874243  0.4984190861111136
  0.9172400714622319  0.0837490940656402  0.3327112188683653
  0.9155972030873617  0.1666323382975244  0.2507870212262999
  0.0012120040375088  0.2483714160427679  0.9175679829810859
  0.6639236478843331  0.4098271448886304  0.9158313560168617
  0.8329091058114204  0.9990000389731465  0.6647848048881957
  0.8331453588940765  0.0001742248465185  0.4985769389024216
  0.7490324980068129  0.0835690777340636  0.3334680053318381
  0.8337929103434971  0.1661150086337328  0.8330105413699985
  0.7484749963860742  0.9192352245672235  0.0024193800434713
  0.1698253994301921  0.5864405818518323  0.9152055938661269
  0.9143559953215615  0.5882725813548129  0.0060632983351368
  0.5816334777414960  0.2489887125803488  0.4997474111443987
  0.0833415013050469  0.0819576731916549  0.9998903762851866
  0.7536908706318293  0.5864271692096966  0.0044835892159036
  0.5826053232665264  0.7518393419042423  0.4981384461594252
  0.9167904070430218  0.1663416721625417  0.9158070394363439
  0.7484830640537593  0.9173671339956468  0.3337806645257163
  0.8336375190463789  0.0001041025989238  0.1679468456459367
  0.9179701738943747  0.6699049607060464  0.7525440111012864
  0.9169683879492666  0.5005641826175671  0.2480891173232066
  0.7466169617969457  0.6700349732043294  0.7434743005856329
  0.0013619115001577  0.6680129597709401  0.3349723510266025
  0.7481734155976237  0.7509455335041331  0.4978604722904938
  0.8331762999459840  0.6685950945477076  0.3344629031224899
  0.0030494403520489  0.6706547831318163  0.1667119371347928
  0.8325299983157138  0.7532011724723922  0.0865684487064531
  0.9147478247258739  0.0000855970871999  0.7482587824054088
  0.0007105603282841  0.2492440986326808  0.4157009020585599
  0.9155394672125045  0.9158403223160887  0.3332975439148741
  0.9171929517790693  0.9987869882126094  0.0852472393085674
  0.9169146465684703  0.4999972093122609  0.9174066104843364
  0.6648706503455596  0.1657823679392196  0.0021117070751063
  0.7489565366629604  0.2503504123395660  0.3329041941922081
  0.5819022093403690  0.2506868459199498  0.3344052117630671
  0.5808028395866975  0.2491462155397285  0.1670635477118127
  0.8249490349554046  0.5862177080529831  0.9162106405667940
  0.9164753954826126  0.6791738825885506  0.9188990083793860
  0.8304416333549715  0.4980858511504509  0.8223128661830749
  0.8349444111693508  0.4124131066928482  0.5805022525059859
  0.9157044035426642  0.5781143768009493  0.6637496045793806
  0.4973060777211199  0.9182712740899561  0.2532590678824535
  0.9154041707122670  0.1653229952177947  0.0841972879657888
  0.8336279981175634  0.4061357958995609  0.9172482018996322
  0.7502138094125280  0.2487134217022853  0.6655065312124204
  0.6643292155747372  0.7521335290199714  0.2499292404511340
  0.6642768101878355  0.3304947749324694  0.0016324856048284
  0.6639804973190203  0.4108797092050242  0.0849803643980704
  0.8320051331972523  0.9981417055178946  0.8330651785959446
  0.9161287277773841  0.8367072519202460  0.7488021146489330
  0.7482743993000843  0.3312121041237817  0.2525895629918669
  0.6661941729485708  0.0843749883285787  0.5826176342664978
  0.4159697142874477  0.8358522944034193  0.9152335928313385
  0.8320180214387429  0.1664533445676252  0.1681119596105722
  0.6658958523169485  0.0841168887937946  0.2502520986984677
  0.6643043042102263  0.0001351793600138  0.0011366224776716
  0.6675722630368456  0.9180164417057470  0.4164642661794916
  0.5805799408906014  0.9198361299757831  0.8323949263871154
  0.2483741879518486  0.9992529453180123  0.9152256514685447
  0.6673775857892645  0.0843817877416480  0.4159365081766936
  0.9151431995969671  0.6653887890883984  0.5737838089536461
  0.5819539493412813  0.8361036207554482  0.5823265615764852
  0.6644263533230635  0.9993235056902933  0.1693527986512038
  0.7500955099669697  0.9194274723104592  0.6638237101523751
  0.6631846139019832  0.8347377048353389  0.1697452097206192
  0.6655173739561365  0.1670318246041439  0.8336529868150997
  0.9170168881410214  0.8354430724824776  0.9188040517399312
  0.7488833056802828  0.0839059737225222  0.0019042858201053
  0.7498058787460864  0.9178192575524546  0.8327904444656332
  0.6634057307475757  0.7547733594406488  0.0881838530774989
  0.7469100188791443  0.6710407458604113  0.9232323850480696
  0.7478206336012980  0.7590611425209853  0.8319076269333735
  0.6646025772898788  0.5823698613591423  0.5735352460551695
  0.6645316436322111  0.7540925153002103  0.7477532158399145
  0.6664076633592888  0.7516532268450381  0.4155927963291281
  0.5824075597553650  0.5825305768959411  0.3337842154261560
  0.5823422623495944  0.3304233925159076  0.5800364157896999
  0.7477533213098320  0.4998149242292456  0.2509400287741921
  0.6664866004973022  0.9991617063229632  0.8333739290645247
  0.7363905117409815  0.4959446960047429  0.9150051243412525
  0.6651913733504653  0.5821867209611410  0.4169792930169008
  0.6663310552400101  0.4921912144930604  0.6654308990557720
  0.6661550478122561  0.4992123334946765  0.4983384642810776
  0.5812537896482793  0.3315172050167099  0.4182372682281829
  0.9158705761196478  0.8352181353946344  0.5789014472268131
  0.6641400343285935  0.2467298093575619  0.9172475851347467
  0.6629692844738915  0.5821805172884312  0.7531757394449343
  0.6633202810037557  0.5816500218331170  0.0955094948183222
  0.1693102521519793  0.5859788012152557  0.0841452655945398
  0.9982211310862906  0.9168794905071880  0.9179410955655372
  0.9975189973360679  0.0839391043813151  0.9158768070407147
  0.8260253067551485  0.4979616727978498  0.0039882237803960
  0.1684668909356143  0.4161014425240206  0.0835527845207173
  0.0839886794534643  0.9991894726871934  0.2508071101709434
  0.0877135668459383  0.4213163488018328  0.1665626921293753
  0.2502258026235173  0.5004632195546754  0.4178348466660841
  0.0850111945095664  0.4177975860205148  0.3344679170176096
  0.0012499083423940  0.7505294681842004  0.4156157879866646
  0.0839722411668378  0.2469183719157655  0.9998009133281439
  0.0852305868348454  0.7530454703801092  0.9994498106320154
  0.1643100992446391  0.3341340675292644  0.4996582062252237
  0.1734503572136300  0.3327867269740281  0.1664872536475120
  0.0014019496298871  0.8352153051130021  0.1658337073641612
  0.9989065977272439  0.0822128679639606  0.5826397604732562
  0.0839735201287121  0.7508944261032325  0.1662927283819038
  0.0845206135994399  0.9167088646973552  0.3343180870968709
  0.0848789293926900  0.4151196403182018  0.6673995885761850
  0.0063632588140577  0.5879222281320121  0.9167520155439434
  0.9981634530855292  0.1663460476818741  0.8328836887734710
  0.4965046912567034  0.5828643044020351  0.0841570584190316
  0.9158605008581566  0.1652600510888735  0.7498311325373415
  0.3318265995432422  0.2487364476499622  0.5828236205591837
  0.1641774461869412  0.1657930384629188  0.4991228333990157
  0.1637737858366522  0.1659687100860832  0.6670943170828793
  0.7482721206406386  0.4948915059782752  0.7465483322518169
  0.0840391573118876  0.3301241309468977  0.9181528174447109
  0.9127806604832510  0.4067900660230950  0.0018475700030670
  0.7469512521012909  0.5800082563673392  0.8291123361938341
  0.0832570182848323  0.7532110474916032  0.8322185185503073
  0.0849633232953276  0.5837392490028305  0.5011934139563989
  0.8325335259773505  0.6703587066928919  0.1685062288126378
  0.0001075192237019  0.0830485573831153  0.4153239476137722
  0.0836281447916226  0.1660620323840998  0.4170396053568425
  0.0820196322947334  0.0822998506855961  0.3341959433008042
  0.2500851115985314  0.2484071361217033  0.8333679714554966
  0.9180348026154359  0.5005717143575500  0.4150452813130786
  0.1654234314761964  0.9182594852492674  0.7490675385406236
  0.0872794832501540  0.5857847693343442  0.1665717700084638
  0.0017270816327743  0.3307769420956814  0.8316213521785660
  0.2497594410331040  0.1658209389226544  0.0840004394621988
  0.0858194697523357  0.5862561710078830  0.3335467684175738
  0.2485742309428494  0.4147315277980373  0.8328459238691323
  0.0848560894198908  0.4149666017086844  0.4995566438970468
  0.0004187220971026  0.9171339906118224  0.0848555158429199
  0.8336481168776538  0.5821434474257590  0.4142253894879815
  0.0842657449312976  0.1651677033030886  0.7481093000245196
  0.0070629588049624  0.5003208253961097  0.0034560438617361
  0.0845207295336554  0.9991809798717161  0.7506580182213745
  0.1677454933993134  0.6667341635683324  0.1651995089479700
  0.1658019315085341  0.4145511310721688  0.7494050622281729
  0.0841329843331686  0.7507079966865530  0.3341887409971157
  0.8329236940694132  0.4160867561589662  0.4147247883379591
  0.0836920097566276  0.2420807609961482  0.1660805445436266
  0.2506798604609488  0.9988872000403363  0.0831745915043049
  0.9986110511924273  0.9991483297043162  0.1658772317316750
  0.8324931179418500  0.3305916788252674  0.8321884813629068
  0.6652717833795120  0.4989540313358112  0.3324174668035392
  0.7481804484794697  0.3305064306706438  0.7482065995801253
  0.7494944832196292  0.4999836155136661  0.4153408650426589
  0.7476796004305502  0.8357845111734926  0.0864256938600620
  0.9169544235414722  0.5839491669285254  0.3322570431726446
  0.5801012400209854  0.6685343161370321  0.0857044779020885
  0.0830705737764492  0.2477251971395307  0.8324311862653834
  0.0857885337749462  0.5012836620075438  0.2506613148101795
  0.7495459557124403  0.7541037942326326  0.6634804606758384
  0.7484174028654599  0.8357678881808096  0.5805059508644522
  0.6590370374110722  0.6698398809759870  0.8326289948592304
  0.5802538732629121  0.7539167267564540  0.0018028828985571
  0.0016703183431508  0.5834710114182693  0.4161786441276645
  0.0007061269318893  0.4177907098424269  0.2505053484181503
  0.8322187573866455  0.6726954977184773  0.0032455172452080
  0.3334841280387373  0.3320606700487246  0.9991585827846718
  0.6655116166409786  0.0011147284804424  0.3337327049135748
  0.7486837817043578  0.6681652429431222  0.2506575763763051
  0.6655169914167024  0.0835832049820078  0.9167918016393246
  0.0013556424155221  0.4148404101365618  0.7481324334076754
  0.1665453887343572  0.0824573122110913  0.9164738190198016
  0.7482980857574687  0.6667786886040596  0.4154194696575341
  0.0004217415287194  0.5820668581908381  0.5816337831845124
  0.7482116816727216  0.6702660352143104  0.0873692456101332
  0.6649280893289782  0.4147757935331995  0.5805320259564546
  0.6650125225666493  0.9182726570984542  0.0848082599590258
  0.0015124149466313  0.7513185143361499  0.2511203121134957
  0.9167258084803346  0.4151733476754932  0.6652059180028511
  0.9178643106930853  0.6692653246980541  0.2508586985479470
  0.7466355286726826  0.4118409125374444  0.8307658959923356
  0.7491557524989551  0.0001059385597065  0.2511555992489213
  0.5805960837064232  0.7521983328246330  0.6647166637862222
  0.0849080936551979  0.6694454577199943  0.0820760055997172
  0.7500062474256198  0.0836646025340313  0.4991467801622923
  0.4982968765156978  0.7531065142501071  0.9163028811054166
  0.9170705338781467  0.8334733296794539  0.2512321430440436
  0.0012292932207021  0.4997308708626609  0.8258999981209335
  0.7473379374871093  0.3300686557390389  0.0849186370312257
  0.0845585359491389  0.4987637709498698  0.5828836562459879
  0.7483532055431554  0.2469562109934005  0.0003821435247210
  0.7483052211974000  0.4112666640315531  0.0020666495824793
  0.0830609031774716  0.3325676786151432  0.5832623115414866
  0.6652421203429817  0.1665369682417513  0.1681517925661591
  0.6643446271119698  0.4146504739540785  0.2515411911161984
  0.6644749482694474  0.5825725022326046  0.2496950027380181
  0.6648120855778082  0.3319452997847056  0.3337457991731467
  0.5807682154815129  0.4146434930135785  0.6641766215205985
  0.7489232637113331  0.3320894844880825  0.4161128613717862
  0.7498179437727475  0.4977726988580173  0.5807194507899133
  0.0841691075231379  0.5002144872637998  0.4165746477353642
  0.7485381578614636  0.6675434733519179  0.5797070866155327
  0.7499197916160898  0.4157887173209363  0.4982883152367968
  0.0855138070777134  0.4996519744889464  0.7486104240021267
  0.5806213913978225  0.4969432398525483  0.7489856552465672
  0.1653343703567156  0.0837910778835201  0.5826754633120826
  0.4154649047828511  0.6674508408795342  0.4162167573319741
  0.4152469308367975  0.7499154483427927  0.3340655894914806
  0.1658689987883717  0.0000058224443609  0.4997144449123885
  0.3330603938934365  0.6673344752915229  0.8327424807783953
  0.3327339164976301  0.7506106022274196  0.5829093304559894
  0.4157691467880314  0.7509352740800482  0.5001827333242853
  0.2509564454691138  0.5835211658745896  0.6666404383749635
  0.3332722702284018  0.6673009637777190  0.6674736837396990
  0.4160830935780198  0.6676222916169449  0.7500828232949881
  0.4166865272560665  0.5834056223819437  0.6665995881830025
  0.2489801925000224  0.0834969899338658  0.3330125991157865
  0.3335520738260813  0.7519533473513980  0.9156325126028283
  0.4159240801230675  0.6677440455175293  0.5828781700011859
  0.9994889481042830  0.9994524147602147  0.6661672894271898
  0.2499025765758353  0.0007611327905913  0.5823966128119368
  0.4159272492072782  0.9185703000751267  0.6649778100878763
  0.6642838664086702  0.0819147305767948  0.0856275515684164
  0.7495664902700814  0.0010694105127226  0.4158848891497532
  0.6651883629867655  0.2478203688096273  0.7488442353632497
  0.0010190781400314  0.8342202455571869  0.3338532228700393
  0.4988207517827927  0.8348018977903883  0.4989151370904251
  0.5821463871678955  0.8368449789858659  0.7481281194308119
  0.0851387105307708  0.6665098862213141  0.4180929204661138
  0.4983396979345529  0.9183979590354741  0.5813721089968392
  0.4983771832179601  0.8356778080102061  0.6652248140824617
  0.2506222838792249  0.7508997231843892  0.1663055555715315
  0.4984671027705421  0.8362176016289427  0.8325960228526574
  0.5816525691546695  0.8375902175084298  0.9166040144539188
  0.5813361872223658  0.9180084017392229  0.3349470063418046
  0.5808591208342028  0.8355255452320184  0.2530460393737403
  0.5807021426404622  0.9179670806099099  0.1689091973268020
  0.0844703865368840  0.7521493871976802  0.6658888535254136
  0.0010768787447838  0.7516495050119443  0.5811897881939698
  0.0011965744138641  0.6665470414218095  0.4990344114289816
  0.4981807939704011  0.8335911645422323  0.3345125306171335
  0.5821589502053717  0.9179729527623206  0.4989072543270286
  0.6655878997702364  0.9187172329332971  0.7488956992233496
  0.0010941825931830  0.7524929626724048  0.0837067564011600
  0.4156342383675793  0.9184902437538411  0.9999134001977912
  0.7479910424696452  0.4139830016675576  0.1695124531681286
  0.0837699565467100  0.8344636991669071  0.4171959750569567
  0.9990618814562959  0.9170512299076463  0.4151090713740865
  0.4969229167474745  0.4983636234054410  0.1681221240289902
  0.4980215433061312  0.4153897583880258  0.4167904102047018
  0.5810827783659945  0.4159458934466811  0.3343699655080885
  0.6653244292367669  0.4160911572560840  0.4160047667406908
  0.8330508317975256  0.8356394916526354  0.6643257849006297
  0.4156849828475106  0.0837090902434600  0.6654488219494490
  0.4988684085495146  0.2484709974103338  0.7488671115161515
  0.8326284739587271  0.0826876299642703  0.2503560180303184
  0.4991408224717739  0.0002612000208274  0.8323588357856416
  0.6661639103696321  0.0007520852772402  0.6655844224950811
  0.4987813961431566  0.0833771387195806  0.9169714996061338
  0.7492514550394199  0.0015178499855099  0.5816382879847803
  0.4973044161870749  0.4964469106082505  0.9992982238324400
  0.7489336120833573  0.1654022766092384  0.9168677700047795
  0.9168852794618985  0.5873302954868468  0.1690798877961849
  0.6663097822575648  0.2485254597099316  0.5819408132327601
  0.0863618144913679  0.5854698076883287  0.8315687050120000
  0.7506064677621050  0.2489660158883041  0.4993025369059114
  0.5824074313986002  0.1664662106068947  0.4155557310691622
  0.7501624110516103  0.1660057356467454  0.7494240823048980
  0.7505046776831179  0.1662298319139887  0.5820694738452240
  0.5826824992923256  0.1654982743064188  0.5826445191812092
  0.6666705876350610  0.1661843742318430  0.6653284974834962
  0.5827899514590775  0.0837609484096467  0.8328749805517758
  0.0016254370649255  0.4994258128766925  0.6654765261620168
  0.6642914984132042  0.2489020225449072  0.0841677157270764
  0.7478945275144642  0.2491433837575088  0.1679882374233762
  0.0015824637509225  0.5849689551998659  0.7477206904758303
  0.2499757323567923  0.4990860126480580  0.7490085668872977
  0.7491489819916201  0.1663631294722451  0.2510494765555379
  0.6634525762633804  0.3311987921266464  0.1684363709013158
  0.6654256644720633  0.2490213615461611  0.4162000605453219
  0.6655831302771714  0.1667617564219592  0.3334709401011021
  0.7476781190551396  0.7541117914640525  0.0036800237545156
  0.9167187108062506  0.4973936310842029  0.7473635744455439
  0.8333495875924258  0.7506917334023280  0.2504986196678372
  0.9170787355597689  0.6700789473169295  0.0858444996769846
  0.9176007531075879  0.7519215800978456  0.1678459396866008
  0.9169338644088711  0.7537072564825631  0.0027287952428894
  0.7496271517838985  0.1664757912065155  0.4159210963964433
  0.0819312868772096  0.0820653568837399  0.8331506163542284
  0.7480397200642275  0.3291930921610584  0.9165493122259182
  0.0011452584780373  0.4157873816449217  0.5827651893984922
  0.6639277537631693  0.8375352383959315  0.8330575452344946
  0.8324570828238858  0.8338773888337722  0.1678094818805271
  0.9172314406399801  0.3319329975171570  0.7486319702197721
  0.9177572609597656  0.7544647144364638  0.8319365079210834
  0.0824767938422217  0.1649514191374770  0.9163591464574334
  0.9997895764683821  0.1652859715616726  0.0003383671203854
  0.9995789205331049  0.2470415248463833  0.0841610517890858
  0.7496992345422513  0.0004517260205898  0.7489396784927441
  0.2510715801047893  0.2483900507367369  0.1665526534283800
  0.7489130441407001  0.9179979179391553  0.1684578187050354
  0.6648931557849007  0.8345640181214603  0.3339123918711482
  0.6660067371608119  0.0013711516142087  0.4983752397436644
  0.7490331189401471  0.8343537799480014  0.4155773000030817
  0.7489841030432347  0.8342545345312026  0.2512740049002283
  0.6657543209148834  0.8351193038889880  0.4982095171663439
  0.6655914555161564  0.9183950828957200  0.5821471455684066
  0.0004713274389880  0.3335349564002007  0.4990188488898585
  0.7494409358866914  0.9185827984206281  0.4985716749360668
  0.6652253006628612  0.3289788610850424  0.8328972189178555
  0.6653499262571773  0.8355025474369445  0.6644780337520544
  0.0837992567009839  0.3327408907929903  0.4159707304530673
  0.4976299913205328  0.8352832766700286  0.1689323425303681
  0.6652257736184413  0.9186204825100566  0.9173610387410582
  0.8322565542227280  0.9998477128570579  0.0013277258890105
  0.9158250649662590  0.9160458115229309  0.1686073514789322
  0.8329011205149708  0.0829275958947146  0.9167516078395802
  0.9158921963624364  0.9994109944880599  0.9174689155157877
  0.2515166919504108  0.6689062945976386  0.9160914753954863
  0.2506371532909367  0.9174149090602189  0.8312597119862019
  0.1680591026532355  0.8346818421866474  0.9992498571949768
  0.2503563750330795  0.8342806043287253  0.0836625870572726
  0.0843789648102617  0.9167121404939410  0.1669407308019562
  0.1670209744837362  0.9163192189466126  0.2504755991597585
  0.2494969384537087  0.8326363031656367  0.2509093276246309
  0.1674123511993292  0.3332437122642566  0.3342998670990144
  0.1669753896231141  0.9171243217397944  0.4175226311555797
  0.2495166880638085  0.8332077471383552  0.4178156515864189
  0.0830806474381384  0.9996365724626892  0.0842752383380062
  0.4154233148738476  0.7525368146035148  0.9992787401465971
  0.4983372676697792  0.4152863943456338  0.5817471882670997
  0.3337773426439979  0.6680111964596650  0.1666941865191539
  0.2509960110085564  0.3327391284560089  0.0829423324322884
  0.2486678045616597  0.7501692434558366  0.3347600470307496
  0.2503122540142968  0.6669492308917828  0.5836891705009556
  0.2495839554991056  0.5844612689829876  0.5000627688160336
  0.1699077205088292  0.5006812252553271  0.0011505076138018
  0.9169178109530212  0.2487648010587396  0.6655271416950126
  0.8329070711972920  0.9175119825659344  0.5816380071531800
  0.9161691303607560  0.9176437611490242  0.4990092480845677
  0.0818722582448885  0.9181084157495982  0.4996018951172051
  0.8327664513368875  0.9171117874584379  0.7485410778225796
  0.8333420909929102  0.0837579652058032  0.4156307697048575
  0.9994938227089457  0.9993184178105273  0.3327397082846510
  0.7480119435987711  0.8371088820761006  0.7479662315975772
  0.8321662038379499  0.9175288728914518  0.9173701021304607
  0.7473398259230819  0.8371685455584771  0.9183193729229965
  0.9164565364541923  0.9176638376355974  0.8329521149476004
  0.2494440405017576  0.9998135350287493  0.2510933247326336
  0.0833336891292249  0.0825998923118391  0.1674117895745280
  0.9995762674587954  0.0825434477761339  0.2503062661521599
  0.8321578640623049  0.0822387440424364  0.7491945180051612
  0.1661297892974441  0.2477196088209827  0.9163283338722720
  0.0824278625879033  0.0005937010779618  0.5820833450055457
  0.9160418152409582  0.0827459154588162  0.6657328596387233
  0.6658046050979647  0.9179251688251361  0.2510859960807877
  0.9160735989149780  0.5843921346820180  0.8255757693433530
  0.2506596915916410  0.5002807782450881  0.2507287047529699
  0.1675835869279550  0.4990230499789560  0.6665270244216586
  0.2504471188945118  0.8350953223960057  0.9152235829452963
  0.4992034819883411  0.9187875278194042  0.7481707166327163
  0.3316110952763897  0.2486866087190503  0.4179212440816290
  0.2498199661578600  0.0831735348557840  0.8322889094074375
  0.2487290435460418  0.1659406126988665  0.5829202919951759
  0.3331050715091524  0.2485340187812891  0.0830896678756766
  0.1668947224649950  0.7506803748524751  0.2501222006993381
  0.2481052389792337  0.3318249695649962  0.5829365443402922
  0.9998871910823852  0.8344024245630256  0.4991253226994570
  0.9999077852260021  0.1667498936776498  0.3325116909666856