Cr H  Ni
 1.0000000000000000
    38.5941866592863434    0.0000000000000000    0.0000000000000000
     0.0000000000000000   38.5941866592863434    0.0000000000000000
     0.0000000000000000    0.0000000000000000   38.5941866592863434
 Cr  H   Ni 
 1596 106 3725
Direct
  0.9287627641728442  0.8701384755741806  0.0108901952798661
  0.4877635474343429  0.1312431058064536  0.7908545647881463
  0.4776114949913967  0.1760056431009171  0.8334725706432374
  0.4895201781100172  0.1660304083882737  0.8972008952068553
  0.7947597371344585  0.2393078993571397  0.2050221769337897
  0.5935514057500775  0.2065571277254895  0.9302247095090945
  0.5397447348060099  0.2071277565597742  0.9598492625410584
  0.7440898172126058  0.2398976908933584  0.3002212984714036
  0.8458966730855942  0.1915438038819592  0.2922885625960890
  0.4093800611811420  0.0298350410912082  0.7855745843323456
  0.1910348888493988  0.6287310320263388  0.5181622890059947
  0.3397946917747117  0.0841858317410229  0.8080599137145776
  0.3534956503981073  0.1431005603867130  0.5174512335259343
  0.7998210238169755  0.2853540870164768  0.2493947996725642
  0.6973302502174683  0.3170707860715928  0.3197658560152721
  0.4574949211553757  0.1584375161936421  0.5954772068155163
  0.5513184347873267  0.5019988009808406  0.3304243688761945
  0.4329474164277412  0.2183271496169209  0.5829855041219785
  0.5668665757548967  0.7016532893627437  0.4417374484104247
  0.5280756135928633  0.7769190594928579  0.4566559418609613
  0.7737165775233596  0.8802499429945136  0.9621276602552365
  0.3622766185310984  0.7284843870997029  0.7303230585087953
  0.4894877173006829  0.8946431826338938  0.5196678258769403
  0.9979445711248109  0.0959565264816458  0.3726652341330835
  0.4718551724598491  0.7595898350894753  0.8199836393496430
  0.5601944126435850  0.8146872125937051  0.7836943183012133
  0.2624205219849347  0.7518419988547069  0.9206271801576656
  0.4842117784845867  0.7480849553988727  0.8805019668755975
  0.3632987294854158  0.7994134010463583  0.9448681195126539
  0.4372791328704698  0.8293272333153430  0.7418223521573811
  0.6123671672543374  0.8231052962067192  0.6515200519757443
  0.7947591619375830  0.8218024877051530  0.2450584290340719
  0.3252769745401179  0.7492676715222516  0.9446230073797061
  0.3855653879711292  0.8229461936218360  0.5599114981668571
  0.2848096967352117  0.8541789225370098  0.9662220295865094
  0.0302224905018413  0.5490366033102663  0.6495513468877468
  0.4033830520771229  0.7473369806833408  0.6316593410284005
  0.2660895272968352  0.6538658682400982  0.5938483989495675
  0.0781192585274111  0.5874561982198373  0.7117757990296670
  0.9914500119848757  0.5320672952960193  0.7493367911046249
  0.0889863195778545  0.5757526694527740  0.7724081881995279
  0.2506072445041935  0.7641009338350313  0.8559253449846057
  0.2288693467448395  0.7864154526467324  0.7326153394284469
  0.8305158805858075  0.7040844934812425  0.4194047091531859
  0.6076467956995601  0.8876173208258524  0.9562755147916197
  0.4050277203883935  0.8612793935089472  0.0494271352566452
  0.8924065049173799  0.7084818055375108  0.9685822933067746
  0.4318835032124942  0.8001019709691261  0.5322898697314954
  0.0161524130502271  0.9483358360640570  0.2911945810661472
  0.4146873218669585  0.1115782392749322  0.6009129951699084
  0.4669227574238520  0.1521653492594204  0.6612980961808307
  0.5040441944401047  0.6083694099017938  0.4530527055060810
  0.5077629463772383  0.6080204395066198  0.2219568824713468
  0.5433902036845152  0.2873197826540669  0.7810267576354898
  0.4669855687770464  0.2883427872222970  0.5322709107514942
  0.8218982354903669  0.9566318970775423  0.6766257191832785
  0.7760133906940102  0.8793052903580155  0.6730649734515035
  0.6904231767419166  0.5703256706897343  0.6423267459173128
  0.6703094897217460  0.6264349889454223  0.6272398240415283
  0.6653885700503617  0.6670748142747481  0.4433380636738277
  0.6517028984162005  0.6839257921113829  0.6106005629373770
  0.6665787807720708  0.6595043480138003  0.7348242592634383
  0.2643958351559055  0.7936359339278003  0.1953505025659360
  0.5385115981414439  0.0487070054659108  0.9421643091546785
  0.8844085008896813  0.9324552309979846  0.6984702850128932
  0.6265283728438421  0.9603557119375251  0.8345250651298174
  0.8543702131986745  0.2855467433247834  0.3815281363833076
  0.8454148516161305  0.1764278100236814  0.3528036207468246
  0.5208958377174329  0.7183408282781918  0.4735559264273348
  0.8921619738210417  0.0975612485657758  0.3343150013289271
  0.9823834735136971  0.0989261020594518  0.4607197159532534
  0.4268198017095683  0.1035870651223712  0.6621183050297498
  0.0532705097320429  0.1256559449908353  0.3827222188911112
  0.6015201451697703  0.5161590054530308  0.6777957209929871
  0.6719134669176574  0.4116418682129577  0.9471104205515897
  0.9000173282330652  0.1891950307787721  0.4237840550522142
  0.5889057826498361  0.5598379530793275  0.7214118528687630
  0.9062914453655843  0.2525183966167498  0.4083873022030130
  0.7006270955823116  0.5572950916314650  0.7037218190875112
  0.6727322728590004  0.4937377669704574  0.7597364233219659
  0.7969191540094238  0.6300561138385335  0.8386467762749613
  0.8572764165732314  0.3179005781920532  0.4878729903659088
  0.9083195187751585  0.2992666171384026  0.4551869079702046
  0.7539200938094418  0.3648717159193879  0.4985037442065273
  0.7738019789355034  0.7240530260209277  0.9235391439592100
  0.8127128634246362  0.4494374773233073  0.4916975428233185
  0.4720411922572575  0.5472886146131590  0.5740349852445221
  0.7534044240497182  0.7451354149771613  0.8010668724860249
  0.6064159195767552  0.6574653039133895  0.5410092761835147
  0.7759067115190122  0.6885315408886387  0.8189303707927439
  0.6819522491979551  0.7667422019406221  0.7182450728299885
  0.4812993600666586  0.2597259451893172  0.6541520706207316
  0.6935150392908890  0.2862138855082133  0.2143108041303072
  0.5321172166867140  0.3321008629542797  0.8214086589202038
  0.5936779816047220  0.3255771945270556  0.8428289716712681
  0.6903363130719378  0.3350454955051205  0.0310141959850878
  0.3505309746844794  0.0813710781097636  0.5301660573105216
  0.8446875369823347  0.6682968050168661  0.9034778952202814
  0.4542241857107534  0.6408378233681317  0.4296542860947254
  0.8917309670219613  0.7314562453589852  0.1983158543357122
  0.0307921657851262  0.0143757000041177  0.6794497522781415
  0.0244972112875117  0.6030817965726647  0.0151778711337091
  0.0751121089069306  0.9364050268484664  0.8224436897124296
  0.8564959408705912  0.9170732136042788  0.4715818331146649
  0.8565048925834866  0.9320139378116797  0.4114720591827687
  0.9860281591871908  0.6677061305372105  0.6113922699290431
  0.1815101818445052  0.9899624967632537  0.5070912059594908
  0.1884320374751940  0.2346453190605315  0.8913347164962170
  0.7533802446024187  0.3940674034255516  0.1485471462770360
  0.8118701719576195  0.4560074839216694  0.2628698768468815
  0.1768007116610241  0.9292976545460038  0.5276728787820278
  0.8592492751219271  0.3930213990326140  0.1840220186169785
  0.0892933990732425  0.1898600385742112  0.8677251507651835
  0.1422398099004476  0.9001095046746811  0.5780655450403070
  0.8592912406000639  0.3777523446425348  0.2450306421352895
  0.9563070885318886  0.2029765778382908  0.4964447508766531
  0.0103771738755970  0.2493816753376147  0.4430618135835244
  0.3092408508914680  0.7313898980556314  0.3453937714607825
  0.2469076855331285  0.6741843209508731  0.4679680793203222
  0.0861614943256384  0.0996845374067357  0.4974882030286824
  0.8609928213286331  0.2377180293580044  0.9468800878168546
  0.0511209807561491  0.2177273890826490  0.0170324240399523
  0.7731268216569889  0.0108792187167026  0.2115859762900551
  0.9805668404934632  0.0766182610572492  0.9690909294284187
  0.5200391620752020  0.1252798463475752  0.0277430249955327
  0.8671951690623412  0.4260595653962457  0.7830162520202172
  0.9729063711376476  0.3214659917612721  0.7459819667617019
  0.0000482382043224  0.3839075699969376  0.6863908074614665
  0.0991111092899033  0.4097289439827630  0.8050764371532785
  0.9998378824601072  0.4001393844573189  0.8869604403293536
  0.7376042917202555  0.1317011509381685  0.4995556848458912
  0.5180119457586756  0.1048604767058849  0.0921832860783043
  0.6281925030835376  0.1784689073533184  0.0534570929245717
  0.9769021962367896  0.4240891005033896  0.7629156055874081
  0.4710904716154093  0.1791692718218947  0.1110131080842470
  0.7844099680705066  0.1817933047343277  0.6571896435809143
  0.0050856137854648  0.8254470583930368  0.0938528888660543
  0.4609438153493455  0.0901888103404772  0.0166481552661541
  0.4081966300697041  0.0995736974678645  0.9960537804895215
  0.4178708564181381  0.1661986682143361  0.0371196339128766
  0.9110535351511930  0.0460603809082307  0.8406959638597343
  0.9020754615035943  0.0920023949454184  0.8836668369010847
  0.4169044535019316  0.2455241785744201  0.0213732156221589
  0.0017511444511351  0.1346165175186279  0.9086832729625213
  0.9298235711428393  0.1523903710262468  0.8232286827226630
  0.9373368961198558  0.1652338582164146  0.9929913361076510
  0.8707095233345407  0.0232583965969624  0.9458887352852379
  0.3910719002638898  0.3712732596498404  0.6526680531601954
  0.2313658035681431  0.4200834200667259  0.0742832352091355
  0.9761436245504321  0.5311906356296903  0.5268676463739866
  0.1845247929748796  0.4480123201208318  0.0522734598896805
  0.7652748911862285  0.0597943618837640  0.5666502242179271
  0.2345269895277887  0.4838949070262388  0.0565023929642721
  0.8672708926176286  0.1227591998736399  0.6957990982100236
  0.8784345533298996  0.1131812451493404  0.7584343399499457
  0.9492544841720748  0.0952836738349955  0.8436852609727937
  0.9577752939897919  0.2142857288589271  0.7627772336902603
  0.9692043795376697  0.2030940031279081  0.8249028145338794
  0.1014417861627704  0.7168373956087269  0.1039412686687366
  0.7908287533389715  0.1481133617656070  0.3429855171366684
  0.8366484780529713  0.0849624845283139  0.2629549085417432
  0.8995043582244705  0.6095711332424983  0.6511485830072065
  0.8505703741425354  0.5710086105168419  0.5861075657432508
  0.6878901104581107  0.1936680547913052  0.3522910650921641
  0.9565830150627567  0.6347519644033552  0.7763547242978639
  0.6421849064490384  0.2703315287219312  0.3707999627235177
  0.5956476440234741  0.3333606037412365  0.4505770826101528
  0.5467872748094109  0.4243564966844550  0.4070403798956382
  0.8109258734509480  0.5533727214208791  0.6871973197623403
  0.8585352075996917  0.5912362749405980  0.7543778616728212
  0.5020058588614434  0.5456167679993039  0.4741384355268575
  0.5031220405131669  0.5622470174864936  0.4109842427735459
  0.5147003926670187  0.6852601760487093  0.3701404006499736
  0.2585401706971525  0.3594954745461645  0.0474049269235303
  0.8895424008017561  0.3857872872252480  0.7067945720191912
  0.3747958072478215  0.2688841625524496  0.1679245867882797
  0.9966570632908025  0.2983735297307638  0.8684160901245960
  0.8021847865160502  0.0482392544387667  0.8635035059091566
  0.7514130001400705  0.0439782784942004  0.9001796008727017
  0.8126561255818453  0.0420639442971711  0.9275320595803455
  0.5781965178750323  0.1642310954998125  0.2109321728234415
  0.9826103972133973  0.6858500758044830  0.5539859550167368
  0.4346791589898206  0.3609391305247670  0.1615519533302668
  0.8358554362743172  0.9633044963840612  0.7353638510179773
  0.5726523065608687  0.1515898944024441  0.0407146283609937
  0.8284965588688467  0.1511883597320789  0.5642612589301002
  0.4682353596199045  0.1953280858141695  0.0467902564455125
  0.9453979676551941  0.2251196299212226  0.7020753365662499
  0.9443883582512999  0.4605342225859619  0.5830237141955189
  0.5308027593477674  0.2713032517453149  0.1072785874458169
  0.1787242064460613  0.5860703539055355  0.0143060622967551
  0.1776299135418626  0.4373410123540608  0.1126754264800214
  0.7865596763977535  0.1156240589232651  0.4650834439564030
  0.7927854824059050  0.1363594785004321  0.6133473113785839
  0.7367122122542116  0.1465285959768186  0.4388284567181815
  0.6876303979197529  0.1632867050867682  0.4765541396257143
  0.8938901489266523  0.1826336272388434  0.6367717617973261
  0.0351190730258238  0.6404885131759822  0.5184119091213125
  0.3878575105238797  0.4216197857401168  0.2417547441133228
  0.9604149915227614  0.5732115267844247  0.5627659041177384
  0.1734717723530632  0.5110563520411865  0.8099856289821040
  0.8020207441289308  0.2849320069328791  0.4772800704361159
  0.7947495584894303  0.4438504420728165  0.7001398357613899
  0.7938870260188847  0.1924321570235834  0.3862900526565445
  0.7277589894595063  0.3481184447016516  0.6594252788740727
  0.6677744434548250  0.3577297004038753  0.6390361950622421
  0.7781802786638303  0.3534018856474389  0.6242737513682961
  0.7025474504860219  0.2632857993752487  0.5598439761391180
  0.9660778332768035  0.6542385022854774  0.9435029242511087
  0.9206179837239973  0.0227275329542583  0.4054035682379136
  0.9776897716719009  0.6088015393336124  0.8990665000317046
  0.3336723210488515  0.8938767039268187  0.5830086929965268
  0.8929402571508689  0.5230325863794141  0.8285640505946542
  0.1683997548289639  0.8207489877165419  0.4924993190740705
  0.3563513889995506  0.7006977497596750  0.3721142570227711
  0.9396755765526410  0.4083130644905753  0.8657509854035778
  0.6747899228549056  0.1902751424006970  0.6780302389090073
  0.3164374416957608  0.7925200606281618  0.3249880976191831
  0.6388461080076495  0.1417364753316671  0.6668771712556061
  0.6477680212609663  0.2238422204617881  0.5570995579964216
  0.2097421529385848  0.7768029349524983  0.3526772892534646
  0.5792098114016393  0.7865080053075315  0.0648066246062604
  0.4975295633516179  0.8891410003084399  0.9727103919554916
  0.6485533602051990  0.3626686216362349  0.4596544177794676
  0.2781908454296363  0.9153862837389795  0.3898541914949956
  0.8562443402087734  0.5077631439100803  0.9258681397143161
  0.9296481063834786  0.6757001377339762  0.5914891944732302
  0.2265951572265822  0.9159080720451593  0.4912360950609179
  0.2205508406969130  0.8690863524397900  0.4431247485133060
  0.8085762336092014  0.7034675710774078  0.4941825409214518
  0.8325598256196237  0.4960227131076423  0.7040344265342965
  0.8813647036221245  0.5341934432786750  0.7699143911020131
  0.9397900437228091  0.7933752282773481  0.5736304801717071
  0.7708886081479167  0.5377284095281106  0.7858630875966527
  0.8508486487927142  0.2059264907631361  0.4567687751921826
  0.7401820237385269  0.3396872432821104  0.7221675370295852
  0.7027481307298380  0.2882535909617247  0.7195820822087585
  0.6419346656322696  0.2960738572080844  0.6991044413001493
  0.8935024507567184  0.1280120854784046  0.4407757871135013
  0.5919368076947218  0.2572605120899478  0.6396420487381845
  0.8737574228347282  0.0877847803757284  0.4830530430709045
  0.6420448910621176  0.2609409907724828  0.5966039720493664
  0.5424505968882700  0.2144820331067261  0.5773348256690094
  0.5465855974436205  0.5120018331692116  0.4947894974620166
  0.8887385814153981  0.5529089437001714  0.9435085355929483
  0.6522679569733655  0.4693625152969447  0.4841743788879422
  0.9173304018909960  0.4985274525465225  0.9487107984926388
  0.8616393916141581  0.2875835897505440  0.6613186820934840
  0.8518692415815743  0.2987539642394628  0.6015911005749187
  0.9238943623331081  0.3522097735087710  0.8886080532226525
  0.0406150774369257  0.6738848336177482  0.1609759460994133
  0.6534853042164074  0.0029512971112759  0.8721077787073994
  0.4000039178549585  0.6091922492396773  0.4201401817111922
  0.4496606230473120  0.5459728169339956  0.3392472301203733
  0.6857865291734470  0.0950438253769844  0.9265267988568010
  0.6804031906412912  0.0637347547349749  0.8155499491149990
  0.6090589251661148  0.1177917887357978  0.8375619722743691
  0.4460327350197119  0.4693822505799838  0.4142852053298897
  0.6318017601095539  0.0263906899950472  0.7469086274866276
  0.8022902098590285  0.2464364451282159  0.9241807032175785
  0.9162567389114689  0.4307396911993525  0.7418700337074744
  0.7488235440621759  0.2560628500007017  0.4661018836981209
  0.8113708254230735  0.2001007813407912  0.8841833365131649
  0.7090233257556100  0.1248435414343135  0.7575648396671967
  0.7194748456121502  0.1132789401486308  0.8199832759516739
  0.6475148573217157  0.1326154216243274  0.7345072584799193
  0.7192304363551965  0.0786058444459615  0.7179131476739793
  0.7346453769267666  0.1323958970719780  0.2724440176617254
  0.4988985330574894  0.0509847495368330  0.6406602719427325
  0.4935504659343648  0.9270897072341411  0.6274372844144726
  0.4437919742455171  0.9556888545215516  0.6019037124352488
  0.8069500311856910  0.2081650836368337  0.5532834435936069
  0.0072610862566196  0.8547504014768903  0.2000607153693857
  0.1650761783043517  0.8559526920985626  0.3702995469664900
  0.6251171271571747  0.7086421011183754  0.0491155490551397
  0.9488444582169112  0.3443225085058366  0.6224449626199442
  0.1426221423285628  0.6255136532488407  0.1541314981128252
  0.9390067770043846  0.3579858369795207  0.5643631049674849
  0.8505523713842595  0.3059996433751861  0.5439831216800978
  0.8033048291715443  0.2654313964962559  0.5368201758970790
  0.5880402188735148  0.2862288054675965  0.1780718034157685
  0.4996333226286101  0.8549521475412887  0.8678856073392250
  0.6532374656765261  0.9756200126635846  0.3730791145559040
  0.4422460723006560  0.8966260176807606  0.9539638874355144
  0.5493872777717407  0.9158265536172076  0.0474907626143270
  0.7827569747088622  0.7347210744488742  0.3868205124595014
  0.7411581872538008  0.7961604861826362  0.4643444075850629
  0.8661889684458687  0.9151363178444417  0.1561693944197108
  0.3722726734098658  0.0462212509949084  0.9976988418571944
  0.8066720010837074  0.9486007674575371  0.4447355973223457
  0.3915859531867917  0.9319523090653565  0.0417323337034011
  0.3845858324860519  0.0040130102213110  0.9523784523318793
  0.2966107099473679  0.9665964372333874  0.8943283443681289
  0.9719142596628658  0.4866174018364818  0.0830260182776065
  0.3064309685619188  0.9220302336137567  0.8487733532002992
  0.0484717795747302  0.3880025386496586  0.6484243264528792
  0.4522132718890172  0.7345919332753937  0.9852303237988148
  0.9219414774982951  0.2815681790214739  0.6831376849790995
  0.8331261132445928  0.0529903956756916  0.3878726098986816
  0.8347497565375678  0.6720859099100502  0.0715479642558261
  0.0339569882059911  0.7031793640720910  0.6765714901221976
 -0.0019960676850976  0.7791755289303987  0.6020831009003137
  0.7446345008063184  0.8568561952079669  0.4484205105787017
  0.3838694555710311  0.7059205003495787  0.8553986646933823
  0.7787729347224539  0.6879906493663274  0.3473384343433159
  0.9473224013163762  0.1770355054480509  0.1611038842754729
  0.1676945228953461  0.8292170113051500  0.8166457438025546
  0.8872660429279887  0.6993748438487047  0.0896756817778845
  0.1760730885527575  0.2105114931446586  0.7237604027140863
  0.4814723979653509  0.8534256399923126  0.2427883738343437
  0.1274419083428346  0.2049671868012337  0.7638314653274678
  0.4390889540135709  0.9447561766785698  0.1953020434031513
  0.2256605599308445  0.2497558146096961  0.7884466632534177
  0.2044386298688281  0.3058554984309432  0.7707744568336541
  0.4850935608897888  0.8981463207660559  0.2855096351324211
  0.8316880417088789  0.8025575066915573  1.0248649927644189
  0.2974267212449397  0.2319973861057416  0.8724241694324225
  0.2763216015348425  0.2890172266172694  0.8542541688155444
  0.0498905369061271  0.8093491440169047  0.6637217887356904
  0.2803269144482128  0.3256470855610444  0.9590087252748940
  0.3480366117136167  0.2730892141891710  0.9378669323869964
  0.9299719280809456  0.6096932241298787  0.1445903781536943
  0.0420676202366989  0.8177539639542126  0.5905973105795612
  0.0424123468961129  0.8645318857955953  0.6202752243299277
  0.8026229757614658  0.3298950435578071  0.7464356702916604
  0.1492303875972972  0.8253433614849172  0.5861561914207755
  0.0252446361574608  0.0477086371247067  0.5454672634395199
  0.0479695765320594  0.1049085172394387  0.7610250097983233
  0.1817851900991744  0.0797417888637061  0.8671193363922740
  0.7184407216523279  0.6107380936469327  0.2945238978499732
  0.0876116119555189  0.1530168662314986  0.7628098266027270
  0.5053183597252701  0.9392667919644878  0.6848095168070263
  0.8781778931590861  0.6691817860542748  0.6322838683936195
  0.9365216786620033  0.4395805947096815  0.9717745551997133
  0.3017440084299359  0.6711843958869097  0.3668444564808331
  0.7131091471056700  0.9751606124043665  0.9677544883731882
  0.5916517736378761  0.3160370418043243  0.2843871521338022
  0.7504489217378142  0.2090354854906667  0.8636778696723828
  0.6251222200187425  0.0892668344161640  0.9623741326807508
  0.8648048628535597  0.3582307937735190  0.8693547960753513
  0.2942284883712438  0.5770496072709348  0.2800444520607531
  0.9131732038731871  0.3625857686616208  0.8299287272839938
  0.4009982044976356  0.5920396761033798  0.2511860114859765
  0.7645077143156430  0.3159817051867168  0.8466818389343659
  0.3485404030969295  0.5929051191529111  0.3497565980917404
  0.8634094340663863  0.3231109962873439  0.7658272730852457
  0.3409681285339194  0.4982115533773883  0.2611237734700928
  0.4540769177131732  0.6869720796235705  0.9422800124137249
  0.6910588087238467  0.2979657033273460  0.6576549687310890
  0.2567763798499118  0.8827914251624226  0.7818234698677781
  0.4487892692060534  0.9014119679346525  0.0361928699627932
  0.2710688714102666  0.5555383453554376  0.8349083488831854
  0.4256570560812824  0.8558030368779260  0.1126603176363140
  0.0897413037279626  0.6814924721082918  0.5229904447749060
  0.0980473039693267  0.6640816122265877  0.5921897898018065
  0.9022031105053346  0.7500681660379712  0.5164025477605790
  0.6576479855619247  0.9301235648793865  0.0254046193636205
  0.3937475449362842  0.8907965413795377  0.9955985977130026
  0.1416886059364560  0.5220640726158122  0.5266244623104697
  0.6558614702573979  0.0061392697515932  0.4829928369550301
  0.1788730809913222  0.5992344201173960  0.6309035937469560
  0.2375742277573055  0.5915293198967425  0.6511738839187162
  0.9202206735230781  0.5254849568004266  0.5081972507503184
  0.2483211918137505  0.5798369192411921  0.7121061266025448
  0.7833458916571292  0.7621495716000689  0.0275252700022320
  0.1044452729494133  0.6833352254981115  0.7610067392052596
  0.9739329059150148  0.5638970431042959  0.4644784873767695
  0.2974811081644793  0.6172368298827317  0.7795333242352818
  0.3578745029786795  0.6098038707968981  0.8010923364301356
  0.8685570854444423  0.6122153240745127  0.4684429953264669
  0.1920064828532303  0.7386532870375015  0.7251619959132870
  0.3204630399041368  0.5609145271899340  0.7957662089188015
  0.7219274606561781  0.1870361730329844  0.6386824232348532
  0.6624828244540014  0.1980765271256777  0.6201032780589689
  0.7052895807149417  0.3808968904825639  0.5319470825837577
  0.6418644899072988  0.2399975066502787  0.4951429886336129
  0.6902872734770928  0.1513930022500567  0.5424020730589862
  0.4422669848684863  0.4375190313313722  0.3115864039141809
  0.5451712612929356  0.3939799765680743  0.3032011087182241
  0.9882612046902753  0.4449537014526573  0.9265789641106723
  0.9273703147684759  0.4527330237361498  0.9079852154022241
  0.9770229943131519  0.4571389528938183  0.8672733258525627
  0.4848941687166628  0.3147603029102564  0.2493206225210428
  0.7514626796838686  0.2909089065761212  0.6770936032402685
  0.2169012167507635  0.8404031742126438  0.3356289225965046
  0.4014840977091144  0.6320081229125265  0.5318484875646176
  0.7507821136343010  0.3165584961640192  0.4536150414015795
  0.5604125612388875  0.0978507480613881  0.5296275647925830
  0.7479101183676586  0.2701020434410117  0.4067242700952424
  0.6809242923177897  0.1380730550146833  0.6262937337401241
  0.4899487654131530  0.3722754560606921  0.4592291287535989
  0.7577998316364841  0.4289129298264058  0.7994495556786255
  0.7604378564582713  0.3959866626855857  0.6801060837637496
  0.6238816261243025  0.4233563772917321  0.5939471762856015
  0.7080450157366968  0.5027024513233871  0.4953155146240205
  0.7140759227194611  0.4797269023315515  0.5569814375744879
  0.9935227523804085  0.7167527730763159  0.8875797010438999
  0.0520285766748925  0.5587061969333821  0.8725690094642118
  0.3477682084653653  0.6748428848184704  0.5036070516987854
  0.9529641495137539  0.8235249033058120  0.1895004625274119
  0.1072142341429266  0.8679990954658628  0.9026156540278025
  0.4778056825602556  0.8222151388769698  0.1345948246115058
  0.9554051453118712  0.8400898790575116  0.1269568224852861
  0.8388523068274787  0.1946886615590642  0.0627477465464901
  0.3667415841303873  0.4826094021509145  0.9339933863062679
  0.9903796540678815  0.6571920607507465  0.0914388979817717
  0.9984067840557131  0.7159075897913310  0.0642114193972190
  0.1163777513339161  0.8551049406174280  0.9715166372755786
  0.1081827361026940  0.8353171257794675  0.7936983602625496
  0.3332502703735677  0.9506682613395893  0.1686332489984348
  0.7960671291962785  0.8329690271352287  0.1802201091632017
  0.8672199686067459  0.8826078041885671  0.0495295368793169
  0.9510402947394578  0.7758955583491985  0.1450845326957939
  0.3924619406172389  0.5406203167602206  0.8808804834032548
  0.3545118715933612  0.4917287655452419  0.8746656698847031
  0.2284626039949420  0.8545977985240614  0.9460926546125336
  0.4542118179120262  0.5361840444376335  0.8979474425443785
  0.8790711953817889  0.0069226693734244  0.0144693147998415
  0.8314482628251644  0.0871675898494048  0.0288008297065565
  0.2811961577088583  0.6083927605046180  0.5493719739251344
  0.8250653671498228  0.0119954875920395  0.1136582284592444
  0.4180906144330437  0.8029905041471556  0.0672465985306950
  0.9471513104814839  0.1921534860643636  0.1005256417699804
  0.1959801034352590  0.9234265892381370  0.8667463785607350
  0.8930213907989427  0.1631508953510543  0.0905720707832862
  0.0981748809844794  0.1090394164182943  0.7191467876909444
  0.8504568336478919  0.8656573723891231  0.1920473830234594
  0.1554251778749308  0.6981325992685380  0.0660077598282015
  0.0499296435877859  0.7503517600516154  0.0158641126272252
  0.1375507416612748  0.4140154436960896  0.5016765696953025
  0.3818330096229405  0.5189631476529901  0.7134103191058601
  0.5226737408137734  0.7418611529885631  0.1199415247013935
  0.9394960208359288  0.0846412943745330  0.0695997371473504
  0.7567162083999839  0.0835479252594065  0.9474089814406121
  0.8861965814801833  0.1142481208450053  0.0431397288405347
  0.3694798422064643  0.5652197241474328  0.7571049755336939
  0.0212190649051319  0.0442740210284601  0.8203431956880682
  0.2497007748859462  0.9577524067626473  0.9891203689527618
  0.8702324571305927  0.9306505552265069  0.0952253203827104
  0.3038589373094985  0.3504953957654628  0.7942017957323528
  0.2444956535661280  0.9617998563250798  0.9323983801225446
  0.3255976701876224  0.9049015133626738  0.1274726749573413
  0.8384278543746112  0.7131868096478096  0.1219301801161532
  0.2676418678238737  0.9075982212489654  0.9479933968103458
  0.9927243111292419  0.1149479654106544  0.0779025364901926
  0.3616771007942003  0.5442234107641342  0.5918629741739561
  0.8946020220787032  0.7688680490758569  0.0692103523806656
  0.1591584199080026  0.3866197575883578  0.6289613223128483
  0.8925091779720612  0.9480070259699197  0.2561673266467742
  0.4964836876446158  0.5389103898459939  0.0162497444874033
  0.4035129150563759  0.6493797235733995  0.8730544158002820
  0.8155515090659339  0.5116151924022646  0.0228164530700863
  0.8612189966598141  0.4223291232173011  0.0642368365798108
  0.1166633306836296  0.2512721550622132  0.8069828532003197
  0.8398807152614973  0.7073091415153866  0.0068918875205379
  1.0010724963217605  0.2579004545481552  0.9916972763517341
  0.3956611493832526  0.0043562534549538  0.5138996663735259
  0.0379079726807998  0.1160346813457695  0.7006029992661164
  0.7981138405496931  0.3317874252740057  0.0719077506721982
  0.7903036044504468  0.2822852653798313  0.0228027393632243
  0.7065459456429142  0.9021816787813720  0.0519147418311757
  0.6849192313813552  0.7990943265024043  0.0396400978941700
  0.0468976783473219  0.1583924798362944  0.0292543545650298
  0.1179492706730285  0.2870271874952391  0.9110037970707625
  0.6629294151471650  0.8765628993616350  0.9790233884165638
  0.4329161989089584  0.9004263648456036  0.1550214789797700
  0.2557195372153264  0.4826335233385426  0.9578385783161438
  0.1582036754432251  0.4375701589646599  0.9321550516223168
  0.1478537910015703  0.4486441443953760  0.8703239046303022
  0.8772161048802164  0.5908896362576237  0.0728162846373560
  0.0818981701536925  0.0727759563255313  0.9484494258312657
  0.8153476343765306  0.5008986675893539  0.0802935738849573
  0.4211308959746693  0.7764998200635124  0.1930410507406474
  0.2052305076214915  0.3408947293489633  0.8761223955546340
  0.0666592897755476  0.2967324838647892  0.3957164500499989
  0.0188066865980085  0.3766740615364501  0.4174986090199704
  0.9849908723885269  0.0084247015513616  0.0521342453342425
  0.0696435479488942  0.3462710520286499  0.4446787886292725
  0.4837522980178677  0.7127004957129438  0.7746469800389476
  0.9182188135892969  0.8477623822272123  0.0673647057805998
  0.5053666582895665  0.6565343392749038  0.7910739188277016
  0.9310566755964368  0.8010033809751490  0.0210507313172623
  0.1405041056030096  0.7661941222118521  0.8725322968920605
  0.9247978223368956  0.7047013012453380  0.6983904871567956
  0.4464517984048059  0.6653293865302060  0.7703223749367413
  0.1219683333204748  0.2996327209725758  0.5234699467534917
  0.2322624996524670  0.3683600740668557  0.7103148734804750