Cr N  Ni
 1.0000000000000000
    21.2534360661148476    0.0000000000000000    0.0000000000000000
     0.0000000000000000   21.2534360661148476    0.0000000000000000
     0.0000000000000000    0.0000000000000000   21.2534360661148476
 Cr  N   Ni 
 259  52 605
Direct
  0.4958145698707684  0.7415779039812029  0.4123869103210230
  0.7552020851400513  0.7498205895283594  0.1652999674911824
 -0.0060832210354296  0.1652941395806134  0.1604608653819274
  0.3242155648477823  0.9155068669778684  0.5796382797672854
  0.0823880605366757  0.2472346882741952  0.5002126948268321
  0.5739603008319023  0.5779953502244130  0.4928549439891201
  0.8311690247776886  0.4963057078887774 -0.0039331754296495
  0.4970473204800673  0.4151930712945993  0.5790851536845417
  0.5777419347771607  0.1620669631377789  0.4120576437691972
  0.4140046691867543  0.4896628209697696  0.5787515017600173
  0.9172594359683509  0.4952782668226809  0.0789797824122075
  0.3264074559822571  0.4949020498947407  0.3384156221227872
  0.6528989949189592  0.7448592218899469  0.7477942580049119
  0.7423983475941748  0.4149654477230049  0.6681992447171337
  0.1727687913713812  0.1627719288222501  0.3290986251666029
  0.7460566565871850  0.6557039870449617  0.7474414465410795
  0.3276644451542199  0.2461640895031185  0.2480095947952081
  0.6662255132252430  0.7474972436245017  0.9034734201295508
  0.6647609438728904  0.4199543902412666  0.9113705187346796
  0.9149483984112725  0.4133373249995916  0.1613820424616164
  0.4943735233760147  0.4978827264951107  0.8295303323303811
  0.3276464844521305  0.4124924802310458  0.0809650282374642
  0.5788749523258587  0.4970543673426888  0.0825654609454755
  0.4015184955105373  0.3286407845853987  0.0812413054420690
  0.3281310085606738  0.2420374670522620  0.9126671085271878
  0.9114583206368976  0.1576253061070345  0.4145467498800374
  0.8315729057554937  0.4967608762773409  0.3286910357520187
  0.4888829005432273  0.2458045564782667  0.9156272685586692
  0.2430779144530424  0.1638180271960110  0.7460767777896004
  0.3286560701175132  0.3316452426935880  0.6719205384888269
  0.0714023261977721  0.1643497791723232  0.9147709194553002
  0.4091977926922761  0.9170357845537017  0.0060581523874174
  0.1614992065204094  0.0755587276254492  0.9138956330392610
  0.5821967802446881  0.5786248776297309 -0.0088576420740293
  0.1595950260764886  0.6644149954399332  0.4963088748001794
  0.2437428179121633  0.6663366669558504  0.5759205344517712
  0.2378442012474542  0.4955197712338650  0.2444641946984783
  0.1621983896094863  0.2525493533405810  0.9129970600227096
  0.4128324369894255  0.4916416509629618  0.2506405273517405
  0.3258298953856306  0.6617697974563570  0.1592160807087572
 -0.0041143140615522  0.6632470723308371  0.5029903588071567
  0.3243562628620950  0.5814254228939969  0.2489781151028545
  0.2445802750213301 -0.0018333706405936  0.4135276183457806
  0.4927112567749227  0.3295399087452618 -0.0094117261019947
  0.8318953388698791  0.6679415458074744  0.1624882838878300
  0.5678642925548255  0.3303599604277413  0.5813578645756046
  0.3262966993255259  0.1567655350576748  0.4981195206591527
  0.4079934782303971  0.5821819793834905  0.1578107710884916
  0.3273052915543456  0.4898712915750180  0.8293206661519149
  0.7508943736177071  0.5779493980780693  0.4948522867995829
  0.6620475531437062  0.3327805409939812  0.4942793040716010
  0.3255113726336056  0.5794246884422068  0.9223394452596969
  0.0808774146987170  0.8355773985847150  0.7466132937364509
  0.7548877740924705  0.6662252008459250  0.0811338634479330
  0.5790959375717879  0.2440595346496381  0.8208009079676176
  0.9137517527066582  0.7479206229621012  0.6527443560865647
  0.6660339137824357  0.7565999366941984  0.0813323692903522
  0.9145723056011443  0.0050098740621794  0.7480411890671883
  0.0027381930850073  0.9145488049586910  0.7476895220243825
  0.5799667535320222  0.5806677646034654  0.1699020036457372
  0.8314725740651674  0.4973063975193951  0.8314345507682399
 -0.0022638981334694  0.5781947422911293  0.9142158779370357
  0.3270507177314383  0.4189813638547029  0.9125658660720898
 -0.0002836585099698  0.7485546964775011  0.7472446083110621
 -0.0036663460424866  0.7555150210732244  0.4141411796949113
  0.6604589774813477  0.2437640188761588  0.5764377238224027
  0.0810451386307306  0.5779692431053111  0.3288198858977482
  0.1614084247099496  0.8321351701296205  0.1629055102388521
  0.9086543547100974  0.3353674008725924  0.4138581577617325
 -0.0025893897289465  0.0800674252426767  0.7478782331482281
  0.4115580450235946  0.4940039224875126  0.4123235400329347
  0.7486267373550383  0.7479246158885794  0.8367650463813519
  0.1617516156385315  0.8318302144467233  0.3297754501548107
  0.0776649744050482  0.4135756751091400  0.6654565359820011
  0.4051366150419383  0.8330931852171961  0.4128511081739837
  0.4954788475773208  0.9175422649066793  0.4075152523541870
  0.4973964644512309  0.8333541532685877  0.8251017418581427
  0.8315450455374225  0.5799111398615230  0.2546639009033226
  0.1555054628298909  0.5785802071578104  0.5799125932850068
  0.2390362716931083  0.3313306965740913  0.9137664782128051
  0.2443658859761940  0.4898319937188330  0.5815639821061569
  0.2375270044976610  0.5775692856285995  0.8309857031703889
  0.0793887975898689  0.6575626399266306  0.7473393280434996
  0.8294223558645891 -0.0028514801726688  0.1617425540633397
  0.4022929125750696  0.9150769781965905  0.4982099826673657
  0.2434628426805945  0.8322137629190868  0.7466782603208905
 -0.0043835970678238  0.0847163826107491  0.4161594640650806
  0.7447746145203270  0.1629044280473989  0.4129276728339518
  0.7474171942299583  0.8362551405254277  0.7461906416814700
  0.6659393239370114  0.6598186742805277 -0.0095451970554603
  0.6647604532728335  0.8403185460430248 -0.0025310647775091
  0.8315563674004610  0.3247880875827582  0.6650859911315009
  0.0797354886042795  0.7478886081374430  0.8376983048379613
  0.0791978924967359  0.7479898759642764 -0.0021083156812622
  0.1612226204423644  0.4955313871170324  0.8313107790792046
  0.3193080739152079  0.9140157681994036  0.9144807027535731
  0.3260635290202410  0.0825520705398305  0.5800874988280152
  0.1608377919853148  0.4133788017577443  0.0806531060104210
  0.0800314423972346  0.6652042491556117  0.2443611834189052
  0.3266815448658880 -0.0025965437146563  0.3286232394699795
  0.6654163566613543  0.6627727575644519  0.1701570709797819
  0.6628901237316266  0.3280696266215589  0.3205645708933901
  0.4964416675748195  0.0061002852980292  0.4970623551542630
  0.6641748304601731  0.6672512221728563  0.4942354010971122
  0.9139570772260232  0.2479089673173182  0.5054479518325200
  0.3273422210101649  0.2420335998211577  0.5849141057119880
  0.7551022585001140  0.3314502758275669  0.0793369720387145
  0.4077062791750000  0.0815897030727573  0.8304695568326820
 -0.0046316687065385  0.0802833758641224  0.0811767646890825
  0.4932677644858509  0.2435939505467494  0.2478234940515026
  0.7490140528118558  0.5790066397798849 -0.0047912398585411
  0.3281905760693624  0.2460359385855137  0.4079987123755486
  0.5801021048628678 -0.0004839596427073  0.9150489248467623
  0.3287459113195376  0.3332916211748024  0.4964377878619443
  0.4941904556976592  0.2376803049515825  0.0806473478317647
  0.0752110846770344  0.0783062024260195  0.1601347305827857
  0.1630919701390358  0.1652284248175192  0.0027160715536927
  0.3274142354593881  0.4146440019612678  0.7464177540382109
  0.3289641324769962  0.5794719709485858  0.5759606582577889
  0.1612972355655672  0.2481242397873814  0.5833459868147376
  0.7435385813986595  0.7456640348473820  0.6581728418158238
  0.9140560512768682 -0.0025320361534185  0.9157788600970321
  0.2437619272662889  0.4935548080656597  0.4120952293746303
  0.4946846931783513  0.0879925181495784  0.7483839292117387
  0.9144961876242375  0.1646358841535041  0.9156272963871542
  0.2349582749572797  0.2460391119608566  0.5005414078968090
  0.9128644569614763  0.7467402962533299  0.8300009765379114
  0.1610428778523942 -0.0017265250083416  0.8310313777660855
  0.8315282220684974  0.5005034483936582  0.6643920162086142
  0.0806453267391623  0.8336957569846223  0.5789240181814757
  0.0825561533756426  0.9134372697494123  0.4984059956380109
  0.4899335583021028  0.4165464941605853  0.0816181319042483
  0.5776237587027800  0.3247673262660709  0.0798773507027002
 -0.0044085137201361  0.3298117254177786  0.1599640537274398
  0.7473846109916774  0.9161818459258201  0.3291343448779533
  0.7491096656875708  0.1599549534241790  0.2448469762305063
  0.4110157797596448  0.1611659686513839  0.7472769311287372
  0.0800765043556374  0.4130647997014503  0.1602753121908076
  0.4944431828900099  0.1614821263845359  0.4947577802072337
  0.1625508931880164  0.3291227236054289  0.3284006676845042
  0.0830829285048842  0.4950876841526114  0.4127570337374766
  0.4972328552873260  0.9153798547828429  0.5861174255086031
  0.6647086521047528  0.2375401329432038  0.0777145374110498
  0.5789190733902745  0.0790423062395926  0.1638807851140940
  0.5747110311774644  0.3328973579861432  0.9119142530597131
  0.5854709338975516  0.7463153050539604  0.6633754105515191
 -0.0028968272710954  0.1640696565714013  0.3268883105816815
  0.4097361827276992  0.0815176636790884 -0.0020249852724046
  0.5724837486058810  0.2453869794365193  0.6659739871691387
  0.0858708392562321  0.2513954358341811  0.3284991872307521
  0.7476120199560128 -0.0010638107463443  0.9160827085906955
  0.4968579952921186  0.9117898428493361  0.7463135646646843
  0.4955686382753012  0.7477181529155196  0.7429621941674140
  0.5860722245000375 -0.0002302724128029  0.7463939430118808
 -0.0018476559644265 -0.0060816521112443  0.5036447541863063
  0.0014232014609231  0.2499138127886010  0.4172882142986014
  0.4088133915710534  0.0048132064500386  0.7476562954904464
  0.4974375307326495  0.9215844668226416  0.9161901693945296
  0.6687148121188246  0.4172028522446523  0.0807887743252271
 -0.0031831670658091  0.3402922786252827  0.3280655982942655
  0.8285824000398013  0.1613359158744748  0.1612175098960370
  0.1632824631103612  0.1629270181209705  0.4997329171942246
 -0.0053588224723869  0.2477526298741968  0.2361204370533713
  0.4167699665624682  0.3307773051087449  0.9124515480713254
  0.9061797621018541  0.2470947432629201  0.3281703517868375
  0.7430164244926399  0.5795525726816397  0.1657951447000531
 -0.0027170725845375  0.8312541374303309  0.1621927793252519
  0.7538033965214589  0.9165169669236901  0.4955581732814483
  0.5763154438370490  0.6688326071530063  0.0837759630626881
  0.4977311533251839  0.3289119002158322  0.6661457612753044
  0.3262474309020817  0.8318162733852683  0.3309307683739763
  0.5037215898644259  0.5782271803539784  0.5789337448460646
  0.4944619054200900  0.7444594780024856  0.0883543090175817
  0.4954349942398815  0.8323940130093932  0.0019956071613472
  0.0837862537515182  0.0741619182458144  0.3303096861743556
 -0.0053521058615822  0.0808766883438565  0.2347293487515276
 -0.0055290610499498 -0.0115130373196204  0.3287081969804352
  0.9058154341348940  0.0831346751065606  0.3288609928006233
  0.0839222931000259 -0.0053504403181198  0.4147610840212100
  0.4097794376283266  0.5791888777414561  0.6670123902457410
  0.2494672981920153  0.0802624749017001  0.1624660977470106
  0.2436161119254156 -0.0010400055796721  0.7470464327968995
  0.8256145833533194  0.0815675109825199  0.5807403359784102
  0.4962542507696417  0.7461531708356911  0.5690486407007163
 -0.0038855347480671  0.4025698168060093  0.4147407405369106
  0.4153608141184541  0.5792597870643195  0.8284403900700237
  0.4946053467875717  0.6535546748671046  0.8289071395308120
  0.6644029027721989  0.4206536500490681  0.5808955938009119
  0.6629479935765032  0.6637207679552218  0.3303453855309706
  0.7505084683336771  0.3310141279303203  0.4139683201154268
  0.4941200415174791  0.9218613485451516  0.0819321845085462
  0.5802058658711332  0.4960852000252051  0.2483030947414291
  0.2414765664050393  0.6653487699910103  0.4139847160092392
  0.6698940025289244  0.5777926626215916  0.0804000988382786
  0.6637253220239164  0.8256377562097000  0.4960224549759680
  0.6668766723227281  0.2433878462940955  0.9113669619562973
  0.4078076758470758  0.9121337234211431  0.8293086865168056
 -0.0036676780066577  0.8306931065449036  0.3290025217044060
  0.4960950237920265  0.8348539512397797  0.1786104834456548
  0.9096817496761562  0.6634492262062972  0.4131049429146175
  0.8299566079010533  0.8355157241305402 -0.0029756355577844
  0.1618382786366255 -0.0017024478554412 -0.0033136210288264
  0.7477129551026793  0.4124700288464273  0.1646603225247994
  0.2416000993686669  0.6628484788275339  0.7462633769660729
  0.8281060210388670  0.7454081153434101  0.5866808424083427
  0.8306365235651113  0.8326145598593211  0.1647176252316699
  0.6635560809357282  0.0026533033334214  0.4956620008501126
  0.3236034131246817  0.7572001306806866  0.2475985170637240
  0.3237597662787471  0.6675590564527990  0.8297839050826511
 -0.0001020694345006  0.0795858623975704  0.5799001072302109
 -0.0009413888294001  0.8319114472091207 -0.0022399247548085
  0.9152519412697582  0.6536762900510412  0.7468902862715542
 -0.0054615041330888  0.2472084437636709  0.7480053393313147
  0.0022178380779288  0.7466026181497122  0.9165870661435652
  0.5730846881443333  0.3273768334015995  0.4128017554754412
  0.6646472522050328  0.1558801372950222  0.6657354643363894
  0.8273808495802882  0.7468855213787050  0.7439294319725851
  0.8287206938954071  0.3311884779638223  0.3293233562479753
  0.4957301500503462  0.1618432456890660  0.6637819539358396
  0.6624566508117837  0.2379198124800845  0.4130712607383911
  0.3243524299608462  0.6643111001503633  0.3382077400795991
  0.1591672545139230  0.5806441893281412  0.0804621187575190
  0.4068759732726331  0.7481178957800355  0.6627876817496481
  0.8265436570004300  0.9154772380953753  0.5798806065040283
  0.4038156853984489  0.8345274078139129  0.0807682942499000
  0.0850841581996289  0.6636796364825855  0.4111316618372148
  0.4038003394562621  0.7484178826052570  0.8303533051510806
  0.6621649965725250  0.3304725794878273  0.1712779408613397
  0.9181064652891063  0.7476871966096508  0.4993619122310854
 -0.0017476740673912  0.4970470442548324  0.3232698912114282
  0.4135861635465101  0.6672036507339985  0.2485694408357129
  0.8248443646155194  0.9156160762247307  0.7486011345488427
  0.6631367918736720 -0.0004774809744852  0.3292521139062247
  0.6636438954282808  0.3347241369085187  0.6697478411599332
  0.4057588515081972  0.8261341095569890  0.9138361994113641
  0.8305555346373575  0.7489003540253645  0.2479053219793857
  0.7430896009082826  0.7460272978758085  0.4950326844843973
  0.6654305280442613  0.2440545341660151  0.7559760077228986
  0.6614754709494235  0.4901659275221318  0.4953818048101247
  0.2420646026340641  0.7472189966166302  0.0000957647999920
  0.5800000775017888  0.9176674541280715  0.4964538328504176
  0.9129067926825939  0.8307648571785641  0.7469533527832970
  0.4942426562692992  0.7436331128283876  0.9163277295511314
  0.1603404028795344  0.3281617487310988  0.8304630682913641
 -0.0035327744003929  0.3295310128288339  0.8317892420299290
  0.9151957094950285  0.6647663030763852  0.0791036159350369
  0.7531406065633798  0.2460353104502736  0.6674625786249887
  0.4095987453382511  0.0800829593027297  0.3300767698379861
 -0.0019816783009045  0.4965416713133258  0.8323285014907600
  0.2474964816496482  0.0771725908673327  0.3300641425343466
  0.4948252010331554  0.9192329864910126  0.2463504283249048
  0.4961692560600304  0.8280902175422384  0.4985383416360538
 -0.0022669017662539  0.5792793116380063  0.4121553966975670
  0.4074437739495053  0.9140674055009859  0.6504982787297966
  0.7493408989131353  0.1623297911913849  0.9137303938942006
  0.3180245562830397  0.9137593168249740  0.7470627200300325
  0.4062326159171917  0.8246429079786963  0.7457233822652607
  0.1730629088969359  0.7477982364569159  0.7459282601406214
  0.9071660001470058  0.4967334590974398  0.4139177399086091
  0.3263474228390872  0.5787688921366912  0.8331911846101032
 -0.0872503394995442  0.0814121929969070  0.5819448378163585
  0.4911451850242413  0.7399204494368291  0.0030601306948810
  0.8313524394200967  0.4125297174196644  0.6642591152469005
  0.9140183389755921  0.9177738686177636  0.7480339798007892
  0.3277591666891021  0.3298984906744378  0.9106248905969752
  0.4154150666342533  0.5793115271737440  0.2461680071106631
  0.9938397980072291 -0.0062074647976224  0.4172090866320534
  0.1632526399772565  0.0807075970721178  0.1624636645315713
  0.3299671449376038  0.3307348720376853  0.5850191340838433
  0.9934690265490312  0.0756019809006725  0.3236895822043617
  0.6682148465951999  0.3265835077829711  0.0808954534889418
 -0.0892967058678024  0.2465985155948648  0.4179964842729117
  0.4944299976861284  0.8342718589144508  0.0920021474703138
  0.5790688691475449  0.4117071204362708  0.0817778062938885
  0.4172369867370126  0.5790377736566226  0.5778016551937306
 -0.0040971960955368  0.2537236040763302  0.3255224989426072
  0.4066253989283665  0.9139877962705933  0.7391208453502638
  0.5770367957549198  0.2422806568874893  0.9089316084302248
  0.4942188696120131  0.8281242992298159  0.4072886359827346
  0.6669808672065047  0.3329292097024626  0.9098811457095100
  0.0868278612564068  0.7459979037414269  0.7469059498923976
  0.6616214958882228  0.3287910490002895  0.4063872417176981
  0.9972866896225293  0.6679524233275551  0.4121638921755280
  0.3221269100519858  0.6706047541332738  0.2487056957460771
  0.0870631307288166  0.1626346062035694  0.3284715546907784
  0.2417825739076180  0.5778842295349881  0.5808185492404171
  0.4882581557152920  0.3257170152853763  0.0815721690348536
  0.4987366291536041  0.8335843665826501  0.9136332208726480
  0.6673658609330387  0.7523756911676126 -0.0097705254626850
  0.4933161145338356  0.7412311496422097  0.8286131743877101
  0.4069508141888312  0.9177069451273175  0.9177201234304528
  0.6632917257009937  0.2419650347723048  0.1653982528316186
  0.6627136272596814  0.2439257078466674  0.6673120315753598
  0.6584178979920284  0.3331564982257197  0.5811953040719977
  0.1598282535622737  0.1638476131986228  0.9136993090469276
  0.6665519282860046  0.6668557187326868  0.0801359080359210
  0.5756024122766672  0.5828964065561802  0.0798757605595948
  0.3240821509135464  0.4909689241180808  0.2481972822120772
  0.4983730367054452  0.0006104455518682  0.7445260731117713
 -0.0864011410377760  0.7409507677741838  0.7400211403695496
  0.4956988656205432  0.7448596563290055  0.6551570184059036
  0.9949603842969564  0.4902407179885090  0.4135610063038466
  0.7394836715181856  0.7458185430409289  0.7475898753282665
  0.8310601691824347  0.7460869748314493  0.4969587666225195
  0.6673050981535608  0.9140602059589976  0.4977888180837719
  0.8312775477120578  0.5799429014454607  0.1673573162604012
  0.9146955608812724  0.7456866193776240  0.9158873416832555
  0.3266868021855980  0.2445052643334656  0.4955303174212256
  0.6627537671943812  0.5786174187222629  0.4974437305296363
  0.6661590246643236  0.7546059939434568  0.1701899242446681
  0.4903274590530623  0.9185364117545672  0.4980005037594806
  0.7492009853304340  0.3304035897904105  0.2462817937102932
  0.8303581765176443  0.9162401592098083  0.9146112916439605
  0.6624124020495658  0.4969673891292121  0.3290596052806241
  0.9137724767341745  0.9151258249463576 -0.0022244833665942
  0.4956015779091960  0.2436132179692640  0.4121258552344176
  0.9141962956543277  0.8325718271301922  0.0807514764096572
  0.8314350001065622  0.9154172176578322  0.0799195251278343
  0.7476434187580563  0.8345423346621085  0.9135627738909974
  0.0800549372182850  0.9153626225286853  0.8314501801702644
  0.5802699536372031  0.0816248344997993  0.6627893364501238
  0.7469447393246322  0.1635204276595560  0.5816845436695497
  0.6625294493109684  0.1623194100127917  0.4967877885638001
  0.7451317658928350  0.2449972970583309  0.4973255222087519
  0.7468106052817739  0.2449805111469983  0.3285039715940548
  0.7514158247967038  0.2465835780909473  0.1627363752630694
  0.7497557326760576  0.4147339847813585 -0.0041245006805637
  0.7461646255692537  0.0802103585048252  0.3288428395519843
  0.5800629235446220  0.7468243769066348 -0.0030513892368016
  0.6643830469618026  0.3300127807667636 -0.0044757257946416
  0.6651185015450019  0.0806458151553224  0.7487660414968291
  0.9119285437702137  0.8318778959879178  0.4131633154676110
 -0.0015568286729450  0.6633968571576965  0.3240544089380686
  0.7498599582850826  0.2444681265801564  0.8314840528973797
  0.8309775698465660  0.1629346033396862 -0.0043070576337552
  0.7468996333908761  0.4962476022960869  0.2488972005841181
  0.9066000987879894 -0.0020825973327987  0.4122910058376500
  0.7451924996478160  0.8305902740079678  0.5808800249415055
 -0.0049721331943906  0.1636800786039807 -0.0020998516832077
  0.9112801714164659  0.9147110312149638  0.4981769401302736
  0.8324876485236029  0.1623441911559149  0.8329271641954600
  0.9131893556691097 -0.0030803393996445  0.0807906493666967
  0.8321180929903768  0.2453032369776260  0.9140883952013217
  0.8288965032821481  0.8349917465368476  0.4972604848103230
  0.8321165530265618  0.4146676405947021  0.0795363410422790
  0.5793429832177369  0.6590025852866904  0.7468414182718411
  0.5833625866217325  0.8313929333147844  0.4110938436613276
  0.5796075335943841  0.9185000800507391 -0.0011717432577137
  0.9134638597676792  0.8318854293077155  0.2455689240296761
  0.6649391514022607  0.1607814621462641 -0.0043341988007186
  0.6657330501654891  0.1603870205040752  0.8312897976095095
  0.6661329304101432  0.0793246842332627  0.9143844826563092
  0.6643862862938004 -0.0012171130462234  0.8315735075502519
  0.7474127748152563 -0.0004230427669977  0.5806445700747250
  0.8323425126617005  0.2467855433006376  0.7495806469313426
  0.8305633976246314  0.2460326540919362  0.0789017608433181
 -0.0015565849617576  0.8316735217897032  0.8320763235363080
  0.8312795670480435  0.3303019909106872 -0.0041489054097601
  0.6628169751557005  0.1605420089274416  0.3294290543789680
  0.9114317997208449 -0.0042547230460150  0.2440957669797604
  0.6628461856114013  0.1559726379171980  0.1637527931991541
  0.5810685216311886  0.8335266215920931  0.7453181540271441
  0.3260297024882518  0.8307177186827263  0.4960036849078178
  0.5808966735488759  0.9160601912248297  0.6632296141807612
  0.4937454973616434 -0.0007049087142922  0.3293021593660915
  0.6637736648671412 -0.0012294160720682 -0.0029285170477724
  0.7482872067034259  0.0799782441225439 -0.0035795479113799
  0.6630085468070746  0.2411176067838192  0.2513377447238117
  0.9120367684230467  0.9125934832271829  0.3278909387148783
  0.5792437426240499  0.4129136920303863  0.1712942705522287
  0.7493250561316924  0.1623462125263617  0.7489512925850177
  0.7485551926568031  0.0794257832930019  0.8328615423858040
  0.6631365148930055  0.3315019463759064  0.8238256462453005
  0.9129008379058825  0.8334291889596348  0.5801799244288728
  0.8282817325946461  0.8323797934294573  0.6617659836372318
  0.7476401703226047  0.4136513664278704  0.3295566382427585
  0.8291778232140143  0.8327854156501882  0.8308981426405171
  0.9128928390321062  0.9149990242124966  0.6593245001994360
  0.4080547942596480  0.8324758374146201  0.2475715891231768
  0.5825532691943826  0.8349934691533838  0.2493030611349154
  0.5792892344368267 -0.0009415790450011  0.0820081403077934
  0.4088251843254889  0.9163856621284651  0.3292267923454477
  0.3256828680053324  0.8323140266208290  0.1635865771441712
  0.7470945946871276 -0.0017771525163269  0.7476252668541078
  0.4035006065877256  0.7481998311212908 -0.0008356585365111
  0.1643013253879987  0.0773386126761409  0.2498717380052730
  0.5800060033008512  0.9177432820370379  0.3289223061904140
  0.6634906320400911  0.9166905436086576  0.5852037820254192
  0.6637430633865439  0.0790576598957390  0.2466847950647822
  0.6628747841985485  0.0808090350839446  0.4123515389771814
  0.7480282526860008 -0.0025666765932884  0.0807208946616064
  0.8289307578079440  0.0790858426638851  0.2446463456649495
  0.9111815005973313  0.0798687304346103  0.1613292197321144
  0.6638697569333591  0.0788652812280547  0.0801284277265856
  0.1605307620610832  0.5786524838249384  0.7468601152092125
  0.7457815886714748  0.0818778713630390  0.4964939934525152
  0.5865295647032338  0.8346948916653406  0.9139636947201265
  0.8305927936247137  0.6607998409947957  0.8289325839833969
  0.7487930369440212  0.1613154960947106  0.0795451212246266
 -0.0047122706448103  0.3306454694773407 -0.0030838854879968
  0.7475400962058497  0.0791735991153131  0.1620582610757574
  0.8278816036318042  0.1637569183840557  0.4980798429769687
  0.8285063458068658 -0.0027236038735919  0.3286691347338910
  0.9153031779903198  0.5778877120418423  0.8313480428573660
  0.9121709200699273  0.1632374181254125  0.0799991839833665
  0.8227693971512763  0.2454397732869659  0.4137516653685409
  0.9102074606913950  0.1637842327480186  0.2429210258257862
  0.0813433080344945  0.1636921365722347  0.4186869369462056
  0.6617822574677230  0.5767657468633215  0.5848538240496567
  0.9138005476709040  0.1688686725381858  0.5829797145485951
  0.7472395693808515  0.9164825431797853  0.6634278482145316
  0.6627909392970851  0.6600142623259762  0.8305951625939463
  0.6652169243693006  0.8341674492063497  0.3303654564744199
  0.7492098041344694  0.9160971294128755  0.1635473826092516
  0.1617722819576839  0.4119282493034641  0.2451052821099520
  0.9146551678539043  0.2464831154007503  0.8316752268942801
  0.0796153042180799 -0.0019577132360579  0.7473987687332826
  0.7449096263233371  0.6610106092727714  0.5806902348433328
 -0.0032072418829479  0.3293855177328083  0.6649603647058863
  0.9103723979507568  0.2474143958033381  0.1612024887368735
 -0.0017661417776420  0.2475056869148484  0.5817624710174328
 -0.0046591957716851 -0.0037558093828405  0.1618233510104141
  0.7480156712463623  0.8343012401593521  0.2486782489071171
  0.5805079101464564  0.0011359585469518  0.5802602345630926
  0.9136922019231845  0.4145174935991046 -0.0034761943202983
  0.6647933124150500  0.9166265820486731  0.7466242751345339
  0.7506142948217822  0.8351833539036175  0.0804589287937267
  0.7481895434609117  0.9167457383219936 -0.0026777941555264
  0.7487005394596487  0.2440016466214173 -0.0041407073448575
  0.5815907231267976  0.9175512850073760  0.8298737424613651
  0.7472122529587023 -0.0023610815146285  0.2460106310067545
  0.5790103796859277  0.5773313075612436  0.6636777063004448
  0.8282173508966518 -0.0007430515646869  0.4968235063881670
  0.5829010968296084  0.7467636052322427  0.8313190284650368
  0.6646915063304571  0.8402303687860118  0.1648331947830091
  0.5812046501120776  0.7459621978365202  0.4942834741444532
  0.8303220226136313  0.0791536385140396  0.0795473337334394
  0.5806167141427807  0.6633267003073708  0.5777144423489121
  0.9137413888257229  0.2467713317739600  0.6654747921154230
  0.4966039151391896  0.8341735310978335  0.6611028985595488
  0.9130832037724665  0.2467323951836714 -0.0035011096746527
  0.6649733528514197  0.7493385340748566  0.2553366012839648
  0.5813228389701415  0.8292395628468587  0.5786897745083482
  0.4132207783081671  0.2446165401945217  0.6648345001518946
  0.8286584839955550  0.9146321628289604  0.4118307206054813
  0.3258657344105867  0.5790567139229150  0.4139353091319943
  0.8303404211675086 -0.0009156055012346  0.8329074150307915
  0.3275742218850673  0.3301327502300281  0.0000242293077545
  0.8319489219666526  0.0803104210201116  0.9148904067182897
  0.4119147558492715  0.4104895636394146  0.3323256122119667
  0.7480807785195884  0.7478658425518855  0.3300180736555309
  0.4099383927969146  0.4126048455248457  0.1650257242501190
  0.5797285683855693  0.6632485969242615  0.2499859875311365
  0.4119802639578085  0.3277417828461824  0.4124957094917679
  0.7467732856884645  0.9170747667479888  0.8317617432357444
  0.4131800735801797  0.4121033071685083  0.4942944120761256
  0.7472459913315170  0.6638620691067798  0.4111211701669274
  0.3281006450055833  0.3278931953289307  0.3306020527513414
  0.9116608361434665 -0.0063486863961812  0.5801657102974190
  0.0807032365001336  0.0796195609603637  0.4982464214155539
  0.8310088160676237  0.5777325508861748  0.7475735634748996
  0.9142915183935679  0.9161442692696702  0.8367281857087435
  0.0793762343910464  0.9149597029757318 -0.0027247502712200
  0.4090819650107322  0.8287690378708371  0.5773039573745776
  0.1611773585360397  0.0798105925502894  0.0749956061729712
  0.8310481103804032  0.3317482831862786  0.1624658953687644
  0.2447683325724106  0.2466211920098564  0.8280009995635994
  0.7490382591546290  0.4960996186830575  0.0804858048752028
  0.1602790936198526  0.2475688548633176  0.7472893638271445
  0.7472116816260518  0.4974572523208993  0.5810592884130302
  0.1622601789351072 -0.0072639614595945  0.1623131845028647
  0.6645335392071523  0.4142129773768378  0.2486049511951199
  0.8311588093122979 -0.0017510795506687 -0.0039536827035992
  0.6650328952989644  0.4963842065759641  0.1662180850685676
  0.6648156564505791  0.9183893278610825  0.2484453955571242
  0.4088031498272922  0.6648335503079832  0.0812810734989174
  0.7465753235048500  0.8316936971873509  0.4120749545430637
  0.8300687482782797  0.9150169909564682  0.2456361148979592
  0.9144000082605368  0.1632621955719408  0.7480200499689946
  0.6636457500071911  0.9168248104499077  0.4079295629421911
  0.8317518492281682  0.6619103235424770 -0.0025695752212546
  0.7534535038453453  0.3305428317665469  0.9122826321312091
  0.8290730033460477  0.6596057069150691  0.6628486202397897
  0.8335040715252187  0.7510581722590318  0.0804927809950901
  0.9137778173289196  0.6606415129589875  0.5814253888294358
  0.7485199387344940  0.3294287494310653  0.5821790540111724
  0.7471818096918429  0.4154928731753321  0.4961059950536840