Cr  N Ni 
 1.0000000000000000
    21.1236799078543598    0.0000000000000000    0.0000000000000000
     0.0000000000000000   21.1236799078543598    0.0000000000000000
     0.0000000000000000    0.0000000000000000   21.1236799078543598
 Cr  N   Ni 
 259  52 605
Direct
  0.2461554255112284  0.8323977022780491  0.2501769906319478
  0.8332276464007071  0.5895235672770152  0.4120791598317273
  0.5852020660036414  0.3332974492360394  0.0872731983854884
  0.8201372547185873  0.4989448952439132  0.6656017829717989
  0.3303520150595816  0.0833897447466762  0.9143179011052437
  0.9987931895390061  0.5023955697773446  0.6677143394631893
  0.6596421668615614  0.2495567403672942  0.9175139759985271
  0.0821214437632544  0.5000764751318511  0.4144872095547606
  0.4130585887192380  0.0007271887997111  0.2389260801495032
  0.8323775096029162  0.5840055110199346  0.2537043248529474
  0.4195014875276863  0.9971753745191783  0.5907604162300178
  0.4960353374212060  0.0042005890483724  0.0022516616547260
  0.5047407312879075  0.0864018457376727  0.4103530647978041
  0.5004881486605293  0.1768809386356682  0.5004917900567341
  0.5918590967674520  0.0850583343107483  0.5016424940663781
  0.7496976360855270  0.2488509716719188  0.4990429820578803
  0.9159529123995619  0.0028806225096927  0.9137902973035721
  0.9245858495372334  0.7486962121160353  0.0018230925583697
  0.5006609664481497  0.0029778432200136  0.1710406537169254
  0.8369264489508897  0.2483687004524478  0.9179039928976354
  0.5887661105091395  0.1638381768565294  0.9162739751256521
  0.9998820160634427  0.3257231660797854  0.6657615006391945
  0.8329828779931066  0.3312069088573631  0.3316346230372572
  0.2404683641788904  0.1715312519478217  0.5828209369821415
  0.3292316316999844  0.9037814471961254  0.5847561373500380
  0.7496544457388560  0.2504493292666338  0.1669835676306337
  0.7494294826012028  0.4981816975735523  0.2503035857767678
  0.4994832534336482  0.6674468852308406  0.6666149669035601
  0.4089757182281318  0.9144383166698570  0.1716185510709095
  0.3305372614001917  0.6740006315984992  0.6656954358853722
  0.9187264456570678  0.0825195154014631  0.4992222308103852
  0.9138299073906375  0.4963814933592407  0.7568945976179118
  0.5826830893982320  0.0107168271722417  0.9151696678815328
  0.4113667156889075  0.7495761229357998  0.9998195907492573
  0.4983256898344470  0.6665272770484125  0.4981593164289825
  0.6678417785400769  0.4110001366015114  0.5805487516696352
  0.8234468423384632  0.3304845533534242  0.6661729823030824
  0.6673344035809398  0.2480268863850465  0.7501762211587671
  0.5849399963710437  0.7488955828947174  0.3346722945950061
  0.4109565104517597  0.8296059806529466  0.5845043483164125
  0.7577569248105942  0.6683999454107207  0.9146371213960928
  0.9152693145408187  0.5825566655489853  0.1710584708145791
  0.4161725230245216  0.4164971432502378  0.6625430901266334
  0.4136603827517294  0.5094475497203235  0.7510577607014969
  0.9172490373084696  0.2483612521530400  0.4989120691472941
  0.7494239176565298  0.0845577600596349  0.3255055778147247
  0.2512087630844550  0.8294907256642420  0.0881155604995900
  0.4135454618582945  0.6714353776192689  0.2535907482816992
  0.5011845214456722  0.9980808896724197  0.6696505880846135
  0.5824516583479789  0.3321110463680702  0.2499692305219649
  0.7492771297692391  0.2495743798418957  0.0058057865815680
  0.4143892700522310  0.9091043906140516  0.3303641930370891
  0.5002077643226646  0.9119631983373739  0.2572228555788837
  0.0875487305953039  0.5841128020341768  0.8338208865208732
  0.5056947674480045  0.5837339019312437  0.2498300892452341
  0.4932460665987203  0.5844306790090988  0.0848932082071864
  0.3302108760866733  0.5836016721678396  0.7536888110380716
  0.2459560726698415  0.2474979472997114  0.8267971393458581
  0.9978626869008751  0.1663525568550091  0.8317332497398959
  0.3312725686978900  0.4192625958768020  0.2434643861385815
  0.5882306176325731  0.3346650556855501  0.9173955058328941
  0.4903154130872572  0.9200860751243913  0.9162664606058134
  0.1505227444361075  0.0823039793962757  0.5825141489968808
  0.2476430909912031  0.8322387296080827  0.9097398782373189
  0.6643787958854654  0.9182737875198635  0.0884795122014187
  0.3271035285635754  0.0820916839063534  0.5849100513714102
  0.8341679081431462  0.7493945019748527  0.0895794301731079
  0.8438415150213824  0.9186660118397110  0.9144080109502822
  0.9963756166348892  0.6697471016778325  0.6676568853125082
  0.7513892783203980  0.9180396642416545  0.8212178641041881
  0.9995006273989893  0.9981530997020035  0.6652328412816729
  0.9987092378450342  0.7621220336330294  0.5811371491998094
  0.9902599495184102  0.0019490420445511  0.0006295732102693
  0.1663361789850696  0.4986262105940493  0.4968279622086354
  0.9987381820796682  0.5008233143381066  0.4889988363698166
  0.9981474985108779  0.6705955617928485  0.4914594842588822
  0.9153546485791245  0.5863480160890076  0.3318531200739325
  0.8353870232225067  0.0836970798270968  0.7459819189798607
  0.0785603499976417  0.0932346184486594  0.0007160242247249
  0.1702195410126820  0.0009516572023998  0.9985656203407256
  0.0779638762075318  0.9993188477476970  0.9098382155609799
  0.9151424121781658  0.8335588091729175  0.5823001833600969
  0.0786558423787040  0.0007637141033624  0.0894937931406779
  0.9996846341052100  0.3309008821249545  0.4978017380158202
  0.6653274949037264  0.6683969673707681  0.3314361739167677
  0.2418638680428163  0.4156246276984712  0.3329909179731914
  0.8307570770934538  0.4997316094097648  0.5023953052586498
  0.3280318254331239  0.9960929561487489  0.6781975202565569
  0.1614327867722913  0.3333101045628715  0.1737042984138447
  0.2460883841478110  0.8327926533352723  0.5825188886260337
  0.0805060946795388  0.1670514265717699  0.2519334324356566
  0.9988546712165840  0.4097455578621855  0.5768071024247301
  0.1596882452918940  0.2465891765996048  0.9166456115318578
  0.1567596512419749  0.3314713910714050  0.9965779759549790
  0.0815128404414541  0.4152666721077976  0.3327162261422771
  0.1645914364477960  0.4164450474352729  0.7517200576048508
  0.9986408604779854  0.3282708581511768  0.0010364207415213
  0.7473298014889838  0.8316048496615275  0.4173961152845830
  0.1648869835002105  0.5032153599790987  0.0007978818935685
  0.8332027089604332  0.7516485264266870  0.2517344209760351
  0.8404683876568559  0.9187946971332176  0.0863701633182159
  0.0748164816006070  0.8333861727412168  0.0876193561346512
  0.9968579278350284  0.5047653424941835  0.0018138126475398
  0.9082848140952369  0.4999110723949409  0.5771948947779741
  0.9971567212120853  0.4971997579817879  0.8332892139317192
  0.2491419292503758  0.2447237038530243  0.0053349375324180
  0.7508919899346903  0.8319364285045114  0.2529402655897556
  0.9985277829156201  0.4146174744351471  0.7571779628393827
  0.9151616186654408  0.3304874419894206  0.5759578726335555
  0.3243303509762019  0.0859330985619173  0.4158434618481479
  0.8337679795169217  0.7500320028450252  0.9130748612516583
  0.1632389708520877  0.3315507939473962  0.4978205584971079
  0.9142936544704172  0.3311580133247117  0.7552854982764640
  0.0794680597686779  0.9181686523380583  0.9994779284143803
  0.9981175780745581  0.6740398767782172  0.8310597607890091
  0.9978141500045249  0.5873453916133122  0.5793791010274758
  0.9985968565632017  0.4164747814690156  0.0887043813487269
  0.3251312307341489  0.9983259244429226  0.4944797233274045
  0.0819771178947742  0.9144971405368558  0.4978605972787109
  0.8433907042528882  0.5822290224659588  0.9176997432758953
  0.1625612147572932  0.1660629528939147  0.8321097106137907
  0.0817030494319801  0.9170750317280829  0.3330727702848992
  0.0813235584529888  0.0013146282186087  0.2510871968919461
  0.4097814336176759  0.9214692253332197  0.9956486659380805
  0.1633064934769522  0.0837671788175650  0.4159457230802394
  0.4093294124785133  0.1625418930029690  0.9148326139657073
  0.8322544918480482  0.4975609082466195  0.3246390782621476
  0.7533930635368643  0.9179515992740965  0.9990126257507813
  0.4139969356393848  0.5848093612741687  0.3388742850590502
  0.6663421737395540  0.4104272064924788  0.4143536542516518
  0.5009983014476919  0.4170796385610915  0.7545692615284766
  0.1632290232134980  0.8342881209823297  0.0003727365119021
  0.6662314469976740  0.9149315831401325  0.9124132745672231
  0.2487400083460058  0.5844174161391080  0.6641830367676396
  0.7497830721731293  0.0003956531207177  0.5898665543897262
  0.0818876070068690  0.5839852046667201  0.1682620581421639
  0.9220284486372952  0.5001616841565836  0.4118036642097351
  0.0797971600668387  0.6635445382982523  0.0871994254487434
  0.7475066934914031  0.0880733650622635  0.5031440606790308
  0.7525015368600757  0.4156266138798785  0.0042119612230459
  0.7502684722159685  0.2463349898483312  0.8278966111030374
  0.6677459891818956  0.9172084531089565  0.7472260353638924
  0.9995160671843184  0.4157585335777347  0.2511952725234709
  0.3313332574719405  0.3250844639860010  0.3317918665235460
  0.9184367149247884  0.9992773492139493  0.4184922854064013
  0.2480846108126085  0.1590507247815277  0.9160292789433960
  0.4146266303222563  0.5835737410143820  0.1620229874888540
  0.2477551170856091  0.6652365012470272  0.0837876349452096
  0.9152798512234793  0.8342556796998953  0.7463521648099811
  0.7499430726218965  0.5834083395487075  0.1713902529053685
  0.2468106805798911  0.2506432002266216  0.3309851968759131
  0.4148211822192325  0.3292333707049078  0.5823261001546483
  0.4163223299680969  0.4936372294869785  0.2494498180177962
  0.9996927497800328  0.4162687576584272  0.9101683143805755
  0.4993410922262515  0.4240601886635517  0.9160305704303555
  0.3393158886438860  0.2454427655786230  0.9156465110598327
  0.3282611902367533  0.1688661189965614  0.4965232151042667
  0.2464277143837396  0.3381203944977346  0.9140021494082207
  0.7537944867024674  0.5006896207019458  0.5802884221003055
  0.9116598430010519  0.4157637308936029  0.6662288969662640
  0.4150615330712724  0.3310350719358419  0.7527527267153841
  0.3304392748102838  0.1689149498245602  0.6761044922434891
  0.3225433271448201  0.4177974588243026  0.7501342159814295
  0.6669761442841148  0.8323388101848073  0.4996313684637931
  0.2467381691810377  0.0834863745332430  0.4936699429601625
  0.4997693186668044  0.8320503114633166  0.6716094456221230
  0.9160713400814509  0.9167149125768586  0.4991452582592291
  0.5834986780512794  0.9134654899009463  0.3326991515296218
  0.4899098514075619  0.5826534451999732  0.9186779295599296
  0.5051397882026779  0.0837938577053076  0.5912719754050416
  0.3303637426559151  0.5027307730711029  0.0006414152449983
  0.1619530325018087  0.1662510462076381  0.1688683133771104
  0.7517150382047386  0.4903324822865032  0.9190570691631491
  0.5002936985043973  0.1683522643458885  0.1674547373136616
  0.6698996417295227  0.7553771836546185  0.9138874927693772
  0.3272215329326861  0.1713838867407192  0.3313233803866393
  0.6682072698948703  0.5851783961713066  0.7481330019674557
  0.3393158438270891  0.8310090994683006  0.9971862637804747
  0.6680699379836211  0.5789927175137410  0.9180879375310892
  0.2489032868692802  0.3342833226445267  0.0911420459035026
  0.4191925639094256  0.1759010353612954  0.5841063576679741
  0.4158828805581072  0.1677945816375253  0.7488134216327604
  0.4188901265790767  0.4169931877589025  0.3344083895189874
  0.2449384975449231  0.9971677044216064  0.7491855127865914
  0.1639682297457404  0.5026741945867419  0.1689742764113631
  0.4101657130391394  0.0879957869952516  0.4985442066539881
  0.7497707133177228  0.6698580080719050  0.7475788184808511
  0.5053404701250694  0.9960325201304645  0.4982097151752352
  0.7489315834926958  0.6645182062305115  0.0891706339649717
  0.7490685099540811  0.9971801471194046  0.4140508622162950
  0.2459703713586436  0.0009584269022612  0.2512430564414058
  0.1638777090311673  0.8326122931855626  0.1778468587939792
  0.4160768066908797  0.9953922768256868  0.4137429410081279
  0.4993771282967825  0.2501984163946868  0.2471242190968556
  0.0828197814540610  0.4169087702463087  0.8344922710191566
  0.0001204872321056  0.1643640865254118  0.6655695410637840
  0.9150805552419822  0.8321310333873705  0.2527396324269387
  0.6732369191049464  0.5811113181721940  0.0874571836343750
  0.7471997677462320  0.9996432851069141  0.2543173567464865
  0.5007195776882504  0.2480549929714674  0.9171220922704827
  0.7476479261673724  0.0832462531964934  0.1729100909675091
  0.4092303994125954  0.3320163540215618  0.9156764348613687
  0.5020643904798087  0.3320368813503127  0.8259422888650154
  0.5864726502543540  0.4172079870746142  0.8297502157879865
  0.6680408865183892  0.0837167691483216  0.7472549303016702
  0.7482306710639919  0.1749283221823911  0.4155234841963087
  0.2450353846926951  0.5005457079480886  0.4180724400447919
  0.5001738583770350  0.2495904684569561  0.4152270813414479
  0.5886397056649649  0.8313168089269728  0.5830433867104442
  0.9128081196747534  0.5936549754254120  0.6650315279528797
  0.4998534654647745  0.1651101734687704  0.0076876768191787
  0.4132778529411137  0.7491075931206459  0.8308278327066158
  0.6678253464909741  0.0834025524387711  0.0870313156011014
  0.3291985989539765  0.6670970796287814  0.3348502215441215
  0.5799571968084898  0.7508141584864820  0.0063915657517123
  0.9874121919207268  0.8351125383917113  0.0005743827801091
  0.5830452005345670  0.5814201460019106  0.0008622918051043
  0.5816722226424772  0.7519679805765119  0.8267415100195207
  0.2477548506251901  0.7401519875506701  0.0007066003830624
  0.5839089755841476  0.4868091972062134  0.9171016949059790
  0.4131282992092676  0.5831574612133198  0.8332044848951510
  0.4970280184013511  0.9168780044230718  0.0807227304392639
  0.4987476458061610  0.8247777759546195  0.1698464722251947
  0.4132533285325209  0.0876649478614545  0.3236906888051938
  0.9190408569552787  0.0849757610152639  0.0001225452918049
  0.4144879058765837  0.3330551147818228  0.0899510127787884
  0.4968810872613347  0.4163326033944880  0.2497791704947159
  0.4161479740544765  0.4147185263445480  0.4896001841987176
  0.4995718811206571  0.4143993483733642  0.4167950181368841
  0.5822344703840758  0.6736389419022202  0.0847573743114675
  0.1658627341103839  0.6733018559189852  0.6658607329784794
  0.0809692833255886  0.8339465662795903  0.9091911145318210
  0.6667140136043634  0.6666280415369157  0.4989274701555655
  0.7498031585447218  0.0090869382882786  0.0866231844722806
  0.5814675743962956  0.0859574684963711  0.3320021554152606
  0.9101604327167664  0.5833188100931498  0.8301055668949617
  0.1674482598414298  0.4964597436418826  0.6648098693920697
  0.1641493543558589  0.8334004426745627  0.3311235196636364
  0.0824114839019578  0.5847234683750848  0.3343640043698080
  0.5829211591502929  0.5825083178887982  0.1754490355987449
  0.2390269500140608  0.9941189789163779  0.5841686748534165
  0.7539437196315439  0.0096563402612406  0.9151898001674444
  0.4962173054918853  0.0723482339345158  0.9156091983954299
  0.9185565044150834  0.1703735683916875  0.2526009842981360
  0.3290330288493258  0.1657962573022602  0.1666535225151298
  0.5809210067597099  0.6643910911536364  0.9177792216263053
  0.5849291217535492  0.5828695159911748  0.8234534037123435
  0.4998378648768603  0.8311285997294782  0.4941912672648495
  0.7476109901421227  0.5002955186149148  0.4123808519583850
  0.3313722463348273  0.5851309727080519  0.5756231119166597
  0.6664022291806169  0.5902133006459006  0.5829799472294572
  0.5774347945544295  0.5028780978117148  0.5806745519819437
  0.5779321342322231  0.8370689206638211  0.9127734190080312
  0.1637346383746905  0.6680668520486487  0.8338398197859693
  0.0721087576783539  0.3318002518081227  0.0858005521215052
  0.9989627701727833  0.7506238782672771  0.2527668453125710
  0.2462228953467407  0.5844855222442644  0.1672131979623656
  0.1651131529803852  0.5858560212817387  0.5738708473813648
  0.1652500653956721  0.7511309345533971  0.4145257933212067
  0.0807474172159067  0.0065189034346698  0.9995408560066201
  0.1614190942741350  0.5848496565961186  0.6635096060975127
  0.9077331960552590  0.5060504944898692  0.6683249884208941
  0.7499099374440426  0.0863581150920188  0.4135894973542510
  0.5052051127760381  0.0872594179046932  0.5005013338114537
  0.2497785527277979  0.2480840901542757  0.9150118759927502
  0.4101089632266989  0.4203168143393162  0.7532645131381460
  0.9974323016524537  0.6756007637578469  0.5795148710787239
  0.4997147969457458  0.3364061255390154  0.9156427916539439
  0.5775080057957782  0.9249297828431071  0.9110717941858402
  0.0740448988351607  0.8284174676834496  0.9971351223887284
  0.4138036272038467  0.0876338842263261  0.4098208901598566
  0.1632535162108561  0.8329593861056025  0.0908480777657933
  0.4081619399549184  0.9172611259942350  0.0825799004015923
  0.6605029580284217  0.4982375536153170  0.4109408256626313
  0.5016634161684874  0.9137914496732740  0.1693695920826722
  0.4998478807410068  0.8317314962920159  0.5826885474403846
  0.8338761105503336  0.0842506786230041  0.1675742384752639
  0.2523762724482497  0.8313579217603887  0.9978809857048522
  0.5056718143770355  0.4180286372773162  0.6664773364767512
  0.1594921359769432  0.3340504978197584  0.0865559566079494
  0.7481509851697278  0.2485896268364028  0.9170436887320011
  0.4173740804456580  0.0875253710511064  0.5900315895585527
  0.3293247385223893  0.1742565954331300  0.5864546749308255
  0.9989471501813947  0.5867966004757965  0.8358792761734819
  0.9994933242543066  0.4992035597165256  0.5763913644945423
  0.6642034396646875  0.9165962921282480  0.0014870572480340
  0.6646662110420025  0.5002339395034431  0.5848009063018869
  0.5770145881748467  0.7510232950175280  0.9165230201236848
  0.4109946267191765  0.4182239317990514  0.5750959896375172
  0.9958902253999055  0.4168253185219277  0.9995887472716519
  0.3296202849967305  0.4141103352475763  0.3314622200177224
  0.3275308947215029  0.9910702412452143  0.5880714266162494
  0.4127495605313873  0.9968552219455412  0.3248758036846367
  0.8353861461145564  0.4982813288927848  0.4139053282141057
  0.2362273719892881  0.0830773201639139  0.5842698320818501
  0.3364190686996553  0.5846944774312048  0.6643149278568585
  0.6702402012732426  0.6681336670337913  0.9167391873611535
  0.7534686364635785  0.9193743328204557  0.0892922456832772
  0.7483703139456063  0.9985517444552011  0.5030062380027108
  0.4160014397202167  0.9929951598827462  0.5017877223922479
  0.5774428804339229  0.5740821916940483  0.9110655057835277
  0.8361622468161997  0.7503022315588984  0.0015199111095779
  0.4151934502474124  0.5827828459104266  0.2505293107649221
  0.2452208887243805  0.3363679994181996  0.0023845057037350
  0.0037509961911341  0.4131211652490502  0.6682175460029834
  0.4996543355005353  0.1596773255501401  0.9174813436679472
  0.9103769053851170  0.3248497897432004  0.6662088445188432
  0.4163286442573306  0.3338872071171168  0.0043916583641639
  0.7562786481198599  0.9204342693580002  0.9087675137913732
  0.5829320931220329  0.5827867903445475  0.0885158666541326
  0.7570965590103587  0.5779656764668085  0.9172580655805443
  0.9986775690406390  0.2476614572279979  0.7499842206893985
  0.9133819039337175  0.4136349473689306  0.8352938932840106
  0.0829475116642650  0.5003259647746642  0.7497978147939531
  0.0810536661674097  0.5833193083097297  0.0019761610279030
  0.0757702484410355  0.5854090916159543  0.6655944861122065
  0.9989014933636754  0.5008606251832316  0.1694326517372748
  0.9998059899696268  0.5001382212973354  0.3319465240104139
  0.2468156750166869  0.5034398428970213  0.0846571316661280
  0.0819504327449934  0.5855628629390910  0.4951039145962967
  0.9990867183147846  0.5857293574844173  0.4133805361556160
  0.9960169666653533  0.5839381840984882  0.9233274329985581
  0.8314789084947786  0.4977530203445529  0.8328805119092713
  0.0825977620432117  0.6689958247420599  0.4146343558340364
  0.1657271221160920  0.6673942958927745  0.3345265704435905
  0.9975528393132662  0.6660837219416131  0.1698958204596502
  0.0803705475488794  0.3308816788628162  0.9154349990381879
  0.5831171590524987  0.9987581069075023  0.4133726818291052
  0.9983319012813274  0.7478932456733114  0.0879691439382191
  0.0808995153105560  0.6661627443657672  0.9162926433711828
  0.5835576298175671  0.1661027517528762  0.0861373195938024
  0.9964946101222157  0.9185152855688764  0.0873711055861702
  0.5013334717867979  0.9135390241836101  0.4141707141953446
  0.0792954354964413  0.7422800030726283  0.0013024666851221
  0.6647442333511856  0.0851549285527476  0.2512012026016420
  0.0803396331867552  0.8331647194534741  0.2525168540270388
  0.4998397691370995  0.0865092244031051  0.2486109063242564
  0.9151082160487617  0.7514520029248628  0.3337938289849260
  0.6668058121776250  0.0006092740062089  0.6666276603928104
  0.0824682998414118  0.7506660004160626  0.3332107404868600
  0.5842323691493527  0.9988614917228453  0.5864866413888936
  0.1636549411850053  0.6646762263792425  0.1683665605871705
  0.1634350052082176  0.7432784549639949  0.0856266306291651
  0.0811386639940022  0.6659479742015567  0.2516696890022025
  0.9166392158526838  0.8325966109426467  0.9126570434637026
  0.0809457349793740  0.5020308802663002  0.0857473048038187
  0.4106358168926741  0.0019622840609499  0.9139006467993592
  0.6658904935638871  0.4129475650400736  0.2492103670316096
  0.1639566044807073  0.8331735517834928  0.8330042837666942
  0.4131435811244584  0.0820636360506791  0.6758217232973557
  0.5848417252067393  0.0008507292076208  0.7482989222830095
  0.5841936045818172  0.0841774572308761  0.6683706899838032
  0.4138930204766609  0.9169221064124204  0.8317138429437723
  0.5830570675522735  0.8326019301888387  0.7481694247787486
  0.4999949973330641  0.2490171191649648  0.0865093034607608
  0.0865229501102270  0.6695229486432852  0.5802450958303138
  0.5827438489628515  0.1685510474795338  0.2487257433390738
  0.4153698945992562  0.2492826008638561  0.1663364486595418
  0.5000536598737032  0.1696105945258190  0.3303505015709696
  0.5830469260340035  0.0011473615746307  0.2519488837239303
  0.4157138564770483  0.3298538621135244  0.4143712450504992
  0.5029789669955481  0.9996982709002448  0.3313956760427197
  0.6656511194340855  0.0005646906352132  0.1707736978498366
  0.3282709273721261  0.0024565775772564  0.9987831236393800
  0.4126545923678778  0.8277520697866118  0.0854590892789274
  0.9986641643711534  0.1671144318121687  0.1700088939260717
  0.3315826848487472  0.7480152693599038  0.9148382920590887
  0.9090211761244790  0.4154835859763153  0.0019644019406702
  0.0827415412916611  0.7518951729265092  0.4971303557933529
  0.0804930265382795  0.0818162156781148  0.6682062567279397
  0.0797940053051140  0.9164509110940350  0.8316345947466995
  0.9978086218984441  0.2477673914053519  0.9155797166599969
  0.4151886941902318  0.8311614426303771  0.4149871935844611
  0.4128140990829256  0.0826611958601110  0.0029323498396186
  0.5839079205159969  0.0831534369304285  0.8291708734324976
  0.5826633433435693  0.6672375254284231  0.5820819528767881
  0.0798394799724860  0.9174424092138914  0.1700081640669368
  0.2475241087259723  0.9208430399870255  0.9975498316861394
  0.3290148787589298  0.8306839647287338  0.1696167467800165
  0.4133832782164248  0.8289625167274959  0.2509132496777390
  0.3281944265092457  0.9152166181780187  0.2504795364200947
  0.3289973234645086  0.8322628853064890  0.3321185198677750
  0.3284521633306999  0.9135648667547968  0.4143605971939977
  0.9984675685287971  0.7517551044038018  0.7480868212267194
  0.9166909349229806  0.8333271904718698  0.0882240145227208
  0.0798567119343597  0.9994241698808228  0.7493695047262945
  0.0816002807866491  0.0828416217126373  0.4971078235589325
  0.0816884611964992  0.7522322498531674  0.6662349487288818
  0.8315416248540023  0.7532482281342033  0.5814618918446669
  0.0000132528613108  0.2482587246409330  0.5807682713346946
  0.0802429873371790  0.1673772880650104  0.5824980022613744
  0.0824616486765611  0.3317142901185315  0.7514225289665893
  0.0796691462656005  0.1660063545353000  0.7494310631805434
  0.0812231678415368  0.2488836160082968  0.6662435458664397
  0.9151010569354672  0.2475366615919490  0.8323735921960915
  0.0794041212204043  0.2465733614068161  0.9998074216898710
  0.9979956015478929  0.3327747632864524  0.1695168278793359
  0.9978669028552561  0.2482482945992405  0.0856068452013173
  0.0827900037579990  0.5022555583934903  0.9175320053677706
  0.1634426817662187  0.2507927293929828  0.4145087907781305
  0.9172151906157201  0.4144575889902832  0.3318880275108106
  0.0803337649375790  0.1668505691943889  0.0858602662333143
  0.2454136372959420  0.3321122844509002  0.4146964355306895
  0.2470004807817860  0.5836981483788634  0.3352628577314906
  0.2476927795566838  0.4996951437897948  0.5789448970091781
  0.5038278147858968  0.4151022407426622  0.5779451152739659
  0.3283484585923819  0.5011278398948977  0.8349156261835332
  0.1647607936963600  0.3328682009001463  0.6676151229396584
  0.3307685102959700  0.2514639701511431  0.7502171574896870
  0.2454343413838581  0.3339481047730698  0.7508476558143200
  0.3293196171616916  0.4187650643013288  0.9178556206982655
  0.9166706739301784  0.0839373862280896  0.8306952769931767
  0.4121831828527496  0.4192382514114581  0.8398660001664955
  0.1633057704003834  0.4183810216283085  0.9172236892291195
  0.2468075010736659  0.3328343484468530  0.2480618579465922
  0.1633787360079575  0.4235334726513901  0.0848690754201796
  0.2461875318452136  0.4194082000180249  0.1676408723535893
  0.1645761760928733  0.5839148132259323  0.2518222012515745
  0.1649477075446895  0.4158674951373650  0.5799790861346189
  0.3305367758953138  0.6657697514968610  0.1677538819942150
  0.3306493328891330  0.4996520403311073  0.4969631830469391
  0.1639502538780674  0.3325655130236930  0.8339239553624455
  0.0803121155507651  0.4181034213064121  0.1688714374854638
  0.0821159612664278  0.3321801351111466  0.4146696699062014
  0.9983091270904467  0.0851336610733056  0.9142390120222073
  0.0801891906283842  0.7484434623917641  0.1697359182477463
  0.0797831209896513  0.1660330055908450  0.9142754444551878
  0.2461169979175091  0.5846686155171839  0.8335064560186227
  0.9158569941524696  0.1681674801879403  0.0840444498195523
  0.0814906889207644  0.2492743154050422  0.3323959548690787
  0.9979194974525005  0.0860858922875819  0.0861182100938184
  0.9982316749118332  0.0008089518279508  0.1700535400403954
  0.0796808711603851  0.0833067462983885  0.8311735270495121
  0.9994067569215128  0.9166775352786753  0.4163189974161944
  0.1630135695102169  0.2445499424238107  0.0846309984068739
  0.0820057399223475  0.8340094569972368  0.4148222118869739
  0.9992296672087225  0.7524751915326351  0.4148585077222663
  0.1639968948798731  0.5838446914303926  0.0841616434751201
  0.9981892184935252  0.5855846075792092  0.7460262375061710
  0.0806254871101536  0.2483469779554855  0.8322420109791175
  0.9989760818797417  0.3324865877493454  0.3326978658755976
  0.9983383320140508  0.0832194393523955  0.7484738533268702
  0.9985356774699663  0.9148640829070954  0.5814468919360923
  0.7490208980385569  0.1670234201070963  0.5823687884953540
  0.0825782103995179  0.3316660669125648  0.5809947252165035
  0.0807397833921589  0.9154463788361848  0.6667863840746108
  0.9995762745952163  0.1656428980180386  0.4980286529076749
  0.9180347514669366  0.0001438117330021  0.5816572935632081
  0.0800460882509124  0.2488794275190076  0.1695592866501767
  0.7484508556002726  0.4135807729815547  0.6656654426929070
  0.9161075416592581  0.9195627366341688  0.0013993445701192
  0.8324913686232094  0.4147965788494444  0.0873523584224120
  0.9993251239806481  0.9169750223824492  0.2524182590154037
  0.9162925264854553  0.3311411712822274  0.4158874692600841
  0.9998589144890442  0.9998917461460187  0.3339346937173155
  0.0013633651584640  0.0821127176380021  0.5825960332531207
  0.0002024163498178  0.9984833577812979  0.4994778616065312
  0.9142326900675850  0.4978523280800389  0.9172872225030615
  0.0826295685213540  0.4149632896610629  0.4965102428346340
  0.2465097071311046  0.4177428963089978  0.8345573494216196
  0.5839823931757215  0.1702289405020844  0.4144195539304631
  0.4994780271676047  0.7436606754534898  0.5821451377195442
  0.2472261380313492  0.0844896957988531  0.0008742002452874
  0.3293410775209987  0.0839535121211135  0.0866189046114046
  0.3264456847285046  0.0010646653982796  0.1693219839914795
  0.3241001333882133  0.0006003994480543  0.3324297238217262
  0.6660123981683003  0.9150393781519065  0.2533870181283432
  0.2454634484719027  0.0817341514277057  0.6725498121162817
  0.3307101026256006  0.7470631147859012  0.0859029482162485
  0.3291472843652911  0.4191527415521364  0.0861973804285562
  0.2464129150128092  0.5010230986856127  0.2502831895461782
  0.4169893210720840  0.5055672445990467  0.5800077811525315
  0.2471139479086621  0.7507904371760802  0.6665669143130227
  0.3290123331247530  0.4962308920384279  0.6642366026379803
  0.4217423306106561  0.5861202871157749  0.6641990554176629
  0.4971932252975262  0.4987359682882295  0.0028163531207255
  0.4986869370315228  0.5016460611974147  0.8316602077288605
  0.2464787878571268  0.9166156124094430  0.8324430587132797
  0.4126843069397890  0.5014606150587122  0.9178236963691205
  0.2471870176010794  0.0019562181755459  0.9142726040498768
  0.2469256246795328  0.8314313130961106  0.7518273971944684
  0.3287523266436340  0.0828844147071272  0.7511046089551137
  0.3288905039966664  0.2511041302644922  0.4164227176228846
  0.0814422604546102  0.9986945687130143  0.4160529278671719
  0.4144222206841476  0.1746838322972855  0.4144236770568384
  0.1632534952587197  0.9185882144981133  0.2507043036920121
  0.4145799331285456  0.0868492161265918  0.1679395228369849