Cr N  Ni
 1.0000000000000000
    21.2644585842396125    0.0000000000000000    0.0000000000000000
     0.0000000000000000   21.2644585842396125    0.0000000000000000
     0.0000000000000000    0.0000000000000000   21.2644585842396125
 Cr  N   Ni 
 259  52 605
Direct
  0.2477751282599938  0.9168011144750968  0.1632015518190179
  0.3310386330692400  0.0739879468825404  0.5733504659487472
  0.0784837687646366  0.0795960400384132  0.3365879049503042
  0.8307004719331005  0.7460283301833301  0.4100697146459900
  0.6592866127612395  0.8282607901632034  0.6602965522625480
  0.3241725426556957 -0.0058370423698844  0.8331828434020216
  0.2449978680180442 -0.0135028598610588  0.2470457914009734
  0.4924907804552587  0.1631817620572796  0.1668160888454721
  0.8321391167646701  0.8280098680626283  0.8336244039957890
  0.4124798125603946  0.8269769633252143  0.4108715084881770
  0.7471672137156539  0.7485916000601456  0.0005482514197085
  0.8259599266288143  0.2463723155646493  0.0927086929603993
  0.1612616901257657  0.0742313080977931  0.7428815493291198
 -0.0071431112511111  0.2462692645303007  0.0837273767911687
  0.4129858006053290  0.0752973569605890  0.6554329014413558
  0.1556033741708246  0.8293712905847191  0.1650095080258484
  0.2433971210809746  0.8275501291132011  0.4131427720301290
  0.7473560427629881  0.9105554873495381  0.3277570264772811
  0.3337852688743400  0.4159293980900882  0.0916023254169023
  0.7463623209856932  0.5896285150505585  0.4935433212406741
  0.2542562857367673  0.4149052036534502  0.1665533250336628
  0.2467255873095853  0.5813870994645437  0.1690692694533834
  0.5796283663366396  0.7463392510014684  0.6610890214967996
  0.3336069795047322  0.2394020452954856  0.9193269578054291
  0.4156830409550432  0.2443301644648439  0.0006396781617611
  0.4176640845871341  0.3298438629016837  0.9162121365067347
  0.4161727701570855  0.1607891803251474  0.7426902024578150
  0.8265983274638331  0.1540216809352898  0.8316002530573391
  0.1609918780472513  0.0824531729912592  0.9198517409931855
  0.6634092965202990  0.9105783775665069  0.4045385561277836
  0.5790322367650599  0.7442905963645682  0.3276483336854594
  0.3313958956830423  0.0765033594418329  0.7395538933117125
  0.5016045963525984  0.2447048594529069  0.7444636872793883
  0.7455804282461823  0.4165032654011598  0.0012123573444012
  0.0683230701127567  0.1616218262234122  0.7452036005115755
  0.2438589588857944  0.1556542577138672  0.7420074938361908
  0.8349265315554687  0.4221710478235145  0.7456507800913926
  0.5019391896743760  0.3315306241933416  0.6515460575898625
  0.7488663068126034  0.7390886592795214  0.6634723376290160
  0.5795727898306386  0.2484027597932730  0.3298103452524809
  0.2461250854783147  0.1641697083878143  0.4109016760239801
  0.4980782621436400  0.8291069696064254  0.0011519392975260
  0.2477746671671295  0.1628997475970319  0.2504333711124496
  0.7474344493222351  0.9116128724813923 -0.0013647176432109
  0.8302000341973064  0.3283240774853227  0.4950326257978118
  0.3337760285140289  0.0771415441036323  0.0833844029553531
  0.3306119700619412  0.1604690096135661  0.6568786221057566
  0.5008063222985661  0.4188489300572926  0.7429071936285706
  0.3331675869497525  0.0766312542249983  0.4100915158535028
  0.8356757185026542 -0.0016286174540940  0.4947827165067825
  0.0771693084880539  0.0785957283782065  0.1579150249807457
  0.1628323073442114  0.3339894026420246  0.8247558962946123
  0.7461367468834269  0.4136294962251188  0.3308958608057224
  0.3311538937947691  0.2543666125851904  0.5732529468855604
  0.3259300124410079  0.2528256105090189  0.7399572306665251
  0.2459351912244351  0.5810549919023363  0.3324320030712500
  0.8276024540147452  0.3307004277423966  0.1667953001828718
  0.8305738297590467  0.3258384281760200  0.6523595428205359
  0.0722896862206282  0.3330383313120652  0.9146424195146787
  0.7368765187153596  0.2456618980826667  0.0004642732072896
  0.1657296449570823  0.3272025761523228  0.0066893449666812
  0.9203624165476075  0.3345016444232378  0.7414089500158497
  0.8283064889749755  0.3353556409769893  0.8351680266669642
  0.0743569182213146  0.2417675641684597  0.8251396489574184
  0.1639299646893042  0.1536449549339330  0.8356953645114554
  0.9128961761759636  0.9102467082261728  0.3278478812025730
  0.4999753801572183  0.4207464856274241  0.9163561749212628
  0.1632243707961396  0.4141039523187232  0.2561751253817710
  0.2456612008031374  0.8348931380077567  0.9170109135657718
  0.6640066702857221  0.0743004818533335  0.9154179629540139
  0.4970734561186538  0.6673484357970222  0.0065371185031213
  0.1611769353348255  0.9089297343583467  0.4121508957203626
  0.4131227304957448  0.6648065824604058  0.2497080311281249
  0.4975017289630205  0.4982930211506346  0.8350697782138838
  0.9117084887652021  0.1629276504276528  0.2471764607258446
  0.4958527117111644  0.5795830973628190  0.9151123591092795
  0.4998997195229533  0.2435238263042865  0.9185477743649042
  0.3295795528093129  0.5003639962916785  0.8273880852113490
  0.4951425541381267  0.5942578565040486  0.7438552164260106
  0.8227919592357440  0.2465031825098662  0.9170155103896812
 -0.0149800728593158  0.3329309626355685  0.8268158822143631
  0.1610209408420730  0.7443459885284686  0.5772718497303014
  0.9131247156523010  0.2433970102115321  0.0053668957623370
  0.9113793991470557  0.5827712658489783 -0.0009266883889871
  0.1626797274416589  0.5076348163425661  0.1670138727007637
  0.4149083389539576  0.4991306668171869  0.2486432803809486
  0.3355122632416126  0.2458998571986586  0.2514834620648614
  0.4187255128823676 -0.0091293036855402  0.7456698480529823
  0.2456746901023571  0.8293583217984540  0.2547237385569656
  0.6632423024451104  0.9121866854979214  0.2502637228586170
  0.4138807657225357  0.8284059993295746  0.5770851646501896
  0.4975415558169176  0.1637620297354913  0.3298350456370417
  0.6615054552239792  0.9110083679035829  0.5838173389093921
  0.1586128549768457  0.2460574591108459  0.2495863717848155
  0.7475177935031286  0.1625033046318756  0.4105832203007222
 -0.0055244509811714  0.8278813386526837  0.8313687501244482
  0.4149178980439020 -0.0047282661844606  0.9215421634635688
  0.8270120883842660  0.0758594657896478  0.0831164939050753
  0.3330791699373750  0.3259353352307609  0.0041123237206181
  0.8315004107131618  0.2440715476478742  0.5761299035601669
  0.6643235322118665  0.8285776743781986  0.8312003876659516
  0.4964165231481538  0.9101782657899580  0.2470303928812902
  0.5729532709001028  0.9115656809382441  0.4920110409386168
  0.1608146658349275  0.5826369893681542  0.0855691259238211
  0.4968422765333681  0.4165804107507547  0.4122295310433657
  0.4979391369647577  0.1618802266541061  0.6542006483233604
  0.5792624359178306  0.2467950351751736  0.4911623026737259
  0.7444631101629097  0.1631644108314849  0.2485158908184311
  0.6620058593169497 -0.0054046183558083  0.3306605817400203
  0.2449414323669872  0.6568112164953590  0.9135966208207484
  0.6584303500889834  0.0000845451779882  0.4909362139179753
  0.7470720118524279  0.0884927815832519  0.4924723808554184
  0.0787193150766961  0.6639332199677208  0.7445429678382445
  0.8302443212670449  0.9120214190238916  0.0823146107459118
  0.4984017958289105  0.7580705821468060  0.9174813851058766
  0.8282198054454037  0.2395535674515831  0.7376978740569476
  0.4978575143575820  0.3311354587463430  0.1663962277739294
  0.5880586763122034  0.6679527504470062  0.9173721836839551
  0.5803707909004311  0.2550074806473125  0.1689233283942528
  0.5813495652146675  0.6662610129700183  0.0840950469285684
  0.6644264821510908  0.8306863079528040  0.1665193797941476
  0.7464278641292715  0.2384974772754851  0.6611793438406041
  0.5836347913501697  0.4940774638297100  0.9166002011538606
  0.4954628561504917  0.5005903964216381  0.6544225614421476
  0.6622943932504750  0.3314273285085534  0.1672627337780419
  0.4121273456829036  0.6641957124846034  0.4119617253700219
  0.5926214898550204  0.3308668224794313  0.7449456114394281
  0.2442518232343383  0.8356173599895960  0.7434512232521409
  0.4118645559135468  0.4983857354430372  0.7436699657246369
  0.2469131826993292  0.3342632534632954  0.4130288874943612
  0.5835087161586400  0.8285036787263236  0.9149702079537155
  0.6696823223093992  0.1617203794039258  0.1675942614630327
  0.4205694939938425  0.1643459731061458  0.5744795442110299
  0.4165787871450127  0.9010359787504033  0.8322788793373921
  0.8302851837628694 -0.0035228333450510  0.6588360469300911
  0.5911384225224400  0.1605467675441227  0.7482019321864088
  0.5005137377258452  0.0687062095309822  0.7446370843164026
  0.5808146610694556  0.1630551050526766  0.0785759394471862
  0.5810460166557669  0.4976634574256403  0.2482148411791550
  0.3306101245430319  0.5931011043408235  0.9134623391517263
  0.3310926667929630  0.5050303120737127  0.0038516784431075
  0.5878555848562530  0.5017831546353713  0.7443986917122499
  0.4118731081473677  0.6650365307576337  0.5760015856736795
  0.3287736622895475  0.4998358148717054  0.6534282277604830
  0.4132369742334980  0.3388231548694942  0.7421847197521845
  0.5783499381986990  0.7452830905447511  0.4935113086670490
  0.6569168685370078  0.5019087648974100  0.4917400764974188
  0.3293862769684213  0.4989415035688797  0.4933591183225832
  0.2459542681837387  0.7409246575549961  0.1658870354491911
  0.6612326552976592  0.5846799936686938  0.7400596341956930
  0.4945717991852591  0.6690550081394447  0.8253662614882623
  0.6634143722254314  0.4974279115759895  0.8331787344319630
  0.4965703497661668  0.8311443628077312  0.1666978940240083
  0.9111351685970575 -0.0053716673119391  0.9154977558814931
  0.3289317573446924  0.4164844327708274  0.9132992738502915
  0.8284295485464804  0.6642966589472723  0.1650340482076640
  0.1622791454270812  0.1622702116252956  0.6564623042761792
  0.7466434708056631  0.5820756090398368  0.3284209931518813
  0.7461248462322750  0.4170337341005463  0.8345692236595267
  0.6620765346277944  0.4985318612562570  0.1673260436960885
  0.7424449065382571  0.3283475618745959  0.7479394964594978
  0.6525704578830815  0.3296061012935285  0.6570287018893761
  0.7423039778616675 -0.0077603265023725  0.7457322286975164
  0.4151646678906937 -0.0066386956254354  0.4119748167874199
  0.5791686735893766  0.1638759741094853  0.2563901811736188
  0.4973513911277908  0.5004564155722779  0.4924450408055442
  0.7445657515078922  0.4123186782622696  0.4934523719738378
  0.7433425569868347  0.4188617420792601  0.6545326015149946
  0.7443633828960486  0.3298193158939984  0.5670865961820580
  0.2442943721892158  0.7446606251122693  0.8268868706873862
  0.6565719799399483  0.4188949459874327  0.7426437723747624
  0.9154618284299096  0.6640796205721564  0.5765167816257065
  0.2453986356263932  0.0782576709734139  0.3398754035567286
  0.5812766829813174  0.6653644067240458  0.2473605632670268
  0.0785571181199868  0.1696405704390082  0.2474175654761262
  0.7376557784632864  0.2459261133124101  0.8296084374453910
  0.1620407525573290  0.4225674888769475  0.9074843868212141
  0.4130895294233757  0.7464534034101078  0.3296938065239103
 -0.0057506632445274  0.4201483990538298  0.9102290235282519
  0.1632266061805069  0.2522997943433948  0.7412417572707944
  0.0756889650861657  0.3314194666551687  0.7370981480135593
  0.0773502479888224  0.9102349059128406  0.4955714538502800
  0.1629381875917359  0.4185240744472926  0.0829665388002920
 -0.0057098440318403  0.4151611553530121  0.2575487049133320
  0.0771499332934856  0.4182388776795121  0.6592225218808780
  0.0795158620496909  0.4141535958797173  0.1658458594090658
  0.3307338752763607 -0.0070908337846942  0.4914943471588560
  0.1673974949283588  0.2390056110623013  0.9226188853253050
  0.0689949663634475 -0.0060081793808847  0.7443705576147119
  0.8297960222955176  0.7473119485246277  0.0819005997604513
  0.0754787971566243  0.4157766462122958  0.0005551450121630
  0.6658023006936812  0.2445184219005097  0.9166997121326164
  0.9173796120089222  0.2438053355224068  0.8283567560051743
  0.5813117004706504 -0.0110674668524764  0.0837340642840065
  0.5781031400383785 -0.0050684072382509  0.4107681127158879
  0.3310296801204562  0.6613447500788554  0.0031320917562287
  0.9177548253828569 -0.0063146445209129  0.7453808453766659
  0.1543695770259762  0.7456985245000738  0.7442270930507271
 -0.0052659007026128  0.8297577486127191  0.1654567316467314
  0.2488278506816186  0.7434873546330679  0.0027532900053016
  0.1543657902753691  0.7466815407681107  0.9129805495650031
  0.6651137189590621  0.6704917664779954  0.8328954112413995
  0.7457334761804084  0.9143414609019794  0.6613618585475556
  0.0725224035605304 -0.0050058877634289  0.9183544702990590
  0.3327645884232449  0.9128920538691319  0.0813564357534279
  0.2490152099571195  0.0773617649261499  0.8333527247573330
 -0.0083293731235333  0.4153294384924284  0.0824191933327741
 -0.0048909013288572  0.2470817472899412  0.5745580187991659
  0.8362507488759693  0.8264455294004448  0.6620092772155902
  0.1600296361414889  0.9004006594473479  0.7452362811000179
  0.7473480836513352  0.9122170192960254  0.4948192737542962
  0.8305208392354048  0.8204075463164694  0.4932748662223639
  0.2510270223208426 -0.0056515039436540  0.9178398501032637
  0.9220816428069412  0.9093964898920561  0.4946780221388446
 -0.0057682833633481  0.6640240214732351  0.1659654979624918
  0.9123135158338057  0.8284198189927166  0.0820079328997371
  0.0760046231097679  0.6623690472432276  0.9129566517986254
  0.2470904350098855  0.4186791547303729  0.0043822786658986
  0.9147740958470488  0.6629549595877677  0.4113968894953173
 -0.0036766051805868  0.8271905450657002  0.6612160024363833
  0.9138744347863157  0.6631383368706045  0.7461385718627647
  0.2450868248527589  0.7459728971304238  0.6515970374220988
  0.1614520238678962  0.4989442485330462  0.4926467593823968
  0.9206991559176747  0.4185565509319999  0.6589900625188639
  0.0776053556218898  0.1533502480870708  0.9192742276283483
 -0.0039365530415199  0.6639358411425522  0.3311911586943828
  0.1594357987136571  0.9034811981210483  0.9158961057114620
  0.9122700546040213  0.1642581280361685  0.4123810310832173
  0.9137620121220412  0.5830376965627180  0.3304800391574839
  0.7443634791658607  0.5022847058905341  0.5821140096372026
 -0.0061841540581482  0.0784860181164521  0.4098038376947661
  0.1620374355761961  0.7463610183823775  0.4129955247293388
  0.1661697240902749 -0.0016823183712569  0.8310778999587356
  0.8339954314455803  0.4994531926149117  0.4942115175208014
  0.8313130729958128  0.7468951851956693  0.9151192998101444
  0.8294091804539562 -0.0042302060737557  0.8362930957447622
  0.9137758830977317  0.5015911432926475  0.7475788843304140
  0.1604035361730972  0.4992051440004537  0.6584773744746472
  0.9127522087346273 -0.0060103623762048  0.2474981605071900
  0.2447089691826188 -0.0084966668804162  0.7415262065105309
  0.9126593220800119  0.8286795899596779  0.2458884283665823
  0.1606277096178454  0.8361878360896317  0.0016183102768711
  0.1608246240690939  0.2500738385519680  0.5672250766011556
  0.3292290618623316  0.1625219263969567  0.4806621447865486
  0.1605088856956124  0.0726084261965770  0.5737022542076626
 -0.0060678019081236  0.3244518853119228  0.1667142500415727
 -0.0034950252923678  0.4984843490445570  0.4929352967071802
  0.8312687346362938  0.4157208295774367  0.5681399606896969
 -0.0135197874733062  0.0785152705727985  0.2490645627853076
  0.2492399039556539  0.3383059891119042  0.2507023979479425
  0.0782570010384886 -0.0093087406380120  0.2476718079841020
 -0.0048744023653687  0.5025128368533346  0.1657187930394710
  0.3335421454823774  0.1636594099361202  0.3349622548731477
  0.7480814053619400  0.5826788798166956  0.0022546997133325
  0.1628558287171426  0.0798269853665116  0.2479011418634752
 -0.0045760669366490  0.4152872538464497  0.4108107299009960
  0.1644305401529784  0.1586271357995283  0.0041356967703366
  0.3367236207383299  0.0813317102360714  0.2530920270656749
  0.8273993838980647  0.4992139074192522  0.1667380081618426
  0.3317051723054450  0.1644173600268158  0.5685555198244264
  0.5019464704924896  0.0717730454198525  0.6549663720429038
  0.0742895796855963  0.0799654595726939  0.2471244047116958
  0.6591592613219167  0.9078163711013607  0.4945514266698345
  0.6696508197396016  0.5844181910872084  0.8279398515232073
  0.8239047388738741  0.2459168737886840  0.0061912157974305
  0.8358652700921024  0.9084931761556028  0.4942942401680737
  0.3289158795477450  0.5059584513062508  0.9155485071169654
  0.5057900795569177  0.3315412510516794  0.9169810844042016
  0.0787570207121060  0.2405917649106086  0.9177791496395435
  0.3361069422701233  0.4156388813943382  0.0043855280268849
  0.7483310916521125  0.8261521981761488  0.6641207392160721
  0.1614183359048691  0.4211931991419691 -0.0048601666354052
  0.8339398573275917  0.4196388062453760  0.6552013456138095
  0.5839697693101016  0.5802024104866754  0.9210765472958709
  0.0725155775062298  0.3355732185965176  0.8239737876635853
  0.4131197860313908  0.2510779119741363  0.7479697531618726
  0.2442855689168085  0.7468831546828223  0.7384755527410656
  0.2506021645002123  0.0737315154865825  0.2486847155231043
  0.3238078454288928  0.5012850288281181  0.7394066806202750
  0.8301063450269300 -0.0037972281607380  0.7473925323915523
  0.1581002444952040  0.1600710868480734  0.5681281235223937
 -0.0129464232656322  0.4172600777581386 -0.0046506525320008
  0.2454044751308503  0.8285352868776800  0.1670549923445341
  0.7453846364868614  0.5015794877532214  0.4932387381521072
  0.1615874976607763  0.3323043251711020  0.9167401721654753
  0.5807757339493342  0.1645080432744346  0.1679748862835027
  0.1615984943985681 -0.0075431111749350  0.9203748232447649
  0.3313075081959365 -0.0115077465137879  0.7410330429009662
  0.5046752280762999  0.3327735860174438  0.7409269343284461
  0.1666876844212334  0.2438278188136003  0.8320332966530412
  0.5807503650190681  0.0745213272092583  0.0796045104212182
  0.5051629020994853  0.1561287967059433  0.7487590325681491
  0.3309446605403700  0.3259516649726024  0.9113679501118874
  0.8263351580634635  0.2427315462398270  0.8271309337167794
  0.1606588606673319  0.2539200564399932  0.6531537423500848
  0.4165297989362259 -0.0101714182043369  0.8349833004168613
  0.1549313614226631  0.1616295832166976  0.7459080387353372
  0.7396850849660641  0.3269109680306079  0.6557777514804061
  0.8336320601313219  0.3297451629045480  0.7449131767019883
  0.2470596832923110  0.7461466121039451  0.9144034745947112
  0.4999532178057907  0.5075727079701302  0.7445151536178999
 -0.0888997668225465  0.2448694004154168  0.9169644482138896
  0.3287115443876316  0.1643312173036972  0.7484546479014459
  0.4980772611144678  0.6700806559953635  0.9160470485985973
  0.1671696350905932  0.4159364621507368  0.1699883484509399
  0.7437704676716789  0.4215999548165235  0.7469096097084326
 -0.0090611770500064  0.4136966835715613  0.1709611216791048
  0.1582269025125770  0.7485938970634394  0.0020578740625318
  0.1558277332348960 -0.0136103884307939  0.7420071389998754
  0.7476775318369161  1.0018808567341759  0.4937169626694829
  0.2472391739937150  0.2512290159713030  0.2462926801820185
 -0.0072299497078359  0.8292265790076937 -0.0010641769332662
  0.5830105660594271 -0.0085767790407455  0.7472573781999474
  0.5798541889847035  0.0792607175826522  0.4914922878629390
  0.8288998169245582  0.5821548261569940  0.0840631195654397
  0.5808495610075139  0.8309889463714790  0.0841368898127002
  0.7464769258366072  0.1619165531865541  0.5766043573085067
  0.8301579188803573  0.1632669512064566  0.3295057067079194
  0.8290799797532781  0.2462853337272202  0.4115621842283662
  0.7448330431891326  0.0784431623785732  0.6613580797262526
  0.7452865711917706 -0.0033904947113682  0.5824433268136351
  0.9133943510802547  0.0800242682798151  0.4938449599190752
  0.9110363289946807  0.2464668318106028  0.3293976869668836
  0.7476791359891273  0.0806138301038874  0.3290807012546674
  0.8314048976321665  0.1631809230160704  0.4934464254194246
  0.9121341330463021  0.7464680310234111 -0.0007921943211482
  0.9133453146403842  0.2468091322338274  0.4936310528204599
  0.9145703602329461  0.9104913289357714  0.6626637783993141
  0.4145094461587399  0.7463398720023484  0.1664507938411123
  0.8307838187592839  0.1602534473832111  0.6589373375804302
  0.7471247008323419  0.6645493221767667  0.0830679281615746
 -0.0065799753619076  0.9123215701938275  0.9153482631932398
  0.7471161341200602  0.8257543706346766  0.5745230971947187
  0.6639852233306169  0.0783101227033128  0.2502306706068552
  0.7469737734634958  0.7460362050037329  0.3279609700237910
  0.7470814083122617 -0.0056067646484497  0.2488295785255506
  0.5821918657262437 -0.0083193315759075  0.9154160095748280
  0.7470245385509164 -0.0071515139974454  0.0826891347245757
  0.9140354221736591  0.2450947701691868  0.6579410771666262
  0.6646157606301334 -0.0078109763877913 -0.0011550086344875
 -0.0066733014705630  0.5826330803404970  0.9138074507081215
  0.5822967354751543  0.9089603098517762  0.8311742731986363
  0.6646017094847951  0.9111268484299175  0.0831470812923701
  0.7466160865672401 -0.0065627454299735  0.9150782934470398
  0.9146627946824257  0.4145465466512695  0.4929313716470352
  0.8319348509608014  0.5844367909480884  0.5765905395545018
  0.8279451874494355  0.0761692932023022  0.9155910664380114
  0.9102710876466014  0.3360247629644207  0.9160346355128703
  0.6618504024046724  0.6654609550791296  0.4934923330233181
  0.7470787973984294  0.2466340370656627  0.3299953230504344
  0.6622038777791281  0.1629033882300601  0.4915743663035503
  0.6631175452970289  0.2467486524395385  0.4110545134013124
  0.4969979491534662  0.3328643959464923  0.3312258778564059
  0.8273436374759400  0.2467659535077779  0.2475633591770237
  0.7436954995223343  0.2473481907602560  0.1675923021309391
  0.8301833070696213  0.7454993922297763  0.2464047052674644
  0.6639596718875684  0.1638092921024437  0.3299696233410790
  0.4935016110906799  0.0780482681546788  0.0829720638186050
  0.8269778738823912  0.1609575098748671  0.1664913606373833
  0.7455390565778184  0.0754113616670726 -0.0010758028796828
  0.6632857557099875  0.2475280674985722  0.0849201000976940
  0.8264476974204762  0.1559384966477738  0.0013674349278804
  0.9097374631262616  0.1610117787485231  0.0849320407570527
  0.7447695221301733  0.1611104050302907  0.0840538007940355
  0.9090465303903340  0.3301575466696950  0.0845377696605182
  0.7469337211003519  0.0769967591308517  0.1673588461819802
  0.9142355929023492  0.3303175181833685  0.5746865679722366
  0.6634998564569727 -0.0071317677344646  0.8316802423777426
  0.9099672442171081  0.0765947033486743  0.0004312746247456
  0.7465910039253637  0.2433857890897825  0.4931134306278583
  0.0769211357047337  0.5818029390560709  0.1670994298845910
  0.9125296787119814  0.5834025676139036  0.8301984627595538
  0.6618288174991731  0.2441465832460653  0.5731201574827796
  0.5786370042848964  0.6663754178417011  0.5763871515112188
  0.7484205853564471  0.8279613381834744  0.7526724328488535
  0.7474576550736495  0.7471949268663642  0.1642716946305602
  0.6633242580844535  0.7463658589844588  0.2463196851965763
  0.6631923564705525  0.6645393442768653  0.1652242682216965
  0.6638432126546955  0.2489821107762306  0.2504638876913123
  0.6621682334542731  0.0802202906914865  0.5757788468239328
  0.5809580773414423  0.6680145438568326  0.7449043937172338
  0.5801883811409573  0.7481331041374663  0.1657275833539890
  0.4971002655438224  0.7477070706680990  0.7442129589573694
  0.9119560811985952  0.4189554056421362  0.8305149087774104
  0.5823227652980496  0.7475709471316350  0.8299806359563916
  0.9145391358228191  0.0782981399531225  0.6604617670600170
  0.8256818358993030  0.4157682063586257  0.0851277452732167
  0.4976206621172777  0.8282084260378820  0.6599350521592318
  0.8246715468640118  0.3350587947181071  0.0001236434431094
 -0.0065692365300267  0.0769493175340522  0.9164425698164976
  0.8288509417197940  0.5813410554231119  0.2478365595897038
  0.8292487080807247  0.5830204505808738  0.9178039279335525
  0.4953302514341252  0.7469221491185957  0.5759066053906011
  0.4946672334581226  0.6654522847220434  0.4937653291588026
  0.9094550246572546  0.5008019118470470  0.0838958117671540
  0.6623122583401052  0.7448093377423685  0.4100729945537707
  0.4952535623859660  0.6671515278865355  0.6590005264877336
  0.5787400882230805  0.9104366667507336  0.3290906960058466
  0.9141505626021196  0.1625192654137795  0.5756610999841532
  0.4964499755001485  0.8277477596064422  0.3293786174386197
  0.7445509916517321  0.0764105702334807  0.8319279932354751
  0.5812230149725063  0.9106540447290709 -0.0009649045968957
  0.9094590560376583  0.1557389796145422  0.9168697437780028
  0.8307140320394856  0.5004569639618770  0.8316681680408368
  0.8293866843527640 -0.0053116066168501  0.1659311300981091
 -0.0049653205910357  0.3296902079376337  0.3305047487504906
  0.0758905302242082  0.0778585458688687  0.6590949613687528
  0.9110227562475932  0.4991607844819371  0.2492122733686223
 -0.0057748934716311  0.1628192492585784  0.4922711773338221
 -0.0060188126647222  0.5053609463277524 -0.0013275729230019
  0.0749138477804436  0.1635058322376794  0.4114046085387939
  0.4965240634190831  0.9091779478755038  0.5759949636055249
  0.0777925629979756  0.1627322534899351  0.0835951709474946
  0.9045516827806870  0.4151388014815025  0.1665750616868338
 -0.0074804006232619 -0.0051887531317836  0.1646310196858867
  0.8328570010861401  0.5836395971594558  0.7454194659464798
  0.1604250201624570 -0.0073316064613260  0.4918981547931789
  0.5793359796262261  0.8268085671097793  0.4102877260823068
 -0.0048567280969386 -0.0050681937317825  0.4934645342841187
  0.4957311330871501  0.9096059326047533  0.4105380561402767
 -0.0041207629418214  0.4203631349503725  0.7447520385777978
  0.7462363725328360  0.4994284360826771  0.4060220373241691
  0.7424762470844201  0.1594524742754007  0.7457320355256520
  0.7483738703913067  0.8305093180465623  0.0823685693887684
  0.8323583542169840  0.9112668945396453  0.5835657207496133
  0.9134864818724062  0.1612627603790948  0.7436329796579413
  0.6644096419737984  0.7483685578377751  0.0838716526312712
  0.9104695215804443  0.2461139697016862  0.1668295919743583
  0.6637667160538692  0.1594260057498623  0.8334418989032490
  0.6681484574851552  0.0763935800203975  0.0832751748783363
 -0.0048851382818942  0.7451396598696042  0.7458249889732662
 -0.0029184632558168  0.4166599524344614  0.5751662950751067
  0.7467803736475903  0.8286335231913909  0.2467697359552643
  0.9126193427785211  0.4982735671786614  0.4115412877663118
  0.8327299060487849  0.7452304972795141  0.7478015876690293
  0.4131817542728735  0.7504623841743699  0.8295114846207665
  0.5807669368002722  0.9100490195069982  0.6620501465549139
  0.8288424151878268  0.4990286861654741  0.3302792794483031
  0.7465031843858568  0.6639575744184774  0.2470007088074361
  0.6623642969443205  0.6664108796932700  0.6607863951047993
  0.6618437418842730  0.7451771505682571  0.5780951414652538
  0.8320393452000587  0.9068541375827632  0.7478601818723779
  0.8303191425332163  0.9113639101695729  0.2471250906609065
  0.3304878451602071  0.5822584201355718  0.2501792372948131
  0.9125634968183374  0.8288780993400882  0.9151946242920447
  0.4140177403687873  0.4991816259698411  0.4132044759365444
  0.9138086981781659  0.9116027582412094  0.8315713083790608
  0.3309105629742263  0.4172882219130667  0.4130457205850802
  0.7484974560470976  0.4985674589448807  0.9175329925990634
  0.4134202680825372  0.4996183105901790  0.5753951171236590
  0.8326204467864992  0.7439334387520395  0.5784496236390119
  0.2450082608655600  0.6634921514587786  0.4129775937053293
  0.7468735846015866  0.9110753784059591  0.8317468169571668
  0.3304504700142585  0.6638544991526890  0.1681496302842244
  0.6617661797123061  0.5853556258410817  0.5764568356880054
  0.2449998920367294  0.4173063445898053  0.6574428908411305
  0.8323785489671346  0.6653831195203206  0.8317163959435659
  0.3336196837804921  0.3305113644728931  0.1665294319903778
  0.8300443564792003  0.8293485389887976  0.1643611255058325
 -0.0064514457616278  0.0771135787638533  0.7458955867412416
  0.8302077022495498  0.9112326282119726  0.9142991912320002
  0.2454399047027653  0.0757259168285712  0.6560275380055652
  0.9095129257938462 -0.0053850468732612  0.0821531190950618
  0.9141961092736597  0.7463666179902677  0.8306515895681805
  0.7491241648534023  0.7468008078904056  0.8320362948997956
  0.9114234512722826  0.6641927498721699  0.9158098763764548
  0.7471053356238911  0.9118193782391789  0.1657985376956384
  0.0775758186417567  0.3329744200317528  0.4123504938621321
  0.8293205142228351  0.6655164760523016  0.0002249706369382
  0.6658331944966148  0.7490724314552503  0.9169220874640244
  0.7491384932209457  0.6674148067450913  0.9174618292925928
  0.7468300960350570 -0.0035996308196490  0.4053359987908852
  0.8303740950396532  0.8276813398774181  0.3284046045719364
  0.0765940040240733 -0.0057381937347853  0.0834068132609062
  0.7486820977906994  0.6660148649346345  0.7466875693030969
  0.9146604307101451  0.8265104155782003  0.5788302420237482
  0.6645573875731515  0.7462623323468142  0.7466961618809134
  0.8299070038352344  0.8294544937786832 -0.0015097547525801
  0.6632052364403681  0.8277104504620140  0.3283354233716858
  0.6647923403602631 -0.0075083697874080  0.1674498182753686
  0.7456670426414129  0.3316595120489506  0.2483639169353703
  0.8312419592491154  0.0802360691303633  0.4107997571697120
  0.7462280023316420  0.5083670685265668  0.7423497941059948
  0.7443175805897665  0.3323499109161117  0.0859757963160258
  0.9138695636910167 -0.0047461691418027  0.5781998516808261
  0.6613249158597179  0.5027914219267615  0.6577465683397951
  0.9134818265242416 -0.0055312815446775  0.4111944724715063