Cr  N Ni 
 1.0000000000000000
    21.1236966129679438    0.0000000000000000    0.0000000000000000
     0.0000000000000000   21.1236966129679438    0.0000000000000000
     0.0000000000000000    0.0000000000000000   21.1236966129679438
 Cr  N   Ni 
 259  52 605
Direct
  0.4170568644950201  0.2485190543225611  0.1667667119197927
  0.3370847108577648  0.3368772228280101  0.8367532103320139
  0.7489401441391440  0.4912182184588403  0.2513141050303501
  0.6693960104118281  0.0816004715331382  0.9186552530354248
  0.7480604090776066  0.7583671341054159  0.1663945372608396
  0.7496391319702100  0.5823038980422645  0.3435667130126114
  0.4159186034812643  0.6703022467842141  0.4149837587347963
  0.5109167200159347  0.3328869121915036  0.8345945500150599
  0.2457821841223069  0.4159112739838980  0.4920795079053792
  0.4991089290097900  0.4216143115964888  0.5857465934494173
  0.5114496180317771  0.5841069550546688  0.9172282556260508
  0.7542793192483741  0.6705206317136798  0.5882834271624823
  0.5092017834293878  0.6679926467206460  0.8340925805010084
  0.1636375989404898  0.4145567977010954  0.5809095787196121
  0.4170243871846400  0.6692149031437806  0.0850195233985404
  0.3339337285617425  0.5873004843141684  0.7411606142433371
  0.8309804162916549  0.8333207770518695  0.1652425639676475
  0.7488168771429411  0.1652974896007567  0.7588622850246926
  0.6581231264906910  0.6670900381544290  0.1668864850080885
  0.1720538170005528  0.6722049039220451  0.3319720468203494
  0.1637535990058566  0.5006111898245761  0.1783758452202156
  0.1674125519658509  0.5913356223818539  0.9215934549722732
  0.1663574488160525  0.4085411762183959  0.0851975908823222
  0.3348101541502193  0.4144642901300460  0.0850216588719028
  0.2536835419751627  0.3295079663813534  0.7464476647095067
  0.5779524960104895  0.6690636495077044  0.5830807259931938
  0.3318332265990248  0.6708585539952705  0.6673123358099647
  0.2515686344822949  0.5915042645684984  0.3304744552128143
  0.2518615703033910  0.5005305962783942  0.2402409142192174
  0.5013364007851848  0.4150192669458634  0.0854487345108673
  0.5778036462085511  0.4931118600519622  0.4132083417157959
  0.2516688166787079  0.4114094325577012  0.3304450334916107
  0.1678157952222609  0.4993240644803514  0.0045149450566766
  0.9101504774791461  0.2461005923103936  0.8344443228594477
  0.6679639568845384  0.3332847961461587  0.6713361643099827
  0.9117965935674096  0.2459110838145494  0.0011096391827667
  0.7507541238581681  0.1772136552773270  0.4130888169703812
  0.8295851135952143  0.4158536501869178  0.7540778592648898
  0.2500245460811131  0.2473556719490163  0.0038641523485104
  0.4161878894777123  0.7536635662207671  0.6669051801466400
  0.6659145138563506  0.0818297167698575  0.7587019205874302
  0.5802879570521429  0.7525131913938252  0.0011420326527128
  0.4971362872215740  0.8327215876739195  0.4992333746179462
  0.5822324065734954  0.0812313181367932  0.0052583290520989
  0.6641639064141168  0.3323224395521125  0.1668717162707492
  0.7455008791572347  0.5806993643240095  0.0003422039354108
  0.6657871916441531  0.3333978358399250  0.8350369702869547
  0.5803918043109837  0.1683855193443131  0.4142160893008027
  0.5777950323814220  0.5833349027954211  0.3246871730573818
  0.3340835242306093  0.4081674498409693  0.9224658734426587
  0.2492251737661912  0.9926554388591039  0.9169986037918351
  0.5822114468547812  0.6686281591425866  0.7504689880669905
  0.6624598900692966  0.6741128149568544  0.4952822812685905
  0.5820173523124296  0.0815429383226959  0.8285157243884502
  0.4916744642570595  0.0818751998828073  0.9192933476556111
  0.6650901355694734  0.9118995842930446  0.5842053230784421
  0.1616240552547705  0.0793354317507435  0.9182241251111996
  0.3316885039921775  0.0012278468132213  0.3294404308302141
  0.7482907274872533  0.1730107252934919  0.2480785455701165
  0.1629736528062126  0.0029206356157608  0.5029806674284820
  0.6590559692028082  0.0850984076189057  0.4124890873031670
  0.8344602197795837  0.2489843479033575  0.4136414251903348
  0.5045243048935075  0.0826849855910091  0.7521424993749395
  0.6636978802925380  0.1697718080987574  0.6702769689447865
  0.1677271836807840  0.7517198030522766  0.4137442545681140
  0.2517024326474061  0.1727119004191169  0.9215682763508400
  0.6647306879811570  0.0768035340248190  0.5815491039576630
  0.2497355055167109  0.7538021293308321  0.0020037099229388
  0.2498669819098182  0.0806104878808472  0.0094590814036256
  0.2533221722907179  0.5071578277300944  0.5827143064567029
  0.7474735476930450  0.7514127564927786  0.0001982782719359
  0.3326496199487085  0.8336764763757867  0.1653941580541928
  0.3399688477876402  0.5012023282416875  0.3260291365228482
  0.4982472931437166  0.2459681977037485  0.5828518867256421
  0.6626988818964189  0.9152056015708114  0.2468173277658070
  0.7491978426820985  0.0830435038277658  0.1548750367244237
  0.6660033852299401  0.5835637862118059  0.4122546746256875
  0.6571077572481042  0.0839533010208992  0.2475159089077563
  0.8373185194342624  0.0861964681954597  0.4137129118987113
  0.3322318168574538  0.8345969849667496  0.8359434849004586
  0.1680610466758197  0.3326455746067937  0.1671563885709166
  0.2500717471837984  0.5885637502897594  0.4998863886254842
  0.2490733962972125  0.5033341551141773  0.4180055796055813
  0.4973812651142518  0.8325803031568070  0.3304615985776969
  0.3352930855662131  0.4921280232196384  0.8316421554124136
  0.3312250557041425  0.5890344205322933  0.9209644380791192
  0.5810565648279410  0.7511778534883422  0.1660598340043142
  0.4171924980669214  0.6730175427340288  0.9209169689219634
  0.1656561816710073  0.8257975229294681  0.4994906099574459
  0.4871635407549940  0.5890838176213241  0.4157170210461623
  0.4162963974306398  0.6696579133844252  0.7416369220832135
  0.4249278193797901  0.5789568561634194  0.8301561213897060
  0.4222503850941470  0.4235798288806469  0.8312959459233328
  0.4160089536873288  0.6711301900393434  0.5868973195137349
  0.2488171399030294  0.2386344009556685  0.8367351143142817
  0.2487840911078600  0.9166815804598465  0.0017456589185471
  0.1659293683717271  0.0829711086839955  0.2478059664311007
  0.4991783266674362  0.2462063208364653  0.4132622851945604
  0.5818758403033093  0.1672189241043400  0.2461512804681660
  0.4257459566428586  0.4932386552252262  0.9181040936455428
  0.3340795899180601  0.4984847275008378  0.0133563337346802
  0.2487929048484026  0.4995190060659478  0.9202554916488269
  0.3340481002723763  0.9989439552766735  0.1649586363825418
  0.4189869930715930  0.2498199219737485  0.0048321011968288
  0.1640832912938582  0.3329214382305732  0.4874764311498003
  0.3331425830874433  0.4106996557519708  0.4073823207702509
  0.3316695797383181  0.1669825901465933  0.4980145308392997
  0.4018425939291210  0.9996372276234270  0.4160541884384190
  0.3252559549693260  0.0821708629180794  0.7503224653822527
  0.0726894211462323  0.5000818560251025  0.9233599625418818
  0.1665043134309198  0.9119928877520754  0.4121819462369468
  0.0780080382372402  0.2398355411640689  0.8341370382719430
  0.3406191422675948  0.4178672485113725  0.5846676961741026
  0.3310841572902493  0.3222730363035728  0.4970826061985327
  0.4996122702104822  0.3310934672547526  0.4911047487782735
  0.7492171494962496  0.0839456580654215  0.3302043080608790
  0.2548474943401844  0.3268333740765235  0.5820011827884961
  0.0785008305819913  0.6797752750429769  0.5834958388285031
  0.1657438073810338  0.1643374691857034  0.1671316817872374
  0.4166473582172638  0.2478406375667301  0.6661013214108830
  0.6645585885946660  0.4161080830491787  0.0835021606126792
  0.4182302953036900  0.2472066102617868  0.8349372070114127
  0.0831144790765229  0.8331099440183726  0.2475928998743237
  0.2511893003256062  0.7511491705278501  0.3308468081218663
  0.4165650389330607  0.9977232444715094  0.9189066193198756
  0.5818562915803425  0.9184394859346071  0.0004472090875652
  0.6648572485388446  0.9980226017750780  0.0022011549009038
  0.7564216533461670  0.1680586709487347  0.5822562774446578
  0.1680336228508540  0.4995376828851044  0.8297612712148524
  0.9971526058735515  0.0811591513175348  0.7503079243792090
  0.1632814999956025  0.3295886740439219  0.8356930204412858
  0.4977071089213275  0.0002450727844911  0.3273679481733989
  0.6639270334445945  0.9073941070470473  0.4148752280967855
  0.1654827227626670  0.0001850378113648  0.3233840174883957
  0.7470659194859580  0.7560344931997258  0.8335507772886885
  0.1696068546954679  0.5925970956942727  0.5815512356879425
  0.5828493943963571  0.0837779446810563  0.1661467750970883
  0.7491963449567521  0.5795653552510284  0.1643397826280295
  0.4990264649520586  0.4137471364309086  0.2477278510077476
  0.9032261079933724  0.5833382657730911  0.6681327036357856
  0.9125763808064117  0.5823744586810617  0.1670792179719786
  0.4138741494363621  0.9988911220377249  0.5729421141596285
  0.8407704851353893  0.6702864755045925  0.4973859368448612
  0.0750608734735238  0.5020828609631839  0.5820380678475857
  0.4993611694247269  0.9992787898350257  0.5040158929431235
  0.0799958328109718  0.6715262906928606  0.4183630678194419
  0.2480974437990421  0.5883288259092709  0.8335687930817934
  0.2506240539460631  0.0836917334981648  0.8304147745098247
  0.4167944338543548  0.0839748019204777  0.6617295678857417
  0.4165689276174141  0.0812612016485037  0.8401092399378395
  0.8306810989425744  0.0794746942429219  0.9182614674162166
  0.3315446980841382  0.8312972658271763  0.4991448663522539
  0.5743657477087353  0.0809456825161077  0.6683295976813238
  0.9974675318766363  0.2479469963983097  0.4131349306632179
  0.3295877170732885  0.0015936146874885  0.4999037378313493
  0.3414438569438297  0.0819088630760723  0.9194696371039800
  0.0783059673766908  0.4149178283408259  0.3324909416088663
  0.4149146819259670  0.9074043871845469  0.6653853048757340
  0.4148107554231514  0.9915168602710537  0.7508927967858232
  0.4152274644025144  0.1675670912220052  0.2466961752250816
  0.4154619705615598  0.9983140325306377  0.0858664103762502
  0.5008895406419231  0.8353069093316726  0.8350095358490817
  0.5771278056341038  0.9977226940541234  0.4152924068350415
  0.8334219707922160  0.2449477729355788  0.0814277316076774
  0.2576697267778397  0.0005703431758860  0.4131977544286855
  0.6677846839494889  0.4246023809967973  0.5834850691375751
  0.1665728913022421  0.0866994463197318  0.7509239721980272
  0.6648065791273914  0.4157366807850060  0.2497828241182214
  0.0783848609315661  0.3322152570625553  0.0795831115912876
  0.0817204647123600  0.6765003555963898  0.0862256479070483
  0.8342390319659905  0.9075421812105560  0.4144711873452289
  0.9145021922080321  0.8358378093656351  0.0894336910148467
  0.9919921900471260  0.5863021947230319  0.5781811468572260
  0.7462681817022029  0.5006550133883590  0.9190629686258580
  0.7473904777131425  0.8325882708794491  0.9185467580777052
  0.9866069164181668  0.4167345594573252  0.5782136074943274
  0.9932734620401483  0.5013653090747959  0.6669609592770580
  0.1661662744928575  0.5903994990809115  0.7432140030472782
  0.0804033163478971  0.5899835006165548  0.6705917725535845
  0.8330807546964298  0.4151541744004449  0.5809104587578292
  0.9926578646441807  0.3316945696669377  0.1688460505384296
  0.8366733564673983  0.5831723732334093  0.4118000742358351
  0.0757504716922209  0.3251466483172330  0.5815769256506166
  0.9146337971935506  0.4981619736716540  0.2500114181289443
  0.0751601616012132  0.4995328064012538  0.0835530496800358
  0.7494507755407565  0.4951564807142029  0.4128497065239258
  0.0739166102800770  0.9995641034235735  0.4140111308829376
  0.0825929226483128  0.8330903020405351  0.0850729238900009
  0.1654014588783496  0.0898629401296342  0.4123538318895185
  0.7504099314497102  0.9982853809221964  0.4155203135427962
  0.0797828187471373  0.2450195464803301  0.0102763587323154
  0.9971014620342128  0.0796705504059723  0.9186894355066517
  0.0780171650217301  0.3333218728842219  0.9260024425347819
  0.9154368236709181  0.9984596309541708  0.0837844244507795
  0.9152945851485889  0.7470869525667790  0.9994564994828230
  0.0790490035961574  0.5848036369903243  0.1749204772574657
  0.8311696371787000  0.4214449875268841  0.0827762518253894
  0.8334034082335742  0.8361031696986652  0.3303420716622702
  0.7562410332852898  0.5790939469653593  0.4910105186193390
  0.9159723670626647  0.1641716090185945  0.5828354554101195
  0.7486684753427041  0.6708167058388563  0.2541217710860874
  0.5781444096081956  0.5855196753406886  0.5045541283820952
  0.7471092241987543  0.6672132025266776  0.0742586645572915
  0.9957163521212994  0.3253727736423227  0.6670953843473643
  0.0734481368155427  0.4163853400112342  0.8305603047178042
  0.9144132808551645  0.8347652190346088  0.9123585666933473
  0.9150420833222236  0.9241201186418311  0.0011931182381627
  0.5819726359144702  0.9924335500753764  0.9187257849101891
  0.9144354415111373  0.8345402128533320  0.7515359489272742
  0.1625458811869050  0.3226823188874093  0.6626000916343906
  0.0747789116234065  0.3266730257060116  0.7481883454578030
  0.9918423831857831  0.4153406022526467  0.7551607975430952
  0.0806855450165512  0.6711266859939433  0.2410620221835646
  0.9990601267455919  0.9157593386455535  0.4140632187270919
  0.7492404854806941  0.6719143750097963  0.4091017130603719
  0.8320485314875743  0.3328680735666861  0.1716130830627723
  0.1647884863605451  0.9144517168277585  0.5894143691319280
  0.9108336577092445  0.5015261088128791  0.9186366557083089
  0.2512010449221687  0.3304421298916134  0.9257688028513127
  0.2486225588804211  0.0836080923608349  0.6647664886816792
  0.9980481005793670  0.6783870775592619  0.6674317542795829
  0.6665040992306576  0.3332908056953562  0.4929662958696610
  0.8355709809955911  0.6687401976204943  0.8358636982616618
  0.0747207545261501  0.9982217122581732  0.7506895249818154
  0.7532454378153867  0.0763284367994514  0.6674893266589478
  0.5802433149518502  0.6741275808881576  0.4165291328975271
  0.8320758344421929  0.9982568542027507  0.8344577544560638
  0.5801581867081966  0.9160817715757607  0.1672023766402715
  0.6574266592867912  0.5845309138063528  0.2505413398650115
  0.6664096343793869  0.9130544713735169  0.7520637721017503
  0.9975320125260675  0.1631051661208918  0.1664789714236635
  0.0821248431962389  0.7576539097076751  0.3298654798542118
  0.2514526733946407  0.9978174265648798  0.7515187248600366
  0.7489290816558780  0.4134755344151961  0.3314569566624508
  0.8372643519798741  0.0809376893625730  0.2495222294319892
  0.9989183788482054  0.9145493922054539  0.5854245019177486
  0.3297417415734459  0.6750210114416222  0.8333030233829795
  0.6648942557532326  0.2505882572584892  0.5814787527229732
  0.1655019662073845  0.4995887778726432  0.4907889634223304
  0.0829235793962923  0.9995695827367632  0.0853528441069161
  0.7481753484116853  0.9938819963754523  0.2482605559125555
  0.8335863855255237  0.9985626542466292  0.3262835530872104
  0.8382469829933814  0.6675358036844916  0.1652322047756010
  0.8309355176948136  0.3316536258060159  0.9956525607848229
  0.2483444618051399  0.2464905263170546  0.3296255571976011
  0.7450833655676805  0.5790935453285929  0.8353694393504627
  0.0786205509236983  0.5808025133314277  0.3308356839279895
  0.6685939386005687  0.5810690588562375  0.5902584028539809
  0.8319428888387037  0.0820451485856944  0.0841713273253177
  0.9144290308074664  0.7542362843344831  0.4991045401428465
  0.0729591314392797  0.5914233903492363  0.8347759391160493
  0.0818400635902852  0.7532729985368626  0.1672458690182880
  0.0068027086433075  0.8346707800154345  0.0016198019714532
  0.1631759265041754  0.9971798695459475  0.8408384276120648
  0.9288099375074497  0.9969452070118224  0.4144801206801864
  0.1685634759291709  0.5883045413734584  0.0846192004341360
  0.0776572190844899  0.1633034148447703  0.5815806620166564
  0.0820047592231796  0.4142645023214231  0.4881784599318353
  0.8346820934367103  0.9959172706962178  0.5066460247151374
  0.6633236849928943  0.9947797653089282  0.4168697426601929
  0.3355346426666974  0.5831092097971410  0.8290157225153016
  0.7474131736985365  0.6674851597175739  0.8349308730410958
  0.1606645752471327  0.4988580905869973  0.9183814518970048
  0.7474699598126376  0.0836837270205227  0.2416709066365594
  0.5748936960780712  0.5836347235013640  0.4134523156215439
  0.0802257455405213  0.3304014217132168  0.1681633325024304
  0.6625714667094169  0.0765569630443756  0.6711180886206356
  0.3366944030327376  0.4099102174355485  0.4961538159205657
  0.1662145725978588  0.4975810138920131  0.0926354400840528
  0.1657026816588733  0.0021446239136613  0.4123001506042433
  0.2535235631974082  0.4163877724878856  0.5845049870284204
  0.7550846199034805  0.1668741917293713  0.6717522883445907
  0.2470071836635393  0.5013387621846624  0.3276044637058901
  0.4885264188668778  0.0007198503131483  0.4155964446812043
  0.1601591769760482  0.5940455945746747  0.8314176961245558
  0.1630210168559715  0.9978293502796155  0.7507273662870091
  0.9163907813638834  0.8355899176367835  0.0009569656768976
  0.7485320914945619  0.0897932395141749  0.4195253072909208
  0.0806557357834186  0.6687006314464927  0.3299265777327495
  0.0773576424363134  0.2442932398405644  0.9235401033326631
  0.9898988530671616  0.5910213286972082  0.6699303775785028
  0.6665943941033891  0.1633605261231108  0.5781649726366955
  0.1656155229222276  0.3219348547585337  0.5730988252350467
  0.8409421555996289  0.9960821051485211  0.4167617431320886
  0.5808467000375439  0.0837157528669996  0.9171434374786545
  0.3367744133352717  0.4966944216769800  0.9239260735038572
  0.9924458420785028  0.4128856579062489  0.6674399275181608
  0.1652770825953562  0.9135289158633376  0.5017706760424748
  0.0725031527554309  0.3284110242174641  0.8376599475843067
  0.7481730156308718  0.6698265062658436  0.1633029457096474
  0.8301037568651839  0.3333181614649784  0.0837168302144034
  0.4247845453833074  0.3348960786454502  0.8344805523024313
  0.0734380914129309  0.4131654275818807  0.5759560532480225
  0.0742245373609455  0.5037944316546342  0.8339946676603395
  0.0778994314699917  0.5891044539980657  0.0865419476358943
  0.4149165363828062  0.0823112086990202  0.7510260031408661
  0.6650229747110139  0.6718388962981831  0.5881649430866894
  0.3386408496042786  0.5007720319923735  0.4139853253693014
  0.4208184871170109  0.6727181800373043  0.8302794639789731
  0.4153608393466691  0.9948800222287260  0.6608694921656422
  0.4972961843395828  0.3339201218530463  0.5806352083972657
  0.2507644481187049  0.3278535777364835  0.8372972657130979
  0.4243397406942522  0.5837885105221626  0.9230584508964788
  0.7538218045038408  0.6722197489373393  0.4979581864694941
  0.6673453640120393  0.5802727097737728  0.5018199501250334
  0.0803890285801875  0.5930607207348465  0.5779038704535500
  0.1640940779054986  0.3313749416708640  0.7474586642110382
  0.6708948984346124  0.3384962491259293  0.5822264349518912
  0.7467516727941526  0.5803598751104474  0.2546827783470574
  0.2512361775400885  0.0825068973537807  0.9207837385896553
  0.1653657582507135  0.5044313284970056  0.5811361890134008
  0.7501939794082969  0.8361580654273560  0.5848106933634757
  0.0821034303115768  0.8334192369460875  0.4143687755263376
  0.5821297249049969  0.7520613008704874  0.6678240800695049
  0.3331137533349869  0.9151954301000472  0.9192469781947079
  0.6660467226699905  0.6681393689491010  0.6740274372850819
  0.5809375726545299  0.9956722751716202  0.5832144283837554
  0.8309110974473638  0.8344327875476244  0.8350421860844166
  0.8328739819780250  0.8351603514216199  0.6689641224421405
  0.7483972262093725  0.0817173507167864  0.0018464915339516
  0.6658177604968918  0.1652138698263697  0.0009698781483532
  0.9143002040068158  0.0795107346860397  0.0008741291938192
  0.5827566357223817  0.1712432079388075  0.9188235288475106
  0.7492656551586764  0.9138949778664338  0.5002657031019326
  0.6662398365837321  0.9964189721692418  0.8346451688952283
  0.8312133197886555  0.9169754253637554  0.9169767797878321
  0.4986337675122962  0.9983171567325324  0.0028828145547158
  0.7488087906008983  0.7539594874160108  0.3311880639910145
  0.6624669450096672  0.6675769331937703  0.0012766398069953
  0.7476766896367961  0.8349902235847572  0.2488555407564282
  0.7484530291654995  0.9150772420279202  0.3314616907021515
  0.6636679568395768  0.8344494698585450  0.3302187876790273
  0.8322476774554063  0.9986465203939501  0.1652648807682488
  0.7509057647446922  0.7595324051286813  0.4992462489674032
  0.0808485323068894  0.8325838339230934  0.5835578496431549
  0.6648030948077641  0.7525067320060322  0.7513479198259077
  0.1655277255896268  0.0814857978739299  0.0857304378507917
  0.6598418300178984  0.6683782109038856  0.8347232088170076
  0.1653837535108548  0.9982812660255009  0.0019691734638369
  0.6658272200260266  0.9151755306866716  0.9181141448451753
  0.0804309090606695  0.8337034592721272  0.7518340565308336
  0.6632914550669158  0.7519599277892203  0.0822453207655707
  0.7529204747380384  0.5831931791464356  0.6675096393284254
  0.6628233249785226  0.8329855379301557  0.1654668365981446
  0.5818383711726047  0.5828754178355595  0.0034138208088831
  0.5813486442086508  0.8338182066292230  0.0839530823905158
  0.1667426220559632  0.9158684455223474  0.2478024258999707
  0.9145865683519517  0.4167347127484718  0.1674408901910939
  0.8342085664297684  0.1670970761128479  0.3302838913948873
  0.7481922675036772  0.3326810415866301  0.2476545412489165
  0.9158071694690578  0.1668143723820356  0.4142884562072176
  0.9156566000296881  0.2482565291970397  0.3310949467558655
  0.0796587968783317  0.7527870308910343  0.4977390212972296
  0.8405342624449990  0.1632743667945249  0.6681010070865862
  0.8350675263789179  0.2482016001684430  0.5823966394114087
  0.9131754737252915  0.3307711425626329  0.5810455133034881
  0.8324084596455368  0.0794622189744960  0.7527046024323357
  0.9134221105774085  0.6705947817073492  0.5837831921322530
  0.9145459933633866  0.1631447783251490  0.0832376218616088
  0.0830793024678133  0.9166782016844144  0.1660444465231956
  0.9161972994316512  0.9987046247071770  0.7515649757657116
  0.9162231504026918  0.0795330734136056  0.6674740799654483
  0.9144567085943135  0.9991823136513649  0.9176202011278151
  0.9980968760005837  0.7520658563165455  0.9175255619281193
  0.9975066471939250  0.9991661617821750  0.8347268090012038
  0.9169759652966611  0.9970898509594973  0.5846155395180573
  0.9179306377759564  0.0834528005051571  0.3308270056091090
  0.9969513496261598  0.7512401457870157  0.0848393668818138
  0.0802420132056614  0.7537773836600106  0.8347784437478259
  0.7500111006255475  0.7538104751671844  0.6684127651630083
  0.6640977828213120  0.7522780285692595  0.9192517654308777
  0.9140477092892806  0.7528593935806345  0.8348660534029625
  0.6643128498833273  0.8343642587029858  0.4994078520236337
  0.5810456133968119  0.9983998032511022  0.0838366770224196
  0.7478103047218794  0.9977699625653254  0.0834882185851077
  0.6630207944561354  0.9984949499111745  0.1643217929007601
  0.7479844715935648  0.9165103676335293  0.9999338032333847
  0.7497628558816816  0.8339791350833644  0.4143669999435762
  0.9158320711411281  0.1656817313080207  0.2479003612459166
  0.9123437436901560  0.4171957384917426  0.0003415843182085
  0.0805395881231086  0.6732522035486050  0.7509212431323229
  0.9971611227702926  0.8345790397950968  0.8349981744969986
  0.9973019719657965  0.8334391094430256  0.6685062164963542
  0.8314112605129633  0.1635823213299528  0.9998610099491846
  0.0821022558335524  0.9154389883667738  0.3302572155674290
  0.1650064426915015  0.6728806829154742  0.6670927056547508
  0.6640392742819974  0.5831388549367502  0.0842349065447968
  0.9107898873833056  0.3313070137539775  0.7515281894947780
  0.6648386648584335  0.4146157317690988  0.4129147596984294
  0.6638980884944167  0.4996809305753011  0.0016087804787297
  0.9975725718696637  0.9150762279022836  0.7514684551382972
  0.7501561140244073  0.3316450998241346  0.4148274565263601
  0.8326885847918327  0.4141134781284864  0.4131401502400738
  0.8322041309854414  0.5854749025715048  0.5811293863413137
  0.7512474980050371  0.4154270656300762  0.4970802501025668
  0.7578445946022981  0.3332775250172038  0.5819708478469998
  0.8338664149373275  0.4980463970281980  0.4963240651969695
  0.7495966365856946  0.3334764404233930  0.7526559904848439
  0.0807837777545348  0.9995828894841579  0.5844466585391622
  0.6652073419570429  0.3335539331527121  0.0013565160430709
  0.7508445296419380  0.4159261234148097  0.6675410128315490
  0.5846481849981310  0.3335576084768965  0.7494654879372341
  0.5857446003177500  0.4158575234120899  0.8337908857327986
  0.7476086211550463  0.3331870451832132  0.9179379895329445
  0.3357323008102281  0.1671188748785427  0.8354278405414776
  0.6650915753645590  0.1680852834083026  0.1637319801604933
  0.1635482427852779  0.1631475212230219  0.6669003729740217
  0.2478244446178086  0.2453752329265061  0.4963776097069814
  0.8343927838851370  0.6700664208793951  0.3325576761414491
  0.2485522365578663  0.0843969593321069  0.4984542066754322
  0.0792190722098540  0.0828199548279194  0.6662546148629752
  0.5833160549644664  0.3348595415220030  0.5818198955925067
  0.6624462007115439  0.4974799423182820  0.3323845023833074
  0.7507567646274615  0.2544236744215679  0.6684326264188607
  0.6649936305359554  0.3325646749258239  0.3308306452727980
  0.6662557954827730  0.1664067603978680  0.8356819208014278
  0.7474710653173705  0.4160297197474601  0.1664878448877809
  0.7492266302792214  0.0800872651863095  0.8357016859321013
  0.9949852968427597  0.7538941463986839  0.5828361857242986
  0.6664399945856440  0.2504364504059879  0.9176600034354734
  0.6626776293938236  0.5832934861951817  0.9189867193922766
  0.6632523006779890  0.1685137882711075  0.3304825910596876
  0.9138796336619771  0.1628585596804781  0.7533911382303611
  0.9121793178539822  0.6698300287009532  0.7520886359435817
  0.5824519731793887  0.4984659666252192  0.0856347831099899
  0.0826506769027932  0.9178884277151986  0.0021129099302353
  0.8294862640609697  0.5841074325761221  0.9189291375988917
  0.0823096112664062  0.7513911524312902  0.0018050531916366
  0.2500006098180156  0.0845289053221385  0.3292678934510420
  0.0003762958120361  0.9172936758219167  0.0850550212359386
  0.2508413484989190  0.9167913036098789  0.1668087399746354
  0.9151399574459799  0.2470200511978259  0.1669337751706637
  0.7489589325994794  0.8344203555933039  0.7517357398664241
  0.0807255771032549  0.9989325559198630  0.9184342069009274
  0.6631773052381331  0.7518190974863245  0.2493259937267111
  0.9162255191263265  0.9992456282159805  0.2478928058149160
  0.4158227720313142  0.7517327212717894  0.1656207082465757
  0.9998139869868027  0.9154961283691828  0.2469075337888972
  0.6631942975551913  0.7544359099065675  0.4134391395236580
  0.6632453524182617  0.9977630731694763  0.3269109579354016
  0.6653065054669842  0.7583298691210901  0.5844272960531307
  0.9990905507249737  0.9166253218408615  0.9178462307040048
  0.6661550460089128  0.5830767985902161  0.7497632297678848
  0.9111587876811038  0.5013925911824003  0.5803138999232653
  0.4162873498450556  0.0815892967410504  0.0035517840243633
  0.6689326190959467  0.5001193230949345  0.6676858016532075
  0.7468504558541872  0.4993904113253986  0.0837030525995376
  0.6654279491472577  0.4156382229014784  0.9178398084677050
  0.5792043841368903  0.6699879483674031  0.2494130246334330
  0.2498094110574162  0.4158343916547081  0.6717588329301092
  0.3314188493074953  0.0869163709957617  0.4139985700651694
  0.4989153277933586  0.5006397762716754  0.5017571498521574
  0.2504155834253012  0.9996667833647181  0.2479841620142009
  0.3348120892544843  0.5863419009146670  0.2462682418603608
  0.6660551181531134  0.4934310909648313  0.4960012389182521
  0.5843932955013985  0.3319786529923562  0.9189766310649268
  0.5829185582242160  0.5837298277154608  0.6666818664534589
  0.7531292272735217  0.4990728425396402  0.5819126288726073
  0.6623700053447065  0.6703070350209489  0.3319585174507429
  0.3331705913692847  0.7521352097574008  0.5828436345467619
  0.8348583633151728  0.1661326098274760  0.4989581879204252
  0.9969092877239860  0.7529858124459807  0.2468771932467554
  0.7471081655632074  0.8337017990357933  0.0822454305669338
  0.9965284522891891  0.4160761928798268  0.2506396495484531
  0.7485674059856717  0.2501819134312054  0.8355065383591805
  0.9950276381162633  0.4169329159866180  0.0836616611325830
  0.8309630578749270  0.2471743328606353  0.9173793121488105
  0.9934017247180749  0.4150828477368129  0.9193527609061297
  0.9865810552679893  0.3307150902982438  0.8348952612623876
  0.9153747607930806  0.9171516352769362  0.8345265279804153
  0.7480147870713790  0.4168505030847292  0.8358583413132826
  0.1627565480693914  0.1637248642727785  0.4966763489734513
  0.9953232406535217  0.6709495917892292  0.8356832102728713
  0.9155785847251875  0.2478643269893975  0.4977175235113637
  0.9966020837606836  0.3298829743481548  0.4958059389018786
  0.0804120927531418  0.3298890210602863  0.4113845191744109
  0.9975353625527028  0.4150026832350111  0.4132746174734503
  0.1654849242770590  0.3304237837627306  0.3320599228434467
  0.0806339413069748  0.2424571001451945  0.1648865061035005
  0.0777828037203804  0.4987534033694451  0.2511324955714368
  0.9157792176184499  0.8355956869647345  0.5845891037064941
  0.9162349682376136  0.9161026640350947  0.6688863693693609
  0.6663162448147379  0.8341331921188962  0.6687746444325582
  0.7496554615119247  0.9952331986247522  0.5844315755095384
  0.0840323367589834  0.4149457584977896  0.6704857557978434
  0.9934918130334827  0.5005389044775980  0.0006953706956002
  0.9144183623433195  0.8343434594185141  0.2471457609383350