Cr N  Ni
 1.0000000000000000
    21.1237290036826089    0.0000000000000000    0.0000000000000000
     0.0000000000000000   21.1237290036826089    0.0000000000000000
     0.0000000000000000    0.0000000000000000   21.1237290036826089
 Cr  N   Ni 
 259  52 605
Direct
  0.3296909648150438  0.8367692600904337  0.1650346276491034
  0.7518064821277065  0.6634788174757881  0.0764998612216691
  0.5776078130540044  0.6670888801490050  0.9155132576135437
  0.8312515785413904  0.3246316828166764  0.5004939779542944
  0.0799769121604642  0.1659963593941044  0.0836112925432543
  0.7554570329131752  0.7520409220399313  0.1703888620076131
  0.6648920990528381  0.5820082352117937  0.5867164076135797
  0.1616618857841443  0.0849697248675424  0.7448470494358056
  0.6635001867321222  0.5811013650470594  0.7478619358192529
  0.1610160923002857  0.0831620096996107  0.9218785803478459
  0.8310635451907248  0.5816690841802306  0.9165667499363971
  0.5863650627464674  0.6650353543283494  0.5854199374083731
  0.4130977436503896  0.3194083042005275  0.2497647740888570
  0.3312666595887845  0.4961045106451350  0.8406061627636874
  0.2503493251384737  0.5031077371651443  0.2467790526518868
  0.3331685932421923  0.4042284363705995  0.7513656453803526
  0.7414866058074553  0.4138728824650625  0.5010644685531814
  0.9055004155786628  0.6659613452791133  0.4186121588026934
  0.5026169166917888  0.3291848363108097  0.3387607015255865
  0.6654789169689692  0.7484540731384500  0.9139483956776340
  0.3303785578881538  0.1679722554860255  0.1627320645562251
  0.5841354455834415  0.0829353927130824  0.6652290070990204
  0.8331617741669516  0.4135587185930696  0.9218984230185867
  0.1602299988302128  0.1643025420890971  0.3313610250148459
  0.2468302575341843  0.3299729526675819  0.9173481814662032
  0.1636844429278299  0.2482742904789701  0.5869854386678917
  0.3290626699051025  0.2475290770528688  0.0821100757316723
  0.7549550213371985  0.8364756719330113  0.9134235733527226
  0.6623929196227079  0.7525830228654311  0.0778314537639984
  0.4173018718896436  0.1653592664497526  0.5834842872918058
  0.1622663766587213  0.1597773459408377  0.4989579118649159
  0.5021513305467731  0.2606475241273209  0.2502339561367474
  0.4133786765159195  0.4993757015570419  0.2538512604521036
  0.5849456632806709  0.4889554186294545  0.2501207526216807
  0.9138521426568085  0.0833410118140999  0.3328402494435719
  0.5075626986365931  0.4083615045376384  0.2506433844686708
 -0.0068882303209874  0.4056915324961384  0.4176624757170749
  0.0820337007694631  0.4907328468455044  0.4194888443844046
  0.8328821813710199  0.4126361636358884  0.4113224784626838
  0.6684300955048400  0.3311221724042403  0.5019307444181429
  0.6674961296963844  0.7564625661937259  0.2565648307116914
  0.0789443663744016  0.6676343124196640  0.2483843141986551
  0.3351640255339594  0.4942466601382689  0.6627850465520269
  0.4243053832892344  0.4964219428225395  0.7522786219086051
  0.5846907110258299  0.4941711446094632  0.0820996023919803
  0.7435685980719945  0.4158631981112063  0.8340267664825332
  0.3342601208856318  0.4949391297679159  0.5020442115594840
  0.3281997128600180  0.2510677275206379  0.7508540582554525
 -0.0032757767320465  0.5835765640232999  0.9163132561587993
  0.5040162355023380  0.6623542080345084  0.5039711423274436
 -0.0027850234465325  0.4899454541300229  0.6671179571674566
  0.5857646058300225  0.5755233048412192  0.1623521212620574
  0.8331734684954746  0.3306395312340265 -0.0007286836371546
  0.2477195118700418  0.0853289685856187  0.3308384651883233
  0.1638704446942519  0.6670933893236423 -0.0000578651834138
  0.4191729453070209  0.4054385284310374  0.3407294501614684
  0.2476212354796077  0.9223033629178787  0.6609385039231697
  0.4071551232980535  0.5872389726688092  0.1622092019454812
  0.5043556541863411  0.7501424424564856  0.5923154163752453
  0.0796019799972190  0.3310331601454194  0.9164678054686056
 -0.0053466378690599  0.5807612595253282  0.5795844402214262
  0.9205291496697169  0.4149707121337188  0.8349156912396681
  0.4148638142698024  0.1685277770178469  0.9176588347807076
  0.2473127816455225  0.9203150724669168  0.3264512012707816
  0.8301330010029966  0.5013077797475853  0.5019144269479709
  0.0798938812652938  0.4982176661843856  0.0791496684638523
  0.8300394907601373  0.6636118791248141  0.5022425342052493
  0.8346659471597059  0.0007951626989685  0.1681097627037854
  0.7502865866802606  0.0835072161845005  0.8333763257499822
  0.9146821325207680  0.9190508705668603  0.3338233042859690
  0.8307881875683650  0.7534109374821764  0.5920028750239809
  0.6702564402044514  0.3323412245901632  0.3337204492135283
  0.2497044133527749  0.9182176104664223  0.8389746398735601
  0.8357067576496969  0.0011936088814966  0.0003302423918734
  0.7580038394091659  0.1658242516095762  0.0832342276535559
  0.6654359555734917  0.5734283871212582  0.9159055396713324
  0.2488190199747686  0.3313781653785721  0.5833846074741703
  0.0794258894548349  0.0017227956501215  0.0817024317237356
  0.6671874283787365  0.0035169354188225  0.8286686621341089
  0.1690217456699009  0.5822838918683696  0.2446149623194966
 -0.0124378971570263  0.8337375476111354  0.8344646127579031
  0.0810179497169760  0.9218257835553292  0.8344409916372605
  0.1727678391109977  0.6652092955381701  0.6650506766704580
  0.0865672354471702  0.5760996357196058  0.6638461917585361
  0.9172863311167675  0.8352196902670953  0.9162839735811219
  0.7498899904523380  0.0014390304055203  0.4171467068336038
  0.9137703692914666  0.2469369642165097  0.3315360430624078
  0.1591670798833991  0.7519122854132825  0.7512589885935210
  0.8342142246446345  0.1656543199777871  0.5005674486232098
  0.0826019581516527  0.6677256326038331  0.5770166533723112
  0.3348485433958093  0.7490496452995605  0.5961917904399997
  0.8329698121432861  0.0001398447683889  0.6671646956319955
  0.1570294474869167  0.7538617765861094  0.4183835775863851
  0.5784580788114012  0.6684412989955253  0.2556452107599615
  0.6669112881549707 -0.0006101385779581  0.0061036104309281
  0.3316001081678195  0.6684429866492574  0.8398350990339591
  0.2561682158153439  0.5804446718183042  0.3351856652865698
  0.3363337006055463  0.9193933161723686  0.4144765750319790
  0.1612449940243111  0.4994506888018417  0.0026041554349396
  0.3315417993114452  0.2511001765920922  0.9169610450760396
  0.4142390462149662  0.4972874567068751  0.0787594693814987
  0.4907251644490527  0.0846245852374174  0.9180870336519475
 -0.0029914878165126  0.3313693281055410  0.6686901730308289
  0.2477789165763677  0.4135059544700867  0.3393959559132170
  0.3303014320257833  0.3314285553086226  0.8356794636227254
  0.3342132193313043  0.9217930817468277  0.5913603144762392
  0.7554944873950284  0.6638556071679084  0.9143626467519392
  0.3347838074759373  0.6581262662173886  0.5052380983478958
  0.8316970139732597  0.4135038731128324  0.7440536764015844
  0.2482787854518231  0.8349996433856492  0.0802804897645936
  0.9172732235372589  0.2483223196631819  0.8350699126150485
  0.2474959059349874  0.3259137769151114  0.2479080236117753
  0.9174196074050354  0.4110635614415211  0.5036186459089322
  0.4994834167254015  0.1690977421706602  0.1579519024736898
  0.4148289293021594  0.7626915467939384  0.1638740059998514
  0.2478317729733226  0.7536047870263604  0.3268154194221072
  0.1641911731119421  0.3349556107869103  0.5020776241599582
  0.9142734928647998  0.1651397060546426  0.5830896234996754
  0.1723736754190134  0.5788487338499256  0.4229102312073067
  0.6665571802576630  0.9201684415835122  0.2514348327196292
  0.3268421152776065  0.4969272271525699 -0.0022016832375628
  0.5005658406737032  0.1743704757609714  0.3358668618376596
  0.2523134083821627  0.3313152496329492  0.7485500404186124
  0.2455213997876396  0.4138131386012099  0.1607080783843193
  0.5012081157826392  0.0880276425212803  0.4230104946951894
  0.4137446283012358  0.0011407963831882  0.0844701733180615
 -0.0042600011591228  0.4973631755526310  0.8357272936905332
  0.1611571357594358  0.2492798938902819  0.0836644441163170
 -0.0018811215348954  0.7514468121527584  0.2501503977591972
 -0.0033980003199301  0.0010687926635038  0.6665240937489183
  0.4188364259919886  0.3360025294849238  0.7495998574999356
  0.0775403713348634  0.4911558765871665  0.2462354191571265
  0.4170131188703982  0.1613392459476668  0.7485733144272558
  0.2453602782682835  0.2388191318358089  0.3337176377061782
  0.5901134929814964  0.0827831815327498  0.3347498945221926
  0.4990670076762904 -0.0042620213353554  0.3304577499635328
  0.1626664004172639  0.2437405686868103  0.7476208425871019
  0.5843861241631052  0.9196827766856573  0.6679439880825131
  0.0794848508659368  0.1637321135882696  0.2500675028152015
  0.5040953289271097  0.4898648055836772  0.1658806540489288
  0.5939421731459931  0.7512278041351473  0.5023030544094579
  0.0749636196028901  0.0832155394362442  0.8337565932280036
  0.5840630227025236  0.2505846788051357  0.0007842154650495
  0.5001698232683299  0.8364172826170342  0.8318764910326832
  0.3390694985616682  0.9207962585628199  0.7492931558622629
  0.5843946717191508  0.3282547526306673  0.9172714354725365
  0.1619083985991309  0.0860422824001192  0.5827340281210653
  0.5808213688485151  0.1688812521174198  0.0825446416099394
  0.2527250647261781  0.0866011330524949  0.8325981275694168
  0.6690760751345459  0.1671741086197139  0.1731167095213338
  0.0773762751058572  0.3293557364483727  0.2485575217515339
  0.6702296654015294  0.0899126538572392  0.9164529628214980
  0.3330719827940979  0.1647984721067512  0.5021801658869159
  0.5891573463646371  0.0010976281319988  0.4184194010324657
  0.5830495848098070  0.2494115335341653  0.6647026134906379
  0.6688905181267490  0.1652188602445336  0.3327638354283996
  0.8317871262182018  0.9178269752100854  0.5842350585615032
  0.5815570209522144  0.1776307456795392  0.9183400882582281
  0.4973783292459877  0.0827184559691211  0.2430636683072244
 -0.0036865708040292  0.4156379523887874  0.7523990191854069
  0.6681440798029343  0.0762324529122634  0.0827381052368402
  0.0792704583657608  0.3298138945329944  0.0814429176414020
  0.5054682503597465  0.4953058539921816 -0.0019889180857515
  0.2466758658893589  0.0130918302411689  0.4145931742226058
  0.7525410084001080  0.5705041281731262  0.1620334399950078
  0.4171860637420512  0.8360212282104300  0.9149059820268639
  0.8279433368066758  0.4983530146253067  0.6695314844219230
  0.5011500206591577  0.6673589846736573  0.8319458267701479
  0.9166408490814236  0.0833384691938733  0.8343213277110726
 -0.0052380262387484  0.1644915674684948  0.4995850970478570
  0.6671960645644560  0.8365885611404799  0.5021861425725110
  0.4127745594979501  0.4077267981191241  0.1608024824385061
  0.3304739431648449  0.4119637055990676  0.2489677040414381
  0.5851299303758399  0.3306244990694873  0.0801023120819570
  0.4173586917533765  0.9209727170182119  0.6683271782567887
  0.5005418555610918  0.6680199778733691 -0.0012630397366642
  0.1589554864929753  0.9198310569542757  0.7487628033206098
  0.0804830772358004  0.0847592527370531  0.3302732768323686
  0.5828462051050790  0.6673825432032077  0.0737077486389600
  0.6681563800420206  0.6634996228305108  0.1656258586679013
  0.1635425480184686  0.0005585562279416  0.1634167348914879
 -0.0017874099403553  0.0014873676621052  0.0009907633704919
  0.9138888150920759  0.6638017228957632  0.2513693538569801
  0.5032057828461245  0.6689228410552264  0.3368833735055053
  0.5774738815582597 -0.0005257848801608  0.9159938253912580
  0.7505744090625760  0.6667719977396753  0.7492528082740287
  0.2483261414550071  0.0841136433236086  0.0073054821569422
  0.4959847980112365  0.5808519145335129  0.2563776983872846
  0.5836808217762626  0.0834319086600850  0.8273988260716389
  0.4150596367283004  0.4081001701617539 -0.0021813267918080
  0.5764767596978554  0.7585323534923571  0.1660799443019715
  0.4932957534690072  0.6706863921528025  0.1668054789230621
  0.4098819638079392  0.0858108108538555  0.3307105178693117
 -0.0043509966764556  0.1662148918342810  0.6663986124449984
  0.3387046794855057  0.7548875047319823  0.7475714126386762
  0.5857385404318908  0.0016199960091368  0.5862953188817657
  0.0840141043045977  0.6703604433460941  0.7548012582663733
  0.1735217180107916  0.7529472203873100  0.2463885131605982
  0.3311240917454642  0.6701253522185702 -0.0027136571824236
  0.4188491353420940  0.7518856498427889  0.5037238573011397
  0.3320607202029807  0.6625581688449992  0.6621445846265642
  0.4185824327237912  0.4969327395298289  0.4302470807421943
 -0.0034320612493320  0.6654760100895981  0.3273984418073526
  0.0835182654778836  0.6716262461308534  0.4197218427780244
  0.0802302082733496  0.7511760818161577  0.1545227462153886
  0.6680079118004926  0.1653263568771536  0.5019089340479433
  0.3352331668647640  0.7532679406909067  0.4161110821636916
  0.5760916288929429  0.8373733720067180  0.9147095701237231
  0.0822116294878105  0.7462176052826016  0.8362679997656659
  0.9055494396617212  0.4973266557533426  0.4171761317519950
  0.7569938340039352  0.6650643077067737  0.2537222330181143
  0.0809090354814064  0.8443513775369763  0.2490065809238332
 -0.0050749440188776  0.6695241407271453  0.6656489726929722
 -0.0016354513577528  0.7603019282063607  0.4174690158388158
  0.4149906930144995  0.5827469374909283  0.3356451025886998
  0.1632735665531723  0.3304250265051382  0.8400972329854856
  0.9157342258901107  0.7494997261523844  0.8322678582995752
  0.0820834101425898  0.8346171131647911  0.0818563985346384
  0.4243647625457809  0.6657651022851858  0.7483711471634480
  0.7491144263495609  0.4130899185834138  0.3340192474549881
  0.4159808384926522  0.4990195945682091  0.9058322901880846
  0.2430708212550522  0.7526252081807325  0.5047597429727153
  0.0825122178299590  0.8367425741727439  0.7470837665288276
  0.8412164069446261  0.7538888246679842  0.0791984664591367
 -0.0041500684613679  0.5807336074047080  0.7571808719746461
  0.5835301910394024  0.7502232037134875  0.6687102502031153
  0.5855161352786398  0.4954817745351284  0.4201047789098298
  0.5822197084232946  0.4146643152971718  0.6663804156250835
  0.7517162542232965  0.8430689142882185  0.0825749803254246
  0.0819319437930002  0.5802028180709367  0.5149403515128781
  0.0806402923618592  0.5824765418044145  0.3343492813667417
  0.3302871182235447  0.0005373355576720  0.1640148833730323
  0.0803999570346262  0.9204156521898733  0.3314524924545000
 -0.0099896679788759  0.5823356304048206  0.2476041242734979
  0.9157133049822108  0.8428425239330400  0.2505674445385697
 -0.0016782948042220  0.4985716660791392 -0.0009826819401749
  0.9150428260712821  0.2479862716075645  0.1655835910632568
  0.8327914759266427  0.7520909838392488  0.4155109638962898
  0.7507953565566136  0.8355314519906095  0.7488071939284001
  0.1657706826125278  0.5827344342726515  0.0789791791345744
  0.7521346795602523  0.4136146637465122  0.1651178365864755
  0.5023361658572767  0.8397545735114250  0.5040668509168735
  0.7501153337174927  0.2471007795484819  0.6632287083022855
  0.7528680191349771  0.0816410637133278  0.6648244967168001
  0.4168843870532001  0.8360125925923800  0.7506110671967392
  0.0796610437898083  0.8389294787444258  0.5835680321170025
 -0.0029649394855470  0.6655945317097157 -0.0016923236274344
  0.2445510716203698  0.9228460556434827  0.5044137047811826
  0.7512914145289403  0.2494846319423239  0.8371867967198109
 -0.0062167155800584  0.5821700826619547  0.4194884638544338
  0.2500109286970072  0.7502877009435316  0.8411070596077563
  0.5847574904072050  0.5809458091184018  0.6672493957554547
  0.2454410096816573  0.7507056056402791  0.6624814874425922
  0.9143976700043350  0.9186186990882933  0.5014977104336026
  0.2452383197200718  0.6610814837873034  0.7503886167990116
  0.4195455280163708  0.7515522026754118  0.6671296054224646
  0.8242925605838578  0.7544378263061475  0.2538907853689701
  0.7388425290373236  0.7523188081013212  0.5010135023999597
  0.8313375174257329  0.8430375142681983  0.5015499761452979
  0.4953610136331691  0.5798759105508936  0.1654473935115364
 -0.0067424859662438  0.6733803156306973  0.4177350345720971
  0.3346595657687388  0.9224455586280790  0.5034803367926469
  0.4194687535010603  0.4070955097097060  0.2507143595744407
  0.2444803660606716  0.3251600864769726  0.3382955910944619
  0.4998568148715270  0.0851127275136232  0.3329456804800770
  0.6665899110903140  0.6595325474872253  0.9128108947462555
  0.8292474861670197  0.4124573016015173  0.5027773693959761
  0.2520604677784963  0.0845709738996736  0.9211373770366786
  0.2449566749842389  0.7498780355528806  0.4148455643200586
  0.6686869995440431  0.0023767210693984  0.9176144026167529
  0.5787996934938419  0.0894633980662023  0.9167738930439117
  0.0843330666098681  0.6695761499753556  0.6648690338269152
  0.5800506031026891  0.6683372474845172  0.1623584163920087
  0.0841670745311331  0.5802636283694886  0.7555486454725839
  0.7497310680869834  0.2485184729370258  0.7504052025769719
  0.6697113715156907  0.1654339065222284  0.0850979088911315
  0.9930636147253505  0.4926200648863945  0.4170585085676788
  0.6695977998964405  0.6661943179903449  0.2585655592720618
  0.2412676159474209  0.4153967128149884  0.2496562867304984
  0.3310359500235615  0.7469975071962826  0.5069474950893185
  0.4169449513048044  0.4943492222712932  0.3439375742634976
  0.3347031694453727  0.4925722311192080  0.7518251439898688
  0.4117280169460776  0.4966169978880074  0.1639967575664886
  0.4042604916547459  0.6766282287191243  0.1635747043538214
  0.4159310710829592  0.4977270797736005 -0.0068983487701163
 -0.0894216857000594  0.7533551334637134  0.2477784406640220
  0.0785342986953175  0.5785967032426131  0.2427823780957735
  0.0773474599906535  0.8341162280596651  0.8363089230161854
  0.2478483915225832  0.7511081482662568  0.7523505602940255
  0.1631672654522993  0.0852570624081012  0.8323905323030678
  0.5008815324449497 -0.0013569448095215  0.4208252589703081
  0.7578680040737035  0.6580708364089988  0.1645922642610644
  0.1705035121520240  0.5817335498953127  0.3337600633347100
  0.9932992506076587  0.5789049305129867  0.6676797555102670
  0.6658582558547156  0.8342710295283817  0.9138727457756580
  0.2491155608541534  0.9224798122180791  0.7502336857480975
  0.4157407240684445  0.6715202160980905  0.3388331597848152
  0.2455618434926421  0.9248738712971565  0.4142566884276912
  0.7533246862141112  0.7544555827905571  0.0774726663313740
  0.5067152187266639  0.7511391307408722  0.5004208305421246
  0.4173209491451882  0.2486477646169457  0.7478603240029409
  0.4991307451398588  0.1726452046340812  0.2458671951518941
  0.1626615700319570  0.2476565714953278  0.4992563349433902
  0.5858774288135171  0.5759081730658200  0.2550152719183995
  0.6652113684498689  0.7581681034627432  0.1676367840327367
  0.8292974601986547  0.7532133718582107  0.5041310620724246
  0.0837589162446114  0.5811997203366459  0.4263714450848433
  0.0865224123761042  0.7566214275281070  0.2448373434047095
  0.8315808884418556  0.4161065163908318  0.8325693025905669
  0.3362944159420778  0.6641803015545500  0.7515083175088136
  0.1631481669797730  0.3309777438018736  0.7516937051958809
  0.7491095427334203  0.2472927360302943  0.5010617615180127
  0.7508827166480248  0.1605113078682282  0.7495511473062679
  0.8317902425657558  0.2469034880123074  0.4165558964180870
  0.7496481111440830  0.2480784197445581  0.3336820872764222
  0.8321930554665692 -0.0001198038458728  0.5003698249521673
  0.7501165654293163  0.1657783316594644  0.4176063387858596
  0.7507774152737002  0.1655086860049437  0.5833972910632518
  0.8331126865123575  0.2476680955927779  0.2495322833908145
  0.6688588780196691  0.2476047034222804  0.4178507285912347
  0.4986796349044452  0.0831599111201885  0.0850407757956025
  0.6685246098115227  0.4956637628011384  0.3349013020134158
  0.6681809323995718  0.0829102743392568  0.2494159444182837
  0.8336958130601668  0.1653698535114746  0.1670271500760631
  0.6673149026094568  0.2477962059198835  0.5843604587064085
  0.2480393164316500  0.8377660491586690  0.2476680483135016
  0.6662976685333687  0.4978444464282979  0.5017673096684662
  0.8341106258994503  0.1664905091523402 -0.0004747673634015
  0.6663392804209256  0.7509548180922743  0.5883646083469783
  0.9157075753124516  0.9191319695952431  0.1654585327714089
  0.9154042692052929  0.8347751320694855  0.7489994662168120
  0.7512707118625026  0.3314266508149890  0.2498201423870045
  0.9143501145832099  0.1662455971701638  0.0836573632580117
  0.7485490244281177  0.9190652294453598  0.5011174035628738
  0.6668786798051182  0.1668724469510376  0.8318802906624722
  0.9180501018654705  0.7552282540738391  0.5023262047746871
  0.7489566237567241  0.9198995965311465  0.3342186518278238
 -0.0017506336632294  0.8382184228715561  0.5006778227954249
  0.8326826480615178  0.0822481397628355  0.5827721536982845
  0.6680542047230217  0.4124767414888871  0.0814006746137228
  0.8321971471999061  0.0011296814230070  0.3337518304927421
  0.8346112491138055  0.2484254100538950  0.9168067695996198
  0.9153328991386031  0.0824310981790255  0.6661010920316675
  0.9116325518916190  0.4964636964065525  0.5854614169238975
  0.8329861991081634  0.0826329268017455  0.2502430889056421
  0.9161387818404131  0.4134918921830205  0.1642344446167341
  0.7526259386877904  0.3323367555153471  0.0831320079907030
  0.5822778956076304  0.9196725732025900  0.1668866930750095
  0.5822504033544191  0.8378835466079384  0.2511187693045638
  0.3308327254703164  0.9197383653893636  0.2478874093064595
  0.5813228403104139  0.8373723374576401  0.0822948590742868
  0.4966739057810489  0.9185269320392390  0.0829095583541624
  0.5824298444923979  0.5811306230304507  0.8325742906250106
  0.5811679939584590  0.7511901056750985  0.8317456210523579
  0.5821895892676460  0.8362038449100795  0.7494789235923051
  0.5024943984617620  0.6640981256819261  0.6680198563383986
  0.3336851560287126  0.8352833674807776  0.5047322213470297
  0.9149520652197008  0.9184459773341389  0.8329211504693461
  0.7512851963485951  0.0019802917275323  0.7495941926717855
  0.8339142374198961  0.0026827763896472  0.8326861510136785
  0.6678728641220059  0.0840414352225334  0.7485225214682973
  0.6679850601257310  0.0017816620827889  0.6681756871943161
  0.6669507145611427  0.9191075533781242  0.5864133132797901
  0.9151249071706145  0.7507432532607508 -0.0035489831801547
  0.6615748268731345  0.2485528946734606  0.7487567734902768
  0.4988286756937655  0.7520449200942345  0.9148881935989769
  0.4981949509277653  0.8364855666740859 -0.0020820807580746
  0.7525388222765009  0.2496421404408082 -0.0004718541373306
  0.7561814254554685  0.0015993589334167  0.9166935991549635
  0.5836040530214657  0.0020415851520623  0.7481285740288285
  0.8311464516235749  0.8384264336569198  0.3354939387003231
  0.2500339844956496  0.5783538179802817  0.6658055121263430
  0.7520260311430171  0.4937313403434825  0.2486303415684507
  0.9157706554079349  0.8364842049095933  0.0811171859209846
  0.6700826532195181  0.3323119723235942  0.1657432050453199
  0.7503299119857444  0.9187702786886915  0.6682063339353080
  0.6683960667964673  0.3314932191253095 -0.0011171940898983
  0.8334785814993776  0.9185435972840799  0.7500854147594233
  0.8323102288647761  0.0834982435144859  0.4166469840834561
  0.8341727625285044  0.0821807389773867  0.0839340629359552
  0.5860985038969919  0.9181089820823467  0.5029848276733183
  0.4158396245549171  0.8367518255248590  0.4164989695899192
  0.4985082048285610  0.7549645336822749  0.2506604662308325
  0.6683974337666472  0.0835621569428914  0.5845934708496214
  0.8340540539633261  0.6655759244433513 -0.0024561666261239
  0.1612265565604014  0.0839787791398965  0.4149990024418175
  0.8345216616182424  0.8338253761254362  0.8321479444433996
  0.6684685467562744  0.0841538367263168  0.4185114950670516
  0.6669794518645300  0.9193000426144255  0.4177733181463777
  0.7513004470980061  0.0815519539308524  0.1667925176679555
  0.5850602551905582  0.9192032414120391  0.3328131757315760
  0.6670490862744975 -0.0002772100658104  0.1666545846673775
  0.9158370636484314  0.2480216809016803  0.6666435613813891
  0.8347051547405493  0.0839016505315184  0.9166042367788232
  0.8350383959030123  0.9192768359259087  0.0825404011082208
  0.7491599250397083  0.0834435135049501  0.3341561735117608
  0.6674291343671113  0.0012298760632878  0.3343350314865008
  0.7526680326146145  0.9188533119572847 -0.0006618634344649
  0.7497489406279153  0.0010574002695091  0.2504139372453450
  0.8333950477631464  0.1644767219712830  0.6660611845814729
  0.7528432897837918 -0.0003946361157765  0.0835686728827811
  0.8379311043995221  0.2467139854821008  0.7505073552709129
  0.9144559058223024  0.0009293798095742  0.5836727718467517
  0.5809847927317281  0.9200246700282345  0.8318519530098377
  0.1627505547444187  0.0835603497236020  0.0832103950245686
  0.8326153758215007  0.9202833059291067  0.2507074034497732
  0.9161251908128059  0.4144228766573415 -0.0008151756018936
  0.7527990793132093  0.1663431200769173  0.9158372807008012
  0.7505121439163834  0.0836272668743146  0.5005099383231179
  0.9161042151445414  0.1656760308663865  0.9162043874496490
  0.7479120061117343  0.8361218135377991  0.5860563499858834
  0.9150221662422083  0.3311786034615044  0.0825771802401666
  0.1656955810271552  0.4125119146651517  0.5842403786002643
  0.7480981008275094  0.8371350313374304  0.4179035109993395
  0.0794023382704865  0.1656285986703629  0.9177024357821115
  0.8343031332585163  0.5798511029849487  0.0804561690098768
 -0.0041613979228520  0.0834376205144153  0.4150393543705468
  0.5821809435966980  0.6659510782935595  0.7494462795665647
 -0.0024998497557920  0.0836823781268484  0.0837519980612171
  0.0800001348622024  0.2484948585764995  0.0007190421260947
 -0.0016611314938253  0.9187481482494620  0.0822717577644678
 -0.0027810863681320  0.0014067351404974  0.3326908290030468
  0.7475193186404616  0.5832007490887890  0.6681965096820639
  0.6668720789816539  0.9189410405604352  0.7497014368157224
  0.8343441830324294  0.0832460003307148  0.7498187362796542
  0.5028243550431394  0.5805198060589329  0.5849632804640968
  0.9151215981408930  0.0008122162439512  0.2509323561805574
  0.5006202212304868  0.7519052080901606  0.7497473341939175
  0.9157461742724738  0.0829520930739279  0.0009454587971480
  0.6667053422801664  0.8352172295719636  0.6693192706719601
  0.4136569074240890  0.9177564483477533  0.1652581934157052
  0.5852859188205054  0.5813541624238457  0.5017909315017419
  0.7467408862706283  0.6663102856937216  0.5857808243021249
  0.5013747878869367  0.5805009598821143  0.7503368973949258
  0.6668574295808896  0.6645746481313096  0.5008523325523566
  0.4185175519249783  0.8362597370043262  0.5881772086418017
  0.7497749462763811  0.6663882803670457  0.4189899526356601
  0.5015229838105979  0.5808254202458724  0.4208282591285690
  0.6660924818265574  0.6657771994937328  0.3431846828358015
  0.6669309067390220  0.5796662170929742  0.4193481406765064
  0.8319552820043611  0.9201601775499544  0.4175392696889026
  0.8326672366682915  0.2475585858715847  0.5839839628148585
  0.7513928260054930  0.1653282820623051  0.2503011395956266
  0.3331577409767859  0.5790361925219577  0.4225138477867584
  0.9146282250863264  0.1651731015803402  0.2496423791931030
  0.5041906399497427  0.4970956245252571  0.5023524431827778
  0.6674779562915245  0.0015964756831849  0.5017892655411983
  0.2461412131424134  0.4959355972495523  0.7507574223359667
 -0.0025169265942298  0.0834063710868421  0.9179535889471131
  0.4153493954263541  0.5871484209445919 -0.0044160867947481
  0.5858614202009964  0.8362315049731120  0.4177322904561492
  0.4146196179310734  0.2498003117592682 -0.0000918249448653
 -0.0019321127302913  0.0005985540554811  0.8338538939412821
  0.4185542548317189  0.4132077727159745  0.6654360167488420
  0.9155235179546871  0.2487043317025428  0.0010204629316084
  0.4181812443444102  0.4116837650444949  0.8356650342959591
  0.9144539015833444  0.6663211823567905  0.7504161570551073
  0.5018995952681162  0.2481257230646845  0.4203850087039864
  0.7516142851466521  0.7507508248078145  0.8312484473362294
 -0.0032349427051516  0.0007578106332311  0.4995047123445320
 -0.0027848755762649  0.8347832804053511 -0.0000843339987816
  0.1633849248117990  0.0035740046457518  0.3302833406567980
  0.1640697454565737 -0.0033472848978422  0.8349269115212806
  0.7521916946679796  0.9179170116208427  0.8309740584934350
  0.2476822519311581  0.0855714076398168  0.5019109744193396
  0.8422666946385940  0.6667363036673261  0.1627232303910278
  0.1629682628257560  0.1726324986492191  0.8333581475932224
  0.9109770775533582  0.5818596203075375  0.5028158615760990
 -0.0039517998204340  0.2475165649770307  0.4149095853031450
  0.6662939198951440  0.6665496695196055  0.8252519621633491
  0.9144256185083571  0.1658219331100621  0.4164979548889322
  0.7480092401422079  0.5817852596613881  0.5018966078384821
  0.6658211101046658  0.7523397969320264  0.4161491810719113
  0.7515584059152619  0.4948278347297425  0.0808438038358957
  0.7505397268029467  0.7528446002082928  0.3372927126069579
  0.7505397893832785  0.5799560617399522 -0.0013870697260145
  0.6669275017663014  0.5788972441428764  0.0804142533960433
  0.8338357865103835  0.8361223124659031 -0.0031044652906637
  0.8314745630695149  0.5040481491455163  0.8323873731912695
  0.9137205518640419  0.4984280082414841  0.7497173812485619
  0.9119959562751498  0.6672678624077845  0.5845929222222533
  0.9169606671571461  0.7534205121666622  0.1598943186644549
  0.6695782209276486  0.2537804001683832  0.0829655803680057
  0.1648061891422291  0.7506613262441376  0.9190684422069391
  0.8313626988159081  0.6660618439511665  0.8322019365393456
  0.6643491574760171  0.4142855120373933  0.7498280368254827
  0.7498675139043043  0.3316258064007118  0.9162600731977957