Cr Fe 
 1.0000000000000000
    20.0899999999999999    0.0000000000000000    0.0000000000000000
     0.0000000000000000   20.0899999999999999    0.0000000000000000
     0.0000000000000000    0.0000000000000000   20.0899999999999999
 Cr  Fe 
 206 480
Direct
  0.4297620138060638  0.4297778455963819  0.2860087688966451
  0.9991972727640730  0.7132402287696094  0.7146629658159903
  0.5002368338582273  0.6423673331704135  0.6425686820403573
  0.9275340030895131  0.6415770496443457  0.9284304867973590
  0.4293590250945972  0.8568158343291757  0.2856659880794373
  0.8573335467468931  0.0002360327796233  0.4290226112658766
  0.8570562734524065  0.4287943756613590  0.5704169961559566
  0.6433782327773124  0.4993238502241670  0.6405943389866026
  0.4298167121274746  0.8566360533346701  0.5724800483455184
  0.6422173805402784  0.6432247152532392  0.9282673141474901
  0.2865235988687780  0.5711023988667308  0.5715684267193543
  0.6428830559114286  0.4988974205496899  0.0721737195061921
  0.7147982460075409  0.5714767870697008  0.2852142598506446
  0.9991276791516803  0.4298528397360749  0.2850844759699702
  0.2144775745102030  0.3598640546929407  0.2144802547930638
  0.7855201823217941  0.3570294011568476  0.7851876615530611
  0.9990549787950698  0.8561550267235267  0.2850900988443799
  0.6444956055105717  0.0713356177706550  0.7849620464132707
  0.9276087375460039  0.2140016885538868  0.5008293327202870
  0.3575635377864871  0.9279932863488478  0.2138409631931635
  0.5004438231361578  0.3583436229677493  0.0724084275323680
  0.4301492109011786  0.9994686041012241  0.7149098668513639
  0.9270753276118849  0.7848475108917827  0.9279809281554187
  0.3577915819216350  0.5008018892079242  0.2136726934330354
  0.5725327068692923  0.9999926533676774  0.8570890409877753
  0.8567626515934827  0.0002739346256155  0.9990200756692640
  0.6423887312537661  0.7845323998646265  0.7863283722273173
  0.6434249649405019  0.2154094750187908  0.3576034344178516
  0.2136849153811424  0.5004071148240176  0.3565950420574681
  0.7142391544955055  0.2854272110354231  0.8557516839661187
  0.9276171193860668  0.2156181857258008  0.7847700472014880
  0.5712256986453261  0.5715961244234341  0.4269648865606835
  0.0015769702103039  0.4283112824630859  0.9991859964360008
  0.5721175305609465  0.7133665912531613  0.2860751488234178
  0.7140385928384905  0.2858051778415587  0.2860111110157216
  0.5715608164908184  0.8567154830372139  0.8577770442165297
  0.8564383981232744  0.0005883312768258  0.1425707662111874
  0.5728784458477170  0.1429068654197518  0.8561542900723924
  0.7148144104451449  0.1433939578988754  0.2865450925545372
  0.9279687133766903  0.5009031070152941  0.6424410523192620
  0.3583433056278949  0.7839356784250356  0.7846055230414006
  0.9269430678142704  0.0718423626847193  0.7853489417797540
  0.2865684584828072  0.4288396742056574  0.4289182279113609
  0.3568715149760758  0.3560987448104171  0.6425791623104070
  0.2862960231179975  0.2873920346646263  0.5727448281637009
  0.4296043274504872  0.1426574485062821  0.8566774585309396
  0.7850678754986459  0.3580005106876167  0.2148204964719360
  0.5715955614966788  0.0003271055844422  0.7143532329898097
  0.1422611196419791  0.9992175422481815  0.4291680713812293
  0.6426799283407687  0.6417843212548754  0.2141452130185230
  0.3581753690447120  0.9280479712384025  0.0711289504704383
  0.2147659506946854  0.2149534572664223  0.3569234917321183
  0.6433155544849783  0.7855308010089868  0.6433479006769537
  0.5716500380342162  0.4290426961492800  0.5704954708086856
  0.2139166593767032  0.7848071932479510  0.3575375714052915
  0.7149195742061392  0.8555312501746921  0.7152489213674353
  0.2834552482096392  0.4295639479296672  0.0004834970036008
  0.2852209675221246  0.7136286821373607  0.9995912999844364
  0.1422898002546799  0.9992141451294223  0.8566654873572388
  0.7135598727600132  0.5723362870981762  0.0008118955560148
  0.8571146649556817  0.1441719895762894  0.5718265006549362
  0.9281326945120675  0.0709969532756208  0.2149028226556130
  0.7140510904198668  0.2865240688122722  0.4290484849513979
  0.1415562150322136  0.2875041076643070  0.8559683695066082
  0.8590303778998232  0.1449742239765032  0.7135986162373785
  0.2857343262466982  0.2865805956712135  0.8561408961392152
  0.5720935019855218  0.9994654008934682  0.1430993201409850
  0.7848643285805207  0.3564634744478327  0.4993724389422770
  0.6438010000675297  0.3579116235436616  0.5001481829925590
  0.5014746087712061  0.7848337099131848  0.7862279220612248
  0.2860974525246722  0.4277984741446228  0.7135497897891891
  0.5013524983802593  0.0712424711795829  0.7851175363806429
  0.5721936299258408  0.9992302520295776  0.9998674506183733
  0.3575949375595135  0.7834262234831511  0.9296904872740742
  0.2849642366630141  0.7135839466460623  0.1416429904988328
  0.4280683134394297  0.4294640729969836  0.8569819231298770
  0.9987205520162835  0.2861123503931522  0.5710302716267850
  0.7851423329584135  0.5013014981796224  0.3560336211902560
  0.5718831292385389  0.1429338837324286  0.7155715280348675
  0.3571068661154607  0.6419014665840087  0.9292156255798103
  0.5005262659691089  0.3575920478157318  0.7851163545997555
  0.6434542947038696  0.0712059736430805  0.0718060592618923
  0.5722222031498193  0.2867314659304123  0.4283666947163268
  0.2149449669450165  0.9280463330149653  0.7854663054488200
  0.3578211870903606  0.5004496345049608  0.3570806151303526
  0.7857381686046386  0.7848501748698500  0.3571934086790569
  0.4299440424581334  0.0009291958738849  0.4256132264364278
  0.4998750387537082  0.5010333193220421  0.9292783516579715
  0.6435244307143202  0.9282725086601321  0.7856139945604601
  0.9983678841539333  0.1433172304987943  0.4289820970945049
  0.7860438765256847  0.2148341737341246  0.7842646870428970
  0.0725961470255617  0.5005420598925274  0.2145285474730025
  0.7858026135112217  0.5009734393726327  0.9288503534511845
  0.6433787984988953  0.0730564496415869  0.6432698911894409
  0.9995080815423780  0.2865801429668955  0.1435015667804773
  0.9281458027491614  0.3581769326186539  0.4988843661212313
  0.7844147797995892  0.9293608303339888  0.7832293972337384
  0.2138231810875720  0.6429849578771485  0.5002977893829379
  0.5726518417781570  0.5704827192608346  0.1424248520201392
  0.2152294090092924  0.2152423769098936  0.5002746184769259
  0.9277228616899282  0.9282070721112335  0.0713799471470364
  0.1424616992287295  0.5723749840446846  0.4278850622608916
  0.3579036709308862  0.0709664141269452  0.9284823371034532
  0.5719276306692900  0.1439101233650532  0.4287361005615591
  0.6431269997268915  0.0722671967015493  0.5008597197371005
  0.5713036960659988  0.8562916172882401  0.5718123846918655
  0.6433458366757216  0.5000622933569905  0.4987848099024746
  0.9982858687666346  0.1443258368862822  0.5718638895381785
  0.8562520888941129  0.8563097427841283  0.9994147796221254
  0.9287808636966127  0.7841978928182678  0.5011010267470030
  0.8570170677446950  0.5697123390357124  0.2837060271167171
  0.3573039509928119  0.2146356022254675  0.7848313875588285
  0.7830782296358436  0.4998184688334663  0.2157358984903845
  0.2142494191286362  0.6423195705270843  0.0715808305460543
  0.7854341264097914  0.9276358190491130  0.6437103363074389
  0.7853076418652780  0.6425034985541858  0.0717310418568805
  0.2864688101961614  0.5716516647563352  0.4291327821788087
  0.5705108001415709  0.7134754091204855  0.7124429298817927
  0.2859481079251521  0.5719605020668554  0.1419366554673415
  0.7147626943020783  0.8572555949472354  0.2854808478608214
  0.4285257854826335  0.7135540258311677  0.1441206074569142
  0.5007705350432562  0.9276636175507079  0.9283909075364724
  0.7146986110023850  0.8568719542143507  0.8567514668501069
  0.4287895821953801  0.1428088809107357  0.1438815993546906
  0.7857724590664883  0.0717880934210316  0.7846971877620402
  0.7861945812398849  0.0723415885692066  0.9273642506158112
  0.5719932903495927  0.1430567013558774  0.1440019023608567
  0.7151116416645574  0.9998778589367338  0.8574408376349104
  0.7141510109867492  0.9993588077611764  0.7140390230057012
  0.5713375930899344  0.8564831572100753  0.7140571508714125
  0.5717380068453631  0.5713926516553205  0.5708418665209511
  0.1418065825583518  0.8562375320495298  0.1422235151781421
  0.2148541500881343  0.4996652626951475  0.6431649037672760
  0.9988789926186287  0.8567768027739455  0.9999892864257035
  0.0708357302158232  0.9277855950075865  0.0718687613576564
  0.7855191621414516  0.9280065793749552  0.0715052717514271
  0.2862131993418076  0.4294351040102727  0.2854651943560595
  0.2855698800104240  0.7140381499522851  0.4293800576728364
  0.1428925652090030  0.7135699342908601  0.8564316923485733
  0.2868641038288272  0.9988624360513433  0.8564489763919638
  0.8566539953860992  0.1423102818882601  0.0007703579593625
  0.7147805852307250  0.8551854158291989  0.5712861018759167
  0.2858039246595545  0.5728711809276202  0.7114722605659201
  0.5721431433454827  0.4292039760282024  0.8572728317029142
  0.3573389040649710  0.6433475276720840  0.6429779011708030
  0.7145097878071334  0.1432449982134149  0.8563342510503963
  0.7858226898380704  0.0710466365086367  0.0703670534092356
  0.7165740630979655  0.4305238968434341  0.5706943177755539
  0.8571704648064308  0.9992469805069358  0.8568621122194356
  0.9281789219416883  0.4998360134281108  0.0709639976509056
  0.5719568702583439  0.8565911217953824  0.4291222547461452
  0.5729491062943818  0.7133330288956805  0.4275913761877644
  0.7851330403943831  0.6420829406668833  0.2149388521414749
  0.8563377803579529  0.4290262434036043  0.4288303008636398
  0.9998786483086931  0.2865673342482870  0.0007823843613320
  0.7858692145491512  0.2147016572985974  0.9282752888478070
  0.8571927798216815  0.9989860304160891  0.7152142385085618
  0.1428513330825840  0.5717966427607160  0.5714418416620624
  0.2147137928523177  0.9276880178509046  0.9281040786389287
  0.5720672471889994  0.1435964169978102  0.5700851922268193
  0.8582438176149373  0.2860379652620834  0.7135152167960348
  0.2867610333680943  0.8570090243684177  0.7149707231640363
  0.7863590763394062  0.6422133993293420  0.5001610742768378
  0.4293523407312849  0.8563879976092087  0.9990597176957242
  0.5017060658936672  0.2151381697698950  0.6421694291161733
  0.7150154684874478  0.2860360259543628  0.0019376394465872
  0.7154679654107209  0.4291573592391897  0.4283566787432661
  0.5014069465455171  0.4999867656149554  0.2137922723307387
  0.7141469810494255  0.1444654438425148  0.7154171055714749
  0.0706673575961483  0.2150429897814942  0.6433232718554404
  0.2141651530130689  0.5003179620657180  0.4997549634435974
  0.9982330468709517  0.4282796537335547  0.4276007932096395
  0.7857453758493490  0.9291395833106513  0.2139650066604933
  0.0701545851164525  0.6427773136080337  0.4992827443287006
  0.3580079947683827  0.3579759841959939  0.2146041697175021
  0.0707728788410730  0.0712230199092403  0.0714440661269698
  0.2150518698761996  0.3575911609173504  0.6430665813340924
  0.7849710729650748  0.9280321743018517  0.9284152019480021
  0.2150833443970999  0.7856329389122610  0.6432558990191987
  0.9270607531947972  0.9275458841440870  0.9289221937250633
  0.5010421641750854  0.9278202529744439  0.7859651713004874
  0.2145485371769896  0.0712407277644803  0.5006353415340876
  0.9987211021870507  0.7138150518618321  0.2848153596326659
  0.6431655880710698  0.7851122157444830  0.3571799770278497
  0.7854758761916392  0.6418499379607414  0.7855492369116904
  0.1422371065560941  0.9993245876992906  0.2857402681717437
  0.4299434572835094  0.5720382813184360  0.0006599986200912
  0.8566028550803307  0.0003317618841314  0.2860980627432983
  0.0710339571398702  0.6429085429583214  0.6427768846095407
  0.0001354151886791  0.5709456563751676  0.8557831056136076
  0.7852839518919519  0.0725788420420232  0.6445802708907392
  0.4273812561123884  0.4289112482404782  0.5712296695694131
  0.6443970323017981  0.0708922684365602  0.9273484123924280
  0.4291255859616062  0.2862147260984979  0.4283515198883383
  0.0705888210233577  0.2146080727710618  0.3571958268007431
  0.0712290660812318  0.3542498248316529  0.7857254456753636
  0.2873214184775544  0.4290249479372987  0.5712728986116948
  0.9285411323739996  0.0710442791908556  0.3577267368995108
  0.4287600381853653  0.2861091516707949  0.7137512505293870
  0.0708705348785266  0.7851238538012734  0.0716112922206444
  0.7854745971117308  0.2149307839903964  0.6435262096635300
  0.9988847119025803  0.4285215317072050  0.5710815268904901
  0.2148932267515833  0.3575682439121911  0.4999045483417440
  0.4285720643133000  0.8558781161190582  0.8576568282921326
  0.3560312139534926  0.5010241388860365  0.7852502549557762
  0.9269720711275367  0.7849439456340104  0.0722491779976587
  0.9275390296100177  0.6421351031119449  0.0717094597373390
  0.5720742710226649  0.4284150565469790  0.4278883456032183
  0.9996959772157780  0.5714487734350119  0.7150969743866166
  0.8575349681664718  0.8564331354103492  0.5720603980922495
  0.5009653751171760  0.2146752269195672  0.7847521530861791
  0.1418285000973261  0.8562276514562155  0.2856805511493716
  0.7154034950213658  0.0009762544215828  0.1432048732160224
  0.6433297670583158  0.9282280180692990  0.5010177594021133
  0.6445511594239187  0.2148961083619783  0.9279924310258455
  0.5001840891125375  0.0704559238426682  0.0718382219343118
  0.0010908407160886  0.7138569207191902  0.5719165618415990
  0.7154781520124309  0.4305753515663641  0.1418217320750177
  0.7856785171430402  0.5007841035877806  0.7861822578896153
  0.9987773559064597  0.7138481626411972  0.9997321167961942
  0.7145401574875346  0.7137428038018477  0.4284296911757007
  0.7137014081881647  0.2864875959381188  0.7129413173203081
  0.0707026982308979  0.7852350896543473  0.3578987369240924
  0.7143943335257649  0.2863294170652195  0.1436284092312616
  0.9283411331773409  0.3570193457042034  0.7852163835269755
  0.6427880314892538  0.6425606652652446  0.4992894821059037
  0.1441834127286659  0.2866570398562714  0.7142284488292220
  0.4290618407109673  0.1429387107724082  0.4281661615626359
  0.2145195033779281  0.5002569489685088  0.0701995221127896
  0.2135117333970893  0.3575885759228706  0.9279075955420746
  0.2142280978968570  0.6417898808994281  0.7858963375712489
  0.5718787886319304  0.2860373554642729  0.1447915537338611
  0.7855135126098312  0.3573911360879652  0.6427320605875896
  0.8572710735282543  0.1431339581841498  0.8564571969118526
  0.6431176817652643  0.5002980340139077  0.3565041153489519
  0.0002308345233859  0.4290421520114742  0.1432951851553097
  0.5005232212023006  0.2154645243955017  0.5003059798581279
  0.9988304386777380  0.5711713402011324  0.2852344513608908
  0.0701762029109925  0.9278887464451732  0.9278322782495715
  0.8569199406793188  0.4292095452766215  0.2863359526163246
  0.4281381069804150  0.5710813661873715  0.5715029322838370
  0.1419736995557846  0.4286722860723449  0.9997924242996248
  0.0698675743067318  0.6419804442986170  0.3585598932803162
  0.7853382267696660  0.3571732371604697  0.9288944399013926
  0.8573852334003389  0.4289016993419128  0.8571584503130064
  0.0702136962524707  0.0719912129015708  0.9283626341218632
  0.8567134689872256  0.2859353247292385  0.8567161905767304
  0.0723864851516764  0.4994304755635866  0.7860705483821180
  0.7148496935807814  0.1425633793214026  0.9999771803961290
  0.9988617815726163  0.2851091811333665  0.7138957464707673
  0.0702678993273299  0.7854563590174120  0.6425993930996413
  0.8576679119797368  0.5722817633027841  0.8568840025085225
  0.7135303484169028  0.5723000325887535  0.8584138652072072
  0.7861791745834542  0.6398495603714194  0.9278080462348318
  0.7863334024834009  0.7856771729606071  0.6442971871885024
  0.4998798821536485  0.5000216750078686  0.6420112546857778
  0.5003444692085924  0.6428991911483456  0.7853284090996678
  0.7145986153246721  0.5713892339843819  0.5712488200387247
  0.9985366430036677  0.9997430251603291  0.9990801017611137
  0.1427055398751682  0.8563269258264488  0.9998214686076934
  0.9989069939764544  0.7140587030728607  0.1437255687924396
  0.7142442506638665  0.5713925720867277  0.4284317930715771
  0.7854987474899434  0.2150001493081021  0.2152260282465550
  0.5001931964961521  0.7840493993448494  0.5000546613507091
  0.4293410324703685  0.8566330153542687  0.4292108219307110
  0.9992329400451803  0.5714941885510142  0.5714256619502427
  0.1418664477083797  0.7136976788112838  0.2861777322420683
  0.7863012449776461  0.5008623663267285  0.5006556292006435
  0.8568341102094365  0.7135273659832881  0.2848611449031582
  0.2858793665669888  0.1435846564988557  0.7136866801488875
  0.6433355499299266  0.0721895457956464  0.3573609883730145
  0.5741922098050205  0.7149644163392143  0.1424235794705416
  0.5717034825634635  0.7141809129023718  0.5714375322975190
  0.8567228424190577  0.1437850068949541  0.4286486423893127
  0.6430425299859378  0.4996091408319208  0.2149604868687585
  0.7851597346325163  0.7851380012911289  0.7856377607695617
  0.1431834279222415  0.7149045470036262  0.5718020161465538
  0.9261441003910984  0.9294279346511537  0.7832865094433915
  0.4292914148854256  0.5718643105215749  0.1432851726750631
  0.5718337492523953  0.2860319370642313  0.2860348166980055
  0.5000855636282664  0.0724669671216316  0.3575527412539873
  0.3562252894224766  0.5007640361245189  0.9295491302301170
  0.9999141000404532  0.9992466520877088  0.5718071245565365
  0.3579349205325782  0.7841252823654272  0.0714533583807500
  0.7853019805507527  0.3569468767569706  0.3577861390004914
  0.0710822723668594  0.6421185859346763  0.0712545666088793
  0.7137629409422622  0.5712757175425968  0.1424221496667300
  0.5002980993447141  0.6437660542944257  0.0716524034869428
  0.6435707644648441  0.7853579342918109  0.2140465090897629
  0.9999551227346070  0.5707624723556953  0.9996713674228382
  0.9265088420948580  0.7851700863007641  0.7840487103522338
  0.0721009937307412  0.7857137295388877  0.2139479516906668
  0.5000324654026621  0.9287362518634823  0.4999385285576510
  0.6441923930608627  0.3574079103418724  0.9291157259946867
  0.5715730193762160  0.0000172340739158  0.5718801924051967
  0.5716431141628124  0.9999948773750379  0.4284099930363023
  0.7860440662404015  0.0715821885516975  0.3574940360929445
  0.6450277659343896  0.9303429247627323  0.2140436970022974
  0.9991603018643580  0.8569094483891602  0.4293626715796975
  0.6443061575627475  0.9283186437253442  0.0712762601844199
  0.8565751646614891  0.8567394214274132  0.1425225187869270
  0.5008185648582224  0.0705273165851443  0.9285462994415036
  0.2147202104594418  0.7848612652280739  0.9277955649530404
  0.9995132383677281  0.8565739476452002  0.1430178199184025
  0.2879177103012763  0.8568886155996901  0.8563753154638538
  0.5013378742359318  0.0722168622165018  0.6428874347541191
  0.5026971519785369  0.7836867436286087  0.9287103048047989
  0.7147021777685458  0.0005376392754488  0.4288437927886921
  0.1427311111300816  0.1427931827956821  0.2852518558336509
  0.9276953486283478  0.6418618058386779  0.3573225196773277
  0.8557001503223748  0.5695116753717352  0.4276466342551716
  0.7144405310782773  0.7138973669407562  0.5714887898484842
  0.2142616756586988  0.2144935548124070  0.2143175620704431
  0.9267972532381316  0.2145383840450058  0.3576858203794712
  0.0720668583338339  0.4992659954645229  0.9281084553180591
  0.6408913298085094  0.6433441351641404  0.0728864960311603
  0.3569499519989863  0.2146554282895368  0.0721136984221506
  0.4291137680246619  0.7161234153041007  0.9979820920762692
  0.7144069127376660  0.7135335753873453  0.0002498730778508
  0.6439909062166308  0.0714948711781756  0.2149357877622438
  0.8568991895601915  0.4292597403023736  0.7132185451752182
  0.9287524636714337  0.3579469172415354  0.0708933793717178
  0.9280494971527127  0.9281057567400078  0.6431294031001117
  0.6434086268265028  0.5005018726607521  0.9294706046085942
  0.3582247306028278  0.0710300038219793  0.6427113664832091
  0.1424194927636140  0.2863390869381277  0.4282585322650248
  0.0708094368508632  0.2158334435540439  0.9282039159216339
  0.5001173691199003  0.9303043850176581  0.6432471392896095
  0.2866355045816541  0.1428060114310764  0.4285528059343836
  0.2860032289370617  0.1434949500269005  0.5717921169624567
  0.2853026983646904  0.2859547198901292  0.7137993496522280
  0.4292333216263928  0.1424967660281589  0.0001812652731189
  0.7150973381047274  0.1445646387134436  0.5707785258877671
  0.5002164966068285  0.3578437308230143  0.2152020252381712
  0.6425536354083557  0.7852856171534373  0.0707883419741223
  0.0712922497653596  0.4998878629007164  0.6428191410488717
  0.9273899868705836  0.6423379609170096  0.2143185814946132
  0.0707115548693024  0.0719849944529676  0.6427044795613158
  0.3573998697293302  0.3589206677870332  0.0714845747183228
  0.3576278249426747  0.2147611488712620  0.6424515319146378
  0.4292951133402100  0.7143112314727035  0.7142032387885920
  0.3562077266815062  0.3586932152206892  0.9288499051705630
  0.9283025909282406  0.0718242401769628  0.5008895012687213
  0.6442448881249528  0.2154163304043913  0.7829443780135736
  0.4293893036663645  0.9985229086986583  0.9991198644929307
  0.7144376087638773  0.4292852406799735  0.8573283068320351
  0.5718559283612509  0.4293495713941533  0.0003962808657393
  0.5703746714483393  0.4289115179379774  0.2873792083220758
  0.6444847176136485  0.2150654366040211  0.2153014589132367
  0.3574498322661345  0.2151502770628360  0.5003481905369781
  0.5001399095410466  0.5001548699776261  0.4992968323744035
  0.9284316156422454  0.5004894435073781  0.4988384687396646
  0.2149956292420400  0.2152298720511376  0.6434610363722804
  0.3580159339271312  0.2147647675502422  0.3569249161951603
  0.9993573110073809  0.9985346118732160  0.4314956361763946
  0.9253500567541483  0.6409565223620235  0.7840167350150854
  0.2143839963224246  0.3579631813252118  0.3566320551272504
  0.7146660315537552  0.8562909379532269  0.4286833871830341
  0.9282755448184873  0.7850116060642541  0.3572741948298456
  0.0704342688315759  0.0717278084433602  0.7852897812997520
  0.0704135709329343  0.5003965951872936  0.3571360802231616
  0.8564942656755318  0.7128375711919976  0.1442920981408782
  0.4295432502593550  0.8566742458487465  0.7145390220206468
  0.8552099057200376  0.7137813158178595  0.9995886657337441
  0.8566325027311499  0.8568101065788636  0.2855149537436161
  0.0709472088628108  0.6424558901640061  0.9276272836289993
  0.1422884069025648  0.9988755325939355  0.7143919868903275
  0.0703787755024965  0.9276461322831367  0.6421358711142345
  0.9979277858609011  0.8570593386474159  0.8558031881648257
  0.2149653067661766  0.5004632528614098  0.7853951647746344
  0.1428672348382919  0.4289322238877798  0.5715740829426131
  0.9278530668189432  0.3577424498373715  0.2144195673641216
  0.9989691587956726  0.5719953567298247  0.4270780648003923
  0.8557577630353854  0.7147589596108724  0.5718344814426520
  0.9979055227426983  0.9994500539308994  0.8567379598121563
  0.9290248360102303  0.9281409999618078  0.5009079173636896
  0.8573157550603248  0.0001906731259250  0.5724100136955710
  0.7862066056146990  0.7848470371857715  0.5006968548517375
  0.5006842650529221  0.7849651746478608  0.2138602926496219
  0.1423065247706542  0.8570210573054036  0.7142642443604164
  0.7143980598147561  0.7135950783077626  0.1426545551299938
  0.7850223294770081  0.0708939876611797  0.2155224466024902
  0.1429350291931748  0.7134266711042412  0.9997009281982558
  0.7865894633971665  0.5009266022325967  0.6425408422990269
  0.8556351840244052  0.5712865326756907  0.0012477380030220
  0.8564506221672931  0.5686922388089179  0.5720071658835182
  0.7857765301111238  0.7854021101322151  0.2138919831505589
  0.3578213117993636  0.9283461542600779  0.3575250588512311
  0.7859913920894369  0.6417003007779782  0.3566829977792531
  0.4293853418174205  0.5715266186815570  0.4288094834197044
  0.5723402437135042  0.8578080769868969  0.1425994644903650
  0.0707994865284635  0.7850852041341642  0.7853654538723411
  0.8572808054492951  0.8568102033068723  0.7155325986681645
  0.9280588023666926  0.5011001138860879  0.3587210150324327
  0.9281777957681248  0.5000652461335996  0.9286422448786501
  0.7139310511020694  0.5706086696795667  0.7139109600758979
  0.8561634607907318  0.4294329041647269  0.1431003522337889
  0.9275952246353676  0.2153029339606194  0.6442696157598597
  0.6436793612196655  0.3581437225172936  0.0721260430684792
  0.6429674375224346  0.6420258163776726  0.3577268808277188
  0.1427101652190796  0.4283285760774895  0.7150155389279187
  0.0705718979570574  0.3553664357793893  0.9282619063652567
  0.0705725902564279  0.3580141130318542  0.3565638700967745
  0.7857621325260549  0.9279740452953180  0.5011667006492845
  0.9986481865384063  0.1432643409759199  0.2860510929003270
  0.7844640575559055  0.5000790993960905  0.0708610665483389
  0.0710168220600014  0.2150877010297829  0.7853523755585378
  0.9992008687121737  0.1433204598913213  0.7142831814672762
  0.3585134420262914  0.6432742515488771  0.0705618959700121
  0.7858340547211101  0.0722383662978640  0.5011056262622563
  0.9263765455728412  0.0737581433933132  0.9279776473745892
  0.5004476951757691  0.2145319959038766  0.0722483148992786
  0.7854553421326457  0.2153582751670250  0.5005436312386363
  0.9268009463941997  0.2135991889068843  0.2142675227856585
  0.9278247771801272  0.0713518720081105  0.0712403180888130
  0.7859480149370336  0.2144426566838886  0.0715121229525329
  0.8581437455901936  0.2860807350328312  0.4295848531421210
  0.9984774164817211  0.2855876294434229  0.4287101114110080
  0.9981380450860466  0.7131583310691036  0.8557670196515949
  0.9995790451681715  0.9994677331394338  0.7141492116001730
  0.6434118389091330  0.3575263520542354  0.6422538910260146
  0.9277923358962997  0.0718860198528362  0.6431857744810549
  0.8555680923272182  0.1440136600402876  0.2875190780289701
  0.0005359732174074  0.4287440681399445  0.8567926635784981
  0.9269935734161074  0.4993760932316756  0.2138969583161999
  0.2862797295454910  0.8563701437229476  0.4296723008330795
  0.7152925666745443  0.0013598457851950  0.2860994672220611
  0.9991051130611853  0.1429769603124676  0.1432650129703002
  0.8566323109623974  0.8571537169513643  0.8561082555192778
  0.2861287438480477  0.9997865733118104  0.2859185176321829
  0.7148800647979526  0.0002977841097385  0.9996272503137259
  0.7144677722224269  0.7135986305222173  0.7145456829295994
  0.2849641109375565  0.4290768059114057  0.8569803559376096
  0.2851792115401702  0.2861858258067178  0.2851324018499207
  0.8575705501991402  0.2869460021430185  0.5709555779170069
  0.0709466981043719  0.2145615953212312  0.2141446827568490
  0.1418220031970172  0.7140143786882928  0.4292942495364654
  0.4287651943235625  0.2866044887319818  0.0003313206914646
  0.5014182713875072  0.6427220704668828  0.2132018043521721
  0.2141367178735873  0.2153786787938586  0.7857201438114803
  0.1430925496218763  0.5706584685966546  0.9991091302245509
  0.1418186233915456  0.4285606562739457  0.1426195227546596
  0.8565726189604925  0.2863365438001081  0.0003642284843586
  0.9986265904195979  0.2860930027969535  0.2857666742416543
  0.9992585232798104  0.8571045482094731  0.7145407539491461
  0.4287633335850874  0.2860980083196498  0.1439214860238633
  0.5725450120513913  0.5709137569722659  0.7138498596221953
  0.4299049969979271  0.5722464190911574  0.2857313259049558
  0.4296473443043775  0.2867320536670240  0.2858523882697211
  0.9286549182136185  0.3572939791917078  0.9287046480230888
  0.9992848228020330  0.2864184847510563  0.8564009715421819
  0.2139797454896459  0.0710194120341616  0.3574855640291206
  0.1430441618265907  0.1432001119851850  0.5719858487350074
  0.1429414960152914  0.2858926120216352  0.5716343885035718
  0.4994401311494630  0.9288289786337044  0.0711014739451803
  0.1433744704597184  0.7141571868892143  0.7137148105498757
  0.2142802914666604  0.6429360675800497  0.2139240960131909
  0.3568089835595207  0.3577821711652834  0.7855707881866584
  0.5008882004482942  0.3569814050136910  0.6418938356626717
  0.8559275947372483  0.5706772838670674  0.1437759110191260
  0.0705593094151608  0.2146454517662544  0.5007089594556607
  0.0000949412474270  0.4288360141399102  0.7147132560118865
  0.4289249434837342  0.7133256853818902  0.4279019476791071
  0.4285257587941490  0.5720958583498629  0.8573477079320516
  0.0708747126352022  0.9275137146381727  0.4994850980999094
  0.2866285829721119  0.8561616035810893  0.9996709819343705
  0.5716408145528536  0.7129614985398945  0.8583300246375168
  0.1420306184532924  0.2875031213657286  0.0008337909825149
  0.4286346298432082  0.7145312585683006  0.8572331281402067
  0.2851328373813672  0.2864805917897457  0.1436702714515407
  0.2855422498397271  0.7141305593840318  0.7141749560993165
  0.2864248536359508  0.9990202821082197  0.7145791865401667
  0.2860162535696074  0.9992933840574174  0.9999842969253697
  0.3585556469689763  0.9287609652076699  0.5007927112156878
  0.3576899160570601  0.7851086116889747  0.6428934568519076
  0.2863539238252218  0.9996849390346262  0.4289573429214458
  0.5011701069211605  0.6438997879429661  0.3590415495748794
  0.2857235800685682  0.8563203287999234  0.5721292884036574
  0.5717907946189460  0.8563879849438873  0.0004841228440718
  0.1426430131976721  0.8569580168467904  0.8562331879948409
  0.4295343610167362  0.8565033716152439  0.1419354036894538
  0.5007658063610416  0.4996393113166901  0.3583148490738414
  0.2835047056680930  0.5724405635092084  0.0005705931062364
  0.0702080721467063  0.9282436569000480  0.2137825393715135
  0.9271441952542985  0.6429503188611637  0.6421067967669152
  0.6432727870768264  0.6426580949429584  0.6427121755213228
  0.3581765380711481  0.5002421335015756  0.4990564879959434