Cr H  Ni
 1.0000000000000000
    21.0260190080379381    0.0000000000000000    0.0000000000000000
     0.0000000000000000   21.0260190080379381    0.0000000000000000
     0.0000000000000000    0.0000000000000000   21.0260190080379381
 Ti
 1
Direct
  0.5820643962103786  0.9189100164520767  0.0021744815281583
