Cr H  Ni
 1.0000000000000000
    21.0337227870717705    0.0000000000000000    0.0000000000000000
     0.0000000000000000   21.0337227870717705    0.0000000000000000
     0.0000000000000000    0.0000000000000000   21.0337227870717705
 Cr  H   Ni 
 259  35 605
Direct
  0.8319294660758162  0.2527001729899043  0.9192847395897261
  0.9123142592966712  0.7529295272964884  0.0022508190337988
  0.4169157826850744  0.8341412453981540  0.4196094245831308
  0.4999603619099597  0.3366336476851143  0.5008140737749545
  0.4988651676602347  0.6686948203137729  0.1688650936539299
  0.0816381156406302  0.6692405647656651  0.9209743985171308
  0.5829003745652712  0.6689339240075943  0.5855024923146197
  0.5804794103465853  0.2528711384912784  0.8340583865669456
  0.7520238457710134  0.9193633770544840  0.0012551407044015
  0.8307269965592238  0.8358466831714260  0.0025228480342477
  0.6649086195734559  0.5026532731674158  0.5026203241277983
  0.4986574850140218  0.5837007761741408  0.4182541629317614
  0.2483442298941092  0.8350209342561780  0.2525761280088044
  0.1628343004127812  0.4202137460334851  0.9202731330955302
  0.1655220390643329  0.8359713862570518  0.8349654928937870
  0.5815438072306416  0.5862251167469955  0.8341485250586083
  0.0817260180418233  0.9199383205243218  0.6660365535081633
  0.0823082766762200  0.7533483245880493  0.8352551658101747
  0.9133716825482386  0.5024317315458684  0.5841680759999922
  0.5812616174853542  0.3350625120077568  0.2522665978790160
 -0.0023252035913995  0.1688638599592848  0.1664114232033106
  0.6646772692197763  0.5025235611267800  0.8345085063615786
 -0.0071276051084416  0.5838403192945291  0.5855936494135812
  0.3311331016599844  0.0852893666452893  0.9192079886831565
  0.4150097125366399  0.6700105531844315  0.5822903991644527
  0.7481863043694396  0.7528370958721431  0.3338194515765407
  0.6651635146033982  0.9191255180215759  0.2511623211105492
  0.6658221765271365  0.0834402711666283  0.5869664015028007
  0.3332057139558051  0.0008756493545425  0.3378426254200566
 -0.0023387900713998  0.5875651238178445  0.7528098465163430
 -0.0029739274988647  0.3368850012166190  0.5019505809541877
 -0.0021012952991555  0.7528855458844560  0.5841703724256259
  0.6633366186747571  0.7540660140955888  0.2510926919396093
  0.0792983729343696  0.8377869971184583  0.2474313532952601
  0.3298615408247820  0.7512223705221067  0.9192895507909228
  0.8324099605917017  0.8357041828867542  0.8354173162085226
  0.4185886629777130  0.2517546471003429  0.3356219183532560
  0.7483879543473582  0.6698008412164430  0.7544981947419034
  0.7469770139517544  0.6689028013020089  0.0870695855840942
  0.3314180494312108  0.1680481972514847  0.3350722473952477
  0.5817198488791009  0.3356202200207778  0.4202805828152438
  0.8283598658647464  0.5012779152177236  0.3352223682184811
 -0.0014800219722776  0.7524494934242498  0.7508160606511715
 -0.0030446847955572  0.6701235610416084  0.1686287834912359
  0.6660144780114230  0.1689262694668997  0.6726562985915003
  0.5816584465647640  0.5866820633096695  0.6668862996015896
  0.3331836714726656  0.1641838374016896  0.0017057913153995
  0.6653469730871481  0.7530024443675445  0.7512327405784559
  0.4139846964083234  0.9178195234481592  0.6677094382875882
  0.1635979532917826  0.2501061321055754  0.5848483602416685
  0.3333846857125555  0.1693339241932895  0.1682030989694431
  0.4997450242218935  0.0031720083134659  0.3340487788460135
 -0.0021733830058301  0.0858463413282362  0.5858636171129864
 -0.0012312544778307  0.4149241030336097  0.2509233333518042
  0.0796557442851985  0.6674558744240729  0.4159791153472482
  0.9136921049989172  0.2483830071152645  0.6679099593956762
  0.2476914841350436  0.9185370799834662  0.8356352503954873
  0.0811060651192848  0.4184661334863697  0.1683824491401742
  0.5851112974045611  0.7525122710780636  0.3325382372522014
  0.2482416001550854  0.5838950167164740  0.5041944182192257
  0.6644600791263872  0.6696418599764803  0.5025582377500807
  0.8307959814599348  0.5021597471160888  0.8353800028107816
  0.2494758726178103  0.9172440847503518  0.1704494594153240
  0.2476822613625202  0.7557276740523285  0.3344403408327962
  0.6662026729410494  0.6702749508919353  0.3347708326767362
  0.4984466773339192  0.0855513505804359  0.9184533370286866
 -0.0010756477583298  0.2517140543192404  0.9197136938807218
  0.0758613859901135  0.0874521773867869  0.1706954152516038
  0.4157164600909842  0.9179868170821837  0.8359007356370680
  0.1655900133299267  0.0846167218908868  0.4176526753446879
  0.8312429635820417  0.3358034178012562  0.8355596366109961
 -0.0022334378755021  0.0858143563650367  0.4169580945857253
 -0.0009751429233126  0.0844975238873119  0.7526506891541607
  0.8330694697823902  0.4180898945136642  0.9174022353983458
  0.4988162675538444  0.3382488075262394  0.6691567042143458
  0.0794766113456443  0.8361097102412648  0.4228667524147817
  0.0800756821787547  0.1668474526202683  0.7513934337774099
  0.0810790416077104  0.1680516933494201  0.4181887124598604
  0.2474844576760859  0.8354693311226797  0.4176207630504200
  0.1640987317182755  0.0006080677427812  0.0071656232211575
  0.2527761014671487  0.0868164603090990  0.1687266922126205
  0.1638563328509993  0.0029337923407579  0.5005357795156953
  0.4155340193410443  0.1707189264319537  0.5840869780855876
  0.5816097128973065  0.3347938572966053  0.0843979558456178
  0.9130321415947448  0.0033063007216743  0.4183808461483433
  0.0000239912023671  0.3375906763136527  0.0015761568065159
  0.0810522344581331  0.3375226198323424  0.7528107841813750
  0.9110478146298845  0.5842108510987254  0.5020664351140709
 -0.0030911133797705  0.8368381381220533  0.5020606040727857
  0.3334422319830275  0.1682501052092932  0.6680781341899372
 -0.0022339052952385  0.6694068379615208  0.3365539643579233
 -0.0011449491623018  0.1681531872791523  0.3399320891216042
  0.4972920581006813  0.7513718686033535  0.7502177209129887
  0.0821838945033426  0.9215548016136776  0.0066907949888839
  0.0005444800085236  0.8349318089174096  0.8350070552498123
  0.9148188924476296  0.6693637930157667  0.9188377152921049
  0.8308548187497679  0.5846069392864246  0.5839977685645796
  0.7468363667110947  0.6707283531392918  0.5801050875632046
  0.8297354376010732  0.1679849607411140 -0.0006743694767319
  0.4984996669864634  0.8364486076430855  0.1681948547185796
  0.4976138852603041  0.0856548641374361  0.2519256521721591
  0.5776216263815986  0.9185614808798669  0.0009213824561796
  0.4143568600548695  0.0018704586924814  0.0847568864307584
  0.8301424278821995  0.6706942647674244  0.3346859847375426
  0.5823784263357076  0.5028615516189161  0.2537496892397706
  0.7476495150198087  0.4190529444361055  0.0006209405199151
  0.0814201457099777  0.3364266361985006  0.4182017521059694
  0.7463877846703660  0.6700888638339342  0.9185136514031158
  0.4986074511101738  0.6695711723454820  0.0006243283491481
  0.1644406964565132  0.0018398486728515  0.3355035926871119
 -0.0025841790155995  0.9189435973642850  0.2512478712505474
  0.7481782107260281  0.6676943091593154  0.2504023353093903
  0.3314382668988273  0.6697238244217234  0.0011254928696606
 -0.0014060186381641  0.8356129533163353  0.6662043376836815
  0.0824851648116003  0.3345572926712508  0.0846479206959396
  0.0026476934363604  0.3361447162164369  0.1671348471442714
  0.9153473166072255  0.6688161792341364  0.7514479190296487
  0.5827811402300440  0.5034767031090026  0.9175312950688920
  0.1637927171152038  0.0010520841993652  0.6668061721231355
  0.9162146531123890  0.7532692666257099  0.5028229146792348
  0.0813995025822374  0.5868262212554598  0.3343636501751927
  0.6662217289246907  0.2522730988283879  0.7504333998760303
  0.5007134086480772  0.3362894188510443  0.0030914786088336
  0.9127237615554615  0.4203656291070366  0.8370757069197808
 -0.0026313688385564  0.7516446813081745  0.0857410189624534
  0.4146805991589556  0.8366336852693668  0.5861278924678585
  0.7472075906668304  0.7530224151939509  0.1716189371508064
  0.0812863968263449  0.4214699585185396  0.6690278263699382
  0.1648690874060486  0.6683011828657661  0.0031060532021955
  0.7485191993377258  0.0020859272062020  0.0853163158312923
  0.6665724587452990  0.7509126521963698  0.0866750586546797
  0.5804109837129298  0.1686874262168006  0.0839811232180128
  0.0830089946278934  0.8318144551185898  0.9170579500157049
  0.1630562054572258  0.3394224245859787  0.8385366338678477
  0.5799185690658017  0.9182978437323271  0.8359322436701120
  0.8317449045553134  0.3345190905652706  0.5017801018336362
  0.4138688832806497  0.6686578044523290  0.4171483985300787
  0.3318860136486393 -0.0009239058821287  0.5017925025944759
  0.5822010243941415  0.9186537650149695  0.6699452179361924
  0.0826411907765024  0.9168245588107926  0.8325784423650630
  0.2488513788327387  0.1683250896037609  0.2528324183522020
  0.6638653136415813  0.5842023652209631  0.0854755666798564
  0.1653069853553244 -0.0005897501145409  0.8316589984005319
  0.5834745053794846  0.7519537374183674  0.5037187300860647
  0.4976010771755282  0.6687989856195319  0.6677320168366752
 -0.0017462799485165  0.0838790892766047  0.9178505847186328
  0.8308029044262828  0.3350302941272523  0.3363534780986153
  0.1648118907928769  0.1662802043054615  0.0019208804474496
  0.7480080615658885  0.2520013023037486  0.6701935940894920
  0.5010895000235385  0.0008216786748051  0.5027632153420026
  0.6663043465428982  0.7517404931272986  0.9181305106450744
  0.1634306970071943  0.7512114857157551  0.5841747242818459
  0.0822964976680067  0.5874851316421043  0.1697104098744501
  0.8304904223043669  0.1690604893628464  0.1670562781860093
  0.9148064746566424  0.0024454925996079  0.0850924483350719
  0.4154854785497382  0.2533363200912518  0.8352935300041352
  0.3307272132180211  0.4176302213744488  0.4188326843779385
  0.9135467953839747  0.5032042708362682  0.0862347579331644
  0.2505368059582863  0.1638580227367122  0.7532250853151756
  0.4995400888573860  0.3354026044390770  0.1692145280973090
  0.2483118714689478  0.9184773794612862  0.0040442507347318
  0.3301112950987600  0.0863165147476971  0.7518935444113989
  0.4139037507140557  0.5024804025219718  0.0869555697085285
  0.3304907107713609  0.3386648901812768  0.5002548300513603
  0.2480665284027749  0.9201165140180226  0.6661364067197254
  0.2538550738572700  0.3398038805758851  0.7520121834806387
  0.1660005559261843  0.6693370627006657  0.6665023014751784
  0.0829308338856062  0.5026427325354421  0.4165995914920508
  0.2481119213387896  0.5841203177351560  0.8354538004002847
  0.8317602740808239  0.0846653552457298  0.5863556981159891
  0.7481861936438037  0.2478581733853814  0.1683627752722591
  0.8322111134586484  0.9182280414957833  0.2508660870250141
  0.0816129038218151  0.5874167049515970  0.0024257039568717
 -0.0021414556861371  0.0841602353368642  0.2509076916362963
  0.7478898793973373  0.0016061715009187  0.9178472330960674
  0.1646253853192177  0.5030893435984917  0.8360675148906589
  0.5823955999139170  0.1669704383790860  0.4191472070391452
  0.4975375869282864  0.9186902865877871  0.9185945630532338
  0.9145968807508370  0.0843396390982959  0.8371038239422369
  0.4156426287024831  0.8350039316837724  0.0858697914655638
  0.8316198196584907  0.8362312704837903  0.6680372233207921
  0.7494932369110345  0.9203190979797766  0.5022639688241910
  0.4157925188946229  0.7534873288181199  0.5018449415735025
  0.2469395880681314  0.7512438078778954  0.8355290663539616
  0.5003099342730292  0.0856813673346067  0.5858093193544222
  0.1652788635292924  0.5874099779902111  0.2504732011801687
 -0.0018340147911744  0.4209873215451986  0.9199175049946966
  0.0809611637230503  0.7518527856430257  0.6664689163620424
  0.2473396591393982  0.7524698860858566  0.5002775598710317
  0.0801008533644616  0.9175810384640167  0.1713231350951958
  0.4137972678169097  0.8350796695884275  0.7520241273241531
  0.3310322416182032  0.9172985400049487  0.5834058453129459
  0.3316524142537936  0.4189653411033055  0.2518604804165247
  0.5825720453708179  0.9210922647041423  0.5041807616093473
  0.1635937182630309  0.1675853800029019  0.3368944630356300
  0.4989502386336123  0.1675661535063240  0.0010134084231760
  0.2491559791699615  0.2506117893738886  0.1679663046318033
  0.9135452008664705  0.3349819298925452  0.4176849696431502
  0.4143563461981074  0.1683515610779817  0.0855122711618014
  0.8310473902305512  0.3342381460395759  0.1678292495354409
  0.0801213365153286  0.3367391917213409  0.9202787084566697
  0.0799538890859544  0.1670470852218598  0.5842219483395756
  0.4151981110568956  0.5850181145091518  0.8355520313037503
  0.6641350674228832  0.4194106316540961  0.7510131671898265
  0.4975110946952429  0.4196346254595252  0.7509203550229538
  0.4962603281330689  0.7511062709217705  0.9192379777422653
  0.4155271558721058  0.4183164045992608  0.1682524747621285
  0.3329835190516423  0.1701313442462727  0.5031805681544305
  0.8300758454792769  0.6694650152419784  0.1692763698376245
  0.9133543422223153  0.4240417349413092  0.6681918948395741
  0.4149054543745237  0.5020116297894475  0.5846860367386647
  0.3320926442893628  0.6683746609678110  0.1698912750850126
  0.5805800479930100  0.8347003899249298  0.0854704650336247
  0.8294977155953481  0.5861721066915293  0.0887001232242259
  0.4185040179875847  0.5038148842894723  0.9176752843506827
  0.6645962149466729  0.3386785469546205  0.5018828825371077
  0.1638785838369100  0.6698152512988373  0.1693150279315537
  0.3322022152172127  0.4199578713163499  0.7510873623012578
  0.6631286112485838  0.5843751174391197  0.9176899903904127
  0.2463940775930208  0.7508540835489587  0.6669035991559653
  0.7483790630769860  0.7529693609324069  0.5027807826399375
  0.3316527653816597  0.5865637807406658  0.2521225802418442
  0.4151014292922880  0.5023713026146914  0.7506858139107841
  0.2502882957419311  0.4197251314589351  0.5001226341833802
  0.7466207191973089  0.2515040297057508  0.0000858933622257
  0.5814009907162307  0.0018097713550915  0.0846769383208176
  0.7470968581808974  0.1706602891738954  0.9179167744705317
  0.2483550033319466  0.5869737063187777  0.3300398951591081
  0.3314339219242853  0.6695055502271907  0.6677949812529936
  0.9167848041830505  0.0028445618613936  0.9173432516007276
  0.6634271964548243  0.8344616501646126  0.8360348592360396
  0.6655534178123970  0.0853564913009315  0.7530836376585744
  0.4157428090415303  0.3357745621393078  0.2502726970817366
  0.4973924019870223  0.0857772377153881  0.7508135817073037
  0.9136896161013770  0.2500345244303318  0.1681246261309035
  0.8313420916521771  0.0866232008019047  0.4191693520793627
  0.6640276074247692  0.0863032323786397  0.2504579850993044
  0.2490787531544307  0.2526497506124697  0.6645857237984920
  0.1645219164550202  0.5024811602914521  0.6684750769652923
  0.5824500896474178  0.5037779077418881  0.0852862374735954
 -0.0017737227870350  0.2528282782776171  0.5852433957235886
  0.6663961282751473  0.0867355850591024  0.4182677620752730
  0.9131947305082033  0.9182032410260459  0.0022530665266559
  0.9145870975188256  0.3355943418159161  0.0818215421694913
  0.4981029163918439  0.1675764381238247  0.5043612615816676
  0.7477740968134964  0.0054920299163650  0.7519925339984747
  0.1626632268238041  0.3366990581413021  0.0026241063169714
  0.7482535490846430  0.1664300079779739  0.4185169243147344
  0.4155519082403416  0.2516224567127949  0.1679139120566301
  0.6625737796160449  0.5021707093890253  0.3333717944278329
  0.2436313339336499  0.5036387611736919  0.9191699337363355
  0.3318004496107005  0.5010373783603116  0.1692508501326357
  0.3323150987076924  0.3401249950148291  0.0009166033948860
  0.3318919765122769  0.3383251779525935  0.8350154076715615
  0.7475922577027559  0.4214355169463905  0.1689391772405648
  0.2494279025134679  0.4188643977531575  0.1679664460109540
  0.4169360762781415  0.5858474500238761  0.3368807877879467
  0.4175403548296190  0.8353304361930523  0.2507829074212928
  0.4976151177501508  0.1682141529985422  0.6677577840548341
  0.1656338328101862  0.0032956942974051  0.9195479931265809
  0.4125954876672020  0.0828877291191362  0.5856074515977031
  0.2482598745788645  0.5854892283086812  0.4171248392948352
  0.8316538654210253  0.5855586651415388 -0.0013213576217932
  0.6659214313340571  0.2491127516686515  0.5021951745137394
  0.0815980287313062  0.8320421246305900  0.0066615091862683
  0.2492663202096370  0.2519565128856004  0.7515557466216100
  0.3319275171723280  0.2544605620066016  0.3359496900541672
  0.9168970783856875  0.3367185525859103  0.1687590190769762
  0.3312117525742730  0.5030210169594099  0.9209325564785675
  0.9181782467862607  0.5022270776356059  0.3355431919065565
  0.7484776534312358  0.6691998136990912  0.6674791356930950
  0.1651257384604557  0.3404132063311709  0.5837877247360442
  0.1669019414217120  0.3366071068091829  0.7507722621701036
  0.0806802205036796  0.9184151118503506  0.9193376863568556
  0.1641357253555395  0.2476192375132838  0.8354836094388578
  0.7483470462964107  0.9157212864257102  0.7517550528599658
  0.3323533941320677  0.0012129816331844  0.2479880159710678
  0.0797345377379225  0.8367748703604798  0.3348958642800665
  0.2486926775165184  0.2511567570568793  0.9189255729461587
  0.7443642563959857  0.3345448085917595  0.1676395517218169
  0.6660796501532393  0.1723862518977357  0.5843004553548728
  0.2453614650835400  0.1656856628151796  0.6656383068982734
 -0.0076815134112852  0.3365013607061917  0.7528885910880362
  0.5017443691813084  0.6717814292571690  0.4169956107229096
  0.7485188985323921  0.0023056543078026  0.3346173005163992
  0.3315773506481965  0.2519247068336616  0.0013614218826421
  0.6648458124961212  0.9177379465574556  0.0011033238178973
  0.5832744599856978  0.9191789924033457  0.4140559802834085
  0.0843544881108266  0.5845540828878615  0.5833161284993832
  0.1642113153126997  0.0854012435867197  0.1696607379250192
  0.9973150740001264  0.1711416340570494  0.2526498132717220
  1.0003687327964026  0.5838073445599959  0.4978229870075433
 -0.0864690956139973  0.3359456808297409  0.6678427138760473
  0.9977270400443227  0.5053448010138188  0.2512753788487427
  0.0803353436923595  0.2516191446967020  0.8357914117802631
  0.1654384291353635  0.5023978784595556  0.5003034663535547
  0.0811481567380580  0.4192042362276249  0.5004741543677124
  0.0814860685846243  0.4180942880529352  0.3352428302700449
  0.0796170545192735  0.3362329466419666  0.5850019679432152
  0.0810090168208783  0.5017046851315018  0.5851765016429271
  0.1650893409348184  0.5865386420801370  0.0869533882298073
 -0.0027884153397368  0.3357566470329253  0.8377844505922359
  0.0796525094688691  0.4210275586843028  0.8353743213843355
 -0.0023848001649113  0.5871100990784842  0.0864774778547498
  0.9147525114715652  0.5866163486210662  0.0027453285159086
  0.4145537364085278  0.6689178670302870  0.9183752419356326
 -0.0028567289394967  0.5031586407986268  0.6691113141080868
 -0.0029374784783468  0.4213881262772132  0.7520672385712958
  0.1632927722357257  0.2523850625240298  0.9204220503505435
 -0.0016986779402545  0.2543257017177121  0.2520678985587546
  0.0801193179944852  0.7515795995765053  0.5013902894640601
  0.0811585799886332  0.0845187586218812  0.8343987274324440
  0.1647694441840917  0.6692400390723532  0.8355965174358131
 -0.0033682586687478  0.0036183787594399  0.5015361898448830
  0.9134084787519745  0.6696395742593517  0.2524152552566417
 -0.0027511199290734  0.1682698715540284  0.5018944554376364
  0.9144211504931932  0.4198331156755046  0.1682721192742908
  0.1650536227767975  0.9190596611693753  0.5833438911605576
  0.0802487872265013  0.7516547542580650  0.1689307844061817
  0.1635119579934462  0.1682280451694003  0.5009694418694463
 -0.0036792793286210  0.8367998444659047  0.3355369598542282
 -0.0017870866061265  0.0022952805525168  0.6681795846508460
 -0.0032625524673778  0.7518007395225859  0.9197911907109506
  0.0817122272623615  0.0008856802661434  0.7505198379642513
 -0.0029666180949296  0.5042723040123321  0.8356286005243218
  0.0811330525772559  0.0849967312334732  0.6680051882038245
  0.9135045941661015  0.6692431119399477  0.0859586608131931
  0.9149639994638691  0.1683003573128744  0.9185019751942993
 -0.0026634466415918  0.9189693363100936  0.0856355690024127
  0.8319826562252637  0.0845325687962455  0.7532717425590488
  0.5821437731604712  0.0853662077377876  0.3348903327754980
  0.5805010360338618  0.1685704641771156  0.5865218266102930
  0.5830283750338271  0.0039563982386464  0.4183544060584233
  0.4974313265279707  0.0024610597977329  0.0016832316421135
  0.3322097091157348  0.8356807944542001  0.0020322306938227
  0.3323163499026718  0.0006452193881169  0.0019635414437632
  0.3335282737322159  0.8355790728623399  0.1694806134792287
  0.3322581989888663  0.9181922616445474  0.0863446739493448
  0.4161264485981045  0.7529673608402091  0.3354720133867327
  0.4983215043356120  0.1685646135093210  0.1675131416672410
 -0.0020626466194361  0.5886194281121633  0.2521893377833426
  0.3326472554924512  0.5029723788367336  0.6674782922049494
  0.5827976078502745  0.0018692199476704  0.5870952956848722
  0.5813859510986079  0.2526479762303464  0.6687218373326678
  0.7485695323413027  0.0023512274840043  0.5865832744089988
  0.4159453523502406  0.0855518349494959  0.3371954301057227
  0.4987556578725503  0.0013399589391447  0.6694217224667443
  0.5810451783919592  0.0022219071903661  0.7520405549800975
  0.1662072532149924  0.1693865593850197  0.1690982627171526
  0.0820469176286176  0.1682624503397560  0.0848735609040695
 -0.0026447105017421  0.0017108240176064  0.1688054867097030
  0.0808499317292349  0.0026873958352765  0.0878394227587469
 -0.0023541276024893  0.0855567286683861  0.0851039274553541
 -0.0020636908180013  0.1680629974598663  0.6686871778761310
  0.0804726738415837  0.0031930651484234  0.4179614627246125
  0.1655325970781611  0.0852249889423710  0.2538649514661838
  0.4148190456440715  0.0856333506072721  0.8348770253669514
  0.5800268405505158  0.0019351440105975  0.9173650120846850
  0.5816839586600050  0.1671692083738471  0.2516278215874703
  0.0800639819231655  0.6707847858274714  0.2526052775338622
  0.4992359936273459  0.2508455644304182  0.2521003898193734
  0.4995125666282321  0.1680514457530458  0.3354524270146907
  0.4991331249232376  0.2518241393251140  0.4195060934146437
  0.5816346771677197  0.9200326905683160  0.3317325590881774
  0.6644572252654122  0.2517615413795708  0.4183858623959611
  0.5823628282695603  0.0843533294664797  0.5029654783973349
  0.1659467554011053  0.4217724334990662  0.7523590363536813
  0.8313037176824879  0.9191232122576020  0.4195979205554497
  0.4149863773032890  0.1690341026189669  0.2525438790235310
  0.0823936224201664  0.5851524060650222  0.4982235010246480
  0.0813714075512026  0.5868435285869436  0.8360677733125493
  0.9131924066641582  0.5874590539834472  0.3348818299174400
 -0.0004240165615883  0.0008309818207952  0.8340790822932439
  0.0807258605331980  0.0026941362198627  0.9189695236039160
  0.9149577092621562  0.2513193343927465  0.0015406226288731
 -0.0026197193396313  0.5040766795580793  0.0030610382426681
  0.1652898279007690  0.0001819776858437  0.1695749110044797
  0.0815597393591376  0.0853119566686509  0.0028836016180128
  0.7482403025235207  0.3363657141013709  0.5858574471256681
  0.1637784243540877  0.1654532495896347  0.8338771685723008
  0.2486881279950180  0.1678898602248447  0.5818224328873850
 -0.0020530050666034  0.1678504296773166  0.8352455194435646
  0.0819222826830455  0.2506542172149019  0.0021670599776184
  0.0813001445678061  0.1674054719766863  0.9188402580985168
 -0.0019661792240526  0.2506772371299264  0.7516333999295515
  0.6649682566050300  0.4188507074329459  0.4184824115457790
 -0.0022201583581357  0.4201232725001116  0.0850751665755029
  0.9144079690280434  0.0862254915540371  0.1677283467827489
  0.0817486526021627  0.5039211004391131  0.0869949141802932
  0.8318935259285389  0.0026091296003807  0.0010168896093286
  0.7478619605691198  0.1688163735063914  0.2517058811649141
  0.9148658824328301  0.0844151130837216  0.0006380137561730
  0.8311398412595947  0.0867389355742893  0.2502269781250839
  0.7486736903914548  0.8363719731908296  0.5850509783244748
  0.5813298670274171  0.7516584208111998  0.0022635479481440
 -0.0020549610810855  0.0016312587412839  0.0034236359039372
  0.4979634736747314  0.7516089028814031  0.0857093789475287
  0.1647551243544079  0.0852930636446332  0.9192394227225343
  0.2483947500885716  0.0843632746349627  0.0025508394762495
  0.2479352188374862  0.0836736421136432  0.8357311454597717
  0.1655195296029427  0.2506784872424835  0.0851690822652512
  0.2495141502252153  0.1679803218777331  0.0845581751267040
  0.2466875487340374  0.2518756340842461  0.0021072643624633
  0.1654518713276527  0.0855441198501731  0.0856260360202687
  0.1657310562938719  0.2516281565049701  0.2518690772238733
 -0.0018669410535488  0.6698753743264457  0.8357997834058288
  0.4977883301436721  0.9196436164350984  0.2516217631609658
  0.5813255422829627  0.2516000208220353  0.0012438273421080
  0.6648103979718442  0.0852143689709318  0.9183339271193578
  0.0008402710402173  0.5018985812748559  0.3359475678382902
 -0.0038170340949785  0.5847579065351070  0.4162927880174357
 -0.0020357989789247  0.4183028643960455  0.4178096491307145
  0.6639902277827798  0.6687353922509461  0.0020101140234634
  0.2475475633765625  0.6687129476765271  0.7516906326068901
  0.0812101001256435  0.5034297557119430  0.7516172102269997
  0.9142943941709392  0.5866266375699535  0.8352545612756005
  0.2483200489746690  0.5868545850923067  0.0033569257797342
  0.0801816972772377  0.2518749086789859  0.5013224646898271
  0.9139469482729443  0.5863004292207924  0.1693743883659367
 -0.0019228169388761  0.2535079650551834  0.4191862865240433
  0.1653231617182053  0.5024278297036447  0.1692085972593488
  0.3322712593742196  0.3366847937703286  0.6673851838803188
  0.0797306999729603  0.7518809679958541  0.3358986095497452
 -0.0035386794572614  0.6697944715765514  0.5009169080662966
  0.2478705652508253  0.4196983060839133  0.0024890298706080
  0.2479970005442454  0.3383087344289671  0.9191439032445516
  0.3315455817695623  0.5867324347516617  0.9192462418682671
  0.1639080452479673  0.5040430788234593  0.0028564166390568
  0.1650645127774274  0.5019631847925172  0.3338428856338412
  0.1651571558284665  0.6688943669615183  0.5002923973855166
  0.1655766828753746  0.8355856211703011  0.1695209866000801
  0.2476796334914756  0.6679662420269439  0.9188175637443138
  0.0831392640161862  0.3345370479078524  0.2514673608716221
  0.0826891154640185  0.1696829445602700  0.2539633798817114
  0.0811092163668396  0.2509236685405780  0.1677551912007953
  0.0807725232027738  0.0833925871581310  0.3342485612152312
  0.9143711685191770  0.2517558202891999  0.3364158972913763
  0.0800864459773136  0.0850382131174484  0.5007885029716324
  0.1641962813649349  0.3365947427451182  0.6680343416729760
  0.0817781597438142  0.2525633554584503  0.3367825630261668
  0.4149258383773183  0.5024537515977973  0.2522969077055625
  0.0812645686410403  0.5857494256938277  0.6692233695588689
  0.2447527301451024  0.2510407742132618  0.3365637351972171
  0.6641257396604613  0.8372588430321429  0.1678560688885665
  0.5806469756697503  0.1687547337631140  0.9172803520790628
  0.6642482060675801  0.3360162888907584  0.8341916873251575
  0.5809867878549588  0.3360657432136670  0.9176970130570468
  0.4991453589928084  0.4195711420186485  0.0849692954037874
  0.4991020558946597  0.5031361218595140  0.0020522669157082
  0.2479765502378850  0.0018582527792830  0.5831919490127784
  0.4154984950644744  0.9184161079932514  0.0019566373029065
  0.4141523768145089  0.8343366713277821  0.9180050101001881
  0.4147493008855815  0.0024832286296492  0.9177291799253589
  0.4980781569874861  0.0852497132801811  0.0849916987595205
  0.3312743918349778  0.9180126935952726  0.9185669319871650
  0.5811771407486618  0.0844785753907339  0.0018764315279659
  0.4982329259704145  0.0023886381756145  0.1679073804347924
  0.2493237443237205  0.7512684009531152  0.0033524344280807
  0.5805466241117067  0.2519141107952013  0.5027013789527810
  0.5820235807832900  0.0853844446717437  0.6698972947311996
  0.4151601278783010  0.6686447995646067  0.0857196360465449
  0.5815614125082205  0.5864199651963274  0.0019224179497177
  0.3314169585227291  0.2525281286624326  0.2507420729587254
  0.5002639306589114  0.7542042414169274  0.4189887194620492
  0.2480255481905638  0.9189875407429104  0.5000323872102389
  0.0838051612524397  0.8359180267274010  0.7500978293710280
  0.2477136108141878  0.8350106146685552  0.7507914694466175
  0.3306335020561492  0.9178086504569181  0.7509767580498310
  0.8314982604604988  0.0036186808734523  0.5026269523864999
  0.7471757376763480  0.2525553570068342  0.8354301267005040
  0.9139822080923972  0.1687051294462376  0.0842983205651387
  0.9133330812832496  0.1692034706891203  0.2518788742843024
  0.8306877239519761  0.2515814232778109  0.2519289633501454
 -0.0033765263889650  0.0025404085706145  0.3346625859599517
  0.8315520901667688  0.1675009048009637  0.5029855864211898
  0.8307708467974976  0.2521942856487210  0.4183356365960382
  0.9136439815741769  0.0856479262810397  0.3349480422849100
  0.8302845998560142  0.2510503575086221  0.0834062601229379
  0.9149874659023548  0.1682061881003354  0.5856733648716761
  0.9139084794889937  0.1678876465913844  0.4186091402460786
  0.8305493385725422  0.1682008739328735  0.3356457313864156
  0.7479149547772737  0.5852413604359005  0.5008569318836344
  0.1663692562367868  0.9180447729894912  0.9197752565956651
  0.3317934180071544  0.0843350873534344  0.0842978586595360
  0.0810215549600952  0.0017458165765570  0.2514777924867687
  0.1645902550703304  0.8364787033979707  0.3350791413732401
  0.3320472421896316  0.0854374111278297  0.4191184881833163