Cr H  Ni
 1.0000000000000000
    21.0295113391974304    0.0000000000000000    0.0000000000000000
     0.0000000000000000   21.0295113391974304    0.0000000000000000
     0.0000000000000000    0.0000000000000000   21.0295113391974304
 Cr  H   Ni 
 259  35 605
Direct
  0.7462919076724883  0.2536598887007071  0.8337444363209980
  0.4972504414966289  0.6685816841299157  0.1707160398255297
  0.8316605159899737  0.5865629147270470  0.0825809687662353
  0.3305882764224782  0.5007459135397431  0.1694078820254449
  0.8302294880158233  0.3348423555377720  0.6683418814387470
  0.0800559147637740  0.0025823617979953  0.2535540303259451
  0.5812553329140906  0.5856680341643723  0.5018781580480843
  0.0814450883063125  0.0030727219697438  0.4200788445966392
  0.2482877911238775  0.6690221837895440  0.0848989918021360
  0.3328150434517065  0.6690481332790427  0.6673314611249163
  0.6638212106211427  0.4191908292309641  0.5853408250417967
  0.2482607986804468  0.0866049536831763  0.6686022157216266
  0.8307864243575209  0.0035748256936843  0.1699646433797495
  0.1666601259626450  0.9205654478426955  0.5841360124977989
  0.3290746327722073  0.6702386954520598  0.8359855005452537
  0.4996683515690127  0.2530608913867810  0.7522377617546891
  0.0814351691316346  0.0846081628543072  0.6689693975116054
  0.0010364962510851  0.0843951064736095  0.7510816713322511
  0.4140032199690611  0.4168572825050260  0.0047841224136769
  0.9139828056179476  0.0854526282759559  0.8374938770931937
  0.7473701508705681  0.4187523438776585  0.3360213002210330
  0.9149073083165459  0.5839447552752147  0.5014819687366586
  0.3321905791566968  0.4170728222988744  0.5869253019791474
  0.0835834283031312  0.1690033197149561  0.9171392762341305
 -0.0027113999318934  0.3353772118283538  0.0035917511242540
  0.1659954750874740  0.3350740235373066  0.6680099985377095
  0.5811946065146351  0.4186151803029394  0.3367891768215830
  0.9146416491193983  0.4190778971410267  0.1663177230086228
  0.0802985432933900  0.1715107687784270  0.2536412344550244
  0.4997824973119429  0.4203485356060590  0.4168279692529535
  0.7485850006245328  0.6691304519148974  0.5852351201712884
  0.2474465897405604  0.0851938373859626  0.1690078844364998
 -0.0013653331615429  0.2510264588673100  0.4214313356510385
  0.3305352912062332  0.4196603442846523  0.2496599800712160
  0.9159571988298215  0.5015694518861998  0.2482362634146695
  0.4135153725323102  0.3358246873235854  0.0848123462651741
  0.6670926959402951  0.3345877405004305  0.1674772666087669
  0.3347501736846388  0.3355950027107703  0.8356676779346931
  0.7491549949606451  0.4198162651237596  0.0037424245429396
  0.4159884471225669  0.2502000516338120  0.0029099191126743
  0.2466837476611524  0.4183252039296350  0.0027281209259075
  0.1645084918821178  0.1674652800532276  0.8367351871860446
  0.4160165814136597  0.1682808846030215  0.7539603286984190
  0.0817929175476296  0.0004094804870561  0.9165434774279604
  0.3292037354365364  0.4199569360303143  0.4182664865256266
  0.4163391166747517  0.6701463773320470  0.4181702456179668
  0.4974225262273468  0.6681282850002368  0.0028722807102202
  0.4152490118261614  0.7519015211685646  0.3359157243459335
  0.7496325621907062  0.7528862627679646  0.1694764222452071
  0.0817213402730070  0.4191419375707061  0.1670358617846406
  0.0805229053338332  0.0027280429011464  0.0849930818784350
  0.4143162751188200  0.1691083913085940  0.0842961906816363
  0.9145645579783351  0.2509386979923763  0.5024859196353374
  0.7480591656354121  0.8396807713869482  0.7518282706276819
 -0.0013952704829090  0.2530072332026381  0.2522852271694093
  0.6632957519819935  0.7522605669145949  0.9180583954919087
  0.7479649554407855  0.0019177616882673  0.7519381847044736
  0.4980795966842902  0.5012099787303258  0.6690705542636971
  0.7499772670017666  0.5856887309209664  0.6686965941636811
  0.3267330157471425  0.9181641725728826  0.0849534168512469
  0.8318351280308801  0.8381050905922509  0.3373760428991145
  0.1676481874652090  0.5845218909287819  0.5856828081969940
 -0.0022813571295984  0.2504213849362793  0.5827788274670580
  0.5822027375044422  0.3354094683746469  0.0859451127255790
  0.8304628929801907  0.1678944568971697  0.6690944006808069
  0.4144054014059733  0.5869902505711988  0.0042277602551660
  0.4147874806740537  0.1662642145452293  0.2515546494043651
 -0.0021313867844129  0.5848659331814051  0.2523482660030956
  0.5820835076901297  0.5033176863002443  0.0859430871152691
  0.5821606492977065  0.8360035611850769  0.2532734849601844
  0.4985751189216541  0.8352539202822172  0.5017083943365226
  0.8307023862096190  0.5862171972669957  0.9178258136965550
  0.9177718918848345  0.8356070027868900  0.0851850909962871
  0.4985266776977078  0.5870352444022505  0.2497319210666101
  0.6650522468840842  0.5873067933908809  0.2539533554286217
  0.7459559918725053  0.8353126956308965  0.0843850788870004
  0.5845327227871600  0.3351082485129875  0.4196983595261687
  0.9155815181030310  0.0023523649022788  0.5847541833240273
  0.8316829020708985  0.6689481607573001  0.1689440020024759
  0.0865636992894401  0.5026549542683888  0.9166303748884388
  0.6644702134676513  0.6687513192675235  0.3370570017485544
  0.7479185535555394  0.5035794873481261  0.0823782731384647
 -0.0051174346217119  0.2512817972791692  0.7475312252321713
  0.0814938527538780  0.6712779873475347  0.9179484565908628
  0.7486632520146165  0.7517704994419153  0.6652390433164245
  0.4969122706225332  0.7519412260909528  0.4191206629043583
  0.9151279420323710  0.6688593333148811  0.4182528278124995
  0.3314689563679385  0.8376470139087713  0.6673638108578380
 -0.0016711560953873  0.5840930767032573  0.5832235844307213
 -0.0017705872464063  0.4179850328049393  0.7515337755410558
  0.0827591735139492  0.7526778439526309  0.5022589606592288
  0.8312058992890068  0.6688644024840339  0.0004523704621750
  0.1663062085150613  0.5015708074170917  0.6681264579396693
  0.8319036926587620  0.6687254516602830  0.8337116265871195
  0.1646972343953882  0.4987510604971729  0.1677928551628147
  0.0001877392529471  0.7517640213226562  0.9190054462442542
  0.6633315618290517  0.6691629215638679 -0.0021422498281011
  0.9141117342141959  0.7525055543555230  0.1692662559456849
  0.0830258461439568  0.8341593658980537  0.9182461760526786
  0.2471191614699790  0.6684931930377759  0.2515521512308705
  0.3322617748888904  0.0040493334828479  0.6685338683106280
  0.4976809173357793  0.7525492114290613  0.5855611298153508
  0.0808910642051204  0.7517428318091698  0.1690404677529629
  0.5786310531609541  0.5023736040091866  0.7527067060051021
  0.5810782380566836  0.3346859103598820  0.9198758526908393
  0.2482530780409281  0.5018877039289236  0.7517231645655932
 -0.0015520819313266  0.5816219645333451  0.7510621034391417
  0.4139086054654791  0.3356785725771458  0.5857475390437450
  0.2468940287183450  0.6675964207698530  0.4201933477542826
  0.5806332564414298  0.3335703879754089  0.7523734669699371
  0.2491479504390930  0.7533948040994609  0.8350230029063196
  0.8321529838243960  0.6680469104082548  0.3364854862159241
  0.3315972811205285  0.0833929750437278  0.9198692236989170
  0.7475210953694160  0.3342062630172095  0.2507726390222526
  0.5000820085013553  0.8365298650955197  0.0036654687130588
  0.4981881077013648  0.6695515291039518  0.6672485960860182
 -0.0019627091746832  0.9195310682687697  0.0859101185243623
  0.6633812850103986  0.1680920198140248  0.5030043754012163
  0.4121154476891500  0.7566118869976579  0.8352839622645499
 -0.0003165320393507  0.0855166830993662  0.4207061845753415
 -0.0039640207637461  0.7578533288651995  0.7520641379731526
  0.6655389409204044  0.7515658796249621  0.5852858671877676
  0.8315935911713959  0.8367362099269703 -0.0014959313249397
  0.3308276408275072  0.7517443402590501  0.0856506613187863
 -0.0012121795473272  0.5867450236377110  0.0841053679254250
  0.0006941218857844  0.8387424996188609  0.3360493707805035
  0.1633549981094273  0.8362624241497005  0.0035223657257391
  0.8311472538576824  0.6687830581584963  0.6686246621672363
  0.4972292731353838  0.9182412320598040  0.5842508445198548
  0.9158525888498892  0.9170860850688983  0.0029349363347940
  0.1656544420036153  0.6700379217978776  0.8348484349755023
  0.7488743993100050  0.6656115071083378  0.7507868917755655
  0.8303538162141897  0.5023631949756593  0.6654659681874898
 -0.0005783293777000  0.8349717418565116  0.5041185193351919
  0.8312308583111829  0.5006844724980952  0.5011040462126451
 -0.0021980674357939  0.7534632175593623  0.5810976622115410
  0.4967303528539938  0.4186469611220776  0.2521689892923674
  0.5816972599343061  0.8354424597007578  0.0847615405207815
 -0.0013390233867571  0.6634224275051417  0.3364442367928114
  0.1665457042955702  0.7519829174626359  0.5850766933411996
  0.0810374276908705  0.5846103953101439  0.5029242897721364
 -0.0025464457072980  0.9184448762926263  0.7518394571122724
  0.5825718706133178  0.5037629500504677  0.9173234976099309
  0.9160320167585213  0.8349638632460014  0.7512688021447987
  0.4982777533979130  0.9199607386697453  0.2520057477923380
  0.4177817028531395  0.0008227155366484  0.2539040312517602
  0.4160021266711598  0.1694049683069894  0.4171772429671777
  0.6650715134465364  0.2528629646579551  0.7519689030018235
  0.1644733480311104  0.1692436876900283 -0.0004423726034470
  0.7467763852733679  0.5025919042532746  0.7487628227154165
 -0.0001496724667402  0.6686809005906201  0.0010160550014362
  0.3266729395071765  0.0027346060061369  0.1673109997809420
  0.5805522815884959  0.5859030147985009  0.8350896491678900
  0.4968565752813391  0.9191977737004277  0.4197508343886024
  0.2480887483914224  0.0854483672667928  0.3374157600987212
  0.7488687200947288  0.0847601316696948  0.3360354302397413
  0.9118857115645930  0.3357632484040017  0.9191283614924923
  0.6650941663768928  0.7505424542316326  0.4186568838185454
  0.2490616585195143  0.0852867654251162  0.5010123271520325
  0.4152006475694874  0.0007820749312766  0.4178880860425846
  0.9124138246055099  0.5026200080296096  0.9171757888303514
  0.4142807514814705  0.1704783316089525  0.5851096524130599
  0.4993942399268225  0.0022656320020885  0.0010147551292568
  0.2488122417817498  0.9178578683543328  0.8353173451058261
  0.5815749918844951  0.3358932364665801  0.5839624256193593
  0.7476928821000426  0.4154301899245180  0.8350482702852418
  0.7480827991154934  0.0850524407795896  0.5022488302229597
  0.3316137313135843  0.8345567180876752  0.8351444591621343
 -0.0012830816720025  0.4172029142254883  0.5848460312704186
  0.3310916235185918  0.2522173211100321  0.9196704062756780
  0.5016705320147237  0.0017493580630320  0.1686381461649687
  0.5807697371154072  0.0025020284616783  0.5852149087124544
  0.6647531628596655  0.2516519478087483  0.4182309909085616
  0.2473234684837452  0.2510186411987366  0.1687406808121424
  0.4965920239887266  0.0861098042198813  0.7517726623646960
  0.8312527290551616  0.1673839309318844  0.3344778565766687
  0.1651600925283899  0.4181574080115072  0.0835923694716613
  0.3301275676850626  0.0036753460495390  0.0017592965483920
  0.1661418567943722  0.1675362337148765  0.5023573140703698
  0.1619537825580755  0.9202920850237830  0.0832016841721208
  0.2466061212082598  0.2533089282598497  0.3346704478053030
  0.4999763259000095  0.3357476353305978  0.3326654858928373
  0.5007283075726208  0.2510278865658191  0.2504122793709730
  0.1659789788913764  0.3352468319062999  0.5019490735793930
  0.6663377037836794  0.2526855722664195  0.2505849735453287
 -0.0019812528430777  0.1695093287491897  0.5032539121190783
  0.2481870927513200  0.4996005767180169  0.4196048579231277
  0.8345668922237519  0.5031584058761444  0.8397233177826129
  0.2490757489899116  0.1679775296063463  0.7534612839981911
  0.1687369703996749  0.1666271291028814  0.6700530092105864
  0.4133502867732072  0.5838904382987494  0.8350505583538694
  0.3327616058240986  0.2512899896552588  0.5874268759698061
  0.8298279030020688  0.4188414973810030  0.0837238461766554
  0.1647100993265077  0.3330503125061604  0.0027280426113440
 -0.0015761957605547  0.5035816276464712  0.0037864789051797
  0.4954650033418855  0.0823056512705793  0.9214296008556069
  0.7482801868211268  0.0846113366447828  0.8326705838423005
  0.0816508195814273  0.1677058358680084  0.0846885381474336
 -0.0034064320308987  0.2489246858037356  0.0850127161131229
  0.7469564656143400  0.3348484460743615  0.7511148036134370
  0.0858466013672497  0.3343146226039395  0.9179287881322730
  0.6707746219264090  0.0837212562408416  0.9184458757517617
  0.1678732930369887  0.9195563558886531  0.7527330725793294
  0.2479138201805549  0.0042972344842617  0.4199575739637424
  0.1648523055913026  0.5864083068031122  0.2554158506036283
  0.9124902786260848  0.1666322144185248  0.9158135461779577
  0.3292230495307491  0.8358772010309659  0.0039302277420091
  0.6641247120150670  0.9175833456292444  0.2520438178480183
  0.8305891073280255  0.3352446022102554  0.5017959541246313
  0.7497328840674947  0.9161410723594443  0.0023642731535950
  0.6657204132781691  0.0837284250578283  0.7519463733803127
  0.8316193317637897  0.0831199102294849  0.4184005700320752
  0.3295057863851302  0.8350650318415308  0.3347238277543553
  0.1661572049487445  0.5862430364276296  0.0817109133305029
  0.1667336458015671  0.8330087782429042  0.3346389259299842
  0.7494437091957169  0.0841234122169371  0.1697553361124556
  0.7472880592010255  0.0007321968090390  0.5868024736192547
  0.9146284775638038  0.3353593663842739  0.2495625990522582
  0.7486921388039623  0.2509079543135082  0.0034043007781734
  0.0822967728918454  0.4173374590539133  0.3356539260547169
  0.9150687837632688  0.1665124852327896  0.0842556135244327
  0.4160195459557444  0.0016059649241367  0.5855528198740403
  0.1662740839189150  0.2523638168054337  0.9182278508645222
  0.7487790501304012  0.1676865115892837  0.0839685273274246
  0.4134462049654350  0.4169285246775410  0.8345354517417135
  0.5794110023727185  0.8350939178258925  0.7521654138800644
 -0.0006972110453166  0.0849687218387737  0.0824046177461551
  0.5811815261726617  0.0850855738158025  0.5028551667380992
  0.8308976445490940  0.0030653158183552  0.3363751751279634
  0.4144225582863482  0.5885938751248709  0.5016407542830983
  0.5832851443561975  0.1660628437223690  0.0854265028751102
  0.1672680064255974  0.6692911432462394  0.6662348608402523
  0.1654208974705148  0.3343487213037677  0.8373454527173796
  0.5817827294639533  0.0854159875445294  0.3354644947405013
  0.8296144779281296  0.1661389556649812  0.5006503750441232
  0.2480749755420831  0.8342105704027709  0.2531103868913382
  0.4165353577868214  0.6671198392095147  0.2507218148754378
  0.7482538829040396  0.9185642443827065  0.6678774445401437
  0.1607648430438492  0.0863402450926849  0.0843636156443811
  0.2508057014264269  0.9202311460442389  0.1685000544582716
  0.1644652873570895  0.3350618501541551  0.3354174430608898
  0.9136544597650764  0.5018637599576974  0.4244218893155920
  0.2483096313440093  0.5010484315205896  0.5875262554250379
  0.6640517972352720  0.8353906384126805  0.5019944002532574
  0.2488886027701071  0.5017620149240952  0.9176836572941683
  0.8320513802933827  0.9187895430864554  0.4199625603227932
  0.1646622614026743  0.5026377504560245  0.8349739133721155
  0.8314971274222123  0.8378786006008173  0.5008571412062308
  0.5020280262803068  0.9177195380476919  0.0843991316107565
  0.5797625179617639  0.9178077544943394  0.8345551982481859
  0.5826678157186510  0.0855784813696697  0.1674890375456161
  0.1655919396118745  0.5837341569381111  0.4196646564348825
  0.8322292660645434  0.0849062013193048  0.2538845769698725
  0.7476303424664182  0.9173751460778253  0.8333210927260222
  0.4137096424067120  0.9173635182161282  0.8352625016281413
  0.9147605569754911  0.1689802540031366  0.2546325149202577
  0.8311164946839729  0.8344488908430526  0.1710815251924310
  0.3309697652424943  0.8357359365409921  0.5012656409283059
  0.8308167075647593  0.0844969176385459  0.9166264519569191
  0.1621963717868924  0.9179747407731262  0.1714441345858670
  0.4142526769100863  0.0029398169187868  0.1674617802220617
  0.0853510832186601  0.2519451309336195  0.7504560334422569
  0.1654921958691351  0.9229997187799122  0.3373475709248730
  0.1645279643325726  0.5860873732054043  0.1684672683000303
  0.4162264253232135  0.4986554419145854  0.5021723266165639
  0.9144513470565788  0.5013818459013958  0.3360678745233640
 -0.0878259637529635  0.0847162371598471  0.7481988730814051
  0.9989835416205398  0.7507471513126528  0.3357779555155827
  0.9974604886320287  0.2511055027585731  0.8371545957539464
  0.4964048628508265  0.3323781283999922  0.4198733786713207
  0.6603659437187390  0.5849499271089412  0.6669040299992205
  0.9986425458486966  0.3362389987244598  0.9163615689690375
  0.4142831575106489  0.9180126043196689  0.0857046333718855
  0.4159734606664651  0.6703467966247557  0.8349206059742255
 -0.0028835515757009  0.0848558078093372  0.1727915978338559
  0.6639000662616769  0.6688107521592922  0.0892937377799243
  0.3314265046733842  0.2524279207212488  0.4975168340902021
  0.8337944222094339  0.5010904393680937  0.7521970110106817
  0.3323154462469686  0.5845480754257979  0.3352017433531411
  0.7462904701041650  0.5031906320476377  0.8373429638565785
  0.7470753108747108  0.7522104646761384  0.7530345894945126
 -0.0017204547303776  0.6697039205876129  0.7511597600706097
  0.4115501653688289  0.2545242509825755  0.2506479716024060
  0.9995399749988746  0.5024777808160182  0.9156844379485120
  0.5830163640926601  0.0847507600394211  0.9190800442564072
  0.4925950218625498  0.5020138263855604  0.9190502305990220
  0.8317326071214275  0.8354195208699869  0.0846620668964837
  0.9146362531209350  0.3352645602900621  0.3396719147766663
  0.7480656727064241  0.5034059464413452  0.1726220880395833
  0.0779734040177529  0.6687113205363185  0.6679667208412077
  0.4099031672296620  0.3353309196014320  0.3346602295044096
  0.5812607251132813  0.1685685255222862  0.8364520342867798
  0.0825898138332306  0.8373526884617619  0.6681593889021945
  0.5847938758183289  0.4207576697053814  0.2487351766681558
 -0.0008078304502586  0.5003488567882106  0.5023747718535319
  0.0830547647875143  0.4182988058238971  0.8341439962823659
 -0.0014014611024813  0.4188564723172123  0.0840811951346214
 -0.0009741739295185  0.5021021742323080  0.1672443836309540
  0.9149579690476325  0.5862706074361157  0.1681878065333920
  0.0813803210708346  0.5014049828892411  0.2517868453485145
  0.0821448848233331  0.5838619675452247  0.3361176745468659
  0.9151618423609321  0.5005651887810261  0.5845059258333207
  0.0826492413236937  0.5013317649127068  0.7506333381786631
 -0.0040453121007563  0.6690297643381096  0.6660834870614355
  0.2484080530154046  0.4180148089644551  0.8355390598980120
 -0.0015566459430650  0.6686685538242177  0.1688132334941636
 -0.0015738883623077  0.9196811373716458  0.5842035401624894
 -0.0008880052507079  0.5014494961242382  0.8330373840867309
  0.1655719842111762  0.5009219887270869  0.5032182200741810
 -0.0010106779400343  0.4189646901283028  0.9181412026153104
  0.0819133681043676  0.8347851312015327  0.2531123278376075
 -0.0020323332818422  0.1675084988398145  0.0004643603583291
 -0.0015131401487435  0.8350962866914149  0.1696209820391194
 -0.0017028557829648  0.0015099015984951  0.1694018845674002
  0.0819443738665789  0.5027759489320359  0.0837853309678503
  0.9140141073622231  0.0851820739265586  0.1694506912381708
 -0.0018505276663796  0.7519837030760526  0.2522548677157334
  0.0812635295536411  0.0860317412759770  0.1700118372318406
  0.8306536235828031  0.5853156944025276  0.4188574039013956
 -0.0018518136321268  0.1695574935095835  0.3372168153643085
 -0.0010620419731696  0.7531689647177766  0.4202428886268841
 -0.0005436052642488  0.0026440545502147  0.3367460373068557
  0.1671090082158304  0.7520305265030013  0.7510018864701985
  0.1636809968030803  0.4178368054250556  0.2512497255022582
  0.9152992304908038  0.5868956604855385  0.0009593142411318
  0.0818828491919498  0.0011995785514944  0.7517869109803718
 -0.0001527314695385  0.8349147175209320  0.0012498462708438
  0.1649511560097892  0.0840131835544558  0.7528718206318871
  0.0812215386001460  0.0843047042588634  0.8349856798076278
 -0.0015519560876825  0.7519920350326832  0.0851112354139719
  0.5801864655652057  0.0853046285606439  0.6689665265342980
  0.0825230771777585  0.5004847893685989  0.4195846803279923
  0.5822127500845050  0.0002369846410580  0.9178186365976362
  0.3297634959033527  0.0856441807582513  0.0850893454857743
  0.4988926219502675  0.2513649893772036  0.0853940003848420
  0.4146685395267095  0.0851347322750086  0.0026776210411820
  0.6667670976851098  0.0847066480479721  0.0848459477556720
  0.2480769850961045  0.8357913194803833  0.9193618638378283
  0.3319848965609928  0.0012123982417986  0.8356163344875290
  0.3313128468671564  0.7531429744688813  0.9200244814979254
  0.2471701226098569  0.7525625205392320  0.0024776532355588
  0.4146400875934045  0.8343378842764696  0.0849542278255627
  0.4977326835345918  0.9180991299058436  0.9192992175281516
  0.4973227323611839  0.7530136544498688  0.9191231536696897
  0.3302375458008574  0.8348833362728572  0.1693909651133075
  0.3313584313402219  0.9199046382251740  0.2530988721245795
  0.4144329627044356  0.8358073961639724  0.2527097819131306
  0.4972734678060406  0.0019338401822679  0.8355831991604559
 -0.0018509767544737  0.4182142437982707  0.2506816096553316
 -0.0014203211247105  0.4179321008360589  0.4198963218521957
  0.9131944109831529  0.1674298360594457  0.5855269118345957
 -0.0013448476070723  0.5008510597814023  0.6673083775045412
  0.0814119066325598  0.2526614210964294  0.3367014473311045
  0.0815441726714716  0.3350806571296844  0.2513760051326087
  0.1628015552434929  0.0020812446958652  0.0008539892623888
  0.0805409487302180  0.0848333615817865 -0.0008265287695802
  0.5825737039032568  0.0013522891180022  0.2525176101235057
  0.4990890269139055  0.1680474842353530  0.1676283423752097
  0.4992195971869145  0.0022222803488834  0.3356870300890997
  0.3328377962492680  0.0032887030166167  0.5013632309585041
  0.5819403636415171  0.0027438905517736  0.4191116271869523
  0.4975371104960735  0.0022192350648338  0.5014735157995517
  0.4975290011763169  0.0849526877249071  0.5852516686305351
  0.6643746560279610  0.9186372453963207  0.4197585064073250
  0.5816131892277729  0.1675766730373445  0.5851829008235588
  0.5803516728951265  0.0016992115365132  0.7527106573296051
  0.0823110153209542  0.8358646051066472  0.4194964782676824
 -0.0017469876793564  0.1667809824499242  0.8343747288264184
  0.0823035271171301  0.0861461927872244  0.5030555461238101
  0.0826301481300179  0.5858769647743517  0.8340666904677214
 -0.0003559224154622  0.6701938141403816  0.8356805374976490
  0.9158171336914316  0.8350569586338805  0.9186238349973824
  0.0799545532090105  0.9192304720649456  0.0010700666108402
  0.0795475164916428  0.9193336875281392  0.1698364233973941
  0.9157552625639742  0.0019343813687102  0.4201261188821317
  0.0809147112200233  0.9194805398284303  0.3363696617799594
  0.0812288843354968  0.6679055073870521  0.2524563018163007
  0.9140716428278116  0.3350528622269094  0.7494431418411277
  0.0816331101807337  0.6684510471117031  0.0851273097545256
  0.9154141833535446  0.7521729863700124  0.0011540654080744
  0.0819554583396763  0.1694991156490675  0.4200619799523442
  0.0824446751886542  0.3361895761002242  0.7504372992987056
  0.1653015384291139  0.6676727387950845  0.5032558741058868
 -0.0011321135299541  0.6684346231434890  0.5012556449370018
  0.9155829405453291  0.0845532330823016  0.6661910948251402
 -0.0007829394330651  0.9188801078839534  0.4194315170070567
 -0.0002475794246578  0.3357348920174161  0.3354801568190028
  0.1653216141728361  0.4180022510323668  0.4192162545410331
  0.0823373195018094  0.3348416832410215  0.4202173770201603
  0.2468054377266906  0.2520868196899163  0.5019340518091103
  0.1651928710227135  0.7527868910736822  0.9184371216342618
  0.0808057525239688  0.5852395245187196  0.1684839848594519
  0.1646431466785293  0.9177542202195716  0.9184118847325368
  0.6634282061706105  0.8362064609060498  0.8338577769190899
  0.7490161103664333  0.0001224765946705  0.9168425668033903
  0.5810170506822125  0.7526558371540056  0.6675017202655007
  0.6639124437323181  0.8362151968450030  0.6683181990550379
  0.5817178943311636  0.4188418706723490  0.0028013676948305
  0.9150041844438235  0.0849857244087573  0.0001230775937720
  0.4972953456409942  0.5014404997044579  0.8345694665454328
  0.2469486295717795  0.1680716281170254  0.0850842928388285
  0.1643043933440391  0.2518328767419078  0.2518026008278025
  0.2471546346559765  0.1686416634996089  0.2521164975128703
  0.1647513821161826  0.1692720715031049  0.3352738611294743
  0.1652352970590196  0.2521459550120856  0.4189576841679306
  0.4143798726935076  0.0026835276383584  0.0830222040470169
 -0.0020427278682774  0.2505181437405559  0.9196082065853087
 -0.0020289202318163  0.0848308832566605  0.9171341019650273
  0.0819007996085484  0.2518057408707286  0.8343401256529924
 -0.0023197947104577  0.1692321508102758  0.1692739123644551
  0.2484112010584050  0.5842257936612122  0.5026493677058034
  0.9145623805985829  0.2502332774595488  0.0010769026547684
  0.2473915377852549  0.5845999656095155  0.3355834574493307
  0.2489316739488875  0.5855395990812758  0.1689075547495607
  0.2480218415233134  0.0032470541592078  0.2527953250386293
  0.6653885273292742  0.9171667039137394  0.9174738578020261
  0.5799457945797297  0.9184591656516132  0.6683915545318974
  0.9149959764204917  0.3350885814867082  0.0845475206469091
  0.1650535897045851  0.9193299186404168  0.2535578572990002
  0.0799256449681738  0.2509050122866440  0.0019769323943581
  0.2474306366914125  0.7515355347650690  0.1690380814637619
  0.1643508500069383  0.0863383634959714  0.2530232024564446
  0.3321603987176810  0.0031208182010927  0.3357700663037912
  0.5830641506502227  0.0017525837984325  0.0845124185451232
  0.1638043320676884  0.3349186688278969  0.1677123791985038
  0.0820680174474659  0.4176852039158262  0.6685196975755988
  0.0831287724896732  0.6694249998698355  0.7517478751640895
  0.0831940806032861  0.7517310194952570  0.3364112164392668
 -0.0004743287335974  0.0028001690101950  0.5025973957141981
 -0.0024348759373050  0.3346891445754012  0.1676267748751855
  0.0826241783050361  0.4189355420402039  0.0014383014633779
  0.0821957062984594  0.5835600856566783  0.6676642052612848
  0.2480141455431958  0.5023446756817325  0.0850105677147837
  0.1641482934019000  0.8341306742089433  0.1690256996758728
  0.0821937827926001  0.9190430691600853  0.5021055279911951
  0.9145965026170672  0.7528349318484022  0.5006904889646334
  0.0834402628602912  0.1686822442890714  0.5860721928928361
  0.0824954683639999  0.2518778887729695  0.5031908687740112
 -0.0018001256422644  0.1681279221980675  0.6677006675953863
  0.0830315810145168  0.2516016472330171  0.6669392080152714
  0.2484612059182050  0.1682244387090692  0.9180160469534325
 -0.0010781980624973  0.0856526305733750  0.5850539311626576
  0.1666890090922404  0.2516108391186948  0.5858300073239598
  0.9154437219208519  0.0014088443656669  0.0849074251569313
  0.4145986020018649  0.9188678227793838  0.0016940681875700
  0.4140274239655501  0.8359590846467598  0.9204319684757115
  0.3326041357586271  0.1678790598704772  0.6695704886705869
  0.4151401189369780  0.0861124308741405  0.6683868606436174
  0.4966038336583545  0.7526460489183837  0.7512037432839710
  0.6647235149620557  0.4181482478058575  0.4187534684892695
  0.4149527747553597  0.7526730327677116  0.1694124922920291
  0.5826295373345965  0.1683580525684177  0.4177717483704396
  0.4975111069090640  0.5019056375967900  0.0036884026999729
  0.4977043435071217  0.4174483648373195  0.9199643137484643
  0.3317613706021464  0.9201704183254017  0.5847202847308808
  0.4142600621305222  0.8353264207898193  0.4191999213047430
  0.3324462161209608  0.0859989576168884  0.4178931005002708
  0.2497290195767424  0.7525609184514135  0.6675257304158707
  0.1651142591367262  0.0011099891057414  0.8349713298310127
  0.4140723349894800  0.8357241206512632  0.7505723571608255
  0.4145987702729252  0.9192359815678174  0.6680122646141846
  0.3309871656613799  0.9181250170836915  0.9198436982025866
  0.4987250412553649  0.0848914810014987  0.0847427674935550
  0.4992395925546978  0.1684477030463844  0.3343596867770719
  0.5828929269232850  0.1678232385601062  0.2514514021522291
  0.4986446903107758  0.3347529627396963  0.6681354717509997
  0.4982086244407795  0.4179810960735543  0.7525071173666397
  0.5804425895957056  0.4176769800991816  0.6685915356920550
  0.4977017971486100  0.3350897370910761  0.8371362306895633
  0.5806588220855595  0.4182194063740408  0.8357120073348145
  0.3303354730260246  0.2509892294137208  0.4154257896513384
  0.2481733488338733  0.7525812023573404  0.5023943170049134
  0.3310801717207608  0.0852787788279030  0.2523845028690394
  0.4991005050098191  0.0855326583307202  0.2516234857746712
  0.3281810671698318  0.2511002532960653  0.2510351094245684
  0.4160929350529541  0.0856892289652552  0.3352324465286686
  0.9143912587809357  0.0014208651280513  0.9175730690138787
 -0.0014862854357953  0.0010697774190416  0.8351038923949559
  0.8317670772855172  0.1678372079559637  0.0010377700828238
  0.8323510518510645  0.1677861788761603  0.1690107393969963
  0.9143820894207382  0.0014493151047805  0.2535511546865711
  0.6639891950617501  0.0025288087290941  0.5027738151035299
  0.3305546603276806  0.1683062769547987  0.1686156112014142
  0.1638936644963759  0.0055727052438774  0.3359778095686844
  0.2492743790270050  0.9195768617199983  0.5019795821157486
  0.1642898583403969  0.0863084088657838  0.4186352040887077
  0.1653126327357729  0.0034914028094066  0.5019751914820542