Cr  H Ni 
 1.0000000000000000
    21.1200000000000010    0.0000000000000000    0.0000000000000000
     0.0000000000000000   21.1200000000000010    0.0000000000000000
     0.0000000000000000    0.0000000000000000   21.1200000000000010
 Cr  H   Ni 
 259  35 605
Direct
  0.4125725267935040  0.2484517781748274  0.8338192897782370
  0.6634915307367731  0.5862209716802307  0.4195815094483826
  0.4966089688342947  0.7488295129086761  0.0864926833716443
  0.3265948584031655  0.1676387527103266  0.8328976925713226
  0.5799776609507433  0.9172941825563676  0.5000054222143147
  0.4943131447403698  0.6679359969034829  0.1661446607499236
  0.3294695766215051  0.9169571033013268  0.2521527099075948
  0.2447169614487243  0.2513722113058765  0.9994073821895434
  0.2442511326853206  0.2497776110799479  0.8340686265979970
  0.3291402313892469  0.4152452724314697  0.0840520836410110
  0.0802479124241309  0.6653751783351947  0.9194134828563313
  0.4123239114199264  0.6649202983285465  0.9154263272567585
  0.6618850513715220  0.5842557954038584  0.0833101650024132
  0.4950512823612799  0.8318841454372766  0.1611086090491139
  0.4969861499024587  0.8321984226871030  0.3365113257440493
  0.4963970392285184  0.0011384845888738  0.9999196805464030
  0.9130922770631649  0.1642824655772614  0.5832357687666884
  0.9132145685313643  0.0014726588035025  0.9160797530082619
  0.3297358801794847  0.0830899701028847  0.7503597696559364
  0.7472919166996852  0.4157613216965976  0.3329940604222995
  0.1612561107535796  0.0822020613169812  0.5823650688538855
  0.0796157969918379  0.0832413770505772  0.8330625313468494
  0.2453265986692222  0.1670884900897127  0.4172521030126055
  0.0795137805481154  0.2492051994546975  0.3296478285488516
  0.2452777828941808  0.4992984546157238  0.2502854764973469
  0.2464580970353290  0.5833478811300229  0.4992077969594023
  0.1619846036898503  0.8339305882728510  0.3332302525136923
  0.5802226495567806  0.2484381728629494  0.0023804226597546
  0.4138610361456354  0.6667388022415983  0.0848514590904857
  0.0790598267937697  0.2501198082686095  0.6651155859745931
  0.7459423918831415  0.1664128502118693  0.4162351258178701
  0.7463900623164778  0.7500614675946605  0.6675336586666905
  0.2468192456785478  0.7498449286969007  0.4995873301091960
  0.3290267517975760  0.8335555136933593  0.3339426036178553
  0.3289237018172080  0.2499068058995322  0.2491539336310998
  0.5779551012157461  0.9172614581317430  0.8330272022734246
  0.4133377180908279  0.3350298894875614  0.4156579003314427
  0.1624540784675751  0.2510111453980557  0.5846407709742164
  0.5779213468861846  0.9168677051521306  0.6683791900016646
  0.5813569591344330  0.6662551435069229  0.0820570751116600
  0.7462475819985237  0.7510080647149359  0.9991842253188828
  0.6647150139634381  0.9998405971584605  0.3315449567061253
  0.8304639858783792  0.5007875245644902  0.5006740563646080
  0.8303444354900335  0.3323900598613891  0.5000069868310536
  0.1610115766293010  0.9171734711935267  0.2507233596256491
  0.5799373890021351  0.2497122690498495  0.8322886960279957
  0.6637579193755168  0.4118067405758368  0.5839678082943864
  0.4961480588742792  0.5840944844444725  0.4161887504654003
  0.4129760853624425  0.4174756446751159  0.5001588127211221
  0.3282752387880098  0.4994141137865632  0.6674063890487287
  0.1626900577591406  0.5836797615986192  0.0841397195587556
  0.7451963022998741  0.8331558189252656  0.5841942954297403
  0.5798044121190379  0.7503765010735378  0.4997694526460880
  0.3281466484471818  0.5008818837690584  0.4994306266160756
  0.1605744031238563  0.3338272954635413  0.1645020563081275
  0.5783369053158164  0.0004140613214641  0.5860212193395390
  0.6639924935674153  0.4161944752803090  0.0845678952279434
  0.4950856117475324  0.5836052769893264  0.5839631078332791
  0.4957743780685802  0.4975997428683334  0.0015650445688881
  0.0774913718776027  0.4180258112673272  0.6670332654918419
  0.6632570962156983  0.9182998196897163  0.2506858308231344
  0.3273564705072713  0.7506152214647233  0.7491509842992945
  0.4140178285855484  0.1676208100143155  0.4168415139568842
  0.6629916979067673  0.0837216962603770  0.7501406068182758
  0.3287938659466982  0.7494457700899677  0.0839493561123561
  0.5787615396694574  0.0001064871752016  0.0839976443838249
  0.7502764203885551  0.3336309442535574  0.9164391219522701
  0.5802017156444543  0.2499732749801573  0.6656347667415337
  0.5018664320748550  0.9976602271450299  0.5030696025012408
  0.4962562918674702  0.2507705349139713  0.2483210058857389
  0.3302031309732965  0.5830249488169043  0.0825489631512917
  0.3295763399642825  0.3335036181803285  0.1657614603087551
  0.5809956614440852  0.2504358083532355  0.5024814469194927
  0.2426363276349109  0.6675568462287145  0.2511154592732973
  0.6615659622422261  0.3318713251678323  0.6660719666319038
  0.0807530821847315  0.9168544835955299  0.1667735848568063
  0.7471975366358236  0.9163654721306601  0.6668441567991760
  0.7457740574398639  0.9171765834646275  0.8338655092575646
  0.5798966285713720  0.1674461293452574  0.0822473783901436
  0.9124532910677594  0.2493767000946917  0.1667886995101071
  0.3279112925352399  0.5824882672139579  0.4168395699180248
  0.4130623832289195  0.4164205939728420  0.3336236961125089
  0.0805982284235751  0.9164928682616157  0.0001490956674842
  0.4135850913041095  0.3322950973434853  0.9167560624256094
  0.3290893453273244  0.7527565217670692  0.2528387111264211
  0.4121830670114532  0.5814655056740647  0.0046995732832177
  0.2448714292000393  0.4143818152254004  0.8363975812356932
  0.2462904405033046  0.7505571833189979  0.6677606735030573
  0.2445331533525918  0.3328063714248395  0.9173995011566862
  0.4120960922102976  0.5827241513776974  0.8298046839073259
  0.0801531792263893  0.9162389982046800  0.5000560772864507
  0.4129509494908655  0.3331681161031847  0.7501251544961560
  0.4130395886611013  0.8369215463128336  0.9158152019560641
  0.2446100989493815  0.3351988263811598  0.4181269198543592
  0.3279198373623410  0.2526160793226432  0.5874398999867365
  0.4131486334959553  0.4951583925719782  0.2514576053575129
  0.0835822881248268  0.0823431098172563  0.5002778626181360
  0.3297427371501486  0.0847277877026665  0.9152118039571692
  0.7458131223730470  0.1660025785700623  0.5839276899149601
  0.5775999383078363  0.7489700261641912  0.6680688832808871
  0.4963339219187911  0.3332515990794965  0.6671971131764836
  0.3292028329683547  0.9160409592697862  0.7492150115642705
  0.5809312515098932  0.4182184718188026  0.8298498352584293
  0.4116345521848982  0.1671489260823663  0.7508713159966306
  0.4128484251186600  0.1668073209376487  0.9139592480995071
  0.2441914156425569  0.1661303633019546  0.2484127610033544
  0.2460926442293981  0.5825769759706266  0.8356701417527630
  0.5795184377863857  0.5812880579088456  0.8318793285425188
  0.2462456476143936  0.4179070876615751  0.6678057053340106
  0.3308609901887254  0.9156974442878516  0.5813929789093049
  0.6612665833210130  0.9987483372407628  0.5027112827743253
  0.4964022423361111  0.3325876244730882  0.1669636652978733
  0.7451396551450289  0.1658885446381490  0.7501326430335553
  0.4129463822350831  0.2505000814155317  0.9995830744273989
  0.3292528188108453  0.4981271522789473  0.0009617102873880
  0.4122479487161277  0.1673795495092837  0.0821178867386147
  0.2455968774967708  0.8340938716195806  0.7484465541688952
  0.4966962187381588  0.0013370551525400  0.1641009963008948
  0.4955487344071084  0.0021786496617508  0.3323207424592352
  0.0790610755980213  0.5839925682397726  0.4994092909526202
  0.6610675773065621  0.2498810610699690  0.2497751022038092
  0.6641009735144504  0.3332828359290277  0.1662691459645005
  0.5805245791338504  0.4174106727861406  0.3317418766311863
  0.6621147099346790  0.0797573962579871  0.9162112495732837
  0.9128712243187095  0.4174816242564176  0.3344014619116253
  0.9134793487684202  0.8349477359919971  0.5798609315116091
  0.4118123319130028  0.0843151860358706  0.6671845300881268
  0.4962709458547215  0.9999705274666560  0.8327174186841333
  0.3293985095651776  0.9170902472216437  0.0821875875928833
  0.7467066613612643  0.1638421303314815  0.2492428598318665
  0.4966432042949299  0.4144087386213410  0.0848196471555642
  0.1631521069126271  0.4152531124560348  0.0842222363921455
  0.9118393432342400  0.8343675247621415  0.7551857605454191
  0.9147812369087324  0.6663687001581915  0.4125647783119165
  0.0795546450785129  0.2495513628364044  0.5045252569524714
  0.9953242523388457  0.5021756629695501  0.0010985134428216
  0.8328226243057992  0.4167872795506057  0.0826914870811044
  0.9095261477278177  0.0830917732810650  0.5012747886357583
  0.2460649276441085  0.0010995669994776  0.9165445252774985
  0.9126301743781697  0.4150968285672429  0.9987381962925206
  0.2460169018308776  0.6653794773911955  0.9166720706149392
  0.2466070046628506  0.9989245277281315  0.7484941162837965
  0.9960832321200198  0.2496924687575666  0.5846085370444473
  0.9119952585136306  0.5001998486624591  0.4158517600573461
  0.9116426397433415  0.4168787989837812  0.6672765145943853
  0.3300997678630268  0.0848226477172517  0.0814628285006149
  0.0778694806029767  0.4167140064844790  0.3310795687517762
  0.2450682090911193  0.4191999157838543  0.3306975816212148
  0.1602422178640280  0.9994175773373826  0.3338230891469393
  0.0787317360895948  0.0835209509055408  0.0004641671904703
  0.1637936042215243  0.1666108514294870  0.8323576661073836
  0.9896090660475427  0.4185950085004786  0.0826135475242211
  0.9966556233546016  0.8350635612694861  0.8369151003062505
  0.9932685892168692  0.6672104977890044  0.8353485183154064
  0.1633962237687941  0.6679331793883704  0.6670976600745911
  0.9962268613545019  0.0816974106013846  0.5862207585689900
  0.3280796529873811  0.6664036320648369  0.3366058914031759
  0.2470484932527662  0.9989852427305712  0.2503012834287671
  0.4966794624183840  0.6646892484031228  0.3356431639851294
  0.0776229431195491  0.3311172516802360  0.0841565594842141
  0.9970085341157137  0.5848044507473555  0.4153316810530654
  0.9963749544082180  0.3330830451029874  0.8327746395280700
  0.4130690161487535  0.7495519026711965  0.5001433235384023
  0.2440430451139601  0.2508765080276342  0.6653059970467711
  0.0788321345920440  0.5003841469420937  0.2500711814705041
  0.0800585709461228  0.0837788481121546  0.1680231135418560
  0.1644747117774111  0.8336627679466391  0.0010929814906460
  0.9129453714830319  0.8329808743230961  0.0837978353182804
  0.7469738514293115  0.5832326753330306  0.9994582338990061
  0.8301531072593337  0.2487895217534433  0.7501050570840705
  0.7472102450980708  0.3328838402541927  0.7495104506037088
  0.9941005022192561  0.4172728898616460  0.4126796463738838
  0.9932210916767124  0.2494661484030705  0.4166446258400673
  0.9116693247853728  0.5012712509068832  0.0849924703043058
  0.9118494030566358  0.5004689249746914  0.2494036045774744
  0.8302971952914171  0.6681048257045709  0.8331447110379345
  0.9959294219579993  0.4180943592580301  0.5885991402945264
  0.9125888093056151  0.6667425272459929  0.7520660402310781
  0.1617650615466425  0.1665307620388777  0.1663801898119432
  0.3287736315263060  0.5822032968594246  0.7509837341672185
  0.1614009578104935  0.5042886547018333  0.4976642207950332
  0.3315321710369234  0.0003781038528394  0.3343382717170907
  0.3303339659138586  0.9156353628784855  0.4164362945742547
  0.6636638224842938  0.8341283256522026  0.5016858227389787
  0.4130219450373249  0.9142272540942438  0.5001532841765018
  0.3296835328096531  0.0848511782834379  0.5845502344840875
  0.6657838492361490  0.2504339823352055  0.4170579090308889
  0.4096705741339729  0.0878596180907184  0.5010825095674647
  0.8305726312244273  0.5002519071331905  0.6663942517139140
  0.1625904764962282  0.6669178017667037  0.3325172107591495
  0.4954706113319404  0.6671884000021889  0.6665359636762874
  0.5804239542117590  0.4980944712531273  0.2507966942484198
  0.9137100917843239  0.8349637919858569  0.9168309228075019
  0.9136180973531906  0.6672507653682923  0.9161639806103886
  0.9132071401219035  0.0820494494754851  0.8322850482654330
  0.9116198558256262  0.6682542919921488  0.0844341198798192
  0.6637413182673380  0.5871905215899627  0.5846475790253917
  0.8280809263829050  0.4992138678655431  0.8332142246362695
  0.1620796056196325  0.5831947253965543  0.4168428647908436
  0.9116421034642068  0.9166668986600262  0.3333876788075475
  0.0797934150389668  0.1649032647400279  0.2485992108969823
  0.0803672971928421  0.9169933282875432  0.6669893547108037
  0.9983902833213028  0.1651541746292407  0.8318982110614891
  0.7416659749477442  0.6672795700779844  0.5847627234966365
  0.7457185097384094  0.0827040489961345  0.1696074265113157
  0.5800818473332054  0.5825613037877347  0.0014903491545262
  0.6643979883164545  0.8335724836188839  0.3333651485165199
  0.7476896659677210  0.1676916672935936  0.0837245827444203
  0.9926178738056889  0.5844587818652652  0.9189473826086013
  0.0796795591073023  0.7495803450752946  0.1666469135959920
  0.2445480558405284  0.1673799076347446  0.9167735655047459
  0.9133232077241820  0.9974200745726609  0.2506328828794746
  0.6628822224766395  0.3318108056030509  0.4993707350402985
  0.1639902053985163  0.7510927019944335  0.7508323688009090
  0.8309234750878332  0.7512978332323608  0.7520939480606843
  0.2488031558110855  0.5824383914388915  0.6681254982512769
  0.7469755295296965  0.7510620745542111  0.1680914037314063
  0.5795755382301352  0.8366607790938260  0.9144470180096337
  0.9943188509618536  0.8341490648315628  0.3330270871291604
  0.6674768532540867  0.6653991923956599  0.1662999307199449
  0.6628545633633196  0.5004495942342397  0.8327301207948391
  0.2463387329607973  0.1671900659873736  0.0823100404816192
  0.6630125318571521  0.6658656936498237  0.8326573943318221
  0.9967948498334487  0.5008383167188870  0.8353237420112978
  0.6621195449147597  0.5834432273274269  0.7519919358764013
  0.8299527586305827  0.7516454792778999  0.4170253857464620
  0.7459845950792687  0.4997692598625365  0.9173485786863396
  0.5799276012335876  0.8328773620889377  0.0825232340407677
  0.0776476412717458  0.5015942462423468  0.9171032942136614
  0.8320141056895622  0.0831361739218242  0.0835874488133982
  0.9134068577644274  0.2485865827604843  0.6654453862114039
  0.8300587024584498  0.2471210594915437  0.0819278029725175
  0.9139268019161862  0.0017539792255521  0.5828359646859954
  0.7464324304693974  0.9171327098992504  0.9997837967787213
  0.9949101431822013  0.6665045153666428  0.3335235931991836
  0.2464692291691558  0.9984731795053143  0.4201353445205471
  0.9130476766362351  0.2492081891448933  0.0001073126115426
  0.0796552173007791  0.5812678621783323  0.8350888119514210
  0.0767738697502606  0.3334652710639901  0.9160222673867924
  0.8295369875810075  0.5831179429545447  0.2495882638320662
  0.9939627150358168  0.9994197072006544  0.3332462750724650
  0.4960024249504139  0.7498487188495674  0.9127571985145234
  0.0797597239208884  0.5847619806439751  0.6681209659775937
  0.8313816552970966  0.2480405397201383  0.9166595284027717
  0.0804751022685500  0.7494988065777531  0.9993969574495360
  0.9119651369251506  0.7495083206660118  0.1667585257143594
  0.2456920481929007  0.8344168696456172  0.9177101204452225
  0.9128786638912746  0.1663367515494079  0.4181511008153459
  0.3289473259490667  0.0832664856181967  0.2506576925267013
  0.0825157878694517  0.7495415914140997  0.6685018844389955
  0.9169358377819151  0.6665662451881700  0.5877672952421904
  0.8303045893207978  0.1655590170292166  0.9993273298037498
  0.8294093744968514  0.7504669098847168  0.2496336252506650
  0.9957276339899950  0.1650756187281329  0.0003350952376673
  0.8318897519615875  0.9991358991012532  0.3331489050911381
  0.9128510464117422  0.9997729286224539  0.0839895441686404
  0.7438629132930895  0.9148025438946329  0.5013069253850183
  0.0789346611749032  0.7510491521047999  0.4990652170127007
  0.9134006496436894  0.0004765098992904  0.7515966819905892
  0.6634868323214619  0.1698623321708110  0.9164977102684158
  0.6642223519192718  0.5835394546979403  0.3292752837005162
  0.1619613407448676  0.4143632730446282  0.4999724371991230
  0.5792464861140966  0.4160927266273629  0.9209344451710135
  0.0806487613079357  0.2494255521130098  0.4170550899928037
  0.4098681758580102  0.7509118731687888  0.9163382602497566
  0.0767734525178280  0.4183147008487615  0.0842973161188902
  0.2460139264812782  0.0006679914278813  0.3348485480365921
  0.0003748504498891  0.8350086099497814  0.7478989747047323
  0.4959667017203135  0.7504255561398160  0.9992902310207050
  0.3291366412637141  0.2524024417797058  0.4967235069160670
  0.9950263848141514  0.4171132215615954  0.5004505797442607
  0.5808775867231759  0.6656709310097598  0.1693575652398528
  0.2451226763930856  0.3301712142979459  0.3289604393467447
  0.0805395155878633  0.6688556131472890  0.8326458006832447
  0.6631136889638968  0.4996017676268830  0.5838932404423252
  0.4138287225209508  0.0005677999668895  0.5004360771884460
  0.4973116430697002  0.8343687389066705  0.2484565634114664
  0.7499277381776180  0.2528293368275170  0.2509223391118003
  0.6643314503642244  0.4958104173752729  0.4167614347324133
  0.9142503046264698  0.8343833845195316  0.6678979327011852
  0.8290573194734275  0.6660931924226847  0.5830816508986489
  0.7443582089710105  0.0801882505619941  0.0814347507071558
  0.6599934500398410  0.3327093833004546  0.9181950191517884
  0.9957554390154539  0.0817841355943064  0.4990554831429403
  0.5837505608493180  0.8343299405138518  0.1705668585320519
  0.5770701998083281  0.2514559552853713  0.4135769583794506
  0.5844327433755131  0.7469458151658310  0.9151801384410349
  0.4134937965735753  0.5856830004786047  0.2503713558728189
  0.4994826636178327  0.0876559345609925  0.5011365801420054
  0.4122536804060097  0.5787707797783085  0.9175309785348206
  0.3299049807242834  0.6647259010246405  0.2489662919933218
  0.9127948388381275  0.6675223837525566  0.4998869789914375
  0.5814027952294354  0.0846486979631113  0.4155060842107222
  0.2458641987896080  0.9987964976082944  0.1606189764259013
  0.7461034278025720  0.0823286644954103  0.9984061590664650
  0.4954385704172876  0.6655243108568231  0.8321881830221557
  0.7467232760663763  0.5831346836458631  0.8334266537853284
  0.9970470011830477  0.9157214178762751  0.2491719291092516
  0.6626419401681833  0.9172704481874316  0.9166141171106515
  0.9965475159958980  0.8328870936402945  0.1657328788672121
  0.4969417036963384  0.4991026528933367  0.3340156202383425
  0.8301150232226032  0.8335983367255292  0.3335801759730135
  0.0798831255328066  0.8333549270018251  0.0833785919084302
  0.6624794660942469  0.9166347947557405  0.4160764128597704
  0.5791241002832654  0.0837318217242488  0.1663596704297310
  0.7462667216460562  0.8336519635815443  0.0822463465663632
  0.7471216309528720  0.7501749767542454  0.8331036506126874
  0.7459934152982169  0.8341721906546307  0.4167169377344316
  0.8304896669294269  0.9168626321482951  0.0827182003454115
  0.6640460078523447  0.6675840298637572  0.3345236049299822
  0.9958115023204024  0.7505781956546841  0.9183567888391867
  0.9963922033729106  0.9990839268356781  0.1664644152882424
  0.5799916215611266  0.8337397787576751  0.4165091009242229
  0.9956486293541339  0.1660603718158088  0.3333418253737974
  0.8288909966307257  0.8334359968863627  0.5014574056343625
  0.7472705545566656  0.4167001152186008  0.1658495958983003
  0.7462162033633642  0.6678525231606224  0.0826385546102194
  0.1635901842927009  0.9987388530046787  0.6655274558090915
  0.4955892848275126  0.7500000627669902  0.7502435884111739
  0.6640727545200410  0.4139513874429699  0.4166388211362423
  0.5794955799220859  0.7498815274770544  0.8317590186145319
  0.7469394178474916  0.2498661927094343  0.5006775116264883
  0.9979663436680988  0.8342908968066739  0.6651560737698845
  0.6638490351943456  0.2506395934267518  0.5831158579772758
  0.7468677796672121  0.8340031186517618  0.2513014253342474
  0.7456961411919883  0.8344846495001417  0.9167918491726637
  0.8279893920635552  0.6674321695773388  0.1660670132055586
  0.9963426746623444  0.7494654721005257  0.7511965220086655
  0.8293873382918577  0.9167932884049372  0.4178853661876396
  0.9120891071089043  0.0823466739464467  0.6669461703588281
  0.0797414130302988  0.5842420566731051  0.0005848788684465
  0.6628187922703853  0.7504849531180666  0.7502058898480447
  0.6623654954967356  0.9992327365518119  0.8327444470178664
  0.9129514129008228  0.0818390343092680  0.1671763833834174
  0.9148624046555274  0.1646614682247657  0.9155948511614557
  0.9131747649339002  0.9172209378100598  0.0000140174832406
  0.0799275124678646  0.6659913753345424  0.7497568563475313
  0.9137698382502150  0.7515575742416477  0.8357210971491181
  0.8306941000546721  0.0824938850202265  0.2501028539671095
  0.5826228995292152  0.0835524350044896  0.5015257751606806
  0.9966745941712873  0.8339899956695755  0.0005750983399730
  0.9959973925440893  0.9161614160080496  0.4167364890728488
  0.9122393649274128  0.0820701514983706  0.3338752907607268
  0.8285459376759610  0.0823846440232155  0.4170049832722361
  0.8289199826927028  0.1666478849656299  0.5007416580124491
  0.2457275725630383  0.8330702160286529  0.4175557550544721
  0.8282774417264239  0.9992913575344546  0.5011620642124168
  0.8294344073601191  0.9997087830150108  0.6676801583501758
  0.6630323392588832  0.2511756153947922  0.9165006533949247
  0.9971533354319803  0.0820305427741023  0.7497938097484917
  0.6646108392675097  0.3332270332039578  0.0027465962167357
  0.5802489122045127  0.4992418650498823  0.0848451145845730
  0.7480210830494815  0.3331543020820280  0.0836369484715727
  0.7483893202913469  0.4163888907670222  0.0008578199248765
  0.5799552584790152  0.2498435617888520  0.1660234251714936
  0.2443121004386722  0.2510653175881922  0.5009820242425118
  0.1626177252304102  0.6667578415501871  0.5004878039108249
  0.8285523636335876  0.0821741339460584  0.5839444318012593
  0.0786998529554220  0.7503566416757738  0.3329532672062154
  0.0791701400571798  0.5843436547797386  0.3327014612885135
  0.8295711825592871  0.9171423142405133  0.9170064814869359
  0.9137834234965585  0.0828655209215035  0.9995092597281289
  0.7473926414635672  0.2503046872798415  0.9995313534178955
  0.0802998264484092  0.8329685945254796  0.5830724614762981
  0.6610091323893270  0.9159524164126089  0.5861369832616947
  0.0807509842320452  0.8338309742013437  0.9187966743735225
  0.9963610224926540  0.0824121771096702  0.0838521231089338
  0.6611926309915882  0.6674998935616140  0.6682608692592401
  0.6640177619833383  0.1665181826247499  0.3324893368837507
  0.7471118306568115  0.6672143042623284  0.2507686098666637
  0.6642751794990237  0.4983785885177636  0.3327566949066959
  0.6636386736295947  0.3330667448489821  0.3327784880182484
  0.7471464707554965  0.4996202521485574  0.2498300170344183
  0.5822104252912425  0.7496113705399128  0.1686219879391383
  0.6628859809969552  0.5006388280574087  0.5011267551096494
  0.9969988192729563  0.9187182354779696  0.7512405584109040
  0.7478546016138217  0.5001292591260409  0.5838810272380287
  0.7487372951243391  0.5839592729758952  0.3342679859451891
  0.5790530524605467  0.6669755859158263  0.5836123265765066
  0.9129535104212043  0.9186906930285210  0.6669106435241990
  0.5796265715555210  0.6633278322082788  0.9158571943810475
  0.6639219453616447  0.4160015612876778  0.2498793142088008
  0.1621156006499485  0.8337708323784603  0.1663399944615805
  0.9124214057533235  0.9170691732853633  0.5008759053649391
  0.5799249558371180  0.1669851686075024  0.7503463146172158
  0.6634624169246770  0.1669891388153502  0.6669788874613995
  0.8301267793249983  0.3322423579397681  0.6667486852764042
  0.6630287587569411  0.1665988708077809  0.8321108509695951
  0.4139592023880235  0.0002623975607410  0.4162480074757115
  0.0809383417266844  0.9995521021820603  0.7494293285801297
  0.9963421807057665  0.9991053654218779  0.6668467203970473
  0.0795822729321219  0.1658608034979267  0.5843787598299635
  0.0799965543425918  0.9988946636844455  0.5833230361781124
  0.0810021965515733  0.0814858794825554  0.6661806082441719
  0.2465931106721404  0.9998363831995969  0.5827415110232260
  0.6636777078497709  0.2498397337721531  0.7498143629263971
  0.7456964840174778  0.0829746482323496  0.8333335059834504
  0.2452042274849795  0.0825706732461232  0.8326249214964003
  0.6638048956457754  0.1665742992497576  0.0009036596691223
  0.1618305136588279  0.9170405149484754  0.0828701798876626
  0.0800826542313773  0.0006974221590407  0.9177866248267584
  0.9970351783172640  0.9999864023275065  0.8337030864445666
  0.6631620874273517  0.1671574896388482  0.1667323454602365
  0.2461719819751551  0.0838867501288826  0.5003562522704859
  0.7475644222408691  0.2491719953531789  0.1656907817738303
  0.7468440231345344  0.3347910793573675  0.2495538335775992
  0.7474033344215417  0.4164321674910773  0.6669013614131214
  0.1610339158276089  0.0005019517436809  0.1661819751641105
  0.2464231802680252  0.0846558966229814  0.1660410306455800
  0.2467494490928711  0.9156046154206833  0.1673475582132151
  0.6634333648128852  0.4160489743902915  0.7490675338737136
  0.1620322932556523  0.0839372953562874  0.0825059431108656
  0.0803162798847128  0.9168280460825848  0.8342890337937784
  0.6633080249328233  0.3330255995771729  0.8313038791813202
  0.4966307486335599  0.4989882511363363  0.8330440477251314
  0.4964764790821830  0.3320518407607728  0.8328369442667908
  0.7465630243790703  0.4165056268374976  0.8326610664032185
  0.6626158298279857  0.9165283039411266  0.7496960779972212
  0.7465524485485364  0.6662875830275645  0.9163053926340642
  0.7459860365829575  0.8340169398104159  0.7496905708041791
  0.9970037020498292  0.9168091890589228  0.5829373247707251
  0.7452188696026198  0.9995595806029975  0.7508683697367800
  0.8293002894213468  0.5003090967256237  0.1667189747700898
  0.7485050646690777  0.4992501281975868  0.4183757344387701
  0.6640965857645323  0.6667315986750170  0.9989734878928490
  0.6636918429486772  0.7502169240751670  0.0825708254451436
  0.6640049753049300  0.5824015812834600  0.2480302811178018
  0.6628788515897812  0.7513809476596236  0.4174378675220590
  0.6624641762291628  0.6681780498280677  0.5007783806805994
  0.9968378358519172  0.8335394115098258  0.5005093523648746
  0.6613076461497770  0.7508798502745369  0.5851862509850034
  0.7462358654761735  0.5842161723668218  0.6676933902676403
  0.0782860336515367  0.9162510510203193  0.3335612494854499
  0.9968495558143041  0.9164042882871942  0.0832447221375842
  0.7455299396899513  0.7509361965465003  0.5011124206256374
  0.7466072969689498  0.4994754592970558  0.7502675667675255
  0.9126315683119651  0.5834967846091563  0.6683973922986275
  0.2463122162995821  0.6664803797925849  0.5832607044545445
  0.5795507201635278  0.3351305950386823  0.4161467547471436
  0.8302923377927766  0.6673806109910321  0.3336692201108663
  0.0825196512072003  0.8338372509167574  0.7500054810520613
  0.5788582863199180  0.3333004053114967  0.5831331964696291
  0.5799304209638352  0.4160135429094359  0.5009748756415877
  0.0782093951901147  0.3331318769524743  0.2493376117092425
  0.9126638814453744  0.2486119095914504  0.5013773808894726
  0.7459358629237520  0.9993845424828161  0.9163435641018601
  0.7470576988943088  0.2496753416244021  0.8326367271088779
  0.9135433197971500  0.1659453795431056  0.7498169926984430
  0.9952827672788297  0.6671084714698772  0.0009814388444374
  0.1616571007349895  0.7511994727260567  0.2505586959929407
  0.4119850097510622  0.7494296688273240  0.6672944498325858
  0.2446996028941000  0.7511513459385647  0.3342562930183356
  0.3292226094928277  0.4991555558240159  0.3335955176420586
  0.1631032048093895  0.5839438948717472  0.5838412052647535
  0.5796551868566318  0.0831063009141654  0.3313415852181044
  0.0789264872027047  0.8332357641662292  0.2499937609691858
  0.7465784068344394  0.9168730550896659  0.3337305161287005
  0.9125270961724774  0.3331501328621712  0.2503613189706501
  0.9972000312932077  0.9982830883270916  0.5000662446517679
  0.9127649166526441  0.8334248954204685  0.4169001873756568
  0.9125081764999344  0.9993262409987609  0.4169142989934156
  0.8290134441914819  0.9170481521475995  0.5836745409303875
  0.9131725225137682  0.7498308358845761  0.6680570661676198
  0.0798144749920043  0.9985083380360663  0.4171074132104272
  0.8291944038262141  0.8342415114471150  0.6667845281984934
  0.8297157317756184  0.9167230344313987  0.7513049348754729
  0.7461440450333733  0.6667886993565358  0.7504969594002423
  0.8291892465328208  0.9997619797832160  0.8332815023152725
  0.8290122611840227  0.0825372585146942  0.7501542164709376
  0.9132286913717885  0.9163979712548448  0.1660054640500448
  0.8295090636975608  0.8345819854532948  0.8347226959404623
  0.7472873699148759  0.7501766999265124  0.3338231366473495
  0.9960514479147573  0.7507212634601813  0.4159353563227905
  0.9126626713074986  0.7509548972702238  0.3325905331535785
  0.9959000824475507  0.3334251738443030  0.6676036025566939
  0.8299250231606067  0.7518887837751214  0.5843427295689636
  0.9974546130774162  0.7506456783312877  0.5841139976921922
  0.9132316954185798  0.7512181152044864  0.5002638340853792
  0.0779195577485668  0.4179206726872566  0.5000382979029286
  0.0781581774808941  0.3342547929496277  0.4157700516249931
  0.9128612590346025  0.3330668561586606  0.4169718438935751
  0.9956725939259710  0.6677184322500918  0.1661566417654303
  0.0788093080785872  0.3342834116330982  0.5850747890595841
  0.9955684363368636  0.3317036427577017  0.5009161612443120
  0.9971557489114308  0.1668231789039341  0.5011096527856014
  0.0793273674519361  0.0833553090574125  0.3328503414706191
  0.0792201527365642  0.1658652368653711  0.4170986918992540