Cr  H Ni 
 1.0000000000000000
    21.1200000000000010    0.0000000000000000    0.0000000000000000
     0.0000000000000000   21.1200000000000010    0.0000000000000000
     0.0000000000000000    0.0000000000000000   21.1200000000000010
 Cr  H   Ni 
 259  35 605
Direct
  0.5774389214955501  0.6697112038986952  0.7498588007201432
  0.3295154608825515  0.0848315139755192  0.2477945364870160
  0.4952153564319751  0.2513955446095165  0.5836902537489689
  0.4115919763447907  0.5819621797984218  0.8339866534252515
  0.1618225359917058  0.4159458563875897  0.7497676328885974
  0.4935168078038717  0.5835604924206309  0.5846229607970517
  0.1602424737042203  0.0882461807559495  0.0824175906067744
  0.4111305680722354  0.3341501720183072  0.4160921610811012
  0.4087982394336085  0.5814868027834834  0.1651091402275258
  0.7468276367449512  0.4161007109468220  0.6667584270318114
  0.9117754370948620  0.6670684721241655  0.5840531198779145
  0.0777397434499142  0.9151429451125586  0.1693100178776910
  0.5765766167565011  0.0004161266785174  0.9154223516960677
  0.6626521682025011  0.4150823778694863  0.0818271838036520
  0.9939080849751333  0.4164647684197246  0.7511866559397213
  0.4141429306710616  0.4159534786312227  0.1656424108029438
  0.3291060967181464  0.3339055575666618  0.9990370350290244
  0.6612427451491028  0.7501533611592029  0.0817091937179663
  0.4962990428027988  0.4960061301401948  0.1651991991174005
  0.6619219558092825  0.4162714854796952  0.4169259813730629
  0.2440054830543992  0.0836033953884984  0.8344813793408495
  0.7459075887471377  0.5808659684158625  0.1651655220374183
  0.2466997125146454  0.9181112137234575  0.1645870386279396
  0.4116093015989477  0.5804669388081043  0.9976662526711020
  0.8297972595264606  0.4963368707962647  0.4980606826252472
  0.3345368577925306  0.9205507240109225  0.9155927594525913
  0.1629072491199438  0.0852941885584745  0.4166993108512894
  0.3282613913338446  0.7535173305966839  0.4172586057660203
  0.0796439442425640  0.5842198100880210  0.3323126757551058
  0.3282490927273558  0.5001123139910284  0.4992050126372214
  0.2458485068849017  0.1683674482653029  0.4156038005543467
  0.8317250169556779  0.8337495648696150  0.3326564182527535
  0.6589076532821926  0.7498763608194010  0.4203275489025460
  0.2445192114621175  0.4984839077043118  0.9167124648048730
  0.8266765632341339  0.4987575741886097  0.6680752813343708
  0.3285542363228018  0.3335821672716072  0.3314169360562753
  0.4121243132300290  0.2502018197669930  0.8324093902090298
  0.3295601999752558  0.3347369562417354  0.6689811685725322
  0.5782658469158027  0.1669486274924375  0.4162928712617325
  0.2461714851085133  0.2509232206236497  0.1657297086928569
  0.1608056617538580  0.1671724563978790  0.6694760254195633
  0.5793085580797009  0.1677001126767363  0.7504888032117353
  0.7459017863398923  0.6675921392880286  0.9159942154800492
  0.3287054586565180  0.1692909399932635  0.6678731776133494
  0.7451935200878680  0.7504823702202417  0.8320431964599029
  0.2447582923934922  0.2519649793093892  0.8338062779376444
  0.1590466338086526  0.9156470919649473  0.9164548070403864
  0.1615657172457758  0.6656030718193615  0.8334140602803801
  0.9133271714637691  0.6675788949947767  0.0840218438844907
  0.0783787936317717  0.0006482782267175  0.7502118300784724
  0.1620454741427965  0.0000522880170250  0.6671370601938084
  0.9111300376505893  0.4183875857609353  0.8333125160756125
  0.2426846825456047  0.4987300431373018  0.2492386661349027
  0.9930380851072821  0.1664894913800926  0.9981544988777049
  0.1634721899627536  0.0861324452656791  0.2484773219015845
  0.0794996510030433  0.2511618564857671  0.3333287275073363
  0.5790467582762382  0.4995393225458328  0.9169511567945393
  0.1617255415803989  0.3337503348200981  0.0000029918005415
  0.9935447796344626  0.9159801506518240  0.9170840273753142
  0.9122607555471919  0.9166303902261475  0.9989295384154734
  0.5788326470952582  0.5004765975422367  0.4167993185323122
  0.1621326115583841  0.2513911937980793  0.4165713856596379
  0.8280199554225602  0.5019827607808970  0.1675672267811606
  0.8290643111646825  0.4156012112462330  0.0819545868225214
  0.9948701058108742  0.6644155424815135  0.6644569640397959
  0.9961695552023275  0.9162293399514625  0.5836977271353597
  0.0800202560104197  0.5837978910726906  0.1655085160800202
  0.1622231645453851  0.5849411119520114  0.5845177800434279
  0.2462997167511764  0.4155070741043417  0.5002410854677795
  0.6604874762284380  0.0017701593908333  0.8284034171271802
  0.6616637819809517  0.3330999122620029  0.8323473818422451
  0.2441545985300718  0.6657077536526526  0.9166838757839633
  0.1616523173656291  0.7495204994272920  0.4168142850481472
  0.1599320253553563  0.5831637161688695  0.4151748630045481
  0.3290923829838364  0.4987148951663529  0.6680360055890699
  0.6626540666718780  0.1682785113473713  0.8320994490511354
  0.8283302030146652  0.3341886947698909  0.6663292780037416
  0.2452363326658563  0.8339797192667319  0.5845222652454003
  0.9133304826414674  0.1673036738542653  0.5851725274550603
  0.0792403368003225  0.6673444503349441  0.0823998438795909
  0.1621395715857891  0.6649736246333243  0.1646461992505377
  0.2464005458218458  0.8332573083047096  0.7498534533606878
  0.7458100258936258  0.2496405187943958  0.4995461856337303
  0.7466274923474696  0.9171241110608868  0.5014702862406227
  0.0790122277471084  0.7499158937057953  0.4989073786070285
  0.9965601367092611  0.6672525982724559  0.8325263279832253
  0.3311303070671566  0.0026324555413192  0.3318322061227528
  0.3303737773784491  0.0004954338118130  0.1656828369649874
  0.9967837665771542  0.5833335015293678  0.4127477598821133
  0.2454734178368391  0.8331962984465843  0.2488588192029864
  0.3286195710815014  0.5782240544065543  0.4161549541360306
  0.5770265770097098  0.7505344262510658  0.1625982244349228
  0.1627752100682892  0.8344180076158326  0.9982540709032053
  0.9126963631723705  0.0019154857173086  0.4159865103437116
  0.6613068130808473  0.9180105211855779  0.2463967320224149
  0.2449181391937577  0.4966525211463049  0.0832214465571374
  0.8283870206460506  0.0836450478419408  0.5851032574545858
  0.6658760589065915  0.7510496867498182  0.5844310678487326
  0.2438931085928678  0.6654858316589625  0.7518334233328375
  0.1626911561302603  0.0000515647198547  0.5024718408703900
  0.9122674147875266  0.8350292168900247  0.7506544576705019
  0.9943313438354486  0.9151666206151415  0.7501598633604958
  0.7446318326142652  0.3330569282733287  0.9144803687376029
  0.4115910923184090  0.0858433122012863  0.8315354989914955
  0.3276983203841718  0.0010645915021138  0.6672594018319032
  0.1613923646167365  0.3355679225994956  0.6691169343924723
  0.4944650884148916  0.8334273459664405  0.6681676859457001
  0.3276478006919942  0.1697119191764037  0.5004309398753555
  0.7452885248463291  0.9174213806348606  0.1663658966016464
  0.4118271664347289  0.7491318379908284  0.1623601604698724
  0.4110518025783385  0.1678448051565846  0.7498623167298899
  0.4971023885955550  0.4988958305111447  0.3322585864026096
  0.8296019895279759  0.6680720300811822  0.6653243715256454
  0.9939735944797530  0.4163586375602540  0.9129261123590632
  0.0765408028920857  0.0039071907238665  0.0818878394749192
  0.9131823830555732  0.7485212808205836  0.8334742192923931
  0.4095524541474652  0.9182280343506138  0.5014042597960858
  0.1614004763323430  0.1678444878539395  0.9984036665000467
  0.3281867641406975  0.0012238824199307  0.5004865233768390
  0.0800869492963792  0.5822496685236612  0.0013651368610101
  0.8287287647429031  0.3327139257745722  0.3333289708706316
  0.0792171863013004  0.3336284960088175  0.0817397221786453
  0.8279213585452115  0.1673613756601808  0.1667379861348911
  0.4128898479021891  0.2525622980330952  0.1664504582469034
  0.9086106181663581  0.4160674372010166  0.0000226072274835
  0.8285462770390045  0.0002390282023573  0.6657039713751608
  0.5803549197221515  0.0838017635476432  0.9987106651231683
  0.7450908167803862  0.5013740778838144  0.9154142695386930
  0.9947051867184479  0.9178757362989146  0.4158771595871333
  0.6618159257091314  0.4159132319062074  0.2501419512891147
  0.9132562333128046  0.8359730825245841  0.4163648646775346
  0.4945626527277619  0.0847234132482472  0.5846791725522774
  0.2453320032514873  0.0010639173985037  0.5840997720962817
  0.8286414383557721  0.5826145066686770  0.0835072703045410
  0.7464317460474108  0.8324002347463479  0.7506079638089448
  0.4953774333267684  0.6672437295534591  0.3306147316267987
  0.0789353360998264  0.2505581308727359  0.8323295690943987
  0.4133997598904268  0.4173771648965214  0.8340040946527670
  0.9107163062826907  0.0828696118286085  0.8315058008341526
  0.3282210477324114  0.4991030225397522  0.3360629035934001
  0.5802817433693795  0.3349849860242821  0.7512506173112011
  0.7455062688004604  0.2507246991030634  0.6660608961660126
  0.9145464897072548  0.0013845303301255  0.2488445343324657
  0.5789258826731715  0.9174282652182468  0.1667011746088726
  0.4940716570297514  0.6651337330140179  0.5055608170024696
  0.8294804012201419  0.0007745331660848  0.9998596521682187
  0.0783820160629916  0.0829378066379254  0.8333237196860583
  0.5774028940274176  0.8334126335731075  0.7499105083303566
  0.5791053039030756  0.3333943361540440  0.4175368383637887
  0.9958623598784450  0.1690699127492269  0.1667919031048592
  0.6631873895691675  0.5009791781790546  0.9977756158382808
  0.9944802131590577  0.0024339712009752  0.3337389733272244
  0.4962371112045947  0.7486620572184114  0.0818373646870559
  0.6623745772193855  0.0022144797701868  0.3313304889237824
  0.6627524279226332  0.5817916971036065  0.5853689772513035
  0.5790418938657889  0.4970823387176181  0.2494085564186729
  0.8296968987138471  0.7494976104125186  0.0827230574942057
  0.4088511248173924  0.0825213874310711  0.3345907359652443
  0.1616264589350490  0.0853032711879076  0.9160559028875630
  0.4956384616764690  0.1678356868260730  0.3333672157801841
  0.7457465967254900  0.5830998072386492  0.3337649801403788
  0.0780419056126936  0.2500928753210669  0.1665170541038465
  0.4963542969451841  0.0012467206985854  0.6675943692532993
  0.5757055764776731  0.9174575545806742  0.3341133872696426
  0.8313369476863404  0.6707222147357189  0.5020836861290772
  0.5820405122116209  0.5810386854260883  0.1631705443320234
  0.4131956635203183  0.4990012872018606  0.9160876782837234
  0.4983049222909710  0.8335342039789463  0.3331448505026954
  0.6607160773921392  0.7497771795372905  0.2443398932967526
  0.5798898349195715  0.4157772708169511  0.8331769009281046
  0.2476540066053837  0.0844997902552633  0.1688863596999272
  0.8292748592375104  0.0875375761136014  0.2482752560002094
  0.4113656714308250  0.5811498065590796  0.5006462692588208
  0.4960866830633331  0.5001098312260396  0.6671209571301342
  0.4894397906868074  0.7488055813949452  0.5837298460247780
  0.9130916087439593  0.1665290734769408  0.4176607282620142
  0.1614097797795953  0.0027215910298991  0.3358575124193894
  0.6624957366877235  0.5823230649178271  0.4171785937180227
  0.4117902377531242  0.9179910578115318  0.8334141475282526
  0.5794305855715808  0.8336209770369262  0.0813935612068961
  0.9938542739945927  0.1667404413885136  0.6660250579896702
  0.1611796768706461  0.3327966722962986  0.3327499702996891
  0.6619671096067671  0.0006237218473390  0.6658145598826636
  0.9099122688406494  0.2499308728626771  0.9996216692985256
  0.9952477302416156  0.5000682856206229  0.1670890709403435
  0.6614686176347344  0.2503311116826677  0.2505453359804232
  0.9109912919458658  0.3343475167334011  0.0839061788040018
  0.4962811169454581  0.1671287926756323  0.9971032288000654
  0.8281930113422581  0.3322508442281846  0.4986008539232568
  0.5752196475112049  0.0005197353281551  0.4179823323661943
  0.9947592580899977  0.0856811771714231  0.5859492348432414
  0.9113009029157917  0.4986462481310066  0.4158591463876198
  0.8302992894119814  0.0001474031793061  0.8320160668741671
  0.5787829982824000  0.0002943887431401  0.7511622961912569
  0.0789592765027567  0.1672014022047951  0.7504239839040581
  0.3293891582464404  0.9185164832156874  0.0844272921889247
  0.5785144781644788  0.3304092434596269  0.5842192219833374
  0.6619362359226191  0.0837211084013106  0.5845501224144343
  0.1612962549136130  0.3336620924457550  0.4986835799755525
  0.8331689828425369  0.0841797087181410  0.4161428677311966
  0.2451567507119242  0.2512522502181762  0.5001159358813354
  0.9119745272164692  0.3333104410824747  0.4154382660159227
  0.9131255222031048  0.8348875677643756  0.5827749370357045
  0.9946363295514791  0.8340436114210583  0.3337206157824968
  0.9959464584709656  0.6688281287581085  0.5013800481231502
  0.0780137438958134  0.4158833240365281  0.5007849741759132
  0.3274702363834506  0.8322715954795742  0.6690816906428695
  0.9937693401832188  0.5837580015765983  0.5863468763447452
  0.6627958060988620  0.2512771401866686  0.0819587701258197
  0.6618774858049682  0.8328018927148740  0.9999312726895437
  0.0780496344459655  0.6663160543810264  0.4173502512101921
  0.3255717442127740  0.6660165055394658  0.6721178549989894
  0.4126357116699105  0.7494027219805867  0.0009704827163183
  0.5789550547619079  0.0850461491723432  0.1662757389423374
  0.4952667323440195  0.3319199567376562  0.9989752445771305
  0.5767771692261200  0.9170301090636256  0.8334356884435177
  0.4113271328382083  0.7496633887168794  0.5016563625532667
  0.9104847773387320  0.7504869612559176  0.0023005347509086
  0.9938040290535639  0.8350843596896794  0.9993528396755402
  0.9956781711274553  0.8346430986083562  0.1660505759140672
  0.7447793221026708  0.2493640019490988  0.3328707646201476
  0.5777691596563332  0.9180680249711742  0.5014274205417583
  0.6629419563621889  0.5010472085521976  0.6663821386609490
  0.1618243125817641  0.6657393576191957  0.0018041928805089
  0.2450379881460692  0.6665896096633932  0.2485224442644436
  0.9945317042796257  0.3349633546904316  0.6685827214570759
  0.9109227568483712  0.2504116942702019  0.8318041554850585
  0.1625367845935292  0.8325319026402110  0.3332212714962194
  0.7455049859465177  0.1665028139532729  0.9148265551551596
  0.6602148500947456  0.0838816881975689  0.2489867681387031
  0.4120851562607138  0.8355571875783203  0.2467714747513363
  0.9110408152617576  0.3334447353687794  0.2499627907753579
  0.8273883706226455  0.4168521328160236  0.7493486417980906
  0.1614779716491755  0.4155799898848397  0.0832625711277081
  0.8283418573677811  0.1684923439493973  0.9997108256808112
  0.0805556227212669  0.2513177769459442  0.4972942054363254
  0.9929861617288369  0.0851536876957044  0.9159365009369866
  0.9117707687019132  0.6670940340194773  0.2482121046292567
  0.7481402607201935  0.9189077440164479  0.3325183785077881
  0.2459844355070243  0.9191278402210549  0.5027035554754903
  0.9121323380907821  0.0844581569776890  0.9996072155754051
  0.9948339205625688  0.0841078443294554  0.4169870722911297
  0.3293089040618647  0.7457420711857501  0.9167320327430889
  0.0781804310953808  0.4166436535324380  0.3317259081999157
  0.9121991383969995  0.7497580322226307  0.1659863426284851
  0.7445137819231862  0.3330218547211897  0.0833572399780557
  0.1625494309762963  0.5843076647318175  0.7516766959672049
  0.3289749096457988  0.4163929672522222  0.7504560866007430
  0.7456054117245454  0.6672274681846697  0.2494325009946934
  0.4117504007588466  0.9999995451697254  0.4193197428895108
  0.8297565609156256  0.0024983964759888  0.3337007785381035
  0.0784256928402854  0.7500215037310244  0.8329304101086057
  0.9946122741313461  0.5029133437130049  0.9994769604972760
  0.8303844987600955  0.7513466657128935  0.5840758548547660
  0.0823614539392072  0.7507814257272606  0.6661045401944374
  0.8289117741412352  0.5855582051944476  0.9156230933055300
  0.9126692695717674  0.5841788900840488  0.8315773167914007
  0.6610522370137207  0.0009450973374094  0.0025687002545978
  0.4111957524820942  0.7487473173974013  0.8339654321312128
  0.1603933000669989  0.9977732058195463  0.2473213718727042
  0.6615479422734579  0.7487168091768354  0.3322980581172979
  0.2466451170148583  0.9176574223298490  0.9153579678037570
  0.7425831977501760  0.0847621450868101  0.4178056842933551
  0.4957614903097834  0.1671216519184297  0.0877469459221262
  0.9957188646572657  0.5816019613670338  0.4994891612360753
  0.6617277285785850  0.9163751364091249  0.3338953581429829
  0.3280163112269445  0.8333678387543952  0.9172455335389225
  0.2449578247744062  0.9168514467775313  0.4129087071504827
  0.5790050439783238  0.5795203064732806  0.7515827495205371
  0.4956624460607230  0.5831653329231764  0.1654056930467325
  0.0781570857037362  0.2512685261121009  0.5869505464797368
  0.4091750883895081  0.8345957866616434  0.3360441623986478
  0.7432506926002419  0.8307453967638826  0.3329912413134390
  0.5780590714369994  0.4201113646702678  0.5832578133643623
  0.8274378489029880  0.9997941377831397  0.2460069557118767
  0.6648765928353938  0.9133568312079866  0.8335707599242116
  0.1642436612292322  0.9989066175372100  0.0807833280297564
  0.2493295695830582  0.0856654333832940  0.0796727375828735
  0.4113655392680259  0.7470087357376741  0.2515119229922553
  0.9941264921999529  0.7528510554664207  0.6677963401055557
  0.0786555129475931  0.9148784233771415  0.0806148933261700
  0.5794618728926686  0.5850121407426829  0.2512244903649913
  0.4954345586814385  0.6666487797462983  0.4184536383336387
  0.3310146945695224  0.0862132698049755  0.9986061500172133
  0.3275608751322550  0.6659332064046976  0.4150590700287581
  0.3312789552396090  0.4993120363123595  0.2471137513719585
  0.5771315030366810  0.7512379476310934  0.5843131578569851
  0.3259062563193590  0.6658889153033054  0.5816028175706539
  0.6636080413219611  0.0003723491348624  0.9156605125726111
  0.1614966601402284  0.4954847077437449  0.5846470657974403
  0.7505705279661741  0.7493736369031390  0.4179537485595289
  0.6635141101729637  0.0008127427416610  0.4207859943049764
  0.8278247326952602  0.5834620560872382  0.4982461802862845
  0.9963821790332839  0.4155095909470325  0.0006183733143587
  0.6619829412475261  0.8343125404706792  0.5013742985636958
  0.8299187054142353  0.7498147199364020  0.2490559162202846
  0.9128261558322470  0.8335122754956743  0.2497371294513519
  0.8298932550561258  0.5833849496898698  0.4148608295300784
  0.6618948462085699  0.1682809629177552  0.1668473232181299
  0.9116819469763280  0.8338579559034260  0.0834008254431556
  0.6624107555076991  0.2499175173662370  0.9157982884896212
  0.5798527564571438  0.2511394851362699  0.1664987508823380
  0.7457161896264651  0.4163361294664542  0.9985268296083107
  0.7451581047152086  0.2504194129913863  0.9987996552118876
  0.1623972133869562  0.5829739522063609  0.2491485255113143
  0.7461212349989264  0.6660035435890703  0.0827059445819626
  0.9951584877233642  0.9164178441355494  0.2509276780753698
  0.9960417526885859  0.7502870713045252  0.2490012439753818
  0.8293140146335923  0.9156022678776388  0.2489387878393984
  0.8291368837011827  0.9168814114283343  0.5838538111776920
  0.6629538438784833  0.1670964890099082  0.9989497639403785
  0.0791563820313891  0.6666789431941266  0.5835833058954416
  0.7446766775508274  0.2506895351350490  0.1673217453043992
  0.9117870908637608  0.2514760601715970  0.6670398122787536
  0.9936964602610866  0.2495812220219273  0.9153257040511342
  0.8279097033078129  0.2501873992168890  0.9148956153905250
  0.6616848648148085  0.0846416203376941  0.0828690216168781
  0.7453319109361124  0.4981134316342349  0.0815959813779313
  0.8301777637031115  0.9180665707930130  0.4164697300595145
  0.6622749998924015  0.6661295627404351  0.5013897236776671
  0.6609778329902486  0.0013945625504071  0.1658759378054726
  0.8280557391921126  0.2513574113473613  0.0834585506112874
  0.8286176517877798  0.8327670376829577  0.1658167826664021
  0.9961173190141085  0.2507977559887705  0.4162788318204084
  0.6630965463436638  0.3336788136636266  0.9988014760646300
  0.4939535921856988  0.7502106271168608  0.7507538817117505
  0.4960458521858443  0.2503097366464783  0.9154493993032564
  0.6617001068163404  0.8308875481922929  0.8331412713964010
  0.5782731765865310  0.9168893418912276  0.6675255370535242
  0.8292000875011787  0.8340361748870333  0.6669144063402815
  0.9122634779900894  0.5836734015022832  0.1665626721809719
  0.9126134087523001  0.9181572593439451  0.5007242838392533
  0.9941230216586573  0.0010149994457992  0.9982819398549833
  0.8287547325040759  0.9167108848260421  0.7499426271759808
  0.5781218415477780  0.7499166905757656  0.6681328854879469
  0.4938755680845144  0.8338005728802167  0.5018741861090119
  0.6590554102609737  0.8335112210226469  0.3325094426922497
  0.7461632953568900  0.6675411285645019  0.7499852967159761
  0.3301484079535917  0.8334409046688860  0.0010743745464021
  0.4939020436009214  0.7495696550816311  0.9165016153118211
  0.4947692322998120  0.6664413410753794  0.8343467036658352
  0.7457769758150661  0.9167748697807528  0.6666523613714141
  0.4943089236354921  0.6667059373204239  0.6668955269381117
  0.4093770799622158  0.6650678910711956  0.5856795018014829
  0.5767683137924874  0.7494938617748846  0.3327916548379478
  0.4113063099369358  0.7494291149234807  0.3345274166868103
  0.4944442244831108  0.5825862581831321  0.2501697249196623
  0.6626754975382525  0.8337085298233574  0.1649747701466057
  0.8287092842780893  0.2506648503618091  0.5829628600250941
  0.7447649133822081  0.0838684332429354  0.6666350895992474
  0.5796071736322810  0.6654470227422257  0.5846960089132208
  0.6622608708329453  0.9173509803112453  0.0832822238448415
  0.8299286747712598  0.1669198567972312  0.5008115631435205
  0.7451014162897633  0.1673047621081540  0.7494140876353672
  0.7459347269332250  0.7505354264787089  0.5020844170284497
  0.8291996886742644  0.1673341932842806  0.6661483203285944
  0.5788893131692884  0.2502399904495164  0.6671446187870921
  0.6614446432245658  0.1677155549389386  0.6660209981761834
  0.9116383223138098  0.7517748311344555  0.6671033253201879
  0.7444985286449179  0.4171308693850966  0.8329018285297171
  0.7457762968919633  0.4161419370460753  0.4996506074240651
  0.8297514993192142  0.6679423819796972  0.8324705071318476
  0.6625171918276109  0.2507308127531143  0.5834909626552021
  0.7454818341060885  0.7497948640338485  0.9995212843296937
  0.8288315426782026  0.2497061441299343  0.2499062316697886
  0.8290057782114234  0.7494572842606637  0.9161504500434363
  0.3292568813788564  0.7490675969401338  0.0824484248188020
  0.7462479766311667  0.0843032272814554  0.5026521030263864
  0.3291356722812919  0.0853859548753860  0.9134373202737532
  0.5798363913910672  0.6661558024295936  0.4181766674405711
  0.1612427351130744  0.5829010137578571  0.9167550212338736
  0.9113687136707267  0.2505579181251338  0.1663875253811634
  0.7459977428783409  0.7504279680435882  0.6671899823967337
  0.7453984185614508  0.6655222913151128  0.4177717389037667
  0.7456982163317020  0.9177399790147257  0.0004273484316452
  0.6618314074061815  0.9164799080509642  0.4194933347341525
  0.8290923402648994  0.0848357597425768  0.0828276641720315
  0.8289224953035893  0.9170384625752923  0.9164660811250410
  0.7440105228353447  0.0019060441893667  0.2478167305798620
  0.7449924589370189  0.0853508002041632  0.1663302798654201
  0.7465660766689325  0.8325608540071540  0.9164272551366197
  0.7461266753233510  0.0840858883655006  0.9998803354493926
  0.6620822778988770  0.6681164087406819  0.8332227717866602
  0.6620603188593617  0.8327570802382213  0.6671236747536889
  0.9127246268382294  0.0852560918144591  0.1658156959967896
  0.8301389157777754  0.0012452835143241  0.5013629325689707
  0.6589306588530240  0.0851013333401894  0.4173285671799553
  0.9124666950594588  0.1678890857038601  0.2489819903003050
  0.9106239014826383  0.5824808383826890  0.6672873295958437
  0.6622186291623826  0.3332511092089587  0.1663964184622107
  0.5802028613720729  0.4156123087457909  0.9985604089497369
  0.4955941995766076  0.3339034565725399  0.1659226252113926
  0.4955202485224658  0.4161438088206112  0.0808832567519239
  0.5802907221283500  0.1678662858463932  0.0829096634558774
  0.4949559856177993  0.2515009484099119  0.2505212974534457
  0.4961292501683389  0.4161797498363460  0.4167727794411665
  0.5799519666362929  0.3337724378960497  0.2497215372795552
  0.4948357035796932  0.5816014417647073  0.4166802291696341
  0.4122197328769096  0.2508061901277647  0.6674840166203860
  0.5786001224572462  0.4165512741510979  0.4985915347157851
  0.3283443092786207  0.1681533331031930  0.8326187682333932
  0.0792121597773656  0.7501435112923716  0.3336907404470949
  0.5781107153990451  0.7500695557455886  0.8328477785353522
  0.3293775488493270  0.8332262890525117  0.8326788941801947
  0.3273234672698838  0.0849170595940767  0.7497668724059816
  0.7460849944234008  0.8351753418850543  0.4184971201756136
  0.4967529493546996  0.9174152418876872  0.0824934564420190
  0.6614240402845443  0.0005148319306397  0.5034267851965699
  0.7482909747245482  0.0008310614286904  0.9163649449880589
  0.8294161002085061  0.8332820948985680  0.9996955379911858
  0.0780179324308375  0.9168677638531056  0.8328617103932757
  0.8326168972786218  0.7503803943744709  0.4164121254852126
  0.8294018851784544  0.6666197755783488  0.3323955340456154
  0.9131383874981874  0.7499896612496086  0.3324190833641620
  0.7456325676483673  0.3331339529332059  0.5828013812105823
  0.8301080147037813  0.8345255813813666  0.5002335661141839
  0.0793749055547755  0.0008212762930804  0.5841869625805430
  0.9123324077065796  0.9171564814450583  0.6662665478139115
  0.8290908639476876  0.5832057736654557  0.5845186942185800
  0.5771767533159231  0.0841890102452654  0.5015481148851332
  0.5789928805894003  0.6662749861642528  0.0818772226408580
  0.7454093473557025  0.1683299843789550  0.4168324883427687
  0.9117435564708040  0.0819531113124108  0.6678497347670882
  0.9111298611394834  0.3330776214091538  0.9152474563439820
  0.9113521010489974  0.8323488543361228  0.9158944551468794
  0.9119324810282403  0.9169058120625352  0.8332049222210425
  0.8294955018157799  0.8324977319178956  0.8329188704187334
  0.9114503133303966  0.0005923440647346  0.9160600359149446
  0.4112838281618151  0.9178035365807498  0.6676693855108352
  0.6614698938328677  0.1676152574814224  0.5011654266966691
  0.7450507737095083  0.1676426375731396  0.0831896596208519
  0.9955706624335242  0.0850401100342581  0.2490853220573707
  0.4126949698224066  0.0844095135448002  0.1673508229171345
  0.6633519688921681  0.0846393713901571  0.9149769041600776
  0.7455386418212488  0.0011571855289923  0.0835571154064389
  0.4135259156686972  0.0024349341484640  0.9155229507636156
  0.4961215348141947  0.7498566673339169  0.2476612805242182
  0.5778950364144166  0.8337425202858123  0.2471874389650218
  0.4958889028585370  0.9174863133197407  0.2494495155237322
  0.4951225901396323  0.8342847438670273  0.1652072375611021
  0.5793277778711657  0.9179205288471045  0.9992174893408802
  0.4950958664216393  0.8337019880279988  0.9995058794973563
  0.4124103064687528  0.9179183617944542  0.9999932642379571
  0.3289850038256091  0.2510630145483918  0.9156136473024375
  0.9133020995340692  0.9164957876552415  0.1668382910492754
  0.8291776120554482  0.4168603574008244  0.2500405584911493
  0.6626911373580989  0.6662703612060245  0.1644457513878409
  0.6643895496693530  0.5833023724034528  0.2496227549870219
  0.9125328151496734  0.5003316397840365  0.2494280000952733
  0.4115868423713048  0.0848695279223789  0.6671025976276399
  0.2451828394923398  0.0848434602427578  0.6671695126296889
  0.1627250712655189  0.0839465838858245  0.7504989787175330
  0.2451338624867885  0.0007701866736499  0.7497548202678219
  0.0779140782900448  0.1681516365777921  0.0823804226886654
  0.1617843757627714  0.2508691217747051  0.0825581724740851
  0.3318178893689371  0.0848762260637781  0.0849934982018116
  0.3294483438834601  0.0017513869214352  0.8329298184872040
  0.2454581165753289  0.3334869417800048  0.9159821397037413
  0.2451458061460515  0.2516153250803070  0.9992908415188589
  0.0783116706684452  0.0853755389069236  0.1662169824449547
  0.0780615650170035  0.4168881355576877  0.8327105092876590
  0.7443191533343132  0.5830362653886381  0.5004861174526589
  0.8282163591641180  0.4170440484597667  0.9153445603231198
  0.9940405903995680  0.3332383174332237  0.8325696966680993
  0.8286826441862757  0.5010653757747004  0.8328861373634883
  0.8281397151711932  0.5005308297000971  0.9988333473998918
  0.7464029241128924  0.7482467176598482  0.3323736446257671
  0.9955071059160016  0.5833679145488451  0.0841330264312106
  0.6630991843713128  0.6674499442316715  0.6667867455336799
  0.8290595593354404  0.0013132188490793  0.1645401873814282
  0.9123453644463206  0.0007061281875448  0.0826169656571328
  0.5791726187506450  0.4978247102630018  0.7498892848120128
  0.0785332349246232  0.0013231683030259  0.4171436500172002
  0.0795591717735404  0.1669523122574211  0.4166135057375420
  0.0789120724852796  0.1665806286647798  0.5847809503499464
  0.2460227761356700  0.3341104937630563  0.4157970243195517
  0.3287186524342214  0.2514588114358206  0.5843757388897380
  0.1630744339480822  0.2514581579068402  0.5841461323725647
  0.2451043989022969  0.3339120927493608  0.7500757561232034
  0.3279405328602135  0.2513855476994461  0.7505351543151069
  0.1619003599324800  0.1674909987755432  0.8332254520043374
  0.2451140639323728  0.3333579482712469  0.0824373636401519
  0.4112132483512975  0.4991006706038710  0.5848462208859901
  0.2454258646389313  0.4163313264538060  0.3326176242010753
  0.3289161883596127  0.6648243720461803  0.9996549926202560
  0.4115844296501171  0.6647680530309447  0.0818090453493826
  0.1616037811392837  0.2504531064801431  0.9160574984132818