Cr H  Ni
 1.0000000000000000
    21.0260190080379381    0.0000000000000000    0.0000000000000000
     0.0000000000000000   21.0260190080379381    0.0000000000000000
     0.0000000000000000    0.0000000000000000   21.0260190080379381
 Cr  H   Ni 
 259  35 605
Direct
  0.5820643962103786  0.9189100164520767  0.0021744815281583
  0.3311818805530908  0.3356118383302841 -0.0024714044321773
  0.7471838200898745  0.3372285299074986  0.9194026146578417
  0.4145618629415642  0.5820221467168151  0.1703255775829509
  0.3294718109709104  0.3353340143601570  0.3337437136475456
  0.3312999477177136  0.0856737579107696  0.2516940485757406
  0.5844176438009138  0.5020951856233659  0.2516883331666310
  0.5798769507291658  0.3357707770930328  0.2549709076748783
  0.1640453000309744  0.0016524701463982  0.8355616023551380
  0.3331431537301758  0.5019778561294606  0.6656260052527965
  0.1656779851798577  0.3346784301260629  0.3348316294083205
 -0.0025337269881017  0.2528610587841820  0.7524163124185071
  0.1628757182897961  0.0845849227268221  0.9181762084728414
  0.4992078807836012  0.4177441898639943  0.5847203664720299
  0.7490551760233176  0.4183578644865839  0.3338615284869362
  0.8303831720704098  0.5035267015525963  0.0018532689772861
  0.2488131169382438  0.2523683051008566 -0.0019873041749008
  0.8322641139625579  0.7519439191199995  0.9193925686959422
  0.5832092274948879  0.5008124868147160  0.5841349371571340
  0.7481709610131966  0.1684171667494548  0.2507927089291681
  0.6644350335733474  0.2531922745082750  0.4161027796535587
  0.9153185521494632  0.3360243255230028  0.9205374949005667
  0.1605328714787634  0.6690950867616963  0.0024845537962022
  0.6671466770336981  0.4145143029463653  0.9185504419929957
  0.4976549339263953  0.4178033830601677  0.7528198943550579
  0.2472292564802276  0.5894810320988256  0.8341298315589627
  0.4145135838894511  0.5021670047857174  0.4186640304213968
  0.1662043587021992  0.0881106894342562  0.2506773526269531
  0.5817424592069326  0.5002723164209826  0.7512607877739863
  0.7474098959956089  0.3366263232160936  0.0842452082270722
  0.2490938777766609  0.2532859049462481  0.6703532049525021
  0.3312324743955031  0.3353043075437613  0.1732555911320851
  0.7478568533602019  0.5841140427486543  0.8347355421142117
  0.6634729301676188  0.4168335760096096  0.5844950864967853
  0.2461457222997760  0.5851343410406420  0.1689621590680339
 -0.0013647576098605  0.5861466043843460  0.7530676811201839
  0.7483214469184182  0.3346437636856389  0.7528575979316605
  0.4150135406889185  0.5035241773845923  0.9175843683681175
  0.8307672702055066  0.5038279650700191  0.5009829522540085
  0.4976687808606933  0.4189776580951667  0.0861481743566234
  0.4975475181565401  0.1695215971738767  0.6729521266969447
 -0.0011628968757950  0.5841903120867519  0.4183382678106253
  0.3298058152549860  0.0858873447746457  0.7503063170336457
  0.4166139939514495  0.2523979940406100  0.6704985034012281
  0.2486050301574782  0.2528309254588271  0.5023339399263163
  0.0798023751058224  0.2516100749478685  0.8359505706578354
  0.2465404096178230  0.9198917262070969  0.3409976867757564
  0.0814997400744089  0.0016598851401869  0.7533267016916473
  0.6653281833843577  0.1678185133357038  0.8363751393714026
  0.4984955850645752  0.7510751008959686  0.2539340163728009
  0.9157494082412385  0.0023359311651403  0.9193650392604008
  0.0820926019782223  0.9186589064260696  0.0009208128343894
  0.4165611989789977  0.5868286158645224  0.8338509689879404
  0.5811279519098694  0.2515124077930367  0.0009947541682068
  0.4157519488649294  0.3346151927958865  0.7521461202473672
  0.3303631336236636  0.7541188255442256  0.0843060483122506
  0.8325506741630895  0.1661543026853505  0.5032540614092702
  0.2468693130191634  0.5036653611525239  0.2511826148427407
  0.0801939209138172  0.1703529661225978  0.7531045633315502
  0.4156285718334130  0.0858326786323863  0.1673340719633786
  0.7463773622189256  0.3369695520566266  0.5838277854920605
  0.7470750899553245  0.0832172043583203  0.5007045846874491
  0.2472457801469126  0.3347387880925520  0.2515782292862323
  0.1638157223750787  0.0874426266682652  0.4200126317765602
  0.2450189863515904  0.5034309403166716  0.7520198429310482
  0.1650788250549612  0.3353420238278664  0.1687201044558872
  0.1650888136377982  0.8343916427715764  0.8342275919382601
  0.2490505777038085  0.9191070646611939  0.6687727894945127
 -0.0009063244841123  0.0034615923729283  0.5031214521319178
  0.2484069900123067  0.5039767674670147  0.9178845433851039
  0.3321855912752623  0.5855783458526335  0.5864646510267070
  0.3314731113347353  0.6678794173906614  0.5035312034894835
  0.6639600022815438  0.0862919168203095  0.4184704452205573
  0.8307083536566648  0.0025758465666742  0.3334798907024631
  0.9145017551018368  0.0865658650420916  0.1693627034824778
  0.9133206646206331  0.9206152430990139  0.0008188781792533
 -0.0027243506234835  0.5862816900425932  0.2510241311216648
  0.7498543333481309  0.0018017781786491  0.2523631927486248
  0.0823022961935612  0.7510802029589028  0.0026349665747439
  0.0781933820003633  0.4191129613685616  0.5042706214462351
  0.5006245113559469  0.8346142283437744  0.3350312554030219
  0.1672179433605613  0.5840120640838455  0.2504303021823527
  0.2477773857504313  0.9194105761154234  0.1649459770518819
  0.1624689707531435  0.7515681181499700  0.2512280856879531
  0.7495987719732572  0.7526117514682896  0.5025606824312341
  0.6645165601777091  0.9176422689152978  0.4144946258375191
  0.4149188643358535  0.5875293119567646  0.0021026750776928
  0.2466861846609545  0.7514061473776058  0.8343081988580165
  0.1643196867493666  0.6706259814008797  0.8350965571565953
  0.6638937964045016  0.9194643928277794  0.5885346490821577
  0.0812297787787606  0.0014425980992583  0.9173718984445711
  0.7486902964315062  0.9201222999747791  0.8355631096303580
  0.7487887838700457  0.0021359703612150  0.7535008564531950
  0.0811787654109523  0.5018913635015583  0.9181059336213504
  0.0811905544399433  0.9212985693020141  0.5013705573999625
  0.3320321612801629  0.7533665356898769  0.9181737920084286
  0.9155525851056786  0.2553368383566680  0.1679383500067460
  0.3302590363821247  0.9174474991519475  0.7479285277272874
  0.9154767726422348  0.0855796458968213  0.5022050079004937
  0.4149271396456090  0.8357503497368460  0.5851990168677923
  0.4152422979607325  0.6678128671675060  0.7523237928662209
  0.2483550266585601  0.6681518556185937  0.7512726617611492
 -0.0032802455153294  0.4188403871313328  0.4193040437087673
  0.0800308754454675  0.4198791856480275  0.8363998629189859
  0.1639799033530427  0.9216822257004627  0.4197053044181700
  0.2481595862166564  0.5035922910459132  0.4193177427829008
  0.9147873009569858  0.7522941418965835  0.5018101357648398
  0.0820973541152662  0.2518745383415377  0.3354119341465787
  0.4149954711934571  0.8362933867540223  0.9193941681931224
  0.3302422400590705  0.0840816245500840  0.9181446384345657
  0.4143920322704377  0.0038009476556646  0.5855157098836551
  0.3321826681901708  0.0865365576247887  0.5849468207928279
  0.1654219143271229  0.5039566547184079  0.6718573152817819
 -0.0004413794935113  0.0018763358580441  0.8345999888491009
  0.9150203121753783  0.0882934339886255  0.6700997609704229
  0.4974947557848254  0.2508668149182222  0.9183442417375565
  0.3313390715576322  0.6688837554252420  0.3360013629957256
  0.8320029327968984  0.1693634021412903  0.8370093629023651
  0.7494626992302136  0.5831465829484016  0.5022936184958774
  0.5830763096704465  0.6682129973504751  0.5837826171399064
  0.2478623412793603  0.5817296400214202  0.0012583192904119
  0.5818075108842763  0.7514616411542470  0.5026832483986494
  0.2474700950420915  0.2529249261788097  0.8350374343216279
 -0.0026257482673161  0.2527197326471956  0.5862867133522036
  0.2482666317777041  0.1651010063240572  0.0835867319238818
  0.2476808930857749  0.0853598383626075  0.6703422966118778
  0.4141721903779523  0.9185815995003146  0.1682738463883984
  0.8316607174278167  0.5022611289091168  0.8356810550289725
  0.4980700934407367  0.7538138774107455  0.9185683029463938
  0.5827132618168611  0.5870301386220582  0.8343455843290308
  0.7480735056043184  0.4182946944422202  0.5010125223097627
  0.6658443265100983  0.0856072946886606  0.5861388172036818
  0.9157567342261453  0.7530572843011515  0.6667516437598239
  0.8322051499272354  0.9187953217081656  0.5854231025722761
  0.9159813574547687  0.8368999206081300  0.4192029131947954
  0.9165876391016756  0.3319939704800706  0.5847590326033359
  0.6666313544298401  0.7510845198509509  0.0853980092277260
  0.4981737728794972  0.3352268500836956  0.5001906130840871
  0.5817355350490032  0.5855746605189076  0.0029272289174876
  0.4994506819848556  0.5856685003741197  0.5840999519201827
  0.5812012861978826  0.8405258887881550  0.7525420470245201
  0.3318111703935906  0.4187942147705366  0.5851940436380562
  0.5821460103980063  0.6656264720826378  0.7525521596286731
  0.6609037464848029  0.4996597561555983  0.6674765574619206
 -0.0025967664139055  0.1690344316836658  0.8360999071280609
  0.8322003449745674  0.1681013564614056  0.0024395745415900
  0.3309062603236705  0.0031793343762183  0.5035969251036038
  0.3330554933956452  0.0861385586615890  0.4191546717676961
  0.7482143735747219  0.5031321423199969  0.2518173619192032
  0.7485027239842332  0.5858405199599064  0.3337784031073847
 -0.0033863883875490  0.1682617036036220  0.0011802922127007
  0.0818641817146113  0.1697808104137175  0.5858909763856567
  0.0814634755184129  0.2520826373980130  0.1668781246884027
  0.3288248316577474  0.5036516954877921  0.0017580425556055
  0.3329696960084619  0.8358576122186637  0.0027771993265390
  0.8315195510899368  0.2519620152052853  0.4148074672867522
  0.5810660349640127  0.2524765043179822  0.5009308479384184
  0.4150335031871473  0.2523247269587541  0.0008088838438312
  0.5829191798729356  0.9185041039804760  0.1689966964893014
  0.9172042038283226  0.6682597981472621  0.2520883751997731
  0.9151878739212087  0.3354900823235497  0.7524578501443407
  0.5816481944779351  0.2526421225840387  0.6712056507484441
  0.7479166478127383  0.0038425827787764  0.5861189194353327
 -0.0029127004594411  0.3368005694267174  0.0003360087287697
 -0.0022458950294215  0.0864412891232251  0.2503047956335828
  0.4987580983123729  0.7520017277732710  0.0853347893823704
  0.4139641970109973  0.8345699589140716  0.4216555575165588
  0.4989115842482671  0.5862147559856159  0.4169084887511897
  0.0814934677060183  0.9195581156553628  0.3351349680692455
  0.7465339745401056  0.1671238545410810  0.5872257087721117
  0.4985883754699187  0.6690664147732029  0.3358125009935877
  0.4114610095310198  0.5041645863457344  0.2506920218037378
  0.6663504258137082  0.7516512451115733  0.9169937050332976
  0.5803569792848200  0.3345491387853719  0.7531809267659847
  0.0794662686456738  0.9184084060433358  0.1704087414189698
  0.9168513106534802  0.0883003972774159  0.3346322297995917
  0.6639911078273077  0.6683222209339568  0.1678712770188636
  0.7488647281823801  0.6683764563549506  0.2556976960876322
  0.7503774499289430  0.5817612221311110  0.1700262167668928
  0.4968819201951964  0.0856536338980076  0.0869304287853094
  0.0000129983883654  0.8341868938604072  0.3340276330391352
  0.2483755019075143  0.0005388463156163  0.0857371979222501
 -0.0015590903758812  0.5848004189768691  0.0849003848589324
  0.9158879910961697  0.6684338813874953  0.4195174473942915
  0.6615001519380248  0.6678382392993015  0.6677111441626292
  0.8330522855569902  0.8368860352477361  0.6681424000610759
  0.9167605813281873  0.3350121613592986  0.2508581967772398
  0.5833687146930352  0.9158737884211590  0.3351497376956490
 -0.0008641909863245  0.8340365999904484  0.6680134268527045
  0.9147722458316513  0.7512149014638516  0.8370357982966128
  0.8328752347106954  0.9198950259571165  0.9187795335378114
 -0.0028607742828524  0.3358809563221410  0.1682048150734032
  0.4963284881389284  0.0015088829941020  0.3320361059421161
  0.0816726723502149  0.4179487974011632  0.3325458189423802
  0.0786868564845790  0.4193230287815198  0.6694669839419931
  0.6659861273143686  0.0855837825119048  0.9184274904682073
 -0.0017152246877525  0.3351718904653611  0.5022542880540980
 -0.0017206385845860  0.5015536485442280  0.5010211903621437
 -0.0017802482250796  0.1682146070870575  0.3341407477875164
  0.4157624776490911  0.2527082655333052  0.5001079316075731
  0.2472430932372924  0.8355576105788526  0.0849784771064903
  0.7488872521004537  0.8351903010725018  0.2511344473858103
  0.9146972378108943  0.1686458507250375  0.9210382955003031
  0.0800359606290459  0.8348692441600455  0.7502899519663329
  0.8348613253071181  0.7507016832686603  0.0843734027113804
  0.8325514570065318  0.7529605729803761  0.5851001292880698
  0.3310681594002836  0.8309746335095131  0.8369846054361544
  0.1649165461676418  0.7480546337773101  0.4202482184412248
  0.2479205734941394  0.7505596344097666  0.6688352525985075
  0.1664416761145625  0.5850767469706535  0.4185762951316738
  0.9147140429732016  0.6691142842035618  0.0836092257016010
  0.7469519975812968  0.1690317256471048  0.0865802687198932
  0.9143707131787654  0.6695290178693981  0.9188828800621842
  0.4987428221539341  0.1722515740079604  0.4984522847956713
  0.9152063762635212  0.0860329133155914  0.0022055008201669
  0.9173488698702491  0.8361900462210864  0.2529540293936879
  0.3318746069353387  0.9159649961977243  0.9225357219575713
  0.4967897783635650  0.8359044236671840  0.6672502221686161
  0.2464691928784652  0.9190215033779495  0.5015791570275024
  0.7496004281484575  0.0002392238740197  0.9183183514726351
  0.3308057159444056  0.0032109145007276  0.3371232899261180
  0.4981963498969806  0.8351675405531658  0.0025301662104488
  0.0800908225684135  0.7519663433412397  0.6681623967210399
  0.7487439964315972  0.9204768907413670  0.0021288761697525
  0.0789295087329333  0.5031688083515564  0.0853872809009013
  0.0801641334905573  0.1700715763166120  0.0840988453746937
  0.0000096936779039  0.9218964904339350  0.2538121753472405
  0.6653505046068671  0.0866038056197081  0.7537420154310625
  0.8314591246398751  0.5028891569733184  0.1696392728037897
  0.1645426976818018  0.0874090355601563  0.5876944479792287
  0.2493136009146628  0.3346380804474793  0.7525391534674337
  0.5828860758790354  0.0865895945931180  0.5012407474003140
  0.4140292282009797  0.2521718543347696  0.1690361046056972
  0.6659268497832191  0.4177391510596142  0.0857904189405930
  0.5807478557811296  0.1697078282624634  0.2512794073151872
  0.7491247557428996  0.5830637992663176  0.0036659679007790
  0.5799963043528876  0.9195917760330585  0.8346467640973408
  0.6657823788168793  0.1700546995598435  0.1677942353741938
 -0.0006971883100411  0.8346117358034632  0.1682217913484982
 -0.0012787183888153  0.5032315048371609  0.1680063219058748
  0.6667570369719529  0.0869917036029298  0.0858933740815632
  0.1648285508784764  0.3357167891155473  0.0001393330064799
  0.9177929517047153  0.9169825276110637  0.1710741710239681
 -0.0003340755130736  0.3344955274427813  0.3365957291660160
  0.4980010127815521  0.4190499812282238  0.9181058015981842
  0.9157228043032587  0.7514078270078286 -0.0000445347124640
  0.4975678942226085  0.1680810173074163  0.8372671904190188
  0.6670156961203785  0.6682381177079039  0.3349263141587245
  0.7497738935792667  0.3377248974650843  0.2529101483699717
  0.7465650255750692  0.7516082436809600  0.8387849733425702
 -0.0011233908968387  0.5850479474228475  0.5847113701553032
  0.4974907074017125  0.0859472664095273  0.9188783229485775
  0.4972921598777948  0.0027926701298929  0.6687598423783664
  0.5790608918755554  0.9185579384916676  0.5023488669711171
  0.4137717230981095  0.2530790018072249  0.3345581919720134
  0.6653024801553946  0.6681008798494278  0.8359655853358084
  0.8302346632045470  0.5847620391108413  0.5828265538366580
  0.2474969273670286  0.1676927558251083  0.2528234062641513
  0.8330454217242490  0.9192036413485706  0.4180947515487829
  0.1650051774094827  0.8353467525893181  0.4196683827359587
  0.1698325022986676  0.4171425727051167  0.5026117398981609
  0.7484166512687468  0.7539820200352352  0.7481971763949494
  0.1677940749555592  0.4153060488656776  0.6701586862623573
  0.2499571752598149  0.6710556496103880  0.0031231203930388
  0.0838385456554117  0.4187342174357807  0.4188001929290688
  0.2474596495922993  0.2536031638252550  0.0860298365860022
  0.5809982187906525  0.7528275721223247  0.7516792228860171
 -0.0861517826463806  0.4214648604367309  0.5860507241999537
  0.8326533837309138  0.6676391748515867  0.7516257275095201
  0.7510330587181668  0.6695179840288041  0.1679553524640260
  0.4148056619952746  0.6724385227244878  0.1696067044047284
  0.7523907593384713  0.6695795859293219  0.6665307451727929
  0.3342962510379188  0.5017736082432678  0.7538044477592825
  0.4114203066692145  0.8353293424342327  0.3328227598987971
  0.6661140682903566  0.9186104184148450  0.5018035639879852
  0.1649577277612943  0.5030723589038726  0.5823005434376052
  0.3318962845640318  0.3369267314351945  0.0850023066288669
  0.4988905952675802  0.1684245001321206  0.5855980476948556
  0.9151555256027125  0.5018176718915567  0.6700686672516127
  0.7508440879740054  0.5002721431845988  0.6689387368037106
  0.5829916948746746  0.0080563658717923  0.1674949727180871
  0.2527899859407779  0.7524641726765773  0.2525779943941058
  0.5836660554815328  0.8293018678110389  0.1680451374899341
  0.5852242168248859  0.0053319480090659  0.3347600144908722
  0.7461150817144135  0.1704052349932682  0.5000525645657737
  0.4985057880126368  0.0023331299945091  0.4222620271625395
  0.3313584468764467  0.9194331706678504  0.8356084586150735
  0.2477920588013479  0.9191357527029652  0.2531999208920767
  0.5802083706286434  0.3351763333897118  0.1645160494405417
  0.4166384014731837  0.5001838248155478  0.0044282532892627
  0.4975073591533098  0.5015690711736548  0.2519493847513266
  0.8318800725065558  0.2547446293830560  0.5046359964658736
  0.6644404629837524  0.5044873473350816  0.9185603709243517
  0.9164333157725731 -0.0013939273671592  0.6696395128311412
 -0.0011393463096757  0.6686255192014756  0.3358847624712303
  0.7498274707807021  0.7526785807308540  0.3350121550377076
  0.9156044156964485  0.7519372927336779  0.1691551637118231
  0.6645305819755428  0.0027502314583013  0.8360220838940841
  0.6660621035649528  0.7512354037356915  0.2519782531552439
  0.6653036202181128  0.1686060315198020  0.0024909581679110
  0.6626952956605392  0.1700617956452123  0.5007489113883027
  0.6648392889068621  0.9201654976315692  0.7524233334232103
  0.6648327267304402  0.0028128191481079  0.6698938615339159
  0.9151770360042017  0.5854208069273263  0.1684209103204165
  0.8315724374090884  0.0848139544524018  0.5866800342871703
  0.9158040858820042  0.7520259022176062  0.3361399807055184
  0.7490305590924299  0.7520444947884893  0.0019666155822000
  0.5816563256842403  0.0031311408681306  0.9192594814142419
  0.7486442865993307  0.0855677076350405  0.6700654809965850
  0.6640080615237322  0.0026209522608417  0.5009232021314746
  0.8315076696328157  0.6685177732723202  0.5014755422017847
  0.7477881943167842  0.5014510451240851  0.7534920189047065
  0.8343044957546391  0.6689978372489864  0.6658007281277404
  0.9144858221520318  0.4158957915134689  0.6702094046220245
  0.7485246914400911  0.0862451426523987  0.3343864283958299
  0.9150422832220182  0.5043173675059270  0.5835782188527728
  0.8325861663488691  0.7524616755346640  0.4188917332278559
 -0.0008960242751965  0.8360164451320484  0.5011826093205741
  0.4977562527275122  0.8361009325117524  0.8352624930071296
  0.7480946885813811  0.2530485085605998  0.3333196633836233
  0.7479118697371312  0.2526321636984443  0.6699057687962290
  0.8316677378503833  0.8355186202610372  0.8365589481663732
  0.4994687152280047  0.5023374289130368  0.8358563840904923
 -0.0020987687589618  0.2520800988085498  0.4188540587246501
  0.8330637130805345  0.6694404263550273  0.3355673836046527
  0.8312054869893017  0.1686722229318144  0.6692772302199993
  0.9152387009663512  0.6683073455355968  0.5836527351494614
  0.9152057678703053  0.1695814463789058  0.7539417898843971
  0.8322176832490534  0.0860713773005014  0.7531999010998973
  0.5825044909919734  0.8343156919730355  0.2527137937531655
  0.6642516716181710  0.5014579581266549  0.8340773120479272
  0.8318488311540262  0.1691463003548623  0.3340211947400862
  0.6654517551114205  0.2529544772207357  0.2517239813635377
  0.5811203149735883  0.1688603328342421  0.0845106907375822
  0.8309209234850592  0.6669798032490616  0.0017498896956317
  0.8313932782285217  0.5833319740470788  0.7528986872175875
  0.8337537088591718  0.7537444528304493  0.7525615911129101
  0.9156169987669970  0.9200967174689254  0.3349303786507246
  0.6681201831623010  0.0023695176520648  0.3346135235862724
  0.5811017605475934  0.8357916445140939  0.5853233402419900
  0.4979543577634559  0.9189334617230650  0.5858062370081021
  0.8325010232526027  0.0857688874357832  0.4176280643573367
  0.4989903215570542  0.6683179116459517  0.8356836392275651
  0.6642996756473835  0.8370816239353808  0.6687338743364458
  0.6654437770842766  0.8348285478939412  0.5018927463606679
  0.4994073099253311  0.6682775765900267  0.6680337382659971
  0.4984879144638160  0.7515112203985966  0.5849108397199112
  0.4983297268584030  0.6680960266369969  0.5014390882028257
  0.4994649808594920  0.9186838096872577  0.0858774926837834
  0.5816544990645668  0.7527223736897488  0.8367263177571582
  0.9161535344238123  0.6688459950501791  0.7522974169178894
  0.7488881092571888  0.0019938564979310  0.4178573326500146
  0.6659246636171526  0.2528848022506833  0.0853821593110308
  0.6649518322977204  0.3346710029587196  0.8355368119759699
  0.6649514230137636  0.1692065328947393  0.6702300619140866
  0.7480130840134995  0.6688336418197173  0.5829784126019362
  0.6661997502177801  0.7518650808005407  0.4189408798544355
  0.5824988596989705  0.5859642938996420  0.3351044739028754
  0.4993386654087348  0.6681241756753443  0.1686112911615267
  0.8331893898081937  0.8354047178065523  0.1684556951202605
  0.9151361647899107  0.5857003046455910  0.5013927649895203
  0.9154297465139535  0.5025668453534928  0.7538643410768977
  0.4968254148087357  0.0862290969035752  0.2507437871967847
  0.9161525283509496  0.5861572506897353  0.6680202289502877
  0.9161630270892147  0.8365942152894045  0.5834126928854276
  0.7486998559067168  0.2536170971070577  0.1687957656553521
  0.5820161021016859  0.7513496702737270  0.3355770955888954
  0.9156726576589380  0.9189775834492472  0.8356285810404127
  0.5822270585084661  0.0019842764916785  0.4190992729619824
  0.1638226496198182  0.5846735210318971  0.0843323932133432
  0.8329029814577723  0.9190871752187763  0.0855329699585975
  0.0808078491221955  0.0011632994089864  0.0850976567390771
  0.8326584648069201  0.9181622483090498  0.2520475747792272
  0.6656063786416656  0.2519332331313101  0.9192260683220224
  0.6671758382041365  0.0022925586957494  0.1683443569645972
  0.7464899839397138  0.2542652918997697  0.5011679445152397
  0.8332615600675043  0.8358423578287063  0.3356934507154504
  0.7504046301467602  0.9202934000411440  0.5024950372115129
  0.9160554581833054  0.9199566076164488  0.5014200962303713
  0.6648392266899436  0.2527198973703607  0.5861168540038707
  0.8314265188171683  0.8363147782158036  0.5022177822256620
  0.4977629499714930  0.0027199684837412  0.8362257063267170
  0.4974066561866544  0.7523348384211533  0.7514398871844128
  0.4979332270219938  0.8347344143277916  0.5027489392288341
  0.4151536712486790  0.8359261843826030  0.2505427129160237
  0.4986987097330263  0.0029765627417419  0.5045600496861300
  0.5817425575381214  0.8345061592413889  0.4190119859705509
  0.4146312101345143  0.9201211704478827  0.3358783231175926
  0.4155563840499757  0.8354511612711299  0.0854032366057860
  0.5811527095996724  0.1675857484415786  0.9194186392816671
  0.5810842955396256  0.1688970889893461  0.7537805690399919
  0.6647439738831936  0.5013479835825692  0.0034505655612659
  0.4962354067712904  0.3353910304028919  0.1684417971599276
  0.4131941063667989  0.4193904022413961  0.3345900204705057
  0.4136305292582824  0.3350129414994559  0.2520975884851696
  0.6650932042363001  0.3363733199393982  0.3338695307452095
  0.5814787744836384  0.3353523615445536  0.4171446413733389
  0.4991306644712238  0.5018597431114291  0.1676231379813230
  0.4157099625025292  0.6690923151102854  0.9185107577162690
  0.4968471144949116  0.0015455644485101  0.1687200078225858
  0.3320100673710594  0.9200494410079096  0.2518478375424333
  0.3315233407497135  0.1679527455138627  0.1678562275777375
  0.3310490417707181  0.9197065348849424  0.4207239958323232
  0.3312157720746847  0.1699284430753891  0.5022483572359340
  0.4136092498545312  0.0023902145569159  0.4195234022298826
  0.6658214302103330  0.0866805606795544  0.2510726968452052
  0.4977839148718563  0.8350025366504135  0.1684191188124433
  0.5823168841344020  0.7492564293721590  0.1685331902597600
  0.9151030804733302  0.1689499296634689  0.4183656502495489
  0.8346177103039452  0.6684446243569779  0.1693653940639918
  0.6679962886320577  0.8348377873195222  0.1677478112774505
  0.1655077522904558  0.3333516688009255  0.5032362385196204
  0.7489025127581728  0.6671438202706366  0.9202954743219689
  0.8317900165339416  0.2527882068939897  0.7532581570776220
  0.8318541978304231  0.5020041298146801  0.6680674531325698
  0.6654860574138682  0.6687718711001794  0.5015325218134542
  0.4966896616379481  0.9193923523697195  0.7512023628649072
  0.7491981655872557  0.0847892358500214  0.8360883963649816
  0.9161414689659306  0.9164885917765527  0.6690649338485545
  0.7491822123040780  0.8362294305252360  0.4189591581162382
  0.7493179186127378  0.0855311503611790  0.1696576698966538
  0.8301407804184785  0.6678948710996828  0.8365672519076441
  0.9149563667610187  0.5854686794790007  0.8360303858293215
  0.8327995921307145  0.0864428627552474  0.2510412930170926
  0.6650874481931489  0.9195602970783957  0.9186814447758496
  0.7485712982365356  0.8370593537075369  0.9196095075039452
  0.6650766095491601  0.8373054019048743  0.8365148810822686
  0.8318878388389616  0.0036215911317446  0.0042352150125698
  0.8315920654966810  0.0859554813814365  0.0865261030672789
  0.7496026537903948  0.9178524956266461  0.3346966120806301
  0.6654581917713478  0.9191849278441810  0.0855608047460089
  0.9158564354938226  0.0018623638690510  0.0860526491336216
  0.7494742873025116  0.9182186213781816  0.1693796635056671
  0.6664242493731326  0.8344523270987567  0.3352683557877967
  0.6662804551972447  0.9179466937794210  0.2520109405677876
  0.5819869284598513  0.6686394396120817  0.0841350671586153
  0.5826265878636173  0.6685663943299491  0.2528693934096155
  0.7500971105250647  0.7528012751132840  0.1687476700548276
  0.8317331398716171  0.2529973646957231  0.2514410181448850
  0.7484236354384727  0.4188518222673542  0.1693674956884917
  0.9148181710358909  0.1707663546646979  0.2502490075037307
  0.9152315730148030  0.1691481975829303  0.0849576333503301
  0.3310397694746639  0.9187406689527846  0.5855008570274880
  0.3321391363009230  0.2527989823265185  0.5858638343640756
  0.7482810041648921  0.3357965477476788  0.4171922249671792
  0.8307274701233351  0.2520447235749582  0.5872939411367707
  0.8316122568606084  0.2525585158552212  0.9194814649399242
  0.6636220072457835  0.3351652302471538  0.4999866095415867
  0.8325639614422583  0.4190497333981869  0.2513504302794288
  0.2472316986779223  0.0045954556558273  0.4203335268234322
  0.2479518026866136  0.0857430914832685  0.3365993825191190
  0.2481549469246875  0.0867732860542846  0.5030068401539747
  0.1653383614281508  0.1704860608689091  0.6699495093384888
  0.4158508217166094  0.0872764958531518  0.5013351628836794
  0.0823726816014686  0.0042788055207493  0.2522924704959793
  0.0814161691585510  0.8350126008042678  0.5851297352430843
  0.9151084130737132  0.5029082549492137  0.4180543200722385
 -0.0011454914430347  0.5026108432201380  0.3351953840192954
  0.8311841030080890  0.3366700101226425  0.5011634495577280
  0.7480018137582964  0.2523425730817049  0.0020666704209085
  0.9140470352763661  0.2518544897038367  0.6698675413275517
 -0.0011828078656820  0.4183354039875267  0.5855709707794251
  0.8306862791380736  0.3343552688941772  0.6691856869297365
  0.9154040777392485  0.3367245507579746  0.0845455178496900
  0.6645729797051556  0.7531649631064362  0.5846381472594704
  0.1635644227858851  0.8357543773785744  0.0024339821221385
  0.3306989570252706  0.4200392243397967  0.9176051549562150
  0.4145662944242970  0.8356352499542965  0.7513110370240779
 -0.0018347815528040  0.1694943719306486  0.6695886147337654
  0.1653677651047396  0.1683153937409015  0.0016785046196518
  0.2472091262707840  0.0016799208746464  0.9183431719995970
  0.1642423484937185  0.2529089087769886  0.7531962379492256
  0.3320481466441180  0.2515922488264247  0.0851585497286379
  0.3312083200641644  0.1679221846075543  0.0012406541590612
  0.1651496112945497  0.1681699212946221  0.1666966600732674
  0.1643325905774360  0.2516955641809846  0.2510655661352570
  0.1644538271365435  0.1684758098439624  0.3359669864953765
  0.2477264007875167  0.2514969412453890  0.3352428730412540
  0.2482543594253331  0.1687706322927542  0.4193136721551727
  0.3312672801783252  0.1682516906621407  0.3352288547232343
  0.1655644004729586  0.1692882824584963  0.5033341627529521
  0.1642599248201290  0.8350641996926598  0.5037125505449621
  0.3315525705922316  0.0026810527036617  0.1682499774360048
  0.4974373686512440  0.1680379366105866  0.0014570428388043
  0.4151559122304340  0.4191404261033979  0.5017596539447486
  0.4969560932057920  0.4190143098083994  0.4171076922615858
  0.5816270099994764  0.1699974483968729  0.4167659129626138