 B Cr Ni 
 1.0000000000000000
    21.1200000000000010    0.0000000000000000    0.0000000000000000
     0.0000000000000000   21.1200000000000010    0.0000000000000000
     0.0000000000000000    0.0000000000000000   21.1200000000000010
 B   Cr  Ni 
  52 259 605
Direct
  0.8987975916607585  0.1535529071446694  0.6627895112807881
  0.2894685046337211  0.8311500233428164  0.3164004079509174
  0.3274493279862320  0.6066428677448313  0.6486594485916606
  0.6710770906430548  0.7461541166756289  0.5048197804719157
  0.7611034293180353  0.0251561443875332  0.8481017152530674
  0.9184316439179493  0.9098015550867599  0.7369926554838715
  0.4131694755225045  0.9954865886453407  0.8209441981222561
  0.0605633305183524  0.0912190003687836  0.6219140882285571
  0.6658219538205150  0.1520432826258678  0.7471654886535651
  0.1700800303036385  0.2459875051193660  0.8261900586545343
  0.0381494998095794  0.9588103539594254  0.6762804906927490
  0.6193287071039577  0.8702577389291648  0.5739885301934881
  0.7547647211383895  0.9622213068925239  0.4879160716433169
  0.2339805311211386  0.1392018379450152  0.6869198832295249
  0.2657012808031858  0.8228911519142361  0.5116705076290515
  0.9060466315643269  0.9108247732630301  0.5861603276436603
  0.2888778349587858  0.9507844773322760  0.6439338231866546
  0.6802761917832629  0.7513309158732628  0.6427519076515121
  0.5729095584413325  0.0264217036592321  0.6917119905874369
  0.4979666560701979  0.7642536176672772  0.4959235451774394
  0.2915847683201959  0.2795285167028856  0.6652939693330926
  0.4139990860410193  0.9035234672985001  0.4151380032158322
  0.5043814726873119  0.9230457057058183  0.6719889210457628
  0.4098579514950947  0.7484233641100954  0.6048580576687094
  0.6441908856242748  0.0312741552667804  0.6538689103205820
  0.6733503324771909  0.6987820239877022  0.5756703068475570
  0.0813088444552985  0.0057637205887958  0.5180959804367793
  0.4824321668945860  0.7553299375696294  0.7818943486417208
  0.3262014262128169  0.8375012853073430  0.7526774906296182
  0.7518372782465412  0.8776985775968282  0.4868827732820667
  0.9989432487228059  0.2574143635071446  0.6820449877145461
  0.8275744684501420  0.8123729652260770  0.7121343830956001
  0.1732113963775873  0.9917004812798278  0.7428031539463245
  0.5873529217120268  0.7440926451594320  0.8807668575280327
  0.3118414183000225  0.1861131743658721  0.5655817336990934
  0.6589396044066331  0.9971223337061085  0.5812876286636933
  0.8287027445149704  0.8281167177875284  0.5907466274715839
  0.7321920785712736  0.9083071214134647  0.7327184835396153
  0.0030682416744072  0.0612236482200660  0.7956115081050228
  0.5013039743652735  0.9029629442745450  0.8184687595238491
  0.1697595463514330  0.9197487042994403  0.5120745062198794
  0.5973627433962447  0.9050390434278003  0.4246043308269631
  0.4521747549111775  0.8573988625451667  0.6795733229035226
  0.9083834002561568  0.1617047788100069  0.8245912594942303
  0.7586070290510208  0.1080179260299817  0.6177339037198962
  0.4082103600243537  0.7632888723576484  0.4123768182581515
  0.2616923978369607  0.2396273247671305  0.6001260122909765
  0.2718615932207004  0.6540261365592057  0.6827211460521710
  0.0454751421383373  0.2126844120090110  0.7394858436600875
  0.0904183383818304  0.3868353878150240  0.7429265273856964
  0.5150955465688076  0.6936677942714896  0.7419753569502694
  0.3341002987209899  0.9796659335797114  0.5809523533434739
  0.4159806269581547  0.1695311951920160  0.0871180273413858
  0.3235029270218743  0.0861537779374599  0.5738073654276683
  0.4150860205289444  0.2529755212235331  0.3267462038665038
  0.4030839858017569  0.9338069380871221  0.5103607369498978
  0.3079697252347575  0.1048016264768609  0.7499214300477466
  0.3330809508764652  0.1705143604983965  0.0051817819131349
  0.4199144438655094  0.0261068612594372  0.5776022347986352
  0.7503690954714898  0.8311083254236391  0.0889954100441705
  0.6623148459305904  0.6738559892886560  0.8384682267307800
  0.2064766472086865  0.2374605257236161  0.6787272446575062
  0.7477841104961883  0.5826191464985223  0.8361974464925143
  0.4158281142058853  0.7487606975270209  0.1680450729330145
  0.5811557881282878  0.1691095026898898  0.2446096869107598
  0.3321280857260888  0.1715145717932288  0.3261729638215162
  0.6644383808097651  0.2675654787704067  0.5775660862831227
  0.1661341432143983  0.2515059948058373  0.4098589843008750
  0.5045910733395810  0.0880069146886405  0.7559074862583977
  0.5828881024078947  0.4982905614032918  0.2462287146271261
  0.6626618085588100  0.2603754455825742  0.7512562328721860
  0.8312525614365779  0.5796348043492220  0.2476847888926964
  0.7510499963432985  0.5791817017531856  0.3276012125065114
  0.2481650397319790  0.7474328158894259  0.1663449614781232
  0.5330937268779991  0.8466775624402478  0.7393755157362956
  0.4158748848364508  0.5010071294034815  0.0871986373756856
  0.4162903902693388  0.5094148748460240  0.7525308721848223
  0.4173463998272489  0.0080910084952794  0.4111912067588409
  0.5002892894060578  0.4249278431568417  0.7520729025212410
  0.0819840482202564  0.9932791757039209  0.7702730027760207
  0.4151154267085839  0.4998448279607086  0.4105211704411277
  0.4156912952404346  0.2549403957117120  0.1649439142583744
  0.8304029356634957  0.2622604149121878  0.5714325988799730
  0.2480179807990856  0.3336767295986656  0.2465479997279338
  0.6688881967022249  0.6613590759377145  0.0092453473346713
  0.7526758935027489  0.9172916274813854  0.3268149325967206
  0.1684504945708278  0.8319707868818801  0.3292035815395199
  0.3277213909363486  0.9140604556569630  0.9296587474327548
  0.9954249151708898  0.0024578766912812  0.3278783061769736
  0.2473475928671771  0.4984243348138186  0.2483111700917106
  0.8322900586452010  0.1784018782512854  0.4874452401630231
  0.6665767230689003  0.6644323258526276  0.1689740844964858
  0.5849694878979024  0.6566955909174000  0.4055931042113765
  0.1649237645500733  0.9132444059601501  0.4086401816462882
  0.8312658038895722  0.7491558361201770  0.2487387908750763
  0.5821501010726714  0.8320947753554653  0.2529291546741685
  0.3315801607424362  0.4150114408682933  0.4090119504360878
  0.2499950749825128  0.9120453040113337  0.8432821303549122
  0.3268423892515746  0.6571028276284524  0.4941964643437238
  0.2487486083877826  0.5019697201187239  0.9196975490823242
  0.9146945910222600  0.3344076017302495  0.0816028983140166
  0.1594580545521955  0.4953796620844184  0.6651029043594406
  0.9139436266249583  0.2516741368319261  0.1623841224575660
  0.9146401574717617  0.1690132855717836  0.2435242531183063
  0.8316166981017574  0.2571711618003237  0.4079730867755241
  0.9987465629158809  0.4989351981071656  0.1656235534630953
  0.2485785097706342  0.5012429765459453  0.0886211868072102
  0.2617273337044397  0.6616387747566668  0.5835730719502928
  0.8277216943325681  0.0831520712853521  0.7954578537130093
  0.2454814077667551  0.5792334493099002  0.4946480642929946
  0.9035345965369675  0.0048841880301735  0.7561195085340001
  0.4192934751967016  0.6695374616482354  0.7609116923186175
  0.7497656228280010  0.0900124620151403  0.3240865891197204
  0.2473643598251591  0.5799950425641669  0.1668139120778462
  0.5854667199972512  0.8304342735105977  0.9354591746163080
  0.5796547036659937  0.7421132903665405  0.6744913704963643
  0.7388738364091594  0.9179792340228767  0.8363185884260710
  0.2502963424354309  0.8283670502753997  0.4092760593019071
  0.7457519517640341  0.1683265886294493  0.0834606773195272
  0.1749287555991013  0.3448859685248977  0.8513533595351646
  0.1379161124741347  0.1402895986277471  0.6600343747931744
  0.2520819760657729  0.3407722143584130  0.9234919025833341
  0.9195736588430387  0.6594807352014467  0.5800159265387905
  0.9995215373252258  0.2518769568377989  0.5774139020939298
  0.1646928938251465  0.2504272568772131  0.5743907187019186
  0.3208107379664254  0.1820898879604683  0.6657875325768106
  0.1658592660663103  0.5816484687105440  0.7520028557635789
  0.2592897225384861  0.7513832221123085  0.6717173335795221
  0.4190974674367398  0.5767080383791445  0.6661134585885530
  0.1663950752871953  0.8255665117637887  0.4875476745988739
  0.2506833058747109  0.0847724066580949  0.8439174709697046
  0.4150452446042078  0.5786025507073063  0.3300129846018412
  0.4032997608140085  0.6511706206563646  0.5795503327792477
  0.4940291650028724  0.2591517772377014  0.7538293065010665
  0.4143921011445297  0.2543563963526863  0.4891089914127470
  0.0000722215548808  0.5828898832165801  0.5808521693059541
  0.5828251566799629  0.1732674747426849  0.4095257010487731
  0.0805748451026451  0.0837093775659275  0.1644450152772708
  0.5825764417329093  0.3358482527090743  0.4132604485610797
  0.4975023483621300  0.1709628545286167  0.0078065104565320
  0.4967765288111262  0.2565374067051562  0.9230389506939459
  0.8309299663626650  0.0856118938973331  0.2434022576406840
  0.8242223252735160  0.0797430245139590  0.9169383047516326
  0.4963932111168683  0.9988979295036856  0.0058705385505127
  0.6655235719906717  0.0991519307870777  0.5770563593940765
  0.4165155037859938  0.3355346031367581  0.0860271269480032
  0.7316506218525420  0.8046776731139164  0.5650584923550148
  0.0007649535600390  0.1634809401460051  0.6561352553621477
  0.5786831557431454  0.2574458641347516  0.4914900525376115
  0.7710545953431237  0.0021462563616379  0.7528269173103951
  0.5832990328647665  0.5037829917082354  0.7511693419124952
  0.5826431027674803  0.5000018606911195  0.4118745255488245
  0.5014893911082521  0.9144837459862981  0.9242164397629554
  0.4224026795062573  0.3481992339221825  0.5815362432508665
  0.4983112653885969  0.7405198966264872  0.9347522715698964
  0.5834316234444847  0.5019213117633337  0.9213421513123504
  0.4165452648266880  0.5039772297122191  0.9199133789526046
  0.2490183093156787  0.3380953672282002  0.5835044057904836
  0.5818835973403371  0.5801123742639305  0.0066831303699329
  0.5093496384045301  0.6744074835863003  0.8422775345181126
  0.4160324500524259  0.5764657687155412  0.4927167130506346
  0.4979070488617803  0.5802179262343065  0.0896047302214862
  0.5917813119793678  0.9484850885907187  0.5109460005242122
  0.5816853197724760  0.3356790756182568  0.2467213331482585
  0.8449603626019316  0.9808032078252698  0.8461703239303271
  0.6618375630256158  0.2583846043744680  0.9217427135001263
  0.5044106715339465  0.0009769827281204  0.8478824420386376
  0.2595235502232618  0.9163971328163809  0.4805597411937112
  0.6622115837721823  0.0003694425139243  0.8475801940898834
  0.4166124298310430  0.5788742818464381  0.1658490001184570
  0.6553822976858685  0.8382447077730085  0.4805255930236565
  0.5882883300967476  0.0074549708910431  0.4138408184805948
  0.4165876132117119  0.3371018957745284  0.9194465544162308
  0.6626279419290513  0.9760719607489443  0.7485897432059176
  0.2087397276752586  0.8621089107383130  0.5827917206149518
  0.8260882659699206  0.2556821210324163  0.9264632008704784
  0.3620757339621427  0.6928722247030518  0.6708972101550819
  0.3312226970485104  0.7508481092284623  0.2510162765594506
  0.6657592991705742  0.3389083303883737  0.4920914201225081
  0.5094329319259137  0.8138853911972156  0.8597220806309320
  0.9154878944091749  0.4990961732689373  0.9197213307535753
  0.1620098282615712  0.0017917851755630  0.3269729387254722
  0.9169659945229101  0.6609548353052677  0.7536537089371544
  0.3305626325534353  0.7426335369397670  0.9301310859761347
  0.3315761845534359  0.5920464377346516  0.7488054957550343
  0.8326508077849897  0.5818044309108512  0.0852969426849183
  0.5796157437042522  0.3345891752842119  0.5805536604533336
  0.4328748082320608  0.8392934901001345  0.5719988014352605
  0.3294974160715148  0.0130268748065866  0.4882010691113373
  0.4975603702762780  0.1091779043701745  0.5784346905536931
  0.6644585457157592  0.1767306303422000  0.4881428433750157
  0.6613145325669115  0.3391523205819042  0.8364776472651434
  0.7485245337468539  0.4202887976697495  0.0017680411417494
  0.4229818214129720  0.8329077821887658  0.7757723167275030
  0.3304268135082394  0.6632989152601466  0.0062046486317267
  0.0016151390761478  0.5825091554353368  0.4098859846518186
  0.8301731520008117  0.2787307070278306  0.7539673452992306
  0.7489641358908321  0.3368448050261001  0.2456462280506745
  0.4638966443353575  0.7599442002231370  0.6887173746378155
  0.3966057480997614  0.9302096619239081  0.6423909567421482
  0.3139452941802697  0.7620434509867445  0.5760253386888329
  0.5029176412380253  0.9177565426702103  0.2485450552715842
  0.9995630282978756  0.7468289214003927  0.2493588442735442
  0.9158401454124900  0.4202292327663796  0.0019908613646715
  0.2490366419038289  0.9172359628592619  0.1664229646390976
  0.7477942415289840  0.4159546222031071  0.1653771255777410
  0.4157743241152215  0.8307285505892511  0.0878556131689684
  0.5011229005755546  0.0866146566363328  0.2452480876897187
  0.5829637457112736  0.8306368247039868  0.0875118251260809
  0.5004862732904376  0.0845578959031468  0.0837484724008996
  0.7491526367996579  0.4177101679443055  0.6644928955495226
  0.3329521345385882  0.9995742641074336  0.0059551834209677
  0.6641661487427145  0.1709173194812045  0.0038506793660835
  0.5002462667689566  0.8303629240445013  0.0055202475659456
  0.9116301203381769  0.0854194049538678  0.1668055929936549
  0.5833374801946385  0.7444666758900075  0.3272582343811681
  0.1656150297929279  0.4158462252348717  0.4123138518426780
  0.8370977182373495  0.5774333167475538  0.5807431395751946
  0.4106656375828769  0.9083353666958263  0.8571753384602515
  0.9998387760034578  0.5804104642016675  0.2476383627644743
  0.0854337774803674  0.6646059349008681  0.5814059828276664
  0.2459371957278045  0.1856876431236932  0.7718612735125249
  0.1638209747601602  0.5801174129275268  0.4109927418610452
  0.3197352041247070  0.8802173646184156  0.5750685923526763
  0.8238642642555051  0.9176462561337575  0.4185622090113451
  0.6697534770959876  0.5793945393305597  0.5800405501528336
  0.0847477012326113  0.4962110270498645  0.7487940271240232
  0.7481946455573358  0.7387874208909038  0.8422686800089801
  0.1160141798023418  0.0260426297403978  0.6728946943776052
  0.0804071271824090  0.6643528343373595  0.0879588159725820
  0.3324545849121458  0.0874690187200658  0.2446403215928594
  0.9111164723465492  0.0024811516384334  0.5573086035081902
  0.0816405931704233  0.0818924759119236  0.0055309323856481
  0.9989698318578857  0.6627713549470703  0.3288455181714973
  0.8344748380020220  0.7437511038813304  0.4086588813814583
  0.7471513192533003  0.2543110819717271  0.1632483021524402
  0.8300910996401648  0.3397803820394198  0.8391109599455474
  0.7497556509474269  0.9102293292575800  0.0099152216904748
  0.2484565061946297  0.2534663359804247  0.1637169118819442
  0.9198478888282950  0.9055756082095285  0.8407571588716181
  0.9202559818797483  0.3359911424705136  0.7481236826857572
  0.4154281828277265  0.0004245944407386  0.0847376840767760
  0.9993421688076931  0.4188950320532145  0.9199293880839722
  0.0819457303173156  0.4169738891762533  0.4936487451198229
  0.9176998995041307  0.4157440279105382  0.3269974054276096
  0.4145377535895050  0.0023544081708022  0.9244044501912470
  0.2474275875149916  0.8307441778335934  0.0900152595919517
  0.9168459532301573  0.5791573361352110  0.8354063980976444
  0.9162735437596237  0.9138845745802848  0.4861503213235296
  0.1640713843936314  0.5764180508315868  0.9215881766836540
  0.8328367029789492  0.5779689142964278  0.4094158218768250
  0.9136577789724684  0.9097003134686376  0.0067574951479797
  0.0799603285661838  0.8308092591642819  0.0874820752261842
  0.9144654684771433  0.9149365391463892  0.1690549860275812
  0.8312571771310718  0.9169589581480266  0.2481245922704612
  0.0792613922976844  0.9139784079437654  0.1682414369841223
  0.9135683118748841  0.6635564605090751  0.0870985568100470
  0.2462932898512521  0.5786762405947662  0.3266641342097339
  0.4173705521008897  0.0921178799105637  0.8455311846405483
  0.7486657934173228  0.4996307473013051  0.9208582754473537
  0.0029823683101607  0.8230297825109736  0.4894110113514393
  0.0003272760088310  0.8249162105677642  0.8438924096164153
  0.1632234249481251  0.7431062981402136  0.9279734130180743
  0.1649445499301097  0.9957695926055095  0.0076092380373851
  0.0846632034424152  0.7454775529655557  0.6650814420889887
  0.2482381422633068  0.3332185243345953  0.0844368802558777
  0.7488036741735574  0.4167414391759853  0.3262806761552311
  0.9150037924042431  0.6625411397239754  0.9220241293927811
  0.9979678147006560  0.8239565579080945  0.6664047976062132
  0.9973136103159340  0.7426371372585133  0.9236227759354598
  0.0816253489973532  0.6629858129980204  0.7517131147020280
  0.1759722491026394  0.0889496286394685  0.7594329998974920
  0.0806138433130034  0.4976124008310978  0.9195144959332641
  0.0004524519761703  0.7454184159658835  0.4094365626171558
  0.2376102138426824  0.9850251936153239  0.5619305463275105
  0.9981153165765752  0.2492873343283656  0.9240691892856070
  0.9980380061279012  0.2552667219497133  0.4061811247205795
  0.0809262141067103  0.2510712798134732  0.9996904651386863
  0.0000097788838948  0.7435963170496754  0.7542480109265054
  0.9944753530950418  0.4196751063131420  0.7496596263393071
  0.0797538280287618  0.8174960547430502  0.7612527360025771
  0.0816072933844180  0.2516863735675791  0.1649282764305459
  0.0812081651617557  0.4997930272241334  0.0851934321018125
  0.7520100134324375  0.1005089246912410  0.4904883653316163
  0.3335353804464826  0.9128531827048314  0.2515252439429098
  0.3338818811000191  0.5007696577519611  0.6659800829733669
  0.5859289829565746  0.1846594716454364  0.5748247481644176
  0.6662795884248242  0.9991404056602166  0.0074683971961393
  0.6667519433653952  0.9993835139595381  0.1678799054092119
  0.5809269279629008  0.4211372235911017  0.0014635922245774
  0.2523768613170568  0.2479674820387462  0.5003012481174666
  0.0809836394607614  0.1683166359618370  0.2425867512151844
  0.9958017573245438  0.0870803686260807  0.4032081439521966
  0.1636780607843507  0.0876766075263439  0.4005842055199794
  0.1647480128876916  0.0832196309424220  0.0833631648981071
  0.1695872101271902  0.9970384943967031  0.8433475837312827
  0.9179078356450849  0.4191007826673886  0.4923506772014003
  0.1654013097644430  0.4236042927507759  0.9231284495080258
  0.0808870858114934  0.4179620379510234  0.0025087077144456
  0.1678751227903340  0.9121195295231659  0.9235164849221584
  0.3349078291777526  0.2542977707276362  0.7541021779079271
  0.6660912274119548  0.1700776445413448  0.1647793000854109
  0.2225770858553089  0.1512439511528778  0.5862633346203951
  0.2449203425024391  0.4143773024964876  0.4946543233545738
  0.0819653757506152  0.3329389127485066  0.2457817713409086
  0.0018322066820409  0.0787078282398423  0.9313898526187061
  0.6726590247037039  0.5749465098084386  0.7522756725484281
  0.4992208518063422  0.1692859312036779  0.1630390054308612
  0.9169565718060236  0.5022735269198767  0.5786584192987008
  0.0746278476230510  0.9094871195437859  0.4842835852603966
  0.9154358375856065  0.3358294431751390  0.2443730670916312
  0.7510158123810189  0.1859212795115442  0.7481396180228652
  0.7451769854524810  0.2536075003508820  0.0027589076282052
  0.6742428940352025  0.1852506174189725  0.6578208997089776
  0.5850395211513624  0.5831765198707405  0.8386191057406009
  0.7474079658942920  0.0836162969503147  0.0037109469377883
  0.8322413789448601  0.5797178290636794  0.9208426472905145
  0.5815366122788697  0.3377014801018562  0.0830156281408445
  0.4992617037898194  0.6646181727038332  0.1688595330452200
  0.7481487559422811  0.2608344877659387  0.4882879638676786
  0.8325305438599812  0.9141580351561520  0.0877846206369812
  0.7481124702815833  0.2706791868558294  0.6646624685773945
  0.7433385119596293  0.2595578191093266  0.8371302501903136
  0.5767195814136804  0.2596700141247522  0.8378983366217745
  0.4497384948937657  0.9393217001407858  0.7484634114278592
  0.8321887817704144  0.8277758903971392  0.0066361020629660
  0.9145266282690465  0.8302686797708805  0.0884403141556795
  0.5840327123836970  0.9188012321467766  0.3324066884463587
  0.8323497587136373  0.8231782151901548  0.4921469921698450
  0.7482285777030308  0.2561270273494126  0.3257472950551924
  0.5899369879292454  0.9087435839425979  0.8475931183294027
  0.9111709595065151  0.7464014057140986  0.6677564631510113
  0.6639763466141476  0.3383876365410434  0.0020269257021334
  0.6643972862372475  0.4191855521870505  0.4106652039307048
  0.7105104595521312  0.0824675267732286  0.6947167596615395
  0.6647409766230673  0.4167579162178884  0.2470131046199792
  0.8364560531030550  0.9719672478653597  0.6545609500373173
  0.3291297085068410  0.4938425727039285  0.4890042684409052
  0.7174599891144431  0.9656142427455443  0.6562010324956692
  0.5012527987440540  0.7377823024323245  0.5820931857467447
  0.6736206761100523  0.6598712714437365  0.6631635163594366
  0.5818317808414332  0.7332733507738621  0.4819344220102421
  0.6189922090637151  0.0727263260685340  0.7619025164611740
  0.4992418377053033  0.6547359033575126  0.6602262990287553
  0.5713138602425671  0.8199614778466954  0.4073351490935713
  0.6659552158288705  0.9153095431141121  0.0881449784689984
  0.4988764611866865  0.9150443997829036  0.0866026623564041
  0.7528244873265848  0.0137917270044524  0.4054592919011681
  0.5786371651350064  0.7550933444554213  0.7889928652295087
  0.9965898273876310  0.9161263990934130  0.2490871302696590
  0.8288445550069693  0.1670093064198120  0.0004819003032240
  0.6633404145496269  0.2541946407490492  0.0836876037390718
  0.9145313647965964  0.8286561895344572  0.4102422913502856
  0.6670065149196975  0.0923182501980459  0.4076919280422557
  0.7493618924502593  0.7476561313940161  0.1692383943697650
  0.7436293371071824  0.1853751797864114  0.5667531798696123
  0.6644144931890686  0.4197030250101179  0.9201945809276426
  0.8314147251158788  0.4199089981806031  0.9205405272132352
  0.5825416583980549  0.9161453709466161  0.1673394095025480
  0.6671707160356342  0.9122578641335105  0.9283107059922522
  0.7484488885495211  0.9924885937406189  0.9305919480576332
  0.8317566043745270  0.3351206285896036  0.1631368851436979
  0.6651723352899035  0.0840163420167755  0.0848357419062073
  0.8358099940085879  0.6581173785869776  0.6671364852825585
  0.9970859550834965  0.9135407647501853  0.0874525109038154
  0.6642679573704269  0.2543218510619827  0.2459961426381380
  0.8309502884004567  0.9073315530040293  0.9257690775132130
  0.8352095347282100  0.4210795417953421  0.5776533921174491
  0.8385499563894506  0.7382569665642403  0.5749297328216552
  0.7507204623332266  0.3418961756453154  0.5763300551368059
  0.0024522146288482  0.9003413481306713  0.5748786518808897
  0.8316779977211118  0.9990957254401976  0.1662008296240541
  0.7481742274409731  0.1716040696554819  0.2440910982175455
  0.8359686686573299  0.3417572159423564  0.6602884175766583
  0.7486994412443488  0.1754556334520065  0.4065806696684761
  0.6758700413082438  0.0181823590040345  0.4918928451594111
  0.7591578602981415  0.0193199561511121  0.5728666701131285
  0.9181107134474515  0.7405660340586510  0.4899159906541663
  0.9212006626930637  0.8201348834194753  0.5674751654927500
  0.8316840880384806  0.1737626330711607  0.3242078918895663
  0.8288430534187934  0.9042685281977113  0.7564049350478297
  0.6166151095154776  0.7756021198806274  0.5756740009024296
  0.3418600753523777  0.9277212126818575  0.7553679405049816
  0.6657553301508651  0.2569583841761420  0.4075892087529071
  0.7426873123514350  0.3427777044039176  0.7529422652382585
  0.0809051096996167  0.1722892580276428  0.4050934949382335
  0.4226092086489013  0.9265762640611784  0.3259265825496096
  0.6673368095548607  0.0028506954548047  0.3298262416980522
  0.9140387820243326  0.8318269350850620  0.2503507714641948
  0.5836370094435948  0.9168434833450351  0.0091897399855729
  0.5000762285738961  0.8324267739453742  0.1687718441386767
  0.6639750572034731  0.4170821077623344  0.5791596515772868
  0.4141246372774377  0.8256173665279908  0.9306981108363918
  0.6652505977497516  0.4184534759807876  0.0838546345386737
  0.8320095985584236  0.8268906260304779  0.8427084234047127
  0.4999883617436328  0.0009012240683109  0.1660830193322780
  0.4937963147760464  0.8332226014205645  0.3302208659521710
  0.8324035807321427  0.8312270609864183  0.1693098807249427
  0.6647301962180834  0.3362376132336575  0.1649911686712671
  0.6646256026631437  0.1723886437360334  0.3259091438901919
  0.7474479892771451  0.0850355606429249  0.1654945298770165
  0.6660400452774619  0.0861671471826093  0.2465819564789588
  0.7489537149964941  0.0016553990837863  0.2474268936573992
  0.9166279428986440  0.8201035612817216  0.7606358105511495
  0.0777997274366803  0.0008504092792041  0.4059380674862167
  0.4963093964355581  0.6588931074960345  0.4959235700743783
  0.9143865347792315  0.9980668949677765  0.0850385620549776
  0.8314006068829910  0.7446127124278497  0.9224739664165522
  0.6601947845068573  0.8129084642758981  0.8459518003103341
  0.8853179860349830  0.8617916012365112  0.6622606102875205
  0.7726798383613049  0.8683843096756489  0.6550690957898340
  0.8333726826880145  0.6590642182214081  0.8400041257274783
  0.9150471420829136  0.7442724020828101  0.0057184384459041
  0.5755826271413038  0.1801630611177813  0.7558142227520351
  0.7496958657995307  0.8220764392915038  0.7633141263262428
  0.5972729371846232  0.6526020367973662  0.7476718220259011
  0.8316591247844070  0.0941333510904084  0.4045299365305334
  0.6641352315559969  0.3369793335943477  0.3277019681535777
  0.8299648399610409  0.2522053707457385  0.0821000609348511
  0.6680085345560935  0.4984225089176669  0.6644877853485931
  0.1656228903902199  0.3324236908148455  0.4944031427045543
  0.0819138236456631  0.2525859413483388  0.3255434303433732
  0.6004790179913706  0.9373067264222663  0.6463357174081409
  0.9140670227215555  0.0931898878389320  0.4823319378588820
  0.8597075140117826  0.1788505957641595  0.7440593863579500
  0.8126520981747480  0.1833825385595872  0.6472885358515246
  0.8156022861684565  0.9177734485730038  0.5538882800743105
  0.6994218532598736  0.9167122689629316  0.5567806380406547
  0.5686164925359406  0.0296362673238792  0.5891183907707555
  0.5054929998645280  0.9280387355368841  0.4198827279580750
  0.9129503163384478  0.3377376846561450  0.9246012390945179
  0.7507510304080348  0.8262703135449840  0.4100303341103830
  0.6873624538096234  0.9266637691243692  0.4204075940070812
  0.6645489193917683  0.8346935890630980  0.3362666332133460
  0.7487005155230368  0.9990436257889146  0.0860850681451361
  0.9152119779811776  0.4181069957877883  0.8360201507241397
  0.7484634948496023  0.8318462918669248  0.2509696419086928
  0.8328730303448658  0.0136452233276035  0.4849512207865018
  0.8342014127728686  0.4182050911792536  0.4090761265260707
  0.8384384448608464  0.0968128338557281  0.5695903477152471
  0.9156089434810307  0.2572340112359230  0.4908889733822047
  0.9165890546305433  0.3366424604101962  0.4095393290544408
  0.9159809610704095  0.4158832324316397  0.1641405300627574
  0.7490438883154622  0.4995107319651079  0.0852101249682128
  0.6430427771439406  0.8700099588496248  0.7559295774006278
  0.8297091461716481  0.1702568733165656  0.1629835124455075
  0.8190552009637583  0.1796473787976482  0.8470449827902882
  0.2548022392692968  0.4219315025525074  0.8356981949602961
  0.9138201456733895  0.1778083231143843  0.5718560087118563
  0.4152206168597471  0.4169264724589566  0.1661485740898348
  0.9156774756996481  0.2547791834566999  0.3245595272689992
  0.4996337628218560  0.4176278358810568  0.4115140800028684
  0.9073295603605687  0.2556482592142451  0.8485784422212925
  0.3319971150447769  0.3384321845683316  0.4938988116141040
  0.8317187974658776  0.4179046600098693  0.0839629323628550
  0.3326984836417434  0.4212704726504945  0.5775890204281504
  0.9983738724022051  0.3341505535182444  0.0015554283346934
  0.8300746551939197  0.3370998201332773  0.0030151164848519
  0.8328616242631530  0.4165755668831200  0.2453052359751957
  0.9969924483469715  0.0824781650096199  0.0844697069350256
  0.8336394227837920  0.4989792749431829  0.6662114877943092
  0.6670324896961753  0.6616725452201989  0.3282402507289942
  0.9130995489232623  0.2508178530136383  0.0008335026513529
  0.7508007018448644  0.4983123737986653  0.5798264283353343
  0.9162985292952558  0.9912136406578368  0.9300138627362633
  0.7495979381780812  0.3398807551479481  0.4085023795492861
  0.7198384362620286  0.0988550015183088  0.8169925414605790
  0.9215866114021849  0.0670129383795281  0.6419209265750433
  0.9237655755698286  0.0714177676605188  0.8514847035840040
  0.8317639889557072  0.9964984937711163  0.0057199828820341
  0.8234470644868671  0.0795819777752676  0.6857435736842171
  0.8316262114136937  0.2538628295192560  0.2437431171479552
  0.8334439081979571  0.4973783123685973  0.3276597623911490
  0.9149984771109643  0.4999275188474048  0.0853794709500781
  0.6655135550790243  0.8321801100128600  0.1697157543171890
  0.8340254824701165  0.4157993984425938  0.7509244379299352
  0.7510135088625284  0.4965567443829758  0.7507108201718409
  0.7518349164810226  0.5778640300293172  0.6651889953765209
  0.6672536034469255  0.5770244008768586  0.4093822036530919
  0.8350094600570604  0.4991579060301549  0.4936296495858323
  0.9153226141398513  0.6637065007760200  0.2489125305313465
  0.6612418492821940  0.3412918758177432  0.6675123493840978
  0.5810458570630306  0.2570779795849329  0.6668956637144621
  0.7509226040588567  0.4981708039616947  0.4105325924577899
  0.6662594613156505  0.4975650955371744  0.3277990993398063
  0.9985518743421081  0.4162200908579288  0.0833005899693312
  0.9185164945477311  0.5804244523979621  0.6664989518516415