B  Cr Ni
 1.0000000000000000
    21.3017845914560162    0.0000000000000000    0.0000000000000000
     0.0000000000000000   21.3017845914560162    0.0000000000000000
     0.0000000000000000    0.0000000000000000   21.3017845914560162
 B   Cr  Ni 
  52 259 605
Direct
  0.4057365430996497  0.5853222057391628  0.0806241148094552
  0.7267842225266882  0.0030863434511693  0.1479565011749211
  0.3350030498634067  0.8151547737822885  0.0802041062038909
  0.4243102127756565  0.3109907686904985  0.4520524296789382
  0.2518618192175973  0.6719591666938699  0.1609353848920159
  0.5398079459797951  0.3287368897489505 -0.0101169363378758
  0.4916067482356357  0.3245595595627445  0.7386910049906584
  0.4761562592995463  0.0221309805198795  0.1060498320835807
  0.5028997581816790  0.4977457797649292  0.2300170151097488
  0.4059489089257543  0.2625104335262183  0.9301658279476990
  0.6476229422920043  0.3350550065431495  0.2425656518409371
  0.5335998191369876  0.3554633753912037  0.1341898348592679
  0.3084486664084385  0.8093163460431648  0.2623714591518069
  0.4436753845898354  0.1588243889235659  0.7975155182463448
  0.2405221474283612  0.4103556343499320  0.2491913405216248
  0.3336665549963084  0.2477962339947674  0.6709718308165917
  0.3900397002005726  0.0163663195855508 -0.0153934350334708
  0.5952817686768682  0.1155959883530310  0.1057365614779212
  0.2640618831155885  0.1769034878192509  0.8268465755216475
  0.5061657528199766  0.4848945921316338  0.0808141916255328
  0.5632227961454885  0.6390345005707829  0.1745899253829589
  0.2540019729452699  0.0842365906922490  0.9251035651827870
  0.3116765695303504  0.3290205511514031  0.0742199388777838
  0.4111626542772845  0.3967795215381279  0.2300960733656665
  0.4066954241000638  0.0970847478942514  0.7534803204353887
  0.4807541089836416  0.9032187075458409 -0.0056781445075500
  0.6516403217831130  0.1639899745596334  0.0730434974542198
  0.4788655680137993  0.4170083870910057  0.8396025747453247
  0.3436649975494196  0.7497051050863259  0.3014489092656353
  0.3914903825552284  0.8486730248972693  0.1315241959225998
  0.4343464592749843  0.0674443580103484  0.9384052191577155
  0.2488526103277185  0.3424314556976114  0.0176328420382202
  0.4108759979587898  0.2597579710678391  0.0771518422304796
  0.3531117973404118  0.7504934359923098  0.0326152700916785
  0.5731784982284239  0.9160079613689420  0.2167436944383822
  0.5860925433247103  0.8415274828530988  0.1708196660368716
  0.3312151557355265  0.1596423358850510  0.0702580707200228
  0.5227828250024333  0.1696818110711923  0.9416185939643632
  0.4762616080408298  0.7431801899538019  0.1798821541609446
  0.6673326581862309 -0.0237127772140083  0.0944524590490445
  0.4050906153770588  0.5957160397833959  0.2200877096252185
  0.4811336835285176  0.1159269135518052 -0.0121900314955268
  0.3459237504763300  0.4180669837095214  0.8289833553512049
  0.3036353434481832  0.1394538998625370  0.8895435201659144
  0.5168138331720185  0.8591009900994200  0.0582158636388025
  0.5882040256198022  0.0224605397997201 -0.0196786264610895
  0.1707395399131734  0.3994734558478565  0.1637401485551439
  0.5679351824379252  0.4279719254615348  0.1068313162072908
  0.3189342264313153  0.2636571933982491  0.3424503370712458
  0.6017921532514381  0.5882587820510039  0.2213233031879817
  0.5124123225404228  0.6853869855800928  0.2232135841354672
  0.4849178352552652  0.2483578404357571  0.6713564805166121
  0.4991437043728480  0.6686120247698201  0.3323487720789386
  0.5897469733097880  0.5813851070988988  0.3327427265709909
  0.6400020604411858 -0.0029705915814747  0.1834627626817149
  0.3251715656596197  0.5812434631227530  0.9056095759431906
  0.6666165012691466  0.5813598166311316  0.5783717936959021
  0.7496004381857932  0.6629223044620262  0.7416263514564065
  0.4911060238453632  0.0122270629275748  0.0026806354383049
  0.6657144260572787  0.9144695865821028  0.4173749404672307
  0.6667716910260562  0.0792041458078614  0.4169241533043945
  0.7529998810191185  0.8185140369992508  0.0745105092734582
  0.6648579034259144  0.6561008768863974  0.1672079998768087
  0.8320513794973214  0.3309667122782130  0.1643481844762774
  0.5842148675544644  0.6631480372005586  0.4138215767005295
  0.7539893916918450  0.4984913226874874  0.9058125141442692
  0.9136590492929554  0.4990106210876222  0.4164822202081517
  0.5830503792317188  0.5795830931975144  0.6595469840565561
  0.5846884701076581  0.5035262012075300  0.4150524806430505
  0.7475831330662290  0.4985377595902811  0.5775120232943138
  0.7525710744778414  0.4981058907437678  0.4189489805888650
  0.7517640890302939  0.5789599025880400  0.1630859315212548
  0.7521575382255912  0.5788117231427219 -0.0068933024228263
  0.8331270806977893  0.4143310643222730  0.7417144011171243
  0.9138529012747654  0.7433370925638551 -0.0057010301029479
  0.1561277281811115  0.6660937626187647 -0.0111694838719354
  0.0723474590661316  0.8291970912804906  0.0793069323070514
  0.9149055619196628  0.4992937920247266  0.7419469766496904
  0.2364385360509066  0.3327607385457647  0.7395165632443956
  0.4106799179859933  0.3442595558128074  0.5606525051396630
  0.1565484700175035  0.5847439877566712  0.4165914705169318
  0.7484096136345396 -0.0040778128865585  0.5799633837731452
  0.8317774296250069  0.8283787823567076  0.6620839182698153
  0.5834848485602108  0.9127233827939556  0.3387056904377563
  0.1599790448687543  0.5009676361694271  0.6598660837793269
  0.9123330300394320  0.7473467529510017  0.6621124018060185
  0.7531672412068384  0.7480971363638413  0.3341383042088523
  0.1563630865524481  0.1621574152234332  0.8239722978040535
  0.7447213954886917 -0.0036241899364222  0.2468034896256861
  0.9148653606549606  0.5003763169276194  0.5792732105929175
  0.5934913796296679  0.8095193746156958  0.0758363343434888
  0.6657912173386950  0.8304867742112231  0.5007139567509410
  0.8315462192058520  0.8299037563470429  0.4988155266122807
  0.6720316625924803  0.4152220160738785  0.0793878607795877
  0.7554610673324769  0.4146344551577721 -0.0071527622265943
  0.7604824585119927  0.2508538537139222 -0.0090444876454264
  0.6694077023480115  0.6571471612796383 -0.0079796256371496
  0.8349651730201526  0.3328120045861024 -0.0063108794531127
  0.5058369820248695  0.0822077944613998  0.7464720676761311
  0.4992923705205715 -0.0027901935367429  0.6660070963455629
  0.6651381207506825  0.8272446857313411  0.6594039208416742
  0.5888560537545225  0.7449750765441329  0.8210307498409291
  0.5819318361049287  0.8293792362405135  0.5821259363604689
  0.5292182167585774  0.0727375035829819  0.9132054110537218
  0.5784060271221024  0.1691444129039432  0.2614221194719191
  0.8305041283255964  0.1633480469218590  0.3324704754239337
  0.7485020692371950  0.1661456264032660  0.2534138997367931
  0.7492812142047848  0.0809874116783453  0.3326452237127846
  0.7533984094345211  0.2436302854121987  0.1664536127217942
  0.7507050242234617  0.2461970112324683  0.6598691467172858
  0.6668266662835427  0.1616592489534475  0.4985671562140623
  0.6814082546858619  0.0726442118525670  0.0812744933674809
  0.4905596423081812  0.8366846388111073  0.1545336263111844
  0.6673139641876900  0.3309443649800843  0.4976822345775693
  0.9144871201781440  0.3314635613265648  0.2485726395375737
 -0.0073539064656772  0.9101907273296070  0.9099622827408619
  0.8310934550149531  0.6599271469186594  0.1637147883477302
  0.4024668347346255  0.8125328817250951  0.2322072595881833
  0.0666495660450174  0.0783692766522313  0.1664131730915127
  0.4094010207049684  0.4210619509997406  0.3362851904715630
  0.4097224809892956  0.4157219314176770  0.6636659807435117
  0.4139162282094127  0.4790101988648983  0.8920686893710614
  0.9129980762928028  0.7476339819910656  0.4990645978359503
  0.5876907086989799  0.8291364921298555  0.4249616868798958
  0.2144475633214132  0.1740869337718684  0.9118146000826097
  0.0770917590337276  0.7473821248669009  0.8257642557925354
  0.1566546205212145  0.7455838557311869  0.0758990326374487
  0.8317279656977868  0.5795573003182232  0.9104387982717544
  0.7532163954988020  0.4163350783536992  0.8231958655694064
  0.0694811761000865  0.3341982273711316  0.9114838398721625
  0.9124607437807463 -0.0040253123454275  0.5792198800169911
 -0.0028398839661523  0.1606512433092574  0.8278219891101835
  0.3234880518872281 -0.0038789728816129  0.5032589743088312
  0.0755736297146058  0.0782259965347622  0.6609845457086772
  0.0736650143910401  0.0765251796647296 -0.0040975578541483
  0.0742689308015540  0.0784944485391202  0.8279926464004022
  0.0712738152201243  0.0769413794777787  0.3343743418278816
 -0.0085675191664603  0.6643310789272200  0.3320337401368538
 -0.0045615695075535  0.3309458405654430  0.4976995431581778
  0.2363210308390849  0.0754869347921608  0.6576331100136510
 -0.0060818792413339  0.1618416733259474  0.4978427870608495
  0.2389572034599081  0.6669500406587618  0.9067501630993322
  0.9106434275742603  0.7478935423718397  0.3312382664437482
  0.0751588693696392  0.2459793404845015  0.3345139574281639
  0.2360418889224397  0.1591633889857461  0.5774041258466234
  0.2426014370038568  0.5865374393370342  0.4986656376806106
  0.9107624430106646 -0.0051700070007690  0.4154698665971669
  0.6683141391423354  0.4978632566024926  0.4986181967980218
  0.1611557893116086  0.5834150690275299  0.5784662445567699
  0.3207340503244269  0.9141644688770715  0.0862346839610088
  0.0745510075831765  0.5003349249758322  0.0773869963798711
 -0.0056381779644784  0.5812844624134519  0.7429419050346049
  0.3341769626522730  0.5351570776186659  0.1551114300815412
  0.0765438937022557  0.3307491868860961  0.2580718086319305
  0.5900299784706042  0.7324354510550307 -0.0118578979407734
  0.2461072073712942  0.3294286079624074  0.4138437145654718
  0.1604786025413228  0.3331788204565718  0.3318674928240660
 -0.0071394863724389  0.3319291227673233 -0.0084651771665524
 -0.0045914570198886  0.3318564109515820  0.6601361540504356
  0.0744275036797066  0.3305434941817119  0.7400701799621368
  0.9158603999426433  0.2451755371535342  0.8261456762835107
  0.2403686696955739  0.4167431037903827  0.4952963276052596
  0.1556686622696077  0.4990244949845272  0.8238841309513565
  0.3275944824768494  0.4993732525990223  0.6607135084553543
  0.0777098931129157  0.5026947486424673  0.4160278167244503
 -0.0066949054140788  0.8302527404696561  0.4991218221548062
 -0.0072602500941802  0.9136160146483876  0.7444887219808141
 -0.0064902110111434  0.6644555669681015  0.1633039338432307
  0.0708846076397755  0.8313359230325196  0.2490899039987943
 -0.0102363996176340  0.9103530279983006  0.0783123248424389
  0.9160317446246626  0.3296674090413504  0.5788302871592065
  0.2347938692929646  0.3297175745868616  0.9135099561661789
  0.0741557498723133  0.5000215356605430  0.9079002204883595
 -0.0048528518189277  0.5818965034007010  0.5798989314714579
  0.0729210679956032  0.8301258275660759  0.9099403978744327
  0.2368613748473742 -0.0104316939372892  0.9070387785850402
  0.1581095079544586  0.9117729979011584  0.7438600761407457
  0.9120458291338975  0.7457437426810318  0.8261249146769529
  0.0687101541110417  0.1615631411943114  0.0811613572848782
  0.1532809309683580  0.5792232873788250  0.2491807230145422
  0.4036426468496358  0.4178640976298119 -0.0182604257991745
  0.0630755964958954  0.2312467206315836  0.1630678729375497
  0.8341400489833257  0.4166454251248699  0.9079332855271203
  0.4802840461859194  0.4342017080324881  0.1623610180709451
  0.4073426883361492  0.4863929859299376  0.0614350167732217
  0.4083993517204867  0.3526245414740060  0.8919223328037202
  0.0777283767711409  0.8290266425994973  0.5806628596261219
  0.5863388312359080  0.4173018602875314  0.8291822840253767
  0.8335629813792947  0.1618116073606095  0.6606674304450662
  0.5966820533625822  0.6727593870552918  0.2660379348967404
  0.4115459927922378  0.4142653573073916  0.4849884866806256
  0.4113322854351399  0.7475346581058293  0.6626127286593438
  0.3159217100529183  0.2375746303416659  0.8971100250218659
  0.4109782158994809  0.5780224558507391  0.6628720336814813
  0.7513570237568954  0.4960300830159614  0.7427810810834259
  0.5574816336090506  0.5367836101840475  0.1537491209627705
  0.5020681483613991  0.5921579359498096  0.2474034924865757
  0.4212534791411878  0.1652501856589819  0.9119706065259569
  0.1479690087252535  0.9166259161622048  0.2522815944350501
  0.4072091755400238  0.1608747301509196  0.2522009175047949
  0.2432029245288264  0.6654062552153290  0.7436309915682779
  0.2444384171710887  0.0776633501075073  0.8280231589323266
  0.6733604157757225  0.0778870030230509  0.7420472420324865
  0.4957481435761244  0.0768954175675898  0.4222418938337841
  0.3243370543242073 -0.0047807172243126  0.3366107903908325
  0.2369109800452664  0.1542474431082546  0.2518602715582478
  0.3167439667806039 -0.0037520121335244  0.1711032934476525
  0.2400475645255572  0.8326856661293606  0.9077227886663712
  0.3262830377121175 -0.0079045325752707  0.6618695878365803
  0.5822048118617473  0.9150518043664516 -0.0023138690467077
  0.1575458014629443  0.9107594326131910  0.5799708391691738
  0.1498012263413739  0.9116635029985728  0.0793585397314941
  0.5989525922284973  0.3264387361392330  0.9077928035108429
  0.7552204826940087  0.2465231350894672  0.8227109251805255
  0.4115456853309711  0.4939989014824472  0.7442454169179136
 -0.0171423979016979  0.1613593590419438  0.1653547378684768
  0.4124020175766390  0.8307899219775288  0.5803086468256076
  0.3913421790017859  0.3137384663069181  0.2786026618280207
  0.4959273807994127  0.4132680119984917  0.2809830893828948
  0.5923258098838547  0.2407241826059354 -0.0120952437460943
  0.4983955428759611  0.1546281175265873  0.5046033141220513
  0.5767443764908867  0.2402223888700515  0.3472297695900339
  0.4995719313153130  0.9103538218677454  0.7418005708988878
  0.5811607965917062  0.1159894325090912  0.0075050106934158
  0.3256094542998403  0.0722119326312341  0.5840911569225247
  0.4969720439724503  0.9170829061165690  0.4213158078952922
  0.1542083718445751  0.8313289996242812  0.3377983117414285
  0.4991917869753235  0.0743686463317588  0.5845098124927095
  0.3215720311265401  0.1597607519108170  0.3354520690849455
  0.3295035670962914  0.8355228648934176  0.3496777669155329
  0.4674704907516989  0.6491774894493597  0.1444064202099236
  0.4152262096060500  0.6880022380775129  0.2481346670055735
  0.4126778348613593  0.9136229934731631  0.5041709027998178
  0.4241737535712310  0.8266293506535729  0.0431662474685557
  0.4159656708698418  0.8417451701496906  0.9121287510296127
  0.5859643119004863  0.3316127089796353  0.5770969817685483
  0.5003579800059508  0.5081953792378623  0.3323974042430781
  0.5834579371002276  0.3300032010401230  0.4122446773311482
  0.4198658489595226  0.7505472245082861 -0.0359367274058345
  0.4979153826708328  0.7453978758995280  0.7439617304964586
  0.4948007351036994  0.6627793383259951  0.5006058999366161
  0.4093928839659938  0.5690019099452973 -0.0258744796876919
  0.3045552300283855  0.8339841690789956  0.1692022270883632
  0.4990958032866863  0.7469507320093923  0.0727274748655693
  0.5859212515136122  0.4934743586128381  0.9074164502540488
  0.3287610855682640  0.7492236650841813  0.4148145016093923
  0.9141967931441788  0.4981342883467828  0.0789311314124138
  0.1468110413065401  0.7531523070968761  0.2562825934344850
  0.9127639528322408  0.3301042586055306  0.4172151030121645
  0.8317392208352125  0.2474893315452997  0.4170487462808183
  0.7509563951722537  0.2460396334663315  0.3344370851840484
  0.9137960379918750  0.2516632736211655  0.1643144122452194
  0.8375018180378970  0.1654731646906605  0.1658219739550537
  0.5846886328357156  0.4148256245787397  0.6557235331287834
  0.8334102220999600  0.2460423147620074  0.9079763482312616
  0.9141044068223498 -0.0062628826396526  0.7451408090538979
  0.1556134252365484  0.0775551527771946  0.4165134325302580
  0.9099517843474336  0.1634760518978807  0.2512194157303793
  0.9094670372909440 -0.0070569212490075  0.2483375776301071
  0.8273370539377582 -0.0051065647117535  0.1625761355490330
 -0.0115508906984326  0.9135094889215311  0.2484810237541492
  0.9087255711402504 -0.0069442495827415  0.0776081462819561
  0.8321820203924546  0.8255114826400113  0.8258547138599196
  0.7508849223831146 -0.0050338164881689  0.7436397599585141
  0.8295047255699373  0.8290255495626010  0.3318136053577305
  0.8328888954076241  0.6650778057483787  0.3328690700589613
  0.9135280903384955  0.4960436322823407  0.2474663154389714
  0.9131980496852966 -0.0058676981033126  0.9100631125289710
  0.6702692065018029  0.8267639872511595  0.8231531822136795
  0.8349392827606441  0.0771387027350281  0.9082528305002893
  0.6668374789494685  0.0713731466150694  0.9152719272151361
  0.8295501306504732  0.7466654233367053  0.2475182063385529
 -0.0067738007640386  0.6650233170411132 -0.0068324214887643
  0.1582804058454603  0.7489492217352547  0.4130829285389805
  0.5834443548459702 -0.0031646682629273  0.5833338821584745
  0.6720114722065555  0.7471666169353428  0.2490758716258371
  0.5771430067057028  0.7412120066363197  0.1665727751249219
  0.9128990454948723  0.1628066483490148  0.5801028544088577
  0.9146688372833824  0.5809160631579804  0.4998185419622773
  0.8361945933869938 -0.0080613789129507 -0.0128131083502813
 -0.0049902477154169  0.4158015938107112  0.2492096735071403
  0.1499520008479788  0.5766261854198598  0.0774982194337610
  0.1562198434405846  0.9131847933528826  0.4164506523974543
  0.0756486146181140  0.3311657257260471  0.5780310167060811
  0.0736991542051428  0.5027931321072678  0.2489100523911195
  0.0781846469933661  0.3303149292390519  0.4129053167527857
  0.9103743079652508  0.1624337754102832  0.0770351671559115
  0.1609124643368268  0.7476306985319223  0.7446448023244847
  0.5060455924526175  0.6668042950144001 -0.0160577584364189
  0.5940153617911584  0.4978935261248443  0.2561913672373169
  0.4968884568941700  0.6584671214645771  0.8208778924484996
  0.4127455015835206  0.5848968770230698  0.4972043064507590
  0.4134515767689703  0.5909114308180123  0.3267617094114829
  0.4096864684637966  0.5021357704218981  0.2541566230052645
  0.4478447094281014  0.5369529706296730  0.1539188123789201
  0.2301843371852571  0.1599537647385842  0.0862385571727995
  0.5000229025793349  0.8303465557606045  0.5010960830522881
  0.3153750908804319  0.2361574230074630  0.2468341922391926
  0.5036204669984095  0.8386523151147912  0.3530812655863875
  0.2424747190016882  0.8298312122917724  0.5796888048076742
  0.5774441026456471  0.0200128672556348  0.0792757127306797
  0.3510374353377143  0.6404252482651186  0.1473857187019659
  0.4092709424206191  0.2292159412118661  0.3463155199207312
  0.3232142305856738  0.1530869737301745  0.5092734926952627
  0.4114267238518803  0.2544257682863699  0.8301326548974669
  0.4122416972646285  0.6642942037398657  0.7443656016897434
  0.3211069691938830  0.3359491787445381  0.1852254074316191
  0.3956342548457056  0.7503874627528141  0.1324372620807739
  0.3228987400652635  0.3303427339896230  0.4960765048234209
  0.2372608107306889  0.1579037827104137  0.4176665843588876
  0.5056112675299594  0.2617971020664200  0.9137334878054574
  0.4129179561779278  0.0769901869206106  0.6633803767943008
  0.4148971548743165 -0.0007675343683640  0.7469860542512127
  0.2964418713213866  0.1459742913604356 -0.0156911911943761
  0.0763220994777143  0.8293300863198240  0.7445212686680198
  0.2421810011071409  0.8302408995579537  0.7441323412368562
  0.0774137277393017  0.6651506269029335  0.7432526489745146
  0.2442776171400720  0.7522098709262123  0.3271394470941545
  0.3426791857526726  0.0585965145183077  0.9106188239748166
  0.4133887743410450  0.1729810217147122  0.1083738807734954
  0.4254933635803784 -0.0205590851229822  0.9035243900187806
  0.2384357044218802  0.5070259646417142  0.0728235055495326
  0.1610784847968354  0.6658976710931768  0.6615876817581975
  0.3198162978695543  0.2461854171736504  0.1055256426247236
  0.2407996250628623  0.5075524408374505  0.4189973419765108
  0.3261103417271929 -0.0075805543452175  0.8218684051807170
  0.0782858607192094  0.5825991943964128  0.6613040814040408
  0.3699959889436188  0.4366017838934622  0.1567470365231321
  0.7509293293087935  0.6600435345906243  0.9078460718196908
  0.2434961879788595  0.5827061255581126  0.6611613713233057
  0.1571010924408604  0.3317541138738503  0.6592664007330856
  0.1571775787368574  0.4158571426256257  0.7412233560678471
  0.1596218910064750  0.5829149049478602  0.7428369484431011
  0.1588773361436585  0.5011901297980170  0.4977243577158227
  0.3202889660213520  0.4270703984752386  0.4162586773308475
  0.2371844975928921  0.5855887618637367  0.3343959161940429
  0.3120015712370660  0.2414860159132649  0.7590271653908689
  0.1577598299962361  0.7493322076606306  0.9090800978021915
  0.4097165725748026  0.2537358020816960  0.6207219364561503
  0.2329236327670801  0.6486208706685088  0.0698819607297274
  0.4335213230540860  0.0722785970464520  0.8399178825039860
  0.2399580480965741  0.5000713479332206  0.7410765922844659
  0.3325682258325260  0.3243983042700758 -0.0208714764314192
  0.2156437638425312  0.7569115268102218  0.1737015142088210
  0.3123078903993353  0.4170907908311772  0.0607169431759203
  0.5701823886085242  0.0831341113766803  0.1849541933810774
  0.1597972100463483  0.6667269546888330  0.4974981092245127
  0.1541460260163194 -0.0048683173430664  0.3348620855637192
  0.5850273777036642  0.5785823484363027  0.8230654451417485
  0.4958740311645087  0.5775040077640236  0.0557612928470131
  0.2417380270304771  0.5062756552487926  0.2505222535894866
  0.4999912506142529  0.1760497822574632  0.1815661385428456
  0.0733010000753835 -0.0048746588521892  0.4161119938071539
  0.5070034557502192  0.3945952290396115  0.9255051884174114
  0.6690118035414261  0.7337823902487994  0.0798255875334368
  0.2408179197985367  0.9115203949220504  0.4987343361530721
  0.4159259696793373  0.0698509966720661  0.1699099785157838
  0.2441266871849077  0.7481810241817217  0.6626886344373388
  0.2427049167228950  0.7484924956958120  0.4969817171104793
  0.2347711904685395  0.5010714158401538  0.9024396219727534
  0.2444045923168837  0.6657073962321420  0.5799360999418776
  0.2294857134906479  0.6639009389444714  0.2516481103145001
  0.2369269615348484  0.4146381870950593  0.8243969009584986
  0.1551077555894011  0.6675388246254491  0.3346840708328166
  0.1585596525717214  0.6661911290172630  0.8254150015036842
  0.1556065040003597  0.9108863326044200  0.9096108750227748
  0.0772359710839560  0.5837466043612305  0.4983871425554227
  0.2413562623924367  0.9117340759374422  0.8249383280864142
  0.2299582113194674 -0.0104236657322577  0.0856906753815449
  0.3048239130757948  0.0736193299454605  0.0841397242226641
  0.3027596255851462 -0.0031484511558625 -0.0007650333699343
  0.3960343841487958  0.1033969535672511  0.0194779322605256
  0.4084404449831845 -0.0044201651359380  0.2600379974229793
  0.4061987895863205  0.0798418819160804  0.3393142969182940
  0.2389999407768307  0.0754334405096107  0.3353386590745552
  0.4946537180862677  0.1575553695748444  0.3436299009926477
  0.4111426875410105  0.0723840153206584  0.5034018789434168
  0.3230212282149874  0.0770758601213332  0.4198552095768295
  0.4128168543652710 -0.0065132230085068  0.5847579566414984
  0.3229046255275784  0.9096924383417141  0.2567133416365427
  0.4046742126990286  0.9244307201051898  0.1768853400217276
  0.2367292654610668  0.1585876880848128  0.7397301856405034
  0.4139622946111539  0.8337286781260353  0.4248519925322967
  0.3290019899827478  0.7478545575435717  0.5806117259182279
  0.2359547537462017  0.5812796504437623  0.1638326436044551
  0.1595936646566131  0.8299838925792667  0.6626782985415112
  0.1560347381529904  0.3314420929595207 -0.0003654629838138
  0.3283123040449570  0.6648888866431664  0.6624221087317748
  0.3279929218139902  0.7469842043070423  0.7452823536992518
  0.4961217200433185  0.5797936517729203  0.5802171046680540
  0.4136108043200665  0.6665653949962113  0.4160170740812620
  0.3269243566174639  0.6654035613945755  0.8264826900433606
  0.4143407046338424  0.6589284822713009  0.9041181883630853
  0.4128122276050145  0.7487049510276507  0.8288465113487414
  0.3214275551093295  0.8321826429251380 -0.0118819793021242
  0.2324759236168305  0.9160660889293244  0.1686460683352089
  0.1476454852574193  0.2560322337124621  0.9138332524794852
  0.4125385790673853  0.5060493122662237  0.4121298778149995
  0.1554538867203767  0.0768569584478585  0.5793477369599590
  0.4225224885529767  0.7555353430822235  0.3442003728359905
  0.3914389209069040  0.9246026545059582 -0.0045953996366014
  0.2254618745814464  0.3316715026468354  0.1071834464951718
  0.3280449961388190  0.6667298056503362  0.4983547636810527
  0.2371391979004055  0.4282491862611524  0.3393105160927088
  0.3179820720948549  0.1576211798642059  0.6563365994561390
  0.1509632330611756  0.3366176665745909  0.8249944311139894
  0.1588087948154317  0.3313645264587503  0.4940963455789704
  0.1539454543809814  0.6623657286799817  0.1616038831548459
  0.4090781194725207  0.1846802915330820  0.7145304347193024
  0.2356692805135581  0.5804490667436475 -0.0179965913160801
  0.3524418735527933  0.1506573245816380  0.8136285025099758
  0.2416870455580243  0.9109974397183480  0.6622123266948096
  0.3698571774852865  0.2210273500712216  0.0053725316078442
  0.1567726947532506  0.4986395737113477  0.1635139594347862
  0.2394443024009269  0.3343480088495345  0.5751517482527149
  0.1580386901067952  0.8305713221857305  0.8262970803848542
  0.4071952000675434  0.2533343162479414  0.1823571722939619
  0.1524656570715697  0.4157494784770349  0.9073866640300940
  0.3275515066151006  0.4273185682107720  0.2596402048916422
  0.4089897794979924  0.1538237315300117  0.4269438869538392
  0.2822768332364649  0.3362266896594384  0.3036064011837376
  0.3640623500169765  0.3318948723806589  0.3883893917845184
  0.2380514086629860 -0.0063861207119110  0.2540054938604294
  0.5036334231609585  0.3345218906017423  0.4927571067232828
  0.1550064899548571  0.8295457587003483 -0.0058200482287281
  0.2322960682525450  0.8336884651568033  0.0801470351954020
  0.2360569205358477  0.9094974912027700 -0.0048613162626863
  0.1476732783469143  0.8380788835391787  0.1645898959131360
  0.2435188261234904  0.5011394221643538  0.5774794270537361
  0.2240849984402192  0.8387933408094556  0.2516971139048090
  0.1543583289380207  0.5832676091194808  0.9058007976951072
  0.0785000921939608  0.5006198487569967  0.5790751793824387
  0.2406571513814999  0.8305691081070175  0.4169301029750798
  0.3265711143568965  0.8300225209795402  0.4991893131141885
  0.2392414777174891  0.9135428063477669  0.3372290690349750
  0.3114238851320579  0.4135753542116004  0.9108937757619551
  0.6662060643832282  0.6627245468259291  0.4983520358879137
  0.4934298953824441  0.2378478099932322  0.4294478884769367
  0.2247838499817774  0.2585732202081641  0.8276910750873410
  0.2418020827320785  0.7488950463163113  0.8257058471130023
  0.3125341614415588  0.2456363739128598  0.5750214710407773
  0.4084169919450946  0.2386867457107141  0.5074780693192846
  0.2292634690140650  0.4251561264043915 -0.0128263712603089
  0.4101767690999912  0.6703401783904283  0.0466104109528808
  0.2393683230535260  0.4172208226192542  0.6578720415550892
  0.2421900708862474  0.6681443680877328  0.4142454023043750
  0.5027816178973923  0.5020708274412446  0.8213499338902484
  0.1255111087512227  0.3176189967290252  0.1606277881306554
  0.3251123919825681  0.6664528391244960  0.3343789112679639
  0.3288847477774228  0.5826432212799060  0.5798024911838167
  0.3272163003279566  0.5824872170744506  0.7437036395934855
  0.2110066944595022  0.3291265030778027  0.2225610524633438
  0.2897079311630416  0.7341686705182372  0.0967693220443989
  0.3204702428567901  0.5038658471769762  0.8234830710668047
  0.3262053836832782  0.9169980929585159  0.4222401069555084
  0.3201061693637195  0.6695708076669998 -0.0166484192977034
  0.3237128456859009  0.7507186171674769  0.9048792299715471
  0.3279867855605318  0.5031970052356092  0.4967824325927556
  0.3258979915236858  0.5096177271364397  0.3362995702479619
  0.1579790857198717  0.8299232352737699  0.4971994802796303
  0.7545415772705595  0.0750515186683762 -0.0091478294704009
  0.7489083324166673  0.0896552042621476  0.1707866365697797
  0.4972962547080399  0.5859078727104237  0.4140157206046908
  0.0750456350270696  0.1613952446601357  0.5785851159731731
  0.1556032311357107  0.1607320031925581  0.4972429267764046
  0.5001484158511511  0.8283014813173094  0.8234740229544050
  0.6700211121599464  0.5819393962698585  0.4181931494765726
  0.3896555262844777  0.0050879922502469  0.0796924463693662
  0.6757042848201605  0.6651704608898501  0.3392053900669893
  0.4134152922257898  0.9123224752817077  0.6646028004834553
  0.1564928073635678 -0.0061874805965160  0.4982363246465614
  0.1539645198490824  0.1576889725762060  0.3332466052499197
  0.4120010932667107  0.6637559560205054  0.5816487677934212
  0.1576708994739289  0.2473144478407793  0.5785223025053918
  0.5820056225127188  0.5826550985747991  0.4967870907349200
  0.3275929709746123  0.9117465042345984  0.7428021074108183
  0.2393480306186950 -0.0078013780561632  0.5808845979260623
  0.3278711918686275  0.8319108150481661  0.8269644606029327
  0.5819485923150216  0.7453058561066090  0.6603892904151081
  0.4954398864606888  0.6630348796576258  0.6621491541358070
  0.5753356102015830 -0.0023478423044450  0.2686128926527201
  0.5052607156866659  0.1579793402846361  0.6605444533747296
  0.5866545722446844 -0.0052581764121935  0.7423465994717318
  0.4137281371075940  0.8270431366872945  0.7428570961190715
  0.5071157709176177 -0.0097177916922300  0.8220152602574238
  0.6079329617925611  0.1643939926690906  0.9057980073565243
  0.5913763533826970 -0.0172434890021816  0.8996270884137673