B  Cr Ni
 1.0000000000000000
    21.1200000000000010    0.0000000000000000    0.0000000000000000
     0.0000000000000000   21.1200000000000010    0.0000000000000000
     0.0000000000000000    0.0000000000000000   21.1200000000000010
 B   Cr  Ni 
  52 259 605
Direct
  0.1518288567339985  0.0801353030155220  0.8439831117774943
  0.9647550534092963  0.1394188813950602  0.6733744037849564
  0.0963261175180002  0.0692908192976562  0.5998604960902855
  0.1860636632706507  0.1369066667154158  0.7989715680150964
  0.0886295520071958  0.6665914724215404  0.5146725202444946
  0.1747660663893494  0.6537943841826239  0.9186617402692342
 -0.0092977391601383  0.4526983704086834  0.6885379676176379
  0.1493309497413415  0.6378552147594699  0.7459944801071231
  0.1262115941640056  0.4228009713800198  0.9406726875434656
  0.3291413690290789  0.2414926228617010  0.8388894958721046
 -0.1013830547338371  0.3070121412409497  0.6871729618728883
  0.1069728268618923  0.4400802289082888  0.5785370118712438
  0.0818871737311815  0.0921600777487745  0.8866031796995228
  0.1543820082033946  0.0962097697385681  0.6519767833820924
  0.1415290296056213  0.2817021254932545  0.7108333117622760
  0.2653819569926017  0.3700547108296576  0.8708425189307828
  0.0926953420476151  0.2226987611786568  0.7487645630785511
  0.0808913821152002  0.3373989641643368  0.6830899627870026
  0.9313294448601263  0.2540211456546185  0.7520104247501536
  0.0696127453641546  0.4934357860774506  0.5240170391436634
  0.0776673455957031  0.5244769753787382  0.8425716177201402
  0.2228842247119875  0.5025807995223510  0.1143885040502258
  1.0017046621883234  0.1736075336011734  0.6088506967040055
 -0.0662946811776741  0.5808574558647061  0.5924339892848780
  0.2467955077415004  0.6487959502175789 -0.0109761957505450
  0.8533949199858448  0.2483543006996972  0.6535391288660162
  0.2794525368476560  0.1743038085429310  0.7070182567866466
  0.0921421844599107  0.1433505478623317  0.4720394371952173
  0.0099206793359203 -0.0061847892999271  0.7554466428846917
  1.0089405492610470  0.6655089883923645  0.7479008845302134
 -0.0088110520475154  0.3237356930508791  0.4181635892137347
  0.1402439695107862  0.2750663996868868  0.8814986906575917
  0.1514138628685951  0.1783187615104464  0.6162076075860696
  0.0917839798426974  0.3272568912402873  0.8354403277816134
  0.3168146300726375  0.3343187400989570  0.7394857851862660
  0.2480243833536190  0.1105060029851734  0.7520880031978544
  0.3181399564807743  0.4085919204390565 -0.0017333211047849
  0.2472714889628552  0.4124950076735371  0.5850362517924956
  0.3135382662583800  0.5117505923546998  0.9003059486793814
  0.2358801683451968  0.2528286333703744  0.4132249764482709
  0.1798213324099129  0.2544331699381865  0.6409210632937670
  0.2451102054324571  0.3379029856032325  0.5007178393818132
 -0.0739944974987921  0.4020578641622332  0.5762332501813573
  0.0808024285866019 -0.0515910431718418  0.7553745582142432
  0.1969456464025195  0.5474503583071311  0.5985388435297916
  0.0903745091969496  0.3207136821733255  0.5031728459851599
  1.0005596542050399  0.5380419706282741  0.5608358183469082
  0.2761197450730410  0.1082536421372191  0.5653100621497595
  0.0784299547371176  0.0816033651331730  0.4152030664107850
  0.2715676740247314  0.2848853167709688  0.7926213874543028
  0.9716500384928076  0.6275120511959652  0.6770307649842534
  0.2455536281677368  0.1574076891315170  0.5109167768251233
  0.1663453873922612  0.2502706653727108  0.0844555068693597
  0.8234119524616373  0.3309015946594291  0.1670358629416432
  0.8272681680704527  0.5863870022361483  0.5815212993293634
  0.3420953671993995  0.3335867527253765  0.3260444401047043
 -0.0188756417478427 -0.0147591597069906  0.6618068368075315
  0.2552575137851040  0.0853123242301822  0.6585563374574256
  0.9018002849640034  0.3095227732843485  0.5851552878107283
  0.0817160394883181  0.8313703785316693  0.0860569405199220
  0.0774087244607199  0.5005577010123485  0.2548439135608627
 -0.0090084518507094  0.0756172451644535  0.9256875970771237
  0.1670482112535189  0.1647709583716134  0.1709228217209778
  0.8264939448716020  0.6681090230671526  0.8374261704707806
  0.9118418330958907  0.7505604104879999  0.3310863646003035
  0.2626576560865103  0.0030059540904847  0.7506827017696490
  0.2504999695843149 -0.0101191168096421  0.4081053919934345
  0.2630376443367684  0.1587121347408605  0.4067684150778500
  0.1643550325090571  0.3323019632935057  0.1676542704566254
  0.2785596491152759  0.5840347501242176  0.8288208553389109
  0.8268862655845406  0.9136820373003289  0.5825250431057679
  0.9071037396228920 -0.0052200815260568  0.5806401679552088
  0.0172086793404601  0.6317997888380207  0.5820134983002430
  0.1765371172045560  0.1765530515146781  0.7092795543424153
  0.9090395746114613  0.5034311090407217  0.9241296459977216
 -0.0083045013825190  0.8308918551196920  0.6645577162583594
 -0.0099949778615883  0.3337070804902815  0.8561555281826715
  0.1696469424558260  0.1657975928263393  0.0113884962320388
  0.9087972249814611  0.5004542581686205  0.2494011278558427
  0.2496021291556146  0.4172620469517098  0.1663391335176535
  0.8278922158924180  0.5868017303586049  0.0855179109007310
  0.2484510527302240  0.5590771652818664  0.0347922043491005
  0.8181689374932309  0.4958096159642876  0.6671989438607723
  0.5834999819296622  0.1628740597565100  0.9190717531759778
  0.7407807532594961  0.3307799916461017  0.5757829746901498
  0.3468807886807098  0.5884120712826530  0.7411103636222212
  0.2314184068272891  0.5620910319554201  0.9316918818130643
  0.6678117374050037  0.1620396091898019  0.6672995576457107
  0.3409876284877245  0.9190661258750477  0.5809780881117953
  0.2583577532284669  0.7583792702237162  0.4947797536698127
  0.3425741200637021  0.0855213036016089  0.7494416130753908
  0.4181432664626584  0.6701111223390686  0.4130353341995281
  0.9100200398111798  0.2456807242832782  0.4913375242053215
  0.2526058514189781  0.9153534153158027  0.0025028326266909
  0.5843813056748427  0.2467103719423514  0.3317097872679087
  0.6651109938439604  0.3314805062026826  0.4964330898718899
  0.4189861436810296  0.9131194446780850  0.0026218677539851
  0.8205042154652852  0.1579168692328622  0.6665318116344114
  0.6621027586940527  0.2463660536611928  0.0843304303720190
  0.5017363659190518  0.0787564462160486  0.4111912533415952
  0.9046214495963660  0.3338306873021853  0.2460190856995544
  0.7464746400960979  0.0779899244276551  0.1678695228153005
  0.8285565921342276  0.0772937020632069  0.4127450544843200
  0.6635612985411768 -0.0037045507733037  0.1670965655114901
  0.2494108887676241  0.5841702521569535  0.1651914847768425
  0.5847042024922312  0.1633394263353936  0.0853641210280803
  0.9060965329783168  0.4147095756886292  0.0085783748000338
  0.5824771101108775  0.0792934855659092  0.0013328716158820
  0.6621484435671688  0.4184298456001151  0.2515787409698674
  0.5066998200216302  0.0796499421126068  0.7517340146709477
  0.6638456070453497 -0.0049689906235956  0.6653041518431572
  0.5834826128857897  0.4153160227256248  0.3331781541200785
  0.5081789992436159  0.2461069237554466  0.5779938207259016
  0.1697805351724422  0.4998389637934338  0.5092893695597391
  0.9115756984731089  0.7498179908305687  0.1668970343839439
  0.0835102755218379  0.4982693983713144  0.4113383581960354
  0.6646172371310112 -0.0047479551276358  0.3315338777328223
  0.1793221099717069  0.0990506836279329  0.5555127291620854
  0.0813088951296101  0.4201703957260635  0.3306619993535121
 -0.0032537933718716  0.6681357464563071  0.0025688331407996
  0.7473709857466605  0.1645435326368313  0.7502335148776527
  0.7446731087253267  0.3314423213410408  0.2484109477011618
  0.6658113239982835  0.5013983447465934  0.4980911445845553
  0.7466372709114849  0.9138355867870961  0.3314840213596580
  0.4197831467084402  0.3324597436841841  0.2490774361600615
  0.4176923912188969 -0.0039953666905679  0.2474248075680287
  0.0681428048996762  0.1372584432805086  0.6773384226888527
 -0.0053597553395790  0.9184109278727722  0.9279293207080802
 -0.0173082541042029  0.3490356807633508  0.5114324295086894
  0.9070578914526291  0.4173192357449087  0.1676829145527586
  0.9050419571564112  0.2458925713788181  0.3252753989095323
 -0.0061726106984122  0.0744069006915352  0.5940833412127066
  0.6645288708976375  0.9120183659881255  0.9192745395494744
  0.8254657351112827  0.7500215775582471  0.9219952324181357
  0.1660904029608212  0.0761370702207178  0.2430537615805841
 -0.0096123477007715  0.7705823716340598  0.7597212219913105
 -0.0169709615837047  0.1598268527368124  0.4990087398346293
  0.5008604884749425  0.7511165071989201  0.9178942303990886
  0.0787217623701303  0.0795551941564554  0.1660051257656026
  0.9038187618192407  0.8318900723334368  0.7555553758552725
  0.1682048783731645  0.0551424948631121  0.7447218294861007
 -0.0073936877245722  0.3311951161838961  0.1704183968725556
  0.3411220147646909  0.9192241781392473  0.7500485650784962
  0.8250447407403902  0.2475959839492184  0.2497561007850144
 -0.0056117746737391 -0.0044288195263887  0.0055534076055231
 -0.0074864280290591  0.1466395715759544  0.8554574769540220
 -0.0054765197419188  0.8335530618189085  0.4898161904460974
  0.1682287848424369 -0.0050173968729528  0.5034154440133563
  0.9068748436412333 -0.0080345026862123  0.7530383932800371
  0.7442460461878326  0.3309948220380320  0.4144017014718043
 -0.0067260192557170  0.6739024058817220  0.4872599864395379
  0.9049269515543585  0.5028870319104153  0.4086306240210721
  0.0801777467203272  0.7507750195534986  0.1677945781490517
  0.0850453822073074  0.8349556744355416  0.5748908571951575
  0.0878637847928986  0.8389423505914451  0.7629929841335438
  0.9147251826740329  0.6760400977129428  0.5868016347142340
  0.0758117794371053  0.0289241074581490  0.6892445670687632
  0.8276300366461283  0.6662536365190070  0.1669230060041345
  0.2656858129046036  0.5107792919852419  0.7330974111097326
  0.1716743987262735  0.8381650513349018  0.8374419636081891
  0.9074096241135995  0.6724291787580136  0.7507283270033404
  0.2488792381904746  0.5864956408891051  0.5038932558657983
  0.0928951612307917  0.7876903613510218  0.6713082621998477
  0.3387422752022115  0.0806283846293825  0.0858048855305800
  0.9126488214782945  0.8305850320774476  0.0866808983561364
  0.1697200549295697  0.1510448764460090  0.3154037903881733
 -0.0061818656922303  0.5869095948892671  0.0883962924658837
 -0.0033648918057652  0.7645065625446538  0.5692516721673072
  0.9101723370648737 -0.0051613978859153  0.4130476257654064
  0.0808336575264942  0.9140462001492282  0.1641369907028797
  0.5830508759570173  0.5025109181988656  0.4144895653444727
 -0.0130853930389145  0.2469291927715447  0.2428233584991126
  0.0706842535567485  0.3295230469649993  0.9336674921129042
  0.7446643620523647  0.5839563459553667  0.8366763334620716
  0.8235823590021902  0.1618949510882715  0.1665847606561384
  0.1654173865461729 -0.0023580681818380  0.3295383379149929
  0.9102846460742443  0.6670812567318425  0.4131844838767692
 -0.0094070836603899  0.1634226678772878  0.0103607204366558
  0.0770721208167976  0.2428661798608564  0.6508698582661971
  0.8276747326132431  0.6664604414253142  0.0028019893825053
  0.0678731852805854  0.5835188530471007  0.0093537081999176
  0.1676262981965790  0.6666380467707755  0.3330821147737655
  0.5009118781203433  0.6697389006845302  0.4966435947011524
  0.6637089175551396  0.7501966196052724  0.9187805532485986
 -0.0046725547800374  0.9143002750396488  0.2472549871522927
  0.8260909220643453 -0.0048675479072022  0.0036314742475945
  0.6633053754274544  0.5039218839052989  0.6640778775991456
  0.4198333993217240  0.1631908019088709  0.4127543352666961
  0.2501878485781219  0.7476669895978093  0.1656817366814940
  0.8255719181684283  0.2443526585113936  0.4125063697317804
  0.0817606280785234  0.6693163143016646  0.2509844227130140
  0.0821931031197600  0.7498760651611501  0.3310200202708489
  0.1689537911834008  0.9183538514874967  0.4114315084149737
  0.8288320920366422  0.4174401829810217  0.9235030602953225
  0.3441258715619154  0.1579797920146291  0.4993041859863265
  0.7451572451097915  0.6648645826840887  0.7538313524309477
  0.4184400533438171  0.5001959095419856  0.0832680658295939
  0.0834808000210625  0.6693144673289689  0.4107003928404099
  0.2608016678378633  0.3117219517649753  0.5933110702496311
 -0.0066780012393438  0.7537253236281753  0.9230123159474761
  0.2522990404668893  0.7510634601623117  0.3304162568896376
  0.3451799132930678  0.5914505602966981  0.5783902318276671
  0.4161135111801343  0.6667480691354566  0.2486772030087286
  0.8229836522535959  0.2465121016687097  0.9206752893995166
  0.3348724872738165  0.8322969483510582  0.3280137575064375
 -0.0174102359915238  0.4154604626593296  0.9278640616673329
  0.9058784768455240  0.1662396812580700  0.5819285075945381
  0.4193599782055855  0.6690093971925758  0.0851454908426599
  0.3416856633661268  0.7546714336074674  0.9174777606512272
  0.8254136918940514  0.0799423622102800  0.9211695635434444
  0.1685760769458733  0.7564773931156609  0.9195747228678142
  0.1734303828114605 -0.0021254630693759  0.6401516281991744
  0.3371176813867761  0.5059229025699047 -0.0016763172755137
  0.3383741223223132  0.1627547016712659  0.3276648044305939
  0.5836010184903152  0.5862128282710501  0.6638912635736179
  0.4177699510174894  0.5011938285424773  0.2491959111108318
 -0.0165278919869335  0.3513798255440725  0.6550316115285559
  0.8313936814557267  0.7489763456751974  0.4106730470933547
  0.2421264024936754  0.4501367567746712 -0.0606823986627938
  0.3390599737393067  0.2481453175257243  0.4110673313147386
  0.8275802429096515  0.7491359347628899  0.5822321848274874
  0.6638814738161717  0.6663956741994727  0.1680819413593645
  0.2525762110823064  0.4223630323778001  0.3301242455721605
  0.3238255962539888  0.5020969511807843  0.1552971827899112
  0.4195325845733359  0.3322982219804873  0.4121612224769566
  0.3477767899448443  0.4145932333621136  0.0923418114258063
  0.2526072273405948  0.1647362661756886  0.2468911619532112
  0.2543874254005622 -0.0040066247379956  0.9265685767300529
  0.4338532180404591  0.2471391740339640  0.6616931598215371
  0.5847850347034013  0.1613637326072280  0.4113636500222245
  0.4228694487760919  0.5021900841537622  0.4130913585691864
  0.5824126717044067  0.8310157235761548  0.2494792391226464
  0.5812097984426138  0.5839147014575463  0.8331584129148325
  0.3478466416466460  0.4180672250216773  0.9067753778794870
  0.5814732575229612  0.5830312498537765  0.0016494643556838
  0.8258256651822762  0.4179080723219514  0.0862248914327035
  0.4200017640731548  0.5022913990674500  0.9176600682434836
  0.5835776177049421  0.5004986806196832  0.2519354151329166
  0.2568339339886517  0.4635949962233915  0.8323356157436232
  0.5012025742312137  0.5033129198932916  0.8323607087457029
  0.6656078935651543  0.6687405417128452  0.3325484696288766
  0.6663192107427740  0.6706792219416132  0.4966981150083151
  0.7472528161312013  0.5020357748474743  0.5820418481667743
  0.4221450850865795  0.6730475097899489  0.5789151961759160
  0.1664622348691957  0.9151167781039454  0.2469950778015433
  0.7472091974316588  0.8320949138771427  0.2500173031888553
  0.5835001463028230  0.8324642022107331  0.7489484495227393
  0.3423414599535405  0.1602602335205674  0.0081494211435930
  0.4222947812147026  0.2475119554882438  0.1696534129974666
  0.6642973753320129  0.9153708621114486  0.5814123795019787
  0.5067366153606849  0.0788843202089068  0.5803376615686576
  0.7453531533204337  0.5854185333014819  0.1670154205658054
  0.5010215463326824  0.9135096704755029  0.4108391011620393
  0.4983157460100758  0.7486992663194256  0.4134047798689461
  0.5021023539989592  0.5017738307887130  0.3315353968993152
  0.4159879824396391  0.8319682994684898  0.2476566520102085
  0.5003629484038935  0.7503272689658688  0.5808957758361608
  0.4989625919684767  0.6677073120677264  0.3310213408591749
  0.4218166311718158  0.6715129663772074  0.7459385632869859
  0.4197595369380636  0.8344271845570638  0.9182338224529153
  0.4247373194766819  0.6748510376550902  0.9173200239239750
  0.5824753069672864  0.8320518867552747  0.0858236383309304
  0.5028538105127311  0.5019889962095524  0.4960610144044187
  0.6658990701148630  0.7497957280371605  0.4139433209740460
  0.5830460389484744 -0.0021634483527728  0.0841627071232359
  0.6627833382970167  0.1629220276158746  0.3319956201005528
  0.7437977405680192  0.8321162424784887  0.9205230987176461
  0.5851886211877850  0.2476070315718768  0.1666396996726311
  0.6610202597905254  0.4173405122678550  0.0843023608744011
  0.5843904079494797  0.3298155278110562  0.5806323932836486
  0.5096709448410894  0.5017738574576316  0.6607492897425373
  0.7465918364577626  0.8308720997424226  0.0854636742419692
  0.4218996166377958  0.0794096533959146  0.0044501013778781
  0.6642433031758698 -0.0038868745820964  0.8349255267495758
  0.5001043974930520  0.4170056015555371  0.0847497802775680
  0.5841483209599062  0.5000462033512945  0.0840033112009295
  0.4202698664011047  0.8371541364270564  0.7495594615685333
  0.6659848711252757  0.8322065553547920  0.4965492150294837
  0.5849208318477629  0.5010292756391422  0.5788639457999628
  0.2503991230441043  0.9141835997441673  0.1651657832819633
  0.5018106761777652  0.3313613274983767  0.0022124161503491
  0.5049324255449404  0.0799780005042445  0.9199231289639528
  0.3383232883816455  0.8350597322000765  0.4947330540726106
  0.5053095481276042  0.3307431159874463  0.4948519761452353
  0.5047328831370030  0.3294154048938319  0.8342471667426812
  0.7455227253929603  0.5855522629432083  0.3325082803817047
  0.6647970080592779 -0.0060073832161122  0.4969896651383875
  0.2603998352028967  0.0027225792732451  0.5767906713517269
  0.9005751046709558  0.4120440539892787  0.6709476944646682
 -0.0130086355105975  0.4145631020591665  0.0938914568030417
  0.2538664789301202  0.6642892298284584  0.7496318768496594
  0.1811637857698333  0.8440522875612645  0.6656016779361067
  0.3385616936541388 -0.0044648109780905  0.3255253076362082
  0.1705335814530571  0.9106304759666688  0.5751714044873245
  0.7442876857423371  0.5854752222306854  0.0032638590228955
  0.6630535993602172  0.5004551966643468  0.0007709435197928
  0.2512069033817492  0.1947775361468816  0.6066081865609105
  0.1561412473986006  0.4176934314483243  0.1023184144340156
  0.6640714482485461  0.4144992458611495  0.7524091088109400
 -0.0070186462700197  0.5860176798325124  0.4096694434868551
  0.5060183088637674  0.3307343794449491  0.6648188061301976
  0.7457078382345560  0.0777773929909690  0.8357294791254967
  0.5837664544197184 -0.0054564434435199  0.5807950668867097
  0.7431364720430998  0.8314580041568401  0.7509989384115524
  0.5003516460711411  0.9134929034517240  0.9206134754888551
 -0.0079977429263957  0.2453419027985493  0.0912677687201230
  0.7413698116325180  0.3333654429528908  0.7556086906313002
  0.4250452361742113  0.5011783286571189  0.5774927044271784
  0.7442693323220543  0.2488236311950772  0.0013966410847134
  0.1828878303539301  0.5644376291575092  0.8050851741983134
  0.7469376023559052  0.0781496936867430  0.0005649053737182
 -0.0052199136761508  0.6683465226787024  0.1701325630979112
  0.1714298492618913  0.4196154850734732  0.4158870867256389
 -0.0079823888809731  0.5017943678238573  0.1710136373046117
 -0.0052539334281259  0.5845922632186765  0.2523304593001210
  0.0756921783801298  0.5849101834190366  0.1721775656178768
  0.3343489407011957  0.6668393519508602  0.3295724277283683
  0.0780752524435022  0.6765843028651541  0.9185597877743511
 -0.0137326744592926  0.4930564156791934  0.4821360355625008
 -0.0022431935200593  0.5883720282665109  0.9152953086034409
  0.1699465877099541  0.7550630608289834  0.4086951049083305
 -0.0065847431596147  0.5359532284798039  0.6569676088302204
 -0.0130110615963419  0.4992848756018728  0.8397617312727704
 -0.0221325322307345  0.5804448076157790  0.7604795952655172
 -0.0132813202747150  0.5007258680575934  0.0116853734937422
  0.1239031441384437  0.3661385572216500  0.7601664072472553
  0.8241547178858432  0.3320847425697250  0.0052651667016814
  0.5030446360499063  0.2470691878574092  0.4121714985827931
  0.5830003300311850  0.0783440640152609  0.3306746771826410
  0.2538600415135842  0.0762583293153697  0.3296504086562200
  0.5019434452342817  0.0796671042064007  0.2480037455861990
 -0.0029290811047804  0.8315162926752678  0.1675302786816639
 -0.0029881051969618  0.7508912159769788  0.2497104914923909
  0.1748292275502192  0.6806891362259369  0.6668540899912927
  0.1518126059619228  0.6197280788080117  0.5751120779789417
 -0.0112735173779936  0.6762364540581866  0.8389000184177611
  0.5857930786085945  0.2459178562277891  0.6657594428781203
  0.1685780783523973  0.6810856094043254  0.8300690990455936
  0.5841589220313990  0.0782316374353494  0.4963252408702802
 -0.0038535625943986  0.9136149585420335  0.0853509429278570
  0.5858931405208098  0.2452983806366682  0.4950870427211274
  0.2618194339765226  0.6748513779609659  0.9025413204062691
  0.5030040980982974  0.9143494887147712  0.7504743337935885
  0.0803781580126252 -0.0053681076970912  0.2450061296833668
  0.5071870685068995  0.1620864773147485  0.6652597448999299
  0.5038648024979978 -0.0042072977213641  0.4956445116241994
  0.6647681813445665  0.0800649183517725  0.0841670317598799
  0.3332452750602202  0.5829387755746684  0.2477123140372180
  0.1654840483173971  0.5839491710961904  0.4188131588139888
  0.2588341399725735  0.8438192111331230  0.7499515348132405
  0.5049281890144920  0.1620208911726510  0.4934090214683938
  0.5019398598613469  0.1633901372465410  0.3304778463519223
  0.5841362529212905  0.7510506587088865  0.6645530827071179
  0.2611014141424852  0.0688463338217411  0.4816102676266584
  0.2594718619659281  0.7567513171206924  0.6653197603904694
  0.9066059107251662  0.1617992895117818  0.2448825190019966
  0.4280350429712793 -0.0061266649363387  0.5806395242126111
  0.5857924019967753  0.0793328507287790  0.6661937791764629
  0.5840719886196967  0.2476333571931272  0.0017384259142002
  0.4266298456733294  0.0771035688974484  0.8353957763004588
  0.5033489656880927  0.1639191809333266  0.1679975693541184
  0.5043462327031160 -0.0040389692751880  0.8357419069520937
  0.5843148700929186  0.1636455196852632  0.2495798665044043
  0.5853238271256769  0.0796414596743106  0.8349715780218256
  0.5053750767892407 -0.0034275024975132  0.6666508042904449
  0.3385146868645952  0.7538279526698175  0.5799069997266303
  0.8272468594211984  0.8313814948676141  0.0045375746479107
  0.1236867358892946  0.5796346485619197  0.9092903827365955
  0.9101891126336996  0.9131934356099253  0.0049334252454921
  0.0802103906116397  0.7510290596328993  0.0037598105708000
  0.0819922308338674  0.8326240076035030  0.2474720208457436
  0.0822537628781926  0.8352486920226949  0.4089284474385715
 -0.0053456676504393  0.9153040621052404  0.4110986633904548
 -0.0116147413307017  0.3331735148192420  0.3244386219023498
  0.9045275536448940  0.3288017099913610  0.9254869260119909
  0.0728174175136160  0.4997411834944415  0.0907719584945373
  0.0887752233232461  0.7097125980634300  0.7480457550050048
  0.0721207510694746  0.5794448844067408  0.4929283219983220
  0.1820743892907652  0.4625387530494897  0.6338066297429047
  0.0806753304442486  0.4300745632593567  0.6744718906718414
  0.0783599630344180  0.6684210693141949  0.0893704581799418
  0.1526584812161962  0.4959976548406771  0.0027170414646419
  0.1649808705018691  0.5860391046542092  0.2517342340776705
  0.0849343313791107  0.7569937673456559  0.4897095256773243
  0.3333677342636236  0.8306279707959290  0.1653075973785053
  0.5820195747687724  0.7496715999712479  0.3313847288737368
  0.0927368352928166  0.1392052223187699  0.7937632731291856
  0.0748262170460924  0.3483669449252775  0.5880591747180712
  0.0744876972755081  0.1698015228103578  0.9365348181750133
  0.0625932402794062  0.2389182861877016  0.8432249157798666
 -0.0123582347985920  0.3299705275056008  0.0101544017803714
  0.0644902823560626  0.4159461638577441  0.0132523569071152
  0.0732211295890715  0.4174145293559073  0.1727581377835789
 -0.0084726166409846  0.4181952165228571  0.2512716190744102
  0.0786895462726998  0.3307978788230707  0.4000280771305255
  0.2508770299385382  0.5057972479433038  0.4158522355503401
  0.0662258668272539  0.5107824970390474  0.7501697327988126
  0.1699016151119664  0.8355225539539898  0.4912667233156995
  0.1658877929005977  0.4184496301872190  0.2489521555965224
  0.0041394072073494  0.2565286422960678  0.5637467684823155
  0.0828736756361695  0.9092632675400810  0.6681425671865955
  0.0680806739169769  0.2392739740733730  0.4722819972153594
  0.0797215713770846  0.1623689847861770  0.5610491350250583
 -0.0100545171412095  0.9055279825518080  0.5789147887099478
  0.5026559275997881  0.4163644620791576  0.2509741739765973
  0.4186596483917202  0.9132732647474344  0.3285543665088703
  0.6645758530771334  0.4170524422361240  0.5797468218507821
  0.4199623611040565  0.8345391097388790  0.5803224704263394
 -0.0129196477725051  0.1584792275652397  0.3217716612819977
  0.4305663967562614  0.1621099066218948  0.5775046506991940
  0.4225417288032552  0.5864054001942557  0.0019493499141620
 -0.0040125682775202  0.7494298172810622  0.0860756081229878
  0.4269285315371326  0.4149970774326256  0.6620556062575393
  0.4173520324914152  0.7486049098061780  0.1669776044711360
  0.4160923262544169  0.7504259026541458  0.3287564450236564
  0.5008714032228395  0.8313933201215080  0.4962071240045368
  0.4240758260165777  0.3304240886495157  0.9178743761913711
  0.4212635598700338 -0.0052834761466055  0.4108275780330384
  0.3330901323385660  0.6659645279296070  0.1659625737021632
  0.2563044018467200  0.9158067366433650  0.4954818233926500
  0.3415252569266585  0.5880467425677156  0.0838113644442319
  0.3356890962372529  0.5026501755667014  0.3307382171052001
 -0.0088588714133601  0.4152518324634080  0.4059557956284266
  0.0781687156244415  0.1618612885048453  0.2462932600388449
 -0.0070373272370884  0.1627678256260328  0.1664171972724251
  0.0783503869928470  0.0748591057437210  0.3231287448370466
  0.0760983670731230  0.0303317307597171  0.8106220008530040
  0.2530537629190667  0.8357517583545070  0.4105662822358376
 -0.0009989120187767  0.4109280374801846  0.7654902067702765
  0.0606155540857825  0.4938058142065478  0.9318668625993238
  0.8294036453787763  0.5847946660098113  0.4148076172338755
 -0.0041107036019702  0.7524760877225639  0.4094683308708780
  0.1668299890247919  0.7500361986643259  0.2484508001987309
  0.0818394450100314  0.0004308457675284  0.9251186339521839
  0.0035089369511582  0.1943163656301087  0.7534992999037152
  0.1694624172696790  0.0805732989761654  0.9339722481310249
  0.0806073675689664  0.3357154184354927  0.2489385318581821
  0.0774504209231760  0.3319118160873761  0.0894276330304975
  0.2525513618070342  0.0799256229768961  0.8434032892151682
  0.0710183901942277  0.2489111852228460  0.0144907229855546
  0.0812285420308380  0.1635430233263086  0.0886106801346138
 -0.0061191766474629  0.0800539090821482  0.0856092599063210
 -0.0145766072330670  0.2369119774187447  0.4014324230771347
  0.8262875910818156 -0.0075624459565854  0.6669649720864494
  0.0811852035805779 -0.0023465757172189  0.0854442200028704
  0.9051328678056689  0.9079091295463565  0.6675117902729356
  0.1677092759370216 -0.0040655164034951  0.0068412992146681
  0.9054852109940227  0.8303087105742858  0.5807741649073572
  0.2493163034437729  0.5018182498368851  0.2479073110170224
  0.5830287857608264  0.7508779021864047  0.4967460634436324
 -0.0115688103321359 -0.0081857039016914  0.4989355923864210
 -0.0057207998540326  0.0772155507671036  0.2442432012677573
  0.0088075529648700  0.4447514025294548  0.5865821201353251
  0.8252801059640807  0.4116338149449424  0.5803863495287376
  0.8243556928986399  0.9133985977186873  0.7522184782087546
  0.8269137471557630  0.0783943814510850  0.2479399275573917
 -0.0068077353169609  0.5011742384569708  0.3320119909016754
  0.9060561512852604 -0.0038813693721996  0.9245218126325426
  0.1717982581860578  0.3811513389814429  0.5414498014403609
  0.2733706240461838  0.5023518916748099  0.5807659151801688
  0.5012103267743256  0.7496090181635185  0.0861173962101396
  0.3464717570481277  0.3334534869310524  0.4956280120637594
  0.3516213290816602  0.2458660188538511  0.5779460550870160
  0.3423826721044495  0.4211914794334005  0.4114275464998738
  0.3532760283359986  0.1619668942781864  0.6569161473288827
  0.4240963629171985  0.5909088876493827  0.8317186177880733
  0.5059465175474039  0.2474993133359603  0.7503896313039478
  0.2498822064258553  0.8303027639030461  0.0842772650584071
  0.4255009701481078  0.1610897255005600  0.9226427908117044
  0.5014526741080020  0.8315704520546935  0.0031516670678366
  0.4171406037162515  0.8319129295990544  0.0843099225279347
  0.3426419577185741  0.0011948303879555  0.6667036771534897
  0.5847402932749519  0.2472248659508210  0.8347080819510614
  0.9116279305654676  0.3410804367676362  0.7691126804508772
  0.8258256482448882 -0.0051152327487963  0.8378982057356977
  0.3394138192103160  0.0007226654190860  0.8368559386543749
  0.7393987856361529  0.4169276275142727  0.6653907471362107
  0.3422534953628554  0.0768498087741912  0.4078165547122902
  0.5011403498959769  0.4166717264761072  0.9180365888171891
  0.4319061897159428  0.5014584775041050  0.7408238313028781
  0.4208977662003840  0.9171182696925139  0.8349056705953050
  0.0824136159161075  0.8350366568199005  0.9247228175915341
  0.2583071796751525  0.9175269076457760  0.8366235241445262
  0.3376577768137778 -0.0036252664448698  0.0050122831645861
  0.3369515994282906  0.1629269637469279  0.1681433225810373
  0.4190064689263940 -0.0032916762988693  0.0852950904592874
  0.4223763303746156  0.1638978589624736  0.0879207977338012