 B Cr Ni 
 1.0000000000000000
    21.1200000000000010    0.0000000000000000    0.0000000000000000
     0.0000000000000000   21.1200000000000010    0.0000000000000000
     0.0000000000000000    0.0000000000000000   21.1200000000000010
 B   Cr  Ni 
  52 259 605
Direct
  0.1125990696808269  0.0870143868528443  0.5932976976042318
  0.2348042911715233  0.6598547186522009  0.3330490145423555
  0.2151471289376002  0.8592585816592946  0.6727987702926591
  0.3887729282485637  0.7469325570852328  0.7505904633892803
  0.1507329051171909  0.1735638553496698  0.7533088100667282
  0.2532152737056064  0.7010980646895022  0.8454615092730861
  0.1784440426761414  0.2220044438926760  0.6896526715451745
  0.2094063680949325  0.7690524280540009  0.4167103369203967
  0.1617511512446309  0.6749229249203015  0.7378765553486903
  0.2690355339586157  0.8943115375888956  0.6105283743515528
  0.1606051034382853  0.4211791212173088  0.6354025109247927
  0.2510600146609515  0.7929728483511579  0.8518508214978764
  0.1653086402472929  0.5792031220358171  0.1923238397217568
  0.4995695630516263  0.8544824493946089  0.5872251643790514
  0.0847427925514349  0.4844812407362912  0.5030355211970738
  0.2321202657298961  0.1050831063775987  0.3916004662635493
  0.1624629488137861  0.8287200897498270  0.7420652247811999
  0.3325927406332364  0.2421048476076713  0.5045313723349503
  0.0947189583981489  0.6595790953358984  0.3266597180907551
  0.0125988129742943  0.8311047129503227  0.5849770887916874
  0.1727897285455129  0.0179821353244547  0.5838797870071443
  0.1461618464573702  0.0633287861198373  0.5192728915986295
  0.0652125826633980  0.2659701906039887  0.6040039902182299
  0.2245578232977733  0.7147070776790625  0.5871646582725816
  0.5177525225874705  0.9193749322785516  0.6429845161410520
  0.3302449054182586  0.5880842689306741  0.4981753500753582
  0.1815645146110685  0.4126460745290061  0.3394141789092864
  0.0166091355777670  0.3275368328876216  0.5695892183591252
  0.2345890931452882  0.4885477381895748  0.5029273354323011
  0.0215077763455533  0.4925900149447348  0.2554430521322958
  0.0872064682245634  0.6757147009416796  0.6676578437054158
  0.3238886715641762  0.9297402340835427  0.6605739581289458
  0.2368028802743720  0.9232829951279834  0.4240133715982388
  0.0705970026809786  0.8923144437806132  0.5984698034772454
  0.2685079465782371  0.6725946191605986  0.6454827592037851
  0.5630657183382723  0.9996054542300005  0.5098281116857248
  0.3362308550454835  0.5041485551748425  0.5946484985764120
  0.4109894615350494  0.0854233970934539  0.4332768934831309
  0.2792481073194999  0.5453679644432053  0.5510026232964658
  0.4745239428524775  0.1671971733536462  0.5872413545283157
  0.1229494131734916  0.7683027406102086  0.4234296609403650
  0.0880498775038461  0.0134394592844807  0.4836823057544386
  0.2364921168277283  0.1707596845088258  0.6449129597914023
  0.2442493648053417  0.3436599667671373  0.1676554588520554
  0.1812483294683394  0.2440150049274032  0.5043318601834560
  0.4169826299408252  0.0782856267186471  0.7290371208054213
  0.3217370432052907  0.7303303185585106  0.6948248622196047
  0.3450159552222467  0.2534086246433359  0.6514547219096527
  0.0931196787247007  0.5866899816999575  0.5853336559879510
  0.3107244094095937  0.4915876192505940  0.2447480772648363
  0.2746443856870202  0.9845420853491768  0.4718646735701568
  0.3156883951731364  0.8336087462000346  0.5727658821515671
  0.7487793495598706  0.9983227436309943  0.7555259835487391
  0.7451252119863885  0.9996321405305195  0.9192231327350201
  0.6672160520356275  0.8301320509065566  0.4996750742483636
  0.7460015359716561  0.4177106946486044  0.0008483329973914
  0.6640229028247970  0.7483279788179290  0.7517354958031091
  0.8278060584516509  0.9155242068414652  0.2450771547435417
  0.8243493077828152  0.9182943140304521  0.5826437951268909
  0.6660147106770115  0.5017209199179721  0.1627076958363088
  0.6652317111249970  0.0837680010638335  0.4118846227179293
  0.6690095290973521  0.8261995122577009  0.6706835712449449
  0.3403633988471250  0.6651029382404307  0.3299236876339601
  0.7465706443193458  0.0819358262175784  0.1651515114348996
  0.6641412168578704  0.9167473748729998  0.2447370441422389
  0.8289746030192946  0.6670406327166740  0.8356767137323131
  0.9056612304775061  0.0834660924663151  0.6702254451723162
  0.5032381913732907  0.9974624836707667  0.8383891159924884
  0.6646149652543150  0.7477484535350249  0.9170977074504930
  0.6652137118799242  0.5849321395832450  0.5836657688906512
  0.5826522783116795  0.6654548684156211  0.5843107761226691
  0.7462362914061426  0.6643233733451009  0.4133236514276254
  0.5051272615166178  0.6673045581464522  0.3284127047354468
  0.9126741852026398  0.7517099222624763  0.9974029736849248
  0.8273093830104100  0.4978175762804695  0.8355646894058267
  0.7451109152954439  0.4163342603798811  0.5000714982737858
  0.5070831318550689  0.6689049531119874  0.4960293214900758
  0.1689651601293324  0.7503196003712579  0.9128653015182574
  0.6639627184981177  0.6671115888199778  0.8353517830571585
  0.3367244742548709  0.3311282970525680  0.8439294190697105
  0.6648511147155074  0.5814698315358219  0.2442456883453686
  0.6671098780028141  0.3341440819432987  0.3290583105317973
  0.9916732881266253  0.6688504249558973  0.1589928534539567
  0.5864008050777295  0.4168322704071404  0.3263951355837637
  0.9927353936505529  0.6645763569978683  0.3310061894643769
  0.9948160566020398  0.5836582877023353  0.9185207529985884
  0.0756192312544443  0.4997317727496974  0.0808497172381517
  0.9074467215575749  0.0834502019331244  0.8414626722111328
  0.8267727234233573  0.9164172972849922  0.7554464004530576
  0.9101151471285377  0.0000234406104433  0.9238494843425492
  0.8975980203823447  0.7498448832629278  0.4907053502193295
  0.8250381460649757  0.8326971731402942  0.3262839314087637
  0.8262993518252255  0.5819541223423086  0.4140467359138878
  0.2509550102139566  0.7506709040354169  0.1640575722919793
  0.9909101492908059  0.0836028781024537  0.4095329765265097
  0.8299226683675293  0.5832991185688600  0.2441522145573081
  0.6643669108426277  0.5836683806298808  0.7526191537831737
  0.9904687417848550  0.4128089849620005  0.7542677854095833
  0.9060611244780258  0.0829807891491917  0.4953671086837766
  0.3342953807620008  0.2497850700030816  0.9207296493698620
  0.7495651656614387  0.2469813023273066  0.6696127383834705
  0.7462744079488381  0.1659242117956869  0.7538495700534853
  0.5021330366132385  0.1670788175716094  0.8372423129966999
  0.5056453631881241  0.2498020207614247  0.7567933823982549
  0.7430515185617758  0.1643833285318463  0.5831605978218033
  0.7478978511836071  0.6657971853891280  0.5836808116884089
  0.7456113584239128  0.2485656248303747  0.4983258246988417
  0.9087064769412316  0.3344724296353593  0.5865677208526985
  0.7471560030224490  0.5015007196668352  0.7521078700589002
  0.8241591972571487  0.4142892664437597  0.4151876923112260
  0.6658295779233951  0.5838201758865708  0.4147138915729381
  0.7437973098025028  0.3344026816391964  0.2458822616356738
  0.7465302230390212  0.2500842272044215  0.8362342051362930
  0.6653139935693065  0.9161372364596978  0.0805419999877996
  0.9934939006737169  0.9995944289884812  0.0039783751941927
  0.3458567803040959  0.4044191454668022  0.5837518260190048
  0.1634374729146586  0.4994656386078247  0.0084744649962142
  0.3377007766594234  0.2537750538524960  0.4022146726435888
  0.0787035974809587  0.7500935760722218  0.8370549569452235
  0.9048683125494329  0.1650706938761095  0.4115310813141351
  0.2197868871727635  0.3501533748611555  0.5944099163946370
  0.2466615407810272  0.9141068142551181  0.1654973551812879
  0.1657531955875848  0.5876630846130141  0.0847773832625577
  0.9917323935528540  0.8515568095102560  0.6780761786336496
  0.9800762861594807  0.0005128890022334  0.6712240008856702
  0.2502576676352101  0.5819547663849964  0.8399489849499208
  0.0754217477602949  0.1678731346798367  0.2446840243245329
  0.0762018615428230  0.9246530056211351  0.8419487131259794
  0.9847440911458746  0.1706546077719885  0.6720280515443181
  0.0742329056780874  0.9959597483058146  0.5787966660733200
  0.2487282799529961  0.9259364143980372  0.8447007390112230
  0.2675567951600319  0.5669246098612993  0.6545149799844546
  0.1662307540644209  0.6733670837357859  0.1656899295065843
  0.9816065159203077  0.9265007150731311  0.5826796598100545
  0.0741363431541682  0.9158766163475864  0.4958787323627667
  0.1392451738149694  0.0745743435915376  0.4185663233269936
  0.2457378025789485  0.0877440455746538  0.1690971615356942
  0.4282174434890695  0.7504975471181822  0.4943929948976259
  0.1613379916256385  0.0847791084096978  0.9253620838271307
  0.0773132147820347  0.9159727189950745  0.1650888712518810
  0.1805491575079038  0.5484534876149036  0.5657045234420124
  0.0755432313226388  0.0852496922751861  0.1649891929257948
  0.7456033755116749  0.9980022088681961  0.5832091892295636
  0.0790510516165515  0.6685593962289517  0.0801258363694604
  0.2510749668691598  0.4606557593214581  0.5971150850098190
  0.9089465527577824  0.0839269595389629  0.1647161470341312
  0.0767565981759895  0.4171756284915888  0.8406828524427322
  0.8281013832153955  0.9985464440896711  0.0010175528063486
  0.3339999489422555  0.2499514375928151  0.0814814842967839
  0.9931391863331122  0.4989733666968246  0.1599196491371856
  0.0724619204401329  0.9996231964251070  0.2425677844939340
  0.0797237298114145  0.8343401049731950  0.0835306146046155
  0.0721696556529240  0.3341319353701639  0.2490611706614256
  0.1689265713679168  0.9188281311602641  0.5881726597860610
  0.9815706132469421  0.4923032273632896  0.4997433319147049
  0.0669020674176153  0.9948301312273740  0.3949930302526432
  0.1509566563732857  0.6043035515486407  0.3966330046124624
  0.1660533693493663  0.4107417598211244  0.0850359527073807
  0.9949306463203124  0.1677460123928420  0.0035838141224042
  0.1045072680197202  0.8212038573165639  0.5423306855133584
  0.0703055867128961  0.1677634632114549  0.4136518027762909
  0.9119453565327333  0.5838197598682738  0.9993011938327119
  0.0746657267833848  0.2466439034639198  0.8384989543429184
  0.9830778626623784  0.8384900438287284  0.4920334738509597
  0.0655430658712627  0.7551613160843265  0.3299818470784939
  0.0753792877618936  0.5787485331329364  0.8437903801790922
  0.9920691822444333  0.3336527022874702  0.1651816317032887
  0.9075979069239397  0.9147938856919781  0.1639912864216827
  0.8316869258786582  0.7496635194948308  0.7517152875509704
  0.2447722931152196  0.2494118406928872  0.3368927203417276
  0.0667303104565839  0.6642878053584952  0.4195080542968714
  0.1767093202369170  0.9741214133603353  0.4930527770726643
  0.2723764345285866  0.9973538518670445  0.5775794785077153
  0.9787776336025799  0.1687653432140366  0.4941746498831364
  0.7448291535491056  0.4181679822723899  0.6709392570395346
  0.0616554054908592  0.5698394911151804  0.3319596323669555
  0.0777346225075821  0.1678915687040090  0.0831301783206250
  0.3397963403373686  0.3470840034650506  0.6795241570446824
  0.1606484177680726  0.8238560064058594  0.3354042323860295
  0.1614783444586454  0.8364948541098446  0.0030308789248377
  0.0024779257378336  0.3226747418633931  0.6698554607103382
  0.9937566642644884  0.4166866030318610  0.9202870523604033
  0.8264707094491466  0.1684628899732547  0.0023592933610933
  0.5868614172129800  0.4167380070762058  0.6702617474381524
  0.5140645023760887  0.1739566207518732  0.4914030327464636
  0.6658279366901840  0.4173527803315888  0.0812367620564893
  0.5842496055106490  0.2502679548279856  0.6710553616811872
  0.4217944697411048  0.7464081882727550  0.6643103200736602
  0.4191880634834996  0.4995990175753640  0.9209122285023572
  0.5027571541991323  0.4164986978246841  0.0812783199990600
  0.6664331242343039  0.4179714959422918  0.7535087581438367
  0.5075461325005249  0.4975481086755523  0.4976478284257578
  0.2569478981985863  0.6510848380371669  0.7448885962245578
  0.6653494148086631  0.9163456784969813  0.9182355215168307
  0.5846292262621725  0.7523215574687915  0.4971707147369064
  0.4233155708771313  0.4947554394998170  0.7572103039190931
  0.5857067585226300  0.4161092766527285  0.4977422626417929
  0.3512797790250997  0.0210935453609557  0.6687845043912126
  0.2676522786938614  0.8939742538642884  0.5108909812370133
  0.1739923032994703  0.8510767685520105  0.4716986428867830
  0.3400432414592715  0.8375877047208501  0.3213011707343376
  0.3215301042856893  0.0979420830930896  0.5814067499911300
  0.1617531657203258  0.7461901354725571  0.2501395000158838
  0.0791419722279242  0.9175230376897379  0.0042446882739776
  0.1628621897323925  0.6661500595726644  0.0041632893951813
  0.4192369264310766  0.7499950607292432  0.1617982282667351
  0.3363667171591405  0.0845638967179808  0.2392366423488722
  0.3321647382705192  0.9978758026223155  0.3132060580366516
  0.4169079514228368  0.0840374610802001  0.0029145465029817
  0.4179199021869784  0.0841390630257912  0.1637829509744307
  0.3327356915134597  0.9231029978096069  0.9245033892644198
  0.3222862653608456  0.8294458275793488  0.6714886341569399
  0.4211237187891780  0.9180218954527420  0.6667314539367523
  0.4985786872349703  0.7493175920568701  0.9186918962907650
  0.7448312772598676  0.8319227165682561  0.0821107512488365
  0.1542661249764922  0.6341895667184893  0.5125023381306093
  0.4861384075099537  0.0105232751986386  0.6694661781761426
  0.5825019715837222  0.0843078483753861  0.9999849545817237
  0.5863544024558124  0.2508821879505178  0.4967037767060816
  0.4992323160706818  0.9181301691171122  0.9186197398278665
  0.4220270455714069  0.3265754234770699  0.5864852241040152
  0.5872690028815323  0.0784690093628660  0.6726184727770491
  0.3596429671330616  0.8363517756420016  0.4841176416010839
  0.5021179265832235  0.9172456484655191  0.2442730183946613
  0.3313200032083784  0.9998731826193191  0.8449534095774628
  0.5864256386543079  0.3345882034351082  0.2444790318002840
  0.3337525360697484  0.9150959726193352  0.2422684465638766
  0.5009043561307058  0.1677335298706996  0.1644145471471603
  0.3608944764972454  0.9264488527012437  0.5715479396305877
  0.3313344264730204  0.0842724746923279  0.0887852583982102
  0.6661029554017909  0.3332984383208666  0.4991700466965936
  0.3338400050406227  0.0001107475621445  0.1664464117200123
  0.3324984909672681  0.0052619869315034  0.0063748000816840
  0.4178378254125372  0.3311948940682145  0.9188523199193819
  0.4960577183952087  0.7472531156561131  0.7534256796053554
  0.5009137822924613  0.9168003348207111  0.0818815146747809
  0.6686134413700899  0.1679278304514472  0.8351171528774818
  0.5844418265946548  0.5009272266334430  0.9197320882875644
  0.5838979124188601  0.3328225721235203  0.9190163055085671
  0.3263121215531140  0.7378102887774801  0.5939990494988862
  0.5049561782739855  0.9195785954594667  0.4098801944837652
  0.5832170313114898  0.7495769873205994  0.1626306691999744
  0.5875305481861560  0.7502115796440245  0.3274160610961249
  0.6631440001554707  0.7481482274168434  0.2452560425549176
  0.4278329774353010  0.4980519130266119  0.4130340591130263
  0.2243316295870185  0.7546458814863559  0.6824696975551764
  0.3324367619239117  0.8350795657958171  0.0003129929261788
  0.1773055764023592  0.6304806506934142  0.6441607105717586
  0.9112039164582512  0.3320827035917462  0.7540956943558803
  0.9126880807714046  0.4124711705330441  0.6705959440678283
  0.9839310855313738  0.6591342318136603  0.6717010322147382
  0.9096594355840009  0.5802859637565065  0.6701549598556360
  0.9000985371017051  0.4117961496686874  0.3335941574184787
  0.7480541707667295  0.5012891735912501  0.2458070327859800
  0.9924639257891364  0.6671440460802881  0.8399557670982660
  0.9111178279827055  0.3334832307805774  0.9201298090018331
  0.0718153795079583  0.4211490819408953  0.1750578197673158
  0.9924269341148260  0.1671737359663419  0.8414181644772684
  0.8297798435054996  0.2510151873185490  0.7557345586159460
  0.9913682700480682  0.2478396536415308  0.7575035796892325
  0.8248244227434935  0.1656146506557492  0.6685770107722045
  0.8221655082964652  0.1644996323740454  0.4985164896879217
  0.7468632219199955  0.5846417613140245  0.0005118327874489
  0.7468888848773162  0.6665440459550548  0.0804031962087337
  0.9986112669778143  0.7502810475522472  0.9189234633431256
  0.9866529808569995  0.8336778134710150  0.3272945158200501
  0.6668092870259194  0.9976556316679245  0.8382828227631202
  0.9113601117389840  0.2524491003584306  0.1628396368057177
  0.7455383409455115  0.2505543723794736  0.1647325302587748
  0.8281641646023430  0.0838383251942596  0.2440175388894655
  0.9105517977775777  0.3325323919015880  0.0821946570430703
  0.8337924787640986  0.7498749667168347  0.5827581918139527
  0.9111794220361373  0.8341765143569634  0.7540194695708791
  0.6637907940772250  0.9172882365707337  0.4140431452351633
  0.2516818783777439  0.5080943255864792  0.7577968644898188
  0.9123368296084585  0.8317547282229542  0.9201317994175507
  0.9080265252509454  0.8396106883453548  0.5838460788168067
  0.7460578480034455  0.2498165397691145  0.0004488276730818
  0.9067994608874005  0.2499262295907259  0.6701062430095673
  0.7468508723553440  0.4183578221668229  0.8349531442437762
  0.8255145273176275  0.9174713318162753  0.4113810032985270
  0.2787564281657460  0.7681539998984447  0.5003167574424088
  0.2176989891620851  0.8134912681063563  0.5834517459803549
  0.4134569097419286  0.0203358280966370  0.5844314795437410
  0.7428193495667220  0.2489638535233393  0.3282839461355277
  0.5848028871300895  0.8291568037533735  0.7565531172306393
  0.5006891217608769  0.5006789901697396  0.1613978361208630
  0.1623149724906134  0.4182008255069193  0.7569418986050561
  0.1633634973570829  0.2506408445238094  0.9199999226682505
  0.2474874726829316  0.1780095354396641  0.2475340340805691
  0.3398277314828351  0.5736670629050836  0.7549407136943608
  0.2476355841346492  0.4135308328899461  0.6928724201424744
  0.4205841916395490  0.5021136363473215  0.2433602919357001
  0.3381517563356470  0.4885204547706081  0.4947851337922316
  0.5008737398004633  0.6679647980485219  0.1616612204835944
  0.3360255428505856  0.5870235643596384  0.0786724111263813
  0.5004392934026358  0.1666139840901106  0.0013001880740301
  0.2520456254055894  0.4729457709676650  0.4041943665459229
  0.4282734636944026  0.6678657089481395  0.4089445616250483
  0.4280353337102674  0.3317315472427322  0.4077097448946981
  0.5040877022045310  0.1689107006349289  0.3243360558941256
  0.6653713919759102  0.1678648532794968  0.0014307412075694
  0.1608759220770467  0.3304335921033414  0.6851321201044041
  0.3347194232696957  0.4167267135601743  0.0815700484145343
  0.1624795936713224  0.4912141309327489  0.1471781028364850
  0.0713882736517327  0.4203343004166528  0.3225097019738303
  0.3383208475675542  0.5870743015943440  0.2482012471719979
  0.8277736857307640  0.7495877834458055  0.2456964173772242
  0.4164962293812546  0.6675424673360845  0.9200135981878933
  0.5058992669637468  0.2525378726333362  0.5828464766310808
  0.3330044374908792  0.2512942903235713  0.2489911737173007
  0.3378872093695597  0.6590330654288814  0.8366606214310802
  0.1098075808615206  0.7502032999701921  0.7237069980719447
  0.3320532805176001  0.9178044200803377  0.0836800485329208
  0.4276886710000546  0.4928810335094603  0.5833402852391227
  0.1603380548052424  0.9116555012407347  0.2480587456072392
  0.4168062172125287  0.1673244011676659  0.0835119243494146
  0.3324828362144286  0.1708742537047511  0.1646724171598479
  0.4171939996577705  0.1696299425745765  0.2446049427065048
  0.3346024044870700  0.1540610365214619  0.4767632150535447
  0.4175755218869222  0.2504825183844928  0.1632215333666114
  0.2501943031227130  0.6696286531105747  0.0809406628410269
  0.2461521542682758  0.3555376573129984  0.3867979361652008
  0.2486490999848614  0.2506293288346937  0.0014034799809511
  0.4226817033891405  0.1726566739928802  0.4061088906717513
  0.4217542913580297  0.2513370060422371  0.3254021181713488
  0.1923979930513062  0.7497297338683395  0.7933068741340810
  0.2238936490253949  0.5229782708229819  0.2449818219201136
  0.4173137779755151  0.1662034315370162  0.9194614910205139
  0.2466654252310181  0.7519424958483062  0.0009422665302949
  0.3553352960251556  0.0253689366294303  0.4904129022266302
  0.2472264622120062  0.9145615340016540  0.3243870565650390
  0.0770111153546432  0.8300398351859096  0.2446531802354791
  0.2478740380453075  0.9214826988380959  0.0056887305367846
  0.4244611936437477  0.1157312184626886  0.5227411721602842
  0.2470059493461620  0.6607595460278911  0.9262464395125426
  0.3266744802697528  0.1655521787023514  0.6764366746002735
  0.1627872270385338  0.5007632117708339  0.8394995540549174
  0.4203702867642934  0.1143890960621350  0.6439098395977351
  0.2481922823226997  0.8344387129300691  0.0825641432017162
  0.2462320104429925  0.0049291530658570  0.9260045456936790
  0.1638838956754526  0.8308177760914209  0.1660337670133673
  0.3335432922846300  0.0844562966221774  0.9217754707973683
  0.1620158601291171  0.5809275384509515  0.7555760792864801
  0.5005049130211734  0.0004551782899340  0.0012132104454436
  0.4198601575797066  0.9168801151840159  0.3235838292530795
  0.4207510212706995  0.0001985120252527  0.2448768564926571
  0.4238067698054477  0.3299703243087508  0.2439760494208776
  0.4211296883739756  0.4162068757434639  0.1589280479953060
  0.3543715977496482  0.3356732782392737  0.4877794017608104
  0.2458478223328571  0.0755800144930579  0.4820268832524648
  0.2466541772119017  0.0074342229772929  0.7698327762454934
  0.1642643352793278  0.6172935642457649  0.2794586012804727
  0.3380288700683672  0.2527014561743520  0.7546325271051292
  0.2478895754239988  0.5006051719475211  0.9218630934799102
  0.3399863958406599  0.3350106522432424  0.3260029038967201
  0.2536337212598669  0.4993690559368325  0.0821269088125233
  0.3327631694831182  0.1665631735542443  0.0037005924532195
  0.3254809581464138  0.0793712828416859  0.3922260509901299
  0.4180930924861991  0.0834886179952940  0.8376087199817359
  0.3401188686318546  0.5045176504174511  0.1583720178149317
  0.4182214929145237  0.0880219920511138  0.3236372614041270
  0.4167554032542571  0.0021128703327927  0.3936636980582852
  0.1607089197868455  0.5032084446048224  0.3397737694224821
  0.4178321206942774  0.9999512904689483  0.0835791160853801
  0.5826127233548057  0.8340338496461490  0.0806746528545796
  0.2078473840561297  0.1045621049616237  0.5809596811983496
  0.1239187080564828  0.8366535686245341  0.6562450328203929
  0.4192788777948919  0.1672061144823197  0.7554283794813053
  0.2584132314862291  0.7526517738262579  0.3283295812620727
  0.0681693227087911  0.9118163107641631  0.3204075892534458
  0.1625740118263375  0.7088416770351877  0.3630010963588746
  0.2625622369709496  0.6391964917087369  0.5540839809592434
  0.1611930269329785  0.6566228433401434  0.8396165262322988
  0.1627557398957578  0.5804035726189637  0.9238382759720625
  0.3348452074361357  0.5820213073148782  0.9212137745328848
  0.3214828376662115  0.7508093207760576  0.9117701733391013
  0.3800598415446736  0.2031152196993058  0.5797062619777896
  0.4345797947968770  0.2467776826220145  0.6764471455386917
  0.2476792207814989  0.4202037093611476  0.8399663750710858
  0.3406692179064888  0.4811993926428937  0.6808651245177816
  0.4195437330301738  0.2490509560894651  0.8368015898921247
  0.4168100883494774  0.3322832014549449  0.0811048403912652
  0.1618016306597477  0.9219662320691990  0.9247618903043512
  0.4979599637800361  0.8380332244994764  0.4956280585852394
  0.4287138365654816  0.4132920882468217  0.6700867996935399
  0.2482503657778811  0.1675703505713561  0.9237960955919934
  0.1625992625655894  0.4150447074972425  0.2461020620549435
  0.1622378747669550  0.1671157664654040  0.8454910136383034
  0.1634543141394864  0.3333032767198859  0.9999688547926805
  0.4263127307439243  0.5691031475139189  0.6725143696229877
  0.4165508295771049  0.9184972663004481  0.0015719678942143
  0.2519946116289674  0.2491454668630697  0.8434673727953622
  0.3314012272973684  0.9306806337724914  0.4087745250029576
  0.5052737080861065  0.4155538722332938  0.7553250745553781
  0.1630467260431741  0.3409246131341472  0.8447080875484543
  0.9974016140826197  0.8349535289528512  0.0012279914099534
  0.3047538734176601  0.7533847974664144  0.7823158245903759
  0.4203965364265662  0.5792846964153608  0.8391486168477507
  0.4290952246651897  0.6727332394588116  0.5791963652908594
  0.2508669794386044  0.3332594182342973  0.0782603493353042
  0.4142097794459064  0.7517075722454010  0.9977895060129737
  0.3337127070456143  0.8336479657351590  0.1636800440668474
  0.4167328741667597  0.8348532451748433  0.0819397494227378
  0.4178017152639710  0.4158487677691106  0.0008522545424630
  0.5020753984572563  0.4177081707513797  0.2438033550933370
  0.1639633720933243  0.1623115079783318  0.3375022825021565
  0.1502652122080774  0.0165067187619157  0.6730282844259239
  0.5856954865317483  0.1687395477282805  0.5839903264180880
  0.5035475326122425  0.7496794796144315  0.2444013722735595
  0.2471278980218433  0.2516065529786304  0.1640981151083578
  0.2497470768649969  0.5812652139018005  0.0042117385718335
  0.2491678642730926  0.3343912660045634  0.9205363541086169
  0.4273687124621158  0.2491768930549733  0.4893205185015433
  0.5862629160872176  0.3332602771061572  0.7533777426771456
  0.4993202116452347  0.7507362186602471  0.0805699692644024
  0.1616949681000277  0.1710758665629631  0.1647044121885150
  0.4123034532473597  0.8251149727063406  0.5858796278647879
  0.5020632601096306  0.4164793330364424  0.9201044147116514
  0.4993021254137441  0.6678552653981333  0.9988704700806068
  0.2521634627388809  0.3324620122505254  0.7654681430454721
  0.1630658233384659  0.4201985734018179  0.9233015684241034
  0.3461465040923880  0.7514501616804645  0.4065157684187148
  0.2566849103047847  0.4322038378242929  0.1763192537220989
  0.1568041611453954  0.5160678112337173  0.4562008896817024
  0.1502163795710052  0.9225299750030000  0.3906453382129298
  0.2553748487553087  0.5875602042888715  0.1597386294630055
  0.2692758600206823  0.8367192197234621  0.4054078894304485
  0.6661332962105230  0.2509723803031659  0.7516240233834079
  0.1604712694441018  0.0002661719457943  0.1671064332992086
  0.2504238686960816  0.4168940043658715  0.0016475770473290
  0.1584638223022608  0.9267089240933910  0.7561727670049213
  0.5011597861955824  0.2489776000402119  0.9182882646730911
  0.2389061275407515  0.9506071073638783  0.6808785920851118
  0.1655639278235392  0.5054332077936519  0.6740709266231661
  0.4260288723856482  0.8352146813849035  0.4013466684821404
  0.0704490488079783  0.6689043799015025  0.2393250473791701
  0.3329268597360004  0.1696496910973450  0.8389345782477807
  0.2473252821277735  0.5739739584133234  0.4610308085732298
  0.4186402084136676  0.9169539680725974  0.1636008217970719
  0.1362120693127363  0.7319472681151544  0.6063426007862595
  0.1477468501922997  0.1609321465274031  0.5017058792781615
  0.2576870708922302  0.6684829455289966  0.2431224522043026
  0.8295959156818931  0.5831880860647624  0.7532980728144718
  0.3380994422647631  0.7509930948359751  0.2456903636494701
  0.7456013677665189  0.5826491053695708  0.4990240092357863
  0.1545542688888200  0.3307039359378400  0.1688971828310588
  0.7458666563658746  0.6656214663804535  0.2456410236720174
  0.4214669340987086  0.8331412145770696  0.2430555389585152
  0.0815263599180234  0.6667694721616756  0.9208543154076413
  0.3541297807591072  0.6494799762418332  0.6701619025636939
  0.5836898267493178  0.3337729024339350  0.0813937647124268
  0.3510446721480571  0.4109230173569621  0.2430193181574982
  0.8296419498698455  0.7492396976344792  0.9181092634502698
  0.4216017855089221  0.4163235925943383  0.8411845311761359
  0.4223120535807353  0.3340980413847609  0.7563706829483844
  0.3331080621798505  0.7519061478127732  0.0812447400432631
  0.7469314443089634  0.5847202895129261  0.6692656677942910
  0.2451033986715096  0.3304088418581879  0.2574584138101217
  0.3460507387789667  0.4137500941658661  0.4089822578876859
  0.4987032043994567  0.8328334782614678  0.8358804302788970
  0.5857369761911067  0.6673617778464017  0.4127200482599887
  0.6648799776959804  0.8345585089101689  0.3289383944456509
  0.5823555136347078  0.9999665817250748  0.0818755761148256
  0.4996948160453570  0.6628714080934267  0.6685375134561390
  0.2552009883952108  0.2877980359053696  0.4735809783220868
  0.5826889767566126  0.5840098729669084  0.8364065028185792
  0.2565710879788526  0.1995168906648769  0.5507501963524558
  0.6656991850501746  0.4992329667570299  0.4995662128207318
  0.5041350371346542  0.2497270304527910  0.2446925798188218
  0.5826274794692031  0.5834880125906466  0.9991891592759529
  0.1509133979343419  0.2510191897884704  0.4144992010323197
  0.5010632163756334  0.4993537793874903  0.0001030719407433
  0.3323772985583388  0.8450297531932621  0.8424507962809159
  0.4191770059254648  0.5859154294429759  0.1622752916067763
  0.4155717889017714  0.8344830661536531  0.9201009184811054
  0.5837761864230134  0.5007877207803711  0.2445652366355368
  0.1480809506872251  0.1382750603806444  0.6670878126578088
  0.4259548065949437  0.4157408363222220  0.3282892179717798
  0.5828029804237909  0.5836069113648370  0.1625168247653664
  0.5008837452196399  0.0836194744390103  0.9184054548382843
  0.4175332251801285  0.2493490365311475  0.0008017081656222
  0.4192124439120857  0.9264699809835836  0.4754226671817461
  0.5828869346807364  0.1662915763445216  0.0823426783330127
  0.4140194293040854  0.8378485044709355  0.7542488598430536
  0.5823080041444422  0.0833508852448157  0.1637923643728874
  0.3335381888251574  0.9237125829190713  0.7539219237925052