Cr H  Ni
 1.0000000000000000
    38.7169076500286806    0.0000000000000000    0.0000000000000000
     0.0000000000000000   38.7169076500286806    0.0000000000000000
     0.0000000000000000    0.0000000000000000   38.7169076500286806
 Cr  H   Ni 
 254  35 518
Direct
  0.6222661118408700  0.0372877180784430  0.6803335824299405
  1.0134208910021185  0.2370684940308327  0.4961627080034780
  0.2441057678823076  0.6713325640407377  0.4641675914462687
  0.5382460250360306  0.7031992476249495  0.4805176987845048
  0.8867265382516542  0.9296209414376020  0.6952824585439664
  0.6609125856043953  0.6641429420350563  0.4399994728867239
  0.7514534527243957  0.3618986679760272  0.4964218791179134
  0.7737624239572279  0.8741451057211488  0.6697498712324899
  0.8211241547904211  0.9568531338262968  0.6726835777561081
  0.4571716302166308  0.2764205570039607  0.5291104716653402
  0.4156872087286240  0.1110688043082472  0.6000051404450337
  0.3517720118993183  0.0802939454133344  0.5300120354264629
  0.6044980233369455  0.6497008122340595  0.5421762787174689
  0.4706725360667598  0.5447126875076258  0.5734727357924649
  0.9577615783482040  0.2018513636050614  0.4935024030908776
  0.8111900971540088  0.4484892003043048  0.4904530754158758
  0.4334363659819245  0.2179739065076867  0.5764771972868615
  0.4575248334354193  0.1610047639240541  0.6013622546756274
  0.3484509886201640  0.1403588468381565  0.5156474325523939
  0.8565414914137555  0.3159400285875010  0.4846812169504299
  0.8284799565886654  0.7020518353084366  0.4155633375523175
  0.2653881257529612  0.6527302418856452  0.5924414104216594
  0.4027207600112680  0.7464061362946376  0.6300891699375221
  0.3840261178661332  0.8233213056937968  0.5571637507660575
  0.6115522948249572  0.8206530320446044  0.6506743737739070
  0.7623036319202410  0.0600032668511800  0.5669177863010315
  0.7924543195769996  0.1345250622101531  0.6113524594863279
  0.8281603109931358  0.1497807007307406  0.5620874965709522
  0.8344978650325406  0.9629380841699576  0.7300820542561917
  0.1890998025370693  0.6256068048132571  0.5164565454013945
  0.9746469301559076  0.5279693323628273  0.5253316730777192
  0.3456934712414597  0.6725700826260523  0.5006142568202480
  0.6632503014972421  0.1973589845211074  0.6188128446125886
  0.3300073679271652  0.8910298766758714  0.5812974514571633
  0.7055580954088216  0.2626793323544557  0.5575907930005413
  0.0969921826633942  0.6635317463772785  0.5894937823075648
  0.6499051121435743  0.4691908429766085  0.4821502814660645
  0.5484824462956303  0.5113583504364470  0.4953063002008718
  0.5427819722160091  0.2053841560709466  0.5785067274781051
  0.9417870021847231  0.7928755278663393  0.5780024750719052
  0.8040266039226514  0.7031554194599764  0.4912136951678164
  0.9384871831175322  0.3579233338837996  0.5624120070388734
  0.0209778880712537  0.7391868221731619  0.5540419039095899
  0.8592897187068522  0.6117250938728755  0.4621445443949999
  0.9709378832356080  0.5589271045200885  0.4579710873016074
  0.9200458565326468  0.5289379235228551  0.5052012099916501
  0.0477230795049452  0.6299372698598351  0.5250811952807533
  0.1402097270470218  0.5176553245674453  0.5252290056076563
  0.7067860163565256  0.3846992900602625  0.5343190057141078
  0.7167808561977366  0.4708382585826693  0.5590948560514880
  0.7067718743850745  0.5030759200041887  0.4946145463842578
  0.6247011348837496  0.4200393939625803  0.5941387999010790
  0.4887191492339865  0.3695018947834375  0.4624164918543870
  0.6791314424238897  0.1369894876183138  0.6251311699955414
  0.3997896384899503  0.6304072066734814  0.5306799757344920
  0.5050757003353814  0.9382636627357269  0.6841326254009804
  0.0236306325766751  0.0446759052955669  0.5431615756746261
  0.1496899841605284  0.8198238430422555  0.5845891001032782
  0.0495853561403565  0.8651454897875298  0.6076207401126211
  0.0507349371876318  0.8170445263597870  0.5682319800251386
  0.6878060151954619  0.1508685142516155  0.5447898524771366
  0.5000806160476552  0.5424135894457707  0.4723167148491626
  0.1640082333215457  0.8170478052004935  0.4897701103398737
  0.2638154021103067  0.7751673886739269  0.4805930335276762
  0.9707468578121256  0.1232886629480238  0.5595908646336833
  0.2754963756053216  0.3556524701575589  0.4501312053486385
  0.1277416716422316  0.4969600097272350  0.4189719816130578
  0.0315024964630852  0.6554312910471030  0.4553648959155834
  0.2752268608203657  0.2911441795975538  0.4648073412452037
  0.3709319447695667  0.3982945870651562  0.5272229384187374
  0.1402398493752028  0.4746236234065241  0.4814528304206536
  0.2089192934280047  0.4611873203360920  0.4982757232598857
  0.1303512265039622  0.5407730203540353  0.4634963818758074
  0.0766266047350502  0.5662447063321218  0.4918293434553306
  0.1322351290965958  0.5845983588975520  0.5030180636362844
  0.4483212496636548  0.0304158494120643  0.5163515833849395
  0.4023521447653142  0.1283146593371617  0.4759444562662253
  0.8782252016935013  0.0721505547667336  0.6529790348362634
  0.8093464271353378  0.5082797132782361  0.4725826048596041
  0.3758776592958909  0.6547707497497099  0.5737888832597863
  0.0662980669960063  0.3436378489275784  0.4439222898774363
  0.2800958127102545  0.6072772548034254  0.5472484422067736
  0.3607427016990154  0.5435659446871216  0.5909828903842447
  0.1372755628176947  0.4098558820685313  0.5008247795731984
  0.9546969399575378  0.7491156656638215  0.4442363968901599
  0.1798329031956487  0.9757168933883649  0.5669852600024204
  0.7818149596412126  0.7215689489566770  0.4430722707957405
  0.3455193362401403  0.6121473425236115  0.5133887345227267
  0.4969105709244315  0.6509243702619932  0.5579236921644910
  0.9170447756444926  0.4694843763739150  0.4614096198640572
  0.1651659050856661  0.3369660512966193  0.4724973623755869
  0.0877538615881271  0.0832873167304767  0.5519179970199123
  0.0185950862022982  0.1427170142758034  0.5721999000145241
  0.1223212085954648  0.2999548036136535  0.5219414491839588
  0.9871307563453643  0.1941429209017501  0.5497876191950503
  0.7624589045165732 -0.1160306883782860  0.6102557758974657
  0.1313969213387746  0.5584739659248638  0.5643852009809965
  0.8696565488234096  0.0638292688708833  0.5983919478804784
  0.9189155268913805  0.0336100789667878  0.5707149421184835
  0.9739217692813380  0.0195395561128192  0.6564415597674775
  0.1584333293838154  0.9103234222781691  0.5752294620824276
  0.1791365480167607  0.9878256615545298  0.5055327248448592
  0.0296652053059881  0.0142973884716670  0.6764634846591653
  0.8517100796563856  0.2982792869328647  0.5983151123844054
  0.8076768968174041  0.2065974403563068  0.5509262445894394
  0.4510746960446718  0.8146652206638264  0.6408082299477436
  0.5435097489792525  0.0200701333428854  0.6125459947974384
  0.4898347011818444  0.9879400488562931  0.6058492394047461
  0.9280918266061849  0.6472587587101326  0.4798623856579529
  0.2415902779846812  0.7268358636585086  0.5093566372822677
  0.9195219695493785  0.0912209383285380  0.5506347031329049
  0.2874852265008365  0.7511233931053725  0.5693716175799994
  0.0849468345717809  0.6861704800865737  0.4602002866323687
  0.2855955969810854  0.4654502657451304  0.4731280346383407
  0.1824814663356543  0.4666236093432826  0.4423978344892474
  0.4349980737931905  0.2722083721206717  0.4674965909899250
  0.5395092930421188  0.2978067402270601  0.4412052087758470
  0.9818499024086301  0.2392350234786682  0.5978061365779235
  0.9681215101400688  0.2501444909365175  0.5360550777575143
  0.9071358356495837  0.2791281682575802  0.5106786748462595
  0.0313441406201141  0.6915458962260546  0.5061393458177469
  0.2809481783686316  0.8605635037448970  0.5717726103936693
  0.4235996091898639  0.8419383304204371  0.6760682773270751
  0.8657958871243671  0.5639011421304555  0.4215229541952429
  0.0324019058217430  0.5169721827542925  0.5436928730797005
  0.0722482794832360  0.7361515520056349  0.5010717745792325
  0.6393287567304665  0.1406070182801272  0.6658715646258619
  0.6401847878963878  0.2606688782224457  0.5930805121182403
  0.8946894731476546  0.7491388479527462  0.5159772837522673
  0.5404105572656243  0.3867439150476722  0.5325942705689094
  0.4893282565674250  0.2153068568665045  0.5514044461123354
  0.8460001187552662  0.7391942846393148  0.5530912624368881
  0.9324928080537808  0.8498011714171526  0.6295233453360487
  0.7707210390758075  0.6356500659306561  0.5441994966991267
  0.7144187236048621  0.6378576721812339  0.5231511793294849
  0.6111239058934326  0.5493704002136461  0.5085092558395875
  0.6000338959014069  0.4395439468503980  0.4739805078304916
  0.9736834078088115  0.8594452945287656  0.6875995985835341
  0.6085583335409471  0.1126910043614344  0.6084653796488405
  0.5380567990537153  0.0901787246258658  0.5856545922571618
  0.5054215190351621  0.1251334647286368  0.5052405053619227
  0.4649349458448148  0.1012601116670874  0.5620479196057356
  0.6905454888781484  0.5351297250366331  0.5349069795549314
  0.9174665982800365  0.9119414622638180  0.6098085598072474
  0.8716519046783807  0.8360843554673452  0.6075129672438515
  0.9600809007293546  0.8508447764430975  0.5278821740765808
  0.8493931668907344  0.7920874205085993  0.5046405067398813
  0.0284551057588539  0.9723476048164069  0.6322665778749986
  0.0741334277377110  0.9659473389057490  0.5955310284460434
  0.4382241244623911  0.0583447541507029  0.6152162234473268
  0.3951385630697906  0.2425054487412427  0.5124087737499780
  0.6515475578687536  0.2207230606359501  0.5571994799453958
  0.1526208193100362  0.2330310649349600  0.5994020344336365
  0.4831490143338161  0.1078451066263296  0.6174810880450523
  0.4909443689832467  0.0498059605101141  0.5810536951940835
  0.7577709032121421  0.4875947988406877  0.4570436115060713
  0.4396698503743176  0.7396148033899894  0.5391376201878085
  0.4869543296809712 -0.0073024972607514  0.6624274030532699
  0.5141255831682090  0.7513931367798770  0.6098908925270483
  0.8121011241843351  0.5782813243532419  0.4634672519039192
  0.6997787934678015  0.6901901103383311  0.4934538140526822
  0.7114349515335354  0.0760536708593890  0.6619200556581110
  0.7137222362125751  0.8933000842225501  0.6495717790766388
  0.8098949257370847  0.0210680150495286  0.6548576013752088
  0.8082719274582506  0.9668091910043108  0.6127673944454365
  0.8072837005362580  0.1303854141794235  0.6710780070529319
  0.8030043025526633  0.8073202049605900  0.5360292274779604
  0.8234021169714199  0.4775653627332802  0.5382107558043399
  0.1311383438254702  1.0224793218065347  0.5968257552299415
  0.4353216009566315  0.9039560304389318  0.5618917706365556
  0.7555894201891915  0.2539872919325836  0.5781770680396147
  0.7664932147091889  0.3634980041465355  0.5558313705069060
  0.5814681319439716  0.5400375210983702  0.5540940258091317
  0.4504233510812726  0.6857402816997957  0.4682873235458920
  0.6510850070742235  0.0389190800157179  0.5895965847218584
  0.6598171580169222  0.8095746032592106  0.5983597657514975
  0.8234908737889186  0.8364745505871821  0.6465441559183012
  0.8420145246232098  0.8747827873251813  0.6926394116252568
  0.2075249773542293  0.0734636655481978  0.5917271409698370
  0.6371187031247924  0.7781531369584936  0.4900426840187639
  0.6080073651453073  0.9354446516428755  0.6623178494065259
  0.8610732154642589  0.4246338784072408  0.5177263192855364
  0.4567203088685994  0.5592678234956142  0.5064501604060881
  0.4345266177204318  0.4967695150842947  0.5150440674517198
  0.1846975680790206  0.0341707647736997  0.5497531272661040
  0.9618759165211370  0.3303515207856770  0.4628212935378704
  0.5483496104311428  0.8536140033326187  0.6055120270611967
  0.4889355201123349  0.7675232390658354  0.5539367179130538
  0.7394625714422318  0.7338347805770610  0.4834739409917369
  0.7303514734371872  0.7370994325205059  0.5694779076788510
  0.5756504714795893  0.7539773441999522  0.5733235421165158
  0.6049499149251566  0.2574797175039626  0.5258012517447815
  0.7844608279207654  0.7729881799399367  0.6405561471867320
  0.1376733135887748  0.7132554676971645  0.4711294833575549
  0.2525952185104543  0.0759905482528754  0.5520045882514697
  0.0638186990649710  0.2132751885945849  0.4717230975349603
  0.4890844838155299  0.3103562530407104  0.4765015228502802
  0.2912295378496094  0.5702884759237786  0.5062608960137939
  0.1875190136339090  0.7211447284630031  0.5526287041081634
  0.5641777695312112  0.8438710570995440  0.6658871746530359
  0.4478082199444892  0.4425396526582767  0.5323964374168896
  0.3376023628650843  0.4468258793936429  0.4449203864620887
  0.0371384649912381  0.7223493181789192  0.4405183290621495
  0.9972395460293659  0.3493265180370998  0.5771737967392851
  0.1157044523090570  0.7787451230840479  0.4941559492521216
  0.1124991143524459  0.8266686972167820  0.5273117180691580
  0.1938219260745966  0.7025306908625160  0.4382832461433279
  0.3249213720475095  0.9568633579812971  0.6190324492995938
 -0.0277321528863303  0.4331800084599652  0.4935503134058569
  0.2219521248602040  0.3176950286916389  0.4429820381940194
  0.2154636054353031  0.3593793025798943  0.4851327004584356
  0.1820556343867764  0.4087639852430459  0.4622445656197291
  0.2124894732291309  0.9640356081581545  0.6368445935930187
  0.1001927700928679  0.1982878757337916  0.5301745592408613
  0.8663846594701931  0.9967911543308634  0.6772593011447865
  0.4386665474599747  0.9494841837550222  0.6020403601030930
  0.4916041318605751  0.9233498364830022  0.6273694167608552
  0.5001496919041114  0.0507471589921637  0.6392165137679504
  0.0897789974478198  0.6772976549944536  0.5219094987020382
  0.8049346145284288  0.2638601192115594  0.5340438521489105
  0.8516589120907349  0.3054520419440135  0.5406052739954454
  0.3316219052155013 -0.0414698368949927  0.5651320726380569
  0.0561272426926364  0.7938512080687472  0.5172342683260776
  0.4939680652830570  0.2534434596854924  0.4953064671950961
  0.7591044863809160 -0.0127322206390769  0.6442918669886056
  0.9297759800397006  0.4710458896950244  0.5186759099264330
  0.2406479971404777  0.0774741367242410  0.4937277941152029
  0.2521540045191703  0.0103622179594112  0.6406787378170448
  0.2433979895707864  0.1340746983259561  0.5321104017495182
  0.3921590678195926  0.2972804159421921  0.5016338685264272
  0.3360971786049151  0.1787842816804424  0.5588308884356048
  0.9275549073758268  0.6550946258680745  0.4156170722519227
  0.6981515574024704  0.7965243495463032  0.5612950103947008
  0.6787339341804425  0.7367390715851075  0.6065148276151545
  0.7151051116472575  0.8308481799863514  0.6626839314239524
  0.6941121621464083  0.8701301975200068  0.7043576220933193
  0.9145531494311249  0.9021750358805226  0.7688353352653210
  0.5052608836989504  0.6029650110058201  0.5130439459490923
  0.4373393326298881  0.6482754233899188  0.5943574349304261
  0.7651276939310563 -0.0688004910949953  0.6582411817003784
  0.7131401505995102  0.9754929940598895  0.6889455924900894
  0.2244246541158556  0.8320389134562971  0.5579338811273589
  0.3427348950348900  0.4950182358045232  0.4860421160849925
  0.0926061211552556  0.2408438857555636  0.5767042185900934
  0.7946543929439618  0.9122822535938220  0.7238795804684226
  0.0994686569692424  0.4539262897591767  0.5198070323122603
  0.0198073721464583  0.4226611919800122  0.4580149724336458
  0.0236647918834465  0.4109438313490542  0.5216384102595016
  0.9934177421238132  0.7463829177824380  0.4016995279571519
  0.5227301922072928  0.8818951991035464  0.7023512370381932
  0.8819235017434609  0.8843992610443646  0.6511348016772701
  0.2732422330775510  0.3506439577374160  0.5047432242188541
  0.0688109388521491  0.9755269869630780  0.5309612215336976
  0.1906958877627338  0.0924406258738162  0.5277747564749431
  0.5300708226016131  0.7482949294589616  0.5650436276591255
  0.6348311235633624  0.7264916257643488  0.5836616723965011
  0.2782144121334384  0.6553045947866116  0.5464818159065019
  0.5287226944324264  0.1854203389963143  0.5344017014629973
  0.1107615517414104  0.4556783162615640  0.4095575859450594
  0.9035443854611812  0.6960396462960362  0.4269080091839965
  0.8484170226630875  0.7395480909771787  0.5054541512050019
  0.8410314982704218  0.9219266097219031  0.7081003914035690
  0.6044784841056988  0.7119036352109271  0.4717498672664655
  0.9941621368032213  0.7186651946042411  0.5202705202958967
  0.6025634647013377  0.1619765010649419  0.5082472991032929
  1.0064683110157095  0.6942485941395554  0.4634501027833739
  0.5811072082830032  0.8912052357714357  0.6819986601561102
  0.8989322509531049 -0.0202906721225073  0.7160111577351166
  0.2244781049236725  0.9627143614771727  0.5812934837432138
  0.9659389278183559  0.7586623588729273  0.4914791872293888
  0.8060852581309079  0.9074893801084867  0.6767335644474209
  0.3265002153497798  0.4489685137618985  0.4913518375411373
  0.0085423485304022  0.9259249775775928  0.6486653773444311
  0.9473101225200014  0.8023594212935073  0.5281220306749791
  0.2420591339691509  0.5607278095934314  0.5035058008077434
  0.2350111034947261  0.4524117976475686  0.4579456286701749
  0.7301264794005998  0.1293914795054424  0.5476713501775556
  0.6458620697979895  0.0033792158972349  0.7051927786887209
  0.6840404646134391  0.7511454593925002  0.5616544258737015
  0.0625476890006183  0.7678466187170933  0.5619378271918838
  0.6847462494747920  0.0049441763128130  0.5966663297620872
  0.3903587168898133  0.7266370571282533  0.5447941873205274
  0.4832705139855453  0.7016812368828602  0.5501947718914949
  0.0054987753189757  0.8825930535511969  0.5878546256113723
  0.8398374285375046  0.7854564442200112  0.5531279125871980
  0.7380376063249635  0.1062658288444434  0.6182356717767662
 -0.0530898158176797  0.8421261634368223  0.5812528655802317
  0.6055165107777312  0.7506959117774012  0.5286055372388686
  0.0618378687494564  0.9154028706796891  0.5992280522069742
  0.9902703075212703  0.4678136658052218  0.5412545562393479
  0.6783619388750911  0.3092029631893717  0.5956235192212920
  0.8726406793409828  0.2391023772934558  0.6175974775588784
  0.9068440720379634  0.3076648968180710  0.5612140993479428
  0.9770656746885330  0.4093031734283823  0.5622689317073579
  0.8092149844592152  0.3886652629841258  0.5067969652104874
  0.7704474463847359  0.1930267597224411  0.5958990513080108
  0.8614408760188803  0.2464745411097891  0.5579700927135982
  0.6579516201618885  0.1010570744451240  0.5714916041178125
  0.9591057892336110  0.3127522105872769  0.5217675351938785
  0.7435560284293374  0.1326521483004159  0.6525073404388260
  0.6847518499002986  0.0288828667584045  0.7033136330883865
  0.7498665122376645  0.4141130725886292  0.5895872140208827
  0.7389873316353693  0.3026115370476156  0.6126813992503315
  0.7578914981094040  0.4209745071916554  0.5309810781912176
  0.9183417637568021  0.4137532393324286  0.5427307962156430
  0.8868140709638371  0.3519905630758715  0.5991875629623102
  0.8717722746899966  0.3662738251877574  0.5355475554458914
  0.6489887150119733 -0.0221126800582375  0.6074481039598485
  0.8165862336856737  0.0788636648840458  0.6326616576506556
  0.7718637046269137  0.0812433464263325  0.6748605152067944
  0.6368362927054808  0.1601901532964339  0.5791719651422671
  0.8268942250843725  0.3577312416851588  0.5759164403113366
  0.8304615133071878  0.0721852424425644  0.6929068178285547
  0.8036103788926809  0.3297945682383149  0.5191310694159508
  0.8132324864985505  0.2473109340111741  0.5974665836066150
  0.7725933368789647  0.1187582035605190  0.5500442015370066
  0.7485188929909079  0.1753460146168445  0.5402473998656360
  0.8689042008350617  0.4842047154455979  0.4973436958169706
  0.2466045927944314  0.4124314210842642  0.4829041122988135
  0.3532636576898102  0.1577777520469405  0.4530133845525467
  0.2327119421250603  0.4482681141981960  0.4083188561330347
  0.3725026013765761  0.0628382255469412  0.5965829568983766
  0.2948335436316975  0.0468429621549400  0.5208551585225348
  0.3557518213673739  0.1207721629233537  0.5778214081309659
  0.5787274836088864  0.1505812362383109  0.6466785024910180
  0.7314925457607779  0.1414809075403304  0.5920803883053907
  0.0734290982469518  0.5182848862492148  0.4455142774149001
  0.1292674860896848  0.4312322175218962  0.4370518579860527
  0.7569641858784443  0.5398706043661767  0.4993146475681036
  0.7183679054407396  0.3611502951809862  0.5984438403276285
  0.2852252762702253  0.2300203616119667  0.4821724112340618
  0.4076673940803636  0.1918361293086565  0.4628815127531841
  0.4577025137471703  0.1562573731136320  0.4744531709683714
  0.0839801654508074  0.6252542676614616  0.4775552628925672
  0.3275076124675648  0.3227600716860527  0.4732900578896997
  0.0822441095020710  0.5084897420561905  0.5034547516130882
  0.0789787494318887  0.4584379571794854  0.4605408837295945
  0.1717931019492455  0.2776109441059772  0.4866696878036236
  0.2397882499949196  0.1902653559813259  0.4942905657879601
  0.2460081561182000  0.1356646589269966  0.4692868957059320
  0.1216541372686773  0.3724871390076387  0.4477804558527186
  0.0235814074235090  0.5308087422875185  0.4827000727366737
  0.2956512811417286  0.1063111130964107  0.5018229727961769
  0.7528484562587455  0.2966844239090993  0.5163930956443694
  0.3464656535517522  0.2038469574055159  0.5000660631336755
  0.0353274549829674  0.6716300853563912  0.3925771408418866
  0.4471879913809702  0.2140978774247204  0.5066128165265407
  1.0099316641056417  0.7534801005552542  0.4926500274769511
  0.1876965455373795  0.5184031966573009  0.4847657598485038
  0.2276177086406273  0.3851238590941304  0.4251687204202878
  0.9139570136244318  0.4084611723927934  0.4819154307408673
  0.8763492620511851  0.1320583644216300  0.5278058449262011
  0.7905632998032108  0.3062205572519166  0.5753148969085596
  0.7562218718598241 -0.0003832556065727  0.5838949356863666
  0.8547843861761609  0.1286617595712056  0.6266162608449408
  0.9387858638459394  0.0712840235486964  0.6730797654568745
  0.8893863313698716  0.0664651020903490  0.7130488496080346
  0.6967485377277867  0.2076852240982832  0.5163704582675089
  0.0330173613220777  0.4698203162823960  0.4992332613893816
  0.0360588228939457  0.4000276614276181  0.5845683265186038
  0.1476659914638002  0.6695267654607775  0.5478327540000455
  0.3442541253385444  0.9024378568072177  0.6397431161518435
  0.3506244430130640  0.2872084462930234  0.5458100881163885
  0.1907245843743683  0.6856691812941622  0.5000932620575863
  0.3839997136348006  0.9543580829314413  0.6424933870439609
  0.3294984637644669  0.9113795263911306  0.5202321546193140
  0.4435396936591713  0.9451379801807103  0.6635379489464348
  0.2755313160111167  0.8026362602288748  0.6043293906043081
  0.9285893477641513  0.0822193872557477  0.6121537718547490
  0.3362746685774515  0.8282542311275278  0.5958584684838685
  0.3023004558927374  0.8538161656382964  0.6366212206196588
  0.3877413827142780  0.8668935295010689  0.6039276182251596
  0.3798944702122278  0.8816111921528990  0.5431317217062195
  0.1658876796897531  0.6097628995938783  0.5687447970590270
  0.2751877720234231  0.8068433183361542  0.5350705458268069
  0.4909386076751422  0.9384153674317274  0.5641241105248760
  0.9048372725264001  0.1351774717029593  0.5893661984518386
  0.2435408793106348  0.7088601897399494  0.5754363675162386
  0.1072825038289640  0.6198692924642615  0.5445017161655551
  0.4508638970523204  0.3276667942286777  0.5715799269476121
  0.3270374270346300  0.8479887681552882  0.5349209772074359
  0.2037225553264023  0.6609169017720726  0.5715739085104147
  0.7581421393174105  0.0470015818566193  0.6264197726055816
  0.7105109518211914  0.3266534510168683  0.5474353042617536
  0.7030238095619487  0.9531632721907299  0.6344008596634635
  0.8916609375529625  0.9567521309708293  0.7548269890457383
  0.9123407090041590  0.3441577288173717  0.4981308987455879
  0.0901065957056026  0.1573300103810603  0.4776019728915043
  0.9558511956304013  0.7449062532433892  0.5325540353505434
  0.1346837521148569  0.0632612673778518  0.5166969674567981
  0.9036784907703077  0.5782839030203802  0.5459440300641255
  0.3960490548336615  0.1688094540647245  0.5822990658536116
  0.7633154845725302  0.4805606514207730  0.5168201512036074
  0.9231166509683378  0.0158451935195236  0.6968663396539345
  0.0190995586076534  0.3604747803577235  0.4802803752002696
  0.9586566244024235  0.5887242271354564  0.5066331474080742
  0.0723110613998900  0.2548950648706839  0.5171356500636614
  0.8602317170992541  0.0032590789610269  0.6181327585938626
  0.9404497346207458 -0.0416500008079003  0.7175284032822480
  0.9310718982252594  0.1624465987573561  0.5368988235667183
  0.9663895360304291  0.1331982204533813  0.6158644550762002
  0.9880344036763831  0.0771698848047313  0.6344165087880409
  0.8102819837421419  0.4183692252382282  0.5601868392783428
  0.9154466573442614  0.0249466698370107  0.6334956947701004
  0.8668099347016465  0.5274295771005834  0.5423304924149566
  0.9721497020150509  0.4950256050683262  0.4752128425490362
  0.1975835657721732  0.1738722458290595  0.4519190660081555
  0.0075240544808118  0.2959168045207487  0.4839119549844567
  0.1182053321198840  0.2442699470734484  0.4795626886640995
  0.1437255083922618  0.1863109802835622  0.4881808234552172
  0.1914552136785515  0.1086739376918472  0.4662208133728497
  0.0343583914707987  0.1282264937637697  0.4690221363188984
  0.9665263359098223  0.0042546683891860  0.5987510469331222
  0.8201190889857120  0.9023968142592694  0.6335883727110679
  0.6994586198630076  0.0194145465669390  0.6362444641160669
  0.8114144316049239  0.0293110407170066  0.5928532892975716
  0.4052646824864426  0.1190591231601890  0.5373474235510142
  0.6660562685926795  0.5893315698176730  0.5174494515881773
  0.4412574426688262  0.3343691169276037  0.5108307649161632
  0.6005737262428357  0.3180032507318286  0.5103887921043342
  0.6536729875310724  0.4077428973590895  0.4999350905868510
  0.4418341944299057  0.0116683022199823  0.5771087746382833
  0.9417658944435309  0.9084694260422754  0.6686725192496953
  0.9910802339474095  0.8854239801733355  0.6327852363044310
  0.8110256811198482  0.8525073123528627  0.5865855182779082
  0.4252551843139614  0.0012446138430197  0.6393119729425785
  0.8290204932660684  0.7888414466887921  0.5979438244672816
  0.5424965652652103  0.0994641588980728  0.6445239979408937
  0.8423044523305281  0.7724871297112368  0.6589189447006499
  0.8934879338199475  0.7805665102032251  0.6212834229598500
  0.5541572362637907  0.2073840879237852  0.6363811763615348
  0.5596209406664204  0.0432818486603040  0.6666964052304116
  0.3353343144737084  0.2648670573071535  0.4899586535690385
  0.9691581817336389  0.6976493495765760  0.4869056900803952
  0.4529756013171988  0.6032915193304125  0.5523904050496030
  0.2658336044264053  0.9656763453075560  0.5974382017843985
  0.6698902767852836  0.7797697438427266  0.6539132543067441
  0.5951257262668231  0.1951561054157021  0.5434618425566211
  0.3209252304823200  0.6546991431852659  0.5549799030629787
  0.6534663870022214  0.0781414109143822  0.6351179783416050
  0.8609807970532942  0.6945773665428056  0.5066932434674676
  0.6126598221200489  0.1262199652583040  0.5335813050147298
  0.6591132509545724  0.3681624694589817  0.5783458458953438
  0.7753620182122005  0.4692798475367633  0.5772348420499559
  0.6703642246617055  0.4262829381763103  0.5562317546203569
  0.7904778467810137  0.5798370489705510  0.5606709334079126
  0.9235171821441346  0.9673028740484704  0.6556120289241577
  0.2415388495094840  0.5587443820148851  0.5471628374553520
  0.6035202645518974  0.2087560863748517  0.5997569459243777
  0.5471562330011962  0.2281712390386854  0.5225680989341497
  0.5072612884122729  0.1872733585288357  0.4960390288707980
  0.2180775500643838  0.7913160613226848  0.5127339784094932
  0.7852670568737946  0.7416778354220431  0.5375244379768833
  0.7502430695647525  0.6919527633397727  0.5286198232971797
  0.0535737566429351  0.9150287173965259  0.6467621834213089
  0.4130031314690553  0.0610509964667566  0.5536081866967870
  0.8816503884285667  0.8241053312629053  0.6675523483304453
  0.8551470050260856  0.8440763509569302  0.5451605237373589
  0.1673288692416799  0.8592852634418312  0.5373576244274988
  0.3450107707031535  0.0211161134355181  0.5523035798659072
  0.1066818170045516  0.7765005379042578  0.5670160550401924
  0.2836349291773290  0.4168314375176218  0.4326947708810999
  0.2440003854917030  0.8602689088279725  0.6160477198197495
  0.2224850896704282  0.8916640415148078  0.5447432368629175
  0.2097154431763684  0.8090561999191301  0.6107590190345330
  0.5122532021223801  0.1462705721894988  0.5624126894018346
  0.5028590508414879  0.0648074196316409  0.5230720186544963
  0.5716167942399092  0.1483287420425140  0.5794403659358930
  0.4895322253939875  0.3809972110229480  0.5720275896230781
  0.5595518659886494  0.1571040710732503  0.5088310657194794
  0.4522534742796114  0.0956689134218999  0.4994308691954749
  0.5172423168056667  0.2740161101706107  0.5533632401875948
  0.5469663790969930  0.2863539150619672  0.5020355744404825
  0.5762962340080368  0.2627105399793667  0.5754935297614786
  0.6565378994741353  0.2894351520015306  0.5358592617551301
  0.5199647275730070  0.1569938700515912  0.6240871252528974
  0.2477620761895996  0.2443066469403130  0.5243897125841060
  0.7010035495661371  0.2498612789733309  0.6171669401585623
  0.6521918607294697  0.3495846557622544  0.5208074874282598
  0.6171906918695668  0.3168795433360758  0.5738349063797571
  0.9522673484585553  0.7724308231930773  0.6374227829102431
  0.1127968666331157  0.3055805508986247  0.4621476699523764
  0.8159237509328113  0.8570067125364209  0.7474636949512902
  0.6418376828794282  0.6983477383845836  0.5506983484085510
  0.5437959051125906  0.3449075811681345  0.4867153555879165
  0.5569849748498634  0.3254105675790606  0.5523264234228541
  0.5481726169410338  0.3714973297079103  0.5953148846641335