C  Cr Ni
 1.0000000000000000
    21.1200000000000010    0.0000000000000000    0.0000000000000000
     0.0000000000000000   21.1200000000000010    0.0000000000000000
     0.0000000000000000    0.0000000000000000   21.1200000000000010
 C   Cr  Ni 
  35 259 605
Direct
  0.2563635088259488  0.0890775772866967  0.7515267651092434
  0.9191397129922201  0.7515712578720178  0.4045162964334649
  0.8272316665866495  0.6622050891244428  0.9224052998085741
  0.0710520073897505  0.9058139115236025  0.5702388580107408
  0.9162572191483277  0.8468992785267579  0.8231045560649830
  0.8239155762442053  0.8459474913392042  0.9221922277683919
  0.8212787521894919  0.7488086178143385  0.5017380431765485
  0.9996415261236145  0.9273682080463715  0.0085467636020810
  0.9187997931860836  0.7522574576703448  0.9204426519783618
  0.8330537647785327  0.6560232011011856  0.4083845852370432
  0.9195655717048807  0.5703336626917765  0.9249408307554463
  0.3332251517714715  0.7504110313450322  0.8391363436814074
  0.9168337483316669  0.8455293465157312  0.5028582990632428
  1.0145340446217210  0.7528153992848955  0.8221054594308261
  0.2536926714461500  0.8323177435498733  0.0061469725791173
  0.0718802226585943  0.0015755320237864  0.6633031201947092
  1.0070494370241760  0.6561512195873890  0.5876394763142080
  0.8301506557815882  0.4155687227536572  0.4995921068767991
  0.9193203356208807  0.6599575282091239  0.8265033545822776
  0.2484488634057822  0.3308743896761454  0.6646127330632994
  0.6552314868268143  0.6651963719034724  0.9192913919872527
  1.0117534433124311  0.7542736739204696  0.5016724389171985
  0.6554848238516086  0.6655497604723514  0.4139330060118804
  0.9171534222325839  0.6561838907283938  0.5009533440353998
  0.8240616960260676  0.8418854633790810  0.4085249703350228
  0.0670785062668452  0.9045936911329979  0.7621757211232042
  0.3337928886053947  0.7522492135344392  0.6580319219168284
  1.0085985487021367  0.8401785906224911  0.9165124392725602
  0.4154025058997632  0.7493614609226004  0.4141318610748026
  0.1648261250437089 -0.0003018312837497  0.7556175592049520
  0.8221650320109763  0.7535254947087924  0.8281069027946995
  0.1648660558678316  0.0912284279816031  0.6597445934367009
  0.8246127738669072  0.5691004303272438  0.8298163281725228
  0.3305752979653599  0.6602184589227037  0.7496285503008342
  0.9134451674615593  0.7498243571572837  0.5934361458314092
  0.9156057950075234  0.6560517488851940  0.7374445025697067
  0.0083511593772101  0.7491306446562108  0.9159571942449732
  0.8281878774336638  0.6623475590643116  0.8303661893285500
  0.8228632911458700  0.7507382575285192  0.5908896579433189
  0.8309782465229042  0.6659492366371514  0.0128839725915774
  0.0078639522136476  0.7510505527425946  0.4113312641442513
  0.6612398163297355  0.6659858911158627  0.0103901164470583
  0.8282820489139701  0.4124355582866591  0.5894442389626984
  0.8274846328465443  0.6586706494914525  0.5009484308260435
  0.9162691047714761  0.5700963935111140  0.8335734497157570
  0.8289860678944093  0.9356561014681843  0.9198043130711510
  0.1705454299872196  0.6606769354939135  0.4940761049941563
  0.8303021152625234  0.3272020724559870  0.4970263941942406
  0.7457269473643521  0.2487665219764205  0.6659915251035027
  0.5798206917761515  0.4138674661553644  0.8340332544243868
  0.6595445099190521  0.5796248113103716  0.5833128381466903
  0.6604800909695759  0.4936989906640566  0.8337014858066281
  0.6576394128055195  0.6639027881647152  0.8274305312169214
  0.8294460702898314  0.5656948913520881  0.4133069300603353
  0.7447139590185589  0.6616609144901050  0.4103453438564133
  0.6614694687261653  0.7514870844388137  0.0842810526339930
  0.1662538890175224  0.8342751160555381  0.1689869744837909
  0.4167083417440092  0.1666524350948587  0.0855346109460042
  0.9176235120031051  0.7524731560165794  0.8264561401162748
  0.8309930026814236  0.5800812470089138  0.2441148619529772
  0.5054132951384323  0.7518574115941987  0.4136110324016630
  0.8290412320017524  0.7535708642502699  0.9190030114211567
  0.7459947217559487  0.3313571641107294  0.7497054080704427
  0.8262057351888884  0.8421759405504607  0.8313721606386457
  0.8282666520177248  0.7492657854493970  0.4117885308065258
  0.3341990150642141  0.4154369557454273  0.7514205316168835
  0.8278276399313282  0.5729331206555000  0.9208903333670062
  0.4179333850378358  0.9194999894081588  0.6648685293824101
 -0.0007978795350601  0.9295969035787637  0.9189507173387741
  0.7441749763556192  0.4969449253550506  0.4128144684847243
  0.8255364227185071  0.8385641818619863  0.5003772989121497
  0.5814155850337814  0.0028928546092640  0.9186166355184473
  0.0027704025345889  0.7500919900234051  0.2466357780171931
  0.4990167095695389  0.6651146571487224  0.0059149365367185
  0.6619247752944020  0.0865229286912028  0.5812366505212925
  0.4236413645754993  0.7494237771054240  0.8344740890576215
  0.4227050467495115  0.7485285214760075  0.6649047667715740
  0.4984286689170764  0.4978795333649564  0.4962957479892882
  0.4149082394628699  0.8415231450257016  0.4147063287693260
  0.8319868763919994  0.7525799236511957  0.0854624812950740
  0.4975558319502657  0.3330470002802310  0.0021106986156920
  0.4160559929766292  0.1687304379908109  0.9192732875252538
  0.5775476392928117  0.6662263462198929  0.2448118253615866
  0.4147300957838068  0.5798539063517719  0.3305810311670542
  0.5812221933684862  0.4960822971945389  0.0848362836535785
  0.5810555928217740  0.8358824446636005  0.2492088165953532
  0.4985302213641650  0.3331966029947222  0.8352309064817174
  0.6614878854228743  0.4142595934390985  0.5832160295331374
  0.4157170058031396  0.2504853338208486  0.3319917211136190
  0.5793723349706674  0.4958510918092319  0.4144141382021522
  0.4176931907684321  0.5809444821417741  0.8340172191139806
  0.5795605587510853  0.2508284400681639  0.0027257302611918
  0.2515050907299191  0.4957222008585653  0.5788704564977586
  0.3360887169980194  0.8401352677413406  0.8367493598384156
  0.2493536337203680  0.3316886039942952  0.2513982534899774
  0.5789384332873316  0.4143011217139653  0.6651346938959342
  0.1712093133631480  0.7494200842547797  0.4105448250332232
  0.2544161080773151 -0.0018449930450667  0.7492111846911587
  0.1661633562778457  0.4945634306370569  0.6671509144780545
  0.2482594194370501  0.8346239392712510  0.2469295139723230
  0.2493379735191045  0.9192536637577067  0.6637141918568624
  0.1681104351968318  0.4932810736724941  0.8370313327730223
  0.9135076803844576  0.9214262542934739  0.1690242792885095
  0.8312443475373081  0.0860793558913926  0.0844244658453376
  0.0024626701502023  0.5797191254906280  0.2475697790469720
  0.0018341753100202  0.8354322200877601  0.0081342166757112
  0.3341922028937086  0.2488160248742177  0.0859631610923685
  0.0747117030054527 -0.0011481228324226  0.7538394158651491
 -0.0179164615452644  0.0098841347522312  0.6658270068274675
  0.0070570882412282  0.8436219221035200  0.5037082496654885
  0.0055197857192162  0.5662819078314884  0.5834595520392195
  0.9159847739907229  0.4128340911755217  0.0065146123602835
  0.1675340639875544  0.4958673508831283  0.1661507955668306
  0.2503433199011579  0.5796067990846790  0.3313495274123791
  0.0851476338901268  0.4952807505234190  0.9205755621613674
  0.0814306980884562  0.0874417183537129  0.3319757938722390
  0.8249634291934314  0.0084036955567943  0.8358570895810954
  0.1665336304767105  0.0043747187524831  0.1693172930547661
  0.1650241922908506  0.1706196868213855  0.4958987130720328
  0.1658982264169120  0.2501349818578594  0.0862427942474410
  0.1666691475622439  0.6645825552230276  0.1679585777964810
  0.1656158965697362  0.2506056588498791  0.9195513120945710
  0.0092896820629354  0.6622344825426872  0.8305305674393670
  0.0794872546329316  0.9112227408639139  0.6645516373786300
  0.9166867664481463  0.8414953505855158  0.9157610667146612
  0.0853068804490807  0.5809887462477580  0.0042544057998140
  0.3350154021696677  0.6635644480261739  0.0015787645571982
  0.2507475043683541  0.4140125112870772  0.0032674015111894
  0.1656811781607717  0.0899356120211521  0.7511395198549773
  0.2511414759193889  0.4122920098026365  0.8353360024647751
  0.8309548456362515  0.8366228785617745  0.0115049674482209
  0.7466081070481292  0.6666039866075026  0.2440520371390944
  0.0021241769159936  0.4100179727495456  0.7516906961135884
 -0.0005633950847824  0.4973690082667521  0.3281218944045398
  0.0833297447175825  0.4137201981325469  0.3311247774062729
  0.1632870454017071  0.1802544156720004  0.6642797203189307
  0.0012254852432514  0.4162731102774308  0.5823938893657880
  0.0836056621000048  0.5795938626078103  0.3295743645861425
  0.0845943765475717  0.8347882970698880  0.0886335890536789
  0.8281343683817238  0.4132374557128394  0.9192562215730420
  0.2506541990485814  0.8343426993345637  0.0960046638024017
  0.0849520426721702  0.3294202514040607  0.9204924701301749
  0.0821493644079198  0.1671117222346837  0.2519440668770087
  0.0839842525958777  0.9197608561327318  0.3326431193405027
  0.0064936521414976  0.6629930591191203  0.4974109372891328
  0.9150212716889123  0.4815778707419462  0.9213922895643356
  0.2494094181416353  0.1674144186003082  0.2521710039565681
 -0.0034743107052819  0.2522260423445056  0.4135896765858172
  0.0788437060471074  0.0006603542283756  0.5729437990310603
  0.1718348517354416  0.6591397499267234  0.6647329842840067
  0.2545862917692827  0.0882813156149921  0.6609379629812074
  0.1675181872787579  0.9169566125612875  0.5802505727650539
  0.1690900582745360  0.9198678554296210  0.4091872418390479
  0.5659555579591411  0.6642822361955103  0.9210640118805622
  0.2506979952266507  0.5805004558897415  0.0038548220218312
  0.2513095462465955  0.8342845103936272  0.9162360581904420
  0.1640428966102190  0.9103138845435648  0.7506587431055470
  0.2427440453398435  0.7484941606833745  0.8385458489302046
  0.2456055452425298  0.7485912653219240  0.4944893617602796
  0.3327127065723198  0.4143635375635433  0.4140049826361452
  0.4153348714055458  0.7510815011048827  0.3249681970646386
  0.2512427085498456  0.0862887247845224  0.8416219549519518
  0.2514644469388490  0.0863505687847843  0.0032776833700741
  0.0961683581981417  0.8362176575602464  0.9245185448315951
  0.0905690211876362  0.5726694736555146  0.6685617236653276
  0.9124232085815763  0.1688510699627355  0.4151535629780920
  0.4980590399697604  0.9196105722108351  0.5809089347859517
  0.6643926215296589  0.1667690579902991  0.1661041004799460
  0.8278426022417630  0.1694705625596690  0.8357155277342954
  0.4963572288278211  0.0867216705106880  0.0871175630356175
  0.9069191336757699  0.8399210278918835  0.5918061400851335
  0.7466127313513241  0.4154166442539729  0.3303960430546114
  0.8304403886878162  0.4131833599823186  0.2482680983174082
  0.6598104196655479  0.5745348317040283  0.9194431815142750
  0.6628313354530270  0.3297750815097781  0.8345335651760795
  0.5798402696597785  0.8364784536486262  0.4155555834244215
  0.1655668282655667  0.2495631382268082  0.4155159463080050
  0.0901192474258101  0.9211430488291660  0.0042993076129346
  0.6651410779287900  0.3325859241550873  0.1671212388091012
  0.8276744182953396  0.0050948398005930  0.3277375480501354
  0.8275417010702665  0.0060982381327383  0.0046573410787506
  0.9160282884821286  0.7511157825176239  0.0113599326565467
  0.9184796041796632  0.4965724220610788  0.4107468755730829
  0.0022453705248429  0.4916758368803527  0.8351374201333234
  0.9207587083826222  0.6618201224728359  0.4115181348739531
  0.8274186061968490  0.5040551083615267  0.5027757204175421
  0.9168697115424113  0.5815611221197213  0.0136028675133413
  0.9174290482319875  0.6620203569307547  0.9185290565768109
  0.8279965135630768  0.0857582487948906  0.9184803303110934
  0.9152235205068271  0.3287592357556828  0.7492298844659935
  0.5819713274470570  0.8356033605569162  0.5818904983719704
  0.1700509181424401  0.0074665919987387  0.8449893026863288
  0.6598916658862872  0.8352124691208835  0.5005117046243938
  0.0831912431733513  0.1689804272507187  0.0858686492504625
  0.7464648235685406  0.8356449613581658  0.2460952834334983
  0.3333175083477529  0.0004708370757264  0.4973960354353217
  0.7458451738807245  0.2493070366427193  0.3323007092211416
  0.5802934316986531  0.0033134567626370  0.5817130912052544
  0.5801207089838804  0.1679329486489410  0.5809491012845546
  0.2512400623391127  0.3311526017211615  0.7553670217573663
  0.1646450296037077  0.0861797488001205  0.5702272948942649
  0.1643505152402238 -0.0005486980530297  0.6633100162951946
  0.4984392435876603  0.5771470541064291  0.9194640907018515
  0.4976850188327850  0.3317277088878958  0.1682788192121338
  0.6628028075657298  0.0867876192360731  0.0868806992158171
  0.3455756949668203  0.0853242982218036  0.7495148761035635
  0.4147008185714507  0.9176082142971178  0.3319036490494083
  0.3340734791901771  0.5719499519658384  0.7509908239154858
  0.0878488351267112  0.4952810421113757  0.5807994375777543
  0.2519474999665904  0.9235926835073451  0.0062080648087237
  0.1673903750707217  0.4151952523751782  0.0857080361127070
  0.0802964231937786  0.3305847129118042  0.7514638223361351
  0.0745333302933989  0.0913474806076987  0.6631039206210511
 -0.0032147553263611  0.0042800462446163  0.4961393277031474
  0.4991821130557906  0.0016317811663434  0.4989376261357607
  0.6571113595410087  0.7554351282340040  0.9196193381354896
  0.4981898651618930  0.1683529111853123  0.4980855164058360
  0.5806366698662931  0.0032079561513714  0.2508458609269489
  0.6637960409599577  0.2498010854650625  0.4136773948488063
  0.3326901805445557  0.7499803734694095  0.7492749171234973
  0.4174278334496053  0.7499586939159670  0.5029164358386696
  0.4164397218775218  0.5798226471023237  0.6647345856561048
  0.0885469152468829  0.8185814133012099  0.7467131241086833
  0.4960137049607650  0.8370515265622355  0.8338678998683540
  0.4180325750967680  0.8357137989823212  0.0874686115816960
  0.3349736587034574  0.7506779809247514  0.9274425790557608
  0.4169429463878745  0.8372013932813380  0.9185320158395470
  0.4959564621437354  0.9194207727944134  0.0867685077354913
  0.6615029816089681  0.9194645204233554  0.0862200300830395
  0.5805358750582686  0.4979362600968630  0.2479270096055068
  0.0029822266926504  0.7462910153434648  0.5908270733328224
  0.6609500077607138  0.0030151435907145  0.4999151566654293
  0.0826740961669029  0.3296658433036360  0.0850666354102759
  0.9147727451207495  0.4128478225267451  0.1668322683891020
  0.9139463635687438  0.2522972712932712  0.8371781039980933
 -0.0045975669470567  0.2519705351485173  0.7507274315563832
  0.5791117762391369  0.1681438379961958  0.7494227341934899
  0.7449458879475129  0.2525378373736059  0.8341829298541441
 -0.0036336407643168  0.2506792317223577  0.5804449068582644
  0.9155605351081094  0.3327293977139478  0.4137882282190785
  0.7474808310542601  0.0856412039577802  0.3316919733126805
  0.0000341078098950  0.0061892020787026  0.1696183635361460
 -0.0014377607278814  0.0086663197706770  0.8359313521421121
  0.9101284897089403  0.0905992243643148  0.6658217757718164
  0.8301150238199919  0.1705377354273021  0.4982641828357974
  0.9140961301471768  0.1690002191554650  0.2493060582811660
  0.8281017631291119  0.1708531218979745  0.6668031249752556
  0.5807585910418035  0.4136900700613357  0.0035532797337525
  0.8311142922812154  0.5807891089174922  0.0843862232271410
  0.8305434111233649  0.4808703620155918  0.8332291096224328
  0.5805082815969917  0.6638219033709969  0.5832916184299334
  0.4991601302422954  0.3325316664230713  0.4965947514205455
  0.6648849752810269  0.1689532140269712  0.3315453395221580
  0.7478091562607494  0.0027095333351817  0.2500839377743340
  0.8316024571936718  0.4198899561384057  0.4097858267598221
  0.4158441381651529  0.3324770892414828  0.2503497920540307
  0.6566542922379688  0.7508934546564876  0.7499796388865236
  0.6598362517317544  0.0876562064956474  0.9174286155925699
  0.8257908997988666  0.0065947385182107  0.4976384079943239
  0.7419135076737466  0.9222660690151649  0.6676612844666809
  0.6580392414253329  0.9226610004558972  0.9173229763532804
  0.8312865740041852  0.2496989305718080  0.0838648519061496
  0.9156715779005864  0.8407538651995430  0.4125479057815581
  0.9152086925738679  0.6594848535351037  0.5909544396840568
  0.7451137823276988  0.0883362171443504  0.6664589151769049
  0.3341360525652192  0.1681144254693713  0.4965606586991036
  0.2519451967455520  0.2412730832557907  0.6626269192423833
  0.9166467136719001  0.7512545216219585  0.5005964394005582
  0.1667811230839212  0.0866810737582537  0.4157204679033025
  0.4154579155113853  0.0843219767571259  0.3327654959305963
  0.4170192901720279  0.1686675851984145  0.7500996960996849
  0.4212934457710244  0.6641725835004180  0.7483669888650119
  0.0063772601958346  0.8419210047901347  0.8253451967379212
  0.3342447040993288  0.6599238959938284  0.8394770244853990
  0.3333420309640948  0.6605429927668374  0.6602424324884453
  0.5800084436139795  0.6647788713998125  0.7507961977030766
  0.4985149033892470  0.6661661790628108  0.1690441203087570
  0.3252320515581543  0.7485798399209950  0.4141146998135554
  0.3334609107441063  0.6652463001874516  0.1674047364620534
  0.4968773327118814  0.4979976807200735  0.6644678623086384
  0.4156416918951160  0.4132583357710404  0.8353291085081858
  0.3333708893670121  0.4150326472959072  0.5792485085378588
  0.4147343389748563  0.3312465914684543  0.0858321600035047
  0.2522572656999704  0.1785556455196809  0.7511256895570751
  0.4180792584732524  0.0028365041735130  0.9187588390485822
  0.3329137542036985  0.0030943582220277  0.1691316627983719
  0.5823050537006725  0.0846340384857131  0.3323717893735726
  0.3358139486103976  0.2489950062146344  0.9199040498263358
  0.4974297060992964  0.1661212230513618  0.1676383114303185
  0.4136027626155608  0.4981576927778448  0.2493349219555432
  0.6612884796408696  0.9204031912675307  0.7490501379838864
  0.4980914076324706  0.3335263490910896  0.6653633624843623
  0.3329009627463876  0.5796780314771404  0.4125190264554273
  0.3326885193620893  0.4968985309817333  0.1688068005770673
  0.1658181149618350  0.4141482430743227  0.4130230685301557
  0.3346443703485834  0.0851011010841057  0.5793175026062942
  0.1661589935574612  0.3313840340489010  0.3323690017703016
  0.1677411371414062  0.8345829521168775  0.3301004713162440
  0.1685023447696851  0.8355397010497879  0.4941376653240675
  0.2511775331437761  0.6631008661174400  0.0863573831223880
  0.4167089965955224  0.1677076845905274  0.5789173960332687
  0.1674570936642185  0.4964479979386593  0.0025421783802277
  0.4162793793277587  0.0841868294876170  0.4977333933154945
  0.3340719897630124  0.0008100892845123  0.6635014705490302
  0.1642319716721971  0.2509280456791576  0.7535231389095449
  0.4174951614071147  0.0854862851113801  0.8362248117046275
  0.4986206493738850  0.0021313210283855  0.6653744723732193
  0.3357621133697682  0.1688587071454277  0.8361929989786429
  0.2499126017741306  0.4950684790024927  0.7517308090705629
  0.2499775922509241  0.6642202296877022  0.2490610316965331
  0.6626451465912090  0.3317149233938811  0.0021188571647996
  0.2492656093581892  0.9190002357141699  0.4966852604229045
  0.4162937107618755  0.0030820572807742  0.0865114660959030
  0.3374080595283195  0.1685653398851504  0.6642040365779860
  0.2505068212775408  0.6619281630330737  0.9213879942661334
  0.3349988382659395  0.0031524668605517  0.0035726809546405
  0.4984029190976365  0.2505867436625099  0.9185043503207869
  0.1665673794193926  0.2494606462082102  0.2506087495675075
  0.3370650167705180  0.2508100892267349  0.7509548124120831
  0.3328365882696848  0.2497163230266270  0.2504785524699812
  0.0827890951303334  0.2495026924054914  0.1683642769853582
  0.2512051636255380  0.1692535312395547  0.9203294592926948
  0.4987652340427468  0.0853082060285489  0.9184877115578451
  0.2499916953865848  0.4968708201109436  0.4134336771416001
  0.5810570256060207  0.0845292432514240  0.1679246619984657
  0.3321830410787259  0.9192437418986379  0.4139745537198575
  0.5795739906027707  0.5796564285869237  0.6657165135236598
  0.3343026667961209  0.0846005703060936  0.4153090142493540
  0.1609538263129099  0.3292025189669804  0.6651986846509228
  0.4980307207672029  0.1675115403517967  0.8341640754102082
  0.5792797725217238  0.0861111162043379  0.8335514298275616
  0.2499507591897177  0.8351754736822546  0.4125647413604033
  0.6617992801599313  0.2504236439105626  0.9183367272318003
  0.0831562327597495  0.3330038560159490  0.2499884539194737
  0.5810594388859837  0.2494241809034049  0.1670157150979913
  0.2503194417450360  0.5810376972471070  0.1675751211980177
  0.3327956050145036  0.4148052314586251  0.0855174912647268
  0.4164676909258092  0.1671735066189361  0.4151517712477753
  0.4978825863680812  0.3325815829402037  0.3313920631644469
  0.7384127975452730  0.7501280079168259  0.6668664975469889
  0.3352642809989538  0.2492949187668354  0.5790612315155194
  0.3337588304495219  0.1676490414115503  0.0021838121772580
  0.5793982526747279  0.0863097767430629  0.6650556462249284
  0.4995968366026119  0.8352444195027372  0.4993437311588397
  0.4169427409318058  0.2507923763298260  0.4971443814487684
  0.5791264808761938  0.5794651372639172  0.4984378781518386
  0.4983030013411918  0.5791831409998621  0.7496376721399933
  0.1673827131184611  0.0889668148476368  0.9216509733494325
  0.4986150636291560  0.1677497601792667  0.6657459956010654
  0.5807937901778051  0.4148357600581202  0.1673251022588134
  0.4977049419364362  0.2498772326084560  0.0860583925392321
  0.3348946591658404  0.0021842265761305  0.8361381007040620
  0.4155118025270015  0.4149042229484335  0.3315030921295367
  0.5817239216153831  0.3313533640477957  0.2487849183966371
  0.0011079973922083  0.8348472377583454  0.1690567321751091
  0.2497310359476043  0.0035080168532574  0.2501653745194832
  0.5811044801268440  0.3322158219756862  0.4147437440074404
  0.5802017874239833  0.3319826662056943  0.0851858707231362
  0.4986519241600986  0.0851575001169545  0.5805796294499255
  0.1676603292279134  0.6624624290370416  0.0044674398636866
  0.1662555413131623  0.0038397048841596  0.3321777879960240
  0.5802376103534084  0.0026267290393563  0.7494168855640873
  0.2492118347940586  0.0860391509249682  0.3335399400984844
  0.3346001585730662  0.9208654983777450  0.9201312178786905
  0.4983513622167496  0.0032152178694519  0.8340856201405943
  0.4986903285332416  0.0031883987000186  0.0024698472300575
  0.1667372650461269  0.9202400503683180  0.2500233829131925
  0.3335216770780906  0.9183094969054650  0.5809549037277154
  0.3332450205228681  0.0853947184025914  0.0858613680232904
  0.3339349443939815  0.2496705610780791  0.4147968104347038
  0.4155314604754106  0.7499092405487300  0.1680362256764665
  0.2506018229259445  0.3317762274436006  0.5771294752656970
  0.3315768786844005  0.6637394946248381  0.4961553030567161
  0.3333715427643801  0.5811524395297089  0.0857862981651750
  0.3332735014436309  0.5784216084638082  0.5798741712811415
  0.4173005010123029  0.9210259792423834  0.0032459092869410
  0.3332299549624196  0.4141955366104463  0.9188858919276119
  0.4180306249452150  0.7503878071022001  0.0045603313745937
  0.2502638539142793  0.5761203723773460  0.6652498692400215
  0.3320637995611648  0.7495736611830525  0.2477844118494730
  0.4150144402218537  0.6652384051168604  0.0861411003263229
  0.3347721328297251  0.5798646871278885  0.9203291021058474
  0.4976199039313264  0.4145643957024691  0.0865468982005374
  0.1668782852449281  0.3308506493078510  0.8363590958539655
  0.9027980238889931  0.9263241768997602  0.6652326725311667
  0.4989719654147714  0.8353157823684607  0.6647800119151366
  0.0793835302772775  0.1701713151268924  0.7505840715461254
  0.1697726239055877  0.7469546935678919  0.9251973740469024
  0.4169482293611357  0.2492833738831644  0.0029311493914484
  0.6620227890300154  0.3314981066349569  0.6657026098312362
  0.9141138506294559  0.2495436044068007  0.0016619801651063
  0.0006166559282533  0.4132509759616609  0.0852767982768716
  0.7378959798121715  0.5779857567224609  0.8324592516133761
  0.8300400300591825  0.4951000895824875  0.0053533354085998
  0.9161274274529559  0.4953076854297976  0.0859076602765495
  0.5800275392035636  0.2502764199102964  0.4980589389769450
  0.4160682251486251  0.9186886262345141  0.4982833049050016
  0.2503475139509558  0.0026485340981818  0.4144173359787485
  0.4987179423372865  0.2508091736239038  0.7498162374855949
  0.4157204497262107  0.4965689808483085  0.5802084501057887
  0.5805837078153693  0.1685880961307529  0.9185011835883785
  0.2511540246461567  0.8359565982404583  0.7514575121613928
  0.5794761447668400  0.2503315511285165  0.8340908973431975
  0.1722254746637965  0.9219413686561304  0.9227200880056388
  0.4159598804336840  0.0017218387798829  0.5805044345694702
  0.4991005118631914  0.8357314096548010  0.3311692736484272
  0.2504516032854822  0.5771342470092570  0.8370335761931381
  0.0831443491879761  0.1693767191352445  0.9193007797843270
  0.1691682272889517  0.6596571581881394  0.8385427467432048
  0.3323922159197716  0.6645360218090746  0.3308859564304895
  0.4979006841944646  0.2502533587004135  0.5809142175367157
  0.3331905441434098  0.1676180060619583  0.3329593788823053
  0.0815447195098090  0.2501045746278495  0.8358573234429979
  0.1672161326076360  0.4144578474066876  0.2489380626180004
  0.7447293128794571  0.0862275521642908  0.0019027085056707
  0.3309458568735611  0.7488916074077251  0.5724610936019302
  0.4154679981647203  0.2494806342534975  0.1689832048722444
  0.1728890334929653  0.7473361525583974  0.7494690366137010
  0.0831252855860957  0.4132834821683006  0.4976009681170390
  0.0978157775114129  0.7471515578642544  0.4954494782753283
  0.2504883426384115  0.6601685939025147  0.5788945828747255
  0.1670050576527579  0.4115731869228578  0.7520846591926601
  0.2507051230612021  0.3315101322365820  0.9198485119610147
  0.2499166055087296  0.9206660759240923  0.1690282698457813
  0.2504424323934558  0.7445686351655533  0.0060746314173585
  0.4148421768468487  0.4969046854785314  0.4139540271959971
  0.4968974070666832  0.5792027201576508  0.4133676017499237
  0.4171644505908553  0.4961009391828680  0.7508209582186098
  0.4158902695114772  0.6611514168442132  0.4145090626904048
  0.3324043400783840  0.4975266826700981  0.0022742459194161
  0.2512040154590415  0.4174472790224271  0.6664345230924329
  0.1666913065559402  0.1698521300216764  0.8362579544311179
  0.3342090723400220  0.4961259396672882  0.6645325639920522
  0.4169538325120111  0.5815263623036869  0.0031130627442788
  0.4980562935499863  0.4144938684708905  0.9192679139629794
  0.3319424736554347  0.5813614225218882  0.2493342257835842
  0.4149958480203156  0.5812192017653895  0.1675201872778240
  0.3321633331802299  0.4968276885985005  0.3313222971859909
  0.4141196943063435  0.4979653755471657  0.0856883356216879
  0.1649433193761626  0.2499010372638790  0.5774582781722327
  0.1674044565672877  0.1696745901566946  0.0033402996586294
  0.4155340425281652  0.5794344330441197  0.4970644665962773
  0.2496786161419424  0.2497892077833990  0.1687861031791711
  0.0859071119388830  0.6634991246683789  0.4115167214334540
  0.3315771294471708  0.8351516356020373  0.4967709151925487
  0.2503524791286011  0.6624268055178993  0.4118582022932391
  0.0845381039916581  0.4123278420553871  0.0031797470961232
  0.4971312110065901  0.5807128241145781  0.0864471983839162
  0.6634439142867825  0.4146814365920874  0.2485529910169119
  0.6602288021385532  0.7491470368246163  0.5836657988835477
  0.1675811328165345  0.4139089939261015  0.5814690110821203
  0.4991468403347177  0.6637555764152756  0.6643030094633111
  0.0086571433279507  0.6527809002164254  0.6732438983569484
  0.2505620986190609  0.2502731399474687  0.4962076518408801
  0.9164339150782833  0.5715984066610434  0.6667223812946200
  0.0026132123214217  0.5790821315663214  0.4124326516750004
  0.7415190372177561  0.6663229042782248  0.9212562101630177
  0.6602711152533335  0.8368223901752946  0.0036597732543600
  0.5795492257813843  0.9200725398902063  0.0030319823041407
  0.6581887318468416  0.8372004739317939  0.8336816148613574
  0.6622793437118083  0.6665839403143328  0.1656915918033041
  0.7463480984932351  0.9194620051596691  0.1666118233002264
  0.7422802492794256  0.6622591840448117  0.5844874230921735
  0.8240858245390601  0.9233132252937609  0.5823574158866860
  0.7369089012020732  0.8378849275820701  0.9191657017223990
  0.7403811086378992  0.6636502917783763  0.7494059837891772
  0.0836662380705503  0.4961655362539382  0.4118493044204855
  0.7379087201663324  0.8351522250784978  0.4142929562966159
  0.6618544122529216  0.9211281239629473  0.5826991042272679
 -0.0005191915750600  0.4139971414360992  0.4125103218212215
  0.7419288428839694  0.8370331045940766  0.5828086670583229
  0.7406446589388272  0.8384962649364581  0.7511844878627281
  0.5793843891820575  0.8361131230978709  0.7493715571957226
  0.1674691232897630  0.5800734205457071  0.2489818141396368
  0.6640567187149421  0.9191838222606165  0.2498804999449924
  0.7414174784323234  0.9226421684017477  0.8345967732924944
  0.6624043304136995  0.9201824729116276  0.4148449420815861
  0.6600832822789950  0.6636753328582280  0.5018606522912445
  0.7472355246747792  0.0853613770392626  0.1665740975321005
  0.1680230053958115  0.5801145235973143  0.0860036277960878
  0.9137062398624778  0.2504798313149066  0.6649076461438633
  0.4161612247450951  0.9194526672842471  0.1688451951738212
 -0.0004418612453395  0.4147540150764434  0.2480734681560021
 -0.0012200898320195  0.3310970075990345  0.1673023954181215
  0.7471138375521618  0.4967300392740593  0.0852333375782604
  0.0015352988195889  0.4952395945140972  0.0037312448740573
  0.8313675888408785  0.4963733628534667  0.1658133025353692