 C Cr Ni 
 1.0000000000000000
    21.1200000000000010    0.0000000000000000    0.0000000000000000
     0.0000000000000000   21.1200000000000010    0.0000000000000000
     0.0000000000000000    0.0000000000000000   21.1200000000000010
 C   Cr  Ni 
  35 259 605
Direct
  0.2497779486033884  0.5731226369718201  0.2505211544690303
  0.1583407766671275  0.5757358658281981  0.1575596970036319
  0.9856913964427584  0.7568709058241090  0.5110806735086835
  0.9911598911232961  0.7527099687762934  0.3265276076113534
  0.9981358749462652  0.4149505103566503  0.3302408355319013
  0.5848014471874172  0.3279583141022483  0.0013910822259937
  0.7501764023213349  0.6676953470705569  0.0007863943603621
  0.5890031971452517  0.7489179682162185  0.4112428547593947
  0.4933789656150494  0.5888864209693813  0.8323102622698821
  0.4049504821659750  0.4936116667388261  0.8316031821022520
  0.0780997306708368  0.7562206736387233  0.4191702505304703
  0.6738641785420574  0.5823202174130714  0.8368386884040824
  0.2483285148346490  0.6670394847785893  0.1525739435426540
  0.3435355353036335  0.6654970402881295  0.2425523678294841
  0.4921278034148855  0.3400486979930409  0.4229338550917670
  0.6748577225718898  0.2473692680249396  0.3303859987519890
  0.1568918602079246  0.6676146517566289  0.2497610148582907
  0.4158660471612631  0.0854569239658538  0.7513785910567191
  0.2520092120003105  0.6589567021872507  0.5110980415357234
  0.2573742163691454  0.7588207657404343  0.4228676041217621
  0.5895975016144408  0.8419223182641186  0.5055375650766450
  0.5857679715642160  0.4932955537271189  0.8318314887511431
  0.5839536035036244  0.2463228356445098  0.4246976422491570
  0.6671245204692836  0.6707362643610824  0.7474602332334515
  0.3418930965209110  0.6595318655488106  0.4207626579941544
  0.4990927761529731  0.0823182243467111  0.5011078375865242
  0.2474565682112120  0.7611159425452226  0.2446975986481270
  0.1663276198729368  0.7557569397358120  0.5128573490957888
  0.4902457298613842  0.2485850645715598  0.3318100365482163
  0.4944067462655198  0.1594307791810850  0.2431467100504701
  0.4939285603702865  0.7508667700764442  0.5040713935990130
  0.5844201030019796  0.3403278881228829  0.3264894962843182
  0.5885310399748963  0.6583255800332819  0.5060015076971600
  0.9899321574053399  0.6597213443492430  0.4196316468529718
  0.3417132181851349  0.7603845703993991  0.1560164665343360
  0.4960406310397754  0.2479080465211042  0.5883745738940720
  0.8351364858409528  0.3301187455003969  0.9996913090429261
  0.6697590972102310  0.4981368701801662  0.3308274466508848
  0.4126910903690092  0.0841413621570730  0.6617592201006406
  0.4959457035271316  0.7516746170713786  0.5952270572198608
  0.4954342164912196  0.3380265902492693  0.3318948778256072
  0.5002571499820277  0.9184554118212820  0.0803477975437381
  0.4152078034464565  0.8363543514005838  0.9149469282091480
  0.6734664741077779  0.4927068722243205  0.8347472030042725
  0.7594760228793632  0.6669703554179116  0.7499093398216599
  0.6695839308970911  0.5800244361957848  0.7459567956588762
  0.4964989419915021  0.6595448422161730  0.5061324034698581
  0.7519884714036954  0.1649896558929647  0.9148873107944443
  0.8336490308848323  0.0838385680082795  0.2486840836376720
  0.5841538350355295  0.4291834102234491  0.3311047784441024
  0.2543782346243422  0.7507560444495914  0.5107982423056791
  0.4970137516568210  0.1595478601099901  0.3328228517616930
  0.4158604454561358  0.4967747388401826  0.2458022601364410
  0.3416271097635623  0.6638759581051289  0.5088285122048731
  0.3450018913481805  0.7523075035473276  0.4155597276056550
  0.2489316170450248  0.7527279124636600  0.3336771341130204
  0.9178715827933128  0.3308788409537329  0.5846403515710243
  0.9934058238161704  0.6611710025662263  0.3295729182142593
  0.6680280493473264  0.8358229771741154  0.6695128043893328
  0.4050829953432166  0.7542612397983827  0.5068705813053658
  0.6674578730321935  0.7496582312928135  0.2464663122732935
  0.9146989991558918  0.5800440573552530  0.1634925116674782
  0.9175685599769406  0.5833329671002159  0.6675586218097321
  0.7620309216296065  0.5834505364480822  0.8324943567446890
  0.7622862058463392  0.2481559442874458  0.3328881583011905
  0.6668306900701796  0.1570327402963592  0.3304640876068073
  0.0823388182218563  0.6623566520931452  0.4186485120627082
  0.8328697496944502  0.4991212116521609  0.1634597767765148
  0.0698936873597273  0.5788680153396357  0.1621819709702896
  0.7504073068238302  0.5778536784238083  0.9990408326157153
  0.6675159666807569  0.7603493510492382  0.7506246261979987
  0.5856402417622685  0.8352736697886517  0.0821751759594784
  0.4962130253746102  0.7537446831955863  0.7497710780108432
  0.6673292659665467  0.0003659272539145  0.6689130623553209
  0.5855014881309021  0.3335573320673577  0.5875279960146218
  0.5841504213598007  0.2491926551277934  0.3326306598946618
  0.3271202164323849  0.1631948969714659  0.3325352209885178
  0.5827896714714926  0.2384501863382065  0.9979710908770631
  0.7512295430939666  0.2478213679658302  0.1646352471412196
  0.5867010745305908  0.1617564627763063  0.2472881111081061
  0.1628137279481211  0.4153358189498351  0.5854644621989150
  0.7490120516872389  0.9197790620529130  0.3306898988853534
  0.5839010630482270  0.9179194891876976  0.8349811647599122
  0.4933890924694486  0.3301651773576830  0.9996288673348153
  0.5844512746631931  0.0845150916854367  0.8352255299062371
  0.4965490048560378  0.9922514011204473  0.5017894888964903
  0.3325795940470866  0.7522871899160166  0.7525620801404006
  0.4114896438653297  0.5803904145204345  0.6703878546437768
  0.5864569005113458  0.8397692927736301  0.4141610009591622
  0.5850785901127352  0.6575940951555730  0.4158214064215693
  0.5843556701043519  0.7498519913833126  0.5028048173891247
  0.5823319871445737  0.8363581903036791  0.9147424757278138
  0.4317994343923249  0.6664079598567562  0.2486088005554823
  0.0785371606707529  0.9218798429395682  0.3316843631145690
  0.9968196202560201  0.5038632861448964  0.3316744478976133
  0.9949764226987544  0.4153062808634694  0.4205013556912886
  0.2489596632756458  0.7580157042003667  0.1549628425569685
  0.3279113388843571  0.1662273609210325  0.5006369381504092
  0.1632326082411860  0.0024422223176352  0.9977188494049327
  0.9902782414803162  0.7505715490426038  0.4188012736866399
  0.6732348331498732  0.3386748600738149  0.3331997399939814
  0.7476028414640836  0.5795664171369531  0.3307379365765059
  0.6686147267541048  0.6677357408729959  0.6584722062389665
  0.4142249589902909  0.0830749096547767  0.8410841088733080
  0.5833469659378950  0.1640410624420577  0.0815520624799260
  0.3271068792605448  0.3295553697665717  0.8334262763185604
  0.3359535662232079  0.6671561736828112  0.3321980858508614
  0.2501985932712607  0.6657174287432976  0.4188217912533585
  0.5820752889983198  0.4173962674988895  0.0016249420549450
  0.5849676048278923  0.3396709313943228  0.4202070547247416
  0.2475744494070728  0.2482023686167175  0.9995800250209431
  0.1640584305679002  0.6669801832976903  0.3398681543677277
  0.5829908582743935  0.2477895775747248  0.8333006950126580
  0.4128109580241721  0.4964945594310726  0.9217096512500833
  0.4989300010835634  0.4286055077963895  0.4196816712786722
  0.4118597183011100  0.4958644383404340  0.7416804774053339
  0.4958395348732412  0.2492896199728807  0.2423365017944875
  0.3291300352632841  0.3297457124546987  0.9997650750648205
  0.2436820144411943  0.8396790507851930  0.0781705868789014
  0.3247803472181901  0.0843325555864299  0.7505667514728547
  0.2456145638472571  0.2513456590716728  0.6672977424207723
  0.4994147522573107  0.4994071767923317  0.1606614534963015
  0.4948578356641755  0.2500677270596216  0.4208944241908210
  0.4077580380188917  0.0840088825152290  0.5030233634724172
  0.6685391715018583  0.0008630997153090  0.9976537991685869
  0.3300873111921215  0.0804570075644845  0.4168660090044229
  0.3284697553936977  0.3340243114177914  0.5039233191173614
  0.6673248879324025  0.5816657187853649  0.9264592340962954
  0.8335699706058810  0.4988646303268593  0.5036467003572844
  0.1628280577884289  0.4120970190338954  0.2479153478061941
  0.5009729916944139  0.9985585593906999  0.1614243672360640
  0.0809452879495276  0.1666811054819141  0.9164459418992262
  0.9994370716030027  0.1666188675598734  0.6684793295347159
  0.9997799645807445  0.2480083196383094  0.5845406882697177
  0.8329086821595744  0.1663606868763088  0.5016267325833377
  0.9154121667759615  0.3314754794080709  0.4171056124541501
  0.9154089462772909  0.0023669582639977  0.5854522240619249
  0.1626821833439924  0.1669742861721166  0.1660162166118863
  0.0820325770720579  0.5795723833963152  0.5033286639785141
  0.9156022230438436  0.0842464021137429  0.9989312347190299
  0.9155982703858867  0.3312127011871150  0.0823582452159824
  0.9160686247017099  0.2495665433183751  0.9999954537757245
  0.9967762167489227  0.0018838223887203  0.8338781710038967
  0.8323589402078673  0.0829554415061731  0.7512177006241587
  0.9987761270654913  0.0840512191056231  0.5843197851880632
  0.8319530058516388  0.0024823797215554  0.5004594038743874
  0.9158925959849057  0.4145275774702565  0.8341478741764646
  0.9968674119013207  0.3257756185006760  0.3335470441550261
  0.6674691837873442  0.0825050766575274  0.2472378225060549
  0.1608898910756151  0.5782151613392779  0.2490493189329664
  0.9162480640024417  0.7525852208142227  0.9989944718201567
  0.0800646481785461  0.1667588980260994  0.5847796295040851
  0.0807833524364130  0.1665182996628851  0.7496671944909619
  0.1585216056291213  0.6676363549212723  0.1586297561065031
  0.0816756417517012  0.2478815333563543  0.1667496241722277
  0.8335239155434397  0.9190591209225085  0.7506438919781364
  0.1640748905386179  0.1656198274178560  0.5016380040292332
  0.0821217721299274  0.3334348914802840  0.5835191171124415
  0.9966299377694163  0.9196369780105664  0.0809009884723476
  0.1611932055995317  0.6623125468778126  0.5055075273711519
  0.3338601853952669  0.6664723951059338  0.9974897035585945
  0.8355315165087808  0.4955551489025705  0.8338136720920982
  0.5893235366115688  0.0814536761384655  0.5019821983459299
  0.5864276896182099  0.4986064349488666  0.4185363546706106
  0.9008260379554373  0.6655046879996112  0.4133563754609160
  0.3274537890836892  0.0826849434240403  0.5855439272877505
  0.3283011259392469  0.3348442258965396  0.3317992058218969
  0.5817782268663023  0.3319280359455919  0.0902829137667095
  0.4977908421432837  0.4136323608022864  0.0820371833319474
  0.4124354327935350  0.1656948543800982  0.9153095777145741
  0.6728474686649071  0.2495279923689955  0.4218419347481709
  0.4997716149653805  0.1691681020206675  0.6675051176757874
  0.3319464342894534  0.9220562379300722  0.0785384985730311
  0.2450004967982386  0.0831456502764181  0.0002933974665845
  0.4122906722932704  0.4973390528029596  0.5894579902589805
  0.5828762292318587  0.3302877652561116  0.9115585955598449
  0.1661529813231515  0.0834347074410309  0.4184191907265580
  0.4182008120205266  0.9189681014449790  0.3300028418816421
  0.3296956065624654  0.0817239426414752  0.0815175219239090
  0.0798291104968969  0.9214235800012627  0.5036432882485004
  0.1634133528621814  0.0017589847137566  0.8336084579813774
  0.2470167131441788  0.8498774250143389  0.2498529818266230
  0.2482503015092600  0.8487512303640251  0.4159369232374077
  0.3377500577309500  0.7562041124719139  0.2468826314125490
  0.4160159096942402  0.9182836528681303  0.9981474194507114
  0.3318994945914658  0.9991878146412529  0.1627855707487908
  0.1610268018850545  0.7526901429859185  0.9159112415064439
  0.9970780115343952  0.6668271817626692  0.8333340923018472
  0.1628009529578333  0.7507484844246370  0.6012821156357930
  0.1664217475917734  0.7554416310149190  0.4213683448008543
  0.3388973801543677  0.5758548385236377  0.2471582015868119
  0.1579408804198872  0.7569020495123736  0.2474881759441070
  0.2483739660092879  0.5768409526640148  0.1588036647405772
  0.7514255769705097  0.1650082959349083  0.0830901311052877
  0.6679023120355356  0.0833704934539910  0.0802534113457114
  0.6704918144955956  0.4155848269334250  0.4199941945118684
  0.0002547524072504  0.2482420385559155  0.7499443512637063
  0.5837445302081929  0.3278594734236224  0.7515008646467701
  0.4961993330371007  0.4959895084089097  0.8332681898496704
  0.9164239443678930  0.0834064525607076  0.8323658803926369
  0.7524753115107858  0.6663169142293387  0.5877477483184534
  0.4972930131864375  0.5838965653875070  0.9235324212808979
  0.5813453702111510  0.1648807806850131  0.9140150756717170
  0.6676922545444604  0.6718585003541605  0.8369176860115715
  0.5807975457046168  0.6672456307617317  0.5950939364805200
  0.4976081680203400  0.8426731609321748  0.5023373988718915
  0.7486499401721318  0.5810573739149514  0.1651312153699283
  0.5819995810835692  0.5833781469003593  0.9994100853023681
  0.4981490428193239  0.7533349050546518  0.4136180184866097
  0.9962666932131091  0.5823568703882700  0.7513451411877949
  0.2456762948164508  0.5794187463989476  0.6718195834498254
  0.7485096847208025  0.9190793607506488  0.1656200764349745
  0.4150186206130365  0.9942369594745112  0.7521974943863153
  0.3379758458997679  0.6693424390817191  0.1540487331183131
  0.6677344239817711  0.5005993074835140  0.1632405401500696
  0.7526088684096964  0.3317571869769847  0.0830011431938112
  0.6673965202358468  0.2503925741297685  0.7515643181326535
  0.7518892885248851  0.3319010984445031  0.5859040080287521
  0.6639731893795171  0.7543903984702289  0.0832315260618684
  0.9025482565716497  0.7495790261505317  0.3320822408211558
  0.9158497949261615  0.4991876004794699  0.9158426488317463
  0.5847363756884048  0.5697268632414808  0.5057362044086179
  0.4140715617988413  0.4973547633229978  0.4182812296966311
  0.2504824721269012  0.6674954942920067  0.2458558055107866
  0.4188833811975400  0.7563830340888303  0.9958901970169151
  0.2490130038090285  0.0827623598618657  0.5004135852414796
  0.4967396612586589  0.4110537446613703  0.9196238066569463
  0.7530349618226683  0.3314105787876718  0.9168534160922537
  0.4142195400161757  0.9188031141622548  0.8360439418704972
  0.9170004859641211  0.5814718587397414  0.9977367989468751
  0.6669758709225626  0.1665995890642001  0.6690055234563207
  0.5829565639625152  0.5832172274278138  0.8349427328551354
  0.2479939627693771  0.9199057905199791  0.3315644665547912
  0.3294239266252060  0.3315050913823143  0.1643063470255263
  0.1631768111989312  0.0842103824542962  0.9160109201182818
  0.9942872783325724  0.7522118391602208  0.2376649624350669
  0.0807874318726829  0.4983818953904701  0.7519129668143553
  0.8327629005351818  0.2477520913476880  0.7505072307096431
  0.1631249157048673  0.4146653692186524  0.7511542419842770
  0.1615549730964355  0.0023319058662348  0.1659119542769838
  0.0821633982093715  0.3319397729042323  0.9166410902191447
  0.6795016735826424  0.7487505726481180  0.4149828957804775
  0.1642650764238368  0.4145472856390450  0.4179832717780424
  0.1640265001644937  0.0850247474681009  0.5825152457596625
  0.2482821338978017  0.2494961480286551  0.3330357564219170
  0.2482168715124232  0.1654686937050640  0.2485375013592259
  0.2450917028981628  0.3317429048182041  0.5846468558500002
  0.9972566420987987  0.8374137559945088  0.6697161003371903
  0.7509137346670242  0.0011391602314387  0.5850061313565623
  0.9124634657440804  0.5786665811356306  0.5036674835152333
  0.6682987756065512  0.9189398833000501  0.2496410196319823
  0.9135829969589752  0.7510104809260931  0.1651053434140185
  0.7516631180044824  0.8369286414887294  0.9158831167887229
  0.7495722969094293  0.8352637491420762  0.0844480078401804
  0.8329496220412970  0.6679454612741694  0.8342415314385437
  0.1640067746675511  0.5830160477780036  0.9171468084740367
  0.2443794281254338  0.5835269206636016  0.8361995217523002
  0.2451908892014532  0.7568292065314620  0.9950909400783267
  0.4052826459908775  0.5838247857806133  0.8351844222134244
  0.8335159233711960  0.4158083504526852  0.4182092137337356
  0.2483893827092114  0.0836792549458768  0.3331913310155586
  0.8331666916328548  0.1685159590958589  0.6691731454196910
  0.0803918828548026  0.4979387948041809  0.9162175915257119
  0.8301867106081549  0.8374461461558177  0.4999288491537323
  0.9165574529475830  0.9185859638154368  0.9998946148757165
  0.4140642438718021  0.7522882714821846  0.6724915110379451
  0.1628782286883174  0.6649081934294037  0.6721908693221282
  0.4201901978268254  0.8396154450147210  0.2485085258242083
  0.4148208174928176  0.9191329370671223  0.5019032437904056
  0.1630293471865756  0.4115318969020685  0.0810401168171116
  0.9973403210029630  0.0858997381014725  0.2504583862619334
  0.0823920349685467  0.7523008955358784  0.3303804980476222
  0.2457912537485944  0.8357663811795960  0.9166896032121560
  0.9969146924711900  0.6620362458213008  0.6717175184096326
  0.9978375982032180  0.8353496970095856  0.8345170462990906
  0.0772929666895401  0.7533489645454791  0.5087986214333160
  0.2470601503205709  0.6693390555754438  0.0624831493034945
  0.9977817299931518  0.0035067711082130  0.6652800165094163
  0.4161133588921250  0.4967300563501624  0.0820631011915356
  0.3308878676130327  0.5822966655341407  0.9191110552151096
  0.1643947548844635  0.7520480820387752  0.7509196950196663
  0.9972828214685999  0.0843623796360526  0.4159492504293752
  0.0794698023777434  0.9200607163136693  0.9989660038520242
  0.9129492899698303  0.9204772472401198  0.3327848761048074
  0.7510426483453545  0.0006613168642872  0.9159078784633760
  0.9974324511961277  0.0845758445868687  0.0823947949978358
  0.8333817169065971  0.8358532900101983  0.6678042292970172
  0.9166863355445607  0.2496791891186039  0.1647568486348656
  0.2460411070347099  0.2501113603335542  0.8332870835743114
  0.1651488542946013  0.2484462939914144  0.4169184223109847
  0.8356167050688619  0.4957227014038578  0.6668491217599369
  0.3273312375813184  0.3317648283755978  0.6676888618873532
  0.9975163032457993  0.1665207259760676  0.3331736869940429
  0.1626632233510293  0.4133142731892649  0.9173962614234663
  0.9131250236568271  0.4979045552250922  0.4178750509396462
  0.9979218140411130  0.4971923789183112  0.5028269414907820
  0.9140773167617596  0.6682908204378295  0.7523460461140647
  0.7490695079018530  0.7557942448503228  0.9995466939532242
  0.5838448139817352  0.5803142551648059  0.6668344719966988
  0.8343767426744143  0.6667190159274669  0.6675087131996977
  0.4136677981102703  0.9189153203302746  0.6703100656356811
  0.7518151172338664  0.7537895472065905  0.8335863893989591
  0.7507689225609534  0.9184807562269746  0.6678593388217330
  0.6666615154066102  0.4965396744343911  0.0008728150013488
  0.6673197052684771  0.9178783003014032  0.7514648533212333
  0.9979602207168367  0.5815044852340101  0.5857413043905552
  0.7489249756329531  0.6679898867810128  0.0873202690227109
  0.6652634181894197  0.6672605327990444  0.1644857040451950
  0.0802060181983671  0.5818781309746541  0.6706898939102894
  0.6686922826240553  0.6636937359913991  0.3312506190198225
  0.6683120924817377  0.2463115722706977  0.0818119769955462
  0.7520740720814855  0.4169822855656085  0.3323676430010892
  0.9988059209937349  0.4134667788189196  0.5843959990779606
  0.6691770018264714  0.4128812079245311  0.7503920573458583
  0.8331044715720386  0.0008060365140088  0.9994609058994754
  0.7527596040862365  0.7505300818095593  0.5036955061322056
  0.8298911106150563  0.6624331594967885  0.5017830190392361
  0.9966216574182958  0.5742181726451207  0.4196727972780980
  0.7500708697795015  0.1662361010185233  0.7507150555774589
  0.6683857569971052  0.7534287284048762  0.5860285539618180
  0.7502789052293807  0.0835101886598672  0.8333841647576218
  0.7513113157134168  0.8361422718473942  0.5860002729666708
  0.6678303061530012  0.0836946486897399  0.9167277377641790
  0.6698916084804123  0.5794687631676011  0.5868453228017604
  0.1640392848393495  0.8364286719413226  0.6708929934557825
  0.4126128191889827  0.3328277570766209  0.2477043346192385
  0.7520056991335434  0.8366759873497412  0.7508385945567378
  0.9147538469920645  0.8347788554927853  0.5848971823519478
  0.0806601314459386  0.4121131724379361  0.1650370552859591
  0.6690623245659041  0.8350378682254757  0.3305856823818514
  0.0804465543442732  0.6648830373630832  0.5894516379104986
  0.6686348091134294  0.4134925937019480  0.9177091829259968
  0.8320542990166667  0.8360166359904152  0.1649554695487421
  0.8329535907932826  0.0017580493893118  0.1655393555631488
  0.0795858470664531  0.8447762921914168  0.4168232567390971
  0.7516827542781946  0.2497859676831949  0.5034851393997769
  0.7515650958287489  0.1649436324474828  0.4176729601262661
  0.6672605531124776  0.2479130461086821  0.2429372170854265
  0.7518830614085510  0.0830611446724405  0.3322758479835322
  0.0816675263592228  0.4976656428527574  0.4173351308416283
  0.6678572931153383  0.0830556139042311  0.5863532573719079
  0.7507281054122421  0.8375080854044141  0.4138842609975250
  0.6676457412492923  0.1664021996927394  0.5021141851278675
  0.7483971306258509  0.6651650257811335  0.2456855031884184
  0.7502442938021612  0.0839940920014566  0.6679480161967547
  0.0768125292272546  0.6681720674796878  0.0797618462811599
  0.7530083951287085  0.4971184372587753  0.5863538685567604
  0.8338902326724955  0.2490400187863469  0.2464531649476635
  0.9168512927625232  0.1662618465009443  0.5848753322567646
  0.9156408332600174  0.0021697182601635  0.0824118722249749
  0.0788726216734868  0.6673655325447487  0.9142657881893825
  0.9162403081156090  0.8356795463665566  0.9167990800165312
  0.9134139036197716  0.2481460992097825  0.3335656033601438
  0.7524776690717379  0.6703249150771735  0.9136586735802381
  0.6668606960641881  0.5816100436097348  0.2470170127699521
  0.9963000233861975  0.6675288361299161  0.9981200485053362
  0.7503661266257176  0.4984603265361049  0.2467174812549178
  0.0812766592540386  0.5826900611153584  0.8342842705730873
  0.9983216642037595  0.4145209826747129  0.9166197506077481
  0.6693433229640123  0.5797788501567409  0.4174427776611813
  0.9968661677225651  0.5828510758752016  0.9148943027962169
  0.7507528969260929  0.4974803622692117  0.4176699677218019
  0.6704997392710165  0.4966047965552600  0.5034126508639081
  0.9947162386253529  0.6658762483767999  0.1621434168829713
  0.7520122533750595  0.3306618534913486  0.7506787863895957
  0.4978533249199301  0.4971799113454407  0.0006363002435847
  0.6673463189248311  0.1644874029153313  0.1639835816879049
  0.7481924621272124  0.7520754180737186  0.1645522015245505
  0.7515391607476702  0.7534386583373591  0.6679085116151590
  0.9972643785402668  0.8356573101838281  0.9991825793184084
  0.7506800300566734  0.0846752740309096  0.5024648006083323
  0.1640203075947468  0.4963363172905254  0.3327996627235276
  0.6702180370777145  0.0018497214151503  0.5016188713192520
  0.6686109542381987  0.0021439935221435  0.3315942521993549
  0.8328909317578945  0.0843289261821705  0.5849102786698176
  0.5832528080159104  0.1590522305729775  0.4158055259172899
  0.6680258896001158  0.9189984018628657  0.5857637135373742
  0.5844432723405101  0.0842099916742255  0.6688879938698595
  0.9970084973479006  0.7503476280793281  0.5955788062555213
  0.7514187077837191  0.0020255038369612  0.4165343179953401
  0.7495828807474891  0.0008920175079430  0.7505132154694885
  0.6665610048759886  0.0838171932090176  0.7509291867929888
  0.9976808331506923  0.9191356287195924  0.7511446397463069
  0.9164827052861881  0.2484444027952074  0.5015396286800577
  0.6726532379632280  0.3295605407325006  0.9999260813157753
  0.6675446893598740  0.1661340353693606  0.8337009256559021
  0.1650239802592581  0.3313921949935892  0.3341096280439562
  0.5862131967161334  0.7500502758422900  0.3249687104299971
  0.8317797586549185  0.9195187265082113  0.4160901543266080
  0.7505960443970521  0.2490931572758620  0.6678334512173800
  0.7501911254429078  0.9185261685052797  0.8336460778219171
  0.9165161192541545  0.2489793174877069  0.8325202958674002
  0.8336451307380053  0.1660470674625121  0.8327722588891755
  0.8338965957535638  0.1663555966289040  0.9990753970316297
  0.0821906294041223  0.2483750680082952  0.3342265425059413
  0.7511815512730105  0.9195935468055001  0.5010048891440917
  0.9143228372939539  0.7518982999413529  0.6702889981170400
  0.9124935777847467  0.9203246623010312  0.5012804451540903
  0.7534263996303363  0.4127707851859266  0.8333583528169234
  0.9982234662416506  0.4984980812655763  0.8340474700680455
  0.8334040154549609  0.8368526572149414  0.8342544332775935
  0.9151560394943561  0.3302683258061277  0.2483478869137930
  0.9160996384181892  0.8357960296426038  0.7509201013442617
  0.9157559915452826  0.7524982549097450  0.8335990873678288
  0.9965225773700093  0.4138286680455657  0.2437787382483407
  0.7508293295807145  0.2484697962259959  0.8337384428674705
  0.9985738732558391  0.0842887452748393  0.9165993785553210
  0.9989714054918439  0.1669207769765812  0.8332744666351823
  0.7511272658031586  0.4136705510622223  0.0000996560683155
  0.0791049444019717  0.9208557610713309  0.1643833797434327
  0.0792482421734035  0.7534000078000024  0.1624747858665465
  0.8333395106674161  0.3312905881117948  0.1639796214444825
  0.7505585962267356  0.4161744053279994  0.1638074117829471
  0.5829451660227918  0.2456001917099047  0.1635597305106847
  0.7520031542891483  0.3327291369692563  0.2475369980762840
  0.6679020967049838  0.3311258789677193  0.6684655888240884
  0.6689405506860934  0.4139567946133589  0.5865514661771974
  0.6684532116233025  0.3338795791913693  0.5031755955105870
  0.9983774215916302  0.3319168810073142  0.5006231801216571
  0.6683340960826385  0.2493768541121735  0.5864349378545831
  0.9958865865558399  0.8375557133924905  0.1644040647132266
  0.7527313618189249  0.4144286332324750  0.5032111868267445
  0.9985151282294985  0.0835026205669272  0.7502001585186933
  0.9971048704621749  0.4134720099029431  0.0819448337807664
  0.5838409653948822  0.4115825974705939  0.6694385204829298
  0.9985659516347820  0.2491423400361968  0.9165466460402446
  0.9017117381425405  0.7493833986687719  0.4995229670198627
  0.0827919934256993  0.2506727154327972  0.6670887761606200
  0.8347720654293093  0.7534396657764888  0.9168008480069790
  0.6673201427695505  0.4149284267233763  0.0833667914081284
  0.9171320302230279  0.3314074940330371  0.7503968152947991
  0.8337453772346624  0.7537473812574501  0.7513021577691125
  0.9168548630233251  0.2491001037559317  0.6679149927433954
  0.1633117744729630  0.1670596513120202  0.6668462426559191
  0.0808345721957876  0.2496936783257766  0.4993764803815642
  0.8331259240157831  0.8353333091712127  0.0002760272383939
  0.8314574740824454  0.9191803827998306  0.2484274149743913
  0.9149353419664320  0.8353640529536694  0.0820524915562617
  0.0810158498188882  0.4146275746592543  0.4999235556068661
  0.9149047470343769  0.9197686655512979  0.1646028568236297
  0.0706301698171407  0.6638707387567349  0.2458988373492584
  0.1627482535052558  0.3324094886384282  0.6681232630274518
  0.7518934233746067  0.6627124388641258  0.4153969333824575
  0.1627869662270255  0.9191538442226252  0.7523821539829743
  0.8336646872724416  0.0834461518400100  0.9160179860576833
  0.8333305367571407  0.4149613378919695  0.0813519352797511
  0.9154419996130171  0.4985620536745438  0.0811622688966457
  0.0815402871343863  0.3298000849484253  0.2496742613615637
  0.8336572281219005  0.5821665848942954  0.0822967842410162
  0.3331947485690346  0.7524237495028212  0.5927494709968495
  0.3315814941956601  0.8385050987536142  0.9963761307626247
  0.3332545304397547  0.5813132193661508  0.0789990227296736
  0.2461276481858383  0.4153571371118722  0.5021301246325718
  0.3310456826470007  0.4959248141545420  0.5043075240322945
  0.2450509621854468  0.4972750111900749  0.5870168880381622
  0.1620964742317158  0.4891332108609020  0.1633030570985031
  0.1626677047310060  0.4975287281636905  0.8351166650686904
  0.2467005598531583  0.5729156429498907  0.5023275120089861
  0.4970283755809538  0.0803575843872835  0.4131999944278643
  0.1637138737749869  0.2483929950051567  0.0827496000370457
  0.2467069331072705  0.3303054482353868  0.0820431357522788
  0.2463370762325866  0.0008433800042372  0.5853960365652238
  0.9960261994921812  0.5819710486967293  0.0792142367479282
  0.3283754297748574  0.1671786466085040  0.6669458636282347
  0.2492221761382415  0.7522544919850003  0.6733401876098617
  0.2471764281739753  0.6674886725642879  0.7530106335391640
  0.5845494635930348  0.4961123282424473  0.7442830678330824
  0.9151007348043416  0.6665423557617752  0.0816813790613465
  0.7491287138095623  0.7498829149739512  0.3281465274441398
  0.9951921164320983  0.7517479887418543  0.0821901157046907
  0.8317283747391606  0.7501903112599175  0.2448784558728580
  0.9129213742552689  0.8365826317571986  0.2476263352933377
  0.9110775056450451  0.5806601792430669  0.3321494426851294
  0.8256800696983291  0.7521862682202572  0.4154361843949698
  0.9961794924874381  0.6642456845286276  0.5073593612891719
  0.8276940011350628  0.6638269884026821  0.3281589446907531
  0.8305201200327214  0.5785874521442271  0.4170080151320640
  0.9124039648421534  0.6645323910241746  0.2463430251060899
  0.8371082316578862  0.5801743213313582  0.7477719910270347
  0.1627910201604623  0.2499874389558133  0.5831376851326212
  0.9150541666359401  0.0021481345493883  0.2492618724576484
  0.9144091444760466  0.0022937837693473  0.4168906992861626
  0.9164950659439096  0.4977249782496553  0.7507653137470033
  0.1635580229409037  0.1668104921429708  0.8337725863839708
  0.8340954971799995  0.1656572919275601  0.1649802946859344
  0.0805567295297317  0.4152108194573724  0.8339879470956149
  0.9163530412207793  0.1658115083717524  0.9160700733087083