 C Cr Ni 
 1.0000000000000000
    21.1200000000000010    0.0000000000000000    0.0000000000000000
     0.0000000000000000   21.1200000000000010    0.0000000000000000
     0.0000000000000000    0.0000000000000000   21.1200000000000010
 C   Cr  Ni 
  35 259 605
Direct
  0.1689878838460598  0.6594492617073904  0.0754026433648673
  0.5779914312584394  0.8300810291883947  0.1662723278665628
  0.5831863606122760  0.8303941102267149  0.3380819440927755
  0.9127621227745989  0.5008625920375529  0.3343948800096706
  0.0777116722155566  0.6566297727752017  0.1720187192318269
  0.5785671483325111  0.2421745594901108  0.4228477113321323
  0.2496796309708251  0.9951613258457717  0.3349420509913325
  0.6719050119758958  0.2426790906973409  0.3282499368398411
  0.5810276523948045  0.8317536107200056  0.8332484985690082
  0.6710814757208488  0.5036877149900350  0.7452494604240316
  0.5795875428807344  0.4118507473125131  0.7475557603174686
  0.7490784068067593  0.6657474876411754  0.1656780510592028
  0.2528154694577169  0.3338296694179932  0.3364064984342613
  0.9976355068943762  0.0870349696221278  0.5002596477844110
  0.0805207078745471  0.4190514430460259  0.5851830897996562
  0.4149703809759731  0.9183541064883999  0.2511995138530264
  0.3305969839854294  0.6664763142584058  0.2479204000780526
  0.6712878713767479  0.9228519748532348  0.1715597212895401
  0.9983770008176969  0.9971227846268448  0.5881790717477018
  0.4978253308871201  0.5058381997446919  0.4209130725896277
  0.1633908038815654  0.3405821081358598  0.2471091720701588
  0.0814035530903079  0.8448539383882325  0.1686987696060290
  0.5789071815991421  0.9239001426747606  0.0768224091722211
  0.1591089015300474  0.0837770178268397  0.3369387031176361
  0.5841830746014551  0.9216261806206305  0.4241713981981304
  0.1744319727758472  0.7485888508997868  0.1736339541562285
  0.4934681591418126  0.4189421148985249  0.3270406799512518
  0.1519700298838115  0.9866940560680623  0.2371879209778532
  0.5794147475542478  0.5047175863347244  0.8381496369539110
  0.0780346252435743  0.7510259851594212  0.0752617364378541
  0.1630997502056570  0.1690167659533330  0.2443257455208388
  0.9878582818399576  0.7518226577181165  0.1692527732003427
  0.6701236127006386  0.3349523678373686  0.4214244982153272
  0.6715328073901294  0.8293448471154075  0.0793566730904956
  0.5798877984900725  0.3315438685941595  0.3274137203896683
  0.0001007034864351  0.9157727049807454  0.7510289993628136
  0.1643228293793067  0.1668975713265549  0.8336955238731169
  0.0805080830456209  0.4987519341678087  0.9136987854673915
  0.6671134561059499  0.0833030378430478  0.2484137961917691
  0.4944999991302090  0.7482993481773239  0.0777871914926332
  0.9986526158909548  0.9195963408058555  0.9125694701147329
  0.7532941190041926  0.9194372910314673  0.3362226114832354
  0.3294400560712447  0.6681731552106450  0.3406985899033983
  0.1661477757091098  0.4289550614646673  0.2490419182271767
  0.1658935441930653  0.7515367957229272  0.9127159741286541
  0.1666905109828639  0.3334124846333963  0.5025478054562241
  0.3234905647714278  0.9149632264562411  0.2491672788158814
  0.0816886751450420  0.2507510064068070  0.6705722898463176
  0.1649002659297709  0.2528561302563260  0.7516258867472306
  0.4134865969310967  0.5835714288663709  0.6664612840818230
  0.3301304361953141  0.7494050655281754  0.5857149555636810
  0.4208096147675107  0.6666456582523644  0.2474077749465264
  0.0812015214355759  0.8404811726922453  0.0769071369154262
  0.3318166755631698  0.8327365793508366  0.8313619558859157
  0.1652901198397404  0.9174313328099951  0.9142036313838799
  0.3305334894955321  0.0007240458917962  0.8307179795731400
  0.3280595534517434  0.4154528961815588  0.5835403807396793
  0.5840776869031761  0.0109075440264962  0.4206503589313689
  0.4982567721083165  0.5079390167356184  0.3302058348547334
  0.3316398325366135  0.4154073047698847  0.7517663386350901
  0.4150118020548798  0.7494994601157672  0.9976971372615012
  0.4956352858162148  0.9168649771425508  0.5866212493138938
  0.4123059885326220  0.9192978131407012  0.9961153222736587
  0.9978056534091069  0.0024186625161341  0.9970928340075181
  0.5823499641964306  0.6679435529964644  0.5858730087415035
  0.6710973981704499  0.9205666037714046  0.0785038293652617
  0.4972311220790999  0.0848536151507886  0.9145957399480990
  0.2479242437549397  0.4172971239945388  0.5034680942923928
  0.5815057169066405  0.8332035683662221  0.9242608830920162
  0.4146450600644513  0.9165134926078388  0.3415650747128909
  0.3340154135180117  0.8373249537060322  0.1641030675313114
  0.8341213813982444  0.8377681412627647  0.1672484226138568
  0.6707690905685524  0.4120842066714325  0.7491418329339564
  0.5801429293528846  0.3306275674744639  0.5844638642824763
  0.7507142744868076  0.4177797288807812  0.3332852664127595
  0.7473660651073006  0.4165701087184051  0.1638202990113595
  0.9147858412692843  0.3341224583852924  0.2468450914774764
  0.5805946301397154  0.3320348921604952  0.2369008767119755
  0.8318001315139685  0.1675396096057546  0.8328813637865957
  0.4952522530640376  0.6656970694385477  0.8329930831979908
  0.5812815832590463  0.5952159472851557  0.8327473018890951
  0.8322599860693386  0.6692284901376909  0.5029892198271432
  0.9004103373132635  0.7524262970057016  0.1660073387700604
  0.6671680779664927  0.6647251574588923  0.9983417326636033
  0.9141508867538947  0.5794801445355569  0.1651568091356009
  0.9884470126228745  0.7498012250928358  0.0774798858774948
  0.9951711508619708  0.7495400298570580  0.9129578733074664
  0.9146739010124697  0.4147489960896105  0.1656746677094005
  0.7485127587270592  0.7498222720434685  0.6685525322008949
  0.9152061667061020  0.5827384420345069  0.8328928091199221
  0.8320734714578658  0.5000715636935006  0.5026279436947387
  0.9155748771344105  0.5016400490936618  0.4244356038131230
  0.8327482565086032  0.0851215312034339  0.0807558765351393
  0.7613026564344457  0.8335079937852750  0.0789733151045567
  0.2410254626023955  0.6659835033947388  0.2527632577781284
  0.7507575747458691  0.2475494479286686  0.1630969606460160
  0.6699264459600877  0.8333237573701040  0.9899275958811257
  0.6695924156939119  0.2445982452839497  0.4196489836932929
  0.9154255933686387  0.2491937610758494  0.9963251639130298
  0.5832153848998477  0.9213073416781603  0.9875235448439252
  0.3334665413043242  0.7493652982163832  0.9148890275716950
  0.0856236120616477  0.9337109275019179  0.1703344588019261
  0.1628698682735530  0.1723880232919624  0.3349938649762152
  0.1646769724957355  0.5824189991519982  0.7511258578985933
  0.5810598770470301  0.9211944404347820  0.1668734720134846
  0.4128657345156039  0.0832421165094483  0.5030171053346355
  0.4153698992131826  0.0076142282841480  0.2487676481094472
  0.4079406797612730  0.5013541081125554  0.4201004192347231
  0.4898378496164515  0.4143435063328065  0.7496183962931028
  0.7484212598355587  0.2485229622500038  0.9967802421679920
  0.5824232324018938  0.4131204445136442  0.8387425191734603
  0.4961285677190240  0.4146695756592433  0.4190190496629798
  0.2474273981233938  0.3323828618950438  0.5881055604034282
  0.3328102755225348  0.3317564259071512  0.5026823464907680
  0.1632413822394303  0.3332092150837794  0.3378251907184726
  0.4966963046698360  0.1662388337966210  0.6674346932876957
  0.2476242207588303  0.1680244547352330  0.9144677098404889
  0.4960301151217831  0.0838751939046535  0.5864151619440325
  0.4136008211328332  0.8327714180528928  0.4216544095893085
  0.4123744350594277  0.2488718145364902  0.5028395368484798
  0.4135924307558756  0.0013918068519211  0.4221810154140738
  0.4142724401698976  0.5837351018317252  0.8312299984937399
  0.4134168580999781  0.2459985567132628  0.1624463005959613
  0.2485074202579076  0.0000796213873020  0.7508529655138680
  0.6704049005072784  0.4988225815978253  0.8361046820019372
  0.3315758692615536  0.4199148216116372  0.2441340907802363
  0.3421214747631393  0.3328184126371809  0.3338606997097880
  0.4130897199550684  0.3331051958844595  0.4197204524653236
  0.5807736524483101  0.2419352338471646  0.3323875011868293
  0.7520051306895812  0.6642625540974343  0.0748735005885818
  0.1669343955052746  0.6602193792536073  0.1656682509328711
  0.9969816769800299  0.0836001908079042  0.0772765450972809
  0.8395462331332864  0.6632391203348545  0.1656354298257255
  0.8314954931808619  0.3321486193928289  0.8328897988546303
  0.9153642932820527  0.1672743129596524  0.9143947301111037
  0.9142037339534175  0.4157143112466374  0.8314815806134644
  0.9167980206633984  0.3312357348627737  0.5863920401306270
  0.8342986525668263  0.1654582235151465  0.3327652683180868
  0.9134902861922350  0.4988602212863768  0.2443969792563307
  0.7506350074678511  0.3315174082472849  0.5859426222878973
  0.9133060578086921  0.5791633853760396  0.9961159256938226
  0.9136813193899150  0.5022155203562501  0.5844326534931911
  0.9165622862343449  0.2491935539355547  0.1643488598148879
  0.9124676424878829  0.0849892558655129  0.6700646737480379
  0.7497706744998316  0.1666115360571531  0.9155505292200301
  0.9984235981098128  0.9087278010942070  0.5879624528223711
  0.5852003134749885  0.6684971863344286  0.4206544271111062
  0.0815530944031884  0.9175984391323962  0.8314793570359225
  0.7517684705203739  0.9204516334200042  0.9962519659506311
  0.6657485266977051  0.9179966984162810  0.7516382318756144
  0.6668702486258832  0.0841593270943811  0.5871238066195753
  0.6661960869754158  0.0845206887810567  0.7505302737806476
  0.8313259103285878  0.9986477789223005  0.5039471686449338
  0.1657575628881932  0.4175350814211091  0.7518670195643312
  0.6695557120905955  0.8327369852285251  0.1693191809928711
  0.5808952572933819  0.2457476679162899  0.1633355613409250
  0.6704391291870483  0.8339053224943068  0.8320460195197790
  0.5824792112337607  0.9229981183689762  0.8316102136963492
  0.5833529065396683  0.8312944660680642  0.4258352961390364
  0.4143972727981683  0.9161681309242028  0.6670517420199241
  0.5822650563804250  0.9213100784013671  0.3343507453053981
  0.9930325708988300  0.9174397566639376  0.2532360819862667
  0.9139949102348656  0.9173463818806500  0.3377475368764355
  0.2493301552152278  0.2528231036824891  0.5043577638051611
  0.1649188429764993  0.4995529795874390  0.8321360937057433
  0.2498201574847079  0.3343148406646043  0.7502099242064068
  0.5811559884011336  0.6668557466233750  0.7469221141950173
  0.5825910018942791  0.7404634639269552  0.3350052151521433
  0.6688053315432707  0.7487924315270421  0.7504759063589994
  0.4966975681997964  0.7492998338074428  0.5857114949975423
  0.8328145915843741  0.5803205766767375  0.9151888265379728
  0.6659624171717544  0.5831487654149692  0.2501303304443352
  0.5816138718656655  0.0134906925278865  0.0790033603682252
  0.6665659712620944  0.4985371467231543  0.0001137305316492
  0.7491451555570952  0.7493346631592572  0.3364226482714681
  0.4959554312674158  0.4156645852204846  0.5834681912469315
  0.5808055163290501  0.5020200813948281  0.7480285630672786
  0.5880061739442817  0.5021505022467735  0.4167089222978567
  0.2507032258658541  0.0865019044045414  0.3320163638340408
  0.4979425990503948  0.1661984601333017  0.8328672444971369
  0.5795077090754062  0.3336064253023631  0.4190981370706010
  0.7585881554804357  0.3335106178316002  0.4189677922120130
  0.5840656268336967  0.4220519236866087  0.3305567726624031
  0.5816573318022779  0.4176692070091658  0.1632146621478484
  0.4973731998905724  0.4152784532748332  0.2363925264089267
  0.4982434196327714  0.4150250987063561  0.0833418651915519
  0.4141722073518975  0.4991826370433462  0.9175980357146230
  0.2477838885034368  0.2501099225743815  0.6714361071052901
  0.6700055530601156  0.3332925288878400  0.3298985931629740
  0.4959319896722433  0.1624818985070543  0.3319314335666305
  0.4899069841637490  0.3298586473041098  0.3300000026776487
  0.6657276947862076  0.0021357589351531  0.8299974634122237
  0.3320844122792330  0.6661975340588414  0.8322975465128047
  0.4990167174442497  0.5824940760462310  0.0787770721369817
  0.4135592684380056  0.2492346368530980  0.9969157838329563
  0.9136332350140595  0.3328214893896072  0.4174082773172099
  0.4921411998459180  0.8333197101895633  0.8317832666988446
  0.9988875851405370  0.0840498941632052  0.9153139437337825
  0.9134860035843866  0.7484610792060833  0.3381065935354971
  0.2514607325652246  0.4189860801173722  0.1636051579315650
  0.0764166021027602  0.8352310936443884  0.2588075313666875
  0.8339517177400201  0.8335313112741798  0.8312404107994400
  0.0023818747719510  0.4986451823809963  0.3361020595225298
  0.5826619409896880  0.7404292857327207  0.8306336147509294
  0.9157742870843425  0.7495983446035850  0.8330065206585135
  0.0814491121699574  0.6663699440173030  0.5861165820213223
  0.5809259960459499  0.2473834311915868  0.5122562608594727
  0.5810451187511391  0.8335112907945567  0.0768828230825433
  0.0822031740908332  0.9142529454398360  0.6725977648478656
  0.8312985670094445  0.9149883719735411  0.5862856601705630
  0.9167558501632298  0.0010683254073853  0.2495018430628842
  0.1658989020954176  0.8349927921809226  0.9951246960709540
  0.9978255033545318  0.6665955002996755  0.3381245796216267
  0.8341955469165216  0.4967097298253806  0.9989646320216115
  0.4988652237726078  0.5858925290608231  0.2482967198241302
  0.7503630720391296  0.3325256831896241  0.7497387485738977
  0.7490743243346568  0.3326117869349535  0.9172763522946650
  0.7498487007216994  0.4128674485118300  0.8343004025975611
  0.5807002048739861  0.3304256917948583  0.9190718254783994
  0.6660869653105208  0.6679730700659270  0.5019130889967316
  0.8232859133259943  0.4986020155437825  0.3334734485085609
  0.9148182059311831  0.7485868529579015  0.5038238345773575
  0.0811183552493149  0.3279670158290153  0.5858457903044298
  0.0817416854906835  0.3327763025957229  0.0800324989731953
  0.6643166170046921  0.5010748570999118  0.5041451604632322
  0.5828590992414421  0.9179970815734618  0.5134541437078344
  0.5815106056790829  0.2484507206138398  0.9968777175247778
  0.6661571707956970  0.2503722428421923  0.7505263234250691
  0.5809987472446846  0.3228472204867712  0.7494157817145435
  0.2485405812403731  0.9154895693822802  0.6688059534337479
  0.6692930085753022  0.0821394775171252  0.4195068921120302
  0.2469921422159337  0.0008801339595699  0.2439388183311038
  0.1639531776113473  0.7491977913710233  0.4204667573516029
  0.9980227700090657  0.2510741000431352  0.7512202024911063
  0.0818460193613129  0.2534429066659227  0.5017038972546879
  0.1635089804211734  0.9966206600747695  0.5031172944500832
  0.1652512168466885  0.0842661358589451  0.4272799299840723
  0.7505835374574539  0.0021766058672353  0.4199502495746251
  0.0798958223293458  0.7512747702004728  0.1672524866532574
  0.3302520932533128  0.0822301077560547  0.7513283147161938
  0.1620221577450564  0.0799277634299412  0.2459011860297815
  0.9964689778659725  0.2516444427145919  0.5882887266098147
  0.0644881096067115  0.0012767431960269  0.2534503724603953
  0.9995823525832370  0.6669497073906747  0.5038334382445905
  0.2462282344195474  0.9148407960711925  0.5044229633140317
  0.4042768396107417  0.4215803464017563  0.3319884090937309
  0.2473228556516435  0.0831301500415377  0.5038157623593517
  0.4115634343335098  0.6671474610550525  0.4190137134037791
  0.9886947561522038  0.6611952132538064  0.1659745820410390
  0.4123000470259517  0.9194181823354285  0.1608009789554884
  0.2505588906851738  0.9059631603883299  0.3374838602769417
  0.1716431659468601  0.8368899305384805  0.1616276608747925
  0.4975527015032022  0.0025516687206152  0.8317026834170944
  0.0775896585532645  0.6611021341338235  0.0792077593803760
  0.9970949136771246  0.1673216033583071  0.1617591913208771
  0.1649855750885440  0.7474863645787292  0.7503241247777205
  0.3353331933894455  0.7506575855405980  0.0751107774199860
  0.1651891965009250  0.7488053762582737  0.5858994498679486
  0.4138995346924579  0.8290551638333241  0.2494690172650836
  0.2473338979620534  0.5022909989766674  0.2486884342333152
  0.1596306297572774  0.9950546417190023  0.3337260710289849
  0.1654097042475190  0.3342348652490034  0.8318745847784986
  0.9954643973238860  0.9137190400575511  0.4192515985548990
  0.2485332759403694  0.5799196779527180  0.9949374943300721
  0.9157884036310597  0.4159745229813308  0.9980716779931650
  0.2509001345407588  0.0020088658532384  0.0756510667373771
  0.6676263893543423  0.9161403575529585  0.5866458708506626
  0.8326359606649589  0.0017011378065950  0.8310646400648221
  0.0790966531778819  0.2509551247942269  0.1612436547210347
  0.9974649881909368  0.4168687818533167  0.4183949280286581
  0.1665627767987801  0.0839747669511817  0.5850305998842071
  0.2538117092466700  0.1664822216361003  0.2481911609859594
  0.8323332495666155  0.1671386883433003  0.5029078875209121
  0.0801655591894968  0.5853405924801862  0.5028179652596058
  0.9145618521244149  0.7488897936462152  0.6685926587279316
  0.1627191006475805  0.1674844105725599  0.1543968844134606
  0.9991392977488484  0.0874043463910807  0.5898649597872915
  0.9971833178733729  0.3339445358082049  0.8324483378442564
  0.3295760786609398  0.5764446229887558  0.2483793632974218
  0.2542069762369928  0.3357821379340212  0.2460187153663456
  0.0881527971236510  0.0842386049595826  0.5031194788558210
  0.2485244210417627  0.0004803393241440  0.9127947591710416
  0.2478976789930056  0.1684583705580479  0.0784746225046018
  0.8345293288272706  0.5006189394088956  0.6646938021467171
  0.9943337547221778  0.0864151720398787  0.4126701860894642
  0.2463087999311717  0.5836495359738686  0.5026082492678683
  0.1686387312203822  0.7511798673335421  0.0789569469555499
  0.4136788591606043  0.4175726582872775  0.1628340514142805
  0.4149710598430177  0.5816535837391836  0.9972452025156949
  0.0743834911205811  0.3341439510089158  0.2475119946715099
  0.3322847092201999  0.3329888335629194  0.9979608026442128
  0.3314722815471531  0.3337878319669018  0.8326816410388326
  0.4980256728373755  0.5858311307472828  0.5852784865584602
  0.1655926948897598  0.2519345621795462  0.0791320011205247
  0.5824709745219129  0.7497409397979821  0.6675097009811342
  0.5810183361825729  0.5840797156761371  0.6648361342488357
  0.6659331177610943  0.3312121364724527  0.6659047244132996
  0.6671721011418448  0.5832636424859294  0.9171489973058029
  0.7502002808002053  0.6657096065392023  0.2534835338601409
  0.6660657919307085  0.8330851500045922  0.6681686754141251
  0.7518350003673078  0.7491462676925287  0.9957801975263385
  0.5815436315040754  0.6650372945810804  0.0799056497419732
  0.9961852202526931  0.5009359595599860  0.6677921194789188
  0.7500311101298315  0.4975285228590126  0.9171369832260681
  0.6677981848940204  0.7425933898863151  0.0796575011858077
  0.9970337789729369  0.5829491116879943  0.2514443710164835
  0.9956626820374780  0.5791452670093563  0.0796825783363970
  0.6689912918525763  0.9203818413733937  0.9129204966572504
  0.5819168433256035  0.8332669299549831  0.7455102730408518
  0.5821546934481373  0.0038470782757736  0.9129430095778853
  0.0814551750022755  0.5839188390884682  0.6693161560962468
  0.8319174887301825  0.9164371859765770  0.4204645828057210
  0.0828394776886553  0.7488004925546533  0.6684894163658149
  0.6645606349107004  0.4995370702919131  0.1641389302592652
  0.1643992488437843  0.5842284389096518  0.5851061647353404
  0.6666601684385094  0.1650920917761077  0.1632520041477038
  0.5814268978484324  0.1653952463518386  0.2473055931303790
  0.7509154190751873  0.1659194807359287  0.2483002678917996
  0.8321028938385890  0.7498705495668974  0.2550141840492464
  0.8327298116018457  0.2510487468680814  0.2471978716887462
  0.6668735850247560  0.5846467833888758  0.4190480351085554
  0.0814637954517207  0.5004851580961310  0.4196374247599833
  0.7503960843603928  0.4150053927611638  0.6648042446736872
  0.5804555931044402  0.1555524115222270  0.4200738992189065
  0.9962821140108524  0.6643431514648782  0.9956288698541758
  0.9965880425265899  0.2527260758428265  0.4170637135498625
  0.7485593379798240  0.5835401921871900  0.3350627483042266
  0.7578989403072217  0.2481575762197845  0.3339855601453856
  0.6666597269638443  0.4153711039711965  0.5833270351899805
  0.2478231835304178  0.5837338694517348  0.6691256660703649
  0.8329169625475746  0.9170478240903190  0.7511779179493602
  0.9985340767330519  0.8328661259575073  0.8321818390145775
  0.8320845762650945  0.8336525138171362  0.3368777595568592
  0.9988589154111648  0.8309897659961822  0.6699244590987270
  0.7500521571561225  0.9187709929493448  0.8315220794311117
  0.9156999068279619  0.8353847232367213  0.9130167886023365
  0.0813137804187200  0.5824933743228884  0.8322368149651224
  0.0812590730326601  0.4154938879668454  0.9959407374021865
  0.9976202409408118  0.4994464613821762  0.8323270349339394
  0.5822014410254946  0.4994356196294070  0.9241320128229804
  0.6666510460255455  0.5819416654303253  0.0797757223872605
  0.6662461124032540  0.7495560974624386  0.5851430219028203
  0.7486819880793487  0.4979560037381703  0.0810936984476392
  0.6659651792606736  0.5856635690034501  0.5832696625371341
  0.7501518965962120  0.5804167203244073  0.9976987576385491
  0.7545689508332948  0.7540284628092924  0.1663383750996605
  0.9142913219921102  0.4156459131112315  0.5018802415473380
  0.7504416208519026  0.5834763838104552  0.6660387798823094
  0.9147817451452473  0.1675628922963074  0.0794085517819163
  0.8325755392849462  0.3323401340035693  0.9989797432880065
  0.8337834503946503  0.0034371600697230  0.1656989857689153
  0.7513098018946203  0.2480191197394795  0.5025278580836078
  0.9139956007115212  0.1684495709926913  0.2480711818482898
  0.9975126228599999  0.2510937762350983  0.0799220083000521
  0.9976460140465114  0.3329926363921902  0.9977653261370802
  0.8329183059557318  0.4174854715266484  0.4194078714398703
  0.8319879381623430  0.3339250076038884  0.3314722874626166
  0.9138060508721735  0.2513812544447466  0.3329636710379980
  0.7520764718028875  0.1642179902014686  0.4187675868510587
  0.0809232904079949  0.1680201369582930  0.9145511126292633
  0.9148007797218554  0.3326456679065396  0.0811700166777100
  0.9140794724067909  0.0837308966297512  0.3334977542121637
  0.8319570837084270  0.8330619482480999  0.5039080326984761
  0.8330930146228634  0.0834932923944562  0.4186897054338261
  0.9153666164340628  0.8328547971528695  0.7506483995181285
  0.8326822800390239  0.8323959777675648  0.6686656416940658
  0.4982193129483898  0.6684889022062457  0.5034212233513070
  0.7500772564331060  0.1654554381546119  0.5858819092824544
  0.6626796522835017  0.6654870925924699  0.1654966004515595
  0.5814378440372950  0.1664915681217842  0.9141698840660825
  0.9985474669777532  0.6669081756842964  0.6687456872156895
  0.9967857386866564  0.5828358940304996  0.7502531672767104
  0.6679656505296552  0.0035865923161596  0.9962776735288436
  0.7521841353618091  0.0825252330435067  0.3340469823610580
  0.6656185701469368  0.1673716096593556  0.8324969450078505
  0.5815178189648612  0.0826757691916036  0.3317769234512916
  0.6671899265554350  0.1645888606087954  0.5044700208971008
  0.7495939296592341  0.0002315754723452  0.5869663804541654
  0.9968862484005235  0.7487042343603342  0.7509343664212462
  0.9130296650258585  0.9995740680034634  0.4202687772123229
  0.0813102797797346  0.5004246110410505  0.7517654694470433
  0.8320497914425223  0.5851490389258388  0.5838256717017922
  0.7504030474260450  0.0831620318076797  0.5033921627907704
  0.6660215430807985  0.0849057050980896  0.9136714840491189
  0.1656045309755105  0.0008429212204826  0.8323531509904016
  0.6655389823311255  0.2494502914939920  0.9159598195109251
  0.6659289629654676  0.1675367029587632  0.9979496540368615
  0.7504162192271321  0.1675639231159480  0.0807866557728103
  0.8329236339715336  0.2502736576251184  0.0806981990491593
  0.4136872008717622  0.8329458884793682  0.5856997593980829
  0.4153395816195562  0.4153281257608912  0.9987394538969480
  0.0800427642634081  0.6653429533250805  0.9128234497848507
  0.2492036029021198  0.9178513578549694  0.1608888102819460
  0.4138203806637605  0.8347267761214188  0.0788834340239165
  0.4132699351582369  0.0023602961604066  0.0789972312099008
  0.7495846673871475  0.7494839434995300  0.5032957920928014
  0.9978318538571063  0.4166344497186367  0.2492603821356422
  0.9968079296955159  0.3343358444641041  0.3337339113862642
  0.0808572311393259  0.4175018465549867  0.1641999164519297
  0.7497412950263312  0.2494780614179200  0.6678864930214171
  0.9163423994392105  0.4974832398111889  0.9141392412306643
  0.4977447550265234  0.4146427979722800  0.9175597619921387
  0.4139972424761775  0.8330932393091611  0.7487241845354167
  0.9954649197390130  0.7494901983922599  0.2572841013997590
  0.0808503308134838  0.6665130609411689  0.4207765967302241
  0.0801652865521826  0.7504836958962171  0.9889832623320967
  0.7514190069346389  0.0039535508313458  0.0801778018159764
  0.7503363737981534  0.8341081972183375  0.7496032282415750
  0.6677188886378851  0.4218602829847700  0.4183365693842234
  0.7487137930705905  0.2500172362442318  0.8341196112283158
  0.8334308111818910  0.3322994615884793  0.5037407990006865
  0.6656533599013938  0.4148437418281463  0.0810964737653090
  0.6665718388144442  0.4167678434857808  0.2462567090853365
  0.7489185725115907  0.4153510097039630  0.9989366547994526
  0.9967203050413869  0.7486818578612752  0.4203984275521975
  0.7484094559490935  0.5015023968200678  0.4201651624931039
  0.6665840497573230  0.3319009835645041  0.1622984531052425
  0.0796569864901742  0.8321911623129440  0.4211756583754744
  0.9145954131710445  0.5888919636786104  0.3363343869656911
  0.7505446345209545  0.4163098798825743  0.5027757190167279
  0.1617721373148492  0.7526483721863569  0.2597309926083821
  0.5815552014121339  0.4158912615798063  0.5026044528380158
  0.2495701340274740  0.7498540434072184  0.9951365114424717
  0.8319026870609630  0.9995308981475953  0.6683787710908844
  0.8336738992946177  0.2490607734868853  0.4184449489714413
  0.9152504587372826  0.6672839672766337  0.5857121205424973
  0.8341470347613080  0.7477903383663090  0.0768633169254588
  0.7486005732885789  0.1669135971517796  0.7504877709728393
  0.8329073573336908  0.9189361761428483  0.9125392441274455
  0.9144005186545414  0.5834185922180147  0.6673415364404035
  0.9921423605014409  0.8405925678316951  0.1652653334472516
  0.9971218929175776  0.5845861949272771  0.5858668132212327
  0.9987547773158023  0.1682154885239273  0.6692451282543875
  0.0817486432558780  0.1673565529127407  0.7511443355810578
  0.8327770384077701  0.7496982633860937  0.7504200538765551
  0.9149604762575686  0.6648656513455243  0.9139246370265247
  0.9979962727298305  0.7492722848383584  0.5864955054559717
  0.0814888503122424  0.2506958447129962  0.8326537358669346
  0.7504899737339699  0.6653242172977013  0.9159795785909458
  0.0825651930602056  0.1694219296706911  0.5864793662594416
  0.8331440168597871  0.7501578861919014  0.9134785066062934
  0.0811741862257066  0.3334324762674188  0.4182661520067862
  0.6676494915214177  0.5899007837103778  0.7491175172064547
  0.3301074060510288  0.0830535502582207  0.5853197777436089
  0.9930685933747639  0.4167088523927844  0.5845146210482383
  0.0795623850651073  0.5711965795673017  0.1649735695088729
  0.0787716341694791  0.2521283664007415  0.3337283781280860
  0.9141760466580684  0.0032591767146980  0.0799775758481771
  0.8326365087312984  0.1678473421141751  0.9974452588466148
  0.2498846290460514  0.9176729067081767  0.9948500869873614
  0.3305869433699300  0.0845134387172642  0.0788568849166578
  0.3323412804797350  0.5808041082873643  0.0779077711180527
  0.4959366286082729  0.0850103117150646  0.0795250763650723
  0.3325187026817130  0.8343550328134876  0.9957239147566785
  0.3313746050547526  0.0832636000553894  0.2467865833257304
  0.1653244474724596  0.2494184053432788  0.5878031789559588
  0.2481358617469408  0.0846490257818443  0.9956991082936922
  0.3321748113149655  0.5821790326903877  0.9146505659861291
  0.4971606410355920  0.5011158289950270  0.5075168285778336
  0.1658031466162546  0.0007006875550094  0.9955944462795441
  0.1646634410286674  0.4168806222476363  0.0789413082594117
  0.2488554496734707  0.4173418313463126  0.8339885791106454
  0.2471323472116750  0.6665970803380808  0.5857052563940689
  0.3295702086959041  0.5845407933270962  0.4193536924789844
  0.2480701282281582  0.6664651530500014  0.7508354851458164
  0.9964770748725864  0.5810832277908203  0.9145340227585933
  0.2460386131591925  0.5842399828570493  0.3354681433248320
  0.1656081945546826  0.5016733471579224  0.6703037181235599
  0.1635718147041197  0.9149443418760914  0.4201574495849336
  0.0814789198918666  0.3342970824254947  0.7516277086698183
  0.2500223170671134  0.8284435285900776  0.2501075449828087
  0.1640891129292548  0.6669148284507022  0.5034100430725881
  0.1650415919959153  0.4170696028232401  0.4182183486555276
  0.2491114468480387  0.4997714511217256  0.7508455082498913
  0.2483319911885263  0.5827322166359700  0.8322071563682030
  0.2556244192197250  0.6640249177596117  0.0770950351882129
  0.2498218837967136  0.4980683551424781  0.0785673051532037
  0.4141406714594837  0.0012811639106638  0.9129603184623362
  0.4127901994454972  0.1655160525096193  0.5860411637824364
  0.4141553338024757  0.4155617872735747  0.8340130354970243
  0.4140844546360901  0.1660835238218426  0.7503697949389825
  0.9973663294608180  0.4152744264089107  0.0804740520335943
  0.4976402005103668  0.6651753483343065  0.9982274531547985
  0.0766562646155759  0.9154346707589927  0.3379916816823047
  0.4149894141773562  0.6647857724816857  0.9154981998269256
  0.4978113359261790  0.6658267363611448  0.1620825385319009
  0.5824254762706106  0.8316230393660138  0.2522231733496165