 C Cr Ni 
 1.0000000000000000
    21.1200000000000010    0.0000000000000000    0.0000000000000000
     0.0000000000000000   21.1200000000000010    0.0000000000000000
     0.0000000000000000    0.0000000000000000   21.1200000000000010
 C   Cr  Ni 
  35 259 605
Direct
  0.4143800786566352  0.1732849509189922  0.0016645315704078
  0.9126937378812032  0.9160379963856109  0.0898563079376108
  0.1671188722732895  0.7463054456618265  0.6593348100788716
  0.0768142482037245  0.7487612696794156  0.7469715747653739
  0.1656134049938951  0.9159532811585874  0.1681615357423707
  0.9112021195841999  0.9230969786150034  0.7408248553809693
  0.0007254740472276  0.9221832899004297  0.8332675007644912
  0.0880960492235348  0.9183418394748588  0.9230503821959456
  0.3307937138201384  0.0064802033559673  0.5696571139688386
  0.7462279056772175  0.9982742477177855  0.0032591909241009
  0.7481561073441676  0.7464103503865814  0.9168881774024089
  0.0797124934966752  0.6599634944953506  0.8368173426098852
  0.4253778958671853  0.9112162256853475  0.7572843223491832
  0.4158281307028532  0.9965520841598663  0.0029973693861040
  0.9117673847192874  0.8261735836895751  0.8371562473054337
  0.9152997277004811  0.2449703143291326  0.0903337354482789
  0.8238457528315225  0.2422649911333913  0.9943977617257209
  0.4978660498997847  0.7457891356092691  0.0012399841896001
  0.2385244530372186  0.9088276504345499  0.5717845376613643
  0.2372018937773085  0.0039108327324861  0.6628714791902341
  0.8179008195664351  0.9250827191150315  0.8387694306892173
  0.3423642700799289  0.0971696962120908  0.8472616633226303
  0.8223931698314348  0.8259007750015701  0.7421845204706874
  0.9186691767556785  0.3342852087900474  0.9970784168538948
  0.7483699057983116  0.0890508022075225  0.9137837317564532
  0.2430551933463809  0.0927696552109362  0.7535932246147847
  0.3303311097650405  0.9093320555638462  0.6642389163342118
  0.4191787007044580  0.8184827086530416  0.6666517216461528
  0.2504914561855425  0.2550967954539648  0.9189726623478471
  0.2357405941944702  0.9045781609481267  0.7610883111506304
  0.3335575722101218  0.0019979555728785  0.7574628151729904
  0.4240088759197764  0.0071204940362217  0.6635037181493554
  0.5892761502611046  0.8285657344379885  0.6649742638617300
  0.8288383305031067  0.4251263779219929  0.9987941934596362
  0.4241504789049301  0.9120273855729849  0.5717532897346473
  0.6628323410050220  0.5825246167752250  0.9161022121481295
  0.4985381958773825  0.4991576641695750  0.3327916283018197
  0.7470401943654439  0.4994046685724321  0.7480775646560328
  0.7465208795982387  0.9206222179619139  0.6598434595812259
  0.7493956184357983  0.0874012323547133  0.6634643505551924
  0.7468672833312399  0.0902420485879895  0.8246243728706948
  0.8231978661593750  0.8315663905365887  0.8332536483908274
  0.7467498173493493  0.9098941474672648  0.0051802606854392
  0.6657213755225432  0.4163078437672060  0.4153682583112699
  0.5842678982990143  0.5806806909978753  0.4957825286979202
  0.4990388014301066  0.4979749144049141  0.6630199947761749
  0.4146974180099864  0.4168972211843118  0.4981376052835708
  0.6646032162754252  0.4155344419377311  0.2528695164268660
  0.3318022964580168  0.5800593070301686  0.0860779210588937
  0.4971517866557277  0.6563486340535406  0.0025050273385998
  0.6632138291153097  0.4180442396815301  0.9147607702207279
  0.6643514791607668  0.8312134989841062  0.1704863750324969
  0.5881354349692898  0.7457942149096798  0.0029171456044883
  0.5809139268447703  0.2537105894101482  0.0028773951061453
  0.7490577226993976  0.6649045923366904  0.5796381445403930
  0.6640333217089701  0.3362530328139045  0.6640899166640032
  0.8304023711862252  0.0022146211593433  0.4973039997483572
  0.7455132182100005  0.3346938141637832  0.0870815024329212
  0.7396732170097118  0.4191957019052269  0.0009003339852284
  0.6566936357903295  0.0868277739298128  0.9166597268893144
  0.4157878883226837  0.0965167879892131  0.6665347252364761
  0.8319459138303682  0.1670031626696196  0.4968135933221380
  0.5832071589015692  0.0874881389810979  0.4937411551416181
  0.2497375125067936  0.8291066330945160  0.9197907043767142
  0.3315735520115020  0.7475728753415357  0.2521582065377897
  0.2460311104177614  0.2556953793654437  0.6629057282606261
  0.6641179633212575  0.0841212290912661  0.2523847945997140
  0.7464693656362118  0.3350366538858626  0.2529430955923370
  0.6603358497763770  0.0843535260855356  0.0880103857819076
  0.8278403711541737  0.3340465794662815  0.9994216729363429
  0.4979639857594327  0.4169720629292423  0.0856191750224347
  0.5863450334984212  0.9187844510186478  0.6618629492608550
  0.4981691991154132  0.7474314125989313  0.0931922453103997
  0.6572886699202767  0.7453207668255296  0.9165002935413770
  0.5865360804344327  0.9141814887024222  0.8357572118554392
  0.6644897732931359  0.0847754849678591  0.4156511426354112
  0.4182042279597688  0.8223258990873630  0.5765797706835838
  0.5136283489416233  0.9172967769794462  0.5758165000428255
  0.9127426076619264  0.0071535932224955  0.0881381880698429
  0.6649189758509946  0.2521694164970937  0.5786835657296601
  0.1629579889767411  0.1716567624813084  0.4969105479387675
  0.0803277511184065  0.4176509330629258  0.4984969060517334
  0.9976426758292780  0.9177039321372780  0.9244550284038980
  0.1624617557746231  0.3349271471943928  0.0040603489234282
  0.9140753101392958  0.5814237079292134  0.8310363673320893
  0.9189103313680097  0.4230498002068926  0.0002572721042961
  0.0788826871992724  0.0026078674548789  0.4134884300580436
  0.2418459828682010  0.0003591905722470  0.5737740607816101
  0.0888700979181351  0.9169051890594869  0.8341752647818548
  0.1638369583300397  0.4176474761277507  0.7469265985878253
  0.9154071991140893  0.2456714703171355  0.9993065530775709
  0.2486232395060848  0.2520319308782404  0.3339900929070499
  0.9130396004999159  0.8309169489488312  0.7446541903885560
  0.0001746982953044  0.4994782069177120  0.1695382611463483
  0.1630940845055722  0.0004742779914907  0.3324348968804261
  0.9967784385280125  0.0863746001891919  0.5798454783826026
  0.2464953882545802  0.1818788185789413  0.7472909939841336
  0.1645690439433723  0.5822981790540730  0.2514411720159896
  0.6653621473223141  0.6651762868540382  0.3338568504131406
  0.4150316413917768  0.4988207168407722  0.5791209224847954
  0.4182927158052055  0.8282354803124840  0.4120572680713401
  0.5825115131066361  0.7452304838039786  0.4960654303182754
  0.5824619065477268  0.7471476667853675  0.3322831210806271
  0.2461526117258585  0.2566724466502337  0.0084716274739733
  0.9143283294555373  0.9156336520164288  0.1790857334084064
  0.9158186153984312  0.4997089777926377  0.5796416209922226
  0.9979008952419459  0.4195491555890576  0.9163808131464506
  0.8303210642764132  0.3353644702231799  0.8299557446122913
  0.1480938793256637  0.0047561048011096  0.6607153932213410
  0.9991500275999755  0.8286729146178533  0.0056992147081055
  0.9983293764051780  0.0862505173541300  0.9171489644972485
  0.0825919978908897  0.0004006925746965  0.2558400864936586
  0.0812316140594193  0.4195728879652992  0.1694431593206569
  0.0801363747614044  0.6585820310478699  0.7470126952964723
  0.9992057163674697  0.0058972487000513  0.6609448558750465
  0.9982201715039817  0.0131951991936493  0.8340159141077300
  0.9962119519763898  0.4178577107741240  0.5814587142196704
  0.1651959507717761  0.9135276379574564  0.2577230057946404
  0.0829230881300941  0.4968664933070941  0.7477477153923058
  0.3318314078605199  0.0856408031955964  0.2526148726048371
  0.9996021668445859  0.0828950372222675  0.0874842301843375
  0.5813662711880220  0.0872806524970755  0.0023945729117232
  0.1707388801749489  0.6597755556328369  0.8332156070826087
  0.0072661561921871  0.3326757592144955  0.0017247259375140
  0.2554151477765568  0.9148381717555737  0.1705370934865942
  0.2481232526904127  0.0883959882296747  0.8430534325793885
  0.0003082746403152  0.9201459554258944  0.7430423939183766
  0.8314845157267620  0.5007355831262383  0.1700847840947919
  0.3306819501396883  0.0853341122599353  0.0882319535723229
  0.8310491457056595  0.0840758991486511  0.4145099355323741
  0.5804130849685813  0.7476292490605629  0.1694743144592735
  0.0824494076869154  0.4980951143538803  0.0883190101752520
  0.0805292643508710  0.8284540347458177  0.2518173299593883
  0.0818202870536161  0.4180110149600141  0.3339847140500775
  0.1762908231922996  0.9145165367931474  0.9251093080385526
  0.2436657146687375  0.0008478446364535  0.7528376203336876
  0.0794002576721581  0.8306438201193707  0.4171933570604966
  0.0779142710870138  0.9150436121018868  0.4928506226758816
  0.9132475010377372  0.9168163330573191  0.4961303667303605
  0.2491807557509156  0.3459319810580651  0.9179682445481363
  0.9992574932737177  0.9994214065509868  0.3339058380916711
  0.9144783589750768  0.2508729182181145  0.3326717228451804
  0.1603292513813834  0.2542324951180179  0.9180080691815627
  0.3325658556962968  0.4166498833879922  0.7467834269407724
  0.3326519474502985  0.3355231776732894  0.6642166718595534
  0.2471262467662620  0.3340372731587422  0.4147297641031994
  0.9975145186537888  0.2518148901561134  0.4135611709644149
  0.1715356484104900  0.8331512537764056  0.8325894964949546
  0.8224080454238775  0.9180919737606675  0.7458682866922679
  0.9124609236273057  0.8314106611924926  0.4149549118243716
  0.4137881287922221  0.8268038768716911  0.9169985510163626
  0.8374151343177533  0.0042899613917330  0.0037017436625807
  0.7473558705683168  0.8318808465877401  0.5760990672588999
  0.7451127034789770  0.9996278727078174  0.0933252046552819
  0.6659057759235540  0.3343605805051069  0.3338479377875555
  0.7474848861843066  0.9974595216440841  0.9128061613608848
  0.6655723375993520  0.8310341585283704  0.3343003758648531
  0.7457408838667050  0.7466933352658187  0.0072425621624040
  0.7479100580817086  0.2550297299977505  0.6622943557590589
  0.7463881648930967  0.6558203389089625  0.9166165076960651
  0.4147158303052434  0.3353256713692799  0.4152293220532461
  0.0019064156738849  0.9178201506940641  0.0859526712806598
  0.3325001093576613  0.5802569375703944  0.2526822762027027
  0.5835991657056967  0.3347760984326236  0.5811846376194416
  0.9985706457756195  0.2517814133063781  0.2543192718371243
  0.9109043363942889  0.9177320740638281  0.8331367475953461
  0.4198088166179856  0.0024087784052854  0.5751642753943116
  0.3314788685741561  0.9126084657308005  0.5738748625283533
  0.4143671676748160  0.9148238313934997  0.1713782387526991
  0.1660645234858546  0.0851718814221402  0.2542670255371485
  0.3348618771607469  0.0042528463828188  0.8481844836097279
  0.4169040110126693  0.3371832227869002  0.0880343586109579
  0.3317015766017757  0.0011021380627795  0.4799357152802275
  0.2484266374476931  0.8268755996222348  0.4126193393893426
  0.2515521435157245  0.6620886693580964  0.0864644192291916
  0.1681157812614114  0.7436303702997166  0.7508577341801504
  0.2448907135024547  0.0939748593367506  0.6628750452609190
  0.3334659324674774  0.7414283007889632  0.5761994931186825
  0.0841574685729558  0.7519409499608132  0.8368532533367005
  0.7497591655985082  0.4989619323321304  0.5805975677507694
  0.5829644566223910  0.4166715085608761  0.6645728059689758
  0.9141863306278046  0.3342133411393129  0.7494054488450975
  0.6599843808838601  0.9159656540085280  0.9189036195969053
  0.9974801241174353  0.6653141253906618  0.3337249275168736
  0.7471287098045023  0.0019348870117601  0.5799933583604170
  0.6646545189841079  0.9153049768451631  0.4155858882891434
  0.1679749811721451  0.9138632200787811  0.0798544950213666
  0.9128461205834711  0.9180120851047162  0.0002696878268611
  0.9143884099355281  0.8255036417325746  0.0847997711458776
  0.8299937566727715  0.5805865563054837  0.2486241539777524
  0.0015482372215395  0.8301578583539677  0.8369925652145730
  0.0840249795374077  0.6632237027369317  0.9249853283868877
  0.0796319314305292  0.4976734949515444  0.5785156588841761
  0.2415241372217877  0.9128666723810231  0.6646179908931296
  0.4975379492410781  0.8349897565628919  0.0024399268607204
  0.3301987918622803  0.0027731532336363  0.6634035845687362
  0.6648103142368699  0.5818904359378819  0.4167155584577938
  0.3353604084842370  0.0919130600743308  0.7529745121155658
  0.4227099020063640  0.0006432483047383  0.7518850275000691
  0.8323116340182948  0.9166956935729244  0.4167295430772093
  0.8315692473398290  0.5834949196639977  0.0881511672140660
  0.0834809806576945  0.6625816422646255  0.0862500719353291
  0.9148741316076511  0.5800596951631801  0.6631464687933187
  0.5041096673934797  0.0830520722155927  0.0879868658520851
  0.4158771991674023  0.3345527875550939  0.2508895879849277
  0.4170334724696617  0.9997756214147877  0.0926123911278226
  0.4223571753650979  0.0026399484348231  0.9139270966569285
  0.4971741885253446  0.0845139781270103  0.2527452502605862
  0.9970170841441326  0.5837935138527979  0.4139329915189428
  0.8225550913046409  0.9155900040592844  0.0884661024445169
  0.9178878071021944  0.5818478706268599  0.0023520953261400
  0.7464924995856008  0.6609362057696389  0.7474744387921479
  0.5834405746007146  0.7385116141511415  0.6647181524233684
  0.5824031612021081  0.1679182276464685  0.4151034046281636
  0.6643817355249799  0.4159395645924512  0.0858737575911966
  0.4981594574292863  0.8307796369053989  0.1699272260650059
  0.3321102749775605  0.5810594498044022  0.4152588492620475
  0.3314664284254338  0.7444532005442135  0.0864839229689636
  0.6552203003810587  0.0004667278604823  0.0018156931034038
  0.5813936292165758  0.2550225113222450  0.8315283868631422
  0.8306352675551926  0.7476150469829317  0.2513446714201745
  0.6661416897463882  0.3337369114169585  0.4982077340829593
  0.5817614327661211  0.5792782509530732  0.6635616330418775
  0.4992491857308043  0.4979353812564978  0.8324474261664100
  0.5831576472348545  0.0896120947856689  0.6623475857176092
  0.0847826706493492  0.8270681936547932  0.9214739663710843
  0.6630024041412103  0.3356790375994674  0.8312157255267311
  0.5837506498115171  0.9170647277303151  0.4928285713142856
  0.1680604145802728  0.5810956404183890  0.9187435711698732
  0.5813639605481378  0.5803138013418534  0.1690077132299328
  0.1649742775012089  0.0885151073512938  0.9193630930576292
  0.0820225351356448  0.1674376613159032  0.0874515408436826
  0.8302087258527272  0.4187067664009808  0.9078815790228495
  0.8308093925436839  0.5139352410835188  0.0028051054752842
  0.5806493148677373  0.2506051544337889  0.3341127433254646
  0.9149698958755259  0.4182082268157069  0.4989104228393282
  0.9133707208999966  0.4172744738399547  0.3333173356261783
  0.0054540331136649  0.2504132692470682  0.0886740148076280
  0.9139117797919590  0.3357431035539757  0.0893791688779902
  0.8299841472191085  0.4170155424276576  0.0895918396295570
  0.7417791960129134  0.0870997044469459  0.0044551592895055
  0.0798260852836147  0.1724902343349370  0.7484063854817051
  0.9968952502924305  0.2526293722912622  0.5804782950815954
  0.7483355830767419  0.3345511502060005  0.5802307813740546
  0.8302232676155331  0.1655628292598574  0.3339596495180927
  0.8245758576604427  0.2499920468077496  0.0872195489991574
  0.8311552726961079  0.5826053810660117  0.4152980603844760
  0.4197801236147943  0.9134833876713122  0.6647517173880045
  0.5820499241869294  0.0879961450799393  0.8320419589279793
  0.5806656960987397  0.2518644436826193  0.1706413339508485
  0.4999619833393006  0.2528121936658061  0.5799298580357470
  0.2495361666302867  0.8293343519819255  0.2518966775345921
  0.2484221990488066  0.2514572526117263  0.1697288505743186
  0.5811708773517854  0.9974650254623929  0.0903092516813614
  0.5831745231023816  0.4171917750712952  0.8332014185359730
  0.3308410811518735  0.9116238075170110  0.7549151680758753
  0.2499894894079325  0.6598895514492747  0.9181079358028441
  0.9941001723607039  0.7470455914767670  0.5785980777051476
  0.1639930445637882  0.5815848109164893  0.4145822959053136
  0.9986873706239561  0.0030319930082094  0.0033864777160986
  0.9144393069929276  0.1700868551148810  0.7467885695818784
  0.7479634624509441  0.5007569745578937  0.2516682775046194
  0.9142235409911130  0.6632635363009423  0.0863269515901411
  0.9168928800695786  0.1553951113634611  0.0893218273083625
  0.9959369938908647  0.5799581804285923  0.5813274289881979
  0.2453573590418517  0.0038567751987560  0.4129837956150615
  0.1639524538294055  0.4162727551139265  0.9180569164145561
  0.0801861301933079  0.3378503401339840  0.7480900496728394
  0.4164647421313138  0.1690056863441797  0.9117839236046448
  0.3317321374799031  0.2542397668124756  0.5801116738613624
  0.3300409484007824  0.8275050115120417  0.8380254943778022
  0.2481341964159599  0.5793178541477962  0.6631369637623369
  0.3313906511741966  0.8183468942825561  0.6627633620108260
  0.4977012333911083  0.8309605981840669  0.3340388110796432
  0.4162642853430481  0.5776743509906022  0.6634133371127288
  0.3304938102624950  0.4995134030975408  0.4966352144257752
  0.3319255108255888  0.1717400664735669  0.4968623578541774
  0.1627050958885047  0.7455106415425629  0.5712928721858230
  0.9986691458045976  0.7484659614749816  0.2514495570471347
  0.3327058988955253  0.7452679196280106  0.9172510589677775
  0.3325126032422200  0.4963205589862879  0.8322105475940155
  0.3316284675750972  0.5001018205137286  0.3333923953821264
  0.5078469305225627  0.9992929750020307  0.0034353557961364
  0.8325170282815232  0.3344964467869947  0.4985335556529232
  0.4990833570324600  0.6605031782421732  0.8325286518605407
  0.3323956112970129  0.6618575391006297  0.4956185351927649
  0.4176836003387124  0.0022378087504708  0.4124999026663487
  0.4171348769782734  0.4172940103170685  0.6628332266543711
  0.2467167003623258  0.2581283220640722  0.8285401184942212
  0.2484375583035443  0.4992201002442277  0.5808214499434966
  0.4164668503973734  0.8227770029950415  0.7565668625056446
  0.4178568318900305  0.3381318937210285  0.9169712047267592
  0.2487691102957746  0.4184008738688560  0.1695728799915990
  0.2492010258311667  0.4166523373964915  0.0031175711112867
  0.3317464824435187  0.0015314085692526  0.1708726001483187
  0.1681171977342186  0.6630337389214825  0.0028095020227465
  0.2488716928082411  0.4963110058623225  0.9177996835025150
  0.0824383858182327  0.8308926462184426  0.0860731973092983
  0.1636215275593861  0.4981193196674266  0.6631735680916613
  0.2497159112839819  0.5769878485846021  0.8325949065742773
  0.2500119667827231  0.6596987579791036  0.7495216903964453
  0.4979924948985665  0.1681987954546440  0.3329148897731366
  0.3319054049576856  0.8281287821607012  0.0030094758499657
  0.2528567547355420  0.9216344121821279  0.8448117987332726
  0.1625417284423207  0.3370202066026334  0.8323498908996965
  0.4145576623252288  0.0009882673736569  0.2519753012238321
  0.4204458930189252  0.0855457270323618  0.0052005376147301
  0.3320850785154141  0.1686099872566097  0.1693567735008181
  0.3285241179486675  0.9999484523919235  0.0058559702854320
  0.3320625796772626  0.6585737082466984  0.6634120653016378
  0.2489325036515801  0.7450091587481824  0.4954809563488788
  0.5007051163381236  0.2542193550176516  0.7488579960779130
  0.6655989044151176  0.2513851350656262  0.4157258820611419
  0.8296718387442931  0.0002992547833534  0.1724880590944760
  0.1693460081847477  0.7455465171146270  0.9186634973547505
  0.5817749539088382  0.3360368766225401  0.7473818953989716
  0.5824516187285927  0.4181639939809789  0.0014471988610030
  0.5817740094116631  0.1724208767620824  0.9164109910479096
  0.0771903842337263  0.0036390804379017  0.5755456429921079
  0.1654962866797106  0.0051742463764397  0.1708292409875100
  0.5820976614969943  0.1698407858188683  0.5800105618761536
  0.5815125425998897  0.3358314724601172  0.0859505701908969
  0.5014989367235846  0.1722996715802608  0.8322505642244670
  0.6637019535759592  0.3346476597942891  0.1699419749739286
  0.4178248856179503  0.3361031207138349  0.7477647381863071
  0.1650818394877300  0.1682192485933436  0.1709057682306084
  0.6639191046382749  0.0879340240975338  0.7464122702107193
  0.4991818199013457  0.3349848246184875  0.1690172808199744
  0.0811046302632411  0.0861806141723855  0.3345828832463145
  0.5003394649085101  0.5805491348349844  0.5796448216392833
  0.9978542182398573  0.4996990549758406  0.8320703854060104
  0.9157046012376298  0.3357084668303806  0.9093165471540350
  0.8307505558998700  0.7455670698504102  0.0859001364024884
  0.9166547918987121  0.5007395722862500  0.0875117205108763
  0.9152787820052123  0.5015367109004116  0.9146941178633062
  0.9969325651885202  0.3350295287576006  0.4976094754535961
  0.9979529155044974  0.5001470273980940  0.3339467834903893
  0.9142679291617991  0.3341377145864748  0.5805218443024143
  0.8318862824276508  0.4998397071951692  0.4976926274120309
  0.9143225792344191  0.4174193725686636  0.6648845131103258
  0.9141428636702550  0.5823943632698512  0.4974459512849516
  0.9959059726815230  0.8312098268836136  0.6611986157201926
  0.8314090091471922  0.4994634791901660  0.6644364009871082
  0.3321131173409311  0.9146758671575952  0.2534885270262885
  0.1654479761953104  0.3350891109671791  0.1701523763262688
  0.4986848806358553  0.0012111443817298  0.3326884861947860
  0.2482350734028104  0.6614271287631788  0.5781378049918724
  0.5823763037449341  0.4988469035910344  0.4152453932957127
  0.8308194861072955  0.9996685150049409  0.3344394287237893
  0.0797099096981086  0.0868633093571784  0.4960749587816349
  0.0820986138685851  0.5827852463019060  0.1690546776678834
  0.8298323616678921  0.0030680553604631  0.6629197818647072
  0.8282966314214292  0.8321691166525990  0.6555820134622562
  0.6629874051694018  0.9997340617220006  0.1717068089454792
  0.9144739099244457  0.0845611647943516  0.3340945890557800
  0.6626522510329901  0.9189515553354344  0.7451667169383575
  0.8319855290962288  0.2503041809568572  0.4149801423430162
  0.9146974717785192  0.2511778074766002  0.4972655627974059
  0.9151586467917041  0.3338829266168242  0.4151418023433683
  0.6656826937208589  0.1705167853542247  0.6632533339836612
  0.8302962691573106  0.5010122289616744  0.8308128911665354
  0.8304655142781647  0.4175337849388679  0.7483702260706974
  0.9970229157074642  0.3352800950313967  0.6646478154000091
  0.9980395073018696  0.4176598500627605  0.7480171599330674
  0.1640323789560183  0.4171751476977217  0.5800866646146844
  0.0793359049896915  0.3349564228150700  0.5798180613673055
  0.0813271104262394  0.3362641712286676  0.9161799277472793
  0.6606938352309268  0.1694518518556176  0.0034750217721994
  0.5008299613146087  0.1712763985463717  0.6640665224619086
  0.2479266525256025  0.3347885721614495  0.2513042179957493
  0.4149341047165860  0.6610811454338676  0.9174704342655787
  0.4170206905675175  0.2534877988221723  0.6635289204185433
  0.4983599802177924  0.2518009895963583  0.2516103248236685
  0.4162443651149224  0.4983874334776118  0.7478873577220808
  0.4992286280630245  0.4983867611671674  0.4978456894107084
  0.2464482375547228  0.0879176700125509  0.4961341459062520
  0.3330735419136628  0.5779887618374073  0.7484568085891945
  0.4164376197937260  0.4984776828435493  0.9166781466344991
  0.2480479432446942  0.2530119793800055  0.4975854618282881
  0.3323424522545437  0.4979642684658266  0.6634404119403363
  0.3319047436906972  0.5784491207639429  0.9173514855807784
  0.4139700238027793  0.6620316470130474  0.0871078623135911
  0.3310982315816124  0.6601805028206643  0.8347028790145310
  0.0796045154015012  0.2524499429922143  0.4976211234736926
  0.2491523670922450  0.5817332510487038  0.1695681460625911
  0.4153552577276309  0.5812913846024377  0.3331955927589484
  0.0821371744231559  0.1684814469132083  0.9184637846499644
  0.1531288259532565  0.9175570237592955  0.5775884712032600
  0.9146638127599861  0.0001725088199931  0.2544541211659685
  0.9154828531675041  0.4180006101948305  0.1700646552878011
  0.8317628122016490  0.3344728122353050  0.3330719747583735
  0.8319360161712399  0.4172854970065976  0.5821430847872581
  0.9145833765431097  0.5000422074762479  0.4146927717563483
  0.7369301444604758  0.8299070437296175  0.7484350491598799
  0.9975558062206611  0.5007250991913474  0.4958281466871116
  0.8275332264020706  0.0830972792927145  0.0910241118337584
  0.0815824620400232  0.5828962000649228  0.3334438925741620
  0.2481464050502169  0.4174370960772376  0.4972450657149197
  0.9135391406927725  0.6646619815544739  0.4147589997069258
  0.4986346125608412  0.1695974862803551  0.4973362319647651
  0.9997735550453207  0.5825146195995097  0.0863761272672510
  0.1637375397816976  0.1733043103531732  0.8336289486305150
  0.8299868304427125  0.0839072227226286  0.2537528705635215
  0.5851292208868911  0.0043368803824039  0.7477783585880512
  0.5122621406221182  0.9160135181467192  0.7503029847069523
  0.1662733111323284  0.2520562791256567  0.2517617507574322
  0.5105722007809943  0.0029566380677810  0.6624644032662679
  0.1610033468632870  0.2554719136682096  0.7480254134604339
  0.2483574721199187  0.4174424037788431  0.8311054137699643
  0.3327974022662425  0.7456830767904242  0.4139904961089358
  0.4157471044949844  0.4989783121580317  0.4155314766970495
  0.3310216445337209  0.0936769737465831  0.5807768754618438
  0.2479277914776914  0.5002171932736323  0.2520564573099232
  0.4142141960220798  0.5808394039370087  0.1692124200203862
  0.2465961421254229  0.0030090875735425  0.9243554855568580
  0.0782897881243210  0.7469270187415301  0.4967398148030491
  0.2493838175045458  0.6634293100128978  0.2516146919493098
  0.2480058139142732  0.7458724570886452  0.3332214510308347
  0.1644127904190594  0.6645519591597664  0.3333318532505812
  0.0824329637104267  0.7467385896184034  0.1680629053810412
  0.2480599549134509  0.5825417098823994  0.3332828847730874
  0.4167135535630040  0.6603735657394392  0.5782811510345038
  0.2480188612892734  0.8221482178328368  0.5795102278282004
  0.2477949105564833  0.6627468638871382  0.4151186465635282
  0.3336624921144601  0.2569902167945400  0.7466561703727860
  0.4138850206473116  0.5797748607581924  0.0016798120171573
  0.5807951791648626  0.5809418086673432  0.0016962323095285
  0.4166260675196994  0.3348063097950842  0.5805802586714257
  0.4154067640481723  0.4995227832332620  0.2516554079894200
  0.3320125760192625  0.5804234641115286  0.5796111823360257
  0.6629217846257415  0.7471697939874400  0.0878412519760651
  0.2468874923421305  0.3361320553765041  0.7472949802559322
  0.5006492347150941  0.6629073476004242  0.4971634823882441
  0.3349731526674586  0.4174834244154698  0.9171585628047781
  0.2475572349861156  0.3352382194619851  0.5799931074203386
  0.3316944557669386  0.4978880679495591  0.0027314224505508
  0.3333682380066111  0.3373294544395384  0.8308048281050991
  0.4154426401234503  0.5799934427448074  0.4966558192465478
  0.4168320040848786  0.4177589748510119  0.8319552870127210
  0.3319609508561428  0.6634264748624593  0.1695826719591891
  0.4156064479163248  0.4988881247305635  0.0862845794799604
  0.1614577827694254  0.1732924310648098  0.6631669216019638
  0.5035971248379041  0.0867579408345953  0.9166451227557193
  0.6620124524308364  0.2538830680046743  0.9152738315999182
  0.7493483113423701  0.3334855247035414  0.4157834564853872
  0.4999464602045258  0.7422406978108862  0.7500164506853683
  0.3323434744243818  0.8274773197112431  0.4945255866235697
  0.5814980438767859  0.6643868420449133  0.2510511030249375
  0.0813728378221980  0.7476293821895794  0.3342768758220352
  0.9143142833953813  0.9182643615767597  0.6547245174552542
  0.9138299391759442  0.0031076105287595  0.9166461205890876
  0.9133951074412715  0.7401874256270708  0.8340494188383196
  0.9154732159433122  0.8297071084991661  0.9252270540062690
  0.9981339491857415  0.3349725963018436  0.3337005278927637
  0.7458408464463372  0.4178535258820856  0.8319085863467625
  0.6633094893289089  0.5010584515450179  0.0016643456970390
  0.7466482679861380  0.5829666742852186  0.1689288752135956
  0.7461055687643646  0.5009350324489940  0.0873955506712212
  0.7445457696730927  0.5822555579039596  0.0032160392343553
  0.6644050033556845  0.4988772917165539  0.1691629406271375
  0.6641789963589868  0.5821764768133705  0.2514682760720773
  0.0849179695145696  0.7463573805420358  0.0037577045213260
  0.9152136615468117  0.5003426799942848  0.2520611276117958
  0.6651744452180852  0.4992846534085379  0.3339514867919364
  0.7487842413268492  0.5002765573367532  0.4153764138658404
  0.5806364625594058  0.5797454803151134  0.8325892814874160
  0.7451945959507702  0.3347776085852071  0.9147048386209096
  0.6626457472441604  0.1681511502048019  0.1706434945846027
  0.6620735599387306  0.3353112447765872  0.0006339697069783
  0.9962841482127652  0.6624342938671669  0.6628914331916426
  0.1639737884848793  0.7480923409796478  0.4168456707539978
  0.7460645604147988  0.2508895499189304  0.1709867994759181
  0.6640450778236958  0.1675813582633797  0.3333663804197204
  0.7478342206455216  0.2506836797018256  0.3342029840508366
  0.7481071848481949  0.1676788982287289  0.4154420648166862
  0.0785317199684349  0.6632619341779395  0.5792674838833862
  0.9132610513160013  0.7467479711114203  0.6612979048774773
  0.7488665273171136  0.1690337670418809  0.5809156162961628
  0.8314852038738363  0.2516622347377414  0.5808184442017194
  0.9965756126308630  0.6639574633066911  0.4971470062738568
  0.7473412076277454  0.3357972911107171  0.7478812068936608
  0.6663196493338494  0.7448644885525941  0.5797625707296192
  0.9158665404538537  0.0891756014046880  0.8304646730020123
  0.9168063486991150  0.2516252593609749  0.8299774926061990
  0.9145152439567075  0.2526279814839134  0.6643151158284790
  0.8316735407814231  0.2510542285696564  0.9077343657778677
  0.9995644428173033  0.2511604793196921  0.9164647855743150