 B Cr Fe 
 1.0000000000000000
    20.0899999999999999    0.0000000000000000    0.0000000000000000
     0.0000000000000000   20.0899999999999999    0.0000000000000000
     0.0000000000000000    0.0000000000000000   20.0899999999999999
 B   Cr  Fe 
  41 206 480
Direct
  0.7468259872028384  0.7723118371852784  0.9444530865766325
  0.0135310584275910  0.7887554871098376  0.9788298476969007
  0.1484930509490088  0.9157369647662936  0.1402778510664580
  0.9258093371657339  0.2630207964222783  0.9588824170144835
  0.0080302124507123  0.6910499035987441  0.2197049022438413
  0.0585990035240950  0.7427759197882017  0.1612932755611566
  0.0062453358638486  0.2783882880577027  0.9373403136698899
  0.9960469635869212  0.5980333592083533  0.1933916026567100
  0.9973839932216556  0.9789676288808483  0.9588579363275839
  0.8540420296838135  0.8642440453721535  0.3498618012768819
  0.8098422579151746  0.7786114536072400  0.8862282222223891
  0.9173880309840606  0.8784193182532598  0.1815251132111076
  0.0565304249187528  0.8700616414971428  0.3329272048917544
  0.0568408014554320  0.9274767110013576  0.4030092196710856
  0.9284303525545050  0.5949984560081495  0.1327515359998616
  0.1220887059379325  0.9281371694077742  0.3401312387606110
  0.7290058106185743  0.0721766407617393  0.3423651014685710
  0.0690515564339561  0.4537274343876652  0.1313236697301689
  0.9851166888498817  0.0583302001307617  0.2691403067107186
  0.9875812269164931  0.8157334411329946  0.3337118444082058
  0.9910202158685190  0.2128859776602831  0.1255474239799545
  0.9490425680885302  0.1234931478376889  0.9557494394561334
  0.8585920863285149  0.5928026268738713  0.0747297246703729
  0.9114838310711070  0.0355742886298479  0.1333960089484196
  0.8514328885167051  0.7333885562500380  0.2066054553551379
  0.7373256880014343  0.0671043161961500  0.0702902480508780
  0.0664564357678955  0.2806218744113554  0.9974517453517123
  0.7875772378773319  0.7313762233261717  0.1487679225611667
  0.9836944941549824  0.8521579858669552  0.8099659331243141
  0.7966918956851745  0.9976064425756296  0.2214024721628189
  0.9984733011608525  0.0486513684573574  0.1156023257431468
  0.0617664500212314  0.6856063728443684  0.2860447234685569
  0.9885975022280917  0.1352013199936243  0.8113177784041797
  0.1912467785450893  0.8746946426426064  0.9926327816593954
  0.0515620683966402  0.9901734593997125  0.8660007440720248
  0.7896952863542394  0.1296626153609041  0.3409329078359390
  0.0531255068151742  0.1346452697927617  0.8736763883512503
  0.0637127225366491  0.9691194242262952  0.0166057265308135
  0.9367559902685524  0.9894561595605884  0.2965285869806521
  0.9888623491679932  0.9936982691087463  0.8064367760402096
  0.7967553680771936  0.8573404811358408  0.2878942287920521
  0.5701167350987243  0.5696074762369341  0.8531065254265791
  0.5698532339645280  0.4264639513168745  0.5744996350731674
  0.5705774199159777  0.2850595764782445  0.8545274238988709
  0.4984511234752726  0.5004796142527367  0.2167555609886449
  0.7111686993255019  0.8574949397819541  0.5731578039371906
  0.8577614152630966  0.9992464758418727  0.5703467943147617
  0.3609217515419808  0.3547457173714088  0.9247870029715841
  0.4986964737768712  0.7850194098342361  0.9259372707970828
  0.6392238113062624  0.2196518959095277  0.2135073059045815
  0.7083193151938485  0.7143507516497815  0.4357630036385507
  0.7794808211728470  0.7859988394508006  0.3664284882269680
  0.9264777561379981  0.7840338775149901  0.6415970221110141
  0.5009540151998257  0.2117631784126631  0.6432010015189947
  0.5013962904468402  0.4977582776377920  0.6428425386912076
  0.4967493456472092  0.6413475405147283  0.3625573777675618
  0.4973656347033251  0.0735463451578154  0.5027502222157620
  0.0738614592297134  0.7828934778772995  0.6400810481346186
  0.6369731532776001  0.9296085910796007  0.3622667770159445
  0.2949543292994659  0.4268625273576211  0.9932643923121190
  0.7903998566921475  0.0709031240058616  0.7874673004951458
  0.0988000573302193  0.9204285030941641  0.9280312145375563
  0.3598215979740935  0.6434604639093119  0.9246268737749443
  0.0748768798227155  0.9277723832468463  0.6409016128380534
  0.6430558862712991  0.9265399578432413  0.9268181104351907
  0.4291310616534584  0.0017866504441239  0.5725076513362636
  0.8734904859779270  0.6937917966936931  0.1115897012495043
  0.9986838332406733  0.4396805381251109  0.2874176790759930
  0.8983113812522368  0.8628236394763601  0.0683700675362625
  0.7836443753766070  0.7860167197042212  0.6435805802303319
  0.0705870086661591  0.0652896937276433  0.7881154697113241
  0.8481468594885483  0.7082472615014849  0.4408999603551011
  0.5702138739531963  0.1418044521759091  0.5719797562722591
  0.2921470907482643  0.1476403379158721  0.1426326794431602
  0.2881690055455465  0.2828416034669787  0.7122044763339445
  0.4310453745999037  0.0008517683136008  0.8549170668406791
  0.8559907895962072  0.5690917576871047  0.8491649242001233
  0.2971649567080774  0.8566648538555011  0.9982394130858331
  0.2874043270205222  0.9999891985428252  0.7114146728627351
  0.5002720694007453  0.2164125747757962  0.0719703231272361
  0.3608591416215862  0.4999405346428929  0.0661220753727312
  0.6437893293991130  0.9279060079788095  0.6431352152963679
  0.4284789262919229  0.1430401651318697  0.4300421187757408
  0.1587884320275563  0.9942294534909806  0.8513101450980216
  0.2861407979124224  0.1425268066571685  0.7130046735419661
  0.3587008431651837  0.2116152420912853  0.6432384364293976
  0.4295495488427983  0.1423433410837754  0.5732690691826718
  0.2886369700596698  0.1488913420865934  0.2884529437533935
  0.8921625252257065  0.0395706033035245  0.9620858250657801
  0.2195413028281029  0.9272731327786802  0.7794560832426731
  0.9279076175495200  0.4991437350048686  0.5021564778497328
  0.7828453906926981  0.3630104890314003  0.3623143665084861
  0.7858113850723735  0.6411026194318685  0.7814937396044001
  0.7078335270369336  0.2942094368243219  0.1490398718453680
  0.6380868712508271  0.3590916044357220  0.3631828272227147
  0.9954623932368032  0.7101357814599331  0.4362133308580118
  0.2902785102318174  0.7138490640518652  0.8538386603134908
  0.2884597967045897  0.7129588521112283  0.4331224341498314
  0.2935583815765039  0.8512893166303163  0.1427102610157809
  0.0925219345450587  0.9235819872500388  0.2284392403287942
  0.3603026698494580  0.3544450571419063  0.7809701878857249
  0.4311977534563112  0.4274417445481358  0.7138176160447058
  0.3615594814863357  0.7820343888011078  0.2146015929728379
  0.4307803918391063  0.2874486136609988  0.1423942854281149
  0.2171760995918751  0.6419316565152537  0.6432947735798649
  0.5007051030018075  0.3546031877153219  0.7828386300822830
  0.2212724574952672  0.7791735402314455  0.3620947269083943
  0.4981338192038833  0.6404825352802310  0.0688642714469507
  0.2928432319485976  0.5693128701405965  0.9908237254528915
  0.6399809579807648  0.3572905885428532  0.9255317773365829
  0.2878869703625471  0.4275781724923456  0.5730662068809358
  0.0863978905683690  0.6306473567893478  0.9138663856800940
  0.7143492223685316  0.1451679402001066  0.1431535680513289
  0.4977155199637260  0.7823290706655054  0.2170943983518417
  0.4304459673644151  0.1433392874282117  0.7130285648836422
  0.5015894503258953  0.2122413075308117  0.7841822830153736
  0.6390509413952814  0.7861903314567457  0.5054251353606630
  0.1585321181837094  0.7142111500433310  0.2807181197878114
  0.8557148334829989  0.4315763596627916  0.4307161001002451
  0.2930280982078989  0.8553925927740715  0.8504352995663510
  0.9626095398433291  0.1228365896441470  0.1851623132325898
  0.2901161968829400  0.7138549698906511  0.9967492755656596
  0.1389709478257845  0.9981124802918069  0.4221529922234188
  0.0171103468177962  0.0699851252960648  0.0069324936739973
  0.6897621422084754  0.7111617516466077  0.1449034610464569
  0.5693639994300429  0.9989712238896195  0.1453630742240615
  0.6379482243773449  0.7852409970070302  0.9273165727540543
  0.6394107948938023  0.5004742501616646  0.3633217743047624
  0.3592233489619883  0.7835232224361088  0.0678542853796743
  0.5678123383477617  0.8559486294237669  0.9959332240141713
  0.7869425884698510  0.9260621005293113  0.7843284795944188
  0.9314949658846079  0.2347251756694562  0.2140896967121706
  0.9435657015917784  0.9137196924717219  0.3714676605456241
  0.1123906692274592  0.0531529455014780  0.0710509315092003
  0.2893384239121582  0.4306012222998588  0.2889140772352701
  0.1573821538937384  0.0108214969440120  0.2840354042138244
  0.9750469575937141  0.9773271533503712  0.1932837087859030
  0.7769808761144019  0.3650333458462001  0.2228972021971472
  0.7262260861922897  0.8528655917870912  0.8659952105065883
  0.1566542832778439  0.4231022600896193  0.9894935000323726
  0.1439133990566502  0.1405797250598131  0.7166963757366194
  0.0027130681086334  0.2945377641562472  0.2845465266015426
  0.0876208056940362  0.6331178621813699  0.0596316550635359
  0.3579382193518378  0.9304972575266331  0.6419477419728211
  0.2265030043936288  0.7877638597438154  0.9247808509062198
  0.8647370926893170  0.8652689925300088  0.8514258572242049
  0.0670822984126561  0.5095627947737871  0.2202099693239923
  0.1404748983893104  0.7201914588217729  0.8570619668946448
  0.2176293755798760  0.2117084322205182  0.7840510338309113
  0.0751794135223091  0.4992037664759569  0.7811014505650877
  0.4288283541162199  0.4273249251904652  0.4324135381036199
  0.6373104499307954  0.6421230477717161  0.3651207080666409
  0.6357952226401009  0.6415652279447032  0.2217869439733171
  0.7152902396858858  0.8576979832462555  0.7157098636726063
  0.7153057347720163  0.1437494797094316  0.4239728492973079
  0.5002939564894474  0.4990396660569437  0.7837165067488348
  0.5652111371266814  0.7105082032299790  0.2918885013663797
  0.8898445627258450  0.8092930860812234  0.2706322925112885
  0.7061265073141331  0.9893698971312659  0.2841712185181711
  0.8237549925272266  0.0025102509971344  0.0415826362833796
  0.6426347562650130  0.0715960114726786  0.7846647936994636
  0.2143902150456449  0.0702057187856104  0.6430988436178144
  0.7851421242054800  0.0710090414652010  0.6397763311821747
  0.5715842167776720  0.8588324469896350  0.5736860945046881
  0.5004216329170147  0.0728242471636763  0.6430992460582750
  0.6933838799509545  0.8553248250579368  0.2967762311453891
  0.7022672568161510  0.8555962292162526  0.9972204387263250
  0.4292484117022471  0.5718123489891912  0.4326536881723427
  0.7746497809441587  0.7758469591725304  0.0561591948197351
  0.3584565756045186  0.4978472435604444  0.6433918372531877
  0.9286170835530546  0.6391874934603355  0.6433233305108722
  0.7032234872305997  0.7093589507018045  0.2983590013303630
  0.5692335009657885  0.5704533606499851  0.5751000989629357
  0.6372555886057577  0.6387396642784199  0.9222680497711196
  0.7825355100626881  0.5071846548675367  0.0702093058654619
  0.7788193776588994  0.5008648569290634  0.3646679657527603
  0.1551739221386863  0.1500089702692280  0.1455803517014284
  0.0533176965527923  0.7938483992539972  0.2498368908897809
  0.7072238358744253  0.5731045026249414  0.2941981438039147
  0.7754066117202599  0.6403742566297669  0.3688745697685552
  0.8565734396820529  0.7103583586375144  0.7097207833023911
  0.9261383128573356  0.6413412656553955  0.5041082997084012
  0.1464243398930919  0.5700006771616714  0.4314211128200111
  0.0858214278482964  0.3658723362516212  0.0691957068822370
  0.0732704562241422  0.2173327440907385  0.5005426539660777
  0.5717834271360712  0.1423609054046907  0.7139170028983477
  0.7156211631257684  0.2828613648307811  0.7146664603811761
  0.1179460204727745  0.8025396365332332  0.9632769587295791
  0.1405365773905832  0.8571920039515619  0.4227138184062414
  0.3603588870303886  0.4994037936221213  0.9245512856862635
  0.1445547591482688  0.9981846141072555  0.7137243042782854
  0.4299684190678577  0.2821718213800526  0.7143774870774972
  0.2912534805870621  0.2839455166609942  0.8510870372121213
  0.2205962253873069  0.2186716267834539  0.2154764946452663
  0.2183331992017113  0.0697581309279518  0.7816637614986844
  0.1473295772391158  0.4251602001803795  0.8492087082159610
  0.0149867672642738  0.8574643075701593  0.1327523675071402
  0.0723979249265114  0.3595611242095249  0.5007300777150782
  0.2214233249534950  0.2169006625025882  0.0725025468011017
  0.3609729162136505  0.0726019702869513  0.0716302355846872
  0.9282690985128413  0.0731300715388692  0.5007709616392618
  0.1339820896483320  0.8183025116973749  0.1661993375966034
  0.0685152020255582  0.2055012750177100  0.7883561652216795
  0.9298878309615272  0.5156177933356035  0.2188786835919205
  0.9497315140775230  0.7735240056706860  0.1767467228295853
  0.4286005227105438  0.8552736051463770  0.2881290718003541
  0.0676682370569488  0.2178040418272874  0.2077675162534377
  0.0019282477959364  0.1412702004123088  0.7055082249535652
  0.0044903991356009  0.5871395113703328  0.2962625849792935
  0.1653690928645991  0.2902666306916110  0.9978737799834906
  0.0752678062668945  0.3597447359789877  0.9291023616904923
  0.1509630536052733  0.5668788113176925  0.8470996035615209
  0.2187891868634166  0.4971633237751363  0.7818284801485635
  0.4311742673437621  0.7134920720187680  0.8551039875715676
  0.0001568313321265  0.4289883762992990  0.5718852832016534
  0.4295938518650264  0.5698453742930401  0.9950689071109668
  0.5684640123954727  0.2878852459183841  0.4331249552084653
  0.0031404835141482  0.5685542538232375  0.7117598863786070
  0.2152393846961619  0.3599151391619133  0.3575441665701937
  0.9255756919059717  0.7899929201608045  0.9180070742422006
  0.0712356358531736  0.5051834866230543  0.3592907458958954
  0.0032416247576481  0.8522384711641182  0.5721126971412490
  0.7698384161117586  0.6466164063176686  0.0766337678503824
  0.9291022629424154  0.3578098816810632  0.6417926046569717
  0.7065992463449587  0.9956781509103387  0.0011535497259870
  0.1446041233634077  0.9991952415885802  0.5694809831389424
  0.8572737283096976  0.4283435856179242  0.7120169023242284
  0.8546650788883154  0.8551635478762691  0.7077618023414478
  0.9052307689479849  0.3751708154613949  0.0826884339199416
  0.1454415221695080  0.5705186528444436  0.5743523494756316
  0.2300805687548430  0.7783674787120011  0.2147596745457147
  0.7848839458683464  0.4976094876761780  0.6433704056796751
  0.7084161114444038  0.5699141141054537  0.4341926084123376
  0.7735857806484890  0.2145011142945017  0.9320961678311196
  0.9320831150590787  0.2237778017327864  0.3579807303230781
  0.9298204687926611  0.4995539200702235  0.7817464881980701
  0.9998715149344712  0.1952798302546512  0.0124604132536690
  0.2112723266093084  0.9292250262077962  0.4967559482950232
  0.2261810675475880  0.0828164872259853  0.2181092900509222
  0.2889153478020167  0.1419630139681418  0.8545251552578823
  0.8122336547600468  0.1328316477043698  0.0413382606014204
  0.8701742915656812  0.1321992114922506  0.8536606373567810
  0.0057426736869882  0.5663261036348176  0.8496278807039932
  0.0751438174534467  0.6408636816807937  0.7812111563010086
  0.7063214240409419  0.4295562654335222  0.2952130075953814
  0.0772505013974524  0.3585925536791059  0.7792322068554463
  0.7105586978276316  0.4282009337546037  0.4319824307278097
  0.7816989460589947  0.4979595076931345  0.5037087801421960
  0.7065834457543266  0.8557114902696576  0.4354157038481024
  0.7705214584450117  0.5002244276387671  0.2283530133521043
  0.8577610324846768  0.4284552538769726  0.8539444030047090
  0.7138186942749251  0.4259990537937828  0.7133817325283780
  0.8530675295827130  0.4373086337406972  0.2916135296349457
  0.8210940717853995  0.0319975394520162  0.3337241818343313
  0.7124142462402061  0.2885002534506733  0.4309992763980937
  0.0019384506721987  0.7066890151790499  0.8479301947445130
  0.7113324685402252  0.4269308031387895  0.8526675455397610
  0.7790501714017513  0.9329140924105199  0.5030580647002788
  0.2163650416644396  0.7857016233051536  0.6427074576879900
  0.7127541435593874  0.4267626183735338  0.5736911874669290
  0.7144835598902990  0.1424363330100699  0.5699129441424914
  0.2164208261895164  0.7871708711508840  0.5012191434267145
  0.4297012991864222  0.0007493201128108  0.1443653590400857
  0.8500686486458142  0.7148075033399824  0.9825345414359046
  0.9091827514457829  0.7832587692184624  0.3849598248657417
  0.8455969035355738  0.7050341522461606  0.3061041981399776
  0.7623317311944676  0.7786752165340365  0.2350767899104801
  0.5638385748843314  0.7112586567347136  0.1439970088972664
  0.8335047233943225  0.8252796730790937  0.1529272551462116
  0.6990623366224642  0.7040156926609017  0.9978149546953207
  0.7796932902403647  0.4985510702086692  0.9208255528856912
  0.7108505385415647  0.7139417957320150  0.5754022754268512
  0.2170131584937571  0.0762585953820118  0.3576886828369100
  0.8840759627842808  0.0486641660104843  0.2338858635510990
  0.9704701737721344  0.7180322940930536  0.3082569701692913
  0.9755348048579098  0.9228642393241324  0.8798592172517646
  0.6414041413237317  0.6424167462587358  0.6446584697414128
  0.7834177975437157  0.6412300903521531  0.6426895720337057
  0.0001703636196784  0.7113011298163932  0.5736195223658969
  0.7166790841948538  0.7181076928998341  0.8564867660165167
  0.7769762233710678  0.6517305755470921  0.2177730223182939
  0.7069257146079537  0.5724639698125945  0.1486047650677341
  0.7091661361437990  0.5717453009749375  0.9960837528131110
  0.7119051047099469  0.5707603731885742  0.8519600255596335
  0.5704107513148443  0.7147134853852438  0.5745360206172191
  0.8624753126630984  0.7051999101536168  0.8468220230727866
  0.6389148521176058  0.9248240737671478  0.0736784269451703
  0.8513466978646003  0.5684741187085166  0.4372125288444752
  0.1449109806377702  0.8561826029529214  0.5708624920485824
  0.7761378783308686  0.9233659116147444  0.3665660272345883
  0.7867627837282488  0.0717262049242353  0.4995610966241605
  0.7600779601135601  0.9059206366057472  0.2088765779566674
  0.6975575839721957  0.1602395597341702  0.2939915452917132
  0.2311459423671893  0.9241222181879488  0.9153974851212792
  0.0962448134319077  0.0549953423419618  0.9311461546950346
  0.7143864315070982  0.0018752112655479  0.8545639938663837
  0.5667802083257555  0.8517283141189934  0.1433662486587710
  0.5720104082186167  0.8573196654968741  0.8558838666089479
  0.2211761097403815  0.9162277902528645  0.2143752900076835
  0.1693723888660637  0.0099355055936243  0.1583535256275575
  0.7133439886470657  0.5699251235398046  0.7134597039755849
  0.8516039671515995  0.9993609525041308  0.7071234321878554
  0.7913316074467543  0.7857783123994220  0.7815503561844229
  0.6407274373180735  0.9310258372975764  0.5022226760765156
  0.7855644235561118  0.2266738156315189  0.3586791100624103
  0.4285323504169454  0.2839405663262202  0.5732624424404090
  0.2134599076456965  0.0706972821877672  0.4980400888939976
  0.4304104117510791  0.8561684741399798  0.9976678474890016
  0.7842412522277236  0.0744361373390482  0.9293325423624810
  0.5713150369840454  0.7143451601296826  0.8554548174196168
  0.6452332448980095  0.7870643413407459  0.7868307803298080
  0.5723792041234286  0.7147750501581512  0.7152019208141301
  0.6426715170857482  0.7872181647172400  0.6447870959666000
  0.7119841895086050  0.0023991392073027  0.5720197559734090
  0.7090693876194821  0.4351747868805390  0.1463288342216092
  0.7852960644399273  0.2136975912454706  0.6414819443104293
  0.0675934087978654  0.9220353056605094  0.7884341879176230
  0.9296351150682604  0.2143501189731961  0.7768754245665324
  0.1140418247070854  0.8805500127315640  0.0540193521670062
  0.7092801566888649  0.2914578189026524  0.9995112869013375
  0.8579534937314985  0.2864641530633630  0.5703606898675198
  0.5697659178140230  0.4290855150892208  0.9972498524976124
  0.7102863742182582  0.4314277500564722  0.9980477631422209
  0.8645589609956792  0.2778369404900191  0.8636268270141395
  0.6379766007331313  0.3620284818996620  0.2178334406933434
  0.0800014555844906  0.7651957884006245  0.3627428110179251
  0.6410131881981987  0.2185016900229116  0.0740807927519143
  0.7773783823161149  0.3678135272767225  0.0758774186306890
  0.5006629172685128  0.3561939855344661  0.9254138154585225
  0.7039237116831998  0.1431401270608859  0.0031170933781098
  0.0066432116603486  0.2972761050593282  0.8400553287520841
  0.4995456176693519  0.0727864578184526  0.2157906355655632
  0.2229984255921604  0.9284927907641288  0.3559796394172690
  0.5651977606091511  0.8557938251859009  0.2904678660588977
  0.7897733024703272  0.2111690925266813  0.7885863093985596
  0.8653529855904496  0.9292229657646056  0.2674688763183725
  0.0019856750073548  0.0010824114454352  0.5702624874638837
  0.6421524973387952  0.2135992547996260  0.5003083339172045
  0.2147662756953390  0.9290765950242907  0.6410561569868537
  0.7061579240919019  0.2919252664436332  0.2919678606300974
  0.7762976913611063  0.2240657505441580  0.2240562207954817
  0.0049333970626394  0.9971734408712094  0.7029618058797354
  0.7763605226877545  0.2320785432352369  0.0781095918388240
  0.7844174694569883  0.9431006486020046  0.9305392963789750
  0.7138012690572141  0.1418707587405771  0.8565344910911418
  0.5731271883477085  0.8585413813217863  0.7152402282090974
  0.8559928658514506  0.5691818170337973  0.7115457892876353
  0.1439248389939023  0.8564734978156640  0.7121234206443876
  0.7826432348396133  0.9278029424937307  0.6407744780890900
  0.7856919969048552  0.2143625305747855  0.4974313078047753
  0.8503643425012817  0.8610820783451674  0.4484828804954272
  0.7796276244536081  0.6397121118241325  0.5067176310736482
  0.8567433110865109  0.9506116833570731  0.1473088303089322
  0.7008813564596551  0.8386232441299424  0.1397608565166246
  0.6308897776673806  0.7806855130618053  0.0655948047744189
  0.7759963172668899  0.9028934940923595  0.0717625120629891
  0.8212538897124351  0.8367838264020820  0.9683830738015011
  0.9264048123132419  0.7792608390985655  0.7773160966700746
  0.8549228716083135  0.7115543977573364  0.5741286660151288
  0.0851262062256628  0.2410462755703998  0.0847317950532833
  0.2901803957921613  0.5716049741301056  0.2880694878141375
  0.9133093077707755  0.5070429448250915  0.0701671464407847
  0.9368741622870957  0.0724362058962409  0.3590723454551046
  0.6358174831629252  0.9221592842985519  0.2127052538485606
  0.8467720198968017  0.5732909804253141  0.2928330494992331
  0.0458871502892484  0.1351206129213098  0.1037925980992091
  0.8479071687247015  0.5704523118153842  0.9808910552717902
  0.0889668443829542  0.2215249513142983  0.9182523498477035
  0.9286539378339481  0.2159758471865153  0.4983382966140363
  0.0001622728400243  0.4328756511037665  0.4295939308265889
  0.9994954263023913  0.5716624253355511  0.4340412707438055
  0.0014769925310203  0.4276281441086703  0.7123018857343225
  0.0769581166686489  0.7793203600537963  0.5031572344010240
  0.9317568588629815  0.6368139678608625  0.7789649556437133
  0.8578362391316637  0.2905462338878602  0.4295875660024389
  0.9998494196427652  0.5704202521193460  0.5718081456625409
  0.8556545218326510  0.5688931778921625  0.5738592930474206
  0.2183478672063523  0.6390519297082876  0.5038307985728523
  0.8549927804013456  0.2939939338429770  0.2898465694908118
  0.8570767480172579  0.2845425851445791  0.7124720252438275
  0.1592851792908051  0.5702430565557657  0.9854684397010938
  0.2884631185111243  0.0003371925240757  0.2846984981045877
  0.3603469108313706  0.4986269767891854  0.7823208728298841
  0.0012642207967530  0.0067457835161074  0.4365392403190482
  0.9815169987382485  0.3185538346394359  0.0273797908177782
  0.9283986870213280  0.0700554396061440  0.6396013344187356
  0.0748549642723372  0.2221238279131059  0.3571705764991195
  0.8733525668731489  0.1805762627890977  0.9653649028810081
  0.0721846967192576  0.3630875586605127  0.3561838466813854
  0.7697955592037129  0.0929555420741322  0.2396348922437800
  0.0012229704713982  0.2867099224766370  0.5707302185419673
  0.0740841103106029  0.0840399661941100  0.3547181591785530
  0.0019642399520765  0.2907186642414089  0.4291982165168671
  0.8358472340047693  0.5671302226372406  0.1639360143568153
  0.8449108701240943  0.3003106920057421  0.1547878585802921
  0.6325751417268720  0.7804392490403192  0.2232497782321261
  0.4305683427184158  0.9999422015671717  0.9996912231412106
  0.9381628847079623  0.6353390108573057  0.0313553286915359
  0.8551551907335010  0.1420471662742591  0.7096487080188694
  0.6391754884846407  0.6414192285211601  0.5052412211758835
  0.9267040419148265  0.3576751521591455  0.7817108644921621
  0.1492934799968720  0.2887660540068989  0.8494292056066277
  0.9799242040134108  0.0613125932216780  0.8825004427299932
  0.0350957467846576  0.9807661549891004  0.3159244217535997
  0.0734972497285942  0.4991106145805416  0.6412995979318087
  0.0820516442965957  0.4938315447978052  0.9194871527491564
  0.0036415790374823  0.4284901097904768  0.8514310877654343
  0.1001016869117551  0.4957986504220246  0.0475310179327604
  0.8547983274980268  0.8570710627787193  0.5728738524431962
  0.0012983874656953  0.1438287669485799  0.5693895922882767
  0.0025990450264229  0.2861459502000942  0.7111344669104521
  0.9292212762790355  0.9269821370552105  0.6383037293240488
  0.0745510532444279  0.0736421067564383  0.5000780184692019
  0.0708906962845316  0.7657860011270903  0.0645692286331157
  0.0038152753139128  0.8798194164708697  0.0015624464867593
  0.9285447653319228  0.3638293907658999  0.3586013122906084
  0.0017724728483665  0.1479944736277358  0.4291215950647043
  0.0740596176939403  0.2136776340720597  0.6416618757346897
  0.9354390980021571  0.9248348921955214  0.5035073383253840
  0.0403603330858111  0.8181299954925583  0.8863303737359577
  0.8698213205928280  0.1567157481660770  0.2855772222294654
  0.6431682534108140  0.2130616812919686  0.7845743165520043
  0.0735073078193512  0.5008821179574257  0.5022256652191449
  0.8453853242138700  0.4407112471313879  0.1569689874362875
  0.0733757723099101  0.3567054175130676  0.6409704531622576
  0.8661229268561772  0.9971278557477460  0.8519871099889574
  0.0009229410066884  0.7111519704645755  0.7089696857635959
  0.9300273062911139  0.5000899037383501  0.9241993129829547
  0.7858555866988564  0.3561004123651616  0.6428683099951057
  0.7852172811715639  0.4979165956599865  0.7823142562917145
  0.7871784073304219  0.3541345990794785  0.7849500772204868
  0.9979396507949102  0.6744379833699304  0.1210289753354229
  0.8576141589561592  0.4288590875061300  0.5725441270593982
  0.9294723313542254  0.4982296238963777  0.6426969186261610
  0.7850271961092901  0.3585377632801526  0.5015120453189560
  0.9276170544496831  0.5058113001661912  0.3595405686145802
  0.0187979451085530  0.5472620057708603  0.1117047756702800
  0.2869299973120785  0.7140227431052470  0.5727421730685819
  0.9777919631428132  0.4349298153361045  0.1486085140380596
  0.2166751594872298  0.5020571008787549  0.3591545310545330
  0.0025399387993605  0.1579145088177872  0.2904821402981975
  0.8501543103968739  0.1660900595833706  0.1592819963966671
  0.0236224362408025  0.6955858912701897  0.9734376257048616
  0.0622773457432760  0.9672583048222686  0.1192809055671757
  0.6356795556792550  0.0701267367540907  0.0747094433122593
  0.9523156307089834  0.9753501123141844  0.0603827430067044
  0.9819336419595160  0.8842835761168771  0.2577790838750692
  0.9280756365190125  0.0659927187786095  0.7689466671437641
  0.6468517824036960  0.9269175093719370  0.7875434302474883
  0.8629677389201473  0.9948612262919789  0.4360915044798077
  0.7817657070782219  0.3593998602105018  0.9236758193786118
  0.9320123156541313  0.3645523284019282  0.9263956133749407
  0.0741398743606209  0.6401862881906207  0.6418652981701819
  0.0159292364667265  0.5639452432914491  0.9858498566000823
  0.1625501682873973  0.4320877715022556  0.1428418178321491
  0.9939508007180948  0.3103064346888449  0.1469644157364567
  0.9186581680052721  0.6362621889554531  0.3701673662132110
  0.9261834577987734  0.9263154131285388  0.7671583917287899
  0.9296641322418840  0.2141634142669084  0.6408230422725818
  0.8571707889490727  0.1432692474506068  0.5692699486494687
  0.7137819437891864  0.0049991731129852  0.4252105594689450
  0.9293506850893962  0.3600377731248552  0.5003136888051489
  0.8577554803789392  0.1419865563243143  0.4223601030955347
  0.8141943686990777  0.0630657463114992  0.1361263583687636
  0.9054301864656366  0.2331312081519379  0.0769015150200114
  0.1441287064307687  0.4345846462786158  0.2866187169372015
  0.8443263253116677  0.3009233950874000  0.0017293218726131
  0.9119687539797278  0.6492687350794958  0.2219915244808818
  0.7154801319879266  0.0007274703063877  0.7151190980331362
  0.5710557520751253  0.5699257721639738  0.7141240497448819
  0.9470704720843587  0.7646693624876182  0.0477919910392777
  0.7800089824352771  0.7837096754632156  0.5057708046967629
  0.2933883033527557  0.9986970478665099  0.9997761168958076
  0.2168855276806438  0.6456873510422330  0.7832825965176632
  0.2122631567206671  0.7913670965687474  0.0619968192454573
  0.4303225830958556  0.7138668129205690  0.7133954787964314
  0.4301330487249960  0.0006893119653448  0.7125134887731776
  0.2859706378883644  0.8586834471235473  0.5714329764429485
  0.1587706360961677  0.7068050870681393  0.1329029710912230
  0.3575605162674809  0.9289861209878852  0.3587811733113563
  0.0903918500062572  0.6363895108811805  0.1995086012724711
  0.3589121001679338  0.9267717871479456  0.2151863752976288
  0.3612023106898848  0.9274483414451473  0.0722765024789834
  0.2919891863089076  0.5686523786924959  0.1402169595732817
  0.9218637762728564  0.1087397657116130  0.0660324057140738
  0.9268973857388640  0.7832603181256795  0.5066223273067806
  0.3604374326918066  0.0715468261505708  0.9269305318490427