 B Cr Fe 
 1.0000000000000000
    20.0899999999999999    0.0000000000000000    0.0000000000000000
     0.0000000000000000   20.0899999999999999    0.0000000000000000
     0.0000000000000000    0.0000000000000000   20.0899999999999999
 B   Cr  Fe 
  41 206 480
Direct
  0.7309087179534901  0.7896896707402088  0.9307737557280772
  0.9443552260962174  0.7838828456366838  0.2589613015069329
  0.6432056060834886  0.0704357257279203  0.0022347893378629
  0.2967113054868962  0.3245728651647613  0.6443879498677009
  0.9487422547665740  0.2602048057396406  0.0698076560401302
  0.9795261850212548  0.9168405339917771  0.0407377420890037
  0.2329718542651170  0.8530400043366744  0.0861412551035286
  0.8820578581107688  0.8769605847231744  0.3590684988816916
  0.0578995855852783  0.7517054331060165  0.1205807466573035
  0.8358076491030150  0.6874444914596917  0.1477544470412006
  0.7894284641259663  0.7896005079181049  0.8708377706151822
  0.8730041601568044  0.9272471777046866  0.2116528932463277
  0.0840000679842593  0.8358561974120869  0.3105981267712807
  0.7881100418073433  0.8551261082203576  0.5664799407503924
  0.4982564279139903  0.4310210225886235  0.2849100227367560
  0.0752942133234366  0.9216649095814861  0.3010348810201935
  0.7210528324111907  0.0758298448670979  0.3445558643016420
  0.0061922852646278  0.3255662716244893  0.0607161896819471
  0.0671890145714637  0.3191720785146864  0.0012834962366288
  0.0137410479778890  0.7866104978970023  0.3157897050815738
  0.9822302920720775  0.2004705863394920  0.1291630309947814
  0.0022213490197329  0.0758947060669122  0.0060779147440536
  0.3508499315300119  0.3156683049219333  0.5776579695803330
  0.0695138160827489  0.9698725469812303  0.3745681976281168
  0.8250236692208135  0.8809304452305536  0.0336711886058205
  0.9987381185090720  0.5021056621358920  0.0038660281135157
  0.2191695531184650  0.0740506552995461  0.4269566296843041
  0.8097869227826554  0.9943484895372552  0.2651374923477074
  0.9906887294836040  0.1220243361447644  0.7994330205754087
  0.3522429326205961  0.2975930980423747  0.7090451624271082
  0.9844711297496930  0.8478247919678412  0.4716973607130096
  0.0584028031807269  0.1428221160445395  0.9960403734337486
  0.4252382374888300  0.7824974806172057  0.5000182478017838
  0.1196855760087222  0.7972389111733240  0.9375838226968454
  0.0564026863686260  0.9859268389710294  0.8713295986481091
  0.7804795301334861  0.1354052194584121  0.3486414792683184
  0.0654779576801465  0.5836083016898557  0.2048150084556222
  0.4906554418032175  0.5748027747493172  0.1452746412554557
  0.1428455133075409  0.8410527295735197  0.4601000204402455
  0.9137317937208203  0.9799267375884443  0.9184231978413877
  0.4299835311810549  0.6339937257624624  0.1469941029266036
  0.4279299233328382  0.5701160814054503  0.5698103868806139
  0.9288455086617019  0.5000240054024978  0.6441049382933333
  0.6425840800954892  0.3567230112701726  0.9268335215946122
  0.5003399336361241  0.4997513268776377  0.0715431147891698
  0.0220776818995584  0.8455257329260671  0.9823872383080491
  0.9275891427237949  0.7848473799203305  0.3703112185281595
  0.3604053649758228  0.3576265076035050  0.9263661903230050
  0.5012451583279840  0.6454100836032812  0.0698831910231803
  0.9343534648440330  0.9328491961944436  0.6454100705326061
  0.9367087182672339  0.7904684462381513  0.7896696376861905
  0.7093162390223333  0.8501784093157736  0.1427871613633662
  0.8383453447848193  0.0161704950411008  0.1582828607571869
  0.5025801415867930  0.2147451061359445  0.6412027405723304
  0.5055787900802335  0.5028332691334317  0.7893058692862411
  0.5758019754166124  0.5719349884128070  0.2841136341993461
  0.5671730638531821  0.1500620732192385  0.2885565713409862
  0.4293944640581258  0.7124475528555630  0.7126995777466877
  0.4337857096556259  0.0039899651279608  0.1412713039430397
  0.4304560079103217  0.4291959960375736  0.9985449796452877
  0.7120583431973829  0.2851122872137519  0.9991353344887687
  0.8548441746977617  0.4291205933052072  0.2884469935300853
  0.1400570715531114  0.8565619394139234  0.5737647135252559
  0.8507686074534063  0.1380194697323971  0.8502049132079216
  0.9336565467771537  0.7814988878193661  0.6464897064535222
  0.2319348809613529  0.9234874262348837  0.9157009279057822
  0.2931232568865826  0.1440403081826845  0.9973823739025636
  0.9308174022711797  0.0739115321947218  0.3700549227565895
  0.8682065533528873  0.9825585897310618  0.4331001417715886
  0.6436860290461193  0.9278121013647815  0.9284296017516209
  0.9989813036081241  0.2875873908819326  0.4304845580063035
  0.9213150043031617  0.3598778969878886  0.2177395996660088
  0.2859226077008623  0.1465159990630210  0.7141338384988910
  0.3539023694052360  0.2223348323288670  0.6396677630939653
  0.2841198571355647  0.1484167681583169  0.5749984160800091
  0.2887715965342931  0.1450467245434479  0.2826387364294153
  0.1459564214667245  0.1406455093790955  0.1358747216815991
  0.4977536266339133  0.9269427343729383  0.3588160920423338
  0.5719557260166579  0.9988420272583168  0.9977237167550462
  0.3575497151212858  0.0781805909366163  0.6426170249489934
  0.4290645018067837  0.1493128065166282  0.5726642109146181
  0.3612596271075614  0.2151939316735333  0.0693450427765605
  0.3601543240396131  0.2182674679152779  0.7820545153269699
  0.4319238266725614  0.1469069617617440  0.8531988076971142
  0.7842036304215713  0.3574798616017139  0.7831062660639642
  0.5712284044505196  0.7133521584352878  0.9993528027374665
  0.2883083739690562  0.8558954785875040  0.7117645631875819
  0.5727058536395676  0.1441325534595272  0.0007045269736550
  0.3514545621741388  0.4937048753072011  0.0607953813923800
  0.2933203872347641  0.0033833882169579  0.8526634702608200
  0.8561453437002295  0.2883385502383337  0.5710090558750154
  0.8493775746767581  0.1477816856471132  0.7057727822587165
  0.3610637744376522  0.3602150031324572  0.7882012529785436
  0.4998054416014233  0.7867530503788537  0.2142801027291400
  0.5735599514024843  0.2862274938255131  0.8558952580858098
  0.2891002727616979  0.4155502346938518  0.5762851983364677
  0.4287352591768646  0.0027144110342090  0.7110380051114272
  0.2010746350381633  0.7948703871223763  0.3646606655974959
  0.2855064522844064  0.8584035448142542  0.2812043876627185
  0.2254612412281154  0.9409592581532494  0.2037544647950615
  0.4283777840727848  0.7122897772646457  0.0011926539847643
  0.4995369976717462  0.7844811085335064  0.7830941400395417
  0.0802017380587104  0.6301121117425424  0.9171618781062967
  0.7087457325759754  0.2929833042480197  0.2885493035483014
  0.2190357618906764  0.4918941443896736  0.6430730266400578
  0.6428129213578305  0.2162940423269106  0.4992435353096670
  0.1388637003374793  0.5615432300706675  0.2837373901510631
  0.3573373066501215  0.6375477637209895  0.0696905294639676
  0.2876006558318224  0.5679875397802435  0.9962927881911252
  0.2887894661741414  0.4264675452207309  0.8555727251257164
  0.2847239675572870  0.4201812824431204  0.7114132650906876
  0.7163569755018259  0.7114408293750881  0.4269794988080815
  0.8561907195054492  0.5685413515892606  0.4317723279999641
  0.9385012048117272  0.9362352472419612  0.5123372106697193
  0.5721692612491102  0.9996049181256297  0.1491572907439990
  0.5013621480382855  0.9289870534007479  0.9270244885657208
  0.5036321680077781  0.2141074684709398  0.7857190359969262
  0.4297840008399167  0.1494963564081812  0.7108688940403568
  0.9284701407569951  0.3574188707806698  0.5019942694911881
  0.0186204339489572  0.6718886330834917  0.1681068725118256
  0.4390035963186146  0.4352411279498801  0.7220961652044632
  0.3454861470930832  0.4968292003908690  0.2205968346232414
  0.2797125384742844  0.5671101436818471  0.1402899633913524
  0.6427261618080903  0.5018362971539387  0.6431988744683563
  0.4273560181357551  0.2893520448793556  0.2861421667647622
  0.7082168623476361  0.1482946192194255  0.1535709285090922
  0.6415596701379119  0.2150094562799365  0.0724545819264146
  0.2851169621508375  0.7184714682260421  0.2804147628008078
  0.6357027380774690  0.2232415244546146  0.3620749464331814
  0.6415131831158045  0.9252376004835443  0.2161101684140727
  0.5873002094393999  0.5721893313383907  0.1417246752056938
  0.8627908338896187  0.7072800788903001  0.9995430935339185
  0.2213322741168377  0.6338883584309618  0.9186954387707900
  0.8564178688121283  0.2910675162133358  0.2893823562166665
  0.3542137529125011  0.7856763856994272  0.0711343780002238
  0.5056348510678446  0.0713003868384514  0.0732730160218491
  0.0061501231049452  0.1505968081539213  0.8937044564320274
  0.2947337822546376  0.8541610743496421  0.8515250320955613
  0.6469096726177483  0.5020497077987387  0.2140560428619540
  0.7889073775651924  0.0687208240594367  0.4938372708876362
  0.1512273349013647  0.7137486311937554  0.1446793182044922
  0.2837310620773645  0.2857577991156651  0.2849768746225382
  0.9817991222250066  0.7304869597356298  0.0470617418703688
  0.8590375552166961  0.7102255343220647  0.5752418377309821
  0.9349453502593440  0.6496479984319070  0.9274553673973962
  0.9782246192524214  0.9021450073789734  0.8728068706562369
  0.1456646717435678  0.5654582573369227  0.8501455687236198
  0.9985971116120862  0.4271267156687487  0.8546537441192427
  0.0005625889326157  0.5671322035737554  0.7152199292183624
  0.2190493658978505  0.9514329982430553  0.0761283119213683
  0.7828273581906373  0.0715559342519666  0.6389902719799806
  0.5690238324137594  0.8575289442305934  0.5696379646006895
  0.4274998623042732  0.8569032884051316  0.4276009497468281
  0.7134563904765290  0.8496588034567397  0.2866269817721107
  0.7151856740373681  0.8607273573916107  0.0073979318550172
  0.3512333766024077  0.5015551285314123  0.3611038681605684
  0.6413362049974524  0.0712404166571576  0.7802087801301746
  0.5724155949293974  0.5742163578353342  0.8580295946854631
  0.5728984998551028  0.5729098348050311  0.4284043571669593
  0.6441302310241944  0.6399835881902367  0.3580511762062859
  0.6444364155385246  0.6416014478378040  0.2170720070939626
  0.5687989158875028  0.8557610650510684  0.7135140141732604
  0.7850419577655526  0.9196543428237405  0.3547216922713925
  0.5743083062790761  0.4299359704715747  0.8578519585708064
  0.7960752729607369  0.7726876016258447  0.0806258344852697
  0.7926579712471871  0.7882589102391884  0.3609066640786572
  0.7139724915266034  0.0088824054779198  0.1641408302052747
  0.8434111319648252  0.9991484292372232  0.0040698831754741
  0.6449393568607509  0.7838240092229906  0.2151736279104277
  0.0740909627999581  0.0716065309547504  0.6431900253644094
  0.2888904239269339  0.2876185015325010  0.8557345196719022
  0.1384252495609571  0.2820435367558335  0.2814595801365324
  0.6452324160836539  0.6410540561964444  0.4983542461563472
  0.1410735108510463  0.1425191982242867  0.7178213868830953
  0.7138242304271077  0.4289352128746683  0.1429401023526304
  0.7868076057036180  0.5021187918901195  0.3584787003971596
  0.2107064404104952  0.2068202909211643  0.7891854293071701
  0.0694434875014519  0.4976680102884161  0.7858016272587838
  0.7145692171827235  0.5712057125972461  0.2885198593911535
  0.7870186582052611  0.6409738227740980  0.3591546710759235
  0.2189645947490869  0.4954702944895560  0.7822894514156159
  0.8327337814833830  0.1320411324329741  0.1680510815294777
  0.0813838496811342  0.6573854912580939  0.0621930359022351
  0.2863743691215196  0.5663272360852771  0.7135087291468531
  0.8541634006740021  0.2892961916182055  0.1424923889345040
  0.7838055473513890  0.2140132392595128  0.7818784665121614
  0.7835204886204998  0.2179594930927397  0.6394789624436389
  0.1575895953023617  0.8512401381505325  0.8483248350823295
  0.2288890102666529  0.9405302476586102  0.3442707880248014
  0.5002536340976772  0.6434930097625099  0.9287803397138459
  0.1388084495904565  0.9974771350314351  0.5702722636798467
  0.2105021623160212  0.2151811911412935  0.6449100813759477
  0.0018809326235635  0.7101009893465291  0.7145689294591837
  0.1416716538549510  0.4262773650903666  0.2863191125430954
  0.1411121520693262  0.1436292889321185  0.4254900830702572
  0.2222662088182807  0.2160720157178996  0.9253449054810888
  0.9285447749251682  0.4994419383163365  0.7858950940406273
  0.7870009129313480  0.5009541770962025  0.6452362746292370
  0.9963487652921080  0.4235053965810641  0.1385207098626840
  0.7166205760955729  0.5718269288367266  0.4299109316063726
  0.9793961419167898  0.8798937345969917  0.2889024364579356
  0.8513207568250911  0.2854375311909481  0.8496928021566479
  0.1372842842195969  0.2852814541564819  0.5714448156097783
  0.7152196714650894  0.2868033110950940  0.7127685491595130
  0.2235527039202891  0.0740071267486793  0.0673636197801482
  0.7102099337426231  0.1458893053133756  0.9993435572531925
  0.1376830766760748  0.8469502757909445  0.1357794378300957
  0.7857055444469117  0.3588708264122075  0.5029798015333108
  0.2121423241040868  0.4993644612328881  0.2156125345570091
  0.2891913885019466  0.7101327409009452  0.8532551473908114
  0.2214715637392791  0.7821529568726137  0.7825843292703486
  0.0628580697158572  0.2057477350018566  0.7905511847049427
  0.4254793449281184  0.4317187641478652  0.4253392706375593
  0.0062669668512851  0.0024781087192614  0.5744903428990099
  0.9473390993279431  0.8613805619827105  0.1842288254946794
  0.9985572206208441  0.5700488498595551  0.2820001497702871
  0.0667515645031696  0.2318066267704437  0.0647941718435954
  0.2925859269107856  0.0049429337582639  0.2771388049102515
  0.0692136230703673  0.4978720557218898  0.9274058427833566
  0.0047874009567241  0.0171239198650650  0.4407379526761883
  0.0682050389044043  0.4967120993591764  0.3553078686445259
  0.0048177833822049  0.8579503882091354  0.5791835457139692
  0.7865178880165559  0.5019606705383118  0.5008342371251507
  0.7859667729754288  0.3611788553113295  0.3576419609125372
  0.0681745752898562  0.3538374829513539  0.7843518830376728
  0.9968485815870081  0.2826553145854672  0.7167418503140588
  0.9253507320488690  0.2074488041162787  0.7844138656924229
  0.8631044718569688  0.8567063012041698  0.7112367163161601
  0.1503870518589229  0.4320880235488277  0.1462204053122200
  0.0672409663350248  0.7831368639959827  0.5137255595482620
  0.1765976075956204  0.7548262598364585  0.2563542015728696
  0.8613965499448690  0.7137392533697396  0.2866660037485193
  0.0008543517258961  0.5696553814663619  0.8545615578483756
  0.0744415965852361  0.6381371607710226  0.7818221188220840
  0.0688863040382190  0.2148771649563432  0.3542300537190060
  0.9995643013467789  0.5667490054537558  0.5744429780249402
  0.9289029999653138  0.6406467603196281  0.7829904162135124
  0.9981998779547357  0.1445718357954830  0.5718754249804021
  0.1413270021198687  0.9992686323044611  0.2818917746159968
  0.2188031797606870  0.0719332309406154  0.7846717435760646
  0.0081276281401630  0.0006132894376418  0.1033540310383139
  0.9116725332392449  0.3615499881617765  0.0694018263622847
  0.0702178850529529  0.4975942018516141  0.6435013070552731
  0.0633169963122272  0.9271775011278485  0.1966242501766215
  0.0550278070360121  0.7873428979231532  0.2178703820966520
  0.7886596045396836  0.6436371547549476  0.9274385647319846
  0.8585071475955238  0.5692528143548551  0.7150858927085393
  0.7168282095778069  0.4309669920005246  0.4307874370852646
  0.7138768041721574  0.8547946787806856  0.4298219583478185
  0.7840815019268530  0.4994425597072652  0.2168666610869896
  0.7856826044369578  0.5017381283109520  0.9261589595058847
  0.7150014674427029  0.4308672775090089  0.7138747649524801
  0.7162353503099941  0.4298129118609741  0.2880408868638699
  0.7077838979908803  0.9911318082431134  0.2920684686171712
  0.7126243921311466  0.2916723857999722  0.4320364750052244
  0.0018713387664240  0.7056905553329914  0.8456571805606915
  0.7145939471961552  0.4287002719081419  0.8561723586959903
  0.7824408804282316  0.9288167561396656  0.4990126722609117
  0.1464671295358019  0.8574109116656928  0.7143009226908927
  0.7158902126284288  0.4317729979547427  0.5727227269175501
  0.7143148554429107  0.1427865066954279  0.5672558316860430
  0.2105849095383426  0.7839401085143962  0.5046135249418954
  0.0791101177923689  0.7790100833761300  0.7724171857052823
  0.7856598437819425  0.6413204238771680  0.0703118533957830
  0.8577377852973082  0.7106094308780065  0.4324488195813783
  0.7156885766892774  0.7126634552157475  0.2899907997191705
  0.7835106514588719  0.7711888437708868  0.2112075331850901
  0.7123281955491213  0.7095330651587983  0.1417022146311100
  0.7694734861128509  0.9439229427301308  0.0866757755639814
  0.7188199628503480  0.7169608086287869  0.9993238334013989
  0.8602469032264256  0.5740671320572348  0.8584090274491530
  0.7138476514885876  0.7117854720066196  0.5723487287427638
  0.2146816307340824  0.0749413815213471  0.3349473771582671
  0.9717164500124575  0.9152549420025160  0.3985045039008796
  0.7157997046417646  0.5713225529510449  0.1415767908868559
  0.9367648124094191  0.7827816029344754  0.9258442079720677
  0.7883286335964725  0.6448100943219659  0.7852948781183007
  0.7878928778924263  0.6425585567811567  0.6445647328104221
  0.0025493777579443  0.7069695231559431  0.5780458111451776
  0.7161842231880302  0.7174190457489453  0.8570401774664598
  0.7151748987788658  0.5729986344207488  0.9976731225065096
  0.7163267634177392  0.5741021744007514  0.8567525531571110
  0.7154177471675870  0.5720547333569603  0.7145356375089186
  0.8620854254396514  0.7167112053862469  0.8570105750024634
  0.6431307526424889  0.9331737068624095  0.0780302054064942
  0.7868022122445352  0.6419344063920314  0.5021258276459324
  0.0736607000165826  0.7827593955559488  0.6459238980055534
  0.9889859030205950  0.6960387199552723  0.2842570646385439
  0.7829495432067350  0.6388488201108198  0.2187562457715524
  0.7137490313687259  0.0007235830105166  0.4239665772799405
  0.8135146466058500  0.0433813747669927  0.3555135906446202
  0.7723463603948412  0.9174456379771118  0.2157223797520702
  0.7683169147339460  0.0859224151163596  0.2460547570252629
  0.0968722526238137  0.9131226085943851  0.9241213160945536
  0.1685973884406389  0.9886410828584219  0.9812153272122187
  0.7101730941006054  0.9993703943242002  0.9969598214437064
  0.7130106927166746  0.8575282958047562  0.8543190733194146
  0.5701385736975911  0.8574345633411288  0.8550476969768374
  0.1388957207630237  0.0020054889697401  0.1449876321866238
  0.2168866149999306  0.0731714235777339  0.2070799830356731
  0.7151558055852372  0.7140840699781441  0.7134067171292025
  0.8500463016265738  0.9975871882623581  0.7045806438513843
  0.7870820975610745  0.7852942613730192  0.6404831795442092
  0.6399231114260067  0.9299438249532548  0.4966639031208939
  0.7825655840317173  0.2314161040821696  0.3601671185223203
  0.6403640568748973  0.9239063992792970  0.3587037229577061
  0.2109039454694834  0.0750335087049896  0.5191441438027297
  0.5728928565677254  0.8604863990329330  0.0012878149775756
  0.6340004788841036  0.7870231839853919  0.9301692911957598
  0.5706811640562802  0.7146868262218893  0.8561511026985958
  0.6418327489656047  0.7856019459468051  0.7841035692681050
  0.5703723771758359  0.7129175004340155  0.7140079567805113
  0.6397521085812645  0.7830174345544557  0.6430648639936744
  0.7127400978207551  0.0005398187670972  0.5680312551108552
  0.7834286756985646  0.4989172466612763  0.0685018559144520
  0.7140287831772272  0.2884983670880944  0.5704978892878444
  0.0724198858691947  0.9258504978588443  0.7891868822384110
  0.7841506199801501  0.3538545325965551  0.9273771460546454
  0.0865661749491339  0.9286494201447217  0.0536815927566797
  0.7126806246644125  0.2874831923519386  0.8537953121043392
  0.7854231501616422  0.3580047717178423  0.6430613798119948
  0.5726915289283582  0.4295123037154919  0.9989784560580247
  0.7133248117764799  0.4278095962615211  0.9965697899874454
  0.9099105788924002  0.0746037663687366  0.7654860282106954
  0.6444933911410808  0.3597286461216680  0.2121401933225086
  0.0027175042073020  0.7069537216689061  0.4286157049800561
  0.7123208535131667  0.2883199755828202  0.1438430737248193
  0.7812331602325089  0.3564512925386009  0.0694692977269961
  0.7791701444415260  0.2152638914230625  0.9230113068035157
  0.7122832942491618  0.1441685645917422  0.8508393705438744
  0.9266033405020765  0.3560552811767260  0.7844632813002144
  0.5708995501495551  0.8546339339365009  0.2861467955712153
  0.1439564347440266  0.0099065587212959  0.4313007558965113
  0.5718218623919856  0.8559360692150341  0.1435995768773760
  0.7119522042666933  0.1443872012932563  0.7090598545119841
  0.8944050595108330  0.9605607656256421  0.3109550432527752
  0.0698586422604990  0.9172876803971245  0.4834139494897202
  0.7116558464723755  0.1450089452298728  0.4261870889263864
  0.0731628615715154  0.9305654270524983  0.6487831381686807
  0.6972485237858589  0.1634658331531736  0.2948194063716450
  0.7805786035592421  0.2228676277593808  0.2224194837577873
  0.0019557969181790  0.8573985503611924  0.7152091803478768
  0.7742484640674068  0.2121898253481719  0.0771767852673688
  0.7783585375730036  0.0720408701382069  0.9244640809801994
  0.7136307511097995  0.9964599855187840  0.8517592121915301
  0.6386997992301232  0.9296924370075108  0.6415843616070745
  0.7847119522776586  0.7802057522443113  0.5016505019611847
  0.2136060534214514  0.9307739311822092  0.6437054929429193
  0.7835815636906786  0.9250390076973590  0.6379609911488191
  0.7843825091896665  0.2172232349948315  0.4986814323475715
  0.8658326560797395  0.8533813322868222  0.4515410892737667
  0.8573163731391726  0.8417751887949553  0.2693946698125918
  0.9556529063919165  0.9823244260606091  0.1986299924299658
  0.8366664357630540  0.8548119518574039  0.1422588728190496
  0.9002672109179329  0.9392803770718406  0.0931140929857806
  0.9103232735751361  0.8166544640391591  0.0529034996991036
  0.8224213273662919  0.8084729649844442  0.9626165431601559
  0.7886223017094223  0.7875885266915024  0.7735334918307294
  0.8622507951784441  0.7153859198175153  0.7149298255534492
  0.0758594325530298  0.3568329697768288  0.2170639083020509
  0.2805529163470438  0.5723366542515478  0.2888122151258752
  0.0037235607640061  0.4071326927596212  0.9974951515329661
  0.9979538723843321  0.4268151246903000  0.2853780274538749
  0.9324803907116510  0.7705544632275259  0.5080147606034920
  0.8547346344669162  0.5696605370843820  0.2888286867160993
  0.7798990962894692  0.0718783946303182  0.7777359102680421
  0.8587082002434168  0.5736243722864796  0.9980447535268003
  0.0068008191172342  0.0015265349627933  0.3026072890006886
  0.9281068315500284  0.3584599701087443  0.3584456261630666
  0.9261360404023825  0.0715888259691588  0.6382879674563026
  0.8566077057778766  0.5691326501841156  0.5737329316357233
  0.9635750490384940  0.1708700881002624  0.0116181021510845
  0.7835944381550926  0.3584011428507416  0.2163294414209437
  0.0608467220527682  0.2060604252265533  0.2039134701788456
  0.9125759808587884  0.7500346094407331  0.1628257833724173
  0.0739534763064003  0.0803393821738136  0.3572618793371956
  0.1424246420984643  0.4304014181254930  0.8541261665510030
  0.0699269265753162  0.2147292222424900  0.5014693881150242
  0.9796002800619963  0.2827543020534762  0.9746967715945386
  0.0701371641942095  0.6369359905712024  0.5040549927746492
  0.1453733495163755  0.2822128342401115  0.8523603002448110
  0.9982229375141412  0.4273838618446606  0.4296382995774454
  0.0695248458288730  0.3556501729534052  0.3558804074971044
  0.9987629614567584  0.4271757843456720  0.5741565660276517
  0.0694556655601886  0.3561666206819479  0.5006078060783796
  0.9288743076959518  0.6384732108371888  0.6445583504697610
  0.9977842133301169  0.2863940358430996  0.5720419059117793
  0.9290456803538623  0.6388020144215232  0.5037407871523178
  0.0689370216868875  0.3540208693120784  0.6453266309653812
  0.1415795472661281  0.5684389103426102  0.4300798636061849
  0.9056639935838108  0.8972520878753475  0.9690104255893351
  0.1451453978494079  0.5685473171671037  0.9970360356075224
  0.8601270698733502  0.8606718554088780  0.8537975787913996
  0.8570967503790032  0.2910573027811317  0.4318569857892453
  0.0627581995814502  0.0670953224421864  0.2120477883016299
  0.9976325388379915  0.5653703507149616  0.4321040865527114
  0.9268998874240625  0.2160566851428188  0.5011193096008844
  0.8556177658617276  0.2855131736792591  0.7132198839632714
  0.0811807313170248  0.2266727016829101  0.9344496879526510
  0.9737342893332643  0.0309341415667603  0.8506897345037951
  0.1019016649027787  0.0510086862891863  0.0431312962345649
  0.0701192112874175  0.4967893155915061  0.5018487474157483
  0.9985750328248479  0.4275427371438414  0.7145653971405829
  0.0742979237848356  0.3554437945230466  0.9118081911694804
  0.0749994497287784  0.4950827232312759  0.0688800080077833
  0.8791709809428557  0.8550982325710492  0.5771126712960432
  0.9937262859302184  0.2824238704227300  0.8544141944148768
  0.9997277365464911  0.1405987594448033  0.7044110528181992
  0.0758533626656178  0.0808049261708661  0.5056703263011099
  0.0018478512180568  0.0063330088428455  0.7163870693868643
  0.0843324587695648  0.0654366509224734  0.9276198664734775
  0.0355034961495113  0.1211415502507506  0.0993141846314304
  0.9988238299491069  0.2872927905542032  0.2837284245133647
  0.0003720096435317  0.1469043894857775  0.4314764926401450
  0.0687321275191683  0.2162523826049538  0.6446875260916948
  0.9247067244231236  0.0750713033285556  0.5027639773319763
  0.0433339504065427  0.8143813190513559  0.8699513376880552
  0.8596389370711990  0.1591551893840473  0.2951097480163293
  0.6435331329098619  0.2160219300564430  0.7828124444932075
  0.0662965144863568  0.6295061811079758  0.3622681110565097
  0.4363297629069346  0.0052484464285235  0.9951053913194068
  0.6434183503038389  0.7832917565606725  0.3584501007324213
  0.9275362883713323  0.3562419115235930  0.6440290952817088
  0.8515663273159567  0.4286089583770906  0.1440855366434072
  0.9249946648032824  0.9353359004509595  0.7775459708417329
  0.9259421394915190  0.6359465088309477  0.3621555086513962
  0.6960002571787233  0.8556363580077949  0.5693746702535483
  0.7849555173365098  0.9266074235376799  0.7798976781281419
  0.7118184011490750  0.8565876155794691  0.7101472231372101
  0.8553759090089637  0.0004211546327770  0.5708386212778650
  0.9080095929095241  0.2101207524041683  0.9147103711195659
  0.8488502774175825  0.0042910439507831  0.8481930295750847
  0.0728963483864390  0.6366520670306115  0.6453199825251157
  0.9184959160188699  0.6431847144209445  0.0858280784119934
  0.8505146159966158  0.5650670800202483  0.1418010340337738
  0.9304640736818718  0.4987359926687624  0.9292025111649179
  0.8539903661982550  0.4306974220745713  0.8537485188850322
  0.7858726124565694  0.5019081181709075  0.7855239987593358
  0.8568157308642018  0.4288877422863849  0.7136504502060607
  0.1016821976699685  0.6625497606589746  0.2473536656693882
  0.8564477185309607  0.4291046579405899  0.5731017685200418
  0.9277181978649536  0.4980083163246142  0.5028948108460985
  0.8564954355131487  0.4287882327304698  0.4307075001803825
  0.9276629284869813  0.4988310404032668  0.3571325674675336
  0.9970139308826464  0.5613428364245949  0.1359191201611817
  0.9257632578816989  0.4972152930742477  0.2132455691563638
  0.9237858406350385  0.4963690045106662  0.0683674565107015
  0.2104627819829531  0.4989261957027933  0.3576333130748691
  0.9921560873214035  0.1402495824574820  0.2886113751784841
  0.9531459284933522  0.1079773259454753  0.1751647283634009
  0.1007787243210873  0.7822196847717939  0.0408418313448825
  0.9126080250557282  0.0685829298624007  0.0678224425682312
  0.7754402461633314  0.0751326971356513  0.0735237348645379
  0.7862322117096474  0.9290156222418654  0.9277384143625798
  0.0171482946927190  0.8459002434512241  0.1077076755877288
  0.9174010033427792  0.3600292453836240  0.9205556247510824
  0.9263526894613960  0.2152168764176885  0.6412193799377192
  0.0007285213155748  0.5966417425657780  0.0035921919368233
  0.9309263183530452  0.2206861951431207  0.3620501800609698
  0.9225361027223861  0.2207427207579470  0.2161328495896125
  0.8922152598418991  0.0601575880776029  0.2580632723665582
  0.8875045702775645  0.1862345163885354  0.0962976203789954
  0.8398990853896555  0.1452542795191276  0.9971718373890329
  0.9152931915040173  0.0777929114220927  0.9426494608111501
  0.0421606367492191  0.7262193940988066  0.9535580122907605
  0.0916640138564095  0.3615973412369585  0.0877356770892470
  0.8543045420828461  0.2765528681099852  0.0039523962053789
  0.9134390411419274  0.6340222545059399  0.2114174617880382
  0.7119865988079962  0.9988982403404316  0.7094273530182893
  0.5725923673478834  0.5719615069127414  0.7142618331030870
  0.8535007801441108  0.1469484241478685  0.4272631087981030
  0.8529611228753012  0.1444267877847749  0.5696327266051200
  0.3634190059732891  0.9293703684190003  0.9241720112618655
  0.2176282863451127  0.6391587695350958  0.7841357399719043
  0.2170316866684570  0.6378198785274445  0.0679799552292978
  0.3563609735768720  0.7838045116827903  0.6407537768535154
  0.3576821529594545  0.9289989182384649  0.6418020002594509
  0.2815834757666289  0.8598350436749221  0.5721848440964172
  0.2891313354459768  0.7056318375414626  0.1411798335045110
  0.3584685129056808  0.9297928132906200  0.3556628304409878
  0.2811619358711002  0.8614751842244750  0.4240639747102172
  0.3671224071262404  0.9347944682124405  0.2194920904603218
  0.3698543675780316  0.9383728221565460  0.0622129812773455
  0.2176007600348152  0.6387240399169731  0.2140513202078133
  0.5732281526218765  0.7098200508707712  0.5718776713101619
  0.4313584245090735  0.8556592613971666  0.8544540842271739
  0.3599701453123850  0.7826692145773763  0.7821206824479108