 B Cr Fe 
 1.0000000000000000
    20.0899999999999999    0.0000000000000000    0.0000000000000000
     0.0000000000000000   20.0899999999999999    0.0000000000000000
     0.0000000000000000    0.0000000000000000   20.0899999999999999
 B   Cr  Fe 
  41 206 480
Direct
  0.7405815022405748  0.7767542476606174  0.9403041650943627
  0.9313735466220959  0.8209147833256704  0.1131374380207242
  0.1416592693849988  0.7515461058859866  0.2055847427687263
  0.9345844498854567  0.2825751168900930  0.0014736030841292
  0.0045241821809610  0.6757628543504973  0.2350924814218562
  0.9323314002210293  0.7266797879552568  0.9911631979918173
  0.8531326385506270  0.8645050204624606  0.3527916154004243
  0.0741833997632842  0.7562533618297207  0.1456471214655582
  0.0712077991502179  0.1440785633539098  0.9998165140789519
  0.9991023732223109  0.5935339305497247  0.2004257060610092
  0.9330472009224295  0.5964731631943261  0.1347296406133048
  0.1227157906476770  0.9242267058963421  0.3377007579377906
  0.7242118739369091  0.0754927689415179  0.3394640376700595
  0.0408963301188850  0.1619675377111980  0.1740191170141710
  0.8051131083060779  0.7796910697813180  0.8800882575438678
  0.9814286948128621  0.0578947524961236  0.2746678401530900
  0.0572686530136106  0.8655243109483065  0.3327482465197063
  0.9789305854307079  0.1920921331837151  0.1179810066306621
  0.9189378604257532  0.8744712950640533  0.1839915093783902
  0.9887690354045491  0.8099879860971584  0.3340856479861005
  0.0577513122927430  0.9242244902630592  0.4011944091073176
  0.0063438726966157  0.0923201453130135  0.9826178710055999
  0.0569000346939894  0.9913523091734461  0.8671186288180426
  0.9169211439329892  0.0235456466357331  0.1181732231132366
  0.8546739073548970  0.7293353271791900  0.2024194747133522
  0.7492989238016141  0.0736489454673968  0.0604398206067684
  0.9939777553503693  0.2639202042173353  0.9398039212280319
  0.9311424151562755  0.1302012445102896  0.8613992726884520
  0.0656661604090579  0.6830428377057741  0.2920532661310214
  0.7932479986700244  0.7260703576887818  0.1419490330417638
  0.9791780388544844  0.8467996346242918  0.8150808136061607
  0.7918361676831739  0.9978437180127887  0.2307871921372142
  0.0852138897098015  0.9141446312060255  0.8930046280073087
  0.0124362372449192  0.9336625600351752  0.0511761404662882
  0.9276642149450374  0.9962777596807146  0.3184402887677347
  0.9910703338227128  0.9933354268429485  0.8088136764829577
  0.7948584536143301  0.8591157552873508  0.2909389347877417
  0.1204995273521129  0.7828954191689252  0.9414951005056486
  0.8702075442976861  0.6024649006553141  0.0735595166679565
  0.7846840463241032  0.1338668064779429  0.3426075016048742
  0.9978358216721663  0.1376540977319778  0.8078968124051272
  0.6429227681494623  0.6432906828378224  0.7842221013576747
  0.7860644073274625  0.9296441438322084  0.7843380196274979
  0.5693924721767236  0.2863216247066483  0.8534678996345798
  0.5001303161376842  0.5021832298794272  0.2152451514473060
  0.4294286788590956  0.0007871989451772  0.1422322252504279
  0.6400132215732574  0.5010177184262470  0.3601408621606668
  0.3593774314492821  0.3551173448358249  0.9264896659684669
  0.5696741472418195  0.5699007019160885  0.9960094923944244
  0.8186077325067624  0.0356936818212110  0.3387578926963394
  0.0088703704804075  0.8522490081394212  0.9923443064108851
  0.2267168993598973  0.6346659421615577  0.0624183051656238
  0.3627967201546064  0.7848254420431913  0.0667239693570203
  0.5007597007909798  0.2119320391535725  0.6422612322944872
  0.4993026816957830  0.4975290007503943  0.6443429380859478
  0.5687068084726838  0.5713342662433738  0.2884936516077858
  0.4279840504334366  0.0009282846872263  0.4293745098542360
  0.1443998693295011  0.8563906549793198  0.5716407773265270
  0.5667247622818266  0.8553176423036299  0.2868521172854628
  0.4290767752619452  0.4272313413706601  0.9963463369796981
  0.9260479373959933  0.0701317436759961  0.7742070335855202
  0.2945988687199312  0.8559352062515118  0.8492350029308122
  0.7772318585422872  0.3656623416785461  0.2201431912959486
  0.7019931122483286  0.8600366819122941  0.9964166991024134
  0.2871538041654281  0.2874906372845236  0.2873835034026352
  0.2949629573459635  0.0004941899280063  0.9979704103603623
  0.4309128170039414  0.1444205432298792  0.8555067450982572
  0.0965671047511427  0.6508891404340543  0.1960683259194373
  0.5674343510497361  0.7136034734460339  0.2863248532709367
  0.7159022899768746  0.7143335554510414  0.8555917076426757
  0.9518636926701155  0.1059508488437776  0.1835815261247050
  0.1364371941834329  0.9967146889975848  0.4199154261150920
  0.3631932950827518  0.9299522995120296  0.9248614566456150
  0.4286655683892761  0.0021909363236104  0.5721229804171682
  0.5690930464002516  0.1429937830226026  0.5698421932103568
  0.2895212159584398  0.1445902269383843  0.1429538508202291
  0.3591316414770099  0.2117604963350074  0.7847705669862344
  0.1058604671104386  0.0498122137965870  0.0488742562376016
  0.2859845704162730  0.1454672023380200  0.2859409513724739
  0.6341633627304090  0.7819027142655850  0.0661536601044905
  0.2185497199836735  0.9272526555212679  0.7809900318628648
  0.5702759610028495  0.2886791843258957  0.9990503412633647
  0.3611787458532275  0.4993503855951462  0.0661635117351462
  0.6445612717487688  0.9264313582258685  0.7878104253539077
  0.4272164960384952  0.1436673425513515  0.4303864022667607
  0.1717748970832392  0.9910476167579124  0.9855091825109050
  0.2856554900496026  0.1438165206163749  0.7131689954317559
  0.3564231625139758  0.2114360144785334  0.6423912729577882
  0.3568557909783537  0.0715746363982186  0.5002355022265926
  0.7833281066548473  0.4979545978459246  0.9227642362682138
  0.5670538998903555  0.7141658482040197  0.1435880558048913
  0.4293282218109054  0.4272872749267489  0.7144558868688646
  0.9979373601410486  0.8535519894899414  0.7051150209781986
  0.7828672032465758  0.7849840041480043  0.6427572824471015
  0.0715959650916374  0.0658547795517949  0.7909568156510951
  0.0778857043303650  0.6409903622607067  0.3814630119654324
  0.3602257389149733  0.9296678820162394  0.7824882682422943
  0.2898313439597666  0.7147361031331481  0.4342376332947682
  0.2918118018804116  0.8539729736858871  0.2876268240110267
  0.0906440429879250  0.9214448304729481  0.2223657142986875
  0.9016188464209745  0.9251198059782915  0.9646965566393253
  0.9652450563007942  0.9738227582289097  0.2080678105855287
  0.0023124394512938  0.4372857050600907  0.2882049618875321
  0.8352541622987153  0.8256306220053329  0.1462055150433517
  0.2171335539859475  0.6410257159019535  0.6441847134154614
  0.7845805020990326  0.3623106212435958  0.3583696261443334
  0.2233999922898660  0.7814823313851323  0.3642043171346214
  0.3631989041671452  0.6398050873397425  0.0652593072136907
  0.2929383967937101  0.5687630783355930  0.9930845568091534
  0.6388680407212611  0.3571519632888014  0.9264506608275181
  0.2878884827613295  0.4268981246868412  0.5736544852993937
  0.9495274340306236  0.9051563034544367  0.3705438002168013
  0.0347948090103772  0.9775170280526142  0.3138775099141742
  0.7225688375081635  0.8555148307975387  0.8605146007817663
  0.9243021217351938  0.5062924891101169  0.0679069145260211
  0.9302640273822528  0.3643920861381656  0.3575127770719829
  0.9305484441277235  0.4972315637330300  0.6432789818666429
  0.8473173696855120  0.7050417077661979  0.4406573094432578
  0.8560545040623782  0.4299658724514985  0.4279376689811711
  0.8574495220733702  0.0000907160762885  0.5675508622942601
  0.9248271355718422  0.7833078782934240  0.6417595292391661
  0.5678287736280808  0.4277860656651943  0.5719849115103096
  0.0663497068663048  0.9189082277537642  0.7859910122280662
  0.6377147463720684  0.2204412050019237  0.2120356059067045
  0.7796978312038366  0.7850892040095602  0.3662418070145049
  0.5685045214147308  0.8570322686528054  0.9973339228362795
  0.7087383551848567  0.7106488894897620  0.4348859288711995
  0.3615896324585315  0.6412085152496899  0.9250595641395820
  0.7795076811248556  0.6385276022897265  0.5049146884674243
  0.5686968059753567  0.8528162392232954  0.1425017949372707
  0.3588859192811869  0.7858464947844233  0.6432740296660350
  0.0770976379399495  0.6312890844320008  0.9205320498509482
  0.4292418634747466  0.1452793814949200  0.7123609104930965
  0.7049762765520349  0.2966801454528761  0.1497067522436889
  0.7164806129945874  0.1457474842008482  0.1397003223417180
  0.5005747478051973  0.2123511683456722  0.7842578210535637
  0.6379390239184747  0.3608467771719327  0.3612567569080776
  0.4996889539970715  0.7843092410757411  0.2146363817698974
  0.3588390165975155  0.3551496180600935  0.7822719775196484
  0.2918855505497054  0.7108443264444718  0.2898096920239989
  0.5003184649770592  0.3551921918725364  0.7835961539430057
  0.4290048855919701  0.2881839173249495  0.1429042482807970
  0.0825609138302762  0.6484435186117908  0.0561652954766726
  0.1437225488545531  0.1407825022362698  0.7150081925742695
  0.1617786156677754  0.7047437373906471  0.9918566289506835
  0.0003178656994781  0.2857572197714565  0.5709176882572851
  0.8839480010344635  0.7113276722321030  0.0976837833999237
  0.0242118797125826  0.8614526045845059  0.1363372892261606
  0.1445952362924193  0.2848137757691158  0.5721377610283847
  0.3604150461168420  0.0718000010593095  0.0709985076186027
  0.6356106048433980  0.7842429301058064  0.2169301996544648
  0.4295383250936959  0.5671446572528365  0.7136238853272220
  0.4996674888801249  0.4991135426399154  0.5027029885081589
  0.6373429006467710  0.6416208367234307  0.3603987133107239
  0.6368869418712440  0.6414262265084658  0.2179432700502901
  0.6411325352443301  0.9293792087829832  0.6409936111838763
  0.7080076897852238  0.9970566325539555  0.0006054048455415
  0.4989466695030801  0.4985306870855504  0.7834142998371987
  0.7767217286963753  0.6458553903001429  0.0697737049774434
  0.8850770240817307  0.8087007955427360  0.2723638194039625
  0.7685200521744842  0.0990581141243777  0.2378281512739196
  0.9189472911172344  0.9181659666802880  0.0825653313018660
  0.6410619168619899  0.0733311411957828  0.7828866981718389
  0.0748869658752838  0.0708228424753318  0.6431689815996896
  0.7841313129060077  0.0713227245859736  0.6377115816752529
  0.5705233546154458  0.8586413366832679  0.5733507158380911
  0.4960296423047196  0.0718194290208569  0.5000136225590754
  0.7647429554955080  0.7795868743432520  0.2298144301557535
  0.7112307041540611  0.0056268053726626  0.4245746230639408
  0.2910500234142583  0.5692470847283454  0.4332557120950090
  0.4304403744086504  0.7123976395507973  0.8539414767854241
  0.4984196780988946  0.3567748539259961  0.5031166760766611
  0.6393226560847873  0.6412358112979256  0.5031490901200534
  0.0711541754948686  0.0645816927623334  0.2160532424249391
  0.7111908113956563  0.4352315739512687  0.1432328019117267
  0.7801939241711668  0.4988037067967993  0.3613711014143462
  0.0959883290283096  0.2319558957169262  0.9413770967324190
  0.9554042995576507  0.7665341549833401  0.1927332842481946
  0.7092183831691747  0.5720094380781777  0.2905810819409530
  0.7761747983186552  0.6386259110455175  0.3660302753632462
  0.0060025717966766  0.5860122535052478  0.3009628182933452
  0.0018566479246040  0.4244465243541820  0.8519957614746395
  0.9282179832404595  0.0736938703723464  0.4987316394085339
  0.2183308578757144  0.7822062088136286  0.7833490395021334
  0.8490917887150731  0.3025897574856179  0.1574959979863702
  0.5709833707962733  0.1440965017798200  0.7131999543497699
  0.7866943076645113  0.3553690855788408  0.6424484228445396
  0.1576163889272441  0.8519032099828541  0.8484760484399700
  0.1403479749558416  0.8556553334309340  0.4225152459042878
  0.4297924325096537  0.5706028047437576  0.9964004985982667
  0.1422358309421009  0.9982579237210875  0.7168821411953261
  0.2140492660027601  0.2112826889650137  0.6418597913126941
  0.0003733269942725  0.1393709486882855  0.7051880570440821
  0.2226717041726827  0.2168200617689388  0.0756018331040307
  0.1511204261465251  0.8432752349523387  0.1513088305154008
  0.9346503013308444  0.5101340341893770  0.2143976912780248
  0.1469894416722239  0.4233934587563959  0.8500688816357846
  0.0830405329290982  0.2194844991447547  0.0817601653121577
  0.6389169659264050  0.6395093182304592  0.9233024579649202
  0.2913709579306071  0.2857736953779367  0.8514135416607793
  0.8534787742479272  0.7095599399350959  0.7085615808003224
  0.2202108461467416  0.2160713980580029  0.2157481487314382
  0.9260576931902180  0.6382298051238036  0.5059180596390174
  0.1472709599356957  0.5697002797993308  0.4363287922714015
  0.0003590392467296  0.5696677800231049  0.5721049352947999
  0.1478841482211756  0.1410303182188602  0.1451217483698627
  0.7045877815535572  0.7102231730160316  0.2958147307344064
  0.0581602846002381  0.7853164681397801  0.2490209734283401
  0.0034999434667738  0.5671037848841467  0.8516277575312567
  0.8564002419638957  0.4284058533839939  0.7107226337629191
  0.0735282238678791  0.6394259261338252  0.7825554616698859
  0.7106338324701496  0.4284137595060822  0.4295070996510772
  0.7783779864345881  0.0758699042825079  0.9351311472573092
  0.7078755950884196  0.4298419380834371  0.2922821654121870
  0.9316804625410984  0.4957553634045510  0.7824734491639889
  0.7084903929768341  0.5703255957095035  0.4327054030927854
  0.0723624115305662  0.3556532092176182  0.7820857803732985
  0.7842217535978017  0.4975129345805730  0.6430432735266656
  0.8505600161010746  0.2868953879120377  0.8521072089199575
  0.9015035013498611  0.2164385079723286  0.9226263901342628
  0.0739256945373835  0.3642966180880645  0.3585803567128135
  0.0064409224216393  0.8378376737693005  0.4398815958092762
  0.2151924003441550  0.0725428600707120  0.7839928501087210
  0.1375053494944638  0.7171203187533970  0.8574496841304120
  0.2180598547746424  0.2133502224258679  0.7828509575829391
  0.0724969005185678  0.4963373273635745  0.7834395952839821
  0.8564921250789186  0.2830773918468801  0.7111963781237021
  0.8527852442581679  0.8566314535585361  0.7066400513189648
  0.0081193685214073  0.2997670366541234  0.1415489165296120
  0.0732714904636937  0.6404745608428971  0.5069960061330219
  0.1578256037010409  0.8371834357155991  0.2860305241814791
  0.3596938472987403  0.4985321157799356  0.7834293120732669
  0.8618069784707959  0.8685578537689239  0.8469859362010668
  0.1525653331736279  0.4375875680960234  0.1497586469762402
  0.8674037503556211  0.1608222493851061  0.2821667481176122
  0.2901851570581947  0.2874333896969761  0.0002920002236671
  0.4294763798494612  0.7123329042168987  0.9973086274324526
  0.0735566987099689  0.9251697154352664  0.5051128089657168
  0.2200557284323500  0.0752751898451231  0.2126071046846909
  0.2882318129562244  0.1442209337983101  0.8534582237599259
  0.8208383233528406  0.1520272417590450  0.0293017246149522
  0.9238803104843676  0.2109087958614757  0.7860192095054418
  0.9270464846388796  0.7943127133521120  0.9071669682498115
  0.1455759176559522  0.5693627648536645  0.8509315042879765
  0.0010435166612499  0.4265143973994887  0.7132495794259689
  0.0018155896391517  0.5674424179057470  0.7129645824341934
  0.2175583651960083  0.2168591785250594  0.3571326723632743
  0.8578655531059342  0.4263085396824119  0.8545431649013466
  0.8577892152375530  0.4345519306557640  0.2867528471851059
  0.0004587791856241  0.7112367806992776  0.8438581689547855
  0.7117769332391534  0.2897480547929942  0.4292527975602957
  0.7130312891999838  0.4265667377078269  0.7119181319251060
  0.7791456123328581  0.9342316223719876  0.5005828746042850
  0.7060855721721582  0.9919094968776389  0.2853768402490158
  0.7746624482843142  0.4980465929099104  0.2222536899621476
  0.7066610282072958  0.8550069208253094  0.4353776536740172
  0.7812643331478928  0.4964847508339055  0.5028260453091156
  0.7104430251815844  0.4278484437210151  0.8525464498172821
  0.2165145374547474  0.7854172290242992  0.6429074169597343
  0.8593298469602885  0.5678219547859022  0.8516048811735557
  0.4311688038985979  0.8571888760880175  0.9965021497601556
  0.2165859730693625  0.7878498821824109  0.5027090922943416
  0.4988515250528260  0.0724881764650862  0.2144102637217850
  0.7728875889239097  0.7781455182819224  0.0546689515262356
  0.9073501280353237  0.7816389668044091  0.3857853557668903
  0.8455805048299182  0.7034412694944928  0.3050367832631518
  0.6954045111209226  0.8549816619328051  0.2973342455976150
  0.6971176602426128  0.7124800161944410  0.1404731135029838
  0.7877510185392563  0.9076358826136278  0.0606832129884931
  0.7128213135013216  0.4265889809857711  0.5729360442215757
  0.8342061221716651  0.7202974895516511  0.9693893958640546
  0.7103493338951249  0.7123441011611696  0.5744911099687423
  0.2130311401467807  0.0701613696708704  0.4979649469254499
  0.6367964031415875  0.7840991180025554  0.9260040036366823
  0.8498380275979953  0.5665647310544535  0.4366146235603663
  0.2227272033746016  0.9254877705521728  0.3548691653037195
  0.6382684294377933  0.9233133879142891  0.2110943108908395
  0.7820739681430195  0.6390110906947805  0.6434294172766899
  0.9999375436650028  0.7108323384586649  0.5734019012605589
  0.7832069731318648  0.6382002112632214  0.7812413651197287
  0.0741473112193443  0.7829757102618129  0.6408976748562679
  0.9717882949853047  0.7144933483120093  0.3157768111062711
  0.7789237490713100  0.6495448414534939  0.2162825111892778
  0.7103572913423722  0.5732168046157925  0.1448441404818043
  0.7103433971701025  0.5703860910448864  0.9964899283155704
  0.7097314659476706  0.5669882821156359  0.8512094728342867
  0.5694834417591482  0.5693196005669479  0.5732737706398284
  0.8583216841185904  0.7032983413957582  0.8447298407828866
  0.6389789310153975  0.9281172238966231  0.0735649814999187
  0.9764559494714451  0.9202084485918004  0.8831079512317611
  0.6408606497966708  0.6411843679092496  0.6440227668687487
  0.2165875351847728  0.0741065735604560  0.3576289336753751
  0.7142404696316565  0.1425503933830680  0.5670943453628071
  0.9358422885890860  0.0862506749068475  0.3599645519995346
  0.7857821111309070  0.2313369029407373  0.3536989131735652
  0.6372858213682212  0.3646729998272962  0.2158200358732504
  0.9929052127881615  0.7082106716238366  0.4398069908290300
  0.6400025921837479  0.2205716505480897  0.0735168446779010
  0.7809460307830363  0.3656928390430359  0.0757785072136494
  0.4998165462182989  0.3562834507699362  0.9266336232038004
  0.7048724540741789  0.1483881900135466  0.0015954751079083
  0.0003625629794469  0.2860500087190367  0.8455144647936029
  0.5711311349442029  0.0004789198197473  0.1439147826290336
  0.6398590647851868  0.9314238319425900  0.5005382604667505
  0.5718307874199327  0.7123545403914538  0.8538958925362590
  0.3602815484609838  0.0730841412230081  0.9256505823701239
  0.8568663967896027  0.2863913047745272  0.5696546512280967
  0.5698058954617159  0.4289771288426011  0.9973517384820832
  0.7118353277160837  0.4314867879539811  0.9985150853213878
  0.8361747835402816  0.1413002225594393  0.8512329176866955
  0.7741826572700121  0.9246507430981850  0.3683704837076910
  0.7875849694628062  0.0698655986520967  0.4951213577417600
  0.7589563165772847  0.9056303141676473  0.2100397067362393
  0.6961507393703563  0.1633235174928812  0.2924553163567589
  0.2334547762541144  0.9225774601444612  0.9191443868657471
  0.0979015001976278  0.0739044381227159  0.9274192825353020
  0.7107955079977050  0.0030510262473060  0.8536987638875041
  0.6406744834239825  0.9295235835168890  0.9246612454489677
  0.5718103271328359  0.8571920658192753  0.8548560115464737
  0.2222364705512679  0.9236412742902175  0.2160129869408002
  0.1542988768625448  0.9996101949774879  0.1491597369636044
  0.7117072042548470  0.5680521755789218  0.7128948987265333
  0.8528524870911602  0.9999873091031621  0.7069654486920229
  0.7886144830758809  0.7859066761395063  0.7789785346006100
  0.6448739625277293  0.7863446306849884  0.7862009814532325
  0.5720549530829190  0.7141773228040428  0.7144574863888939
  0.6417853669632061  0.7865163897662146  0.6436233144236224
  0.7113348264068675  0.0029515264617668  0.5700426747832690
  0.7858127772456830  0.5065713051045329  0.0686909745668788
  0.7843471503520131  0.2140798146327307  0.6398880074236074
  0.0538459075600151  0.9697852503185869  0.9682314678407754
  0.7797972491797281  0.3609538144493759  0.9233139192402243
  0.1071233494427600  0.9200798945584949  0.0711937663016522
  0.7086501219334779  0.2914307554401359  0.9991075785816370
  0.7807368393490709  0.2159457563102724  0.7805853224064724
  0.7850969114263004  0.2159169536155402  0.4960556231502742
  0.8518086888755240  0.8612992846401714  0.4498700677325518
  0.6413399096331031  0.2144307485008133  0.4989913635921452
  0.2149820082236392  0.9296356111151295  0.6422776667108557
  0.7026838207608945  0.2941196994428480  0.2911266836433565
  0.7721069835275290  0.2301725537357051  0.2222238512338832
  0.0026831405573244  0.0000185933378563  0.7047909375757568
  0.7732738973344137  0.2365075008825418  0.0847482286436342
  0.7844765033567012  0.9481363357061873  0.9288824818621502
  0.7092735089026241  0.1422333957122922  0.8545268326830660
  0.5730591296404395  0.8586492489335940  0.7142342310155615
  0.8567645871101811  0.5670929785143111  0.7114803611108970
  0.1459289706164242  0.8560519809427689  0.7124848355362050
  0.7827090092481015  0.9299935365712025  0.6394728554406499
  0.8658883780124614  0.9295419775101424  0.2740706135422208
  0.0018294429252477  0.0013960363513851  0.5705209000223411
  0.7800708119149913  0.7826264241496111  0.5049906165913867
  0.8491908632761944  0.9561221691196559  0.1570342121491997
  0.7047847725865745  0.8445594897589866  0.1323699651088191
  0.7022093637912731  0.7021121504289579  0.9947623337293539
  0.8906670980348246  0.8136667520410679  0.0263323845250710
  0.8128434031354582  0.8425795334854249  0.9552844064179249
  0.9210630991969572  0.7788848617931063  0.7740340380635136
  0.8521723189341807  0.7093461109745454  0.5745488834192366
  0.0922153949887979  0.3705208516526854  0.0848067078893120
  0.2895786943011118  0.5742145609587598  0.2871683331386061
  0.0031462612312256  0.4283940454738688  0.0005288986850224
  0.9341705773200679  0.2235893115645906  0.3574859643171117
  0.3608912063519332  0.7841617932674011  0.7831630308916223
  0.8485023968386544  0.5688510162097152  0.2904341793960822
  0.6410455714939337  0.2148858855440274  0.7829200422018970
  0.8553131654767859  0.5701607028563052  0.9821182358175194
  0.0710568425283511  0.0834096697112635  0.3531808607157962
  0.8194359865283469  0.0670782637256607  0.1340195804471757
  0.1438878446562224  0.1420811297408287  0.5706919213922748
  0.8993520171977227  0.2381263804171945  0.0834611632651770
  0.1470752913867391  0.2847020889746601  0.8490250619124021
  0.9139439035146938  0.1149353590877398  0.0731862870762104
  0.0010221801815688  0.4321813449916616  0.4297018654571254
  0.8975830571308079  0.0992095330556651  0.9550742410943893
  0.0005971504142277  0.4275614830569461  0.5719059039623042
  0.9560466113031584  0.6378383625220591  0.0350959171899751
  0.9305572925437231  0.6374766001201857  0.7784487687145403
  0.8532727535022162  0.1423172573362655  0.7097604654355923
  0.8548187189443371  0.1463337674399781  0.4216767753120415
  0.9280475472581643  0.6387815674493749  0.6419945938920272
  0.2205140662177393  0.6391901730215465  0.5047814298036977
  0.9263065898436674  0.3549462514221371  0.7815480804589926
  0.1517241012195688  0.5676857124024376  0.9920440277712174
  0.0701334272886829  0.2088707724782193  0.7847157546084216
  0.2880606090500660  0.0011996743596441  0.2850720939930121
  0.9796796821590986  0.0453663465573180  0.8947486555308070
  0.9996842193652473  0.0050963483984451  0.4327133683669680
  0.1544980606605264  0.0073062259977544  0.2839534029489526
  0.9263457401958075  0.0707039809329915  0.6386575554514236
  0.0726252875319086  0.4981466789247175  0.6427415855169609
  0.9849610170611787  0.1920274645354004  0.0131710819889278
  0.0800529883842154  0.4907594118385298  0.9196403806950357
  0.5700773757821891  0.7130821947017696  0.5738436462655114
  0.8798223333183890  0.0458114544229733  0.2410390885036952
  0.9292308485310157  0.3593525532824499  0.4997093106861121
  0.7136465671661916  0.1445846939228040  0.4219461327034895
  0.4307967882153140  0.0010441899053098  0.9983366134913093
  0.6346754662264628  0.7821157773073101  0.3642963699351924
  0.9282667470292901  0.3557093835552322  0.6424444843890412
  0.9288020952358355  0.2168034908356485  0.4976875673892384
  0.9989897280817353  0.5698347913282581  0.4354891402285670
  0.0792824789420263  0.7781194091560162  0.5044357052139140
  0.8584767796141185  0.2911347681350697  0.4275926833226262
  0.8545550770953924  0.5671650244707547  0.5740969235412259
  0.8619433517647020  0.2949241520814143  0.2845916384837801
  0.8404588461242015  0.5660450277394764  0.1591347393813876
  0.2163506795669239  0.4973902139608749  0.7830846337064949
  0.0272351750133662  0.3097697876059609  0.0202849791385037
  0.0008785901961007  0.1424799624798515  0.5696494548666486
  0.0758133965730546  0.2220585269161316  0.3571326748621956
  0.0745988386582601  0.5052987865000542  0.3613355363796553
  0.0729152605519489  0.3587073953063559  0.5008684369749109
  0.0027314716713321  0.2923129678612930  0.4278180281084118
  0.0719619886722329  0.3548400515146382  0.6424687314972009
  0.8653230215740356  0.0053475931605897  0.8596499614673251
  0.9995320027953153  0.7110073710288093  0.7089719987159168
  0.9269520653362410  0.9272643744450345  0.7689967786013101
  0.9178453325746049  0.6320025757619788  0.3707933265430219
  0.7111452247622312  0.8579310000130466  0.5722416365354001
  0.9975367777025889  0.7560854045549992  0.0676729540586571
  0.9278004592833691  0.2135083640939879  0.6404571742349741
  0.8560447809798334  0.1430462778493170  0.5677211391558922
  0.8553473915324995  0.4370748295284778  0.1473025868908114
  0.0749363566102565  0.3547475417624752  0.9206544811316109
  0.0913182294894432  0.4898888097158926  0.0582660302792607
  0.8532181281170942  0.8572448599266675  0.5731081586281792
  0.7855038452820293  0.4971058841839789  0.7828587757985698
  0.7843090630494184  0.3567878459330912  0.7814807708848666
  0.9995757057205701  0.6739680343510274  0.1377570886849268
  0.8562715035791887  0.4278897274257626  0.5724720580783713
  0.9273952920647066  0.4987015319190078  0.5024624952182172
  0.7849297023747506  0.3586777605776266  0.4993202914731444
  0.9280456314519033  0.5035076455789079  0.3589342531196895
  0.0247795360189568  0.5584380647477506  0.1134589372647429
  0.2881503346683070  0.7141253426867262  0.5740848159693036
  0.0032793941872330  0.4354995169704297  0.1391518448969559
  0.2172342182995299  0.5039352234592804  0.3600956196477066
  0.0077054701979889  0.1588291257059750  0.2819388221160882
  0.8465551023093715  0.1710664982703296  0.1627618984031486
  0.0333734355489750  0.7279990168143856  0.9609733334173381
  0.0267408841268766  0.9940570434484930  0.1266292736117422
  0.6410380502636127  0.0721526352479014  0.0728616466620444
  0.8368057746670740  0.0159708126804093  0.0293056496530075
  0.9839492363841802  0.8760921865647504  0.2578056948401866
  0.7830125201354591  0.0678218151755405  0.7810107497001578
  0.7136433955390856  0.8590292367527365  0.7137160978052635
  0.8697279778011541  0.9923788620677384  0.4292735150245913
  0.7752789395208151  0.2156286477319669  0.9260162694421099
  0.9305274193474478  0.3533109631246405  0.9273487108163556
  0.0727455907272391  0.6399986772361640  0.6429550308596267
  0.0148359036661010  0.5555057432968485  0.9885215161519750
  0.0735855334641279  0.5111860039096486  0.2167448911858446
  0.9312756787791828  0.4954776643539635  0.9238589092405805
  0.7122450431492291  0.2856270390400398  0.7106816649692752
  0.9220877915013148  0.3629511099024759  0.0727962630815984
  0.9279815853549911  0.9279110317031134  0.6384701247759528
  0.9995894434606030  0.2825316024598679  0.7129607875147893
  0.0295296471816403  0.1080591861433619  0.0907750640197858
  0.0049771280705536  0.2976569511078237  0.2878866104124834
  0.0037154546249511  0.1495775815198267  0.4305676702550078
  0.0727388878358153  0.2134331000452785  0.6414667358919800
  0.9351098277716300  0.9253854692780134  0.5043250327828396
  0.0484524748218611  0.8201809735233281  0.8839397678576421
  0.9425281381630540  0.2304567321767591  0.2096125217211687
  0.1457180057377660  0.4358219122004636  0.2883498684859310
  0.8364615954075468  0.2920899535667147  0.9967577053284651
  0.9101908657861294  0.6455415201200301  0.2241369599515204
  0.7115445532826499  0.9992349977697714  0.7119833507411115
  0.5707976200854527  0.5695967174393692  0.7138419050274272
  0.1027243656765324  0.7920783762398664  0.0499789882076652
  0.0735024813068456  0.0719384437560241  0.4986368783739067
  0.2913648123416932  0.0014207411628580  0.8523464454292520
  0.2152617156302907  0.6430803106162432  0.7850605110091060
  0.2263710078572318  0.7929651138547896  0.0594197846396656
  0.4298769198435650  0.7135279789353317  0.7132060309960824
  0.4296208244643157  0.0013776543519524  0.7130882158753654
  0.2870212335570272  0.8581890541660095  0.5727651764464289
  0.1684299592942993  0.7127050969983781  0.1194996330088867
  0.3583170207026368  0.9290850923341115  0.3582940243246718
  0.1601635100769958  0.7094297973755253  0.2945974068034024
  0.3598153521793205  0.9276533642303594  0.2146387005764737
  0.3626134447381383  0.9297117799036002  0.0701985374826116
  0.2919327218816114  0.5706645349256582  0.1397877101629454
  0.0730228775569541  0.4997137463478278  0.5031859818706235
  0.4279466779364879  0.2840894006283613  0.5733125344093669
  0.4310905138392467  0.8575967253253978  0.8540235151861565