 B Cr Fe 
 1.0000000000000000
    20.0899999999999999    0.0000000000000000    0.0000000000000000
     0.0000000000000000   20.0899999999999999    0.0000000000000000
     0.0000000000000000    0.0000000000000000   20.0899999999999999
 B   Cr  Fe 
  41 206 480
Direct
  0.7339626199981916  0.7572073577439459  0.9299528330702124
  0.0548720567690061  0.9772354866180014  0.3171131452063997
  0.8041956669807292  0.8967226748551109  0.9912442521500521
  0.7887955434102798  0.7445614142416905  0.0006808987940312
  0.2003386662292245  0.0310414893968118  0.4314585289519893
  0.9955021471937179  0.1248505955554283  0.7968058592594409
  0.6043894184350925  0.2134329173881070  0.7091281402752455
  0.8549991343568991  0.1969757235897540  0.1856988174074409
  0.0609747336989697  0.1373210352044211  0.9946120831836701
  0.8008987089735967  0.0002329542258570  0.2932656093515385
  0.1471849889285623  0.5743385134532322  0.9318205332844870
  0.0552121775135442  0.9856419485368796  0.8635414006531081
  0.9086395694150985  0.9704713744442103  0.9024267799235027
  0.0660396197967865  0.5814739398900333  0.1878016550434705
  0.9999888553035979  0.0762394522052693  0.9922741594403568
  0.2200274510548775  0.8576182856600422  0.5300583830082688
  0.7894686686618163  0.1480026353440108  0.5902865560912177
  0.4376495612668408  0.4904003888775382  0.3141532606829744
  0.3506781897957978  0.3129908043540345  0.5742777809277035
  0.5651158124287208  0.3666347331035661  0.3161772037013616
  0.2133216014560098  0.7131919764478669  0.3890254343120196
  0.0170373182181386  0.8030059369925041  0.3264441404519349
  0.9893397460475545  0.2168534532752335  0.1078941597330241
  0.2760680888039205  0.6513073732098180  0.3997790357213045
  0.5915259855754983  0.0804799812302648  0.9919743253433041
  0.2922356435902462  0.3192358437880534  0.6364721193655771
  0.9279333896555630  0.2795809521464004  0.1119373221084540
  0.9269789759114124  0.9003120351851090  0.3898627575004792
  0.0050609616889712  0.6422035691674410  0.1863336059395639
  0.8090709968946631  0.7010696734427780  0.1632082112419551
  0.0427892389861843  0.8275900262127596  0.8552391162854367
  0.2790666298462291  0.7950911417715653  0.5299829090727942
  0.6134742235902281  0.1231689909789266  0.0648226208431177
  0.8514069211440185  0.2057139693894673  0.5896227741255456
  0.7166656976409652  0.6412813935590201  0.6421770735110139
  0.7849048309765358  0.7404815138316329  0.8613269350877070
  0.2900052774924744  0.5742526664337461  0.9278846889439568
  0.6070477392007485  0.1523672643910787  0.6487205345167019
  0.9278436870036789  0.4292618921968846  0.9304172969061791
  0.5007107738896379  0.4283462622420900  0.3186452255231244
  0.0690013792628634  0.2900506728055301  0.9975917453501930
  0.6449225186741786  0.6431316052708547  0.5033374795430569
  0.2900999400764773  0.2868990972807405  0.8579032995191772
  0.7870576899365548  0.6421729654854800  0.3597888052051466
  0.7123969602959561  0.5723962859238564  0.2915859610995620
  0.2179616014374186  0.4925428911828390  0.7783938613987917
  0.0013738223696611  0.2875578494848602  0.2811650035608080
  0.7885211970117244  0.5036123682072516  0.3555428609649559
  0.7110804402715397  0.4312582713477175  0.1445739068991689
  0.1403428115839648  0.2792140577268645  0.2791983439313138
  0.1463248856732293  0.1442889115387600  0.7173558119437422
  0.0721911842979083  0.4999537224219305  0.7838423545771614
  0.0727520534761773  0.6443071717950331  0.0931855104670091
  0.7798903914766914  0.3614593354474659  0.2163680353941255
  0.7775533906223085  0.2170780258862679  0.7803912519622693
  0.7665072902263144  0.2359740639171573  0.6416419570503518
  0.1487756357751394  0.8571419861333199  0.7058598385793490
  0.2212378624519582  0.9397250877921494  0.3616266023468617
  0.4959949124755990  0.6428538758303335  0.9312439805654406
  0.1428511690699609  0.0044594040251284  0.5740876613424953
  0.2152523571389440  0.2174248398288980  0.6455284703356753
  0.2158032267266603  0.2136662273072552  0.7871596683918989
  0.0704203764252114  0.9357749458497046  0.2143569821871535
  0.1428623973988471  0.4241700640692376  0.2848554186559284
  0.9978060354913432  0.4259181211963908  0.5717900324708965
  0.6407446331247048  0.7847436204059881  0.2193315928703898
  0.7866561635282292  0.7822648997875482  0.5012967574757415
  0.0033725979895022  0.5688969255718650  0.7135036132087865
  0.2239624518139609  0.9261677794467063  0.0715963874257781
  0.1416288109361548  0.1304044735624460  0.4235925436644721
  0.2178350412050170  0.5018204424620311  0.9265000093001962
  0.2183786254704186  0.6426836984777660  0.7734431866555191
  0.5669420037727072  0.5740926950064477  0.8597273012719724
  0.5693471750602143  0.4255206175165236  0.4138905414772963
  0.6440436293340501  0.6447070352811820  0.3597057162903592
  0.6402854322683529  0.6425502784565010  0.2183987323043114
  0.5675304007794614  0.8540626842334409  0.7136894965258054
  0.3443446970084144  0.4930681308765572  0.3542068803612306
  0.6450417489178385  0.9175034804859495  0.0710112841915367
  0.7683833300546120  0.7795656615370847  0.0986532807774701
  0.7835148071831720  0.7855979017841811  0.3605523644988999
  0.7112626700834015  0.9998232279756621  0.1490183455599149
  0.8522397655482258  0.9930194764839071  0.9957664623129223
  0.6459322159983149  0.0631150837406670  0.7904914251128390
  0.9074429467792751  0.0822985477005526  0.7611193391683116
  0.7783673974850475  0.0628199891488398  0.6395756209236154
  0.5703542961115071  0.8566519078333960  0.5711369747163936
  0.4323481086773621  0.8628931430915824  0.4296076955899460
  0.6985860269899915  0.9974731068155382  0.2933266328657228
  0.5706719002265211  0.4349435239910692  0.8608673577064618
  0.0069629981567153  0.7146045197185640  0.7102457395282722
  0.2878447074164413  0.7105640427713701  0.8483045267955905
  0.7128255649978557  0.2933965674976111  0.8591042657138448
  0.7897927646035486  0.5029482230592771  0.4986596741083181
  0.9303985215262111  0.5048158714575791  0.7882620386069585
  0.9257794862225227  0.2070451001568249  0.7832453053658085
  0.9327513099925340  0.0674172735693556  0.6426112022708526
  0.1464723475144283  0.4272552224860944  0.1430555544860299
  0.1919428737600603  0.7691051234506610  0.4810980508477555
  0.0740734725134604  0.8001492831903689  0.2351611189870158
  0.0775303612608085  0.6425810381790460  0.7751997168028882
  0.7875395602830737  0.3553384988406438  0.3537813624275470
  0.0691876088705983  0.3535023872498259  0.7879094233727926
  0.9997169222896755  0.2827693748299396  0.7177297091434832
  0.0637842312094328  0.0786140744950791  0.3464874023232392
  0.8605388228659132  0.5697541618722962  0.5708117899325279
  0.0032932770185568  0.1384240737042020  0.5671485478802269
  0.1504891589699032  0.9975045512488917  0.2770778988706631
  0.2198231574468711  0.0725147881432381  0.7842494796800822
  0.0001756133673436  0.0001046993192843  0.1358046977235833
  0.0801191590371396  0.3638316693839069  0.0675546114121143
  0.8635521870281144  0.5811705460298718  0.8568506464811502
  0.9377264565425315  0.6442488116435953  0.7824839167990107
  0.8632121439143040  0.5707274720702638  0.7162729314131694
  0.8565981469077041  0.5720909056575472  0.2855471700975648
  0.0091491481173639  0.5748530809035909  0.8522969152011097
  0.7180691637084220  0.5750217326847289  0.4317471749692657
  0.7903433988908821  0.5038252750171431  0.6449558442525298
  0.1352702804567037  0.5597608018487030  0.4292166064488138
  0.1979133090755720  0.3511276507566873  0.6436502672933060
  0.7023366430827862  0.2904719686807661  0.7197622956084020
  0.2225783028613462  0.0680324038880723  0.0659642902134414
  0.6958754011351663  0.1406254018477550  0.9941417285374744
  0.1499667824281212  0.8599125279985300  0.1452057517500639
  0.7183491228948724  0.2875733886348630  0.4271394651338574
  0.2183569497375739  0.4977318854781407  0.0794091106096578
  0.0773786069846805  0.3576204410548999  0.2173380190214062
  0.2211302972939053  0.7843580920632237  0.7758947539939061
  0.9835139733963332  0.8967379422352009  0.2997088045217834
  0.0000777424579128  0.8560057004486192  0.5677007502292817
  0.9988603135752943  0.9998764866594525  0.5713500573523409
  0.0215878827750366  0.1184712966407963  0.1009246778581807
  0.2908780676015946  0.0007278257188946  0.2829065150754790
  0.1491858508928193  0.5699605904173853  0.8350590173941401
  0.9913450928182348  0.9851678120563684  0.4032851106796255
  0.9967230193118319  0.7087902792119432  0.2817443139185610
  0.0723678356529615  0.3597803691451824  0.9261930758304971
  0.1460917690163193  0.2858363577715862  0.8577704084701411
  0.0740533221737030  0.5048078684591624  0.9288685960590796
  0.4296301206593143  0.4305737551520291  0.4109978071728023
  0.0079061431717388  0.8608183480663066  0.1512023908618268
  0.0730043509263561  0.9178778685684453  0.7848940728319880
  0.9428939317938646  0.6496675699856639  0.9247987681061880
  0.0926776319386402  0.8876188623004155  0.3431681858310161
  0.9550629583378883  0.7974303727719119  0.0581322675351345
  0.7212812080190342  0.8420321776577216  0.8554009846780324
  0.9962637273897027  0.2844452962975246  0.4273775572633995
  0.9241714934047213  0.3547363654432868  0.2085624243391377
  0.8562554574854918  0.3033347863295818  0.5718519838461504
  0.8426887213398732  0.1441901010960977  0.8488751720728895
  0.2924470596676759  0.9976290337329955  0.8532977614393629
  0.3612218684631871  0.0802595353108971  0.6467481127843584
  0.4332102016345439  0.0078015706445798  0.5761127840404999
  0.3639123194515379  0.0720868366745017  0.0671844574884757
  0.3646604245441330  0.2148943772139918  0.7869966556666982
  0.4343746958919786  0.1457104718947584  0.8586596833077814
  0.2898449038101547  0.1388055851148012  0.1358263999347898
  0.5668986948469370  0.7111796115948448  0.0037459218945343
  0.2897998341741255  0.8571588771444800  0.7057261848840173
  0.4968840032398558  0.2250080059156408  0.9241553102672738
  0.2895347447564069  0.4294042897734573  0.1469340002774725
  0.5722896016085322  0.9786197372755968  0.9937485126251913
  0.5705552973520778  0.0006016511288158  0.4292207306370539
  0.2264066347014995  0.9211375377217671  0.9216671256735847
  0.2894859553659585  0.1484819511630515  0.7162918628868868
  0.3572898410458096  0.2254526296823265  0.6428283282920222
  0.2882234264157374  0.1486717550511991  0.5772580940254156
  0.2864658325599150  0.1421609082648190  0.2813651741966033
  0.6412830214877768  0.2212142173494512  0.8022236027362071
  0.2932536454817150  0.1409892662039964  0.9966122146858098
  0.7149133951845760  0.7135186197392829  0.4314360516667829
  0.8578941029558216  0.5705024140206068  0.4278256402921868
  0.4269177286245869  0.5649996458621040  0.5661536725854475
  0.9346342816837152  0.7845535851588221  0.6391763350288631
  0.5688011436666776  0.4343955781796109  0.0023337092300565
  0.4979886968701879  0.5019560682682052  0.0772294431315408
  0.9296954433753128  0.4994015989682101  0.6446009500492698
  0.9321161735243657  0.9288521633976852  0.6369100903325220
  0.3579000304372979  0.3605098357047211  0.9285360141646478
  0.4976091611144052  0.6419269065324720  0.0754183048759599
  0.2149865715511457  0.9294133517621530  0.6354903864976993
  0.9282150817212353  0.6401979323578521  0.4969254902643011
  0.9309275159355580  0.7858495601067942  0.4954387227468204
  0.7069134279324898  0.8597528608132695  0.1539703828890815
  0.5120838255072988  0.2154541093871596  0.6478784125331314
  0.4967422013014654  0.4983090520073948  0.6375296058434797
  0.5727989017820084  0.7159619406354033  0.2876981388935999
  0.5695543306493868  0.1437736249797404  0.2877736206778829
  0.4259497947730210  0.7127203609548752  0.7077955603432562
  0.4337134056337061  0.0018662753635421  0.1376582581078520
  0.4988545440881532  0.5028828188422066  0.9306220336237190
  0.6402213227081409  0.3646245389705997  0.9300855082221993
  0.9537982933295883  0.7968413287267493  0.7860142019882876
  0.9546060161558694  0.7896400897012803  0.9195410166354239
  0.8543511569523127  0.9964245612424888  0.1325047327750823
  0.8535535817778096  0.4248326124970026  0.2845089152859279
  0.4283819617533387  0.5720964163836478  0.1490952986259605
  0.5042421302945796  0.3598502888041766  0.2243999990054132
  0.6960162753607908  0.1287319522332128  0.1335751799011975
  0.6375360277124531  0.2248394436541258  0.0740007433173057
  0.2856403252487836  0.7150275618665081  0.3031676995847490
  0.6440338694688524  0.2155566659091935  0.3598573788322673
  0.5676000860616148  0.5711281942932918  0.1467577424281301
  0.9400024949964774  0.7986350087666808  0.2327243425985976
  0.8844240986277275  0.7228219103745605  0.8519008187687311
  0.3596767753359241  0.5009811400784386  0.2229526004751561
  0.3612889465789274  0.7842795734322197  0.0730637149041616
  0.6425082065465658  0.5025931126162283  0.6412399180355925
  0.2908044375138485  0.8531734103917610  0.8514411698272685
  0.8552726365075937  0.1504742337021024  0.2791842182617609
  0.2928525020337465  0.7162630065227673  0.1456496592838421
  0.8409866841307448  0.1535677499471127  0.6935587231816932
  0.8538958387633486  0.9962015962164030  0.4334671201297784
  0.3581327696989249  0.6428017879127844  0.7769387367154320
  0.7814715354971745  0.0735133795414234  0.5048446030564379
  0.8501220114900226  0.2811969592881216  0.2745027611746135
  0.5129527243134997  0.0704476732787470  0.0667145466725439
  0.3484500060373701  0.3482528088028710  0.2089546928212307
  0.0050024392813670  0.1442437725343500  0.8929453972451744
  0.6499355994578059  0.5068978783855879  0.2074873322741284
  0.9285348239080399  0.3585057089934356  0.4971017070764964
  0.6399679884406523  0.9307366289579736  0.2156875146052025
  0.4386743371219007  0.2849349557953642  0.7191233067056758
  0.4340308619986809  0.1479687781817849  0.7158429275047429
  0.5093261581044776  0.2157746345099631  0.7867844271273370
  0.3592188022583317  0.3596963940030145  0.7877035031251023
  0.2867838659792147  0.4116790843242322  0.5720146696734593
  0.3589211930823256  0.9274361791869047  0.7832982557018989
  0.2239814756986507  0.8124620670606906  0.3592782693153728
  0.2943381738149551  0.8640273114248310  0.2834203951888928
  0.2254919365620917  0.9350431562764067  0.2092157999247224
  0.6400081836440531  0.3598577208486619  0.2222673695356978
  0.4997036381547097  0.7856547420078036  0.2178071162538585
  0.5695801247276840  0.2945527672290536  0.8595243349002141
  0.2162330134402927  0.4898401368473111  0.6376650462464013
  0.0172929103385418  0.7128833883421937  0.0016882885110553
  0.4276962919659306  0.7116200039990822  0.0036432885334351
  0.1358588588888549  0.5646446815689462  0.2750653097931169
  0.3602516380869432  0.6422912749976381  0.0770327734815183
  0.4291428908202324  0.5719510248172712  0.0044019352668025
  0.2883277547723258  0.4301916542681983  0.8544265262367362
  0.2838549486711656  0.4173372609453030  0.7075337400807185
  0.8463960008475300  0.8542192509519380  0.4340522476320758
  0.4276625238084185  0.1433524207075349  0.4294333525695684
  0.5761712682663990  0.9990696067877436  0.1416906766862487
  0.4985060387388256  0.9199920670482420  0.9257956856802051
  0.4957367631517299  0.7820786669454464  0.7815205764836159
  0.2889961648719828  0.5712284255577074  0.1516308568139938
  0.2160557742052453  0.6363960789822850  0.6351929676526996
  0.3613637180298281  0.2160334693267578  0.9280723938879576
  0.1429700188372557  0.5638835576949625  0.5683488884645053
  0.4310571213683874  0.7176197584726015  0.4298515778115542
  0.3580616431946897  0.3592917394807528  0.0725869536656640
  0.3548009226992332  0.6367548501154765  0.4912688646888737
  0.2884589728970963  0.0031401757980911  0.7139865952647778
  0.1466138249686760  0.5649497001531647  0.7055137440627713
  0.2907462527203997  0.2879914292803910  0.9979141163329711
  0.3565775466067483  0.6475984115913018  0.2199372906236012
  0.1663164885335411  0.8646946670003999  0.2707706468396504
  0.1564872431137860  0.8533509008356330  0.0015596433266933
  0.1509286618645064  0.7098268072817674  0.0087126726823411
  0.2944644895352312  0.9973708902426323  0.9970385664004473
  0.2216962055478350  0.7869064803688802  0.0749426017284041
  0.2939002548397710  0.0016421080267861  0.1375088585308007
  0.3606317672179810  0.0714184438017935  0.2103964729401729
  0.2939557696726092  0.8575592897412335  0.1427495804951349
  0.3594512987284380  0.0735046955961725  0.3535182020104874
  0.2969256611873584  0.0070736236466300  0.4296410146169864
  0.3615629372985036  0.0773926190957076  0.5053731884858015
  0.2212358686504514  0.7789798591618016  0.9258657659473613
  0.2860074835295047  0.5717863885358617  0.0210019820927371
  0.3612906298052576  0.0740273423969307  0.7865132354875742
  0.3573474519102816  0.3564079092511445  0.4860976737795497
  0.1609884281936741  0.7253575534540568  0.2950647437853519
  0.6417405957912924  0.7842889254313491  0.5023988849919265
  0.2796832539371392  0.4222594962413114  0.4244540814044795
  0.3566331733501541  0.4905513083556158  0.4950196473023356
  0.5692565923894675  0.2980825105147883  0.5608743732449030
  0.6435502680138425  0.3661827700787147  0.6398031441043117
  0.5728434864161406  0.3041944883108978  0.7178816558798375
  0.4224502446513450  0.2774671604041017  0.4300949907127811
  0.2286295600012906  0.7852004962032205  0.2151009656593323
  0.2853860368186764  0.2823421216953772  0.1383930152512116
  0.2815054375621806  0.2786240885404517  0.2823991736440501
  0.4200228185919488  0.2784853166541637  0.2803249158566743
  0.2865834345398195  0.5650104780304955  0.7055318905728744
  0.6424046953687788  0.3672016201800307  0.7915815350943339
  0.5036273205119349  0.3627949357045586  0.6428397207114316
  0.4972542721870634  0.3599939263859437  0.4881570124577410
  0.3579101277432570  0.6441604053275757  0.9292843884022604
  0.2884819340192249  0.7127916792891693  0.0040587860000800
  0.6428579864758378  0.3651735818291257  0.4903170287732219
  0.2097980700458955  0.2072813964307133  0.3529642670212074
  0.2630812758190480  0.2782282291548931  0.5533765770309466
  0.3781970935174595  0.3588484195806700  0.6575466194688686
  0.2876296355310940  0.2849946439638415  0.7269518233771510
  0.4356365959780055  0.4343341302788255  0.7185141849200238
  0.2195522268057742  0.3626432981810305  0.9250699806237704
  0.4273315813129869  0.4328911999638235  0.8588211373636073
  0.2880373742033217  0.4314124328870322  0.0016960667400094
  0.3597791563135103  0.4998488708824720  0.0791498713331702
  0.2830030654200303  0.4195571532643843  0.2850729875440238
  0.3656921466539753  0.6465611243001145  0.3608623604885131
  0.1515027134748092  0.7114711688593017  0.8470494170785032
  0.2180031983725453  0.7896845638146781  0.6236553510798447
  0.9227026892635862  0.7901641598049776  0.3608319868213538
  0.4976271767070409  0.7841931821003958  0.6399246133918362
  0.2858075065334570  0.5717191888141593  0.8350721888914251
  0.5010800967546861  0.2169677480408544  0.4953595907480144
  0.1387108697921450  0.4237883907949381  0.5700264981357335
  0.2912071418080949  0.1441605772491266  0.8562552368882189
  0.2122190997165329  0.4907449642457123  0.4989465662740880
  0.1371028615613872  0.4256890006295801  0.4239487367203071
  0.4983483812088044  0.2213737156735701  0.0752089103728841
  0.4292878543032905  0.2909104717349105  0.0006501960505002
  0.4996466839681822  0.3623899735758105  0.0757971982210022
  0.4293794817500021  0.2883853798924304  0.1444132561317650
  0.2080788424568496  0.4951744925695799  0.3520531302636122
  0.3527942960056428  0.2090456018344791  0.3565540058536341
  0.4821958649354462  0.3380855715379344  0.3567793710019008
  0.5000638649557038  0.0739289038724086  0.3573440801069337
  0.4335095311734345  0.1494345885526251  0.5754206573769584
  0.4326004559987520  0.1415377398160363  0.1389449555789256
  0.1562225727351410  0.5700314871902881  0.1499502548206584
  0.2212182377068779  0.9248823717638228  0.7794747998489406
  0.3572138028031193  0.4968053722768654  0.7797777660686436
  0.2917907471337654  0.8534811215117672  0.9989433251770440
  0.1946823339508659  0.6219113122254921  0.3528327281280750
  0.3593015613234521  0.7860916549901011  0.2194694368433520
  0.2984722494625187  0.7371137686374959  0.4390484703057440
  0.3607078111969306  0.7966221850065471  0.3593680056502368
  0.2823994026137330  0.5565451092119906  0.4253602579982088
  0.3744479901956696  0.7958619532592709  0.5044080350951136
  0.2873871613566491  0.7030434168153005  0.5656889198984767
  0.4306608213713943  0.0011888587557189  0.2853216165967973
  0.1507898948972403  0.7139700953364991  0.7021496774399559
  0.4960025821750412  0.2119964560942613  0.3566619105294025
  0.3555163145327510  0.2092402506329763  0.2083034319201737
  0.1303559584746219  0.8619243048418268  0.5676162507864754
  0.2782542400376068  0.2787591406930749  0.4264770249011825
  0.2837898707068256  0.1381321642547942  0.4278729740355421
  0.3557609838936425  0.2160186899442407  0.5043175144547402
  0.1408802279711328  0.7045526372060961  0.5672207589218001
  0.1002049969262494  0.7768391381152353  0.3755848320414279
  0.1265621940590668  0.6858728513468760  0.4347637696564072
  0.3672481719395761  0.9399196117844215  0.5011043142771322
  0.2862692805089186  0.5617862042618958  0.5663880872647429
  0.3579244539426277  0.6366429872655992  0.6369312047450066
  0.2172746397081160  0.6348266710672490  0.4920142348453606
  0.4312904007026302  0.0050968240343515  0.4278731338284960
  0.6358366328444195  0.0726727654319547  0.2215349184013380
  0.4996884707590100  0.0737096990139428  0.4991852336581724
  0.2930759588634884  0.0064414078426357  0.5781522089853210
  0.5077371886198672  0.0772269721620098  0.6449156759852532
  0.4337072537504967  0.0055568094417139  0.7172698458979193
  0.4976071191642282  0.0676871807730447  0.7959707229229978
  0.4297344862189698  0.9959947579034792  0.8586109704034194
  0.5055672194035160  0.0676592774842406  0.9309137772743901
  0.4341378617306092  0.1445335711422165  0.9984266670815544
  0.1396035288267675  0.4250800862361865  0.7153799010888209
  0.3579800207325095  0.4912048287227544  0.6388459432784017
  0.4979952000879380  0.2150212001393823  0.2149440041966628
  0.4281421311356973  0.1426736946477293  0.2832601841127363
  0.4273268143135423  0.8512879769165973  0.8535867620124867
  0.5720683518476908  0.2890343444531739  0.4211217210772386
  0.5021456054823469  0.9311905668412348  0.6454740147991075
  0.2037170977673023  0.2038557096077635  0.4917693425923826
  0.4278610836370110  0.4267507852542728  0.1504942403626069
  0.1493604507571947  0.1411109360760207  0.8605893343152839
  0.4101973384103369  0.4058863897792008  0.2794606261078611
  0.6402493555866435  0.0698916716921685  0.4981973022823892
  0.3496365683112397  0.3464268196749680  0.3581246870271033
  0.5708781094947503  0.9996649616517409  0.5713544718224534
  0.4995908678679226  0.4963301739175881  0.4923882857725841
  0.5774088848275545  0.5771130807672882  0.2830695160173877
  0.4251411417561991  0.5717321963856220  0.8556325789106284
  0.5916314861417551  0.4516702413679978  0.2827233506663895
  0.3571925262290324  0.5017202343951500  0.9303099123362607
  0.6472870663951006  0.5085267197645936  0.3648129281445876
  0.4952315355143169  0.6403493637200476  0.7826894574194574
  0.2135003056127437  0.3569052680054154  0.7876192754219150
  0.4286609189798105  0.5829011822335748  0.2884657937296043
  0.6548243753094387  0.3574481196533731  0.3556942829292620
  0.4279864174021751  0.5657603060447035  0.4235947458921601
  0.2872070147647252  0.7138706379843115  0.7030069887057336
  0.4298882652213324  0.7153812501107697  0.1466864490451364
  0.4303400059322771  0.7179127057666268  0.2891747830537614
  0.3577185470423370  0.7803192085739868  0.9269705015865107
  0.2045148220451241  0.3560000719926307  0.4929458466556865
  0.0696147632835584  0.4866418885295490  0.2119344448931926
  0.5726719520542466  0.7146124348646475  0.4308331615793183
  0.4292763434423321  0.2910155394084972  0.8562776451272942
  0.5009703978322133  0.7878538763792314  0.5014895572625686
  0.5779739395276114  0.5787164765189037  0.4358200371944362
  0.4279401667892518  0.4320710193859090  0.0027933287152756
  0.6414507584553936  0.5059675167312191  0.9298936031773100
  0.5674129759820855  0.5723031601019601  0.0025465339913115
  0.4978904968117290  0.9242268110174003  0.7846995700150706
  0.2200640681629700  0.3605702003501367  0.0727168201054774
  0.5009793203557864  0.0706038831075042  0.2134052610439510
  0.6566464748124247  0.0363470024660351  0.0542997649204373
  0.1635756362048316  0.2913890415705501  0.9972366020363552
  0.5683337741410930  0.9994968621682524  0.2881977156819964
  0.6387465192366176  0.0724300996352204  0.3608017053522666
  0.4997933519564596  0.7837792985439848  0.0736399797665067
  0.1475636916918441  0.4335209189880581  0.9993666400439687
  0.5010022211429317  0.3644292365954679  0.7901033485224354
  0.2190974503790934  0.4958041758261419  0.2189242703627373
  0.0182229420757868  0.3056835550715112  0.1398166462273555
  0.4311908198625478  0.8554426778551874  0.1445462966132535
  0.4957913900806229  0.4979426567513761  0.2246313346723291
  0.5178254170344494  0.5177141791000480  0.3612776746332356
  0.4280751249662229  0.4230540419631264  0.5648906832303223
  0.5000533873160317  0.5029358597626598  0.7893504922017293
  0.4987858724886963  0.3644604984456243  0.9297447635173993
  0.2226444419425169  0.2145754149691669  0.9276484445807316
  0.4999526348135214  0.6447252476087023  0.2173862456319466
  0.5037950683562868  0.6451034864993761  0.3589099406778175
  0.4971679869771432  0.6406854440398715  0.4980700134152175
  0.1383727898926833  0.2826975929095413  0.7210735796604368
  0.4954818503536072  0.6388795301954356  0.6385608624674880
  0.4270726721081707  0.5678592494278484  0.7099238078759433
  0.6371251682314182  0.6433453919492620  0.9296721855251275
  0.2198905872559178  0.2117371277341065  0.0675605897222318
  0.4274712168050930  0.7099757400543714  0.5679364575799252
  0.1375773820969638  0.2809609956666614  0.4242589474401989
  0.2088649814908105  0.3496953903233069  0.3532859661271194
  0.6523885244637728  0.0491839883188538  0.9219433390288094
  0.5617914705762457  0.1701189563788899  0.9932796545087517
  0.6421042981409055  0.2268213882186140  0.9289256279730965
  0.5690209595350990  0.7145058812593788  0.1475871512269877
  0.5670178780309434  0.1454498022653797  0.1489328885119805
  0.5737170983099897  0.2746748299617021  0.2873320601890751
  0.5715681457736539  0.1458971062355065  0.4276885745478592
  0.6437223325072003  0.2222320983742549  0.4962530550914881
  0.5697564875526514  0.1467209973095558  0.5591092631238154
  0.6439408060801544  0.2408528291347969  0.6242228026183031
  0.5764085827614949  0.1400455777651165  0.8666367884920724
  0.1394245521710758  0.1419074699717568  0.2773737463133107
  0.1373582111385115  0.2825947514078146  0.5668188283489312
  0.5687143545471374  0.2949754855639382  0.0009145993150498
  0.6394263250625242  0.3634969743320091  0.0736529449305988
  0.5702408615817243  0.2907363446594506  0.1480524357278138
  0.1408218348363195  0.1429854432944316  0.5730730608116561
  0.6409137766235282  0.2117513314650313  0.2128440567396982
  0.6380934522168580  0.7851916498771143  0.0785000673767979
  0.2156451326217574  0.0753749773159712  0.6460502140391331
  0.5010502807970804  0.7879518981837303  0.3592974179199021
  0.2138659520198103  0.2090507915666374  0.2074986562001057
  0.6410503951140200  0.5035722288439819  0.0723329994353208
  0.6411819937824517  0.0595000780106456  0.6453420116906934
  0.5722822882821479  0.1261448187685452  0.7367818783702061
  0.5713492800223080  0.9960247036628482  0.7197761816017787
  0.6438278929308703  0.9181877704865744  0.7850214957643553
  0.5714244126147939  0.9897262427992557  0.8563412937440168
  0.4970398676434661  0.7800151600004598  0.9282772719962444
  0.4263361901885011  0.7113584129893995  0.8533601090528589
  0.4278637914202942  0.8545385511022524  0.7109982320664664
  0.5022591163892505  0.9249943595306054  0.0718910790707123
  0.5007704458414888  0.9306999288663607  0.2132369166283752
  0.4319315876974028  0.8601482118749547  0.2857156619973806
  0.5005261367942042  0.9302173571907971  0.3584712888343876
  0.5708737411531246  0.8565315055993995  0.4305965807668772
  0.5012937574916054  0.9320213832392212  0.5007146359602591
  0.4334084034376432  0.8648787091962735  0.5758657853362940
  0.6440851874862922  0.4997573126732558  0.4970024947723434
  0.5711897271370741  0.4316294793301841  0.5661474121243275
  0.1472773013059051  0.1368466063779616  0.1310471246933327
  0.5722863751875538  0.4344245182709969  0.7145617535350517
  0.6422406296178377  0.5048253086607020  0.7879435330503317
  0.4298368883703283  0.8529632575692113  0.9995460801363181
  0.1472205160795195  0.2853445392608580  0.1388579257352991
  0.6349609344857766  0.6395788185606466  0.0774480385092583
  0.1592869040493032  0.1389132818470623  0.9948324078938259
  0.2245495351072544  0.0674941034606198  0.9242826039564448
  0.1573508579745393  0.9942139958257648  0.8520936171563230
  0.5710855806138998  0.4331478985508238  0.1485569014756223
  0.0790017568968645  0.0672029504010547  0.7906133857388261
  0.7172930951584710  0.5710317792107121  0.5712135420201838
  0.5681499081562410  0.5672060828687941  0.5671552417103183
  0.1472340562994459  0.9979688375979923  0.7150029606955316
  0.1496657654992790  0.8691951424332041  0.4442353509390228
  0.6244414843299700  0.6399609172910921  0.6407888090402005
  0.6345590032885953  0.6386748255402822  0.7798673562227695
  0.2132833053504205  0.3536049198643778  0.2123492078869181
  0.3602089390995563  0.2138508272859636  0.0688070206655005
  0.4437706168790295  0.2857851616169462  0.5725547814311265