 B Cr Fe 
 1.0000000000000000
    20.0899999999999999    0.0000000000000000    0.0000000000000000
     0.0000000000000000   20.0899999999999999    0.0000000000000000
     0.0000000000000000    0.0000000000000000   20.0899999999999999
 B   Cr  Fe 
  41 206 480
Direct
  0.7367387020603047  0.7759546942564041  0.9386057640071871
  0.9163137241864020  0.0243584248019831  0.1237519323270218
  0.8546211073694568  0.7304717425079224  0.2021641631323002
  0.7491002456986307  0.0711136139180599  0.0547965943236330
  0.9966032607772654  0.2698384401545521  0.9451097211434197
  0.9788464143129242  0.8505844660209482  0.8182163046828344
  0.7923728696164430  0.9955700419890698  0.2277508055541453
  0.9249334066378340  0.1334487357562392  0.8605949818621205
  0.0639467366721375  0.6818871989948098  0.2936943165915733
  0.7926539114508847  0.7266422846235565  0.1426166245737854
  0.9915160960653159  0.9941323085518967  0.8075356660886468
  0.7949465795683023  0.8588075047439334  0.2909476455962620
  0.1216781217872752  0.7900280299305489  0.9446643469002796
  0.8691560292647739  0.6033085712250362  0.0733286956621220
  0.7885993046751749  0.1303933385130670  0.3407374287311318
  0.9973812939657221  0.1394519522409199  0.8147962887027104
  0.0231546785095085  0.9397054748572103  0.0447265761343478
  0.0566972208859328  0.9913891946970916  0.8654374342643092
  0.0705133029281592  0.1446572990507580  0.8571407833659117
  0.9944397315637801  0.0987721073112649  0.9874127005149637
  0.9282271690925875  0.9956286733161417  0.3125990352737639
  0.9874522428585139  0.8111712067126193  0.3328695267736657
  0.1226583802433616  0.9234192375797949  0.3389543356620376
  0.9319596650385493  0.8230865408228060  0.1107109621660462
  0.1401820220617853  0.7496063503254984  0.2051373171854720
  0.9395566235896780  0.2887691505776823  0.0093869027472869
  0.0034558678358593  0.6752599439855589  0.2356642822826463
  0.9976716397944448  0.5930180534667134  0.2004468550482523
  0.9345794211281498  0.7297560525926984  0.9920801060169461
  0.8535881338864357  0.8648478199479023  0.3520348481160808
  0.0707786820057273  0.7549574714932268  0.1445084681202271
  0.0676947274307251  0.1419241730369692  0.0012756311529678
  0.0829697364505785  0.2948784488763423  0.1868535924209832
  0.8017048527649009  0.7778455923210371  0.8782618623059585
  0.9825154597329989  0.0569300869185149  0.2757576242495511
  0.0562453135259195  0.8658657275515846  0.3330451934149166
  0.9859131554342446  0.1924795823162396  0.1259097996303098
  0.9319899355928940  0.5962344996611282  0.1345949899903735
  0.9180309434343584  0.8755379205301375  0.1822459820618111
  0.7277398086284421  0.0716570500270085  0.3398749248339052
  0.0575727380240453  0.9242037494723183  0.4019347187285959
  0.6388381539665220  0.6410314760751055  0.5034065702571429
  0.1508907234235501  0.4434689875224650  0.1495552156724014
  0.7117600383326995  0.4356814196738916  0.1438231157970604
  0.7799197684388546  0.4991829297486379  0.3622782443567815
  0.3584855436295772  0.4985648588449437  0.7825515309193619
  0.8601059152123295  0.8687250643903809  0.8469159896881363
  0.7089693775849690  0.5724332994483863  0.2912038146880380
  0.7757519456290110  0.6391359034321635  0.3662683414409680
  0.1371398556966156  0.7191243221514030  0.8606912761471298
  0.2926881804504575  0.2870617829340275  0.9994498423914758
  0.2164507478218392  0.2168005541503975  0.3547877094407565
  0.0022244499092000  0.5681121692364078  0.7135828743768025
  0.8484676037028887  0.3015359108743250  0.1524609904950745
  0.5713014280800317  0.1446179059286366  0.7129754180112970
  0.7867113806956988  0.3560381600213484  0.6426633681799635
  0.1527538776264539  0.8584622353133156  0.8580496952201888
  0.1397470974750200  0.8546596279677305  0.4222470210961661
  0.4281782614439955  0.5700165346702363  0.9963801744052355
  0.1434950279841854  0.9980341267509930  0.7159103295593631
  0.2141180471045647  0.2116684171780205  0.6413936276337340
  0.4287124402299286  0.7117071692788266  0.9974125647272255
  0.0726582301626107  0.4965440238733344  0.7841071967940116
  0.0012007876827766  0.4268000850490151  0.7136827463984003
  0.2215972891440138  0.2139980010798567  0.7799395912382788
  0.0746982365152380  0.0716481294168236  0.6433752831089139
  0.2900854055098268  0.5680065273069511  0.4335853847632991
  0.0032491131501313  0.5864301160719898  0.3016679908698777
  0.0015478115885300  0.4253001509956332  0.8523526700488865
  0.4294142722775634  0.7124353836938302  0.8538492887219037
  0.5676974174019626  0.2886955671441415  0.4320734258246626
  0.9250643215683265  0.7959359101005871  0.9081781063313277
  0.7838311054884034  0.0722325147022132  0.6391318543405964
  0.5728974146570749  0.8587868747617119  0.7138591493547788
  0.4974255109077516  0.0716655312889071  0.4999212583303926
  0.7642859023296494  0.7801903196292064  0.2292253355746243
  0.7070914088230461  0.9941156026584705  0.9990038966785858
  0.6406304206437309  0.0738040030372321  0.7828486834444972
  0.9244542247780061  0.9214541369457504  0.0792191166560450
  0.4291094420552232  0.5680004475377429  0.7139485213004352
  0.3569418051241803  0.4979000347253957  0.5027738423096343
  0.6374568417038819  0.6407591663774965  0.3612756519251095
  0.6376259843953780  0.6405014254800140  0.2182902309587682
  0.6409878322351348  0.9290753019532897  0.6428009832170496
  0.7149317481331153  0.1446567881668950  0.4227466644869965
  0.4979623149406812  0.4985763147079736  0.7828735701797170
  0.7752917043985889  0.6451662639139105  0.0704329883546671
  0.8851149049359929  0.8090431043675111  0.2714137383538378
  0.7680735564303813  0.0964226163113518  0.2341323716434370
  0.6359698843009394  0.7846829882014028  0.2148462062392388
  0.1451811517113071  0.5705460457888569  0.8526270756023753
  0.2301517507499044  0.2118380643478775  0.0715116265490891
  0.7088091017157938  0.4293374241939518  0.2923559755829968
  0.9287036431714762  0.6394400676958066  0.6429480952040275
  0.7030793436322185  0.7118809084255031  0.2959639587631719
  0.8559232114049503  0.2841222316987360  0.7124737273515027
  0.8521522050501711  0.8570874460692431  0.7074110169943993
  0.9941728438652391  0.2993944009641176  0.1347727203683592
  0.0734154770795405  0.6408807748399559  0.5060260892651804
  0.1569612076249434  0.8381993001226848  0.2849623661066072
  0.0574462137897152  0.7849822057242652  0.2492473863407385
  0.6376308170781749  0.6384135123940683  0.9224268459820355
  0.8540830256399348  0.7100759591561170  0.7095659135201607
  0.9259964802261483  0.6386067915758268  0.5063990881788528
  0.9323021169448366  0.2249940356345311  0.3566214977757099
  0.2279674206572052  0.2104112566273948  0.2185851379536087
  0.0731053313107960  0.9247979050960488  0.5057757084465763
  0.2242771624711670  0.0728285992068283  0.2148906277154420
  0.2926810401308200  0.1443856611875325  0.8529040227543944
  0.8258813149923246  0.1447654027480218  0.0319726744238677
  0.9236855666499371  0.2112260428428061  0.7844045874127616
  0.1469007126667904  0.4232705084191892  0.8502181535562177
  0.0901090577608423  0.2294214215304800  0.0820678819563979
  0.2921431121000400  0.2850787276701449  0.8518632539653631
  0.1467976202247684  0.5691419433761453  0.4365629768284749
  0.1602547129795710  0.1430297028285270  0.1464711166081789
  0.0731544423575965  0.6408501140567086  0.7837415594667807
  0.0037971145015784  0.5676727333953646  0.8521358744829993
  0.0722408386362792  0.3625859211048352  0.3539467998083859
  0.7085055831570741  0.5703842494868941  0.4332603758990297
  0.0720705170454390  0.3551617060182925  0.7821160396636599
  0.7806837341363642  0.3615605068584598  0.9245575955828468
  0.8983800458062242  0.2193969659005306  0.9352602331491037
  0.8563132869433198  0.4291156908328924  0.7110002342836989
  0.7108860707225322  0.4282041724363162  0.4296086367583625
  0.7762034099645797  0.0748302916192044  0.9353981633215819
  0.9313666526107245  0.4970528477616764  0.7827878602087057
  0.0004478612006772  0.2857256553026705  0.5707303413032304
  0.7843542242712055  0.4980638335253362  0.6432207267899568
  0.0056773680106513  0.8383271553976361  0.4390150397325218
  0.8829725771595798  0.7103553635562954  0.0986571846483763
  0.0236862503129135  0.8642601465789079  0.1347961810144143
  0.9330606045071429  0.5102439511037534  0.2131445902537946
  0.9555914651947710  0.7669696689495520  0.1905590638612979
  0.2154350687932822  0.3577135370351299  0.5003305362469370
  0.2152664221293804  0.7856964082571539  0.7872636117314219
  0.0657416933893640  0.1981474826876286  0.2040606454666693
  0.3648228031839479  0.0717153635759628  0.0715765985090209
  0.9993340536240936  0.1404689188370286  0.7073367410530788
  0.9280455443471042  0.0739836156032631  0.5001848070928657
  0.1514353066602245  0.8409100529423043  0.1519271783410568
  0.0970633736499167  0.2234940423517641  0.9358561246957343
  0.2186532151577205  0.6394457902743402  0.9199918599341773
  0.2195494902347843  0.0706428292144103  0.7815162024844344
  0.0793838278178985  0.6557590713923158  0.0579028556768261
  0.7850325194442404  0.9306296957224640  0.7853885196698800
  0.8812440180953949  0.0502035518099454  0.2317095579033020
  0.2868646889282279  0.2876144737440920  0.2869169895242467
  0.7784926162216562  0.3652503478431016  0.2183157898535264
  0.1460056879487603  0.1411729059793977  0.7131823147049559
  0.1732977844976843  0.9977605802278299  0.9972137548194816
  0.2880181276204068  0.1438278321150443  0.7112165200307454
  0.3581014491370734  0.2123424608518120  0.6416484998463848
  0.3583247283957512  0.0704578596522894  0.4991710629470525
  0.2892176374223203  0.1426966790607258  0.2882668119781338
  0.0555373289536679  0.1187633374206634  0.1039187158002674
  0.6429633835747032  0.9260022837588773  0.7856718919543889
  0.3629728658982581  0.9297681928029631  0.9239743566060715
  0.4285902769494070  0.0026443783286419  0.5708969663255502
  0.5698433724799813  0.1434026267049620  0.5697307659487555
  0.2967056763655254  0.1432801493422622  0.1441364378983394
  0.3605990631502887  0.2118990446678840  0.7840022933485196
  0.4326434463947411  0.1444199436780235  0.8547108091975892
  0.8578751228361534  0.5691832397794090  0.8504730556520869
  0.7006884673780563  0.7001565337140199  0.9967905969526785
  0.2180829965781236  0.9277199685926364  0.7832322515174100
  0.5708802549905108  0.2892539292590233  0.9993162479579343
  0.3601744267023280  0.4990129137125395  0.0661947138648615
  0.2942273743955075  0.0007299917551964  0.8502947992378378
  0.4277135902059667  0.1426362899552318  0.4311409703510390
  0.0725614135194350  0.0658763694203205  0.7864715776254125
  0.8470387320508977  0.7056138413583761  0.4412322850563114
  0.6415359755679800  0.6425003309053163  0.7834781643447065
  0.9977125149145026  0.4412125453966242  0.2898299695610423
  0.5695762130493850  0.5692574923031651  0.9958954004927555
  0.3598537612653263  0.3553192967343314  0.9260762702909011
  0.9598763024755822  0.9996672096610891  0.9915414583850988
  0.9662788004151855  0.9739897906517664  0.2083289493131383
  0.5681197526905277  0.4314012551316759  0.1434176106250996
  0.5696626008832709  0.2868622398322602  0.8534791949131896
  0.7890251057604897  0.9059311533056680  0.0579587328798246
  0.7827916180536980  0.7846196069078992  0.6433780816995405
  0.0085479374848370  0.2931045187860297  0.2777458697347986
  0.7196604599688384  0.8549914850599768  0.8599474167464165
  0.5013984689366886  0.2123883049750630  0.6417554279991028
  0.4976577713517183  0.4974635765384249  0.6434476012993536
  0.5689549639983870  0.5720153416676563  0.2893793803652804
  0.4280913878556876  0.0012610939752538  0.4307350249213670
  0.1439494647069126  0.8564961798292198  0.5722137148374169
  0.5669739414640025  0.8528983645109331  0.2874055355235161
  0.4289358592798315  0.4274758093283770  0.9964529450702100
  0.9249497631225405  0.0714281385067607  0.7742406172633031
  0.7849197738781071  0.3622304508626173  0.3590661361929941
  0.9226376135652380  0.5082795560569314  0.0664069074372747
  0.9488453855786576  0.9063822977137055  0.3697538129867698
  0.9999062457267007  0.0045606551894761  0.4342848028361029
  0.7181405560704578  0.1432312394545215  0.1363934143367778
  0.4996799672156101  0.7842030882945863  0.2139729801599934
  0.2912569428892531  0.7102842257394292  0.2897245464100764
  0.5001785919874188  0.3556718273152482  0.7833951074977826
  0.4307685089937831  0.2875703289524553  0.1432545045983954
  0.4304368229694702  0.1456148236207037  0.7113043812806529
  0.7069999669651238  0.2948565573820944  0.1488372858221981
  0.5011401044229518  0.2128540239333978  0.7837247109431816
  0.6394654015226141  0.3598322614639739  0.3604885651634311
  0.3588480146901726  0.3552497725208812  0.7820923567677206
  0.0950435949111535  0.6497775061808406  0.1972456159209149
  0.4293417465087448  0.4265562593822619  0.7146653051107013
  0.6350706634917753  0.7822632959828720  0.3641107078735531
  0.4320693570211129  0.0000286092853916  0.1429560653775885
  0.7130446583458431  0.7132690475799824  0.8547377788461133
  0.6992380117921561  0.8587410177813367  0.9947774390352857
  0.6401679442452620  0.5008630285141534  0.3602158248809286
  0.9661390284889313  0.1076644462537579  0.1839268855338739
  0.3627750736764491  0.7845978105962513  0.0668042826182285
  0.2265198786105287  0.6352829351363520  0.0625760336236051
  0.1368451997619624  0.9959968309293979  0.4209315409722511
  0.2935624606089799  0.8575955191920609  0.8511294242451358
  0.0008807788313242  0.8538226367548035  0.9947042064881160
  0.5666432592603607  0.7113062761033702  0.1453213875766801
  0.8557552612787754  0.4301111734084054  0.4288586872578222
  0.5686536660654092  0.8526824018191360  0.1423398134703149
  0.0754966974451289  0.6336627691788760  0.9215671852925895
  0.6402566840388457  0.9282639214072131  0.9244726493635478
  0.3614489648686240  0.6408176506870743  0.9249596174707455
  0.3578783058578082  0.7857822593494268  0.6437668935430448
  0.0777509660321188  0.7634507059542530  0.3688866510556346
  0.3602706748078801  0.9297145678865362  0.7827439229489283
  0.2890581097045829  0.7146428989932734  0.4342778274605528
  0.2911930692642589  0.8541525572644065  0.2868126961390323
  0.0907153632383262  0.9250426785656409  0.2156063675810454
  0.8572511489431438  0.0009855820030880  0.5698232631110504
  0.5685508430459119  0.4269881328314113  0.5724268325158574
  0.6404586914063826  0.2190765277466543  0.2121294852558332
  0.2160488946117925  0.6416147323984459  0.6447190213958593
  0.7792183430387464  0.6392238023712136  0.5053419409837437
  0.7803974467060601  0.7849129087847474  0.3662955513506505
  0.2228394002706730  0.7822347940869393  0.3630400221823558
  0.3628557894022357  0.6393462547809465  0.0654908390028703
  0.2905168673709100  0.5694686733002761  0.9925440287969365
  0.6377016176430569  0.3580200837664274  0.9262986558327658
  0.2865741177090013  0.4265451921638680  0.5717799573912318
  0.9307326017900085  0.4978225821128155  0.6435473179021397
  0.9976357463324149  0.8551388574186953  0.7071001694624764
  0.9250738858178407  0.7839119477908351  0.6429156438134882
  0.0663303687712926  0.9205526116296550  0.7877288910957465
  0.7078657316751409  0.7114604343588130  0.4346674096443994
  0.3613407302862143  0.3583849524971416  0.0703754589254651
  0.2882530421348456  0.9997625267606904  0.7121961496671522
  0.4290039912716542  0.5701675064554995  0.1413148756646754
  0.3594906222987201  0.6424223363013234  0.2135243231089484
  0.3573351570429852  0.6416047590977983  0.5034228733684588
  0.3614936701375628  0.2152214023477254  0.9259854987959887
  0.4286063172501149  0.7133348429845996  0.4324422180170817
  0.2210717848474343  0.3531340417107782  0.9216346853150247
  0.1448669848387560  0.5699703833015217  0.5744429945861235
  0.2878015626312189  0.5690306028813963  0.5746963189849620
  0.1445723530858837  0.5700360501218934  0.7138015443637996
  0.0809606578499816  0.6394040693823372  0.3793507251334184
  0.2296006058792816  0.9275727698556169  0.0772511883357098
  0.6405554529625878  0.3579310625950728  0.5014954646031872
  0.2266064869079216  0.0728788539750454  0.9230292767549763
  0.2950272190496269  0.7105785963038546  0.1339142109735532
  0.2951628097576123  0.9995251179384761  0.1458921594989157
  0.3628011537055436  0.0716859030750804  0.2162556198810996
  0.2947802946333141  0.8546553413460525  0.1434354601266597
  0.3589756436696697  0.0712219846616121  0.3589311754686911
  0.2860340650402820  0.9995401601492564  0.4286282136389999
  0.3576708898116046  0.9296236981043955  0.5010434622147637
  0.2269044182928472  0.7861638027863648  0.9237023095441405
  0.4984455912121981  0.6400830329093719  0.9244446389921117
  0.3613848482663861  0.0734448425875878  0.7818914895292401
  0.2965080527368316  0.8600157030772733  0.9951717065082459
  0.1447488664062879  0.1447898462016644  0.4270115190016538
  0.2953467759027293  0.2863106868384109  0.1448010221803211
  0.1507344098341909  0.5716380392881948  0.1296814081313212
  0.3613433822288810  0.7843576965288045  0.9243926110890315
  0.7135591880208240  0.2862825865324152  0.5700865740584912
  0.5696798608500089  0.2853442636044447  0.5711521286494992
  0.5698755809367968  0.2849829370183351  0.7120134845972217
  0.3596834122560520  0.3590343275826265  0.2155574885356376
  0.4993569012966771  0.3600129488309238  0.2150229883141526
  0.2862587730699390  0.5703307675694682  0.7143742588762504
  0.6406832041400558  0.3564399833463099  0.7829122689456453
  0.4990789316251918  0.3561392411718313  0.6420755736874508
  0.4277859407852435  0.4282903616373216  0.4312701061782334
  0.6386765803566751  0.7843122433966835  0.5045326206722357
  0.4275064026790794  0.2867119758382644  0.4306042173452015
  0.2352225478960286  0.7764486036021371  0.2134803176906626
  0.1439481911931726  0.4270952300473932  0.5722185018862621
  0.0733285580249300  0.9267045306691293  0.6424740077265778
  0.2171518405959149  0.4983873661478804  0.5033764976651297
  0.1447200262565669  0.4293296647938805  0.4293618266810686
  0.5013101508077288  0.2168176398022948  0.0711860707673475
  0.4308114893019940  0.2869680774566865  0.9981336507174215
  0.4996064509308155  0.3594879580235576  0.0707845598061067
  0.5697577540282314  0.2898187491514723  0.1438028122443670
  0.8525141013980893  0.4332393893566109  0.9953289905234438
  0.3574954695131053  0.2152786955748057  0.3581031607535891
  0.4982036817904519  0.3582999007210329  0.3589005622223493
  0.4987745321518424  0.9278441143688513  0.3588976138630809
  0.5006363536042113  0.0729856563976445  0.6419098153298678
  0.4324114492450825  0.1436568322717447  0.1433988979466058
  0.9350451142228259  0.6468316349629682  0.9193561529756240
  0.2859622674377503  0.2842043304818473  0.5717770614255479
  0.9237552519819546  0.7801959014580769  0.5088243859281850
  0.4987677717342646  0.4982998268000287  0.5028687218461687
  0.3564941569425665  0.3565920387307970  0.5014002993193097
  0.1601250719664433  0.7075232129254857  0.9907961581444678
  0.2213196012138953  0.6444452408237338  0.2096247710264409
  0.5002273237517902  0.7864320546784181  0.6442570601715421
  0.2877523903056219  0.8568282558846200  0.7135806280584363
  0.3588216298561877  0.6412479522613901  0.7835641463608842
  0.1675371523299330  0.8672023306651302  0.9908064859219716
  0.2224420453727375  0.6396590075467695  0.3669766107642231
  0.3618236403078814  0.7821585854999102  0.2148204626516635
  0.2880136152835383  0.8567914302822554  0.4312279291238930
  0.3592151071000341  0.7840895190623508  0.3597289852246918
  0.3576641207494499  0.5004866814209694  0.3599647010205503
  0.3577400286472095  0.7861655709969847  0.5029325593460332
  0.9303562765177540  0.3697338285881557  0.2146619000207267
  0.5006239459947542  0.7854981370173811  0.7837282585941896
  0.2883518321224826  0.5688007039072435  0.8527069795715977
  0.5680464397333901  0.1444715491641816  0.4301425237993206
  0.3579307374530963  0.3561124346284223  0.6418184671331796
  0.2893670564892458  0.2834575795862665  0.7107066821083392
  0.4294626702022657  0.2838757182643991  0.7124581627012863
  0.2167326230479818  0.4958300130368847  0.9230821487295212
  0.2897658894971585  0.4263601433876812  0.8527837308681315
  0.2896942057695642  0.4265564459373827  0.9952604835301420
  0.2904232436992092  0.4322401044720214  0.1434452600314127
  0.2871025213136068  0.4313993526138126  0.2875201820042210
  0.3588605411849234  0.6416843740726704  0.3621099675419154
  0.2859736274312637  0.4279814935958529  0.4303534013829514
  0.4302117918527015  0.9990375477626112  0.2869919976689953
  0.4980803265657262  0.2159860852497643  0.3592837042794026
  0.4982121148441364  0.0719036438538833  0.3587386600999293
  0.3621884090783521  0.2152871784413634  0.2171999247251855
  0.2128473882098929  0.9280943972450545  0.4981715410335161
  0.2853741368105284  0.2867313599067703  0.4288203965094091
  0.2864672174618347  0.1435893715549933  0.4287345337440893
  0.3569023107956886  0.2141017930005648  0.4998954572269911
  0.1473498770310153  0.7112078595565647  0.5749976396830783
  0.1544649463830071  0.7110406812729831  0.4388845762363947
  0.1449992283133399  0.5792613173811244  0.2902218230608278
  0.4981629114338238  0.9299483971692407  0.5019020271978216
  0.3579357436617620  0.4976646962833058  0.6439374230580676
  0.3577058372082220  0.6412886700918836  0.6444507927635194
  0.2158232490112932  0.4977966512787752  0.6432035541102672
  0.6428787113456655  0.0735643811483896  0.2158477211553021
  0.1442801635223843  0.7143059839007680  0.7149331456344522
  0.2861518509927919  0.1420125830343038  0.5701689823320903
  0.2857740503807151  0.0003599660951640  0.5707627567668030
  0.3582661139416801  0.0720569794920651  0.6417639134196942
  0.3585404842301278  0.9301392396891058  0.6419594966837557
  0.5006671240972058  0.0735186094061652  0.7822224108326392
  0.4322028041856342  0.0009191701131675  0.8537006375559493
  0.5017601547970635  0.0726980717107904  0.9265117045312157
  0.4321503668954877  0.1435672702501948  0.9988037401362386
  0.1442247684703817  0.4258514954821686  0.7125287885153107
  0.2874180523309143  0.4264494609890171  0.7129289638754637
  0.4293274174588942  0.2876766076521792  0.2875408093539432
  0.4301888169675405  0.1436939125007868  0.2876742160511458
  0.4310519273846270  0.8572971225325173  0.8539091987969912
  0.4982205825387087  0.3572240359188374  0.5023505417113373
  0.2206819361489605  0.4975059006663257  0.0646607782369522
  0.2149144519630865  0.2147074843768872  0.4992027992373033
  0.3589229850628919  0.5012388881957801  0.2151811683754201
  0.4983735915162316  0.7856546935576614  0.5034004051806622
  0.4285050760630630  0.5697138738058007  0.4327029760432121
  0.4280215081772191  0.7136647982817897  0.5741473844501774
  0.4296681025614501  0.7119941649349161  0.1401747184772314
  0.1443347277143802  0.2888598473166021  0.4270316948714891
  0.4995715825775326  0.7831017097838507  0.9252890223759483
  0.2138637937279331  0.3583211446111472  0.3551687072211930
  0.2180348981382230  0.5081689813247454  0.2176167981957786
  0.4293367551109086  0.8576826593480245  0.7132547621597233
  0.4306075251888308  0.2861088625643018  0.8531732895378537
  0.2891312144528954  0.7127149016109907  0.8535434731847767
  0.5675963403830866  0.7118254838377376  0.4330509983135026
  0.4984927337959398  0.4985889209238601  0.9256999957703028
  0.4290710381847699  0.4307080014280795  0.1420268922858741
  0.5010901603243640  0.9288343174349541  0.9256295271663939
  0.4287297883905734  0.4298109668274833  0.2878608353999176
  0.5004038832076131  0.9259846587980187  0.2142565850597440
  0.3569410787991780  0.3577978948956105  0.3586459321975302
  0.5025977926435163  0.0718626153870708  0.0715546814978051
  0.5687143819106875  0.5701682772494595  0.4326046757513353
  0.4297882617872871  0.8552654971158156  0.2870328031755107
  0.5687969240238939  0.5686945416089320  0.8524896007283521
  0.5679242468118841  0.0009289922506835  0.4306965128920290
  0.3594521572392179  0.4978111129445079  0.9248001255947462
  0.5678646340747965  0.8564419676514718  0.4324279910467518
  0.1714135683186437  0.2753056553290467  0.1482820072790464
  0.2181541065279898  0.3551282309649016  0.7812306643658855
  0.1444286749070507  0.2854877375125330  0.5712142990938408
  0.4298503211603998  0.7125751550816883  0.2875927349264741
  0.4992536561743705  0.4999916403344849  0.0688040796608684
  0.4985048540147320  0.5003192441607248  0.3601341597760444
  0.4280403690758390  0.4269977675613396  0.5724395914807748
  0.5685693457160976  0.4275267400914141  0.8536507713645310
  0.4288151079855522  0.4263023954496330  0.8532089069675836
  0.2244776435259174  0.2165325897698599  0.9287886749458211
  0.4983164032344075  0.6411107443865887  0.2153734436187979
  0.4280547370385817  0.5714213931038020  0.2876552944479670
  0.4978476460176453  0.6411421253648483  0.5035925896073310
  0.1446017512090557  0.2831775715559423  0.7124802001741313
  0.4987788344751777  0.6414101084829743  0.6443512690116078
  0.4288320108286008  0.5684456332042149  0.8533881327459415
  0.1469682513435501  0.1449134216682598  0.2827471490603036
  0.7767036856037972  0.6332327666672766  0.9170533180764169
  0.5681373552718262  0.5699776318656932  0.1445318787448795
  0.6391010589999591  0.4987912263927447  0.9253152127224777
  0.4989217505552224  0.6408295656065047  0.7835900458687456
  0.1639765217638543  0.1474350702681188  0.8506740805889350
  0.6417117468418188  0.0739674382307867  0.4980402371169887
  0.5704157878988428  0.0018389472288257  0.5717164255457433
  0.4977470425444825  0.7843007763372657  0.3601145389702335
  0.5690230453776004  0.4302598223949116  0.2891971303755230
  0.6388084241050640  0.5009521897745438  0.2178420031630418
  0.5686673744453488  0.4286825122817689  0.4313337651160931
  0.6352825300948960  0.2208611134170206  0.3638037125100725
  0.2865572854207980  0.7143005929526501  0.7144767662623601
  0.4307822426055632  0.8546043258206667  0.1416783165153265
  0.4283949680999040  0.8569639287006275  0.4309331212815873
  0.4285022221119906  0.8580948578641996  0.5735232005209436
  0.5005212634497364  0.9303477635432564  0.6425400451040291
  0.0732800771218838  0.0641758420132631  0.2207416666810871
  0.6388611478905631  0.5011592948585193  0.0712105649480336
  0.6410764041795253  0.0735208883794470  0.6413395510079331
  0.7133696543189116  0.1422327122751199  0.7122061273109714
  0.5732788330219598  0.0002721879620529  0.7135635909299927
  0.5713808141930173  0.0011296024228455  0.8535046272801416
  0.5710463556557898  0.9991128323068070  0.9987058391054182
  0.6399994298155861  0.0719589372252613  0.9281655485943695
  0.5011999947011287  0.2166313250152377  0.9267807612051472
  0.5717609409032950  0.1450820047477834  0.9997713325059833
  0.4994408232078140  0.6396718129567637  0.0694198873581830
  0.0690082911272627  0.7878437513501025  0.7778724415846330
  0.5696549970578535  0.2892193443738786  0.2863446796047286
  0.5697459097164929  0.1466423269525335  0.2862941621616947
  0.4983381133965253  0.2140658434786082  0.5010150079134993
  0.4283140538666306  0.1425872673894908  0.5708846200520030
  0.6419055367358296  0.2138000883498616  0.6404552074109844
  0.5717201029450003  0.1438642301129026  0.8550378429315878
  0.1425379002057580  0.2879137237935291  0.2765494240398220
  0.2156099789138799  0.3552578464306032  0.6421882342203056
  0.6391296810430509  0.2183430681886410  0.9272411030426856
  0.6393645878269946  0.3625203705811092  0.0727127792459845
  0.4997963696065610  0.2167205791500273  0.2147849030292031
  0.0731859746765998  0.2166581946713768  0.4999968133377525
  0.5726199383461454  0.1446905882653139  0.1435615010019644
  0.4995691649888808  0.7823307476161231  0.0694145468811382
  0.2152112922627260  0.0704223469057560  0.6419251340843409
  0.4979720680729353  0.6417194069076827  0.3603813053564883
  0.2920591150340601  0.7105697775797221  0.9944367529321632
  0.5017154569372001  0.9293837525950326  0.7828237900507563
  0.2193124030612889  0.3623328875165959  0.2153546377029805
  0.7194145222321237  0.9991172894834313  0.1401158391622908
  0.1585601705468615  0.2911984975972211  0.0067374457328548
  0.5700655095741582  0.9981632960669321  0.2850506500189759
  0.6313260380937428  0.0723628458452819  0.3571120909403164
  0.5670308949544574  0.7087478066549356  0.9961438235026580
  0.1489090281719429  0.4153968035642932  0.9934401914125962
  0.7110591160387277  0.2878458255773133  0.8555118422973376
  0.6397462379476185  0.4976785294969525  0.5025894629835781
  0.6407349703035166  0.3560443162420550  0.6415439535688523
  0.3639037035672927  0.2156270951369428  0.0706182161528093
  0.5691731052231119  0.4268047291771472  0.7127604443470364
  0.6397621176941719  0.4971106865242558  0.7821411377718666
  0.5008971476646417  0.9276289424341727  0.0714272391407734
  0.2253451951290134  0.3600133654384069  0.0762247994008554
  0.6345900923578300  0.6367745737101733  0.0709151330144277
  0.1640078885974338  0.1400585052159169  0.0074995568937004
  0.2954703848554767  0.1421264852447092  0.9981633076145146
  0.1560642930239744  0.9948866870037393  0.8547171471403429
  0.4991872150293517  0.5006020545494793  0.2159972245215836
  0.9986131852253095  0.1689661503691318  0.9146258193369255
  0.7104430340982359  0.5688413510920142  0.5736565482443388
  0.4277177573718779  0.5694578278991819  0.5735077000613069
  0.1433355937982437  0.9996440873540607  0.5705150057065744
  0.0010878168749319  0.8525592135102794  0.5728520899708306
  0.6399642626503090  0.4973142896226094  0.6418983088648078
  0.7122940979500229  0.7133012566997273  0.7138240916009171
  0.0652556152075947  0.3838518301897758  0.2193683947746421
  0.2313162631126686  0.0705725574555632  0.0745623825153252
  0.4281438425992308  0.2843446538569762  0.5723085282576493