 B Cr Fe 
 1.0000000000000000
    20.0899999999999999    0.0000000000000000    0.0000000000000000
     0.0000000000000000   20.0899999999999999    0.0000000000000000
     0.0000000000000000    0.0000000000000000   20.0899999999999999
 B   Cr  Fe 
  41 206 480
Direct
  0.7490787141227836  0.7707346976616912  0.9428457319360471
  0.9998059005446230  0.7959156626795264  0.9770887724172873
  0.1394333523657466  0.9184971452695471  0.1411237539441839
  0.0706436411948604  0.4097441133454314  0.9922563326999230
  0.0580841223827125  0.7540216861017509  0.1650494823060681
  0.1390450592468153  0.7361253894719177  0.2077122175405302
  0.9803368311845392  0.8610384683562375  0.8052414413742618
  0.9985348464131302  0.5952696209466668  0.1931495383940066
  0.9928424817036703  0.9902653575939602  0.9588222856758548
  0.8633977083042664  0.8614872671380868  0.3425859984969042
  0.9277534204094288  0.6005759753679893  0.1345222044665112
  0.9221764055148757  0.8762679187634613  0.1859518384396545
  0.7292946046607665  0.0663743349853805  0.3449468086665897
  0.0654535414285665  0.9306184965657182  0.4064231300250951
  0.8120270433570917  0.7743025589605318  0.8847657119721749
  0.1264549539811480  0.9307408666489048  0.3434541475543968
  0.0627657181272118  0.8738086073221970  0.3358892012644924
  0.0554497111290072  0.4446863621386389  0.1290796286999379
  0.9833641086648589  0.0580771319697038  0.2698113106175032
  0.0054639123368918  0.4304509500247076  0.9410868248806658
  0.0050130150531379  0.3703596276749153  0.1188650826709503
  0.9344350362130753  0.1341253114194520  0.9442443157145102
  0.8580221681567848  0.6034666254179083  0.0710080363895458
  0.9091213658060441  0.0370715688315194  0.1384334179423953
  0.8493364392196631  0.7283184695294266  0.2032629930909441
  0.7357728704277208  0.0664004314426119  0.0671714029603155
  0.0683963906512086  0.1514012905475678  0.0076852917541216
  0.7868977133092786  0.7251634266499360  0.1456366895318224
  0.7963538984964811  0.1276832776539439  0.0696975352080737
  0.7941238301679152  0.9939147064819097  0.2227374306865964
  0.9960956930914033  0.0556423392039009  0.1167555579424603
  0.2040024519579645  0.7360329264275793  0.1448944710037598
  0.9991131067907619  0.2750641538019274  0.9287893655356634
  0.0571075476037592  0.9905846062198238  0.0166851832019063
  0.9366397619013077  0.8480385442564978  0.9479052718979017
  0.0514127206397964  0.9979709219715295  0.8682979950144570
  0.9907523670632600  0.0008072156484628  0.8072216055653202
  0.1831009351235792  0.8746485533366439  0.9850694709658622
  0.9346267799036871  0.9899451996250488  0.2964211304129980
  0.7879620083723636  0.1268966989113937  0.3435545705454250
  0.7974125869830568  0.8564407031559147  0.2869485742534327
  0.5705006336330304  0.7129002496995461  0.8554514468072588
  0.1457753149791821  0.1416631770448664  0.7148290934714688
  0.5712597972997502  0.2845608607861795  0.8546269954563267
  0.5680467777951509  0.4285053527180642  0.2906932756161762
  0.2183660316616633  0.3615111999336372  0.2174222762357145
  0.9293374394195795  0.3521125548403344  0.2140850600798284
  0.3611564908562910  0.2150255339793028  0.9246580938035449
  0.6387281102967775  0.7809849516146865  0.9264288005130102
  0.0350356563550726  0.9794736845134661  0.3193652852053840
  0.0241981291822829  0.1585660947830209  0.1099282309468761
  0.7141735381105487  0.1408557033891977  0.7160891145958908
  0.4980644781511639  0.9249309403924743  0.2153955652342339
  0.4990626255906195  0.2119145210529942  0.6435276142330653
  0.4994718182090940  0.4989595991398136  0.6425247842040548
  0.5679755248091299  0.5714879386401093  0.2911917756982663
  0.6422240504510290  0.2125211829089088  0.4996109675712290
  0.1437880907654548  0.7141586105250902  0.5729317707191525
  0.4287467461186507  0.8574886201591765  0.4342745014400740
  0.2929003964021644  0.4280108192571860  0.9972380736592489
  0.7883476375223406  0.0709722191747748  0.7860344217407196
  0.6388094348641770  0.4999034608805040  0.3613174046362699
  0.7295539742615837  0.8496466247034448  0.8656949011077385
  0.0919423638872956  0.0668617623320402  0.9382998181088774
  0.1488147221255036  0.1478563424073488  0.2869452123000046
  0.6454986542785840  0.9272202943042204  0.6455330141136700
  0.2886665053614472  0.1461350755173678  0.2886981649279389
  0.2189428068674208  0.0750020615131677  0.3572599513874953
  0.6992558004465801  0.7010301542129035  0.9984103876110961
  0.6435269657444129  0.9250161221695240  0.9259869567938009
  0.3590766525196251  0.7831339828939280  0.0655690151395241
  0.2887880403666978  0.8577947259162827  0.8530161418697482
  0.4289585848660282  0.1430171380302133  0.4301726195784413
  0.1643869070535480  0.9920695258631592  0.0081234042629649
  0.2878417959751636  0.1409830060039164  0.7139757872621811
  0.3610340123712311  0.2120410349727611  0.7824511083755140
  0.4313021258878482  0.1425070639127258  0.5732037057609253
  0.3590723175030153  0.5006144733463902  0.0692860910585119
  0.5006030580563078  0.2152967589578991  0.0701444555514266
  0.2871667256137090  0.0011968002851509  0.7136120294658975
  0.2919663089507992  0.0001129600884766  0.0020428784652602
  0.4291793625868021  0.9989187699152303  0.5756312238809971
  0.5717756092221438  0.9987350601630822  0.5762133478157976
  0.2922968193674648  0.1476774725612021  0.1430436055419816
  0.1470322020201403  0.4265775155716834  0.7091247342086999
  0.3598142716471379  0.0719557925737230  0.7828059981233948
  0.8545702694432360  0.5634110624053252  0.8492282095391973
  0.9069232611225710  0.8726201234928238  0.0718569136996568
  0.0679766943931584  0.9259760249897845  0.7909631627099571
  0.8480942892644902  0.1702448881989867  0.9910621027286635
  0.2205504947067071  0.7850810235448545  0.9241318788106003
  0.6379215290512277  0.3597250077999921  0.3610794658578219
  0.7095440462187698  0.7155590028074164  0.4346329450391090
  0.0730802970074669  0.9292172374429827  0.6443971786279581
  0.9280777066925170  0.7821298584449419  0.6431166664179139
  0.9979139183302742  0.7107443788598075  0.4368422844967026
  0.2885781651667310  0.7130599832211637  0.8541691420079300
  0.2882313080082756  0.7136994372762248  0.4340582226001162
  0.2209749971633797  0.9203815589786180  0.2146138055579917
  0.1583458578658487  0.0108659447063615  0.2844155910471389
  0.7853926241496625  0.7839182221130067  0.6431031018419097
  0.0071981807766952  0.1652393563912586  0.8685346888380178
  0.8554546802025714  0.8550721429505568  0.4468575908864946
  0.9271685744079745  0.4990858127755332  0.4996078577345480
  0.3579620708948250  0.9295366727276073  0.6444982751301470
  0.9743922799417909  0.9748203277967779  0.1970345073760499
  0.2227678415529215  0.7832495791649327  0.3666911712188712
  0.4981141319409417  0.6408087125411251  0.9257532631118885
  0.1600243621777499  0.5649936437546087  0.9880235589150460
  0.5700468336283108  0.4287031607198988  0.9989510019963377
  0.2160052082447003  0.3576960833553238  0.4999277398880805
  0.1575896134139062  0.4351604893343641  0.1496322323225132
  0.0753499002995853  0.2199864303247203  0.3587054475779288
  0.0997000961187853  0.0739524748462610  0.0733874747220678
  0.9980359122054151  0.4348425071357148  0.2877044204941955
  0.8307005634269407  0.8302030152024020  0.9707201734590072
  0.7843710685468595  0.7868427459198999  0.3659726561077470
  0.0944243752355767  0.9290476760608309  0.9341685889431328
  0.8564491290503458  0.4302019375794651  0.4293804089250647
  0.3587136000073669  0.6424853336925314  0.9258524057638158
  0.7128891089970512  0.8565613549485253  0.5749389976980027
  0.5008634190857754  0.9292489341265323  0.6441736885182561
  0.8578647495419737  0.0012146234424023  0.5740711002819487
  0.0213781223384862  0.7024254899079644  0.9687700204498609
  0.6402720402423306  0.3552211179043523  0.6410332334996400
  0.7130295941619157  0.1439387657405690  0.1434697675038472
  0.6386871219775585  0.2178400812504913  0.2133452836606292
  0.4989377395547134  0.7816206047775355  0.0685428380113391
  0.7104519839743174  0.9943789560993062  0.1456057661082005
  0.4291589498546505  0.7126306619674667  0.9958032120180850
  0.5005477754650851  0.3537694233783705  0.7838676806169980
  0.4321779687856585  0.1414184454836415  0.7143493955063188
  0.2864980715061939  0.5738889961063529  0.2878166330603007
  0.7924750517143166  0.7846217470907492  0.7811493008929185
  0.4313784591099726  0.2843007545647275  0.8532608635042540
  0.4977911499017204  0.2162053306336284  0.2168102859319703
  0.9071558487382972  0.1121356966641126  0.0687828028581278
  0.3622854602603469  0.3538412301298933  0.7809602256619570
  0.7817237263981419  0.3609764358273971  0.0746740495005559
  0.1444075730218626  0.8221413754928093  0.1549273775231042
  0.4309605445525224  0.4278029243780191  0.7141426227497502
  0.6411517863849518  0.7854668947846617  0.5059984655566427
  0.0136147214760430  0.5437815746047959  0.1069445892896185
  0.9299416749837247  0.3636317520394542  0.3587002042988897
  0.2026818098894960  0.7889097404770333  0.0521177072090333
  0.3607101157930032  0.0720295364404813  0.0712900484193506
  0.0901955261651523  0.9231730682588700  0.2321073951974397
  0.9225971778510806  0.5241587528331400  0.2230270736408603
  0.4290685401717244  0.8563778449820659  0.2872494917196736
  0.8570079874938454  0.1404738182330112  0.4251202849021288
  0.6440499405203217  0.0705866148760985  0.7854138545242878
  0.2152218009038397  0.0706376503410169  0.6451113672146420
  0.9283171575756971  0.0731717524937526  0.6415086216061088
  0.5002986089500083  0.7863066069896526  0.6455765666359102
  0.5004144027861247  0.0698737914916538  0.6428391947350193
  0.7034947794819864  0.8364417118084744  0.1379058566404071
  0.6366351137277713  0.7826424573548502  0.3644412859908344
  0.4289187726974928  0.5713572955602837  0.4333190204369282
  0.5664528024142960  0.7127546709910038  0.2920499546734850
  0.4303875274092776  0.5699111277820345  0.7135017080216320
  0.4279719864648556  0.4272985710900486  0.4314094028917019
  0.6367833202209023  0.6413700354910238  0.3640220292888296
  0.6351203753118252  0.6416094569365304  0.2239535124309571
  0.7177570248200666  0.8558136040945135  0.7166178268652085
  0.6949672153379547  0.1566865232261953  0.2931223163188392
  0.4990351463359167  0.4993165029253200  0.7824677281654017
  0.7742084887681604  0.7709933388482574  0.0538465474222091
  0.8860200072975521  0.8023884539340278  0.2619684820440823
  0.7035736513588209  0.8520589686040200  0.9962737730601297
  0.8222471238477004  0.0027674218850311  0.0431900176155249
  0.0007853129440392  0.4319568940133307  0.4299021672121344
  0.0035796042315579  0.5661774064478244  0.7100012885467504
  0.5689097723299056  0.5713292204482591  0.5739680688420383
  0.4292108928578435  0.2866262025948403  0.2875118739831947
  0.7802731016285572  0.5080614086102703  0.0736482528155780
  0.7797602671459255  0.4991143794777784  0.3625956263124336
  0.1586699578295052  0.2979267954775369  0.9900645080099177
  0.4307296972205937  0.8587478081720642  0.7128637642700496
  0.7077952524148100  0.5727134886734025  0.2933279415109293
  0.7750637600754727  0.6408046204276594  0.3684349705905379
  0.0082342550975816  0.8923893604091631  0.0107707360937328
  0.1501355346812643  0.5673342800522546  0.8468976703857093
  0.9995505218435687  0.5777783558292063  0.2973963231427706
  0.0015340992859866  0.1444234479956246  0.7122174827883964
  0.0737113842120755  0.2129717304572066  0.6430355553233408
  0.5014595919535543  0.2132645035395258  0.7857459458195287
  0.5694109863551077  0.4263784077821649  0.5732009713917254
  0.0021137054664026  0.6984216666439693  0.8462733983319266
  0.1423657912235805  0.8581385868767881  0.4242551078364871
  0.3596585828052822  0.4980914720160723  0.9258866050260790
  0.1420687867828803  0.0002108496834787  0.7159866725042264
  0.4314283661016006  0.2828521681269628  0.7139388276222540
  0.9197798412661280  0.6542553696385448  0.2284309818838082
  0.0689462741224410  0.3699795732379850  0.2095637086411497
  0.2237783790603879  0.2203703412344040  0.0717977287605239
  0.8539687143233703  0.0040732581559037  0.7110379746171941
  0.1420227341684528  0.5707068252300802  0.4311655595508786
  0.1537046982360848  0.1520720997479311  0.1438904347346384
  0.7036064577299566  0.7117000816799983  0.2993755157735057
  0.0692677928068598  0.7737023347504457  0.3687363548680314
  0.0053971997820345  0.5581771850977862  0.8485333744629587
  0.7790889695815173  0.4954260384881580  0.9221484411998029
  0.0742842055385819  0.6369564306514135  0.7818815493939840
  0.8584207338321284  0.7106501537855158  0.7120489292768174
  0.7072873480223911  0.4297681655087007  0.2933791344457282
  0.8568654354896604  0.7131985298738107  0.5744474329550094
  0.0797625796296898  0.3554558599304741  0.7782991625922598
  0.9273863965705350  0.6396260217814912  0.6423226753314564
  0.9806459330827390  0.2054119335407872  0.0039218849734153
  0.0252307613494340  0.8665722819326798  0.1471909992736807
  0.7095236335486854  0.4287937371595509  0.4308146177830922
  0.7813165050649996  0.2212177421253351  0.9200004399174080
  0.0732157820715223  0.4999067451662336  0.5006873432424100
  0.9223458876219860  0.4923630266342703  0.9199015327004336
  0.8565878049130805  0.2857700647689516  0.5699645394668141
  0.0741020795441365  0.0740925449614946  0.5023401326701560
  0.7828692348172258  0.4981700953028336  0.6401958775309069
  0.7795878636538701  0.0710801558229634  0.9329881388254464
  0.6335095875005819  0.6374186158547163  0.0723243511145346
  0.7093601289861077  0.5700399411224437  0.4326875671929831
  0.0703838279778445  0.5025962110183031  0.3589416750791099
  0.0008673401584548  0.8564267667889448  0.5738730754615187
  0.2204834646339988  0.2159839459966546  0.2169531056261776
  0.1523781988993678  0.4216271303581143  0.8477217310773706
  0.0048465893958106  0.3171771816901941  0.0213921391397441
  0.2941710873100343  0.2824359261186663  0.8492673940394821
  0.9255802361938400  0.3578305535176443  0.7768182102657556
  0.0674983660052528  0.7854193625556013  0.7788902597547930
  0.9055540406637728  0.5098021478933421  0.0759825805399959
  0.2169604244052953  0.4986481372654623  0.6418614818021837
  0.3611444927879313  0.7829230730447087  0.2191593840676319
  0.2194779001731610  0.2119172453173674  0.7826540327667116
  0.0783288478624620  0.4946527018974773  0.7793933513841300
  0.2172354390377706  0.0720743012114719  0.7830227786785297
  0.8258180299386123  0.0279341404604473  0.3348262925087018
  0.1320160777975366  0.7199341562980427  0.8612407388561298
  0.8722583148662045  0.8618606206643379  0.8559047506090290
  0.2138345725513790  0.9288827646427591  0.5002079942323461
  0.2248886810347631  0.0800427556763862  0.2167083783802808
  0.2907951027235782  0.1422145863275130  0.8537132378959388
  0.8474994452304236  0.1616832882670425  0.1646466293195053
  0.8600708112621266  0.1302998999132597  0.8620560650273370
  0.4278321001484054  0.5695494743131856  0.9951470976138933
  0.2170421820368587  0.2168275406692512  0.3571604112989843
  0.0895249823109112  0.2221832927342696  0.9308352635543259
  0.3603232898881194  0.5002755684913965  0.7799514887636187
  0.0645062099300699  0.5100982511792498  0.2166200714299244
  0.7823138349494206  0.4982226169669762  0.5012765204391986
  0.7092272487660516  0.8552851219680589  0.4354063904033534
  0.7736448304475759  0.4991256863753855  0.2262449221210669
  0.8544632698065396  0.4275521466164736  0.7084820653096339
  0.7101616053746294  0.4269501417402761  0.7097415849510555
  0.8573697720832884  0.4323982439421499  0.2875672479123363
  0.1521618107587152  0.2856023939311618  0.8499903009518186
  0.7114201530785854  0.2876189802298092  0.4305556785314620
  0.0251298323564296  0.8185097566074954  0.8820785632429804
  0.7103325358714081  0.4262467918026762  0.8528307582436574
  0.7829103757364519  0.9287314682761232  0.5051105982561327
  0.1447691264122827  0.5697013492902658  0.5723515275543416
  0.7113064105153564  0.4270009997546593  0.5715176559395656
  0.7107926663482446  0.5687005289007626  0.7107534573089284
  0.2145669779098093  0.7870763935337457  0.5019912218647680
  0.4291978270668634  0.9984178649413901  0.1436016441654669
  0.8449528072477754  0.6954973460667907  0.9882299365365116
  0.9243771844803037  0.7852865268666773  0.3739694803765816
  0.8461133532980827  0.7046138593648228  0.3056211755483838
  0.7636676240037490  0.7774611058036411  0.2317155494337362
  0.5649877375055997  0.7112357471981211  0.1442849044910312
  0.8758781303448896  0.6922116380309897  0.1154699208378971
  0.6913088710363480  0.7095570044049334  0.1450018552799953
  0.7087643380648961  0.5677834948839809  0.9966147591061422
  0.7116827092711654  0.7137073159732399  0.5746799009374121
  0.1659482886111711  0.0119001637093091  0.1517248894174969
  0.9272994534151421  0.0750016280999665  0.7758009692499294
  0.9868777990564843  0.7192871688322892  0.2989303221830229
  0.5726137425723152  0.8561592806543368  0.8562886263727366
  0.2899978564475248  0.8460534320250799  0.1425811758867948
  0.7845910369944397  0.6418023935409516  0.6420808934296314
  0.0000772213100503  0.7114075765241823  0.5742778806406652
  0.6379459388180440  0.6386549629684185  0.9218960532472589
  0.7743920669190690  0.6504965508119357  0.2211930264119910
  0.7055428520662537  0.5717415351135496  0.1502048553024223
  0.7089171861768419  0.5660002732382741  0.8513088243440651
  0.7187896201764139  0.7157354888179915  0.8568179242291679
  0.5705026933732399  0.7153953416729225  0.5749815725247782
  0.8567233515577546  0.6945393725065698  0.8435815607062994
  0.4994691565039014  0.7838483195017352  0.9257200641526778
  0.8526959022533924  0.5701745899253724  0.4335422402988132
  0.0722248509943416  0.7844774254743863  0.6417129250477588
  0.1125848614237901  0.8830587938820503  0.0534132213374820
  0.7122274942812189  0.2886012310539051  0.9996770774062848
  0.9283885863740196  0.3560603772494556  0.6396697049983809
  0.6401557142487797  0.3576417525774943  0.9271815643941388
  0.7124227592743088  0.4303341516253042  0.0005173850283422
  0.8497272011218348  0.2958536508244331  0.8468829346785155
  0.7842563084827309  0.9210485294327120  0.3686086492971032
  0.7843888187450139  0.0727459923462031  0.5041558762668997
  0.7619889244847722  0.9010565462198412  0.2033228842130881
  0.7154161004765742  0.1406335532693159  0.4236650007196846
  0.2269433551576042  0.9316506983873327  0.9183826031640020
  0.9981239303148243  0.0810177889233347  0.0063635629672616
  0.7148112188742471  0.0003191503508021  0.8562172074009635
  0.5666930050316923  0.8504053806439651  0.1428177222944154
  0.6420940545285075  0.9293403264126698  0.5040733978557663
  0.7812464649998855  0.6362641972725543  0.7792223673854325
  0.6375269257902482  0.9194453527757623  0.2127585652243303
  0.5006026942107770  0.3565545892934118  0.9260061585807151
  0.7160426564789154  0.1467501861618428  0.0031874296150868
  0.9988973161058127  0.2912373517703742  0.8342895245532937
  0.4993718271724178  0.0710815889491025  0.2151315150429104
  0.2259134083717782  0.9302609968874400  0.3578674549851552
  0.5663412392957746  0.8554963662076248  0.2904642971376012
  0.2145084704419318  0.0705017570256919  0.4995195183661828
  0.4991915035580974  0.9256257820227604  0.0719296354116204
  0.7059865389665944  0.9922846438943728  0.0045919166963667
  0.5682336664338453  0.5688370526558791  0.8534489996415823
  0.6457004645749812  0.7858455277056682  0.7875427231108465
  0.5719145430995894  0.7152249157229066  0.7149073360512314
  0.6437435345582966  0.7865439075998041  0.6458215360069638
  0.7138105273940966  0.9997690174902349  0.5740267788305708
  0.7100809913971875  0.4319225128666863  0.1454348196791598
  0.7840921433951692  0.2136289528311283  0.6411392841397970
  0.2166761619758395  0.9287667351753083  0.7839569920848596
  0.9256998499641739  0.2122877369444435  0.7817580216214642
  0.9743669196741799  0.9294532946948640  0.8816057669761628
  0.6412499865173016  0.6426751155757675  0.6437148116508496
  0.1414178707542930  0.0006312785386741  0.4235661655268414
  0.7129248031779479  0.1426101018979306  0.5710591109166011
  0.8798450407050228  0.0466090339889993  0.2352515600149050
  0.7848047682399300  0.2252098470507272  0.3586077603284230
  0.6377156746344577  0.3607570890635091  0.2177081833515927
  0.0632345860152140  0.7980475251178769  0.2515190578045741
  0.6419597783537726  0.2167267030694048  0.0727846041741262
  0.7092241094991567  0.2904510846952473  0.1474336063234915
  0.7857359159647601  0.2114638926573045  0.7855461474191033
  0.7854494923916414  0.2139321218603490  0.4975019929633226
  0.9266698717192089  0.6406955492635510  0.5041075923980304
  0.4983168819365764  0.2117600079335230  0.5008701981855199
  0.2141921705123102  0.9298516620580584  0.6445844637831920
  0.7052097193531127  0.2911677299983486  0.2918061283177105
  0.7733332533858147  0.2202579915682259  0.2267238970796094
  0.0023842973930028  0.0027977339528454  0.5737193886461751
  0.7832059814255162  0.2288033869535204  0.0760020333662847
  0.7823652119767046  0.9366631529035269  0.9322257787268035
  0.7144735434040469  0.1410955202344722  0.8569728802499760
  0.5731291208334387  0.8574343438513669  0.7155530868516292
  0.8548197882290214  0.5672224622174438  0.7093185596111813
  0.1422345402745733  0.8577736187484016  0.7151175916843935
  0.7861149580136172  0.9275647634783228  0.6443816363976416
  0.8657447339792693  0.9267400657027282  0.2644238196810810
  0.9288785074083922  0.0752409348134345  0.5025799848179149
  0.7819220345416842  0.6417422647494118  0.5048993055960442
  0.8591935350907889  0.9483193083564436  0.1480632688502840
  0.7092489796482241  0.9859315672309148  0.2846007328240541
  0.6326312524354817  0.7788092998694668  0.0655291959897194
  0.6389121551472190  0.9218566304410321  0.0742911032372481
  0.8391561918248278  0.8198309077114388  0.1460676320632189
  0.9313050173439913  0.7759981465154957  0.7852744053995029
  0.8528910859234802  0.7123419028935648  0.4371624974743228
  0.0968608551033385  0.2354848897878468  0.0601458168369229
  0.3586584154410114  0.6427587812613337  0.2159905203169143
  0.9089222556667941  0.3586187430977878  0.0871318835861337
  0.9391795141090424  0.0699691245699960  0.3627636984506856
  0.9303257657071907  0.7840924718314956  0.5059143577900965
  0.8461176667792839  0.5755965791108691  0.2952278573387770
  0.8686678622187153  0.1539465010196854  0.2878146621227861
  0.8479659645110973  0.5642535219257786  0.9815558502132636
  0.0039477989709062  0.0044563597748576  0.4403807556804952
  0.9277908262054105  0.2155634099025558  0.4992779382628166
  0.8547414708876008  0.1437623870900538  0.7113828101538305
  0.8087809122289492  0.0583520060283948  0.1388674976547342
  0.9136815854841258  0.2273868986426688  0.9061930943599520
  0.9142720430975302  0.2339202782651492  0.0908839900834804
  0.7677573812318172  0.0906582681857947  0.2443055994267875
  0.9354589165305203  0.2283165712165641  0.2154437269574213
  0.0739818542997546  0.0829404342340410  0.3557304982095509
  0.8873911174973931  0.0493056391784279  0.9644352796998760
  0.8416207693442159  0.2929520080290974  0.1594506784148199
  0.9469313824490251  0.6307775376230864  0.0319114574036178
  0.9286646569616858  0.3588541194698692  0.4999037898999840
  0.0704872807853106  0.3512966226923607  0.9121616197306709
  0.0009216852636796  0.4283853720348751  0.5705475190145306
  0.6394927410351550  0.6420707434962057  0.5041370314065761
  0.0026316288640594  0.4257931641117632  0.7099386096865622
  0.7803357403877637  0.3581830772611519  0.7785980115603547
  0.9322941683611273  0.6312619211518743  0.7783287346135214
  0.9309028440100681  0.2219257204642449  0.3610995487223316
  0.0003429608898991  0.5693291606503486  0.5710248741015370
  0.9727588281875535  0.0598863552760317  0.8853257648006275
  0.2156638381461468  0.6417223811820203  0.5028019123208411
  0.9239907409185212  0.9335267952769907  0.3773459853500897
  0.2898854295044865  0.5698398901461892  0.9949745877120232
  0.0743074771906523  0.4978537703971278  0.6407537893948703
  0.7840271931585946  0.0721551017017289  0.6427061446948008
  0.2905896495920798  0.0002623299400929  0.2846945525658519
  0.7161614723688088  0.0013359745138735  0.4269849409991871
  0.8566850677984429  0.1441595089877582  0.5711254693540216
  0.0731647003033690  0.3587652925492957  0.5002162695450318
  0.4298788223439990  0.9988399742634676  0.0002616550500292
  0.6340076185563677  0.7813341415597672  0.2219540272050063
  0.8551274563440312  0.2846922899504431  0.7109767752466607
  0.9284552908594238  0.2143182481426741  0.6414011507795248
  0.0002957999851326  0.5701079275859836  0.4336634602509841
  0.0723840536719614  0.7845146852421778  0.5037845916013260
  0.8574446193820734  0.2898962056945628  0.4295745812619149
  0.8554613765747315  0.5687963591936779  0.5719842459767285
  0.8564099316167185  0.2914623580419688  0.2893223011475559
  0.8343429889937830  0.5719968366719558  0.1623314805807024
  0.2188860898671782  0.4963523311556514  0.7802684499714423
  0.0018834326732962  0.1443182551405281  0.5718299233745200
  0.0967832736467888  0.3635304572072670  0.0779031263062054
  0.0059416790628342  0.2928218353953046  0.2867886701181886
  0.0728545654312419  0.3622856501917411  0.3570750398266223
  0.0012429337576594  0.2854707979640723  0.5706915796239573
  0.0027990825548170  0.2898605646123447  0.4295053774644226
  0.0739172791084489  0.3559661527231842  0.6402871224614122
  0.8628905542539151  0.9971305176925279  0.8556721469743072
  0.0006563594900651  0.7093503478564062  0.7106437983678817
  0.9247777720139677  0.9354928042936926  0.7689957615239467
  0.9246327003994419  0.6409462494894468  0.3676794285019038
  0.7821507292871115  0.7843646218817973  0.5058500362446734
  0.9283267792147851  0.7653060931274873  0.0425443442682846
  0.0764179268476632  0.2128554471504397  0.7824963181774401
  0.8434529420701755  0.4357097180583120  0.1528511675035333
  0.0897537347062711  0.4865667289512246  0.9176997630586969
  0.0015932052918112  0.4251418248901885  0.8409997735722567
  0.0991836961421272  0.4917996205641865  0.0502740009287880
  0.9289157546194245  0.4979123431553769  0.6409880900076164
  0.7840770742549645  0.3579715164853946  0.4999238891458767
  0.9257507837134064  0.5031868925855687  0.3603992481534307
  0.0747443322991281  0.6196764415892279  0.0428366620731620
  0.2860976199513014  0.7152519513708518  0.5732529610685825
  0.9638355329513699  0.4449873350265675  0.1639243751446984
  0.2148329989530011  0.5024604507726684  0.3588145944155401
  0.0033546709767849  0.1566135165752461  0.2926764734042248
  0.9592992840577602  0.1161716908132077  0.1895322879771135
  0.0796421438798250  0.6208335613017115  0.9159578302865412
  0.0592484789033658  0.9743511606055894  0.1156964552089373
  0.6355174788442667  0.0702785587125250  0.0738792500219132
  0.9476670866561467  0.9858893437411108  0.0609294269609654
  0.9766546393401929  0.8738514778004466  0.2771890548522382
  0.0038524887636736  0.0031314868382262  0.7057097878377325
  0.6479866435380601  0.9245963175291777  0.7882834899787584
  0.8569006815506436  0.0019170263123173  0.4427192920897256
  0.7830058145666293  0.3592151854528675  0.9270816110177685
  0.9857596796219374  0.4375680507166176  0.0395691197599320
  0.0733978085883563  0.6404877643663239  0.6415610210434987
  0.0043897664111139  0.5434832324157650  0.9799971659232171
  0.1687642411053605  0.4198887443046954  0.9880198640822400
  0.9274410211797091  0.4965092805091051  0.7786975194921906
  0.7835315533040047  0.3553683126402784  0.6393953041137196
  0.7824635736144321  0.4968292210796987  0.7803669360369748
  0.8537069750068421  0.4262229319332269  0.8505701196062395
  0.0015598737358416  0.6745358486889665  0.1252040937493705
  0.8560388089903233  0.4282504101847520  0.5704227849429954
  0.0161947668005280  0.2775112002759924  0.1406638163202266
  0.0019111737687806  0.2846100716035879  0.7098685042579992
  0.8567010881694159  0.8552421008448604  0.5760126121530073
  0.0514917680842527  0.7774802103322760  0.0655744659277807
  0.1062484198821062  0.8056923353447583  0.9625771529850431
  0.7836418868103979  0.3609139731408025  0.3601566294713118
  0.0026413933225263  0.1471162710198319  0.4308571433557585
  0.0739020766938931  0.2161970356895088  0.5003728075844682
  0.9305258956558056  0.9283737708340332  0.5070211092050977
  0.9204499234472489  0.7561184670814610  0.9164627098418714
  0.1429376071055067  0.4332578429523087  0.2857193681687939
  0.8582956821225407  0.2933633229810589  0.9976469417944827
  0.9549899967966252  0.7746313367896553  0.1719210280777776
  0.7901752611977472  0.9274237894134959  0.7863072799135205
  0.5701736548058373  0.5705423780465033  0.7134578262935460
  0.1441259445513695  0.0011232893473498  0.5725782144015652
  0.9276476870607988  0.9307378182538998  0.6414501300921202
  0.2882685501903521  0.7131846714701588  0.9958997405699196
  0.2147721580094685  0.6452365837183482  0.7843063026636180
  0.2904662668895390  0.8556814016732119  0.9991909391978041
  0.3591516878853458  0.7861289407456040  0.7842404017526203
  0.4302554817660278  0.9996726779803387  0.7138831875964247
  0.2857712435118337  0.8588921978999789  0.5730037201485726
  0.1221195566186011  0.6947241028033463  0.1150553784155658
  0.3599743003953149  0.9293679221792300  0.3608895588461860
  0.0715367477756369  0.6572358815717635  0.2278683952067149
  0.3587260041916960  0.9251952727756073  0.2139420050054633
  0.3583670990868081  0.9258755298736352  0.0721990207946341
  0.2882460518099910  0.5739156404685752  0.1426708060816790
  0.6426682665461579  0.2123331069135756  0.7850803569644802
  0.4295771361881552  0.8567341485286347  0.8557422545115244
  0.3591055596034497  0.9282492854787298  0.7838547284839131