 B Cr Fe 
 1.0000000000000000
    20.0899999999999999    0.0000000000000000    0.0000000000000000
     0.0000000000000000   20.0899999999999999    0.0000000000000000
     0.0000000000000000    0.0000000000000000   20.0899999999999999
 B   Cr  Fe 
  41 206 480
Direct
  0.7213860425532208  0.7811365352085338  0.9329697192437512
  0.9330739463300692  0.1778047643013595  0.2755790216732373
  0.6419959461878227  0.4310298313135064  0.0010840755744750
  0.7816512059429020  0.7851843709015605  0.9940227191705904
  0.2182848230749992  0.0744086739057041  0.4296893671343976
  0.9248681847866972  0.1506899492936793  0.6814698203798460
  0.4279584748439785  0.0762705691658178  0.6443168275385189
  0.8689242048302831  0.1807470658247088  0.2184352745334173
  0.2791461435108900  0.2179401134553215  0.9607833926661317
  0.8694490509367547  0.0557742346552845  0.3708679584759771
  0.7850798246825462  0.1478194219407424  0.5388288051499012
  0.0634291866226869  0.5790874283898121  0.1778631558143522
  0.3585337255807495  0.5680486135903080  0.7103434879588509
  0.2198905691198297  0.8548533943348845  0.5330957908617397
  0.4949336798269545  0.1453280088692057  0.1434458204237438
  0.4322987429361149  0.4931193167158626  0.3153950736279806
  0.0072981814205104  0.3512765541471989  0.9644269695951626
  0.3492466626041918  0.3217232216429506  0.5774178935177279
  0.1202822024664338  0.7958789308926970  0.4360763463731653
  0.4320379975726765  0.3576227424915536  0.3427209803068172
  0.0654549662557794  0.9845807735124253  0.8579961857744585
  0.0037270138750253  0.7818358030115702  0.3072875977538985
  0.4311151439972766  0.2165710369811076  0.7929796184682352
  0.0672907254516817  0.7243521310462344  0.3126895672819371
  0.5734427871875450  0.0671840857128969  0.0638872787854636
  0.2893654679689015  0.3230930932208407  0.6397411504452725
  0.0091433272776132  0.2093327547946301  0.0885206778128443
  0.9411660382530946  0.8669439228307801  0.4024198155557837
  0.0019756746427488  0.6374895927790245  0.1818667569067950
  0.5717520701375876  0.7883429707652534  0.2144214588391908
  0.0044412348090438  0.7874339506287416  0.8551356602585027
  0.2789399882889320  0.7918203346656792  0.5360865320691062
  0.7153427672129755  0.6463321410440599  0.6438388989001788
  0.4860960597392251  0.4255973348521779  0.3140755852709081
  0.1363567058972426  0.6771424108148424  0.9263508189133148
  0.8628868575551253  0.2118138829326817  0.6803650501998083
  0.0769991239503911  0.6696701551992389  0.8677639826538446
  0.7853077551751440  0.8555616635888434  0.7087778280084089
  0.0725698870103218  0.2907620887507215  0.9589304923547882
  0.7250083552357210  0.2101313906876062  0.5299638373807618
  0.7871398755836597  0.2795404190900374  0.2876659404088372
  0.7171001956898517  0.5710876764890495  0.5720826661501675
  0.2185230012348029  0.6422871875384433  0.7792685764611137
  0.7124367062171016  0.4241964097059683  0.1450176687757967
  0.7861304667469198  0.4979733906922699  0.3549766679619073
  0.1387386105359570  0.1410552040864396  0.4262531758274540
  0.2306996562836642  0.6461833774045046  0.9295151722437773
  0.7137600926201648  0.5697750449384060  0.2861085681440005
  0.7868593993825830  0.6378297372821172  0.3586563712372892
  0.9999530567230925  0.7127908342010671  0.7105809305903208
  0.2189246662555864  0.7865540467166432  0.0735534002589950
  0.0003880199848989  0.5682681142760968  0.7143496262530632
  0.1437042977870557  0.5854813062586335  0.8602365005609774
  0.7839445590668406  0.3513849756689557  0.2147094674609364
  0.7883908700080293  0.2158333268881103  0.7746735728381704
  0.6919363551930600  0.1262988743225248  0.5796675414318836
  0.1232783500149997  0.8571128801895693  0.5610577853444345
  0.2170918617996230  0.9341231387269310  0.3582829614645413
  0.4993882498393561  0.6446002913288670  0.9306238281322722
  0.1437638009534936  0.0039383644316186  0.5774149206893033
  0.2112312061730001  0.2281981733989841  0.6487455077407437
  0.0763074247181940  0.5108695057423281  0.0777639630105692
  0.0648123722191545  0.6430692355263545  0.0880897077265778
  0.0782262587046376  0.9245041819632182  0.7746953312892032
  0.1573987757645911  0.5764971943328354  0.1438337314402604
  0.5671292423347958  0.8556585206163482  0.5714685717994734
  0.6413795980182938  0.6436601128731819  0.7857486504496008
  0.0715268471400143  0.9246294738845074  0.0727869943659293
  0.2201466894915430  0.9311319592803325  0.2086305607995030
  0.0664474910297334  0.6275860603281636  0.3494356155143091
  0.1472636538699692  0.5836984203081655  0.0018798547993446
  0.1471022124752781  0.7218977648126592  0.1452431752977940
  0.5697466804616924  0.8550293523034007  0.4259328030432618
  0.6432672729353590  0.9310024687665349  0.2149609750632543
  0.6436929154334773  0.9293480930295980  0.0740955877703459
  0.3517338119200498  0.6433430252852547  0.3600161238767187
  0.6658538106633638  0.7873154749699824  0.2193631422682508
  0.6342176012548740  0.9223088352471286  0.6425383912222448
  0.9247916401609404  0.0744598565099095  0.7727383766907487
  0.6451923721693021  0.6419769053484398  0.3583910655955242
  0.6436617194312575  0.6427953750521336  0.2148118799300539
  0.5650974154430144  0.8544192447066176  0.7152302634023844
  0.7864462214428978  0.7831143228222615  0.5001478839068939
  0.5738724423655767  0.4309290971879882  0.8618813816947344
  0.7864466104761401  0.9280726967114952  0.0757048892002649
  0.7847965992631679  0.7855307004600408  0.3565163270238375
  0.7156967540824634  0.9985360076294513  0.1467603661836097
  0.7861254091628839  0.0658832999963690  0.0701039604360335
  0.6386593130902301  0.9229668457396175  0.7886288791215879
  0.5763391405445254  0.5745751800050802  0.4302414622459582
  0.2085616404871342  0.2118673344272726  0.3522117461459733
  0.2213851960528210  0.7879359384296133  0.7753427968431739
  0.0021378095169305  0.5747958708328734  0.8574188243789341
  0.9291020248052912  0.6381900460190234  0.7770705994421226
  0.8598043058890159  0.5679145388025125  0.7129096968691229
  0.9256027972848574  0.2114794585390414  0.7751674983007979
  0.0021436278760591  0.9978623960187992  0.7128839552810542
  0.1419730982075316  0.4302028771546405  0.1359356161193268
  0.0922977872066580  0.8197769437558587  0.3443302758345810
  0.0699408633777429  0.7924659398026296  0.2224931717959676
  0.0008559591628536  0.4291097288700070  0.5702965934191742
  0.0712579687040690  0.9263339709209860  0.2178642122546993
  0.0780771909069204  0.9399603704051284  0.3583117319769919
  0.8586467906775491  0.5746482560273521  0.8562043136049188
  0.0763507912747601  0.0774882787370193  0.3491496038323665
  0.0056708570763341  0.2749033007755198  0.2759271124643818
  0.0019981970701130  0.1487975574290261  0.5837818720395497
  0.1461830780589459  0.9973282455180007  0.2829692606050360
  0.2156433963321931  0.0733305647575379  0.7854915833040705
  0.0010795752483384  0.9955837874065341  0.1449109224958726
  0.0726999087177548  0.3625063451630231  0.0541316281599600
  0.0705726761216365  0.5073998816683749  0.7907434495451605
  0.1418886599982606  0.1476385017447537  0.7199672333200610
  0.2162609552711751  0.5046222948961303  0.7863245362397858
  0.2184406134485238  0.3774953653987777  0.9266043686080049
  0.1472856322706922  0.2930111756458343  0.1270347428262521
  0.8523189874062573  0.5647940234658838  0.2858677161633624
  0.8614396135119163  0.5678938418981786  0.5676495157530238
  0.1384397305784386  0.5682752268231529  0.4225096137123248
  0.9291227716181373  0.5036117392435763  0.7886841448709959
  0.0717674691303126  0.6437026430769270  0.7712084318755771
  0.7894978453363117  0.5035748503034567  0.6415823023444671
  0.7869159056767744  0.3535149458576636  0.3566147012606506
  0.7181135516603191  0.5707969824193444  0.4278649416473230
  0.0700093362005927  0.3602296489204218  0.6467740618417953
  0.7160383429047037  0.2852133026547391  0.8541448242659927
  0.0055111705199546  0.2955224288717688  0.7283147984623394
  0.7158223856844480  0.2877007313760930  0.7128724239658092
  0.7886455189866705  0.5019143299742669  0.4991415241238548
  0.0002830155183058  0.8556643358290641  0.5677344891018214
  0.7843282205539878  0.0676702134963000  0.9234460410886168
  0.7853099568751295  0.2153935175858538  0.3678230801818499
  0.2137156339802803  0.0636879946493147  0.0679164536769514
  0.0032980208213708  0.0148274805372869  0.4275004517681014
  0.0742745759912144  0.3542179092123718  0.2058580875101399
  0.1438613365675251  0.8579036015263271  0.1445395929282140
  0.2170069286180126  0.2128844123670578  0.0572357839842867
  0.0053317769595936  0.7187506863967059  0.4068118129852164
  0.2196506382622041  0.5074230003820684  0.0735406213368468
  0.0009645655000538  0.9994160374418941  0.5720757426276311
  0.1959021875572403  0.3591914445191665  0.6450767377534272
  0.0098020628705830  0.1206848944682406  0.1362828296211850
  0.9242468036441176  0.6424397817938975  0.9389154127595394
  0.2040084533687887  0.2158736837978598  0.7958728236672711
  0.9250082477494407  0.7905412002689864  0.0776038936633934
  0.4974118965189950  0.0706003198258399  0.2126015287703376
  0.6438302370551775  0.4985786122657074  0.2139943197077955
  0.9307207525253094  0.3608978907929897  0.7906023540414843
  0.7713399026424029  0.2091739161520771  0.6318244614889706
  0.2812156697221480  0.2828398388469962  0.1294763310521268
  0.3511733778794502  0.2303769900424924  0.6458177815041644
  0.2813514792808351  0.1556349511043280  0.5775160613430825
  0.2819549086951834  0.1449246663207171  0.2788682790300983
  0.2800538176860662  0.1404897943439845  0.1316349137285437
  0.3490436422843409  0.2179215995397103  0.0569837294400590
  0.2877169019265954  0.9951680804001432  0.8535332331050234
  0.2174849709404101  0.9206104645885893  0.9271889436823817
  0.2888451408138841  0.0068166557378367  0.5795755653542567
  0.3534457367053012  0.0662313308493830  0.0675238160762906
  0.3372022247001052  0.2197743322646314  0.7946909668332685
  0.2787147389444075  0.1482460843782275  0.8657052202392060
  0.6491720925000125  0.2186888751002292  0.7857815248146647
  0.5673376491191380  0.7123002570557888  0.0041131674921429
  0.3553062396720408  0.7821471805664839  0.6328753309472849
  0.4973756023780412  0.2150090059962508  0.0675080191327065
  0.2909556609924681  0.4353102356838651  0.1451811314093004
  0.4796157089094656  0.0708148828282673  0.0739442544644744
  0.5668599691414923  0.0003727257619904  0.4266921107813034
  0.3339645466213168  0.0831073983230637  0.6515066653043152
  0.2782852786720976  0.1565610227382598  0.7202924222298906
  0.7153450759454981  0.8629794109039751  0.1457841566911619
  0.7897364296317413  0.7837241658402249  0.7820032127383809
  0.4286375837906126  0.5644192413295372  0.5690278210874227
  0.8541357488310354  0.1392796508558940  0.8486834256692239
  0.5008603923748391  0.6429667905485991  0.0769366028088021
  0.4308930386928507  0.4334793916256515  0.8581882481185362
  0.9314814521548763  0.3517187498008513  0.2076724239190368
  0.9359355424963196  0.2176513145225726  0.5048507631552034
  0.4969667997372013  0.5026579586959924  0.0788695858581282
  0.5003969947395762  0.3599722299271573  0.9263361455123034
  0.8551838202036152  0.0008610152120412  0.1439314380750985
  0.8546221162104215  0.4189879134115613  0.2844051641320166
  0.0020183560166938  0.2863468543227406  0.4291893384887865
  0.8417367416988638  0.1381168776429635  0.3080496050017542
  0.5023853296527672  0.2171772774159748  0.6490636384293214
  0.5007516512576722  0.4973479481368787  0.6377590866135670
  0.5753870432469294  0.7149421290733918  0.2858913278229028
  0.5719828005194237  0.1402392586768537  0.2840148961875616
  0.4271983666920007  0.7126588341289576  0.7107796861360024
  0.4251834190710363  0.9983955039056108  0.1443480650869603
  0.4989121485229193  0.5027601194655769  0.9272364278431544
  0.6441485488946996  0.3579729173694302  0.9272859620930113
  0.8521994182900346  0.9954340877897164  0.4496800951258348
  0.7107055458557655  0.8515868622118827  0.8546599221923287
  0.8807970637460371  0.2710982660295068  0.2772588431607369
  0.9228254946271972  0.2053641186200372  0.9220392872236401
  0.4960503037537611  0.7848965518084696  0.7843715998819987
  0.0750901338407191  0.7714976764620677  0.9273500211809992
  0.3572786680064795  0.3627398429855405  0.7914171077146198
  0.6418134376558778  0.3557720430552972  0.2109449150469768
  0.4366345732513050  0.2869858350304462  0.7205760649658670
  0.4775406202893117  0.7860889568553010  0.2176987791818294
  0.4296896458066255  0.5746334027417099  0.1470762782625396
  0.5753880259768382  0.2893457560470199  0.8600690925445221
  0.4984646442447296  0.3573155576061821  0.2199128326468204
  0.4251269603571954  0.1503807206754398  0.7160314360931191
  0.6439553565192274  0.2155892941887081  0.0675324835819418
  0.4295647083562721  0.1392738015618585  0.8578499226747961
  0.5726276510467299  0.2818030314121310  0.2793858101385890
  0.2898618572070572  0.7160977524824045  0.1423780507947648
  0.8607006930642603  0.7178454670724835  0.0042293589702923
  0.2821881339966814  0.5698579259586193  0.4288062572722209
  0.3575769082106125  0.6430879356840827  0.7798150194113862
  0.3583050781491829  0.5100330619871152  0.2192801857718911
  0.5700436636698676  0.5701377699595855  0.1467356370961934
  0.2864292069499084  0.8529269409964819  0.9969861469177916
  0.6444109785633568  0.5026540477774685  0.6406719995493469
  0.8545000404386875  0.5736585826259241  0.0034318518995607
  0.2902959634530454  0.7136167173239240  0.8505431382842135
  0.7145891762763491  0.1428434869866182  0.1385252538890673
  0.9307583910718231  0.3584791725202521  0.5002983081459638
  0.7863109395512887  0.9328717036094467  0.2170944456402726
  0.3585221825451536  0.7837037093774888  0.9266994061445920
  0.6438478951382756  0.0719300222380725  0.2151470935150884
  0.5735055446778735  0.0002368144718843  0.1438667460287242
  0.4966834931949412  0.9259698392280116  0.9268235111417745
  0.2864278494766971  0.4164305873816412  0.5745718666352121
  0.3566086758124036  0.9266718333888594  0.7843213934079635
  0.3620433897511626  0.9391650724893366  0.5008378645468128
  0.2142454539302029  0.7926351261660572  0.3677059093541424
  0.2885858338175505  0.8590234453763346  0.1414133181895210
  0.8546772882373576  0.7136978431745561  0.4265400059641699
  0.8568265119755845  0.5664815607240119  0.4262793034968717
  0.9380069807862715  0.9267284765273499  0.4942047384650808
  0.3564884385852321  0.4928042395399518  0.6409127109562812
  0.8625864144525461  0.7170394327871996  0.5647983197780324
  0.9323561839668909  0.7823828824010178  0.6357347394552127
  0.2822943280823180  0.5745797729353914  0.2825640480458681
  0.3593823767200083  0.6435363369527517  0.0740001548862584
  0.3595233085778593  0.5053305700154508  0.9274804536339636
  0.2893902109386660  0.4372943118291425  0.8561523951119508
  0.2811462859319244  0.4237054838634964  0.7119153859065687
  0.9319241392248335  0.7853036775450907  0.9280554155723378
  0.9334530529124617  0.7861830659217115  0.4878954483141235
  0.9309735148243721  0.5001050412584723  0.6426413175466639
  0.9346659906097442  0.9263736011176718  0.6379790161511509
  0.2119058598307322  0.9251771065802769  0.6352574843632349
  0.2818289718285824  0.9979573153208807  0.7157319018757907
  0.3553045750551843  0.6483055084513195  0.2164599799013020
  0.2121743423820943  0.6383591629742603  0.6380942054436758
  0.3679275424501086  0.2179987181587476  0.9244194153839443
  0.3587279052648676  0.6357177163351158  0.4970294486375398
  0.2869420554587448  0.3064338876447436  0.9975513474523781
  0.4290158452322277  0.7119497959558926  0.4276694555742834
  0.1409250768969636  0.5685438813189954  0.7120188525903596
  0.3584723021659694  0.3622087929611559  0.0718309740834629
  0.1397780612909484  0.5672590755610490  0.5678575022208652
  0.2897834968162629  0.5749418466422445  0.1454941649873585
  0.1597977481804202  0.8653785949737983  0.2761904167720875
  0.2134843022190162  0.7782620270541980  0.9293753915320230
  0.3609903065514985  0.6444205002248893  0.9277993534912732
  0.2855960605442530  0.9943576658437653  0.9954342008822133
  0.2171449935685499  0.9230338940303088  0.0688302488818049
  0.2863954172434851  0.9988833075116201  0.1385010477281692
  0.3524920832083355  0.0722535261485851  0.2109957343922392
  0.2868302151383728  0.0008219387625573  0.2825046493483444
  0.3555292025578285  0.0758195922997677  0.3539544027329217
  0.2891094574152669  0.0062473806794147  0.4275849002032453
  0.3546964804104489  0.0791888357381562  0.5047835641913047
  0.2921369087706578  0.5748560198314754  0.0031761236926780
  0.1445039300201068  0.8501439645294111  0.0008505768397733
  0.3500425760966998  0.0758450059825533  0.7887355021384953
  0.1412954526331465  0.5687558163869187  0.2772526399150423
  0.2917697869216256  0.7153909134317916  0.0020224535570605
  0.3370400144255527  0.3508996070436143  0.3540154986037679
  0.4268109148909234  0.1497709864021819  0.5762324463852931
  0.4039926036191527  0.1492271701136493  0.1345857467320524
  0.5712190324576377  0.2904452772839901  0.5743287710374984
  0.6445356774854846  0.3623667750759658  0.6444122549348801
  0.5757359825471604  0.2910378872248254  0.7149725648349052
  0.2681606138676870  0.5654554991367967  0.7079664340784162
  0.6454572559263140  0.3599782735868099  0.7869416799694388
  0.5034460904460487  0.3617712437133354  0.6470576535103743
  0.5012297353971578  0.3587472597249457  0.4952788124012342
  0.6408702268176389  0.7843966277721649  0.4988044372190084
  0.4293092779816615  0.2871167919217324  0.4215113758717138
  0.2231068856191255  0.7892720742745608  0.2092737644668020
  0.3436681439473446  0.3438698418121210  0.2023889479986023
  0.2756257917759417  0.2809659130315106  0.2805007630037568
  0.2895045350287249  0.5754250500921919  0.8553264453382100
  0.4982444668453079  0.2155397626796747  0.5006513339856205
  0.1381625277386268  0.4285514744477018  0.5672469033403117
  0.5217009746815441  0.2146184273066593  0.7883597114066180
  0.2120769164706180  0.4970461748702514  0.4975314287394311
  0.1384497809787655  0.4293868313160999  0.4207634314151292
  0.5018934425914278  0.2148175637943303  0.9278804922918481
  0.4295026800474088  0.2905221273775662  0.9979239169778106
  0.4963028933869957  0.3571696599937745  0.0746093124670919
  0.4253610270877924  0.2831760506626910  0.1396538259799056
  0.2102125658765015  0.5007288001947038  0.3516166161350223
  0.4229322495254212  0.2808737388183093  0.2790960177576134
  0.5230654682249906  0.3432601199050372  0.3563018394026126
  0.4984546718060413  0.0736113372166736  0.3548128324062126
  0.1599016848188457  0.7165720098059251  0.8380365620854708
  0.6440057522041619  0.3609066461110073  0.5008915045648008
  0.2855198250046027  0.1282505481353383  0.9974374174614956
  0.3419161933047385  0.5021675398333071  0.3532767074945434
  0.2791451983093914  0.4281360958611014  0.4243321027986833
  0.3559149368178974  0.4944272548478811  0.4958549345505366
  0.3555773423736071  0.3577206387322009  0.4850534260984174
  0.1407793251096264  0.7139327176290309  0.0164701901066006
  0.1626127858280042  0.7278004236097845  0.2886461731028263
  0.1447825420128514  0.8515018816337953  0.7058721157845085
  0.2172379498680358  0.9208826390059280  0.7799321964340648
  0.3570469790869583  0.5014254200849942  0.7830873484452132
  0.3584928456223945  0.7874677787018095  0.0715326191221281
  0.2150902692732944  0.6394875581761702  0.3549860073199385
  0.3536262383244836  0.7876047211642457  0.2160315603945129
  0.2864367298699254  0.7197263921781958  0.2910214621796616
  0.3551159178277675  0.7884583610825141  0.3629777924502067
  0.2850473563399005  0.7158010560593037  0.4338247402288848
  0.3691353970891940  0.7844753463078203  0.4995847683622617
  0.2850224289787274  0.6993797542279891  0.5672737072887869
  0.4969433129670313  0.7836025524489073  0.6406154753689068
  0.2755959006599863  0.2814301156191600  0.4262648666377939
  0.2628441015692500  0.2842386028282619  0.5542632117201106
  0.3752472214909021  0.3627502133032167  0.6632517256901654
  0.2766803074239717  0.2931762026369751  0.7319897358542075
  0.4379111870139936  0.4363348302765414  0.7219020466992783
  0.2758543089884247  0.2880535636596355  0.8703024536697482
  0.3596155704996770  0.3639936683990632  0.9256109986260556
  0.2912273450280978  0.4387174110866865  0.9986728642420574
  0.3602571365285253  0.5042673588920253  0.0757619549178136
  0.2785539170122106  0.4259015819866296  0.2801137985153829
  0.4263342221924942  0.0019728027529698  0.2850368649425737
  0.4253825245122710  0.1463980868198206  0.4290219950785003
  0.1475498973721373  0.7155708967392961  0.7073287550900311
  0.3472492719220676  0.2149862291090573  0.2097617596995174
  0.2162974956683996  0.7889958490288126  0.6261071329995421
  0.3525491230912023  0.2147467863798420  0.3541615703994763
  0.2850362830917774  0.1469421380826818  0.4286897265384514
  0.3563515577344282  0.2228543976869887  0.5032108243637902
  0.1392502420683158  0.7039363996189144  0.5741602573592034
  0.1933660106178077  0.7673838497134662  0.4946342762880961
  0.1315758834292036  0.7027639508135268  0.4103028014564787
  0.2853406349039156  0.8601444488506809  0.4428175038703839
  0.2845084647238509  0.5647628287049198  0.5685533883516196
  0.3590437593932189  0.6372307009058060  0.6396898671642393
  0.2071951368867092  0.6385684363383107  0.4935725242230589
  0.5004854704867537  0.2128849347355769  0.3537337406239904
  0.4275451677196110  0.0060539066289091  0.4282196578139767
  0.4977271210772248  0.0741957860110967  0.5013594459345859
  0.4294196639579014  0.0064910848266915  0.5741214111562293
  0.5180998234462921  0.0719701190976893  0.6491058293913267
  0.4289517696223289  0.0075401671864357  0.7189644203388249
  0.5030133205082178  0.0733424447372205  0.7867273234616186
  0.4272684068850487  0.9991350081849443  0.8547683505993170
  0.4988649472995709  0.0701362179165588  0.9286762790690364
  0.4254519775791056  0.1425332992791006  0.9961609043702743
  0.1403184106474428  0.4339556547155827  0.7204113815914471
  0.2100090734614108  0.4932686571200752  0.6372578174063515
  0.5003449184996114  0.2139495110285517  0.2116967655297186
  0.4250008413774361  0.1448880282267700  0.2814807094447762
  0.3562389498036374  0.0675526326852923  0.9237597220337737
  0.5753592560914270  0.2820723510236123  0.4338016325830135
  0.6406664574515519  0.0720913924518218  0.3607051569021786
  0.2029028256065149  0.2086711374125093  0.4952300737843357
  0.4271425625078608  0.7139727849516799  0.1425574574149655
  0.2860018336762754  0.7148650249282671  0.7055162560101305
  0.4292599288004157  0.7132615926175015  0.0020539434772148
  0.4250768885236472  0.7144693065591607  0.2911638908006521
  0.1420461402168527  0.4248398088005888  0.2800600815928374
  0.2053342798261767  0.3612102862665577  0.4919871337875238
  0.4332089322042467  0.2920298820076853  0.8564738652128296
  0.5725234994462778  0.7143480996418232  0.4268944204188289
  0.4263223801915672  0.4333362873004217  0.9998400699684282
  0.4988535767368140  0.7857971804451657  0.4977354613850140
  0.4263832516736096  0.4290567175983077  0.1467827127564716
  0.4286169162635362  0.7092420008846809  0.5689452803439184
  0.6471703074335562  0.3553847720263900  0.3622878793203723
  0.3981906625869499  0.4145618872796428  0.2690732227101628
  0.4301702479887087  0.4300198219679155  0.4139689366040056
  0.2074669838958868  0.3542811174654610  0.3513355725525383
  0.4988855463326123  0.4975004153796407  0.4951487631754468
  0.4265854499035333  0.8543308703526620  0.7114849503204965
  0.4294695703667745  0.5734413643207404  0.8549881745813646
  0.4285099713424769  0.7129105662306209  0.8543854258140481
  0.4308516430259645  0.5732132955742302  0.0023132606957109
  0.1390079886694467  0.2804825131302275  0.2768715982862193
  0.2103954593785737  0.3649609810994673  0.7954302653527402
  0.4284523535949730  0.8560909466271873  0.9990665277103761
  0.4275083782521332  0.5851817802448446  0.2872917869696843
  0.4970447663852842  0.9292077035529236  0.0727037215122273
  0.1382928915463357  0.2838428878197181  0.4239701920430140
  0.4276472877814420  0.5667960627861143  0.4210891083189836
  0.5749001882632784  0.4294033833512543  0.4264377068304407
  0.6464652086805157  0.5015846539058061  0.3576248213175050
  0.1503894882111304  0.4448858053213279  0.0036507723565189
  0.5067036006212557  0.3620781519721264  0.7884158151102701
  0.2150087916832181  0.4985992697181411  0.2113183240407253
  0.0090549758312114  0.3004952046031069  0.1268046882666284
  0.4963562044048342  0.4965084009323201  0.2250757572415754
  0.5173092218752887  0.5112557825857834  0.3588890061634575
  0.4264915149976261  0.4228107452024465  0.5674104845659197
  0.5070240377826282  0.5008881550818792  0.7918054309262935
  0.5512920263595481  0.4319989962981369  0.0014753684001549
  0.1387317516436306  0.2927632593238694  0.8675046410947292
  0.5001547989779934  0.6460128241961223  0.2165038251951230
  0.5039823954373387  0.6443417602973190  0.3571794757123366
  0.1879880200142108  0.2092732000537002  0.9328467738239905
  0.4983319781080918  0.6393721961504936  0.4961618947920956
  0.1402963830398057  0.2918222368299604  0.7287209074767332
  0.4988504812829164  0.6412666746680131  0.6381002195715600
  0.4488480066875039  0.5671842509341948  0.7127505254374065
  0.6415777038130825  0.6443134177333930  0.9315547150101784
  0.5682487570484145  0.5716136564435482  0.0027336418292551
  0.6441725221241519  0.5024467932829421  0.9309136252827381
  0.5005601914820408  0.6431226834423919  0.7856582387100383
  0.1389473180212654  0.1325382391400130  0.8562680467309401
  0.6350423306943105  0.0658580265889591  0.4985623537950178
  0.5678833372658747  0.9969179415444350  0.5711103014373440
  0.5770477155598704  0.5750722378610782  0.2827778636961450
  0.5828418990128041  0.4262930268324235  0.2859287602528574
  0.4264336196982882  0.8591886437031089  0.1422022700294791
  0.4975968451727943  0.9299245827572438  0.2152463194680359
  0.4245079614600562  0.8603956309045908  0.2899653456235731
  0.4988195881167048  0.9303745100141362  0.3565317327620721
  0.2090695676995376  0.0784649726573695  0.6493641647538708
  0.4984918020777349  0.7858578889224221  0.3580358389300551
  0.2112694443195968  0.2143570640135597  0.1998771709011208
  0.6414949990258720  0.4992681011444610  0.0734739508275430
  0.6389220083340679  0.0602694529543906  0.6498704259222884
  0.5800078577743537  0.1447785052306610  0.7160200969797873
  0.5706701605296172  0.9932405802767533  0.7203671025527915
  0.6429220563253367  0.0674077996325463  0.7869444816171041
  0.5693959754340692  0.9968807602718318  0.8587462853452277
  0.6450281458513480  0.0676657068118807  0.9286881579336438
  0.5731936552387578  0.1422984761503705  0.9983247833188162
  0.6443340372283544  0.2151473591876091  0.9273593511370315
  0.5713785824462052  0.7160530378579568  0.1463390077036512
  0.5857267537312297  0.1363953290590700  0.1336531391026717
  0.6419778303064735  0.2104041350243525  0.3634037310630905
  0.5682115654969423  0.1423121381786633  0.4298566961564702
  0.6314920020568443  0.2133852348565464  0.5058761657015284
  0.5683101716586464  0.1434841971830666  0.5744591744708272
  0.6429250604910783  0.2194732378252134  0.6424575725940581
  0.5761079415848188  0.1401767818785486  0.8601824465705841
  0.1432166140482398  0.1485320322406652  0.2745661451449332
  0.1378724615557935  0.2894756689653006  0.5662544811132099
  0.5700187338143572  0.2868188754728836  0.9998068749051315
  0.6414375103640126  0.3583383909211587  0.0701216085783559
  0.5705514390696629  0.2860480688197820  0.1404569328043969
  0.1397727948208796  0.1514997315463026  0.5819130527976951
  0.6420187950053322  0.2099047806353754  0.2101117404704966
  0.6415845939181460  0.7863309188347614  0.0754907732295585
  0.4970687673376552  0.7842868294955632  0.9288295090651343
  0.4991623878087222  0.9302662351687042  0.4989799820726134
  0.4281989359654957  0.8608503743924942  0.4295861889322292
  0.2122819823977396  0.3560027361786617  0.2061536737998650
  0.4958612812393300  0.9265103544802359  0.7854100017754052
  0.2237127334454417  0.3729762187458157  0.0744621766045109
  0.5695420803082417  0.9954802610976027  0.9979180525256699
  0.6639185488894624  0.0645782807076620  0.0669879032382830
  0.1632420562136996  0.3104319526947687  0.9974368760201215
  0.5708743405953652  0.0011187350397880  0.2842953413080073
  0.6456160106464620  0.5012942748197409  0.4984218507143066
  0.5728228382584423  0.4301371380377328  0.5694984101033049
  0.1448544517177985  0.1389230544134526  0.1284520038769903
  0.5751237870828044  0.4331478408462889  0.7151490561438945
  0.6449464794553635  0.5021777920263756  0.7879674363292156
  0.4983139284580902  0.9296199556705604  0.6454638051757586
  0.4302928846384229  0.8613842874388177  0.5724876858237433
  0.6405982468747761  0.6417374743191284  0.0748273902512101
  0.1393659187630787  0.1255128426690763  0.9974993907612498
  0.2146399646084490  0.0641298275533213  0.9255320146107499
  0.1583624037622470  0.9917407380036484  0.8530102434463241
  0.5677765137365802  0.4288057884601270  0.1462155533143519
  0.0725730412659227  0.0619764386477024  0.7864019933945263
  0.6441852456409776  0.6427221775642850  0.4997665046265247
  0.5695794808987444  0.5676814071043145  0.5671787131053649
  0.1481498569119324  0.9981367464525133  0.7135969442403363
  0.1570724559242818  0.8834450480341951  0.4397812939956208
  0.6240439705588470  0.6419851599477975  0.6402083612736746
  0.5727858057513331  0.5742617691268326  0.8600361784467340
  0.4980503772038987  0.7860574305736137  0.0732702654567440
  0.3576788658953768  0.7838361469633525  0.7804339656346809
  0.9170152978440921  0.7808865771813043  0.3556991110894784