 B Cr Fe 
 1.0000000000000000
    20.0899999999999999    0.0000000000000000    0.0000000000000000
     0.0000000000000000   20.0899999999999999    0.0000000000000000
     0.0000000000000000    0.0000000000000000   20.0899999999999999
 B   Cr  Fe 
  41 206 480
Direct
  0.7385891348717922  0.7768375386508196  0.9437576048263829
  0.9119894389500097  0.0382654498981866  0.1413256910170362
  0.8569995578242385  0.7278245855456120  0.1999436604676759
  0.7330827885033070  0.0696495698677341  0.0755724340493644
  0.0681917257374466  0.1517140860970988  0.0097614246047930
  0.7966704859929868  0.9942408592836673  0.2241782668034244
  0.9974865060306847  0.0584560798276024  0.1196900430587142
  0.2014992970264979  0.7232549946894279  0.1419193659706444
  0.7920163468996776  0.7246472935543097  0.1432285469268500
  0.7966280164133542  0.1289147038408745  0.0733344572361148
  0.1859886524593845  0.8799104381582037  0.9942553305432277
  0.9283228904716915  0.8582800665836138  0.9371163095064688
  0.7892891291366170  0.1285208553157773  0.3426445266194642
  0.9883997624580113  0.0002991691798774  0.8061956586620463
  0.0585932024505813  0.9861952671783204  0.0196781987322220
  0.9350273808905987  0.9913209214121771  0.2980744240739620
  0.0494915250125166  0.9988494758561288  0.8682737277438359
  0.8001514342012769  0.8543361546346377  0.2846484591932215
  0.8697089978879095  0.6408359345975444  0.0144818688661091
  0.9351710985534832  0.1356288460572259  0.9418966848672968
  0.0413624018499346  0.4129423782453070  0.1531369406249156
  0.0029053209113186  0.4069445792605393  0.9340931211357215
  0.0054175821238818  0.3920424247502999  0.0777714756964257
  0.9859924641908435  0.8001674605321183  0.9768083563740981
  0.1380374334807490  0.9172505697890095  0.1453355937643647
  0.0562076620691476  0.4065036149996281  0.0015725934788535
  0.0602264449791979  0.7492848975373294  0.1642251596831934
  0.9989035437805261  0.9944338361986812  0.9579155708037551
  0.8675306085635255  0.8594355243886659  0.3414143174698234
  0.1373606748129756  0.7241527638681101  0.2035801107266486
  0.9997704534456155  0.8557741186959308  0.7943917121415649
  0.9889045113853998  0.5715984718178899  0.1825436805851465
  0.9261040465480378  0.8742958130448185  0.1989417526681818
  0.0674984188832638  0.8717872298472777  0.3391289780262240
  0.0694951177457202  0.9301011449750767  0.4093110798219611
  0.8823223414426568  0.4800456445780781  0.0762214397284394
  0.1289206030190138  0.9312170960417639  0.3447597847181222
  0.7297432600259741  0.0684551323263854  0.3429612607933332
  0.9395170202068919  0.8474396552828368  0.8508139370259793
  0.8023136874420687  0.7769118303213858  0.8819971073210920
  0.9862020400767659  0.0575172850249473  0.2728515569540482
  0.5696430940921478  0.5712525173864332  0.5728172115673905
  0.3595007618726551  0.0708625041706409  0.0734790308630680
  0.7817780364532144  0.6403735451050077  0.5033077936257040
  0.7781700176986487  0.6389018346751987  0.3646675444430688
  0.0358220098375388  0.8604444482465112  0.1632539949085012
  0.0736327019427655  0.4982519687251146  0.5016708795720090
  0.7812276128375365  0.4968551869911242  0.3627656010159686
  0.7759090189199962  0.4962803166076483  0.0722333654542275
  0.0934282137957499  0.9239956809953932  0.2386872059987323
  0.6350622247742075  0.6356295381467072  0.0711836638809500
  0.0751942504831615  0.0741135315356983  0.5033409605450259
  0.9289904626959368  0.2156116877720121  0.5009859587373333
  0.0748849666916021  0.2140760659213740  0.6433177940607686
  0.5000134910809937  0.2132808151595799  0.7859843230794794
  0.4993195144962201  0.3565919142686880  0.5038927361284780
  0.9991236051566420  0.7026033403788955  0.8393685555800905
  0.1437475278633627  0.8560397288693634  0.4262748419551159
  0.3595356096395084  0.4988631534700722  0.9267645461807746
  0.1441987134953764  0.0015273543167458  0.7152644420191256
  0.4305708926024813  0.2831939278575405  0.7152943882402678
  0.7108312628730551  0.0018743930311108  0.8518192898346463
  0.4298540836183330  0.8555731040023069  0.2876623547585039
  0.7804157159164500  0.2179285783384123  0.9206171549060402
  0.9228433119236741  0.5013300950352028  0.2318157982159053
  0.9288591220794650  0.0732704991740645  0.6419224741176975
  0.5689447367607040  0.7117538458836875  0.2900006246565222
  0.0805977729269263  0.3559815067851119  0.7793486865874840
  0.9788092671012019  0.2040254982893333  0.0092850336093191
  0.7102267716143971  0.4285802428502807  0.4306661186926482
  0.9291107397039242  0.4970012256863429  0.7768270467356913
  0.7811365268433331  0.4985203917517199  0.7808629748421637
  0.5004477132537496  0.7848727276490333  0.6455908112319054
  0.5004229119651942  0.0687459262145972  0.6448420864653013
  0.6939205395677353  0.7079310707975329  0.1404638925788086
  0.6996963501998722  0.8607636690827311  0.9970534288170688
  0.4302697052211937  0.5696851166641215  0.4332460732803693
  0.2170717217908779  0.0705991556265095  0.6451778737750222
  0.6416275849965603  0.0704671247567872  0.7840356571771662
  0.5004906256936952  0.5002959146514684  0.5044603573832143
  0.6385736164337930  0.6410988787163776  0.3616951892664181
  0.6376403491767747  0.6410955364554221  0.2195260650059916
  0.7144254783749453  0.8547672744323639  0.7150709712075248
  0.8618381306085863  0.9487937155972396  0.1460089294909797
  0.4973835538426262  0.4997493525675735  0.7838273695773895
  0.7692748658598126  0.7768662821052629  0.0572814098616452
  0.9857327094107895  0.7134121849390275  0.2898022590879730
  0.6392361044431055  0.7804130744343276  0.3611840045188587
  0.8190436316537264  0.0187016854785487  0.0386421075404182
  0.4294807187141566  0.5713632690575147  0.7144487726393303
  0.7114673571833668  0.5701813189477296  0.4312551032305942
  0.9265974681806320  0.6394452704180877  0.6416084732029442
  0.2187999863106600  0.2145240355392055  0.3608376402600632
  0.9284155869871988  0.4904614109576202  0.9081346700384816
  0.0038556070500502  0.4302091220207262  0.4318791371804720
  0.9293603238201441  0.3562859606957986  0.6408879920177293
  0.0704655659176652  0.9315831035651150  0.7877263866949167
  0.9357601201990209  0.5873485554248198  0.0747382513001010
  0.2173098270217396  0.4983990289064539  0.6424897798505596
  0.3593730167505649  0.6408650169650609  0.2165821862106090
  0.1560545617220441  0.2909657221962700  0.9924670933055914
  0.4304021007226080  0.8571707814041994  0.7138930745603840
  0.4285880571162830  0.2860105867982634  0.2886552526720262
  0.0414240621188773  0.7815234125013887  0.0647471704218913
  0.8262182233299024  0.0276585691447441  0.3359907805430566
  0.9203155405464328  0.6414351214227835  0.2180608912020222
  0.9284983223271380  0.9291421375854779  0.5059350591499246
  0.2255196291561438  0.0788104901914656  0.2184137411278873
  0.2907063845143092  0.1422313437634521  0.8555210689591805
  0.8505313124327757  0.1642165377691053  0.1657962916312175
  0.8629950948494277  0.1395609406641116  0.8594702250575121
  0.2241950226566404  0.2186594801276314  0.0728365316504292
  0.8541781888804759  0.0024274900159608  0.7097997488344002
  0.9287107340238127  0.2160887775633354  0.7837074150050577
  0.0825971438607538  0.3554222926755676  0.2233035008776090
  0.0680292152017106  0.6433073508892371  0.2196996218747745
  0.4279950222790889  0.5693635055492514  0.9968811677723264
  0.0024832602008636  0.5666059111420210  0.7097947321431065
  0.0723874035681710  0.4987154806332928  0.3576614899651298
  0.2189146630055026  0.2117326699285356  0.7843438398461438
  0.0792075837456863  0.2233200102076994  0.9307613376846131
  0.0765768695990236  0.4965398055568249  0.7786028260782087
  0.4279666146378683  0.5702119346494264  0.8570798803038325
  0.2164445882058161  0.0718601985037715  0.7859630034935492
  0.8457615153784662  0.8730563382675629  0.8546052147601338
  0.1505863737382514  0.4267620278166395  0.8495700388889600
  0.1457810415169975  0.4292913765823539  0.2902747648933569
  0.0083999289154101  0.2980581133243906  0.1373640787580008
  0.1076043507601282  0.8109356887180783  0.9665816475654277
  0.9986974374086005  0.8552359417237418  0.5697283930288081
  0.2885658514733493  0.2833605792830638  0.7144129757442188
  0.2213131678556879  0.2142849371777970  0.2188076074290877
  0.8630201886213185  0.5421249120565067  0.9923677320005030
  0.0728846583372023  0.6378396375734036  0.7801064633636930
  0.2162076501988668  0.6418979223056078  0.5021526770182946
  0.8554796370399497  0.7105164050349647  0.7104930452662380
  0.7073874192668883  0.4312047309222927  0.2926106142988429
  0.1538473342667769  0.1506363085668061  0.1452446288106165
  0.8558909960561264  0.7115438990757716  0.5719837170642043
  0.7074323234993903  0.7078120923074165  0.2936647504963212
  0.0701631884887827  0.6425159979102005  0.3601981851281277
  0.0026813499786654  0.5620511533606276  0.8479182365230655
  0.2036331088962878  0.7869980914728327  0.0554322762153771
  0.9378869399139305  0.0718287748574882  0.3658268697170188
  0.9923591679905669  0.6749101229185951  0.1294273688654269
  0.4981287472706935  0.7822084074259409  0.0693814761212726
  0.4992215282251967  0.3539036218402337  0.7849214890602271
  0.4313414807156247  0.1415503117087650  0.7143565571249930
  0.4292721226996288  0.2842350354066543  0.8541957547510151
  0.3603387926845519  0.3546556793134518  0.7831513570553355
  0.2870789786112301  0.1404407085978328  0.7160930198623510
  0.3598041891556012  0.2123977104592821  0.7828259271266934
  0.2867654799325310  0.1404859272991510  0.5742593097258613
  0.2897762574243844  0.1455673312450110  0.2887530128971495
  0.8471699345349736  0.1652699124266360  0.9898017943988158
  0.2880626208748485  0.0006277509508007  0.7143782961058475
  0.2873080708006412  0.1427541086325681  0.4302425971936563
  0.4300392975626622  0.9981759503374954  0.5759227145068890
  0.5723146875464018  0.9982379361607961  0.7151814517398132
  0.2931348459137351  0.1465109215182368  0.1446893186623122
  0.1464352021475905  0.4270549879724031  0.7104772713540883
  0.3598437762905802  0.0715975664360019  0.7835398442428592
  0.8569320152558226  0.5636090182075308  0.8496886820896480
  0.9508072553275012  0.8844739757873393  0.0989490290087062
  0.1554789328915284  0.0014741123303110  0.8565413631943223
  0.5004272650331585  0.2138494360054554  0.0727721844360892
  0.3597241780209431  0.3562713738195032  0.0716189266763359
  0.6459470886412473  0.9253817267621990  0.7863042662747612
  0.2905170868816804  0.9992987449891468  0.0017587393413375
  0.2230702004582517  0.0713094174751721  0.9293783623978757
  0.6416110902571420  0.9298289339858722  0.9256906415280159
  0.2914985926974924  0.0011932946238600  0.1457259992820268
  0.5699403284647595  0.7120610215743991  0.8565998685874975
  0.9072609063995271  0.1133492405583400  0.0714292729393026
  0.5696953738462756  0.2838645334142416  0.8550790725217723
  0.6386433146551325  0.4994714559150989  0.2185860080781958
  0.6418475445627975  0.7834785503029698  0.5038900687790733
  0.7868975053657685  0.7842305047712566  0.7794206025830064
  0.3607268858334548  0.2141041812525214  0.9273754420726149
  0.6345644023862737  0.7815137048243969  0.9285286447589243
  0.2210767376428649  0.0756270814521930  0.3598159246161344
  0.8271259300159173  0.7212736363016780  0.9720884032760388
  0.1490729004111961  0.8168983185072815  0.1541485885825403
  0.3612757793649546  0.2148721276093911  0.2178296873654325
  0.4986676721035346  0.2130500175196807  0.6440683977211521
  0.5681717510381140  0.4269303308792812  0.5715802074070091
  0.5715950031371435  0.5695642039051502  0.2892684615625480
  0.7167439531305871  0.1405254118949444  0.4253362299884695
  0.1449008322751207  0.7119794145121383  0.5707498785626587
  0.4295796359420427  0.8558114039905927  0.4338521402596056
  0.2929173254650396  0.2860588143565931  0.9989317677787849
  0.7867622750584405  0.0718784309256348  0.7842747505795511
  0.7809792155827536  0.3580094365776695  0.0752647359517655
  0.6392629576742190  0.3593800631789670  0.3622762651162285
  0.4302063320089539  0.4265141177316576  0.7156961670204617
  0.2882025485021163  0.5721716298063620  0.2877434055071772
  0.1549577393639164  0.4256462215560237  0.1509570445918952
  0.0776989087807761  0.2184560543642141  0.3613865669375038
  0.0046201834254423  0.1618732289445743  0.8575676639454056
  0.0985875962856606  0.0737394790126802  0.0755989633517791
  0.7846784837369405  0.9206613621093604  0.3672983441168892
  0.9762555529516669  0.9732607402609459  0.2006850969525637
  0.9274589630635762  0.4973408373018500  0.5001607662321802
  0.0042953319954092  0.4293460192045753  0.2915205750707059
  0.0006380951353144  0.0012388717904423  0.7032984746629969
  0.9313336141196166  0.6330296126323329  0.9234492360511177
  0.9257360771866793  0.7817319425342365  0.6400178580224909
  0.7836014596164521  0.7824861751873700  0.6406924061862816
  0.0956899078637082  0.9308004222399034  0.9322892428623968
  0.8956969702448002  0.8095599004815752  0.0361488022254074
  0.7863888610880350  0.7833616412937170  0.3612877832204641
  0.7109986159163548  0.5685603658078433  0.7120544634613145
  0.7149802207017991  0.1459081885847445  0.1472794666770070
  0.7118691755040927  0.7130623996506186  0.4313926197164548
  0.5684704613592519  0.1440069108028899  0.1457507805207055
  0.3592067884654249  0.6409847309665915  0.9273522089919640
  0.7131557119503580  0.8548268382363493  0.5717514019135665
  0.8434038213951720  0.8237427457442318  0.1426812124562973
  0.5011681736178866  0.9277334733209697  0.6454297331749559
  0.7833735404563277  0.0734521042699374  0.5039614206788785
  0.8566214005881212  0.4290507012255539  0.4310819344450360
  0.4290118138381814  0.7117598791049256  0.9967579678285834
  0.0755284113394755  0.3596900677678159  0.3610241878472339
  0.0335109399236213  0.9761375630520298  0.3236801480973800
  0.1483186349592056  0.1470663102551578  0.2876516371892977
  0.7178963552562586  0.8526343027830705  0.8642288234947558
  0.9271055938262270  0.7753463900951040  0.3706163909417746
  0.3590790777173581  0.7855459021303591  0.7847331946844951
  0.2887508297152215  0.7110392297521017  0.4338155574122840
  0.2302919592290007  0.7774379332659542  0.2277770874685631
  0.2898439751598660  0.0004565444117528  0.2871241177168359
  0.2208856195639390  0.3591370021189397  0.2204056904422429
  0.9424724697802249  0.3678525300003840  0.2093307607564330
  0.1483362266176325  0.1446625351895205  0.8593672781143670
  0.3588782278148308  0.9288054693753152  0.6447493077822508
  0.0216232447907663  0.1621875920942964  0.1126356117986582
  0.6406128180665559  0.4998350226902417  0.3617499527914541
  0.2233859039749075  0.7795767733573344  0.3678189134146414
  0.4973311445086654  0.6393765872503410  0.9268609978212443
  0.1407837829302220  0.5699721367097363  0.0074589859263583
  0.5693586170188117  0.4268842952879782  0.9993886880817656
  0.1462122390537597  0.2860956579953431  0.4298359297794499
  0.2897396777806048  0.8560900023485615  0.8539563908045373
  0.2192416919025606  0.7903622081581266  0.9266921272250562
  0.0901884624818053  0.0704384386355993  0.9366367023661767
  0.4982481694972259  0.9249510702227792  0.2166454018166526
  0.7131691227718837  0.1410455992131702  0.7141427146323763
  0.3600761279758609  0.3556548224634750  0.9265971785637347
  0.2234803363088479  0.3568901023031816  0.9221472775582408
  0.3590815513579835  0.4993081950656578  0.0710525494353709
  0.1462232551188932  0.5691044040318243  0.7107269075363610
  0.4301254196051446  0.7127524917923731  0.4329694886419279
  0.4289069315883814  0.5702576095680343  0.1439743205482998
  0.3591140502786405  0.6415305499986313  0.5033276662900771
  0.2871875044734805  0.5704575093575103  0.5732059499097617
  0.2190016136747658  0.9203800261664885  0.2172529098198650
  0.2923619116717063  0.0026423375983484  0.8536883238624243
  0.0734945289700058  0.6400260337992468  0.5027155853358161
  0.0662790584262134  0.7742106036680395  0.3676224594858809
  0.2220072140478300  0.9220459308233253  0.0844648897299263
  0.2904536077590813  0.4274252516521363  0.1454059747134273
  0.1632708907029297  0.9932734693692516  0.0065043593523821
  0.2987567892349390  0.7123745385475417  0.1422822739683821
  0.2895519507075224  0.8486164283634444  0.1452889243705835
  0.3610043597502289  0.0722821324846164  0.2164647095969015
  0.2920990409203291  0.8549649731454664  0.2918425144217400
  0.3590371831621234  0.0707238712305506  0.3593954988094241
  0.2883982467707741  0.0006036056182643  0.4318728814929902
  0.3591173339723778  0.9283420132174754  0.5030073083783797
  0.2151659379261489  0.6385771886155728  0.9248168670210547
  0.5680320552004293  0.5676988935909659  0.9982360440686714
  0.4303925635911503  0.0000310709268631  0.8558939414965669
  0.4288766136360885  0.4270764535319950  0.9986447580241166
  0.2891327590345973  0.2857755559382597  0.2891582010347792
  0.3604223386915832  0.3573385627326149  0.2180760857841985
  0.2172619176243359  0.4991574779081952  0.9269038895254972
  0.2908564214204272  0.4280048564105510  0.8540661151410490
  0.7125050635174164  0.2843360248433561  0.5707974643129882
  0.5696693442970270  0.2841038897830256  0.5727881601548501
  0.5695547130572698  0.2831259354576294  0.7131116075048747
  0.4987213290798100  0.3574808522289762  0.2169863046415611
  0.2873527569654117  0.5710731894308196  0.7135861440167107
  0.6393026606733505  0.3551682139524752  0.7828962580955499
  0.4992007792123522  0.3560204577259194  0.6436547535182378
  0.4294589195713475  0.4277410786254033  0.5733277963608882
  0.7006140522640820  0.8531294598541336  0.2951581453737158
  0.4287732445067047  0.2856507248910346  0.4322960801467766
  0.1479673516456494  0.7104247926348602  0.3025019133564547
  0.2920960692763139  0.2863910155637541  0.1471286902639673
  0.3592820192114546  0.2144156578633954  0.3605202094270298
  0.4982875057910880  0.3574403990821283  0.3606678529954889
  0.6391198574041240  0.9268463634552426  0.3625700902564902
  0.4291925620000643  0.9990445158661206  0.4318191500157071
  0.4300153039681018  0.1437050072380355  0.1440012952956622
  0.1542672718518480  0.5642955753225106  0.1455939460777664
  0.3584517466772740  0.7852307065454658  0.9267346929469209
  0.3593912666148658  0.9284410231081189  0.9268824813875296
  0.6403685388985779  0.3574587126449195  0.5022768672174072
  0.1459085616749484  0.1435915769373408  0.4304877405479970
  0.2878982526312213  0.2842617883483657  0.5728545907928531
  0.3594199428284898  0.3549633674291978  0.6440538168212747
  0.2180364677013388  0.2120033451041009  0.6437334138176698
  0.3580532058156886  0.2115445259894451  0.6440305107089146
  0.7014577522250709  0.6992064481266301  0.9984318610360449
  0.3607981497633211  0.6392996367438644  0.3629475243938748
  0.2263254825086995  0.0756431228508890  0.0735868275634254
  0.2922048456571026  0.7074184433115096  0.2932204021553177
  0.2890116889117958  0.8565697044390046  0.4325109278875331
  0.3608288417955599  0.7838520122911392  0.3626636524377217
  0.3589540647407702  0.5005259296792204  0.3605542484018369
  0.3586781141687404  0.7850228991165532  0.5033680609166903
  0.7750457492582832  0.3607283346326333  0.2254962339388258
  0.5007504105509534  0.7849299780560073  0.7860751061460119
  0.2882311498839017  0.5699683607975887  0.8553111093544330
  0.5690467203004669  0.1420085476953380  0.4322166480439785
  0.1462398469619831  0.4276011900024006  0.5714324572285616
  0.8529122740795151  0.8549384892514138  0.7076316847082080
  0.2164007022189301  0.4993413050336936  0.5011964187790912
  0.1448425847126999  0.4296691992143084  0.4306081315633273
  0.5699052723632927  0.2848226972783775  0.0002210668443148
  0.4302613445545950  0.2853062772258687  0.9994206649128923
  0.4994091241772166  0.3569103006747913  0.0711301575216092
  0.5684851168398596  0.2867719532241094  0.1442625919631598
  0.8435847733615974  0.4216079125356695  0.9943735761538870
  0.2877339905724361  0.4285993577785281  0.4313994447371258
  0.4300219934712166  0.4284405091356708  0.4329060472300409
  0.3585362220771252  0.3560953747232385  0.5028918121830753
  0.1447486149110768  0.7020518077075073  0.9911803342798599
  0.2131204754761980  0.6459358557313866  0.2144204716640989
  0.5714081078794467  0.8557392027706369  0.5740265778878735
  0.2879871355875707  0.8569864373479192  0.7143423362550855
  0.3582361911270012  0.6421038830149109  0.7853916659298181
  0.1494357231438927  0.8558899073354268  0.8528389797834932
  0.2185957782238432  0.6385949343417457  0.3620112079410076
  0.4294106438338217  0.9978691531172373  0.2871339586304322
  0.4982889971454342  0.0698801910485777  0.3594269300344925
  0.6969704852365637  0.1572893725139873  0.2959405367302124
  0.4990320568954725  0.2154258322579648  0.2167925862973710
  0.2156622053211382  0.9287211712854715  0.5006607582459636
  0.2884064634884799  0.2854218025591713  0.4308780360601593
  0.4285391639364545  0.1419817322606672  0.4318466090505679
  0.3576291777644609  0.2123800125733438  0.5030628751313313
  0.1453448268281352  0.8558598130309881  0.5716593071515996
  0.1458974298308781  0.7107692449691317  0.4326367447546308
  0.1432391353107260  0.5709543841869040  0.2877369787037213
  0.5000646663755334  0.9270053323004872  0.5035220167933127
  0.3598958712892288  0.4989774962728855  0.6445378521209469
  0.3583342682182531  0.6425013662023974  0.6441089852944120
  0.2158075823922878  0.6422567839000193  0.6424141129045958
  0.1439644730175374  0.7121436343220602  0.7126929835421816
  0.4979945455696436  0.2145504499060549  0.3604330227815815
  0.4296939188996661  0.1410063646469983  0.5740407745183307
  0.2871077437353680  0.9997196082040781  0.5735185317077045
  0.3584787411461686  0.0706904298397406  0.6440431087438555
  0.4293086054523024  0.7146062087459555  0.7154678665698295
  0.5013815198620164  0.0703379538151047  0.7851866159573059
  0.4300596054612376  0.1424129249372462  0.8566179828407201
  0.5004420882107529  0.0713358902943106  0.9285491694517449
  0.4301205410370836  0.1428958221740400  0.0007566057346734
  0.1476401542597909  0.2835587802293772  0.7124093052217606
  0.2891856695179655  0.4270333973146623  0.7124184670397191
  0.4292941634057669  0.2856426558754549  0.1442279065051641
  0.4296405663197602  0.1427470315566479  0.2883850787928952
  0.3603379766405698  0.0704716550135706  0.9291327087354451
  0.4996826307562855  0.4991183676752175  0.6438057057360007
  0.4288945992482332  0.7114132492811012  0.2894511242692647
  0.2172734388956078  0.2135438044601955  0.5018180852517524
  0.3590164547146235  0.3572757655279051  0.3607013666020866
  0.2200754989069030  0.4973907873136145  0.0719102654217435
  0.5699832068610092  0.5700080248293407  0.4323272983729300
  0.0739957098744571  0.2167705998948517  0.2139782643121932
  0.6432130964821051  0.6422629118127502  0.7863385238124543
  0.5690948785639751  0.4285008791284735  0.1448854814984666
  0.4292452497439646  0.8560721133687288  0.9992050268146915
  0.4992889380053778  0.5003433353311495  0.3612272050540343
  0.2197066577189201  0.3561839467493217  0.7819976334068239
  0.3590538227592512  0.4995781730549971  0.5030689433577208
  0.3590624013148952  0.4997510105248893  0.2173027744658806
  0.5684055866135853  0.4270133505670581  0.8544310757181903
  0.7097518709489726  0.2843843074113466  0.8526193737850346
  0.2878149330354784  0.5700673726190291  0.4327848933682695
  0.4300211836044080  0.7122249316246432  0.1425608724978647
  0.2237489648960011  0.2166804948708334  0.9248155033411413
  0.4972727962714557  0.6392658220726345  0.0701217304115265
  0.4992491765732892  0.6407963774559405  0.2172643536248709
  0.2201290587739743  0.5002566184207198  0.2203317521377877
  0.4293762972442117  0.5705843322460432  0.2887593059604816
  0.5703246839315015  0.1416026468489693  0.7135377149232650
  0.4998726268035319  0.6417148771268444  0.5034008538408542
  0.4985583249029238  0.4976884752095919  0.9268443273487511
  0.2916776040587843  0.2841874122867259  0.8532214349317748
  0.4288783170309768  0.4278449186514995  0.1439352730959366
  0.5002207266953052  0.6418259814756838  0.6448333872357641
  0.4292566646276035  0.4273225477348134  0.8547489290716750
  0.4294947823645587  0.4290464247266258  0.2893985001467005
  0.9167269423688914  0.3607665690801776  0.9173752636649392
  0.5666947369062659  0.7078085196418707  0.9970555758440243
  0.5698801554318048  0.7129746033569333  0.4329966463241136
  0.4995728477898760  0.7848909494973466  0.5035144935489574
  0.4295766029935766  0.7141028319518700  0.5745418438809917
  0.2167254448433803  0.3564339458900784  0.5013489256933652
  0.2171768339815297  0.3575372627725713  0.3603707227888752
  0.2156987901588742  0.7851830486101760  0.6428598261630447
  0.4283666395742916  0.7128103318280705  0.8563233191913604
  0.1572625977185485  0.2851553017449354  0.1544148773149337
  0.4996768726062047  0.9278932042812428  0.9270360262655349
  0.5691581153559571  0.9979173380847858  0.1467500453126044
  0.4999096108157057  0.0714910178322395  0.0736881998852457
  0.2867876949379843  0.7139783544360677  0.7145413663458392
  0.4292023255688851  0.8538644065261390  0.1436156273138250
  0.5698402819158479  0.9977809901272131  0.4322597577172028
  0.5707605125050950  0.8541901858675884  0.4325932991342060
  0.4985317587641879  0.9258801009083857  0.3606836795571072
  0.4301241560652698  0.8570827008446357  0.5752551713098502
  0.3583784627585295  0.7855781055246475  0.6441426069478116
  0.2894116448292194  0.4285813916137927  0.2901227232105443
  0.5011698061574947  0.9275469220842993  0.7852368922945969
  0.2229510972802925  0.3550670136705062  0.0736870875956404
  0.5676756660072146  0.8571869685695148  0.9977434586317419
  0.7834017623119468  0.9066290308405026  0.0646267834241250
  0.2909208212811440  0.4271007169975086  0.9987254218172954
  0.5692509413983772  0.9960448628696934  0.2867298032626707
  0.6325796794699047  0.0687902155148488  0.3592881217766140
  0.1613347244607704  0.8430452508382513  0.2978850388937425
  0.3591633842468119  0.4993916724699051  0.7837425948630001
  0.7904054665495309  0.6225182819336358  0.9319095840614142
  0.5683853774735667  0.5690293632061793  0.1451999357607492
  0.5718104467509435  0.9995949906344667  0.8558112463323136
  0.5696255120593818  0.9993105605001975  0.0003593768987766
  0.6423304038101323  0.0719394641350400  0.9297327432375049
  0.5004883705096823  0.2143439630962596  0.9275451942757985
  0.5706483252700953  0.1434365727358445  0.0009663032686076
  0.3600989377404510  0.6406206053302210  0.0686579446187313
  0.0008069584944446  0.8557248899994615  0.6983033083526058
  0.5677652167773323  0.2876902740668487  0.4337516498720905
  0.5682417221486397  0.1438960218377703  0.2882686892999761
  0.4995863972395520  0.0695097321575711  0.5032090656336986
  0.3583249952698790  0.0706058903362868  0.5034267003072971
  0.6415420682467858  0.2124117413367360  0.6426263496528004
  0.5709841370333464  0.1417474272669390  0.8570125807361834
  0.1491759226042195  0.2846247555785507  0.2903809983648697
  0.2880973532340906  0.4278829691984339  0.5729207405701870
  0.6419543418406135  0.2129586010676218  0.9289666747664409
  0.6399651375840011  0.3572161743777249  0.0724416754849534
  0.5680877426196783  0.2877985109409418  0.2894193609581544
  0.1462676827998201  0.2847069274325243  0.5725696569735443
  0.6372035834541468  0.2172860340254509  0.2151404766124493
  0.4989174964374056  0.7826705142587637  0.2172666218399789
  0.0743850851758864  0.0724542415478671  0.6433846490779019
  0.4995565380951555  0.6409283588217982  0.3612819180046265
  0.0728704582835241  0.0696636328272503  0.2127541656437131
  0.6385262202965283  0.4969219537699120  0.0723016696502925
  0.6421389170405454  0.0705781127465467  0.6431850472149462
  0.6434982079405576  0.9266180373338498  0.6442404717475537
  0.5714123423670271  0.9984228919334025  0.5739931916591390
  0.2231162837974851  0.6429295748054096  0.0716396924735562
  0.4994826745141294  0.6418894227465349  0.7853907108845798
  0.6391000806574535  0.4968416995965510  0.9257938897099041
  0.5706440269612122  0.1413347567152475  0.5731251134818317
  0.4985160744787376  0.7841896854628488  0.3609978758835860
  0.4989551371937506  0.4993999568926464  0.2169858950082350
  0.5691088379914421  0.4292435784326060  0.2903961321532985
  0.5687277032897509  0.4286287083075419  0.4326608893558153
  0.6345312987405837  0.2191236032649582  0.3656360619300945
  0.2151884234203773  0.7846314878792244  0.7846595094863574
  0.6399210355827348  0.4990612430208803  0.5027567475190440
  0.7113109719457351  0.2834890787438207  0.7123635750218421
  0.3610589136954586  0.2156364694361484  0.0719278397453821
  0.5690225886664676  0.4270986908627781  0.7139268696127793
  0.6400216980502527  0.4986221098245758  0.7832103089967298
  0.6428801484886455  0.0705727492432335  0.5001212506986243
  0.1439492125359412  0.1418147510200133  0.7156963401392528
  0.7792719676179778  0.6363795802505935  0.0688010214879953
  0.1644865802144722  0.1500992909273081  0.9992354243480093
  0.2933244131130403  0.1446015978367302  0.9993837753172723
  0.0721776182009461  0.7846241050350637  0.7765718545195276
  0.4987632108576224  0.4984503398290869  0.0711192055018069
  0.0693880914310873  0.0709101921249308  0.7908093943433067
  0.7115524312499605  0.5702009440671986  0.5722429052512660
  0.4293428888468089  0.5707548056290561  0.5739710242593534
  0.1460611254204573  0.1430341509669973  0.5732994392685379
  0.9998025520144637  0.8580303794916835  0.4294088873588940
  0.6391311552609985  0.4985862732754954  0.6417652101648402
  0.7132332539182435  0.7130699524957906  0.7139331039964960
  0.2179992706446388  0.3552974777241762  0.6428056200117848
  0.3592311342610700  0.9276102432114124  0.7845113438390333
  0.9300162423969882  0.7823028507830725  0.5030766509015061