Cr  N Ni 
 1.0000000000000000
    21.1326370199527886    0.0000000000000000    0.0000000000000000
     0.0000000000000000   21.1326370199527886    0.0000000000000000
     0.0000000000000000    0.0000000000000000   21.1326370199527886
 Cr  N   Ni 
 259 173 605
Direct
  0.4959106572859927  0.4156743295290438  0.5807326231051584
  0.3210665380065338  0.0020418987712368  0.6652217628982062
  0.8320777670227831  0.8300213073532768  0.3339630544246820
  0.8323473499568067  0.8247032113081751  0.6657966298169897
  0.5828616668775819  0.7532990372644610  0.0030220561400320
  0.3302639008834038  0.8429704394555424  0.3359354477861298
  0.0887564112152171  0.9140215102714990  0.1658480142685635
  0.6642980911228744  0.1598834025342820  0.3354666258741337
  0.7522685589947666  0.2489396389868573  0.3331723147233087
  0.8305069172240928  0.2486375904001418  0.7494530165273739
  0.6635976633101841  0.8339075489575494  0.1646770401579942
  0.8403843045653320  0.2480043518837755  0.9225592796541036
  0.9157786416979184  0.1650448618303458  0.2476725983628736
  0.8354954830021704  0.5054173719827673  0.1693142549036645
  0.8323486320695165  0.2462024765401133  0.5782582864868238
  0.5819124582283359  0.1604432680000566  0.4159190118602881
  0.6621096753382157  0.9175060086487896  0.0758891062766129
  0.6678230180134461  0.4190154064122138  0.9149694624061703
  0.8336825715749600  0.3367415973960381  0.8364609958149608
  0.8392219536803034  0.4132965270859578  0.0785839727352134
  0.4211105774120414  0.9943010247947569  0.0755156127251431
  0.6666353814882151  0.4989754634483874  0.3322327211965662
  0.7535792799440293  0.4900844196473385  0.4176027589997252
  0.1640707259847998  0.8320701657834518  0.0099467317004603
  0.1649536558005698  0.5776673867800365  0.7480027101990375
  0.8391378912154885  0.3284381739969558  0.1658069009248554
  0.4912781151107190  0.4986415678566051  0.3390140204358835
  0.3272066724494005  0.9960644924066970  0.1657375228338122
  0.3298935724697841  0.0843797522846673  0.2497551995233278
  0.8351025368344885  0.9171392780008554  0.0764126001080657
  0.4945850434734079  0.1637066958056339  0.4988439467844396
  0.7361399655377201  0.4158970344623401  0.5019765186044568
  0.7547593253569610  0.5058711953424230  0.9150343638476578
  0.7469861285825417  0.9251371197951874  0.1672847136518799
  0.5849595197341853  0.7528259497786006  0.8308812935412536
  0.0710926960273934  0.5890156458276479  0.3312482082872557
  0.1675549284988820  0.0018671720772216  0.6679308717484271
  0.8234578797904374  0.4173847531750933  0.5827623111569563
  0.8296723769230678  0.3327488872610702  0.4939371649694944
  0.9902320972679428  0.7459923567455407  0.5839675039554304
  0.1569575861768358  0.8333809599520137  0.6648401978834403
  0.7461169079635525  0.8332862830511680  0.2493418992346797
  0.7425747678556762  0.9131784827180990  0.6701481121333277
  0.8332395262449773  0.0061070320941486  0.3301276771901907
  0.8338601558093512  0.0029191659523247  0.5014261446155126
  0.7460392926289796  0.7560844623154201  0.5002273268168155
  0.1723849151208278  0.5770425078647866  0.9278221858384536
  0.8297671395872764  0.9214464199461088  0.7591161289062928
  0.8306193753666713  0.8275902178873764  0.5008220397641147
  0.8241053583208574  0.7527763454417193  0.9184643323367286
  0.7428251571526570  0.8343273007984037  0.7577593266891276
  0.2444540666299822  0.4963563250811733  0.0803748966790545
  0.2527499628535944  0.5757696934468114  0.8420427936404932
  0.3316827094390657  0.1723078885852415  0.3353033319148898
  0.0827159491706364  0.5781294536173390  0.6551230476045093
  0.3303042774789651  0.0862955163238907  0.0759572998173944
  0.4088317027855494  0.9199796771292148  0.6688402265824095
  0.7455672223769400  0.5822732188487874  0.5034850820771122
  0.4111304164773631  0.1666628147543993  0.9221960905321466
  0.7482465223940394  0.6589469165758002  0.2468670810758382
  0.4138969354619044  0.1651307069490177  0.5816855538080452
  0.7428589872034943  0.6710789580273760  0.5909070302361451
  0.5792579031804080  0.5978468701363138  0.0012087114490112
  0.7449017132166922  0.7511523180671500  0.3370377236141440
  0.7479762103671865  0.6667566267045688  0.4174100362973510
  0.3363692256767333  0.4954364684862552  0.3365871269010434
  0.3335344783248502  0.5022601272114638  0.1660457091006486
  0.3292223211937553  0.6636348799576013  0.4965359960118205
  0.8262528101325722  0.3402549936443890  0.6619105286831531
  0.1627568637121979  0.8325146555250412  0.8363722779605918
  0.7432640556970891  0.5066067156651219  0.0760618159206272
  0.2457056270024023  0.0838144312324356  0.3306254711183828
  0.9090466807183968  0.4159098283067862  0.4941359774644292
  0.5075596022310284  0.0800182114641456  0.0790398755183735
  0.9127100367949751  0.5863041993536946  0.5031480559359821
  0.0751037103653305  0.5824805762946617  0.8345092212350025
  0.2413941113570646  0.7486211356113098  0.4965777583673309
  0.2454022665939024  0.4976639509265630  0.7462396838262313
  0.0757757765230395  0.4134398768535754  0.3323632944590197
  0.1509982006671398  0.4111376232900835  0.7479049229595478
  0.9110543166943136  0.5820362938394169  0.3300764274404658
  0.1570988790958044  0.8346119094040650  0.4957674275765543
  0.7443394902653560  0.7404405716324336  0.6701854402215567
  0.7417145226901257  0.5850871694719050  0.6759963045256494
  0.1577542836458265  0.0911205763870406  0.2477182597093261
  0.0115354332810527  0.7428621590274582  0.2564523682239628
  0.1617275792881459  0.9972851333936966  0.0019085946926704
  0.9962590903881193  0.4105852270248479  0.7536265456647789
  0.9153937787938325  0.6637351835235171  0.9211043133515138
  0.9149815509175256  0.6650711712016633  0.0829609633307237
  0.7495846074724318  0.7465922627328904  0.1588061249740892
  0.0002537972830539  0.7481482496412771  0.9226598925765060
  0.9207583084561051  0.7483338100878711  0.1662288456929702
  0.0715614898833766  0.4934289220733165  0.9147888442545631
  0.8345223622502685  0.7513496251327684  0.2508922531966367
  0.2522274793954918  0.6747678606290884  0.7508515717346657
  0.9116384398206108  0.7537486380859610  0.3394930566285109
  0.7523408679833834  0.3323569098674688  0.9188772950248136
  0.4997888602002104  0.2448332241754328  0.7493089191912947
  0.4153352544880695  0.3297666393808839  0.7468888480516268
  0.4111837132139408  0.3312840986427349  0.2505612422147743
  0.6623625135016408  0.2474197255401227  0.2456130924024696
  0.4880288484814190  0.5067278751840819  0.1616562185290512
  0.4894794223126107  0.4172400148349510  0.2509982200287854
  0.4197300924967525  0.7513293810061963  0.4939604349357036
  0.4165831207400920  0.6632063466780415  0.5832221150473468
  0.0792674127465957  0.6562288878953086  0.5734861141428482
  0.5021574961478342  0.2518285657453622  0.5840795156968946
  0.4181274838984956  0.5730156718208249  0.6652362216087139
  0.5784202296564287  0.5006556510637770  0.4253585837927746
  0.3328985076074919  0.8392103743975589  0.4979208721051445
  0.9211010860410355  0.2477166491531263  0.8309644637221966
  0.4892534336878235  0.5052790382030317  0.9928378443595731
  0.5771616838436330  0.3313144131442354  0.9209893802725837
  0.3274522270955138  0.7524103266934370  0.2415372054925130
  0.1586267255530089  0.6758306391685679  0.3265910602037906
  0.5832738113479284  0.4164022302653285  0.8228130726099206
  0.5807317753443157  0.5033587561735379  0.2512265197462232
  0.5760138203036526  0.5025818482311024  0.0806365576688083
  0.5760139461947286  0.1610780290252055  0.2402973843215666
  0.3413212906831333  0.6715092366979395  0.8351168665489459
  0.6659946312798888  0.5069682793398533  0.0012597685856255
  0.3506638745845787  0.5852953608969409  0.9234671206521279
  0.3383707518420623  0.7586923177802805  0.9181994171280459
  0.7491731421641720  0.1570998355555852  0.9187275693238354
  0.7435025106754688  0.9249115274066326  0.3326846031717678
  0.4184991806776514  0.0015309567443643  0.2537139922275152
  0.5038841458438065  0.6603260542568615  0.6667762139169100
  0.2567295399500594  0.8336077824634631  0.9185612404525892
  0.3372052954293624  0.9951064359720952  0.9907546407023133
  0.6647752422730605  0.9996073976061194  0.6699882155577254
  0.4892587775365987  0.1643754823617105  0.3265177878856459
  0.3288717113882423  0.2415010759326536  0.7475921996828594
  0.4042046020282830  0.7525959750595874  0.1667023244053387
  0.4912884267675387  0.4230076768528078  0.0729234127391424
  0.5852162309134067  0.1572970611196009  0.9183271891175018
  0.1672624630290862  0.4941446129998966  0.5004281208501581
  0.1669310172468758  0.3350201641002301  0.4986735092202668
  0.5028073479421236  0.8317535046438285  0.6722847470716876
  0.5045157438933230  0.4164374993160904  0.7473145000905723
  0.8346248165632230  0.0789417504134329  0.0849323185173805
  0.5861120427923611  0.9134750951765552  0.6714105343605513
  0.7506805033360134  0.1570289780754230  0.2460837483439672
  0.3284419666666285  0.2526139457445966  0.5800080957642901
  0.4096272411596187  0.3337837304266222  0.4183308333095397
  0.6613849626243581  0.0029028608364330  0.5010837411895356
  0.7483970281420940  0.9949192950656710  0.7619786311185462
  0.7486510869716602  0.0891405029619456  0.6679569687149606
  0.7496016222591477  0.2401952203094767  0.1571600152739994
  0.7445006457795333  0.0806024645550183  0.9962433274418903
  0.2508462454170962  0.8336298067742922  0.7556595158971939
  0.3312674303017111  0.3363832971860591  0.8376042136892711
  0.5864300940656674  0.1667228677094666  0.5876168604782610
  0.5755891891903452  0.8341828633192002  0.4139292304116253
  0.8317040673081629  0.1685499936001089  0.6674282187704370
  0.1590800487359680  0.4979505901830400  0.1694716978121068
  0.5771791579222761  0.0882755769271011  0.6674825567476835
  0.3180272491974703  0.5013088854726450  0.9904463812602545
  0.5853842905588473  0.3269495258602161  0.2461847900846986
  0.2530463985025400  0.6629930045102658  0.9276552414683710
  0.5009896107151448  0.1669745441127408  0.8303191459402877
  0.4259019540702390  0.0929291962197766  0.1744460201341043
  0.4968047954536590  0.7574541162196446  0.9162098268853582
  0.3277777217174667  0.4122395221554935  0.0780835505395563
  0.4926674378529773  0.3292559026489558  0.1579729345678427
  0.6658786484558393  0.2448106839987189  0.9197415067618641
  0.7521552555371336  0.3292101217724350  0.0747040945383089
  0.5849777197244473  0.4170617279729666  0.1608019458262626
  0.7413251095646127  0.4170653628131660  0.1706971393916594
  0.7436489220254784  0.2438212316682904  0.4991376868192716
  0.6676309055544265  0.4167510999976708  0.5865584558706460
  0.3282364476364362  0.4147389821971746  0.7471288836732666
  0.5791811021300517  0.5929603726141267  0.8325387241267826
  0.4954633916198284  0.9136262389182163  0.5777301219210892
  0.5771430196085789  0.7466002825373170  0.1673038195262314
  0.5820844091689695  0.5009569388202694  0.7375359247610388
  0.5814796663687865  0.5833019969038078  0.6682585360418742
  0.4143254245922566  0.5758813433862665  0.4939534729972682
  0.2474161504678575  0.5840226034430170  0.3298417187481373
  0.4209924701428917  0.5040062120162279  0.7495215011547123
  0.5753082265984563  0.9214633095661156  0.1646340661900974
  0.4923657372045522  0.0064520666386013  0.6679617767056526
  0.4192199592296190  0.5080056166276765  0.0745111893871963
  0.3415566805099930  0.5911900750834660  0.7479614816349621
  0.5047288495589829  0.0674348589963898  0.2535932477241484
  0.5814774974769703  0.5053986078725008  0.9099358749292671
  0.4912239227036267  0.8364799054892538  0.1645494437304262
  0.9836107598844201  0.0849628834701003  0.4165707842482429
  0.5736842195213735  0.7523015964823635  0.4970394509575122
  0.4138641334854438  0.8395531078255153  0.5799654767711155
  0.4136336692171522  0.7466022490561063  0.6702855870733088
  0.3338592770769402  0.6684327358904907  0.3305751250017605
  0.4168363360891990  0.9106697230868798  0.1646934350287746
  0.5000832963143615  0.9166681311802789  0.9156422487236231
  0.3277426414686040  0.9096064478787184  0.2510778653909258
  0.7446956249599151  0.1600279513706330  0.0786366159030466
  0.4135309703873850  0.3411710357628231  0.5798507342857941
  0.2429975406423962  0.3353636200895946  0.2477996235730130
  0.5054644299990283  0.0021763451735002  0.1637266905117580
  0.0839232569132809  0.4143315535067071  0.1693494773767160
  0.0710606297523317  0.1730891600103980  0.4132049976043035
  0.1639635830224073  0.9957522952065906  0.1682739609605843
  0.0740386413865220  0.1749435631329001  0.5817704233077334
  0.1624811024895117  0.5004873395545031  0.3323019830116947
  0.9886760733095639  0.9987062872472817  0.3286084666801098
  0.9937014953994056  0.5862077250414645  0.0836467621188310
  0.2415158866728107  0.1667345644498714  0.5830645816593091
  0.8397038263798277  0.9998145639636610  0.6680164819487371
  0.8440472771822715  0.4165828375524334  0.9167935701094029
  0.2468004938103073  0.1696761646456255  0.4206395693957024
  0.9884630358655372  0.9979479529366886  0.0015435117279477
  0.9177649118580143  0.8311541380897389  0.7530641631510459
  0.9911360173569443  0.4167145834799361  0.0808595683764875
  0.0793874059437835  0.3274231481485805  0.0837535945246246
  0.3265935114686912  0.2523840818195259  0.0793395276502475
  0.0757915443727369  0.9108942587769734  0.6708573897284621
  0.0826761324373847  0.2389012001070741  0.1758057410755583
  0.2500782345253348  0.0887750911347958  0.9979400777482389
  0.1618101269018918  0.0817270730173770  0.4207839968336544
  0.3348506646903131  0.0787866499738536  0.4239244451684380
  0.0095865109558165  0.5889787563831878  0.4246743448665166
  0.9966643522181848  0.4166873119223957  0.5791283597183253
  0.9949758989180224  0.3238111398958954  0.6645659510371280
  0.0815499520101908  0.8355768780120186  0.9229591391533599
  0.0860509538289581  0.4140886493869606  0.6634080116028082
  0.1608196385696438  0.9973257429290906  0.8318881750754228
  0.0755754762441107  0.2423489438347115  0.0002634813711735
  0.9100534932230677  0.8385289099789529  0.9189209595610677
  0.3356450113275165  0.9911095346159421  0.8363688963478006
  0.2455842119648474  0.0828032786512968  0.8306484769719525
  0.9884498070793236  0.9180035459377637  0.5833358679512797
  0.2530595901530848  0.9989707600227193  0.5811004414582297
  0.0810202862109195  0.4930494829774420  0.7462054268942834
  0.0768335139102025  0.0022282831444662  0.5790408855680003
  0.0708503669010131  0.0858713981102012  0.6709934708346746
  0.0720714257050051  0.3322172774017055  0.9104063064579696
  0.9867851547280686  0.9993678758995237  0.8342729337811710
  0.8273969728144116  0.6653888161517587  0.8290151587015900
  0.1535095185735750  0.1722807049397705  0.8331725844248046
  0.0816927257172075  0.8292048807611098  0.5806391610848742
  0.1559494473988619  0.1744994104177198  0.3257287327986008
  0.9870270977601162  0.5853369502925033  0.7513262431734690
  0.9953677468008533  0.5859962646978653  0.5720758995992784
  0.2382283555404468  0.3258009604003379  0.7463320445188600
  0.8384015574353261  0.8330016120826595  0.1643550148191457
  0.9950765134393088  0.4973350870376075  0.6618923294677912
  0.0744727932379843  0.6710936131202786  0.7493341955004270
  0.0792792221400369  0.9941679367277111  0.4164587196098836
  0.3269329063327758  0.1636330500869216  0.8344356719699049
  0.0731745461018943  0.0866429617220962  0.9993296026518358
  0.9999252901572255  0.7477127513156739  0.0819691912202710
  0.0766565743776153  0.6683163765579305  0.9237986103677467
  0.1635267506822174  0.6734557746719224  0.8367960211258878
  0.9935084233426953  0.3274882530665215  0.4945172235575511
  0.1703614939305073  0.1704309447038529  0.1573453794533235
  0.0772661648911144  0.6791231607951163  0.4052855596036819
  0.9938805031567677  0.5095579584128428  0.1695908276765642
  0.8363753948399445  0.1657213713458486  0.9947080308575308
  0.0687456642334928  0.0826863475058346  0.3273280513333565
  0.8275188044182380  0.3390599948177839  0.7485203913406754
  0.5787947360531461  0.5093942326895358  0.1648627582280859
  0.3439784286026045  0.5785764156267235  0.8366429438509233
  0.7471422292887013  0.6700342634645221  0.5047018702665788
  0.2510262935989976  0.4940486307811102  0.3370933847964259
  0.0722128891951496  0.5006422751629831  0.3327676839531089
  0.0718199395293405  0.6730657134660240  0.8367687019600810
  0.8266315931609967  0.5834621917613078  0.6720973947940543
  0.7403409215839526  0.5825421189126752  0.5908966977424142
  0.1637475419209303  0.5791521013820371  0.8376007195121021
  0.8369792935455048  0.7434029377465039  0.1568970829666168
  0.6582975105617953  0.9187956675447435  0.5012700816751761
  0.1619563146166852  0.4117911899038582  0.3335329310011959
  0.0810642459470800  0.3307361020367131  0.9953366738977476
  0.8334611116488271  0.9118403258474185  0.6713473742630536
  0.4146995407542712  0.1631356213895720  0.8346238779615204
  0.9120075333624013  0.7509657704971969  0.9178337324261772
  0.2431265776338946  0.8377029268616444  0.4970505575871682
  0.4882374214893089  0.7483483650206789  0.1685163890753270
  0.6623335678898105  0.0902858641174521  0.6720584183527671
  0.6700722808796913  0.5098864252128122  0.9122420519336307
  0.9939922864696918  0.5853912728585079  0.6585864006144899
  0.1622360617113322  0.6685504013323107  0.7463903701519337
  0.7475060473245460  0.5770557987331387  0.4167406542792325
  0.1581788229876309  0.0821398218425458  0.1625463805096436
  0.4982528566510421  0.9195213303535176  0.6662712230904664
  0.0825967797343403  0.2387820678528387  0.0888155884951586
  0.1375003165685393  0.1811463353325650  0.2360091145598461
  0.0758239203794820  0.5822500482762831  0.7435242269502038
  0.0101985549099678  0.7459085310590277  0.1683104579451786
  0.4178859772948616  0.4175105885022347  0.7491221126379394
  0.4927712011935514  0.4178247614679529  0.1594324872887778
  0.3431163944788942  0.6733007239191506  0.9273667196069277
  0.0820072227024653  0.3308243741853087  0.4949566448410827
  0.6659973624183861  0.4952638667177767  0.4214448769012614
  0.3329076090292431  0.5025977898817903  0.0778036466037539
  0.3380403966241503  0.5814329596333695  0.3299464325071046
  0.1694172197947433  0.8370919966663386  0.9232184934894037
  0.7410455413753506  0.8392576752433880  0.3374490479406027
  0.5764559818698484  0.5108039270215117  0.9960310166608259
  0.9902901402215069  0.4969117793440473  0.7522071406335995
  0.2369639679130051  0.4118497801774894  0.7455467224270192
  0.2405688757198914  0.2533455287457960  0.5814108050128167
  0.5052263306404116  0.3291007527856716  0.7503810289666749
  0.8353367224692577  0.2454015614450875  0.8361589216202222
  0.5008323513539310  0.1612423678539212  0.5895001323444443
  0.2445797408177141  0.6642136197758334  0.6632879484443961
  0.3343570580187624  0.7581717537185777  0.3268829640084510
  0.0765678480942195  0.9153902106185189  0.5810340182258142
  0.4218228657248855  0.0840176197594996  0.0804527094336093
  0.4196473922454372  0.6622773870547026  0.4929731405200540
  0.3303933658846999  0.7518376862510318  0.4977910509477186
  0.7535756214983725  0.2430995196697958  0.9175391330028746
  0.2407733815218182  0.6588899348540566  0.4949525784018228
  0.2542494074042942  0.8321455333224889  0.0073899226769343
  0.1579372851270602  0.5040929845040263  0.0843516615923802
  0.0716373283202469  0.9950113494682464  0.8357905014575823
  0.3336034657860363  0.5025666884254224  0.7467112227828173
  0.3341740533099488  0.0886584403559123  0.1633495584334768
  0.0783352021968853  0.4157372196897375  0.0809275746737236
  0.4979543771277414  0.3251022290456564  0.2476968184449848
  0.1580675764162320  0.8379526969470881  0.7509337128720904
  0.4136234813476758  0.6571820588799372  0.6770919616354162
  0.8310730904034681  0.4162688423720116  0.1701270930243532
  0.5829647248060993  0.5066786244460793  0.8215084087614670
  0.6647717576282327  0.3316690545034203  0.9158873530148980
  0.1562425049799187  0.4870610896092694  0.9166751215854468
  0.4898480678568132  0.5079129088400527  0.2523537213339719
  0.1549525365008466  0.0853554642429453  0.8264910251137914
  0.8328715958515762  0.5029972703934756  0.0807132211010489
  0.4131495459831174  0.7520277655440029  0.5820036842095085
  0.8338948187528908  0.9141534001142059  0.5018472968452683
  0.1578801457798954  0.0802993570406767  0.3327521008408328
  0.8270062770529533  0.6645087551930289  0.9158760686470419
  0.3357127543704400  0.0759562393704553  0.8298965204493912
  0.6582836804395329  0.7497912032948792  0.5020880977636781
  0.7476399998896690  0.5052164505316110  0.1677995499251735
  0.9971480826064290  0.4082796126118906  0.6669095670464303
  0.2531993417452132  0.5856469701888645  0.7469990497693778
  0.8312213250167433  0.2442415931433099  0.4905569140614476
  0.4961051621856659  0.3336286484328210  0.4180130701913013
  0.5845568037022395  0.7557157221689337  0.9169127972812493
  0.5821579041830678  0.4155949964300912  0.5803302047778547
  0.4827628398829951  0.1486113419791915  0.2309797221807060
  0.0706740193904953  0.0848213103491067  0.4160424226545564
  0.7438292844883798  0.7452421512909696  0.2483507050192365
  0.5764457907205902  0.4176326733392298  0.9101049539818825
  0.4184153568122692  0.0010323667894951  0.1646212127676237
  0.4135060595892144  0.2539870009605629  0.0824792302054761
  0.0645403516323236  0.6861198811920524  0.3134051165021177
  0.5790296377614057  0.0013005055993118  0.6684734835548004
  0.7524356558917975  0.0009555431509103  0.6741945404224883
  0.8330239776992018  0.9204902122386356  0.3323811997928555
  0.5760850000095035  0.8347051567046676  0.1684484521455821
  0.5820170075726052  0.4143546340497011  0.2514124024742972
  0.2489324981949797  0.0785846707834002  0.4231071919986602
  0.2384724617642359  0.1717525950873632  0.8334859218563294
  0.2454135451259067  0.1754527652664122  0.3307779160027370
  0.8313294314624278  0.8307402215578907  0.7565030992006582
  0.4969485037651603  0.1592278083677671  0.9207333996754778
  0.2651614247052166  0.5649786395751484  0.9363209553627920
  0.4907276298364732  0.1596912543117777  0.4125153380125754
  0.3316882108337748  0.9959155468446239  0.0770815809983825
  0.7478298556948668  0.0046517333417248  0.5002043609192596
  0.5784427640839097  0.5036525201217862  0.3399965749102210
  0.9977140730114668  0.4223972944184790  0.1697857780329993
  0.7477124928099939  0.4167450667662365  0.0812304837558824
  0.0753999492890605  0.5791566919977261  0.9253261310430445
  0.3261076074425767  0.9965137491065658  0.2551767157069433
  0.7419360177501515  0.8252074401262948  0.6680290911772131
  0.6600514225388379  0.9258128495427587  0.1672546679410193
  0.7588706263430414  0.4193317129258891  0.9097273377160777
  0.5757219856265929  0.1597557985983856  0.3272642118941043
  0.6640464982772517  0.2505270907733574  0.3345662152449954
  0.4162623519582066  0.2548972385380037  0.5829580930747800
  0.0727040570276625  0.0901633784174924  0.5830399206489040
  0.3259872222990937  0.3350299578609995  0.2498852649466359
  0.7517785116705143  0.8358628702103077  0.1594949134499162
  0.8274202289350451  0.2551108475702945  0.6622990685563062
  0.8317769616943793  0.0775211923114436  0.9969755005994811
  0.8385907794037654  0.0850407693157396  0.6709030225824872
  0.0787557339500956  0.7405853204725327  0.5833128177836100
  0.2499125254054821  0.0020033838927654  0.9991653262559841
  0.0806858843681490  0.2449048778772761  0.9108257363544606
  0.7527453311237035  0.2467681534368552  0.2449180605724947
  0.5811791974369048  0.3278693629157786  0.1566174361329278
  0.2485631418995964  0.9927976626246897  0.8294673024984118
  0.0730267164969426  0.9981075314992842  0.0058612701231264
  0.0830716432675387  0.3258288475722542  0.1739947797617673
  0.3369196105497185  0.0839178616168739  0.3379910641708100
  0.4128261647119780  0.8337767040559824  0.6720978439948460
  0.0049458252088356  0.9195591564497969  0.1671536309294916
  0.7486646516661439  0.9201071638391014  0.0743806079960859
  0.5042702236972084  0.7456855031162070  0.6722735386198799
  0.2534704984087696  0.6697573478202451  0.8397686398348319
  0.9224632862995127  0.5844034126704553  0.4162432445132008
  0.9900058781702391  0.9942823857069560  0.4169215752639944
  0.5779911713065188  0.2445205294089072  0.9172315722413720
  0.1643567451927546  0.6669426386386360  0.9298186623456579
  0.4006047139487171  0.5271519481138672  0.9813925734882660
  0.4167147342440921  0.9123747552544674  0.2536981195746368
  0.5845948295964580  0.1632711300643228  0.5020804946946068
  0.3263467274349575  0.3267820385005947  0.7450877192633055
  0.0773957427086578  0.1734013669415006  0.6689246576132595
  0.0784537403240036  0.9978510123927231  0.6687268991159132
  0.8370080013797770  0.9225651343271665  0.1626666400394925
  0.0673853015862803  0.6458322669055357  0.4831953540262545
  0.1578365879773579  0.1734039221996016  0.4182501674406116
  0.8313729916477806  0.1672544366620022  0.0831471178901692
  0.2468500979125896  0.5017284952392551  0.1683807476174704
  0.1610703516237538  0.0886468219635586  0.9964285916402668
  0.7515134152260162  0.3271525993143737  0.1631760592025373
  0.9241864395394355  0.7478546869290705  0.2550521111184483
  0.1585328243768180  0.5890094544080106  0.3288990643945994
  0.1677647911386463  0.0011622969837189  0.5809580625630544
  0.6621020872166843  0.7446166739319451  0.1627380457154433
  0.3266806683147906  0.1625776036600297  0.5822372875441256
  0.7396057397490834  0.3294862461434857  0.4935433420175943
  0.8208778692757881  0.4242967553253451  0.4889204222895967
  0.2441253997435343  0.8354627020255655  0.6678513880460870
  0.9095047561749717  0.4184001142221970  0.5827146742674701
  0.9962262464862995  0.8367616510889924  0.9196423787820088
  0.2461672264396585  0.6744731656826966  0.3249635177304724
  0.7429651726584775  0.6624632534715351  0.3313270730365611
  0.9969441746582496  0.4155830858607353  0.4912623612431350
  0.3280946558429298  0.2518115879946108  0.8364556021592260
  0.6628274543559236  0.1573495220855110  0.2417515903756035
  0.5885734651926003  0.1582933089212246  0.8305422379943057
  0.9905327603585145  0.8317055020886058  0.5810829142823918
  0.4147076679137869  0.5726187161689168  0.5793092709189245
  0.7543995028189072  0.1596639306731528  0.3350166686319868
  0.0759099783564452  0.9915622937498344  0.3277555167579934
  0.4049199520977808  0.0089568317892632  0.6659282292655213
  0.5013144375959822  0.9958982870549531  0.9979267288679294
  0.9107618019767486  0.7527471855561266  0.4986186154516010
  0.8313265662123012  0.5872852755716235  0.5812806845546071
  0.2470026287038289  0.6694272873596978  0.2398234728518660
  0.9929732681022381  0.7489365854152253  0.7508661711815369
  0.9128468513055670  0.7471386110237533  0.6690766409820593
  0.9104689188606403  0.6666254299751921  0.7511010278740503
  0.1562403590298607  0.6637397087389255  0.4915657210870648
  0.0808307462676847  0.9118719761559028  0.0046282359620308
  0.9106325429724935  0.7486329857154793  0.8306637152815072
  0.8315109556048565  0.8343817636646591  0.9984433832584894
  0.9145439950485640  0.9144208314347234  0.0004361638076010
  0.9159113350890752  0.8318401093951346  0.0820089829331904
  0.9959710778854495  0.9220788176956137  0.9182901255401582
  0.7459246883049349  0.8303775668559484  0.0721867114681781
  0.3343958302420617  0.6741312174956459  0.0114841674379556
  0.5770929251526957  0.7509762994249762  0.3355946713594901
  0.2456612211320271  0.8344153591780649  0.5826437251419102
  0.8320798899099930  0.6596792862668327  0.1676603381934526
  0.5788249978244874  0.6681372228576316  0.2511665849573028
  0.8332073823064868  0.6677795010460176  0.3337039780430650
  0.1653709596979369  0.7509655018524306  0.9218872656583714
  0.3241266143996152  0.7498807402551266  0.5865990813254859
  0.9104354877073022  0.6728028394602770  0.4176687907327613
  0.2452009956023317  0.7495613617663305  0.6657858589097209
  0.9970885823212052  0.6661525759549871  0.0037880575808179
  0.2480480696581196  0.8355428015931550  0.0916791959158012
  0.8305203070073855  0.5000407039562921  0.8331110382493131
  0.3351508083357945  0.8346772201580399  0.8339877519508029
  0.5766387405384731  0.6681281107669511  0.4158576188115449
  0.1634672066615712  0.9171572471674445  0.0840908346903606
  0.8299558030023660  0.6662019235667443  0.0028369919564513
  0.4134119588606400  0.4979628527957077  0.4178438284050534
  0.2524604139562264  0.7565539399238326  0.8369513868620528
  0.5008683213985030  0.5894187425676533  0.9157724464240838
  0.1626120100392993  0.5891827623244974  0.0888636493153813
  0.3301664170494319  0.1678358171227549  0.9984168754074123
  0.9155918383180875  0.2512358520407739  0.6646556485671463
  0.4226759100127405  0.0744738716330245  0.8371543126620633
  0.3287481493643505  0.8343496613418776  0.6683760203938359
  0.6631237208424522  0.5030692023447937  0.5069516402180293
  0.3301867123546826  0.2496857781731788  0.9214004250652873
  0.7479015811072691  0.4162374885365411  0.3311835942112809
  0.6652058763663057  0.4166589399070326  0.7451733680431765
  0.8297947206026787  0.9160027919480420  0.4172600131977223
  0.7499971993875111  0.2452801437324859  0.0042786422412259
  0.4994559919328809  0.7534114528099551  0.0799586591088949
  0.6653209788549178  0.3338304451560569  0.8279648700429134
  0.6698438482415066  0.7505166858049691  0.9159740640013349
  0.6605307991704974  0.4194900741177586  0.0786116013742890
  0.4222580394497962  0.5858406541161036  0.3340198094819571
  0.7522093151724157  0.4189475576207756  0.9971467231320268
  0.6677948122158602  0.4170426264142246  0.2523522563420240
  0.4127479767321401  0.5882254923018368  0.1647666088204894
  0.0781159883406111  0.5024280487651670  0.2452829780831596