Cr Ni 
 1.0000000000000000
    21.1200000000000010    0.0000000000000000    0.0000000000000000
     0.0000000000000000   21.1200000000000010    0.0000000000000000
     0.0000000000000000    0.0000000000000000   21.1200000000000010
 Cr  Ni 
 259 605
Direct
  0.2491478245869574  0.7488202487113302  0.0011254190900032
  0.2499620467322596  0.0829849951310526  0.3316339056680243
  0.9990392738661061  0.1665636399093148  0.9996095818605907
  0.7508030442426492  0.0000509938211169  0.5823841079435810
  0.6677749793468813  0.6656716613735233  0.3323083658163084
  0.5005886168140622  0.1680499254524083  0.8332005110157329
  0.0827604977671297  0.0012318918553828  0.4160855497942781
  0.9990764406676901  0.8334656029736056  0.6658076392320782
  0.5016029969742853  0.5820510025398291  0.0826511802880390
  0.4998547399737617  0.4161884698028925  0.2502667004797363
  0.2489358111948606  0.2491965502211601  0.3332835054348643
  0.8340263801329307  0.5005042164798404  0.9992414249647742
  0.0000496241868747  0.9980539527295009  0.6664241794797743
  0.6681910332198260  0.1666293726933800  0.1666906840303995
  0.9162185687429372  0.0832865025612252  0.8330398461527112
  0.8334604929638902  0.5006899363387141  0.6658935048784962
  0.9992495114491733  0.7477952323973287  0.4148118383549331
  0.4999442126161004  0.4167142412132133  0.4173764265336359
  0.9170611621642720  0.4991210103807789  0.9162752292450626
  0.2493142068409469  0.4162031694066038  0.1666926822894993
  0.4134554682327428  0.6677499054372047  0.5824955702195518
  0.9166179033296621  0.4165398601344396  0.3340430959741954
  0.9159673425247160  0.3318187570580709  0.4181934037150030
  0.4160691517370149  0.6662886512295194  0.2500916677861399
  0.3340836409300292  0.4985458877996700  0.5001526997998217
  0.0832867806764711  0.4187082960657134  0.3341767941698665
  0.7510472602943501  0.4999354409502085  0.4163420257284471
  0.9158832125537920  0.9998619335656067  0.9160417810142589
  0.9151802077574385  0.6669311236152730  0.9170755569174219
  0.8328282171020333  0.6667423687811641  0.0015027092216594
  0.7499230223180957  0.9169303417404842  0.8338672383484345
  0.9983200346349704  0.6658452424644722  0.3320143950888672
  0.1667642107196293  0.5009423923457061  0.3340636730186806
  0.5834799775911795  0.4986759297831164  0.2491158391903351
  0.1674887904658831  0.6663901309647273  0.3320817543383495
  0.5825832505063457  0.9160733397845220  0.1669080203949106
  0.9158930929098749  0.1671517251331524  0.9155667903425415
  0.8328622143746892  0.2484833886073785  0.7489314519376912
  0.9164592662843378  0.4998358671794008  0.7490855501045495
  0.0001387787584127  0.3335946439005546  0.6659675114397029
  0.5831331033181339  0.7477910973613047  0.8328871536921814
  0.1668356341827205  0.1656476870084473  0.5013219147305020
  0.0833852947267734  0.3334047168979786  0.2498330490823827
  0.0006816219798164  0.5003077667249437  0.9995924121658908
  0.8331485670317885  0.6671110681280306  0.6669347650057137
  0.5836608191178488  0.3337793267477408  0.4160830713164146
  0.4176035164297314  0.6669971665330083  0.7499563070720584
  0.5838173644373492  0.9162151991092931  0.9999515374595026
  0.9995063304357934  0.1649035663683956  0.1657483770279216
  0.0824741240732764  0.5007937155099516  0.9169080455614120
  0.1663248061944830  0.8349303922517208  0.4987273177120210
  0.8334223765511370  0.5847318507870420  0.0831653179029392
  0.5001832449880407  0.6666025187496338  0.5002063657404557
  0.9159328164698094  0.6663390466069254  0.5831416080794176
  0.5002369849402410  0.3330881198703008  0.1670314980050720
  0.9177042601251253  0.4166870430851997  0.4999936543421630
  0.5003106108313180  0.4997823778764386  0.5003520984266131
  0.9172910409369480  0.6676270793512937  0.7493288389939604
  0.5829821216778297  0.3326898776437994  0.0835089798667396
  0.5841891888945601  0.4976369756134459  0.9177575549356437
  0.9152256015710428  0.3330562807897526  0.9147801037155777
  0.0814868121732992  0.0850394093840861  0.1638867173885573
  0.6674110918512041  0.8345706335743128  0.3334201253747227
  0.3339697882189834  0.2507880413611402  0.7491766146785093
  0.3331511226837302  0.0004374929129440  0.3331252853573081
  0.4156629224273014  0.3320160228328448  0.4164679632961766
  0.9165748186445444  0.1663498167557204  0.2499157360455430
  0.6661418559573511  0.7502453106111121  0.7505806814600073
  0.0841005204233629  0.5838096280595247  0.9997472135890920
  0.1669673871673858  0.8340088418357765  0.8339878697656312
  0.4153246492624573  0.7504221715132845  0.3330911986962942
  0.7511382371851456  0.0837887663809810  0.3335209084842978
  0.0014114114797688  0.5844656576876698  0.4169786443512756
  0.8348081864490448  0.4162531302528181  0.0810501861616234
  0.0819451053642157  0.4171078441575827  0.6668486756585839
  0.7507739765355752  0.2509568992588542  0.3341894292869977
  0.6657976464093027  0.2503618873368631  0.7494372251326258
  0.0822521635462265  0.4165340425846271  0.0002671702976309
  0.1659413447447727  0.4161280992063101  0.7499496151906972
  0.8329813958792837  0.6667211342589325  0.8343954501250799
  0.9156933387087113  0.5002017082677553  0.2495017480457793
  0.5004182994773543  0.7499940707011048  0.0850139705966812
  0.3329377182400207  0.1677965677330600  0.4997937160947835
  0.4999262208545032  0.8337438748092582  0.3326968815440545
  0.5005603956838260  0.9174746461659199  0.0814852313435470
  0.9997619466119865  0.5005321369515010  0.4992733664146438
  0.1658076536991138  0.4993777182483394  0.5004521568309843
  0.4174014450339903  0.2503042117354596  0.3326962338936112
  0.3343316910981137  0.0007177591089383  0.9999111243681619
  0.9148348391326220  0.7484265381480072  0.4983017546824476
  0.0001035629663911  0.5834608188471262  0.5839878474856568
  0.7505554542484019  0.5822643883133463  0.4999602784470716
  0.0830069739672716  0.5822394783682514  0.8329551498856574
  0.2499410576390216  0.1662390421153201  0.5845972201057170
  0.2501108764948045  0.4151718153308294  0.9995750273134443
  0.5832686938457839  0.2505109083159595  0.3335081172327338
  0.9992584414255373  0.4170986821760298  0.5836553538762399
  0.7501565246303866  0.4976926323734179  0.2497823297822578
  0.7495984750423097  0.9163938810042271  0.9998495196071518
  0.6665033110329307  0.6668661243080463  0.1680154720338597
  0.9169711818721363  0.8343175776387596  0.2495565882059891
  0.8332003636741747  0.0834503430725612  0.9159049472309115
  0.5842367074979599  0.3326462144298447  0.9171680711546207
  0.1662096980141329  0.3327854740992689  0.8330135984219434
  0.5836422600731170  0.1661355678422661  0.5825026426132723
  0.7507407828746649  0.1678386569625658  0.4175788624394091
  0.5841561385785874  0.4163484928346049  0.6669088970774195
  0.8330209736650970  0.4168964805026853  0.7488843440079880
  0.9165793197481333  0.8336330999388438  0.9162938946932727
  0.4182039132993869  0.4160743833824628  0.6665866122349861
  0.6674163382701548  0.6660411917947748  0.8341199364318990
  0.0830749601509626  0.7498575100952326  0.6658460242024626
  0.6672865459698711  0.3326573237845233  0.1666100986655962
  0.6668223005661684  0.6672711935277036  0.0008791633601527
  0.7505379434881008  0.3333861865295590  0.4171826314552138
  0.7506049907009269  0.9171660084237516  0.4988704927995351
  0.4181844088414823  0.2495129361727277  0.6663687360119961
  0.0827932122584321  0.9164866429318146  0.6670696687394655
  0.1673023346419449  0.9173027045926414  0.7495087027277885
  0.8329053529150438  0.8325805526166443  0.6671925497548900
  0.0815645870887843  0.0834130252490499  0.8322324859296805
  0.8339592027252525  0.3335376808998282  0.1658844584230237
  0.5002477104165479  0.4995317537507092  0.3330039609835270
  0.5818405383324010  0.2493433269362971  0.1667753903635983
  0.9996307659385512  0.8339355093282972  0.1667362034800848
  0.8330166588053310  0.7508571486549739  0.2487524279177474
  0.0827915958245976  0.8338569958046983  0.5825417676017983
  0.0838256417998061  0.9166936011879473  0.8329676912463316
  0.3330315489789086  0.4999574835940696  0.3337761197020384
  0.6665024736682431  0.4983085054693960  0.1677081732812047
  0.2508152906580857  0.9161312125030301  0.9994334154448941
  0.3335532511764714  0.9172124033654432  0.7519579316371739
  0.5838449952355147  0.0001606856366786  0.5832969415162101
  0.5003323086789633  0.7495363890096768  0.9178058959155692
  0.3329628173307780  0.0010792037902796  0.8336620704181797
  0.4169141321615011  0.5814038292345701  0.3327177074464689
  0.5834118112536605  0.5003473846357129  0.4166254228473658
  0.3337113781561129  0.4165203392311995  0.5841927004975107
  0.7507060898727701  0.8327587231548806  0.9171124332381092
  0.5835434729396523  0.4985788146608718  0.0839296513458996
  0.5841090912027267  0.1667386875255475  0.4168079400878976
  0.0005252167232718  0.0006974598048568  0.3324054611122447
  0.9156570405248162  0.9168745590751224  0.8329081486775671
  0.8336034627311582  0.3332194420123659  0.3334071012707177
  0.5852175220768150  0.1689319693142513  0.9173977511314766
  0.0829581378840728  0.0005857902457636  0.5832776479205640
  0.3334850870977180  0.4161331086588880  0.9163379629762576
  0.8339521245460715  0.0841477916679234  0.4174226951024568
  0.4166343826436464  0.5810958190650815  0.1666346664378858
  0.9991343757720650  0.7506295181387375  0.5820333824228381
  0.6675638142394167  0.9171294159547373  0.5828657686254552
  0.3336501765171261  0.1678404823397292  0.0000089131181780
  0.3334447629677197  0.4162969904736771  0.4171619404647658
  0.5829462619664919  0.5832839321902885  0.6664781525497919
  0.1667492680431868  0.3343093336540597  0.5003755226823053
  0.6666656148841393  0.0829395178891816  0.7501664688721719
  0.4990684398994316  0.6660465402794611  0.3324311094346279
  0.0834590207457681  0.9165401732653733  0.3330387960926147
  0.6671663971381363  0.5002280505512511  0.8333374053256368
  0.4990241306558775  0.9168346500228725  0.9174904967477657
  0.1664879461545967  0.5823244389052794  0.9169041582640916
  0.6658838884242948  0.7507641745248198  0.0846488549599514
  0.4173259432965087  0.3328582571648581  0.5832234189594487
  0.7496960527411155  0.7487608949732586  0.4974245387534578
  0.0829354891310031  0.1659484757076352  0.4175783545921163
  0.2511856422685574  0.8338931682650502  0.5832407569960828
  0.9995461594075464  0.9186922127080058  0.9169030373088441
  0.7501933289164130  0.0848057084293454  0.1651577577438744
  0.4169571306376473  0.0853949300401749  0.8327987020439269
  0.0004141506715305  0.2487432249150228  0.5829043881171700
  0.8325244447424601  0.2495302541156962  0.5836671948362959
  0.1667022120273769  0.0002795327270293  0.6671229543905027
  0.7504204309238738  0.0835168785186317  0.8333172748683694
  0.5835755193911952  0.9171765689232447  0.4992898412533849
  0.2501420366245546  0.3324922335585959  0.5823019553966033
  0.4170000072004511  0.0002729744251393  0.5829713023120393
  0.8326999730769635  0.4169868202253035  0.9161125243833669
  0.2509468211000148  0.1640817977705647  0.2501155818597429
  0.0822496873278982  0.2500710594000545  0.8331932503346593
  0.1668943975893704  0.9170661959056402  0.0833181156812945
  0.1680729726705466  0.1670262079347648  0.0010658774148503
  0.7513466304160892  0.2495724947631186  0.9989461459731943
  0.4171200884306157  0.1670395835432459  0.2510523177766700
  0.5835468505104255  0.0010768026198079  0.9169716678449646
  0.2501565901980716  0.0849007424294693  0.8339967898071442
  0.1661642761551655  0.2501220457292963  0.7497555401393409
  0.0823610564564722  0.4983740261289061  0.2498755294976926
  0.2506836670085145  0.0825250463046191  0.1682070769578635
  0.4171650504408027  0.3331720753987361  0.0843636602537643
  0.3324547224470529  0.8317480149842051  0.8372369323730530
  0.2499348964437504  0.2525233549925010  0.0007506617260555
  0.7501534213683553  0.5829449189212502  0.1662868183118452
  0.4992583277196362  0.7499686965873190  0.7495403839048518
  0.9992885534015633  0.9992877098988648  0.8338399858290531
  0.5002165028228533  0.8338294427955794  0.4995628363986232
  0.0812350452625558  0.0843570768340719  0.3328312912313079
  0.8332750556380085  0.0838692577604535  0.0825793094940410
  0.4998468407724906  0.1671223149482942  0.1669975152610514
  0.0814975945415582  0.2498014716858264  0.3334785580071049
  0.5826739611956678  0.6670887569639483  0.2507245187791797
  0.2495652008896819  0.0014394903673902  0.5838895434458296
  0.4984126330833791  0.8338454535960647  0.6660843231489646
  0.9168824938820714  0.1678145510931015  0.4164561578207705
  0.6673365814232158  0.1676530953485665  0.9996852105698957
  0.3335645490149102  0.7506235481790474  0.4158640852983801
  0.7502464781714067  0.2495186271140415  0.8318114546175210
  0.1660205795345621  0.1668977496600843  0.6676253640828309
  0.8335063583782472  0.5826863692120418  0.9180738896173954
  0.8334958644827231  0.6671359084593541  0.1661822883603996
  0.9172964376210752  0.9168324898550068  0.4996056996107449
  0.5000903726537520  0.9181816335507962  0.7518861470408955
  0.9992758805649554  0.3330488765822122  0.1662443576826660
  0.2525050673432336  0.6667060981350221  0.2492875221609601
  0.1676078013294591  0.0827281565214222  0.0820920454278491
  0.1670014155213943  0.2501257055433910  0.0834124290971275
  0.0823057108052989  0.7509164105388587  0.8332476029650276
  0.5840109645364232  0.0006242862366599  0.4170490257031860
  0.4164058335672307  0.8341093307645849  0.2506623678495480
  0.7496841487339317  0.3328290458682006  0.5838354268332823
  0.5845455512054927  0.0000400149030976  0.7498398224348796
  0.7506883567487682  0.0007648338614027  0.4173503523476804
  0.5011410563654503  0.5829175927945350  0.9184895070775736
  0.7510693004139953  0.0840323971267118  0.5000363198255154
  0.7503957368945050  0.6666811107402797  0.5828267676810022
  0.2470405966688185  0.3336720309955478  0.2513068700033154
  0.4166325441048872  0.3328585932865211  0.9152566540761099
  0.3319143647933102  0.9173014932283637  0.4175478428115722
  0.8342332218284980  0.9177439440839189  0.4165638104149515
  0.1654356392060596  0.0007689204574732  0.3324709464397166
  0.8337144967314020  0.8328587592639685  0.0004023586381777
  0.5002696929967799  0.0837066095091843  0.2505862184608046
  0.3325572278283679  0.9181679762784318  0.5829512267863931
  0.2506668423875938  0.7512474523912682  0.6666022120190693
  0.7508844487245607  0.9168569017306463  0.1670192484582930
  0.5007149922395985  0.1662689336261544  0.6663784075121104
  0.9997436675553849  0.6668269973795605  0.1679869542019863
  0.4167556373405281  0.7499856265662100  0.1675607851373314
  0.9158671344796644  0.8337573293935161  0.7497591210071280
  0.3337387954639919  0.5822307289513601  0.0829298142770518
  0.0816513840468081  0.5842343216448472  0.6673366818268683
  0.8338189997643517  0.7498033165712124  0.0839815329074337
  0.0823985924926485  0.7508230119503764  0.9995502321936840
  0.1662451771148004  0.6660981174963797  0.1676793325183272
  0.1676358576174663  0.6665104749566898  0.5011332762682533
  0.2478988499984607  0.6663906169022393  0.7494154909096261
  0.6662850132539537  0.7508242098749269  0.2504855332569435
  0.4167522124019723  0.7496219124018437  0.0018316760458353
  0.4184522160142918  0.5820481362212775  0.6684536182673974
  0.6672606612738945  0.9148969456364214  0.7499172919583611
  0.4169256909649420  0.5000648912133091  0.0834889541078490
  0.2503097411779028  0.8341575194543632  0.2497915346069593
  0.8342078368790822  0.7510459219773684  0.4160427949105888
  0.5012080631421149  0.0843965983815661  0.0834133028897100
  0.3337820688819645  0.4152737555243441  0.7501863875986081
  0.3313733334484402  0.5842136903308917  0.9169096477879120
  0.4178544829786737  0.3321780432798563  0.7503753816024050
  0.7508386286332738  0.4999955670333099  0.5841441198690374
  0.1665781097817644  0.8332351751034627  0.3316715883986556
  0.3331215272562952  0.0011885114740945  0.1672378334243460
  0.9166196560834784  0.8342623909381185  0.4166086870183437
  0.0824823728483023  0.5000399170043890  0.0830413765612806
  0.0819979222752151  0.4169497801579273  0.4996355440835205
  0.9163528767311913  0.9168576672558120  0.1668689766672097
  0.0833528775628781  0.9164802875106296  0.1663422240767382
  0.1657291790767424  0.6681378725076287  0.9993199300810657
  0.0001173533308829  0.7499850053388794  0.0842072586985952
  0.9153295816026552  0.3327805633408147  0.7497551783578223
  0.1665508859038144  0.1675615776420429  0.8327847112304818
  0.9998112532139022  0.9171672587256372  0.2491510050340389
  0.9998477566607485  0.6668005301906135  0.9995831245016151
  0.0838538767010208  0.8332631434703742  0.0836085386476572
  0.9989473903488523  0.3331545659615041  0.8336104872536971
  0.0000153603315846  0.0002545813765294  0.1657168555133226
  0.0824621141650293  0.6657954383732700  0.9158400025884488
  0.0825399461532984  0.8366634083655204  0.9178372799818134
  0.5824196030704583  0.8336004059013316  0.4156364025415099
  0.9991673077716726  0.9992769981676629  0.0002776035428707
  0.1651393468520239  0.1659578343944268  0.3322451021792472
  0.3338706236613069  0.1687471827901742  0.8332073228390529
  0.9987103463719985  0.0831921633850370  0.9163803740349866
  0.0829102056479959  0.0003613707853215  0.2490530541313976
  0.0825973412732528  0.2491879178817911  0.6666490273433957
  0.5848144561691569  0.9994831446954238  0.2503878150078919
  0.0833456837210093  0.7500881622219905  0.1676209382478046
  0.5011619895571229  0.9164152140664197  0.5835694835242520
  0.0001093143592870  0.9161496005295007  0.5825469135154792
  0.6671150620926649  0.0001216617197644  0.4993651753186674
  0.0826916087118449  0.7504226101292396  0.4999824172301800
  0.5011933001402475  0.0832916650252797  0.5826692173448272
  0.9986814974418311  0.6675144339437303  0.8337394428082329
  0.5835778782543100  0.0835504962683920  0.6664976090465390
  0.0827229868856415  0.0817928877665825  0.9996750696849678
  0.3335741125568893  0.0844856963327814  0.9170761946939850
  0.0001720125422268  0.5839758518544529  0.0833304778698072
  0.5007529397900360  0.0859504229438331  0.9157894725852792
  0.1662370652503929  0.4982669628460868  0.8335705152763838
  0.9160393143325712  0.5837194072827350  0.8329624867672401
  0.1657142608864827  0.5829603999624511  0.0839325758338978
  0.9986922943124983  0.5000478607457339  0.3340163401273161
  0.4162629305553742  0.4160003115618848  0.1666349941222449
  0.3315555029799092  0.6659162976099473  0.6664461318404520
  0.1678240892541382  0.8321368555291987  0.0014689633702920
  0.4159316344196692  0.8333430142359204  0.7509947933757773
  0.4172173241763609  0.9160703033566505  0.0007563090036582
  0.0001314863689384  0.5824896086936816  0.2499170999936131
  0.4151295815005350  0.2506048139221384  0.1684531917331979
  0.5841407197914970  0.0849232185487963  0.1674465957527203
  0.5833385997879652  0.0008221037077410  0.0844620642222822
  0.0828727571982260  0.5837517089903457  0.3327968038718241
  0.5001344880573342  0.0009518470887481  0.3342807177523999
  0.5004364640557316  0.0842031685287024  0.7502402686045040
  0.5006876443283055  0.9999524686568979  0.1658077048830859
  0.6669611077498463  0.9202716672084352  0.2497696970104676
  0.1661579578621803  0.7477675946572919  0.0839077799893297
  0.0831850830287285  0.7485815885677568  0.3320542210464688
  0.2500597190503809  0.6670242940395997  0.4166768280263424
  0.0831814420771189  0.8319750885696743  0.4150042510537528
  0.1671943085063798  0.7509806865839680  0.5835468805391586
  0.2504655184525871  0.8339510570962825  0.7506188422294358
  0.2490744176026977  0.7494147328053027  0.8333228940398630
  0.1665831964791992  0.4170840852201345  0.2498125557065183
  0.4161664147005603  0.9180664663246398  0.5000334226770110
  0.7501951089125357  0.0834244506591000  0.9999289072073957
  0.4164548791617672  0.8321808016816195  0.9178899574991799
  0.0821122056442338  0.6666836786480872  0.0838101256078886
  0.0829212865206833  0.5831697128821568  0.1664311558568909
  0.0814855809854924  0.4998409352221007  0.5841271446293048
  0.9160683593927970  0.5832095696445400  0.4992814748458768
  0.9995058248116601  0.4997977903955332  0.6677478901760122
  0.9990317775199401  0.4990067893221583  0.8326112566734696
  0.0837695229459891  0.5830325529882509  0.5008649870168284
  0.0820286527699664  0.1669555421052605  0.7508991730836435
  0.9165809604396229  0.9992521895286841  0.5827604822021890
  0.9995637589700614  0.7517524870089048  0.9171310654014079
  0.1660835021945708  0.5820912761899601  0.5837083597822509
  0.2501113350976534  0.4141801555034589  0.6664908694337182
  0.1658707950088717  0.4991123579330441  0.0002528783458059
  0.2497385589931002  0.4155458108821570  0.8330863196738931
  0.1664753742008156  0.5825194420573500  0.2503264191511176
  0.1657254978329790  0.4152689303207167  0.9163946513656704
  0.1666750348423451  0.4999485274484469  0.1670020049567715
  0.1656431519700910  0.7506844789607608  0.9163311772445866
  0.2501788233139410  0.3341028294474738  0.4182914841014371
  0.2508653581206311  0.7500493220264253  0.3316503756940622
  0.2491917050483895  0.4175296247385896  0.3345544132612808
  0.2495869487310947  0.5000129303907234  0.2503424046870733
  0.2498416152729001  0.5829057068985417  0.3341419325650941
  0.2485048287716435  0.1654859955621931  0.4164655712193662
  0.0829296409694767  0.4995630214912071  0.7509148612489193
  0.2498052922025174  0.4172741110338078  0.5008692685266003
  0.0825629770735273  0.4155616399223637  0.8332427861772881
  0.1656932829025103  0.2495457792906954  0.9163638255181230
  0.0833795533631683  0.6672395544700265  0.5829436799714277
  0.1673423762240644  0.6657060141491882  0.6661798568496548
  0.2495121729509419  0.5827046313079260  0.8336743261784176
  0.2509990178541793  0.5819841095598284  0.5014128916352978
  0.3332393937753046  0.6670746776242379  0.4986837551396153
  0.3359584028135292  0.5797048404954189  0.5845806377240068
  0.3323352048355127  0.4993282731663962  0.8335405378747555
  0.2508028400975071  0.8336979389116128  0.0836939851506314
  0.4176890713195983  0.6659513525696789  0.0845313842979601
  0.5003063692886249  0.7502914841821690  0.4154718324557454
  0.1660333755210275  0.6662146597096622  0.8331474179535587
  0.2495287801423197  0.6654824207888890  0.0859623526790160
  0.9986777569039977  0.2500915305215400  0.7500985275788359
  0.2502377571377622  0.5827279789024072  0.1669462232299656
  0.0832860620597067  0.6663245231002994  0.2508692561467126
  0.1667806534306338  0.7501930911734644  0.2497000919719110
  0.9155518676459118  0.6659948073454039  0.2499228132672571
  0.0851792521837012  0.9173979714591178  0.4984697574529589
  0.2499750664069643  0.4976201758923270  0.7494407657760435
  0.0827786557334136  0.2492588633556431  0.0004832021644424
  0.9156176984321637  0.9995058469654725  0.0837638722187551
  0.7497647949875956  0.2499317517279087  0.1668677682710195
  0.9977856431227764  0.0829126661454318  0.0819861138005512
  0.1664956676032778  0.0008489998892069  0.1660930268068151
  0.9994878246963278  0.0837847670228598  0.4177499313369639
  0.9986687835872382  0.1666413476481464  0.3337382441207081
  0.2512686863132430  0.0003215808035996  0.0834506039390760
  0.0004838448421241  0.9169027267683345  0.4164720777755051
  0.0015362969248058  0.2520158040946509  0.4194809835602419
  0.2502185233912773  0.0835592631142998  0.5001117441169629
  0.8319390345633347  0.3328509872041433  0.5010085863916197
  0.0013302038416732  0.9991258740936736  0.5003647238629935
  0.2489275432972458  0.6669008090949042  0.9162595935847915
  0.0832017469703612  0.3329789987100112  0.5838533442412142
  0.9149980910529918  0.4162001481985026  0.0006514257597032
  0.0827373439995751  0.5017298164066301  0.4165409906989833
  0.0827238017229908  0.1651273106994202  0.0811383197934422
  0.9996949578407228  0.2487678958319167  0.2490327669731541
  0.1664398719726637  0.4164466005167116  0.5840431326962272
  0.9996477909344855  0.1684164634516389  0.4986261835638364
  0.1662339275076699  0.3324281547157449  0.3340613148672380
  0.0823070108221187  0.3334518147425386  0.7497269663755179
  0.9157441601044300  0.1664916441723334  0.0826065398462600
  0.2499956437044952  0.2504368622383432  0.8329843556074511
  0.9991405402239590  0.2490158987325340  0.0829795376707781
  0.9994458923986965  0.2501763557392242  0.9168785657157844
  0.0000079738616858  0.4167195207816354  0.2491609268751251
  0.0831721639665177  0.1649941193145473  0.9177467396125333
  0.0005376965979102  0.3335269258453307  0.3320190955434714
  0.9995344320503676  0.4158654851723202  0.9165997879081815
  0.1667661220206803  0.4180214622937686  0.4170250466927888
  0.0831431806748067  0.4165836548732832  0.1664692263830154
  0.0832577413676991  0.8351628280992340  0.2492470706217957
  0.9172414331915415  0.0824195782871533  0.6658314079302290
  0.0833403157382791  0.1656845526440945  0.5835759024378813
  0.0003727102327901  0.7510791178214742  0.2502922715149389
  0.3330076319174702  0.0844804964352792  0.4163821795981776
  0.3343025683664049  0.9178850426090538  0.0831613601977926
  0.4164958621319300  0.8333211973806987  0.0843385285482729
  0.4164925587939012  0.0013177941146051  0.9167247527747541
  0.4184079745649444  0.0012388015603153  0.0810803019198768
  0.3350342257466329  0.7496511523963528  0.2503836629691004
  0.4172803068909185  0.9173019497807815  0.1657340145274820
  0.3328818128471140  0.8345399401916694  0.3332900583235801
  0.3332230953154999  0.8328013671914504  0.0000092225444654
  0.5021727059962288  0.0019685631519152  0.8362996351262847
  0.4162805772364417  0.7511259801636030  0.4985758627103988
  0.4169552822776100  0.7484595578384194  0.8341732492813915
  0.2509516140738097  0.9174528304846484  0.6671652131601825
  0.3356394190010080  0.8361134512472619  0.6664985870903104
  0.2498640548876771  0.8329838889574210  0.9162390457758846
  0.3341756689803555  0.6645154990118680  0.8324919536085934
  0.2494494284062265  0.9170843191127043  0.8331453196661625
  0.1668893675341462  0.9178498077709917  0.9165674655979369
  0.5840532990417017  0.1680168684181500  0.0826088729708288
  0.3352606836087921  0.0827874329369361  0.2511550302749750
  0.1666703939811925  0.8331021895127639  0.6672045256236008
  0.3338287337551483  0.6654332987994704  0.3331686281202875
  0.5013972677565720  0.4154145705103291  0.5833432691132049
  0.5833872873583683  0.8330454329809527  0.9168378424166951
  0.8329876291107724  0.6657655798901244  0.3327220663584460
  0.8332156021048329  0.2503161955658807  0.4172781060425126
  0.9160519481497781  0.1664579052570765  0.5834247455887627
  0.9163492076757717  0.5834773621322374  0.1663667998405443
  0.9154202251349083  0.2500341347668081  0.5015789024890601
  0.5845009539959035  0.0842096729723575  0.8335054463913889
  0.9152320797874391  0.4161006259258079  0.8326326225300160
  0.3334997628188853  0.4993701764460460  0.9990464238296277
  0.5001221082901091  0.1680957650889267  0.9996694592503453
  0.3323339974500793  0.2503354198740425  0.2510064186623736
  0.3335763812811869  0.1666639067619443  0.3330484965739451
  0.5010406317628687  0.0839371588205193  0.4178084483631749
  0.3340252453866863  0.0839318178275148  0.0832572179882814
  0.2495878363623376  0.2485883154832835  0.5022190524956905
  0.3316528901883207  0.4164140643053074  0.2508132190675472
  0.3336871335629872  0.8334634356895303  0.1672446621050218
  0.1668484057550267  0.8335255235936792  0.1670382755114716
  0.1649332723782453  0.9175258617238962  0.2494418280859210
  0.2491703432612987  0.9175158980519832  0.3325769946598331
  0.5847781355900710  0.7521030903889796  0.6664775097485999
  0.4173601880426732  0.6661026141980000  0.4161524304104911
  0.2486139832665731  0.2506559494023297  0.6648909960072530
  0.2500185667564382  0.1669778167731566  0.7496894108889572
  0.4176448040031290  0.2507417587461601  0.8319022837190271
  0.1658631786200919  0.4162104190620647  0.0833900538080006
  0.4164245463758439  0.1681131426577351  0.9160822001195511
  0.4176055685736321  0.0822478931553491  0.9994247196829245
  0.3343880819629302  0.3346962400146403  0.9995393317179230
  0.2500300656683192  0.5002066587990155  0.0829882139611025
  0.4169451471982311  0.5007897610582802  0.9151680729965009
  0.4172145864163662  0.2493032907649976  0.4998080976048602
  0.3324205237405043  0.3339729347701998  0.1676203588269918
  0.5016319248011780  0.1662908620123125  0.3343246548814160
  0.8336484653883186  0.9159519618531300  0.9170243037739289
  0.7506189383811606  0.6666997933862615  0.2491292651879194
  0.6667634940003589  0.4167334697740716  0.4165757361897635
  0.7511439689491232  0.3328894833227828  0.9155781384301105
  0.8341213681077330  0.2495322855796266  0.0824181963959369
  0.7503463536476118  0.4172028005086686  0.5004546417540642
  0.8320080064113917  0.5810170882300750  0.4152800173536537
  0.6670272107984423  0.5002479501997009  0.6674559861704196
  0.3322328293124673  0.3344627139492706  0.3350710275472745
  0.5006185247247337  0.2497740308558788  0.7499557978047461
  0.5008116001993088  0.4160691012836559  0.7505140327348411
  0.3338729370761938  0.5824229849297818  0.2502982484540646
  0.4168556298434636  0.4995116218182267  0.2503575774198207
  0.3337197267772030  0.3328512988477881  0.8334135844959328
  0.2497201861992644  0.5021122786451955  0.4189572212977214
  0.4170789329582006  0.4999569247070889  0.4161376324430887
  0.3338186639795589  0.7481191341577964  0.9191615427373658
  0.2505908816482039  0.7504386856073246  0.1669933297089899
  0.4171238374584602  0.9997700814776405  0.2498621979139296
  0.3332912122362862  0.5830346044118051  0.4167962800625444
  0.4175343283739047  0.1657360141320071  0.5832869380145569
  0.3320959150349073  0.0002949227204923  0.4993964819076303