Cr  N Ni 
 1.0000000000000000
    21.1250329189096107    0.0000000000000000    0.0000000000000000
     0.0000000000000000   21.1250329189096107    0.0000000000000000
     0.0000000000000000    0.0000000000000000   21.1250329189096107
 Cr  N   Ni 
 259  69 605
Direct
  0.1668413531572667  0.8302993525208856  0.1659435540531636
  0.0839479693533952  0.5848550816409596  0.1699646426080192
  0.2480410109347338  0.2573649615834682  0.3349661938331243
  0.2475567733043773  0.2537558870974899  0.5006160747390981
  0.3281291501537251  0.0918884533951898  0.9175308479638054
  0.1633984846931086  0.1710839166055451  0.6636570944125265
  0.6593174295226646  0.3357520903280600  0.1639667241802174
  0.3307482177857164  0.2516548841344499  0.7432567198525107
  0.2479866135827336  0.9991546140328731  0.9212553611233323
  0.4108043715485106  0.3338175921565514  0.2496046839147403
  0.4843858825777130  0.3351478739165827  0.9994777428555568
  0.4951437048940494  0.3305434678838133  0.1640123900296521
  0.0855348792200194  0.0860678143199545  0.3311038048964256
  0.6645831584380891  0.9166339374289325  0.2565318458614071
  0.2548597882817559  0.4194269471337922  0.0001390888702049
  0.8295774585171024  0.7601252554332857  0.0828011795804416
  0.8285553650514125  0.6677588920278404  0.9904692767798904
  0.0813987256926700  0.1636982923277918  0.0880272329530922
  0.4113664536275280  0.5080991994025736  0.2492286820911219
  0.2420322654397838  0.2513479410636426  0.8322054925019731
  0.6643844062558401  0.6617404688422223  0.6694811795512982
  0.7426532377454906  0.4159847959594293  0.5002613049795975
  0.6647095374108452  0.7494430745414690  0.7576567939336137
  0.4145823426950236  0.2526486041237046  0.6655864328841508
  0.7474659420045120  0.6646865377427298  0.7518804014396642
  0.4984441799087976  0.2500611886177749  0.2520483629026547
  0.5785327362816604  0.1657705159990490  0.9105957670135143
  0.6635691942632262  0.1747485433796724  0.3364345787671343
  0.5798341135959242  0.9140867865166264  0.9989932830325751
  0.6626343561802670  0.7499310270602085  0.0809878453369269
  0.0898024511092829  0.1677502659164528  0.4183891566714031
  0.9147569248223684  0.6638581178716353  0.5811262596435655
  0.2494699583614100  0.4181438073822024  0.1654205455842533
  0.2478696700467445  0.5751832020345342  0.4964778542969037
  0.8315175448967526  0.6738359507128883  0.1687905134741836
  0.8323334456819546  0.6675160799485876  0.3335124273318618
  0.1613824863534151  0.0008910353720266  0.6608417244253136
  0.4132527453395697  0.3324830202990087  0.4190637773755727
  0.6728427209169586  0.5841352581506907  0.4150980040395233
  0.5821181042311673  0.5861657766815193  0.5016653796622668
  0.0828199648891004  0.9998987101671252  0.4182391864452585
  0.0811324067937678  0.8397388481140655  0.5770172059723931
  0.5834890885592450  0.4970465438950958  0.5919602065464488
  0.8302191978429836  0.7501310623430634  0.7515566497627644
  0.0794754494593903  0.8414681773556026  0.7513769526533220
  0.7551867531536123  0.7491626063280499  0.6716543428203500
  0.8299932809696441  0.4167803061934148  0.5857313422400955
  0.3336048108352113  0.6636194052120563  0.6648495343486438
  0.2510786309697348  0.9998723732718566  0.5702655476230654
  0.0772265077394345  0.9074171648425772  0.8351753291726057
  0.2483743539037057  0.5850192301714944  0.1684212863379607
  0.2497921708857413  0.1656374263447305  0.2413912278348392
  0.1665973390423198  0.9973065906363852  0.0138701221929292
  0.4985392124387258  0.5821721843724371  0.9174513181286296
  0.0920665397639511  0.3320042400270661  0.0868605330848465
  0.7444493578965513  0.5928565881408493  0.1672495120175174
  0.6652507205315633  0.7507124925403164  0.4087008384421211
  0.1733948511198007  0.1669496318495830  0.0036503863572408
  0.2487105869237647  0.0803131920264495  0.3301706844726384
  0.9956174203700676  0.7500632257533130  0.4195580131152615
  0.7499067033519750  0.7510936344552469  0.3348723107316700
  0.3311253647818346  0.4159610276974050  0.5822762235258079
  0.1615864315429003  0.0826036173022123  0.4170848353570146
  0.2483877168699625  0.0875019448409966  0.5068218404558631
  0.4128803260050061  0.4980505398098832  0.4161572210775680
  0.9224147799606004  0.4239637984932251  0.9959908862981064
  0.8254429426425062  0.2499658354855848  0.4203025309374324
  0.9995250411195742  0.2516617481142007  0.5847991617596618
  0.9991500888052004  0.5014929704816929  0.8316649092176804
  0.7477587229047268  0.9131188109472528  0.9953312501324392
  0.8322163151329388  0.4191566092331067  0.7608927258143452
  0.2490345102058941  0.0004545408945483  0.7488676678210676
  0.3355054119375725  0.9997731009385834  0.6590719517757522
  0.2488376818063716  0.5723629378064196  0.6665494160749151
  0.2504306553063343  0.7499702234357459  0.0102212311020023
  0.7441952688717086  0.4179534542996935  0.6694335090832725
  0.1656239170842127  0.5838011674453149  0.9169544146703634
  0.0034264750566456  0.2576734376878591  0.4171413692021464
  0.0862202422712385  0.3359496504132474  0.2500136330284106
  0.3404227137719382  0.7501858835905620  0.7555677434322717
  0.8364745404339695  0.0749009736529465  0.0785614554879253
  0.0062588797208032  0.4235975053101234  0.0841781883703264
  0.3329897451196611  0.8327233001954538  0.3303670911288097
  0.2507686502073543  0.7514282114283045  0.8374276718163515
  0.8344369085896489  0.1575279282259597  0.9909359953384524
  0.9122545245339362  0.9987290021767224  0.4177518480287333
  0.9107382542785769  0.0002745206927171  0.7496488166684552
  0.9109656591499252  0.1644113292886401  0.4208003136549280
  0.9949992879677584  0.0839826954624865  0.5833955709104887
  0.0055405237838337  0.1654314982988156  0.3306972117093945
  0.5910289002849971  0.6649041740850381  0.7542212408178121
  0.9124755673133500  0.0000772529190247  0.5830433845564982
  0.7487593052980152  0.2441441592410412  0.1721564899153329
  0.8340883448008156  0.1689828541697785  0.1708748758225064
  0.7510867097104781  0.0806012963888853  0.3381052654637170
  0.4220978173932188  0.0011072829541008  0.9191299291661732
  0.9252611928596856  0.2456930442378845  0.9954045963505028
  0.6646755967128125  0.9143078689832949  0.4167951932040067
  0.1653373329613611  0.9128239422897002  0.0863998671743307
  0.8329812279763095  0.1639637952055098  0.8294067536448078
  0.8356333431372679  0.3357967453004831  0.9956264278992893
  0.0811815488330299  0.4998695105162120  0.7580338069484370
  0.0804207793462043  0.0816280987255653  0.1652509382593811
  0.9188623404606123  0.2540506333932685  0.3286020035394179
  0.1646401049792079  0.8349962969537899  0.4953086022423511
  0.3392153255000814  0.0854509547717548  0.4183668924592643
  0.8378893824657809  0.4959720028893319  0.1710435625835297
  0.0782070242758410  0.7560426551670917  0.6643580073233197
  0.1669158543489083  0.3349236959800422  0.6667126983860154
  0.1625036547546642  0.3313654253500978  0.9996497692830795
  0.8315487832176165  0.9894198174566495  0.1682172919938315
  0.9236647210084987  0.5838216510614022  0.1701015844305050
  0.6643150825974632  0.7507898320542564  0.5829027749027925
  0.9148041711950815  0.2482152828819223  0.6678137607170270
  0.8398095973133484  0.2543490071922134  0.0860031186987144
  0.3330676112615641  0.9164461468085832  0.2582669110168545
  0.4175344585948917  0.9999457161584657  0.5697110246615905
  0.1707988100411796  0.0000274455145021  0.3306064338172377
  0.3353045876696754  0.0045805755623197  0.1665933533701572
  0.9166350700201163  0.3418965836328498  0.4168148251753382
  0.5812965612982182  0.8357575235889519  0.4140447307493685
  0.3324236064716826  0.0015600407008692  0.8346828162424171
  0.2499053176421789  0.4992587482581725  0.7519375948108878
  0.9995871734481028  0.1665038599568472  0.5101307030351544
  0.3283079525662201  0.0956153465993195  0.7472295533896995
  0.6642541013937356  0.8405655748164194  0.4974509020258898
  0.7466243651487833  0.8341774932205595  0.9163204389307621
  0.3318937012761192  0.8336662258682178  0.4939033419458094
  0.0830350282192572  0.4984846314958148  0.4145410778642808
  0.9861131934197069  0.6664994027542640  0.6666955347742636
  0.7493313383311960  0.5005047783551462  0.2577154431617192
  0.6568385171030316  0.2523838933204542  0.0852762175526180
  0.6637392963029192  0.1603167623301108  0.9929528743619506
  0.7460933131824951  0.1627951059592284  0.0772018130501239
  0.0824716805380834  0.4040306322496200  0.6695394648771620
  0.3301153348587603  0.4182927780995135  0.9177981376953512
  0.3302154255751338  0.2513780180908658  0.9213027139692228
  0.5826347609078764  0.4083915487998855  0.5045014580950001
  0.6710727387171888  0.4166220802790566  0.4159558585770775
  0.6649088605641534  0.9940796251257797  0.1694693000932080
  0.4987356880401391  0.4187889790785762  0.2521882160446161
  0.0812074081190975  0.1695102086168329  0.5821946911644379
  0.6619309393516899  0.0812367760071310  0.0769441338061963
  0.6610230079731171  0.2437053860190147  0.2513728278734810
  0.0831817475109169  0.3320257903193991  0.9120994736817010
  0.7500362390985785  0.0811116606565250  0.1697412259046080
  0.0813405898229146  0.1658683622428656  0.9108982290061708
  0.6641915047629257  0.0829704757872795  0.4291343921264497
  0.5794423040862132  0.3387319893194254  0.7497745282272936
  0.1653919195511715  0.9977368758115486  0.8371060943456755
  0.5794968364476608  0.3340335549688763  0.0872837870019617
  0.9189351847387410  0.4155165459976577  0.6683845395190777
  0.5776924678577268  0.2503173251113702  0.8379845546922982
  0.0826002165003541  0.3345053672935845  0.4159095127759464
  0.4999743449323456  0.0017242716751725  0.4996802158356560
  0.0148653610433739  0.3358102331216123  0.9961640664269013
  0.4173057953527487  0.2518443290033821  0.8308837754456450
  0.6650396632721257  0.9983174068766466  0.8317133147459490
  0.5826554600427570  0.1613402094413925  0.7484059414588524
  0.0842779500089466  0.5018180779595660  0.2508694967446911
  0.9266721798581847  0.0788684866752066  0.1679514529296892
  0.4976614526282653  0.1689273461945155  0.5032212959800160
  0.6721891119335553  0.2484608051054857  0.7495477382849148
  0.5053485039631604  0.6663931316349805  0.5007349617525405
  0.5808387681039127  0.4978037662674922  0.4162653839451007
  0.5780278622046833  0.5022796181970695  0.9169951418890585
  0.9857522042155255  0.9985205227839109  0.6642536115634650
  0.4147787542604108  0.5693863556789595  0.6660735119195296
  0.5802656918871971  0.5867882178238264  0.1671188386800989
  0.5799215956857502  0.5841919311430644  0.3263968788658566
  0.0744364565220547  0.9955019373351999  0.9236621999772855
  0.3338220229481345  0.5821426050786187  0.9189447803468335
  0.5854735192481878  0.9178179965955643  0.6657617174616626
  0.4962531557711440  0.7480104408710360  0.2505320220364453
  0.6630803446268819  0.5005327661207242  0.8325617706158052
  0.0829032307503178  0.9966427255977331  0.2415143285289443
  0.5821626494306422  0.3331948574971997  0.5866928427305012
  0.5740948226018227  0.9141501802669110  0.1689092391371863
  0.2506707616074357  0.6608587504103691  0.7579515993532839
  0.4134177020935433  0.6674006869253766  0.4067673619641407
  0.9169398153288101  0.3351298374763725  0.0856519657557777
  0.5091031547925496  0.6644343230308352  0.6649881173007323
  0.5092747006558466  0.9138850818475305  0.9162816370299193
  0.9970212442815544  0.0778973539102602  0.0849569156703057
  0.6649988356712468  0.0819607899161065  0.2539592075286113
  0.4978932306763540  0.7471923985663885  0.0842918392957156
  0.0744285973176751  0.9952474432536633  0.7483156731060401
  0.6624675884105009  0.6680795436324688  0.9986929666424963
  0.9857931358093437  0.9977622591786557  0.8312455473649533
  0.4994890342444252  0.0004451558734853  0.3351900988571145
  0.5018878227059455  0.8343001384775710  0.4968616554889380
  0.6614947017523531  0.8204790570091139  0.1663572687831714
  0.4185896745511777  0.8322418038942422  0.7552811688616158
  0.0798166365168923  0.9992442968515295  0.5741987094247820
  0.9182783719505604  0.4163668968850591  0.4986591239101215
  0.5722778986745831  0.2474085801807740  0.9941090606530769
  0.2456606931339411  0.6656918743507777  0.5804186543508362
  0.7498732656115655  0.4189789315285476  0.1665156447310119
  0.4866344754520386  0.0857455844149030  0.0826374454402452
  0.7484574354589875  0.0826070683301657  0.5005766356904816
  0.8329417883369484  0.9975977704651513  0.8301731747946571
  0.3330833081802559  0.9136041539712226  0.9216566703921910
  0.8303618721713941  0.9169987736757397  0.7503583144392324
  0.8315056239791641  0.8328745790532343  0.3351554278120305
  0.6593244053338392  0.3395838451586101  0.9989625652000105
  0.8319024248558977  0.5849422179978098  0.0779294679615721
  0.9994286786573885  0.8331388024455345  0.1697775968670778
  0.9173862810333520  0.3330442698158934  0.9038445509461583
  0.9882445526586021  0.7508949421072408  0.7509549087070413
  0.9133787232044699  0.9126564647079147  0.9993738041224195
  0.7496281843749020  0.3339670905200795  0.2586005641051323
  0.7518905805722228  0.9120061553071283  0.1688348465613478
  0.1655321181618782  0.8328998509062335  0.0051936596257793
  0.4154586056489652  0.6651237846429016  0.5797677725673317
  0.1662844079437021  0.7497681704165218  0.0842160844226860
  0.4250258340150572  0.9991934676712986  0.7454738173086747
  0.7460373544733429  0.4290493829194180  0.9982356626675813
  0.0821217679585839  0.9086593491997251  0.3315320077657577
  0.9116172973270620  0.8344160852577165  0.5809262827068057
  0.7466674087090659  0.5058237376028814  0.0794989757200178
  0.9963983521420277  0.8360525263759617  0.0020472633873682
  0.9995214427512445  0.7503039117006849  0.2448058578354676
  0.8302246034588394  0.5849289092503658  0.9137805739410146
  0.5720932178393433  0.0837208082018425  0.1689777695821820
  0.3317910993039074  0.6645903045351355  0.4966809343355170
  0.2484009082989465  0.5824688632687863  0.3330412452435114
  0.0827385193720948  0.3339196100536420  0.7507892920277861
  0.9973548459960135  0.5813973538065628  0.4147345993394613
  0.4145806549350717  0.6655487930363916  0.7571377364918905
  0.7492939461446264  0.9180386931627365  0.6673327213452562
  0.3319295297196743  0.8411336143301540  0.6625025217233849
  0.0800898525993159  0.6649618497722252  0.7584858906235342
  0.5732508700209482  0.0839546538887297  0.3362886040805571
  0.4204380134851172  0.7477542843984049  0.6633151144281070
  0.5800308044780434  0.0862245630153451  0.9907334923336016
  0.5810321459450370  0.2505374479867321  0.6599034224616052
  0.0795944338381695  0.4225879587311041  0.9963242397418418
  0.7561199597262103  0.7490942495721652  0.4957931692224298
  0.6635861403898353  0.2479108825800949  0.9032264697063107
  0.4146012030301475  0.6667783644852364  0.2503835877308659
  0.0806300171778345  0.7501462014321499  0.4889154545915903
  0.1621418602405140  0.7512795228243302  0.9220474285648900
  0.7501443860824539  0.2484615640291041  0.9904431648960947
  0.9963613552300212  0.8392948769256980  0.3331896655504689
  0.0018745575124688  0.6626191024821400  0.9977970486640649
  0.0812599875638589  0.4908678257643732  0.5808404462627662
  0.7487989438925080  0.0820097255584688  0.6650426158361663
  0.4222137272431096  0.9198539531095358  0.6619420063638388
  0.7471529553832912  0.2483797741921553  0.6690810611563174
  0.0807961755434049  0.5791416675098991  0.6688330372930158
  0.3332661243067188  0.9136183898577294  0.0827910973174985
  0.6690280504753756  0.3316581997140478  0.5038229590001334
  0.8334019446434883  0.5006493080132259  0.3330128631500062
  0.7457346297211982  0.3398576568757117  0.0828112227747613
  0.8313766901677078  0.5042302504726411  0.8330490124542469
  0.9883044323575454  0.5831965323436163  0.5824832366119835
  0.2431025504970443  0.7543576466038000  0.6608222610712787
  0.3338350303162700  0.8273694829350343  0.1694358966870990
  0.0780100639638625  0.6653389267877435  0.5792627357613909
  0.5831102921616113  0.4090365575591829  0.4144849876905057
  0.2512405822201764  0.0821542331281829  0.4195450637793525
  0.6601475212591236  0.0825511610847933  0.1670469010186640
  0.2483860439928554  0.0021302764106354  0.6565891274628134
  0.0729085071693449  0.9986510776888503  0.8365658499652442
  0.9150760702396985  0.1641689232814965  0.3315621331014531
  0.5840619324685024  0.5870292038939728  0.4128420245162920
  0.3371001255602264  0.0075261255492794  0.7472228490088910
  0.7538771372691828  0.3320547271357007  0.1717494265795527
  0.1674266294828493  0.4195188894522426  0.9990748462770574
  0.4218575848434269  0.6559190628342890  0.6679352913785565
  0.0861934895762658  0.1623759152752807  0.9988305229596218
  0.5805115711541513  0.4978055040522380  0.5059819425198039
  0.5720671886624143  0.0814157857781932  0.0783816588475011
  0.2509406416515993  0.1707482032377052  0.3283261432045841
  0.2455571410172500  0.6604323331357076  0.6694330406500979
  0.4119363671048291  0.2454002433400115  0.2514272947603113
  0.8305135537276812  0.6743115187684757  0.0787220382731968
  0.5696632189750819  0.3392672803036196  0.9979710957407730
  0.8387982138880677  0.1638702524704397  0.0809029411851367
  0.3320026728361298  0.7531187757702499  0.6639583641068411
  0.8395425980681410  0.0777508585800365  0.1715794995357355
  0.7465628905281362  0.3411225373205400  0.9908138549072663
  0.7490217366510189  0.0730523600508401  0.0763245072633652
  0.9267603611476595  0.3352959546094689  0.9924823473481996
  0.0743925681434382  0.6673055910548145  0.6697480188856650
  0.6613717206860767  0.3324354562312790  0.2552343634751035
  0.7542047504201733  0.7484204554558499  0.5830369106172987
  0.7450737791379157  0.5056344379321839  0.1688862004243760
  0.0759576945114059  0.7545238017986241  0.7564333971406235
  0.8386938443611437  0.2448354830680780  0.9914122614421088
  0.1610244870483397  0.0003394046644574  0.9273782155388223
  0.4221414840492578  0.9110963105379708  0.9226148460188059
  0.4258664547257437  0.0091798902170636  0.6550414552931106
  0.4979175189786910  0.4179021974776404  0.1640470410898668
  0.6656697150771275  0.7510732259921520  0.6717160650535368
  0.9216158877499193  0.5835242096493531  0.0816457563311759
  0.4227305823103168  0.8344919628632094  0.6656202346647131
  0.6625103059349448  0.9064013031737711  0.1660453487980547
  0.0006322535981461  0.7505410737186963  0.3322481959752576
  0.7467981004424152  0.2507214571898714  0.0827078064561991
  0.1620392702710274  0.0035236841176653  0.7494045818300510
  0.0057387564941410  0.3345789043651052  0.0881736835925354
  0.5043069967929297  0.6637707269043222  0.7550713356383331
  0.0770820420515029  0.7541693882668636  0.5754783744609399
  0.8348017290568658  0.4255163738377499  0.9951656303882765
  0.2488422376713775  0.7516831126599887  0.7504442571024469
  0.8347546929211730  0.5855096353219076  0.1702389474646766
  0.3347210826712110  0.0043575422345666  0.9258476773880021
  0.2443649764904277  0.6636128188529333  0.4933742096193079
  0.8317117185316935  0.4177885182744771  0.6742525153681653
  0.6622256690219979  0.0844687193343119  0.3422217778978832
  0.9128197936948153  0.2551452662370286  0.4202277099742546
  0.4096100582544787  0.4222972901715827  0.2516491994887293
  0.4247275291528565  0.0062037151055648  0.8327197052669186
  0.3353672879928776  0.9159822729306329  0.1704446481306102
  0.6669777394352830  0.7506482708637284  0.4941695734735372
  0.4198262032053394  0.6644526524616758  0.4923981845341031
  0.0799540120810225  0.4905641709390210  0.6705270760671372
  0.0720307980705331  0.0005807128078421  0.6596601712036007
  0.2506739196525206  0.7484221642405673  0.9246388699532452
  0.8308988158188130  0.4171609704744064  0.4972463153323350
  0.0803519084271449  0.9972729049680764  0.3298516630936540
  0.0774516604576629  0.5773762007305144  0.5770681888751161
  0.6596275135207870  0.2483897538411067  0.9928768677244690
  0.5823199050473158  0.2501086295817435  0.7487475856864907
  0.9959273336935819  0.7484077833977187  0.0025197689846058
  0.0024867282723217  0.1660854701060809  0.4210404808567663
  0.3297954655086497  0.2542137874807696  0.8325707342267603
  0.6640993941259323  0.4174021668129968  0.7502776933043345
  0.7496110154061653  0.2484778724525429  0.3354968989993475
  0.9105557619650014  0.8331185435537610  0.7507594293921556
  0.7487848230915837  0.2483260162427561  0.5032180881374144
  0.6670580194321110  0.4158480197239673  0.5859893255275908
  0.9118757622704570  0.8334222609213645  0.9167176444633122
  0.7482962393656331  0.3318630774196526  0.5868003750405187
  0.7490838067980330  0.1634540689333761  0.7488886927603721
  0.6626142548557364  0.4214890077667463  0.0831331354956994
  0.6662499719251829  0.2491752597930699  0.5861477440293967
  0.8317114633188064  0.5050154407550386  0.4999196718302428
  0.7485517817570227  0.1658880191291025  0.4203093859532922
  0.6663663657593263  0.3332682291060368  0.6678508520472348
  0.8292155905336165  0.8332169597492838  0.8330246058776423
  0.6631084982209018  0.3359624929984476  0.8302316518974452
  0.6666705438023797  0.0820826234879911  0.7485657803220449
  0.5028700450724826  0.8315602093175444  0.8337996472459983
  0.8345671931136488  0.2477054076042155  0.9049360189492659
  0.5019308137757728  0.9174031078272918  0.5787915608169553
  0.6657225547596440  0.1669159551009938  0.5032757739539943
  0.5804133252247876  0.4173159736901263  0.3284892975798904
  0.5856433011550809  0.8345230489128764  0.7511707422228265
  0.6580005007003589  0.5045655383620418  0.1669071254764188
  0.5835531893783809  0.8360686873703361  0.5807375198125755
  0.5773812959549368  0.2484156081400097  0.1672564367236634
  0.5802683450353132  0.9165272871511770  0.3340015005732662
  0.8310803708866545  0.9995932646357948  0.6657045600138524
  0.7492440272844434  0.2473727756040660  0.8298179998425359
  0.8408928738364754  0.3363527106432777  0.1694627842330124
  0.6650148877309638  0.8335268236329200  0.3331535937780982
  0.5047314371360332  0.9162741191357249  0.7500160290213524
  0.9920222682635818  0.4995562390496076  0.6679849210814525
  0.5814586047680415  0.9179621174549203  0.4985918828859005
  0.9248288955689365  0.1647356920676579  0.0847701099952972
  0.8332295638589763  0.2506163347920059  0.2522053417609438
  0.4985515811219962  0.8328664896681148  0.3325533562513787
  0.5833265597760785  0.8309336343575475  0.9175887524738766
  0.5792820740735336  0.8298003596922080  0.0831013378522054
  0.4998486066036281  0.8304569157871039  0.0016389349455105
  0.5827618928995342  0.7490719485940933  0.8363552606879849
  0.4980981884890380  0.6661286595615663  0.0008592918438782
  0.5002362333161854  0.7482428069678166  0.9190372251790218
  0.5793340192795167  0.7509242827165863  0.6651734005356121
  0.5018881810302902  0.7527761954379727  0.7512906069542815
  0.5004156548437440  0.9139805026283876  0.0838188757877262
  0.6662320034893318  0.2474367804071215  0.4219481333633129
  0.5857097444494168  0.9153744711792199  0.8327234862250572
  0.7483985689667627  0.9877699849824209  0.0824408105263995
  0.7487453107620664  0.1657073893182603  0.2531846147625040
  0.6618107065824755  0.1701224384566533  0.1674828210810216
  0.5773408604691023  0.2480558752387422  0.3365117642469641
  0.4986676999226630  0.9173141231605049  0.4164135774642667
  0.7488558306016376  0.9998235142495751  0.7491641647286248
  0.6652033141600813  0.6655931146366292  0.8360268610867228
  0.6653759996292216  0.0805308856791380  0.9117367728197930
  0.6673990183734302  0.9178088314067728  0.7488021712603268
  0.6634912203245070  0.9966002174884925  0.9976425746322728
  0.7484867780477777  0.1654673288291459  0.5850402083198850
  0.7478485123243728  0.3335738634853182  0.7511270339484667
  0.7479919490694670  0.9999330731113524  0.5834162469311386
  0.6663613646419788  0.0829343032804580  0.5822561573903021
  0.6662717181616054  0.9979376164127476  0.5000552802341338
  0.8306358823744956  0.9975958812864255  0.3366169721326785
  0.7480514120515881  0.9985236251722155  0.4183720741244727
  0.6633420881883961  0.9955513806397078  0.3352335199635697
  0.7491369265172624  0.9968006830158295  0.2528573120481054
  0.7482877582376920  0.0797787412501089  0.9897215707065097
  0.6638585611636577  0.3277818347069387  0.3411455560444295
  0.7483287881353060  0.3312997540988322  0.4173248783933441
  0.6635578066499026  0.4210876384441850  0.2505695729240374
  0.6667267764619104  0.1653810169053043  0.6659311444733230
  0.4984203466803704  0.8294543366160710  0.1675918960792381
  0.9148817811983330  0.0834988216534806  0.8310712931266312
  0.9148796511600722  0.9952025854305944  0.2510748131959062
  0.9144043633988633  0.4990222897228741  0.5835050003903535
  0.9161474656464926  0.4994563338223390  0.4151125582218268
  0.7450006019374301  0.5854006569396155  0.9968221099155626
  0.8326332598449686  0.3319454740803378  0.8286005848934473
  0.9178605140054718  0.3347780400392800  0.2525294675183338
  0.9965363302819812  0.4147595056584090  0.5837396914472094
  0.7489928273410985  0.8381396588344292  0.5824773841585190
  0.7483887862073121  0.3334238823241595  0.9046918171613464
  0.9142692174813425  0.3327941532495586  0.5860444289166471
  0.7486761204909745  0.9151449223112494  0.3348666045217454
  0.9155550794129260  0.3317247135985159  0.7503937320966794
  0.6633541044634925  0.8316806164722419  0.9988288748026745
  0.7490281490124652  0.9165673192916692  0.4991438838579784
  0.6617625206475648  0.5041857278767267  0.9997947208552741
  0.7491721749681038  0.8341082980676244  0.4158743052380146
  0.0018957901191112  0.2461951469828126  0.0852224061674688
  0.8327843561197164  0.4197097324758926  0.9063436672610613
  0.6657741819579422  0.9184161834400821  0.5831526593557267
  0.8304223859354395  0.4169703092819250  0.4111369095418070
  0.8314821265777740  0.5053600189991760  0.6680893407349794
  0.8352913710751433  0.4188799727426041  0.0854981996367969
  0.0807271338048329  0.0869259681433730  0.8301139481190987
  0.8320952467010905  0.5828692287656783  0.4141189041758747
  0.0841605515816783  0.2507408503315146  0.9987373449566012
  0.7487015580208204  0.4172547913461064  0.3340943066405817
  0.0012241409296347  0.1668194878026617  0.1693853028539302
  0.6669572551953193  0.0008782256058568  0.6655283609735292
  0.9931971859305255  0.9967809388438009  0.3344408178543811
  0.8329098144715702  0.5850258500198251  0.2564314992326833
  0.9948694065809037  0.9996509120488730  0.4995970291299507
  0.9172591756862897  0.5855528975327771  0.9941804019347127
  0.9942939396952946  0.9161354325815280  0.5799890107441020
  0.7487650434761499  0.8312607974002049  0.2523828481540843
  0.6659956893695880  0.6666925424116378  0.3321754808144555
  0.8346493622795464  0.4173491324419631  0.2540871932779735
  0.8332750055538940  0.6639844929706764  0.4978220428510860
  0.7488685233609808  0.5834049016978148  0.6692205498704000
  0.8332421406749179  0.0794835102269672  0.9116794485664065
  0.8275741987525473  0.1662014747018492  0.3356504606015898
  0.8324969101756029  0.3331272986427677  0.3346675137346025
  0.7483300471202202  0.9967884186911909  0.9141567810800399
  0.9187926510629976  0.1660078736068321  0.2459236421187769
  0.9191498164842253  0.2519330059086151  0.1702505784272319
  0.8316235771865818  0.0800811088453267  0.2580037210467985
  0.0039261305518124  0.2514986339505755  0.2507392030392674
  0.9177085526442528  0.0787097473137465  0.9972279671501408
  0.8306488705408994  0.9156039037796180  0.9147893445486714
  0.9178590957266706  0.1635468551328516  0.9122348907911337
  0.8307477158099337  0.0824506859227499  0.5841528186099922
  0.8313829366125230  0.2475939033302972  0.7492069037687006
  0.7494520085311028  0.1627385058113152  0.9105874275248652
  0.6662381333636871  0.8338690968942255  0.8344514842373260
  0.4951038053028360  0.1682659882587468  0.1669572525732909
  0.9140737593648551  0.9973187827615344  0.9164024881920764
  0.7495352282936655  0.0802016922498070  0.8311780456568000
  0.8304084201987014  0.9997824353256454  0.5005954599775363
  0.9127084030569040  0.0843633968147978  0.6664605726739951
  0.8326060131235973  0.9948910531759994  0.9981286399116097
  0.2480313975040072  0.6665370720945986  0.2504226778900268
  0.8298978587760095  0.3287467298412108  0.5037661848548974
  0.9916365199056655  0.9141072774898710  0.7485868627949193
  0.8308997900803077  0.2483066867377282  0.5865517274770718
  0.0795885180044033  0.9170672952938981  0.4964271287142016
  0.0013096608215716  0.4170761504037569  0.4148471907839236
  0.2477188818315018  0.5021078446574327  0.2493025729490687
  0.6622836131316178  0.5824933267565492  0.9162804310493987
  0.3299311860956609  0.5001628596062786  0.3330284154264713
  0.8337011229750264  0.5831094996903828  0.5837518462748578
  0.4132026088374291  0.4160488233365684  0.3389926067672392
  0.8299677011223621  0.1655238559654896  0.6667917048830923
  0.3295156484949627  0.5844196453480356  0.2505034058565071
  0.8308037585759032  0.1651671371197097  0.5030581839555586
  0.1660589733981829  0.7514470104239865  0.4135732460448662
  0.9174395405631303  0.2470401131871736  0.8290644386798104
  0.8306214333604115  0.8348742739869518  0.6671844437423027
  0.9118001792142725  0.7498855323139882  0.8348418085346182
  0.1664775548701209  0.0826792851977816  0.0869330854414012
  0.3311072223751794  0.2531724634815972  0.5827049613492233
  0.7455097390247090  0.4197447119348959  0.8321727290881781
  0.6649264738966288  0.5812864872410395  0.7512531059198736
  0.7501800302073204  0.5832966437042650  0.4995140110058144
  0.2481037909884384  0.3339994622390264  0.4184458551193326
  0.6658862539014415  0.5821012967840034  0.5849363418282845
  0.2503511685648753  0.9988991064505205  0.0869674991023064
  0.7489683188097555  0.5015984180912272  0.4148105263541130