Cr  N Ni 
 1.0000000000000000
    21.1250329189096107    0.0000000000000000    0.0000000000000000
     0.0000000000000000   21.1250329189096107    0.0000000000000000
     0.0000000000000000    0.0000000000000000   21.1250329189096107
 Cr  N   Ni 
 259  69 605
Direct
  0.2441434536104894  0.9136495793247651  0.1687092211350258
  0.3234649617029736  0.4197418599423998  0.2500392552742607
  0.3327971939492255  0.4203169970354715  0.0830030434572578
  0.5799977213000961  0.5806415647069746  0.6684231990107561
  0.2527889967203827  0.2483463964927506  0.3321714273428250
  0.6645272607767365  0.7492239119974107  0.7581592873718626
  0.3306423816754706  0.0838148768901788  0.9204111608573609
  0.9180979128995226  0.5831444002392747  0.6669281625712944
  0.6544626545602806  0.3345159372831064  0.1668423658912327
  0.5890353955657094  0.9168470738505952  0.8315062761455879
  0.2563676799704795  0.9991982557811949  0.9207282117754682
  0.5807002042627302  0.9140173669439058  0.9977812161783650
  0.3335215425195823  0.2487876004308677  0.0839120815716418
  0.9145286915920082  0.5851729533479325  0.4989212973595369
  0.9935500914299490  0.9944595233450384  0.3337944927799700
  0.0868596846095265  0.1668943371778282  0.4139998446381153
  0.0844606804870288  0.5828327715836181  0.1672688357016449
  0.6608551965253321  0.7478019780486524  0.0805379368463113
  0.3388425206634602  0.0857567797745513  0.5806740837672125
  0.0936304693455401  0.1668230442259464  0.0880812520548615
  0.2487017454794375  0.0874419328604420  0.6666368122258828
  0.2447663188788747  0.2531147264141509  0.8328783088053625
  0.3334010670365692  0.2531873309947469  0.7443292735882026
  0.7427223328357703  0.4131176255075157  0.5062834127380849
  0.4092549204591028  0.3305514024098418  0.2508747005653565
  0.3336837369404373  0.2533564337687793  0.5820194011043182
  0.5848359083537744  0.3346483652990184  0.2501760592827389
  0.4949456967583390  0.2440195400923502  0.2522782042626375
  0.7493224950025771  0.9956973756223569  0.2587868383684217
  0.6620496514895782  0.1668893861387715  0.3385324834218902
  0.8294088105270169  0.6681561064323289  0.9911778672798442
  0.8323123098817781  0.7575277928374538  0.0817213282510634
  0.1694202811355215  0.5016666832157785  0.0011617006163861
  0.0872146112205239  0.3346939177317281  0.0881826186534528
  0.2497922672753010  0.0847804817118859  0.4900289719762000
  0.1772478833361803  0.1681019699100311  0.0010628188534407
  0.8320412586386200  0.6771993362586787  0.1684925017981119
  0.8317298892581304  0.8318532385948484  0.3341577164358633
  0.1601540158715224  0.9975831615209886  0.6614981173383577
  0.0863353503049848  0.5049087434903787  0.2497248956179696
  0.6672039225955512  0.5870503391620607  0.4122935512293562
  0.8322275742496037  0.6692748402968762  0.3335004237380380
  0.0816183966202049  0.9963197382889256  0.4202880880805764
  0.4969074647076941  0.4163292326846351  0.4182835809335481
  0.6634155301364377  0.5824011711045061  0.5885308972098822
  0.5768594509574799  0.5814501671833857  0.5019808805332810
  0.0791940186796825  0.8402979449524802  0.7507891240559713
  0.0795075234187744  0.8383115283687230  0.5785992979192255
  0.9955356495194011  0.7499511131317986  0.4225111284308917
  0.9840489003813072  0.6672558682187942  0.6661476510316662
  0.9132230183144978  0.7521034823692876  0.8338777282708323
  0.2529607027336813  0.1682505899455123  0.4147301131564468
  0.0831121989411349  0.8374115651885332  0.9225403085822844
  0.7539112453833476  0.7517622127011261  0.6674463152135011
  0.1687692549406626  0.3357205566546586  0.5037244401668222
  0.1676883018507095  0.9980772429985119  0.0122831724106431
  0.3334249173148510  0.6647554533841096  0.6646946384364451
  0.2516767852062715  0.9976194719431728  0.5737213943259020
  0.7443505968455274  0.5954266763672994  0.1688545031830675
  0.2500796642125743  0.5841589018718536  0.1666738586683295
  0.3342541082632228  0.1651723925498959  0.1685373763576359
  0.2505797015515032  0.0844948607805577  0.3356152029289152
  0.5843030374016478  0.5030849956005352  0.9157129122928929
  0.3327637301482885  0.4171335424358004  0.5821227832827596
  0.6661982483895029  0.6691795558422332  0.5024074461125114
  0.0819390704354602  0.4986118775905722  0.7558451148499052
  0.9161600085932083  0.4196647134563919  0.3246353731370884
  0.2495444702978491  0.5782673185493299  0.6637716775623076
  0.8359732437246986  0.5006843500455352  0.1695701971048622
  0.2501575290553363  0.5817814029533658  0.8414003869531602
  0.1700198570108979  0.3365558769946311  0.9978959202832681
  0.5813103061120257  0.6663147728661382  0.9161390984141833
  0.6633846104187388  0.7513121032481054  0.5843819856327275
  0.9987888057608943  0.2492145624034712  0.5924390237718731
  0.2483180665753142  0.7487013759366508  0.0027523893320979
  0.2505497027705054  0.8383672384033840  0.2535124862874755
  0.7473368146697132  0.9142223428642572  0.9912644052558166
  0.9994155815966518  0.2502153556520001  0.4156627822053828
  0.3350712818543344  0.0055158773513501  0.1690058739420116
  0.2480088557526823  0.9085548070587085  0.6640982773969915
  0.8320433795235630  0.0737383385756644  0.0800537049429717
  0.3313186356741731  0.9951738318350327  0.8348402615374588
  0.7523734477851830  0.0813159858062935  0.3355339599638270
  0.7464051310918040  0.2460020495519968  0.1741934418621132
  0.9145815532145785  0.0830166297089320  0.6657026015138594
  0.4987860885759246  0.6661780829503171  0.8337473732765193
  0.0008880355671207  0.1653741836295364  0.3257964413817659
  0.0826242194374710  0.1701570505126422  0.7488379119936921
  0.8319807237436705  0.1702837376933208  0.1727186176109859
  0.9132176344909662  0.9145061621043027  0.8329128174259673
  0.8304626533220080  0.9960468623769297  0.3349182368838307
  0.9065490750466441  0.1639821067281089  0.4157429475180742
  0.8291814632597736  0.1591753918277072  0.9944432864762344
  0.3305651359757134  0.7486188581318493  0.9185995484460954
  0.4156000488330990  0.9157950807753793  0.3357266425955106
  0.3319327651829521  0.0878915755486335  0.7432193845877139
  0.9179273660065850  0.2492142682361312  0.9963294011984494
  0.3322935956315813  0.8344815783997428  0.4954421156781355
  0.4152017136662762  0.0011259120190718  0.5757539721868035
  0.1697549872607943  0.9140284731304309  0.2494848046899562
  0.1603376374048083  0.7483261591931386  0.2515122545844044
  0.9100142559454992  0.3290789351682537  0.4153845628693373
  0.6638311612373914  0.7510616462958493  0.4085719623106616
  0.0792240329152058  0.7557043680712867  0.6622044001281134
  0.2501683903343126  0.4912582493569009  0.7513075507576088
  0.9943043225802868  0.1620511051873661  0.5029368171740076
  0.9240246392588017  0.0774543928553253  0.1719602674452270
  0.6663943110177597  0.8439472996068574  0.5015315385584947
  0.7475820484700655  0.8331205415319726  0.9159560022099847
  0.8292624473527873  0.1629469264798312  0.8285254843934217
  0.8352110581425247  0.2530897868955549  0.0865660986377551
  0.0830271135082895  0.8315966038913195  0.0849874681394589
  0.9183317947432709  0.9111362896657784  0.1677288405772160
  0.8320581511670099  0.2485552578201302  0.4163358873838072
  0.0874333447787781  0.3366727545411798  0.2492156229111653
  0.4159453460899925  0.0829155352396420  0.3360242782422166
  0.9992219311473520  0.4988795810153990  0.8317335039539385
  0.0017437246476779  0.4285101199254523  0.0835764204204993
  0.1685934253968939  0.3354320870836858  0.6659594216789677
  0.8298184002979192  0.4191666024662696  0.7608044091568482
  0.4140877323116104  0.0062317921040857  0.9195523558731072
  0.9229124125651712  0.5844303569155191  0.1663605213836734
  0.3344087825307228  0.0010091901145159  0.6691258912913851
  0.7490917022753871  0.9149640675613351  0.5000573220179328
  0.9168321701704651  0.4287333825468752  0.9975011985712001
  0.8265336687242002  0.5013834437838454  0.6663959035617323
  0.9138001355685169  0.2472739613756709  0.6670928268507987
  0.8245978923500968  0.3384363223194452  0.9958702333346555
  0.9164168981992876  0.5882080875800703  0.3336983957698618
  0.8292098887305410  0.4152123037906451  0.5870047583938475
  0.7457753468663362  0.5043929958641747  0.2583925684678113
  0.4967821990229314  0.1678610869831846  0.5009444486170370
  0.5832033228137476  0.0000574640391956  0.5805561140713426
  0.6553911755798507  0.2513833200817612  0.0864950542901437
  0.6630059890290194  0.0829222753263096  0.9133580689922012
  0.7467859032010400  0.0028472344667662  0.0792677519072827
  0.9993737436123895  0.1647860930263153  0.1766937516321372
  0.2498088387185806  0.4182055112953211  0.8353701667004746
  0.6591300470952800  0.1560610720390299  0.9955611615812482
  0.5797819610265915  0.4148669388815022  0.5027973993775601
  0.9984243088587903  0.3388558211433767  0.5037120169572357
  0.6592335689121777  0.9965147620174303  0.1695219430824474
  0.3338128342186806  0.2513810288429492  0.9218457501863405
  0.0819628672699010  0.1703298203108194  0.5889832708349434
  0.6597704150686580  0.3385909815968781  0.3330211501718933
  0.6575089888278678  0.2489338696075842  0.2490517766407484
  0.7464023952915159  0.0838158159158915  0.1739377847761738
  0.4978678285996232  0.4216869466891567  0.2485141288641568
  0.0028280695714552  0.3366402891622134  0.1798774592311636
  0.0828472592253058  0.1688484256383038  0.9097785703551969
  0.6602646154380367  0.0773275156400481  0.0764887083435343
  0.9194390806624974  0.4173126201638350  0.5023281217574355
  0.1657164732945696  0.9985312334594845  0.8357529844348059
  0.0839293400161115  0.4183623415077349  0.8327744329038167
  0.5661824151819448  0.2500616707003557  0.0000829968187079
  0.5758954265213415  0.2489699379398912  0.8350237278446927
  0.6661340591253051  0.9969399736592909  0.5006050458119597
  0.5787962852408632  0.3382166091864383  0.7484122267459198
  0.0041538533145652  0.3359278639399377  0.0005594709137227
  0.4946895734588728  0.3353871660583399  0.0013255065736790
  0.9184644136928498  0.4161641261771942  0.6675767344690161
  0.5814312968848221  0.1603688540547047  0.7483761776999749
  0.6713793457092432  0.2475483495534224  0.7469193758035360
  0.4147088463010579  0.6682615448539713  0.4079252296588257
  0.5090787662288700  0.6642315941804805  0.6691111055340576
  0.5720789155720866  0.9135572260234492  0.1677287496873372
  0.0020177047956769  0.1662223856056418  0.0005527687638242
  0.3332289578999557  0.4182177915577944  0.9180573966244929
  0.4967484524764338  0.7470949619174345  0.0834865541903204
  0.4164636453850473  0.5710565556990262  0.6668180186566922
  0.6621424610331202  0.6677462759152126  0.9972730583635591
  0.5773139421226637  0.5850456446165655  0.3263497222632059
  0.5790700021663610  0.9146325884320807  0.3349174215615162
  0.3332027609183190  0.5834969743115572  0.9178211263262290
  0.6572187874460602  0.9142022176896343  0.0760914622333346
  0.4198627330545661  0.9139478962274117  0.1661630792181709
  0.0799185846405238  0.9958521381594830  0.5729407793053692
  0.0839809336693989  0.9979351167641065  0.0870578147187153
  0.5028228564751432  0.6670679392098471  0.5008925650767923
  0.6549363362829363  0.4161303380036174  0.4173585851461005
  0.4137224071115464  0.9156227747241824  0.8322132137876043
  0.9855282428154805  0.9985560820542310  0.6646463300394995
  0.9109152700159956  0.3356149803779196  0.0888573223247499
  0.5783960150196915  0.5868302734139665  0.1672998713381971
  0.5038085842456348  0.9156966818835353  0.9206079840400069
  0.0792385729967746  0.9972925041674376  0.9240757236284305
  0.6613192145203854  0.0825663610107198  0.2527481128634090
  0.5082476358594964  0.8360073660606004  0.6671321731300448
  0.0755804319587870  0.9969923062705442  0.7485260126864548
  0.8304554285011815  0.3330849151423295  0.8284453450284730
  0.9876227508096467  0.9967000691963582  0.8321780535978918
  0.5799030124075842  0.3332693416424845  0.5844654843928638
  0.4994403476605276  0.8351460749444023  0.4980999957008937
  0.2492940502919434  0.6681993096445077  0.7565581012184932
  0.0862508008709190  0.3351628778808168  0.4094190696008171
  0.4205125943259746  0.2518241427440875  0.8315049746339113
  0.8314799344853737  0.9973765608792524  0.8320012153104495
  0.3262282621243145  0.9151037289479241  0.9207912799920476
  0.7479429912411043  0.4201664392285158  0.9916865787546215
  0.1695407170130949  0.0828681264757017  0.2499689034718159
  0.6597347067313262  0.3385004444829195  0.9999843112799157
  0.7468832866340868  0.5126259721034123  0.0808090144219213
  0.0000791720355498  0.6648546318873853  0.0058894271037866
  0.9123611881690306  0.3334468226107254  0.9080853381585200
  0.8291016880226211  0.5849705147475494  0.9160224756210583
  0.5700270044623001  0.0835943952678961  0.1680396071329683
  0.7443303537672527  0.3345154885095248  0.2585212805792130
  0.2501549737383491  0.5827696530859868  0.3347522801582642
  0.9998153068520516  0.3342341249367256  0.8252697668108637
  0.6646705845134251  0.1653035318413078  0.5013520354055813
  0.2519886677626051  0.7503230220980829  0.1630071966581423
  0.4128369593670292  0.0827377503840445  0.9996848802218159
  0.8306103935643498  0.9175280427437287  0.7506001198183893
  0.0798764505056572  0.6651202610905089  0.7563857355517372
  0.9991367744514932  0.8368467701758622  0.3340396116673222
  0.8329920709235358  0.5813629574338475  0.0771817111058796
  0.4190780539012725  0.7476825677761016  0.6657166239398691
  0.7480884132438580  0.0814055640096790  0.6652293809091920
  0.9945903444495946  0.6655844462824381  0.8306317364282840
  0.5811276080058471  0.2506292181442699  0.6577970097106273
  0.7491084018131053  0.9180641588654598  0.6671389706697036
  0.7491283332896919  0.9059109447294343  0.1684509586610462
  0.7553393378931059  0.7509616362533618  0.5003892213734360
  0.0064881064894525  0.4255230048601414  0.4131254917160861
  0.7455651947003107  0.4208779458475981  0.1675306990887836
  0.0829001959289411  0.7515450581462242  0.4863504287292103
  0.4163533850732957  0.6660335581323034  0.5823015589272835
  0.2510733211016243  0.5807736720716131  0.4973829367763087
  0.4177313441432421  0.6664758767169154  0.7604716401964773
  0.3262886945001373  0.6655528903786704  0.4978789606460003
  0.0034014555771926  0.4250061402868953  0.9161387526790914
  0.6639742938334173  0.9913969478543360  0.3319671154973132
  0.6619132874222217  0.2474703720742874  0.9055606896541527
  0.0016601388108119  0.7486991376281755  0.2460311416450602
  0.1711573159133147  0.7490635506894496  0.9212878454774572
  0.9159361178083405  0.9153413243042758  0.9996580057193857
  0.3309775985926949  0.8412885162781412  0.6638415565287789
  0.1677182732558693  0.8326287123242341  0.0037112982171876
  0.5731843012477181  0.0838216141258284  0.3361254699412193
  0.4146780999470347  0.6668132338915080  0.2511078612787714
  0.4149960947059547  0.0913521247602469  0.6648248960404757
  0.5780520665877709  0.0848316568725872  0.0000330894383171
  0.7430398468771363  0.2480993902443620  0.9970538107120406
  0.9111253339087264  0.8340939617870357  0.5815805731667838
  0.9935659074758812  0.7536320243455661  0.9169828833359432
  0.4187146152012641  0.9197857630357844  0.6652472946502740
  0.0013038098416422  0.6602545449532805  0.3347180304928852
  0.0824577076900726  0.5013272665595863  0.5780602730820544
  0.3347546106290253  0.8287854726544395  0.1666422136571542
  0.2431750710483357  0.7561945563983132  0.6643079265569479
  0.0839005116727712  0.4068032653696035  0.6672842487568462
  0.9174084181369119  0.5016564219266828  0.0822172609820225
  0.7458015414444071  0.3375890791557948  0.0798507709108329
  0.0826379101183396  0.6622763285465043  0.5753829093189867
  0.7460961528002020  0.3292001885103861  0.5839059779772480
  0.4157289469332305  0.9157291443711730  0.0076918324868272
  0.8289949074781917  0.4184135006173088  0.4126103959538789
  0.0805736635644272  0.5800368549520993  0.6664649946851623
  0.7452963976410492  0.2471677426883631  0.6662200939421105
  0.5028202495866759  0.9155827045219083  0.8309870845044304
  0.4218632714169642  0.8339954577288502  0.6670291975860726
  0.8300330906570631  0.4124271184348992  0.6755890283541152
  0.4988573755062203  0.5004902529797490  0.9165446948231259
  0.0915478532575639  0.1668920531266308  0.9973106180402597
  0.7431561409025317  0.2463757243723839  0.0857821766855412
  0.5781811974082063  0.5841199563770166  0.4128232352959895
  0.6672097252853668  0.7505532353645616  0.6719453616213072
  0.9958009609521106  0.1598589409846523  0.4123211998016102
  0.3320972044169470  0.9176592757240130  0.1684985388052271
  0.4224593718799525  0.6574155531951952  0.6721098690070155
  0.7482111485183943  0.9122654732718051  0.0780342257273550
  0.8309653716288844  0.4188167871768750  0.5007791651613268
  0.9177766229950725  0.4222218757412461  0.4119525309107591
  0.0036513854739116  0.3360331846372729  0.9111774706083887
  0.2447606657627694  0.6668936938002854  0.6652806632606985
  0.0744677294524652  0.0002735836775487  0.8372434894677173
  0.8321840378159845  0.6710576036920743  0.0786776131754750
  0.6565145822579060  0.0863381272713575  0.1638832960301770
  0.0861666343155318  0.1647421032342879  0.5028850841329457
  0.8313850787748521  0.1625275317491297  0.0840282259336397
  0.3301134321889718  0.7537229971467163  0.6679358210903460
  0.8374056003877185  0.0799603306199455  0.1696854338777893
  0.7438593219177405  0.4255638596136909  0.0778293043325562
  0.4237961223885657  0.0069798757331398  0.6645700293380065
  0.7419515934122951  0.5087614912117344  0.1714200140950458
  0.0809989928298771  0.7543835661499706  0.7508573275751690
  0.0062607025330806  0.1636009690363067  0.0904280263069578
  0.0723312698299945  0.6664806941732777  0.6654124092184530
  0.7504469895760874  0.9948382831296496  0.1698564385054876
  0.9170016937003099  0.1596630680745451  0.9891092132195787
  0.1680356739113888  0.0009533656954786  0.9255404570391979
  0.6668650531214318  0.5821024352993365  0.5013796663253065
  0.8352615334400310  0.5891627714017488  0.1689522533463378
  0.2494824406709402  0.0885946960567390  0.5772878097558632
  0.1735988847225209  0.3368512864692090  0.0853045144456205
  0.9137785779245051  0.3414102923577861  0.9989622039522493
  0.4142504043777604  0.9150001599700452  0.9210533800749497
  0.6584608687310894  0.9074464730978694  0.1660089233852968
  0.0001042031127960  0.7487525089025449  0.3341620054926351
  0.8294229065716496  0.2493280198490213  0.9917530341287021
  0.4975013716069691  0.3316398234363421  0.2496472618349487
  0.9990473877427446  0.3398668690841259  0.0921277768242660
  0.8300227125505591  0.5883608726428655  0.6686462975723017
  0.6609056819345477  0.3359985659258590  0.9116732853543865
  0.7456036957296072  0.3336974750522682  0.1721464299822204
  0.9955334269451138  0.2508729923101055  0.5056795035052353
  0.1725401025858891  0.3380040181288522  0.4166664479332299
  0.2475139694776169  0.7501119040079979  0.2508411354372988
  0.2482350449153022  0.9968014324830000  0.6630229500150353
  0.9984710336951681  0.6633650105772354  0.9184088000663375
  0.6622250454288592  0.0780742720544500  0.3420232588564470
  0.7401157230455234  0.4174982372132725  0.4165743901425901
  0.4096245213374165  0.4210125437485537  0.2496305244305059
  0.3321193228420087  0.0821639044015038  0.8314588791767104
  0.0801672509042562  0.7512637968164525  0.5724758806474470
  0.0714160217025254  0.0008839932159741  0.6591109619299815
  0.0835687822023832  0.7503612752334190  0.9213376048814624
  0.0806046766714923  0.9984264682532712  0.3336136763044545
  0.6662324713291520  0.7575728801627949  0.4953772011956854
  0.4148579266783076  0.6646869521850710  0.4945743046207748
  0.9986711350337604  0.3375352254703142  0.4114296229075868
  0.0816868037676389  0.4925255714481221  0.6664002952195084
  0.6526160671380508  0.2464884128497327  0.9956400873165994
  0.5815728441225384  0.2493449168924834  0.7465762444903832
  0.1643608700774037  0.0009382824724519  0.7491748334833415
  0.3327286382697608  0.2541367943505370  0.8331766435115764
  0.6631285994887893  0.2533507822334293  0.3384153718031655
  0.2496477085251445  0.5788148364782246  0.7534556090798268
  0.7514047514124720  0.2478908171108338  0.3347458840309998
  0.8306635367846209  0.7516140479199703  0.7516995238454586
  0.6622075549232230  0.3317942767796421  0.5030267327978092
  0.6629534354648982  0.4153294647358652  0.5853761410969551
  0.9131929766809965  0.8336237666515655  0.9171456128057701
  0.7486015626735615  0.2482497187195815  0.5015198221294935
  0.6644538190025094  0.2483784013832684  0.5833882571334874
  0.6555005127772229  0.4196383471759148  0.0824777789828351
  0.8316402042344139  0.5072593644370540  0.4997754393080045
  0.7494443052763942  0.1650885280236797  0.4192460738095672
  0.6643792116961706  0.3331148086900232  0.6657001910795957
  0.8296906692948877  0.8343125833205407  0.8333405832825979
  0.6641311462786039  0.3349253291290406  0.8253090540151966
  0.6626194719100400  0.4173045309959745  0.7486994980797484
  0.7478830008825021  0.1629104364688080  0.7477856414249245
  0.6655472843429466  0.0826124493168268  0.7481361114570618
  0.4156380882456798  0.7491187542300519  0.8363477057315892
  0.8310790292837661  0.2483713296366676  0.9049237150574879
  0.5817354566120674  0.8357199569949509  0.5821985754243268
  0.7491930221067593  0.0816620671310763  0.5005064069915897
  0.5007491102685392  0.9174907549051345  0.5805587596066633
  0.5845530803966172  0.8336318814041146  0.7516584013152039
  0.5769515535527737  0.4183455303294777  0.3337494497806274
  0.5815957697202878  0.9170201885823545  0.4994378978839480
  0.6552670909703127  0.5039737621704723  0.1674630450866627
  0.4977523375889654  0.9982433615642126  0.3349954643678718
  0.5750302902948446  0.2491121656474830  0.1669775498683925
  0.7474935151166409  0.2466706344458632  0.8295525120174875
  0.8308278350498456  0.9995560471437811  0.6659343111834527
  0.6629681281991138  0.8336452123731150  0.3332750764597397
  0.8349784970470294  0.3367115672622992  0.1705444611464716
  0.9960275767592943  0.5836175798454528  0.5811023154301389
  0.5036510764804565  0.9186436936677984  0.7448658284550460
  0.8393601189163318  0.9891188370943184  0.1675088079158055
  0.8320184502340577  0.2499306345300736  0.2533104816806054
  0.6633879657105352  0.2485161454505215  0.4256512654578350
  0.7401098058387888  0.1562506338967046  0.0809890594074506
  0.7468569065001719  0.1655347162264367  0.2538984812462037
  0.6586825099677510  0.1722186500644290  0.1682789755478430
  0.5741608815489295  0.2490594054423498  0.3371373916155376
  0.4981840854269552  0.9165376394000688  0.4171567445717095
  0.7485331572923254  0.0001981809760353  0.7491641448664687
  0.6642895710192118  0.6657792761160258  0.8338150058711650
  0.4969177925827779  0.8340605981001562  0.3333687249086083
  0.4955706093296597  0.7496774606375960  0.2500709082843125
  0.5825004115766237  0.8315742130963314  0.9165143698800389
  0.5779386570465009  0.8299520823901098  0.0817136343175262
  0.4985185050745999  0.8303371866981515  0.0000830295263788
  0.5817728234961720  0.7485567011105715  0.8348344921347141
  0.4979702675597727  0.6669668579076287  0.0000983509886327
  0.5000055693625738  0.8273579009771607  0.8352432088455067
  0.5792054645803120  0.7503161529117175  0.6677307392621741
  0.5010441207108032  0.7499366092862324  0.7519178881409366
  0.4984390154597848  0.9148928154284873  0.0823544921986365
  0.6650521301455380  0.0000098382396556  0.8327866884916684
  0.6672372383285858  0.9183376801217450  0.7487645789509447
  0.6612366460645603  0.9992189955525889  0.9965159002891349
  0.7482346205746355  0.1646963508666619  0.5837919231851965
  0.7475445393738039  0.3322699601291934  0.7487177999813177
  0.7482824637359666  0.9995114508605407  0.5834154409671026
  0.6654049326056298  0.0820003461334503  0.5810667235092408
  0.6644273617003308  0.0820783061837973  0.4294872029458466
  0.9120906335072172  0.9968161384458341  0.4163523846287166
  0.7484348799480897  0.9965016277122973  0.4170041020599374
  0.7486414356403380  0.9130924835839669  0.3345417963839479
  0.6622985672097065  0.9126724142216780  0.2540041666131302
  0.7465978740930702  0.0794101575082501  0.9943149491876694
  0.5772954455897293  0.4955507815141843  0.4171545355171164
  0.7474526824896559  0.3285450744404224  0.4175515375732440
  0.6603352156119988  0.4199426870872577  0.2503868272393910
  0.6653289417573286  0.1640941957725323  0.6639995684229228
  0.4976220185759340  0.0834382859944864  0.9172826835476946
  0.9144563595639864  0.0810762223695204  0.8307916915656718
  0.9159492643853827  0.9943788020512925  0.2524766882597348
  0.1674248558483748  0.5848230075207129  0.2500054214654951
  0.7450054458010024  0.4190663041085777  0.8319999490206220
  0.8305226920534654  0.4189291593362391  0.9106750160359294
  0.9929574927958063  0.5001317129944443  0.6673168945537910
  0.7453724147563392  0.5854970542713702  0.9961216513884880
  0.7498345189510404  0.3337545482999399  0.9108989506881332
  0.9151259359552146  0.2499523322193944  0.3323777110725888
  0.7486154032169304  0.7514118716973434  0.3339270324359333
  0.7500774447588808  0.8347892190338126  0.5841363950548921
  0.6618829526085074  0.8300840492844729  0.9973840090504249
  0.9145685685001086  0.3329591586642857  0.5860876816736068
  0.6613346932237103  0.5037423648259733  0.9995154495255946
  0.9143347446354607  0.3330391223118020  0.7497319480790571
  0.0011577504055371  0.2515500782120348  0.0876651061697599
  0.6646628013389569  0.9159016722596126  0.4162258250929685
  0.8318700001521266  0.5039275701671643  0.3327857140816883
  0.7488685072438566  0.8335645482728609  0.4159644755699612
  0.9149183950333345  0.5090704734788084  0.4154809787580530
  0.6663300760200708  0.9182619552364121  0.5845456074192420
  0.9123497096399781  0.9156217953393326  0.4996562905262090
  0.8305593511464313  0.4197547155311999  0.2521299833347543
  0.6630591002444610  0.9164485999043395  0.9164289223565664
  0.8352294214253562  0.4220843862318426  0.0839344629272431
  0.9162766564784519  0.4208730755071320  0.1703598465045048
  0.8312213985358485  0.5870580179123243  0.4145803182620881
  0.9161169416239996  0.5816579024407554  0.9977476015309915
  0.7454416994842331  0.4192032233484535  0.3296399464493331
  0.8334697109180990  0.8307478538649258  0.1674150551829794
  0.6660854403895062  0.0013682372306050  0.6655555983394288
  0.7479049395038321  0.7500692796510152  0.8337355316139500
  0.8325825157695155  0.5880788060433031  0.2560214971871280
  0.7486238177213584  0.8348857001400816  0.7514257205533170
  0.9138265913153980  0.5017226675660479  0.9138344901957124
  0.6597313922654467  0.8225249135674870  0.1666793841294564
  0.7482695495892102  0.8301637394332857  0.2517007754961376
  0.9116985971727131  0.9996697596328803  0.7488130618898292
  0.7462346188364138  0.5013811343692360  0.7521797476015264
  0.8314700584116986  0.0802015813726155  0.9125158390127304
  0.8310042000208206  0.3284981183147026  0.5026241125005398
  0.9154152200761903  0.1654256071875267  0.2528497801180118
  0.7472528058011134  0.9985848452219275  0.9147419069225768
  0.8337573673709652  0.0805580738349971  0.2566263948474376
  0.9166166897633337  0.2508511372081424  0.1723967900416193
  0.9175189813172648  0.0744422576280779  0.9998882593395093
  0.0006831493686638  0.2495573732347607  0.2512501421721693
  0.9154927000634839  0.1655039129143039  0.9040557612856484
  0.8322566440482707  0.9159911101734591  0.9148893264627769
  0.8299543727291564  0.2473110393413295  0.7487310148425071
  0.8305636639854820  0.0821548399950872  0.5844741185617622
  0.6660201465317357  0.8339633696745269  0.8338825800204775
  0.7470143329747663  0.1634317724514072  0.9125403692438369
  0.9143905798479078  0.9978382205340582  0.9163714803295897
  0.4943325959564903  0.1668737232280101  0.1674568794500544
  0.9111792558318745  0.9991206011468178  0.5822235388049469
  0.7483785351193446  0.0817051488658524  0.8315184734743437
  0.8306323746349221  0.3338741637013277  0.3327191303580209
  0.8297935339680983  0.9981375077730035  0.5004473454477750
  0.8311759683589193  0.1651698483775701  0.3337772299105508
  0.8310652474603276  0.0799650757808483  0.4177761411319923
  0.8305703309143417  0.2469992325372108  0.5851071343822914
  0.3328425916044017  0.3329964479280903  0.1669976726850826
  0.9995133826302263  0.5842233932986192  0.4180168418355449
  0.4971243620090650  0.3349278803507419  0.6647112112967130
  0.5804402309662419  0.5861362075780608  0.9996448709063768
  0.7461986376926876  0.6680326780609529  0.9153150702674140
  0.8316523032611303  0.5859327291468774  0.5800920904502588
  0.6639112860126550  0.7491651327730364  0.9147082142675058
  0.8298676641810273  0.1648420975130788  0.6665639286466746
  0.5805383093706445  0.4174097257502092  0.8316653600702635
  0.8305663424635656  0.1647128343403470  0.5014746740634316
  0.9083398292910912  0.2476217885007775  0.5014618571842655
  0.9147195733414833  0.2492886915792380  0.8275421609823997
  0.7477300565153853  0.9173260011532126  0.8334661964659106
  0.8318425741339740  0.9963722840079973  0.9972129501423291
  0.0803964263194276  0.0771894307878230  0.4986244921052601
  0.8319582576438092  0.7515079204907525  0.5829215394322118
  0.3322788494339692  0.4178641038876389  0.4173660402976946
  0.2511708606840772  0.0001647690494193  0.0867121261759841
  0.6619269521694620  0.4226169616295940  0.9154429454841182
  0.0847431278170162  0.5836769144303900  0.3331585613203776
  0.6624968098263648  0.5012646377270205  0.8321149520239254
  0.1666109654593797  0.2529784177052732  0.7491557557084878
  0.7525975735916413  0.5868961144701808  0.4989458288362514
  0.9973128767464481  0.6658178211893152  0.4988579293205797
  0.5796561201642894  0.4974643085764695  0.5850164302847873