Cr  N Ni 
 1.0000000000000000
    21.1250329189096107    0.0000000000000000    0.0000000000000000
     0.0000000000000000   21.1250329189096107    0.0000000000000000
     0.0000000000000000    0.0000000000000000   21.1250329189096107
 Cr  N   Ni 
 259  69 605
Direct
  0.2422638124198070  0.9148315060101652  0.1657863377490757
  0.4162129728010797  0.3282031685853628  0.2515954822770954
  0.2463152099898131  0.2528871767871748  0.3383013160671077
  0.5697987929230904  0.2509680789670252  0.1665651576330179
  0.3345758977152131  0.1619295866412247  0.8323793402036241
  0.6652784431030864  0.9152664530753593  0.2497944647420280
  0.6580704176969221  0.3385365048262483  0.1670867234768073
  0.8299480046945470  0.7573010228447239  0.0816012233228991
  0.2485380358838012  0.0038256807258817  0.9194848810564994
  0.8305763165695360  0.6730954425094617  0.9952703500722112
  0.4161557842924891  0.5013844355599114  0.0842067697095031
  0.4164666858168813  0.5046394932210119  0.2467760208585180
  0.1656837916696358  0.1669142334474083  0.1641211417950385
  0.6670317971512474  0.6629888885786520  0.6629497529473879
  0.3333156507548041  0.3354492129003130  0.0010767338424273
  0.6670074534569833  0.7545389607113554  0.7461560153722636
  0.7542403161072916  0.6657521101682549  0.7481785917498959
  0.0821252375022320  0.2399726021180388  0.9992964845159852
  0.4998188887678399  0.0839428445495967  0.9160296451335261
  0.2456255859806672  0.2507650066669433  0.8331682123575354
  0.6637241413963131  0.6659475038785487  0.8401126381722598
  0.7506150195569009  0.4158813780946538  0.4995694580579894
  0.9129743059994565  0.6651778625052722  0.5808346728631525
  0.4167799256945822  0.2506528549824665  0.6647282943582479
  0.0882202510800768  0.1684538045503156  0.4178933287020155
  0.3360828976432489  0.2502978962338565  0.2502624544760951
  0.0821422305677841  0.5837984627057843  0.3236457109960978
  0.5007868153475489  0.1695611992755955  0.3366451481174825
  0.2481155209795969  0.2531411147107134  0.5004423986090430
  0.6644149311578686  0.7498778830679099  0.0805666309434285
  0.3344964238963108  0.2507292021697521  0.7418287195843488
  0.0803935104612654  0.0862588536578303  0.6667247371372049
  0.4149456217104904  0.4179140162781146  0.1596819157040921
  0.1759872719656011  0.3336094680881463  0.9994038329103251
  0.8315617752412450  0.6630651219967156  0.1721121925821091
  0.1647281339974682  0.1696032711842272  0.0005335807864002
  0.1602857960004418  0.0004110724642254  0.6650066661522879
  0.7487815542389582  0.7514096464942885  0.3329582249554366
  0.6718101579437866  0.5845801162634301  0.4162593426272250
  0.2427071752989512  0.5782237469103353  0.4973182721593111
  0.9928629345519808  0.9142190782796198  0.5808760003973953
  0.8317694069379288  0.7509961094656008  0.2591764658464508
  0.5849622160130005  0.4963593612311081  0.5931314293211635
  0.4148926448104681  0.3327854194532922  0.4172982794538510
  0.0815692931928564  0.8398138562420111  0.7509631727116410
  0.5845745105610338  0.5838091486014811  0.5028396290270829
  0.7526571555650360  0.5823036635705924  0.6676923196738430
  0.0787813099819530  0.8427475582439222  0.5790812519467531
  0.9121807924628599  0.6652764749378157  0.4165740169240394
  0.0810232066614198  0.9107014156687409  0.8350031221615924
  0.9091868244101047  0.6688069374365369  0.7496720712806221
  0.1686207606735889  0.9975451599368318  0.3336313891434913
  0.1641528688588329  0.0003280353726653  0.0091716901448759
  0.7505394819157144  0.7506400746607338  0.6654291523120087
  0.4154258517384971  0.4147502847541146  0.3387887884163482
  0.7454825543016126  0.5937310548350746  0.1658823192658671
  0.3333321121887991  0.6632787578198943  0.6633186285406893
  0.2462799820878215  0.0002558593227643  0.5722078718227350
  0.2463004868867605  0.0840445857924591  0.3313013495474826
  0.2476100394970188  0.6706053676511819  0.2480733706698576
  0.3339138219288973  0.1751748897506989  0.1641327288615031
  0.4140785308127142  0.3343226908457160  0.5824322803307396
  0.4186367639202917  0.5785140383983202  0.8372820296713694
  0.2466116495615207  0.0885779845513211  0.5044278999438910
  0.6671879080562912  0.7506500908637569  0.4133340869792655
  0.9144004653315960  0.3399926925729749  0.4171939766133278
  0.0766967476281987  0.7557697363225369  0.6661920853115815
  0.1675162610542295  0.5812700511533672  0.9201287175732996
  0.8304144212986192  0.9991812078282892  0.1629091320073551
  0.3305134165554476  0.7545128107742449  0.7563046380420949
  0.8320160420408317  0.1663098614319291  0.8294464640437434
  0.9961906788103653  0.2534116685857928  0.5842470395798798
  0.2391725140631912  0.0839973012071245  0.1647293538132794
  0.7480968024921442  0.9166519486460140  0.0000810311742881
  0.0037660658050736  0.2542993745736253  0.4175415047882132
  0.4214787535174935  0.0870823174502939  0.3404068951302040
  0.2443913450007535  0.0029019151576934  0.7524954689690491
  0.8361190133317317  0.0801839201007468  0.0797085646289685
  0.1681907078657380  0.3347059503365392  0.6668258306324539
  0.2478009111617341  0.5730036020130346  0.6659617207480190
  0.2487392870435591  0.7480120965859423  0.0067106048415858
  0.9174797877905617  0.5017272749780789  0.2512762256148280
  0.4145910000453176  0.8320459605090700  0.4082162081522154
  0.2491800901829030  0.7519100768172177  0.8324755767782592
  0.8331109509036250  0.1614350986136187  0.9958485400789336
  0.8312244363139801  0.9986853883694828  0.5009421197292546
  0.9100811733920122  0.0013638636528453  0.7489605470479508
  0.9113217089005037  0.1638229287497821  0.4228424248933301
  0.8305733752507224  0.9994927331250183  0.6657911125951628
  0.9983962076127426  0.1632192316766354  0.3323416370771236
  0.5794013531399510  0.6631031166308786  0.7535654604521383
  0.9120474523369719  0.1679206023767083  0.7490075377514755
  0.7485576911063871  0.2445298769516784  0.1695157074636463
  0.8320283417012643  0.1549261001250857  0.1647022467671702
  0.7538543555127832  0.0782300714529482  0.3349278608124692
  0.9160512021957459  0.4173011276524378  0.9990598232201735
  0.9161717913474550  0.2379161843529601  0.9968800815176903
  0.8261844222065322  0.3287578240180424  0.9968562049989976
  0.9979204989583034  0.4958282479473080  0.8300314002718430
  0.0068585648755782  0.4202008538757427  0.0880966702965933
  0.2498184312779662  0.4974991621549203  0.7517490812991726
  0.9119450548612995  0.3326789911367292  0.7498704433997171
  0.4230262927300843  0.0060052682709958  0.9153674954668181
  0.6648597011534537  0.8388759209107138  0.4996774008828496
  0.3340287484552541  0.0006225833955422  0.6612058700408210
  0.6657800492937312  0.9136843350940559  0.4173442011189316
  0.8397613643585456  0.3314859907121918  0.1691911943191776
  0.7509187102393257  0.4165539501794312  0.6677816650590693
  0.8276640463486798  0.3346116083681158  0.6651880837162963
  0.3285390451030930  0.0843883122953030  0.2561446987970785
  0.9170395351024033  0.4176420684057825  0.3306720121492822
  0.4208774788293850  0.0027033196560611  0.5750851178362232
  0.5834202320554599  0.8349923739652325  0.4153329589054767
  0.8222624812131663  0.1629924789864072  0.3341805923073144
  0.3320548958443851  0.0006407605716316  0.1669520562755482
  0.9917162586405061  0.1702163153739489  0.6642375866081357
  0.9174435417589657  0.4192500356916184  0.1763792873914551
  0.3308373046245361  0.0946522175984209  0.9186783732909760
  0.7470139436720472  0.8345848777169688  0.9159928302555745
  0.1692967283500169  0.4165805152882203  0.9167176638034338
  0.3299266060195573  0.0943118968436781  0.7488262937420349
  0.1626353352973157  0.9113379236532155  0.9193851525461025
  0.6683756249980058  0.7484439679916207  0.5907409799096640
  0.4189165278212752  0.9235593930854138  0.4961168663049580
  0.0843511321024730  0.4959401733193572  0.7601304555370906
  0.3308771055341658  0.9171154234881922  0.2580171116644939
  0.8290937899781712  0.3356059332252335  0.5020546543778996
  0.2477826821688556  0.9123352364994504  0.6656542846959749
  0.9903823473838128  0.5828456720322055  0.4161307794252381
  0.9833576558918703  0.6653059250403703  0.6648972275303817
  0.7483085733577813  0.5074740568708551  0.2551083852242504
  0.6576890489733561  0.2519952212029125  0.0828596914420718
  0.5007063215139493  0.9991652585762737  0.4984263444756912
  0.7512489820114878  0.1569555039864054  0.0785043676220460
  0.6687381656977445  0.9177816618233626  0.7488209791630323
  0.3343839991674920  0.4993344984463872  0.8366281169899676
  0.0043350518067971  0.2539268633691150  0.2503314400276048
  0.5845109896292277  0.4082674322428734  0.5011251111329948
  0.6649784572393797  0.1615368454735796  0.9989490043736986
  0.7485339643905836  0.9977661838538500  0.0815856781822489
  0.0820484390651107  0.4037633283648080  0.6695808191060278
  0.0820105444323938  0.1706252765643893  0.5801121507715721
  0.3346868717678471  0.3399797460873785  0.8331686324372557
  0.6647370547131191  0.2503070260615953  0.2587618138505741
  0.6660000916553893  0.4159360607457071  0.4184332858887357
  0.7494390257017556  0.0788938313391953  0.1675608820596783
  0.0808588186964101  0.1699816764177370  0.9147923974537868
  0.5061395091390097  0.4176245095678705  0.2504059546739266
  0.0021141192965183  0.4170948361255727  0.2488231795209770
  0.1680264866381104  0.0021125514492036  0.8305601995595363
  0.6643674650204716  0.9947185588639376  0.1693180494906462
  0.9137533196070905  0.4160386417307830  0.4992036890316148
  0.5775038836648841  0.2524643922042576  0.8358716619945624
  0.0814173401001784  0.1710225677610937  0.7546854539878037
  0.5710749310476197  0.2531079190924996  0.9985686438694584
  0.0019345070051441  0.3307921868695782  0.9978288315822396
  0.6655455571946767  0.0803773490081341  0.4190962526541814
  0.4914431099358413  0.2525354155548727  0.7471530338077947
  0.6665727664279721  0.1631829496900223  0.8246677897533143
  0.4973481161667725  0.3358358742943262  0.9991606960082572
  0.9948378847982012  0.4158931957343901  0.5844781167440322
  0.4987042522177928  0.1691904943383241  0.5012315954643486
  0.5816410925577943  0.3418496345484542  0.7491292607571658
  0.0746463629909347  0.0014201179509937  0.9236961656446289
  0.5047662095828588  0.9170041088838099  0.7488742526296981
  0.5820297725628742  0.4963993703231941  0.7482288978654456
  0.6635737427485224  0.4990486130570694  0.8317644594540959
  0.4165724380716087  0.5721573626088498  0.6653174467278167
  0.5832546491993946  0.4140038748591982  0.6661026760603775
  0.5798478639445622  0.5858960759642846  0.3268365712944905
  0.2469623429478211  0.6644790979180779  0.7599905233547848
  0.3348228838775645  0.5801179958297334  0.9201500337309301
  0.4175987498999883  0.6675632259936423  0.4065343725658069
  0.4998794247498696  0.7502654048898237  0.2491778499496801
  0.5861884267352884  0.7517002420157515  0.6652140914426308
  0.0813290700870424  0.9991004295506496  0.2436987484245616
  0.0801760697659799  0.0003411605137325  0.0832026421703453
  0.4995364811658968  0.9106598855102815  0.0843147333332028
  0.5002098316286674  0.7470782266488702  0.0837007586452452
  0.6630911921775617  0.6678310015506483  0.9989296245462956
  0.9188566447774135  0.3315188327446089  0.0885054887372287
  0.5007743847715351  0.9120334988183564  0.2517320366922846
  0.5066166864017969  0.9174066487821632  0.9149504303504744
  0.5831762395169914  0.8313978407980024  0.2496452846091746
  0.6656196669958593  0.0794173475555445  0.2433323610991709
  0.0790162196486791  0.9971512149406007  0.5733093012998237
  0.0799026649538873  0.0008503110826107  0.7477674249486214
  0.4931221730945545  0.5817283533459832  0.4143277553746257
  0.9895237085795235  0.0019789714508685  0.8296363107296783
  0.5827701469369526  0.4940652287929710  0.4170345752407755
  0.5072325884668066  0.8338347146670012  0.5001315260786923
  0.9859938964642061  0.0006331095418286  0.6671225733151680
  0.4198469162619967  0.8434146343162644  0.7503432771062937
  0.5806728944757333  0.5862151891909048  0.1667659482738114
  0.1657792344106987  0.3344305051978069  0.5000090622708997
  0.4223227765868823  0.2515711930475404  0.8319230502654180
  0.6613028457241411  0.3408358467049755  0.9994334613192027
  0.6609634917860225  0.5011379756637406  0.9979978156122719
  0.4221190739522725  0.7520615983919767  0.6626278429908552
  0.6668193786353960  0.2494880344220615  0.5863455733380742
  0.8299541835116977  0.5824574480591604  0.9088461371404243
  0.5813810988275449  0.2500069551523327  0.6610507928540649
  0.7493510212872293  0.9185004088575086  0.6654749888001531
  0.2482412340997711  0.5795603011567351  0.3363448974794445
  0.7588807377146777  0.7500692036985371  0.4989137184442864
  0.1675429204784374  0.5797951157872951  0.4121922657915021
  0.3343833912056298  0.6678193602334181  0.1651438115100551
  0.0788872405756894  0.7521979577715503  0.4909942454418989
  0.4195415471776960  0.6657581889727809  0.5799307677461463
  0.0802151468140728  0.9095386178381387  0.3329274395072533
  0.9960079679033338  0.8402389613262415  0.3325854923054444
  0.7387240989906866  0.4180538442216908  0.9978927503691797
  0.0867214854828822  0.7485857812184180  0.0036972304655358
  0.8309387028387715  0.8340625880865880  0.3313853467844073
  0.8299350362618735  0.8332513760191483  0.4989813452568952
  0.5828799278900911  0.0818203684478404  0.1725039792952675
  0.0002501052405889  0.8351815766954241  0.1656730921450398
  0.0868911005168235  0.7515153423438742  0.3314392020697057
  0.0833338491584740  0.4159456003228708  0.8318385951797226
  0.9121587450133487  0.9166777447267025  0.0005391072923694
  0.3320773638078166  0.6652547063593336  0.4973829718012919
  0.4940174309996541  0.0863674361990709  0.0820188769623284
  0.2471589573504011  0.8319715074127501  0.0849313597701660
  0.2446367224729245  0.6670604492900440  0.5820853609684807
  0.4162264515428371  0.8288690965715763  0.9208494512661400
  0.4241889229347323  0.0005357716422322  0.7508414667747959
  0.0821337055006335  0.6638638076607210  0.7589087494781538
  0.8322478978159731  0.9983574943285934  0.9993102562931017
  0.4218149868581858  0.6638529659232509  0.7560019500336643
  0.7448295555305221  0.4219867424035566  0.1679893868796015
  0.6628198140969574  0.2518664234282456  0.9037518701608441
  0.8302968053785849  0.4178311012400277  0.9040420756059878
  0.3279811167074789  0.9163239913249936  0.9212793715776441
  0.7441896371920830  0.3300502557249501  0.2588662215431453
  0.3317083384767682  0.9144759005690131  0.7502293522435268
  0.6649640007700076  0.1719804139991400  0.5030399557167915
  0.5769921231757289  0.0830053943042466  0.3356513272107486
  0.9062760207436659  0.9151662174169923  0.8323283920827419
  0.5877378024494533  0.9949845742631834  0.0833483851452641
  0.7527140519526146  0.2476858183361540  0.9926835818415493
  0.8312846101720192  0.5815696190744711  0.0850926191729786
  0.0922422212059520  0.4180745209114879  0.9993424255364838
  0.9999952477042824  0.6608822880264982  0.0011706530609315
  0.0821218247570586  0.7502962242696986  0.8426183437776487
  0.2486794798331730  0.4156634469653465  0.3333055956922973
  0.0797829322941231  0.4893390508943182  0.5813002562313626
  0.8320738388170039  0.8396606469896662  0.1683987332184047
  0.4210233835218914  0.9131683077294069  0.6656689480298636
  0.7501849820844446  0.3324898004351670  0.5837564512059524
  0.0798686226097441  0.5788291250498601  0.6695997367638794
  0.3295662246551638  0.9125792310908459  0.0819234078034118
  0.6691920536218519  0.3319106564441058  0.5022720492653115
  0.7476341821547628  0.4162561157574707  0.3441305956847949
  0.7441708993893617  0.3358256206186774  0.0777473775016126
  0.9899865351073708  0.4979194266649691  0.6671093411058782
  0.9878581528371420  0.5801400462748000  0.5832701307425417
  0.2448548488318416  0.7540634928082978  0.6661953052202384
  0.3322027585296896  0.8254056037213510  0.1672469036218068
  0.0774544326993522  0.6668360309650904  0.5794971740622912
  0.4256963917294445  0.0028615307829235  0.6629945816001882
  0.0783306754123774  0.0024888518474646  0.8349481427694266
  0.8387624657867916  0.2418766107943332  0.1733076229030195
  0.2508675776501552  0.0825315731477731  0.4181685374819577
  0.0905549325379626  0.3276562986495923  0.0007212994306799
  0.2455553932990277  0.0027378485403546  0.6619042608386176
  0.5823851865918301  0.5859632922924759  0.4140785231407477
  0.5824255616759535  0.4954523786704308  0.5062075392104866
  0.3346833020974735  0.0045767056801603  0.7518162310846498
  0.7497490722871153  0.3343379255223299  0.1684001345584805
  0.4243537626257566  0.6595702396901115  0.6673154896979459
  0.9920591208289545  0.9126339887432136  0.8357117163989647
  0.5823534924359497  0.0839630261747953  0.0842456581088693
  0.9085060960360180  0.1609797702989873  0.3334931012282386
  0.5047017312551916  0.8282920423620408  0.9170419724600464
  0.2432013205660916  0.6622178932475080  0.6711377345157538
  0.8345438537631865  0.6693568054827402  0.0834509289651292
  0.2492076896745352  0.5828479088421560  0.2494313390949784
  0.4177065434119838  0.9170130260988976  0.9191827529900705
  0.0048748716766726  0.4220058370960896  0.9964005691747666
  0.6557695940218452  0.2469793805187022  0.1725057492614391
  0.3325107854936386  0.7539259308791558  0.6641046758266540
  0.3337959375481309  0.6631342651841932  0.7574191413053756
  0.8300648173818683  0.7529898704355537  0.1713775235991884
  0.7430888974434152  0.4197077438821231  0.2579234135473745
  0.4223953580136609  0.7553437915008645  0.7540756790624499
  0.7459779877095686  0.5091463256207097  0.1652568571360604
  0.0779746422226113  0.7531944749433177  0.7564737012864455
  0.6646259487513059  0.1608784275041774  0.9105724657847434
  0.0715733622948547  0.6669040680663882  0.6705928611566296
  0.6669568355835024  0.6650457418202558  0.7520456501503732
  0.1619283434623643  0.0015248010158883  0.9213690541154256
  0.9138688051957152  0.3249633101524694  0.9971995207859492
  0.3326713865166301  0.9124595717979387  0.1704853955279633
  0.2489103323510881  0.2536556103540091  0.2510695469363763
  0.6666266603684105  0.0836133547881003  0.5062605037768108
  0.4176940952410446  0.8370040161065575  0.4960067207075850
  0.0781889829424331  0.5804580815934521  0.4097195214328840
  0.4163225721696650  0.0834375186183718  0.2554867852610914
  0.0008545533867607  0.7527316697455789  0.3316803682914734
  0.9993900932671386  0.7483289380753156  0.0018419077166183
  0.4972919588940962  0.9971082446722455  0.0846479050497113
  0.0031997915324903  0.1663216023168758  0.2444286426472886
  0.3268954082581347  0.0889425999376696  0.1661305579219883
  0.3336374093377849  0.0035372586139441  0.5712868791610269
  0.8304280618509315  0.5852483963365884  0.9957452090416341
  0.3358334246951812  0.0070848038457638  0.9225644458082646
  0.0774716604489221  0.7563861278930674  0.5771115998464028
  0.2435865878705885  0.6690157115799367  0.4948365817210761
  0.9984918859915295  0.5821919231813495  0.8347697743977817
  0.3293584954779332  0.5754338101783850  0.4957873083300235
  0.6652679084764083  0.0822099012919174  0.3308234854655095
  0.7480774733516677  0.2449388998870569  0.0801917671643643
  0.4165025056105723  0.4165981294382842  0.2492440091292367
  0.9177402177236117  0.4215205436694774  0.0891379674641532
  0.0018773744029221  0.1626691465527216  0.4223775905397367
  0.2504795903160710  0.7481833047023542  0.9195561231193793
  0.0800910169355627  0.9983733880507900  0.3323354158214263
  0.6707320167538398  0.7499677954941970  0.5013305985912461
  0.4219106476678013  0.6646907374206594  0.4920040252628526
  0.0796297303543542  0.4899896185295032  0.6721864255181625
  0.9145121444158286  0.2533431936896757  0.4203532265761167
  0.0718919249992968  0.9977206824722892  0.6595692983929147
  0.5823267058400433  0.2516952253146348  0.7484785409138494
  0.8254631570561990  0.4165040238833256  0.9917232688779053
  0.3338773628626249  0.2512170755756216  0.8326311388569623
  0.0769460945196137  0.5777591126900665  0.5798719420282236
  0.0818249289725137  0.1743513560715801  0.6676052822185352
  0.6599134489377507  0.2520893248846469  0.9926226979038085
  0.9097012892872814  0.8338027256246044  0.7497859389754029
  0.7496847488983963  0.2485111088642477  0.5013723711688394
  0.6689729195660860  0.4156278828865250  0.5848400040908408
  0.9116995926606900  0.8341859460084048  0.9176387657376497
  0.7494817247042296  0.2498792802303500  0.6675262256027990
  0.7491751817400013  0.1675122113149461  0.5854219216399220
  0.7486605079780922  0.1654581131683570  0.4194097872269461
  0.8319798133589874  0.4990430336739445  0.4984763584077063
  0.6676675485599248  0.3345763471111973  0.6665469430714688
  0.8284920168306869  0.8328750991413696  0.8332114841837285
  0.6641770486520832  0.3361750857922273  0.8307760996323528
  0.6663387565193757  0.4172890074230627  0.7484560654159739
  0.7501180475881399  0.1661372761479217  0.7490074637257303
  0.7469476317139763  0.2491556412921719  0.3382761691332721
  0.6598867286612807  0.4196980264043179  0.0832973776096246
  0.6672294132593463  0.0821296379927611  0.7476252079752529
  0.8291942361128766  0.9166307347119561  0.7488418932889764
  0.6660455096140528  0.9963139026555845  0.9991406313676069
  0.5872611893599532  0.9174370338499402  0.6665388466026337
  0.9120436264921982  0.1633647914578703  0.2456309603001705
  0.5825903326800173  0.9181635987960395  0.4997167147345722
  0.8316716713662460  0.0826753278935487  0.5843099374795058
  0.5034497082133083  0.9175306027744445  0.5816303568079697
  0.7538082715672568  0.1635142800349694  0.9129017765652668
  0.5806509518326946  0.4158025192430345  0.3369251577852242
  0.4974078342018441  0.1674618735162574  0.1680425575634873
  0.6570123028415568  0.5029109845445258  0.1673107137766471
  0.7504808245253985  0.0820506783756611  0.8303281832827500
  0.4985393410555913  0.3355906299049666  0.1668438594256095
  0.7504883643677076  0.9974503190879509  0.9156396051873400
  0.9127414473977846  0.0849038718022951  0.6655345373122145
  0.6678484342685251  0.0751621142507670  0.9146565381604352
  0.8380163970270007  0.2450044456723371  0.0802257624283042
  0.6675172071663328  0.9985553446061783  0.8308547949660692
  0.7508041332320857  0.0831017268848520  0.6668823620391545
  0.5841011139708443  0.9152485325628235  0.0000439902247943
  0.5014091135948063  0.8308078115600526  0.0054386762150894
  0.5854527430038610  0.7494614475463046  0.8337580816460324
  0.5825057869404654  0.6651502028485567  0.9178362472612485
  0.5010564725911801  0.7428921613148227  0.9185741466346082
  0.5098588594863022  0.6645920070079273  0.6652210583399710
  0.5087525281378507  0.7501976460670029  0.7504455709982929
  0.5821487622300499  0.9129270458672089  0.1677533572343380
  0.6651433653856307  0.2492669940064307  0.4200026416258447
  0.5861213603047531  0.9181998331579089  0.8313766439522502
  0.6698491220527697  0.0802491294589736  0.0821873143860418
  0.7474677070941136  0.1633506345256530  0.2506172845270388
  0.6649964837834342  0.1601909484191192  0.1656220937908853
  0.6649700814357116  0.1698178604158559  0.3361063802344926
  0.5006870611059734  0.9161556400305993  0.4147528835879379
  0.7498591667251550  0.0000126154927573  0.7485994332023497
  0.5903171324968209  0.8331112726688885  0.9160123543239896
  0.5003453868104403  0.8320087071010409  0.3325459992628217
  0.4999352662451724  0.8309460592511342  0.1670078535805533
  0.6619821307505700  0.3333256604943156  0.3379212297627895
  0.7485882275325491  0.3313034533790473  0.4185860155635448
  0.6552639424168569  0.4171425130229231  0.2525096797650195
  0.6658571182494478  0.1680194207849520  0.6678300820498984
  0.7536040161448500  0.0825268154476648  0.5017378326332596
  0.5053935312268358  0.8340267284775361  0.8290184123312250
  0.5867286336165747  0.8353046744085975  0.7480919509169685
  0.5856916411469567  0.8359493993593385  0.5837892297051517
  0.5829156814672249  0.9142545778403176  0.3329496193993804
  0.7497085342301745  0.2495996552268521  0.8304290419902731
  0.6660713552568787  0.8330985328943658  0.3335141156459573
  0.8316325723950231  0.4176949961629629  0.5833874693807134
  0.9171810031315522  0.1627126516599328  0.0822986835259125
  0.8322278684580934  0.2480694378513494  0.9122593244126929
  0.8288798700902867  0.2505888329158448  0.2593250554066254
  0.9135023038882211  0.9969913038598187  0.2479087875179656
  0.9243737237882330  0.2488231458941031  0.1669792327498190
  0.5828053768499764  0.8321036435436854  0.0839911909031272
  0.9130675210226988  0.0841414846352204  0.8312930681923703
  0.7490173774434846  0.3342191318204409  0.7493244524730742
  0.9949234741752248  0.9984591557647455  0.5003434243903483
  0.9121134435575290  0.4142454665293285  0.6678444008847487
  0.7497379561994638  0.8345185988687963  0.4156692759287813
  0.7466004012130509  0.3333538855637050  0.9122889223503734
  0.9141633651996552  0.3329121146482021  0.9095052870693106
  0.7486013102948272  0.9148686557394244  0.3331099376200388
  0.7407859697266918  0.5838240034716226  0.9968633361184375
  0.6654743932706306  0.8335782462656232  0.0000905742452633
  0.9183006491267818  0.3341809239118954  0.2519169146659787
  0.7434930228925715  0.5024147229140694  0.0781095443612716
  0.7500143315950004  0.8348297330493272  0.5830861881856857
  0.0002139645597514  0.2475355390728150  0.0822514928337917
  0.9116076581867706  0.3350039616654523  0.5845347969889034
  0.8315342082958797  0.4182014245792133  0.4162370088748741
  0.8306274520051150  0.4158245955158170  0.7509937182603987
  0.6674588480566900  0.9176381397940719  0.5829329194934428
  0.7499885792413292  0.9158228220694625  0.5000853490538891
  0.8306339366531812  0.3326321678172551  0.8308003345361897
  0.9150987726240867  0.4977516214716511  0.4148700507798943
  0.9937483115170597  0.9964902469584078  0.3321812336022631
  0.7469475205555965  0.8348393393221355  0.2496151292506888
  0.9119757041236790  0.9166695202661033  0.4993663307049240
  0.8344359371241113  0.4169360987890264  0.2529548758848976
  0.7489682123331440  0.4996379429532214  0.7506685042278567
  0.8276512994969376  0.4188767615123878  0.0865706712377916
  0.1619282824207959  0.5829910151066662  0.2480367187130509
  0.8329537640613756  0.5827421730786045  0.4156618236805674
  0.0795511620581132  0.0840962512939068  0.5010300647006934
  0.8329835709775653  0.5012331745139703  0.3342527203497898
  0.9941503035115761  0.0858059108453066  0.7487107358066449
  0.6675048895829168  0.9992424945321245  0.6669688972069093
  0.0794126024510797  0.0904302050379342  0.8312974489217422
  0.8327531135304383  0.5844829554627444  0.2524345654066487
  0.0832794861561222  0.1664859001676187  0.0835255506101120
  0.9191028308314937  0.5834839987003888  0.9990087852939591
  0.0006700558725460  0.1634248697080127  0.1602134198460819
  0.0802596401845286  0.9986954426511843  0.4199060730495035
  0.8327594589894158  0.0810750391632711  0.9143406985996656
  0.8303395174947383  0.2500463388488103  0.5848603888238546
  0.8313872842164548  0.0788247296998582  0.2488640206815206
  0.7491187932971113  0.0785504328833891  0.9970505702655548
  0.9161406202358519  0.0815543657277558  0.9977435612894824
  0.7494240349248432  0.9995010319774520  0.5837247365660551
  0.9139495044577665  0.1649518123890711  0.9124091900976352
  0.6667192164589549  0.0847814108668275  0.5906987418140661
  0.8310363650276509  0.2505377778694018  0.7487189901905734
  0.6666070182290146  0.9955135938626265  0.4992528510098510
  0.6671271781739978  0.8342941161366174  0.8316291343760968
  0.8298915804438287  0.9969221926958010  0.3338927694560571
  0.9136014190395113  0.9991379842026659  0.9163574021848603
  0.7496677826927860  0.9967148475418925  0.4173764353171363
  0.9119370523255967  0.9989677182371060  0.5827951716392609
  0.6648221205001069  0.9926821169985598  0.3327543492579606
  0.9118567760127654  0.9973420481523086  0.4179174105925291
  0.7501877291663305  0.9958032355359415  0.2494393888234804
  0.9157626833585443  0.0783566562580322  0.1649349810988885
  0.8325266144272494  0.3348439843107588  0.3358231325716723
  0.8277754109750138  0.2501053797041882  0.4180976668588564
  0.4167073140015862  0.5842428486418852  0.1650046203768275
  0.9977067372295888  0.4161147320700350  0.4154896014222057
  0.3328866447618291  0.4978757947775519  0.3325537845834170
  0.6627356724951656  0.5820454278480738  0.9152552959058354
  0.4155762366720526  0.4972013757705588  0.4141907813743049
  0.8322413968461265  0.5816137419650496  0.5832169707337432
  0.4166672848203801  0.7482130118311950  0.0032227524192711
  0.8321224732873203  0.1671343115004461  0.6674661818071146
  0.4153769011899411  0.3356713964302606  0.7477653536580602
  0.8312264896887255  0.1655887919984024  0.5021903102881061
  0.3336329217417282  0.4169551110587971  0.9187789038422282
  0.9137255654140649  0.2491639943264642  0.8303909067621297
  0.3335776686041774  0.5837516113884353  0.0839159074063549
  0.8308675721740115  0.9160756534321415  0.9167594451261958
  0.4167064748209213  0.5828479327861282  0.0016276222395291
  0.9184942946873680  0.2534812834975307  0.3295342854322180
  0.6659299670791667  0.6675809621316726  0.3324541358492467
  0.0822181970003509  0.4924378374857408  0.4155069077491214
  0.9107534504068185  0.7518407082117383  0.6659140715338268
  0.6640724525854557  0.5012791647569684  0.3344221464496073
  0.9106210563735168  0.9161222565116841  0.6656735877437949
  0.8296864750387311  0.7520143354417187  0.9159270419822365
  0.6621224872416621  0.4171454388629304  0.9139749697902323
  0.9103878310293680  0.7496515826012152  0.8337008362735477
  0.7463169769520112  0.4170301956673127  0.8315070119565745
  0.8307856566597114  0.9171665368056340  0.5825195755344520
  0.7513085464774428  0.5826134347906244  0.4996330273846021