Cr  N Ni 
 1.0000000000000000
    21.1250329189096107    0.0000000000000000    0.0000000000000000
     0.0000000000000000   21.1250329189096107    0.0000000000000000
     0.0000000000000000    0.0000000000000000   21.1250329189096107
 Cr  N   Ni 
 259  69 605
Direct
  0.2474388652602781  0.8341465924292537  0.2508612819904132
  0.0779986957852934  0.9983711773744091  0.5738206992371629
  0.4187764115495566  0.6672132880064140  0.9159866976948999
  0.4905994473025009  0.5861561679585170  0.4173417087701873
  0.5827807581012620  0.6695873150343421  0.2511588520370781
  0.5837554292179811  0.4973907212679283  0.4195499386311171
  0.0830931722522913  0.0823174365605487  0.1646800947143199
  0.9877631425193397  0.9976253780709063  0.6660040428061024
  0.5828393449414451  0.8340850327786338  0.0840615693173740
  0.5811254578216664  0.5865036268929531  0.1712523150458227
  0.5833649504106312  0.4980851380496942  0.7416090751811388
  0.0737299316137696  0.0036618168523748  0.9219491324788863
  0.4180814003838484  0.5772824350686567  0.6661102531809022
  0.5014037962779948  0.9166919116826699  0.7480782583946897
  0.5803100380692257  0.5870770997721728  0.3294412428916841
  0.6711575705154469  0.5011334596571665  0.8315481073542963
  0.5860014417724770  0.4129529020434693  0.6659443187239186
  0.0790575385092433  0.0032792983890978  0.7478776412368370
  0.2462348399988769  0.6667037920477730  0.7586449010724275
  0.9874952977686244  0.0009014474203018  0.8306854788875008
  0.4153577606742808  0.6674508277449315  0.4167421195494401
  0.5054145427010879  0.8354602190396865  0.4997295533016570
  0.5834520642531166  0.7523080910060710  0.6655484090178314
  0.4243563802612013  0.8341804185346391  0.7485047962468561
  0.9998176884639574  0.9992084421061411  0.1659285203876988
  0.9994279272452290  0.2494876415343469  0.0843874287853071
  0.5078184426482519  0.7512475430711514  0.0828422556555231
  0.5083723425092561  0.9161251898589556  0.9145642225274708
  0.5835887397147917  0.5845097276366459  0.9954788054584746
  0.6652117230234650  0.1661516729481596  0.3324258134526510
  0.5832107419714628  0.8326904539120735  0.2511832665749809
  0.5012631897190135  0.9149049702513445  0.2529829771248275
  0.5875684955032059  0.3371712457823906  0.7469560019451139
  0.6663031372619408  0.9176432964788929  0.7487089346308510
  0.5860456610057831  0.2459928714747821  0.8342377483661202
  0.0002122875759956  0.2532552522319286  0.2454675714689876
  0.0053937398329287  0.3312389581896962  0.0013805794685610
  0.6719321225183623  0.1594931229217156  0.9931075947213976
  0.6701814229589588  0.1613474680698667  0.8342925951582116
  0.0804401194514177  0.4068269437086620  0.6655662526220728
  0.5003950488268258  0.1681828900932152  0.5038049819390114
  0.4133942330092854  0.3267838283119439  0.7439128798821442
  0.6709234278395396  0.2486163395223061  0.0833467927797712
  0.5822810327263448  0.4108658901112128  0.3353743232031658
  0.7479803647661966  0.1620797764811087  0.0811817545402644
  0.5820462858074318  0.4138790581033122  0.1701436756563679
  0.4155938891398453  0.4138414817951886  0.6601634930467453
  0.6659611469676372  0.9963811594260955  0.1676242470970328
  0.9959266417297911  0.4174142863152401  0.4156206437262154
  0.7488413650548682  0.9979949953404846  0.0833411097697623
  0.0830656023764790  0.2501035218850256  0.8342317560060539
  0.5747771775424632  0.2484487275884303  0.9952159665017511
  0.0798788696832832  0.1702691675563169  0.5749669106650351
  0.6620191321784323  0.0796324175408306  0.4145035962784844
  0.5864110321779474  0.2484703129199957  0.6601207624095512
  0.6685010992270226  0.1622730289309382  0.1695817011362691
  0.4906347059586726  0.3354532144342786  0.9958871839368225
  0.9957704341703412  0.4154549364634293  0.5831433359962058
  0.7472674004562299  0.0802606550086849  0.1686033812923487
  0.1654696101638455  0.3359818717620562  0.4982401868107368
  0.5021739476988519  0.0851496988902839  0.5803746447968370
  0.9953652503150940  0.1679697133204603  0.8327840089025712
  0.4947698363709886  0.2493483830114459  0.7456102362252862
  0.1636189442356720  0.0904078463603207  0.9217164124531469
  0.0004211493220138  0.4192629340337300  0.2500067087805464
  0.1592672667892803  0.7484749857756293  0.9171454476298894
  0.0788794420603301  0.7504458046778021  0.8318442207755780
  0.5864891704121206  0.9891101741065235  0.0827792679753568
  0.8323869718696583  0.8379522308982994  0.1680166769404313
  0.0028543863100419  0.4977566067822984  0.9970300657731734
  0.7493483227344934  0.4130106441433549  0.1687173623807202
  0.6703849264500290  0.2481986901904397  0.9060032399751509
  0.8315760716894679  0.9990070058886845  0.0004945109513061
  0.3310848717677517  0.9140596204909310  0.9189236477711116
  0.7514953348968832  0.1625124019294540  0.9124718454934638
  0.8305028000584707  0.8357353961755631  0.3340579815452668
  0.3377568751172072  0.9231947978256310  0.7482686087298832
  0.9998657803530395  0.6725677932292742  0.9992373831400159
  0.0009586324301844  0.8336626690719405  0.1673198492746146
  0.5831218592008364  0.0812514133559860  0.3355461266958534
  0.0818230539383164  0.4922551636147172  0.4174882246584669
  0.9084915625796978  0.9147601849880133  0.0006866868453900
  0.0818417705801248  0.4968384727861872  0.5773748665734393
  0.7484862045221955  0.3335040169868050  0.0829501635956824
  0.7512045002237737  0.3313711951246226  0.5847434289559187
  0.9935072168028467  0.5830227670057430  0.5754948455639247
  0.9937162236877189  0.4940279028128606  0.6666997093411282
  0.0832546800906187  0.5820717621447763  0.6640415471980927
  0.2465733443731705  0.7568598754082789  0.6663231001264855
  0.6707995537492505  0.3351012463498363  0.5024760232287802
  0.3309901400537562  0.9147547104973699  0.0857070064744238
  0.3311508824926644  0.8385922750627872  0.1707859607707851
  0.0794562346399921  0.5824475848648913  0.5070063098335150
  0.7492607073508453  0.4165822165445505  0.3334139991127425
  0.4232063493270975  0.9155303729956344  0.6649244065192284
  0.3316315349922309  0.7502246854656957  0.0797731372966966
  0.4201299126470250  0.6646591779037883  0.7568868101439745
  0.4196103173817552  0.0031382355365346  0.7503755919915938
  0.6705321701209406  0.3336271681744341  0.6662843970139768
  0.6665861479344416  0.5012693141205780  0.9971923867786446
  0.5828744591019771  0.0746946733862710  0.1696697057419130
  0.8303468788509760  0.9175448231790930  0.7482310445669965
  0.8326579312080270  0.5820905830829496  0.9078691274356793
  0.9977518744438457  0.4135268284236998  0.7514633426599691
  0.1703867998447386  0.5842042704496886  0.4176303761262524
  0.3302912202606836  0.7506760201369407  0.2566666592234865
  0.4904384530035253  0.0833009837336338  0.0834894205994600
  0.4158841789764433  0.6676847036063821  0.5760977528091827
  0.3293393689576865  0.6619888579858733  0.1666557675348473
  0.4201038617603731  0.8276834389084289  0.9168435535650677
  0.7492238669264998  0.3327129504056726  0.9101946535300376
  0.0826674587083988  0.9103063948760184  0.3347350596864690
  0.6682386607600640  0.3369310215758834  0.9968693146311886
  0.9126032881732828  0.8352227696286263  0.5823885071328382
  0.4223069715667075  0.7560366774947502  0.6653210199371535
  0.7434393927488576  0.4175826866397902  0.9967541915430513
  0.9982705312237438  0.6622206008801462  0.3352124085164389
  0.6702673207409027  0.3343095527844973  0.8309786815169354
  0.6656483562976979  0.4153754508642445  0.2536748054139119
  0.3309510956586697  0.6666610905464968  0.4993623201881098
  0.7549769103712310  0.7509259994951076  0.5004464290153743
  0.6658141993594231  0.1660933055201964  0.5061590593582864
  0.3333057346505928  0.7501688792199905  0.5724284576524754
  0.0812703434466844  0.7502237105053186  0.4930335067817306
  0.9111948171117120  0.8316195562711903  0.9151095483423151
  0.0789510942746806  0.6670708694252053  0.7595515593647651
  0.9149820835330346  0.9154990031654323  0.3328384918300137
  0.8320887854836150  0.5813622674519602  0.0846283543825909
  0.7504422026926149  0.4997743283604394  0.2567256344004244
  0.5856681031747636  0.4086127297061581  0.5018785405144013
  0.0824471753172740  0.8331423898806288  0.4185171407455833
  0.2473412106961021  0.9983745905235980  0.0846591174280902
  0.7497006343926997  0.7513239563089668  0.3338552768070747
  0.7484100831788425  0.5886560897727614  0.1683023850185054
  0.3288407994123445  0.4149323338540770  0.5820980377892669
  0.1588650764534346  0.0825485689108336  0.2492351957671385
  0.8321889483356857  0.7506213445045482  0.2592704894505676
  0.4145371915255638  0.3304956845402527  0.5850199774954514
  0.4153113562076334  0.3280343223004955  0.4204433252650254
  0.2484948397221258  0.0006745298237326  0.4180145253903538
  0.5830367504360320  0.5845614994244982  0.5047197413743695
  0.8314759652790505  0.6619342248517160  0.1716732767446612
  0.0782274786004937  0.8413493417152210  0.5786396445751326
  0.1612054944359312  0.0012025304963340  0.6617429036183238
  0.9074726098430733  0.6699306001202270  0.7509090426611331
  0.7504402816281824  0.5845062388332212  0.3330121105991685
  0.9939268051539742  0.9147165769012621  0.5807138917485635
  0.8307495234578925  0.7515349069200061  0.7500763446353073
  0.4131548163660729  0.4183934102411083  0.3363553679090101
  0.5855298959469901  0.4975217290687389  0.5945692896889347
  0.3345733190666647  0.6649047897332073  0.6652702143436698
  0.2481940689040868  0.0008769504793291  0.5723861455446474
  0.9935599757256992  0.9142763404737636  0.7511365639261226
  0.3335539104906708  0.5852529637217555  0.2501802586220216
  0.3356916908839283  0.1713629301952711  0.1646320126021478
  0.7522140415152972  0.4984310971823785  0.5831182768035968
  0.4130976158447999  0.4169166146091229  0.8369101581106615
  0.1647938931841686  0.3318902643547321  0.0002469479533585
  0.8312216919763740  0.6686657817843853  0.6643376690382711
  0.6672585017579568  0.7508616982654590  0.4112745237080239
  0.2488138772897558  0.0854660105271229  0.0065895050064068
  0.0763633983774269  0.9132268287297948  0.8282522193285187
  0.4122277683542825  0.4151208981077556  0.1629184029919863
  0.5011221911475501  0.0818245290380064  0.9164581493481364
  0.6670123036570152  0.6693334684809223  0.8372005859289435
  0.6668251498980504  0.3390968309094571  0.1697682085105206
  0.8310830841644997  0.5808302540770748  0.5815193052697131
  0.2485090643542739  0.0046361773052864  0.9229586406934962
  0.1645581034242943  0.2510551629309511  0.4263285455644059
  0.4147860734885016  0.4985579413282333  0.0820520339394419
  0.0013699985407448  0.5839720971312906  0.2490364906233444
  0.2475064868036811  0.1680781688926339  0.0831835966952317
  0.2481585059604005  0.2509790783988264  0.4981850121429496
  0.3308025375060434  0.3325761533630296  0.9979868163024277
  0.1679751372762109  0.1686688342618189  0.6631305952469987
  0.2538353404788799  0.2499110446846913  0.3390781994911166
  0.3300460960963575  0.2490529646075481  0.7440527838834678
  0.3323572801026485  0.1579413925395761  0.8332428273105055
  0.4161688790566542  0.3287746204388695  0.2522237049795195
  0.4922221776835393  0.1652140350601151  0.1681261477132254
  0.7513998040999590  0.4161034415598092  0.4987665341228281
  0.6639591179710609  0.9139191968311833  0.2517331026682734
  0.4151457480662862  0.2491510651862814  0.6654700594145836
  0.8309239243063686  0.7571285145382709  0.0816479305263906
  0.3388395716340470  0.2492288991467496  0.2503837984328989
  0.8317332196974750  0.6745285100649117  0.9948689231796085
  0.4169629339882179  0.0865224033271158  0.5056267959446120
  0.4135761334214586  0.5049592010452250  0.2485479392324666
  0.6636873546359348  0.7523103606221243  0.0825510584906056
  0.6668747916976879  0.6667065929288913  0.6609614723861535
  0.1635297022529995  0.2493009969219312  0.9193187788588539
  0.6654487223362410  0.7553229599263431  0.7463958194061129
  0.2368690773979573  0.2500154003281615  0.8348902775572925
  0.7605323020038545  0.6679844261597389  0.7482731418110034
  0.9119341477188082  0.6650143688919713  0.4179235958654370
  0.2479273153523799  0.9907330132040714  0.2517400696159728
  0.1661627468829035  0.3329946260571813  0.6646058292787970
  0.9941720487961346  0.1699496149764137  0.6631274034762332
  0.4237385526468745  0.0040921315314971  0.9144556323167784
  0.1647269165188993  0.3323371096474997  0.8328379004963626
  0.7472019315755527  0.8358481847811954  0.9148244147098672
  0.7479686012675790  0.9143527277983196  0.3335619051634422
  0.7482704457203189  0.9126767197304062  0.5015802454747793
  0.1676226238185262  0.9131366877378849  0.9203923165340567
  0.8305265052830322  0.3334972364400499  0.6646174317104994
  0.8311127085124417  0.3328041276702818  0.1682360472874190
  0.0798233500333218  0.4957331972579662  0.7560259816482396
  0.4186416882124155  0.0027583267992422  0.5752281543843021
  0.4243771260506830  0.0801968061449663  0.1698397291604669
  0.2456740736176802  0.9142436811861213  0.6600619142167043
  0.9130776956080006  0.3364261300675284  0.4186747682139640
  0.6663125713660988  0.8349262343575892  0.3344281182510239
  0.0764993738563685  0.7566093317518477  0.6684935785387478
  0.3309177975283211  0.0899590477383622  0.9201424557573350
  0.9146080860153514  0.3315336631807385  0.7489572627589823
  0.8286292374997926  0.9994779282904271  0.1634267327790321
  0.3303358918246581  0.0867823589837616  0.7476941202379727
  0.3347815280447979  0.0035642479149198  0.6642781710517194
  0.8340263851759344  0.1631079695296804  0.8310025138107713
  0.4181479227231910  0.9955189979568211  0.4167528400507344
  0.8302736414155203  0.4185895774197351  0.5833691827604458
  0.2476869360855898  0.0826766085329268  0.1587270056047881
  0.8299225412852070  0.3348315545022543  0.5019677907327509
  0.9166068057583587  0.4176793279730319  0.3315863298003948
  0.4182351797612701  0.0820910628306530  0.3311446499774544
  0.9966015987770511  0.4979451341413101  0.8295556264910399
  0.1641914109320459  0.3364821249141019  0.1657828455269122
  0.3346607786173159  0.0822728181140125  0.0776721183627308
  0.9164033230607799  0.2433855881300067  0.0023400405619555
  0.3323906964870065  0.9148138854195094  0.2526951133684583
  0.6685108707812476  0.9160578059698935  0.9158929686964966
  0.9170298771224999  0.5011744432584890  0.2507396703264262
  0.2475326974875827  0.0071971030596365  0.7498482066858068
  0.9196127957756525  0.4207282399730963  0.9997107686724592
  0.2448690480243625  0.5789109951152163  0.6671775625733598
  0.8292626428125743  0.3288511916970756  0.9987325842628163
  0.1627184847600791  0.5869642467406363  0.9159218421413661
  0.8274896663899134  0.1663233186173262  0.3343268844651668
  0.2486832271209082  0.8296184890433438  0.7518289722596400
  0.8338186504053277  0.0813981691515301  0.0818619994411862
  0.9174237527762714  0.4167343951392787  0.1737120188173460
  0.9955486830336909  0.2505524668047990  0.5813601799944641
  0.2483179434786468  0.7500847597177098  0.0062760661280122
  0.2527769153243729  0.4976013356112394  0.9165799466755676
  0.9976424776990577  0.1673434846243108  0.5023332507661956
  0.8317491489305761  0.9914753015566735  0.3342771576795395
  0.6652966790863438  0.7507680298322648  0.5879295360249162
  0.4157877197371102  0.8331655289580976  0.4100461081771485
  0.8321897391564141  0.1669765586015340  0.5027845597609446
  0.8294307048374981  0.1632996596361278  0.1630452355743806
  0.9149254757538960  0.9981642531919396  0.5830863306875403
  0.9129976905115003  0.0849052681733497  0.8315986521727546
  0.8310978968535888  0.2470000431936316  0.0829158138248041
  0.8308156281678815  0.1639093932794667  0.0003975019061862
  0.0010926481216715  0.1640134903858297  0.3373169022845735
  0.5116845584036231  0.6671111664983760  0.6656447861369927
  0.2483598509392619  0.7485679195513131  0.8313317738891235
  0.8312865065408307  0.9983633265663592  0.6660487871253284
  0.8324539735359711  0.0838733354474421  0.7481243177773622
  0.5768053199287232  0.0736718985063800  0.0800720950980794
  0.4107925092561842  0.5839349115096578  0.0799231146503001
  0.9130660939184444  0.1660872456398792  0.3367904373318392
  0.7489396837027376  0.9981498850770905  0.5020407886385495
  0.5798727763272266  0.2491496620112552  0.0828537039219288
  0.0810133421856885  0.1719416176469653  0.6648250989020834
  0.3369997394972534  0.0835271141327090  0.1659301162740098
  0.4238662387367544  0.0049099226920181  0.6625549590784946
  0.3314386114089763  0.5744093160577383  0.6676765491248869
  0.5790416708870494  0.1629964694995343  0.1717699999542343
  0.0006150973486045  0.7478346510604934  0.3322039825827476
  0.9979673561834360  0.2531775632068190  0.3336694651523412
  0.3306978610001213  0.7495355002009699  0.1691090522384016
  0.1678564146058927  0.2522849444970975  0.3384939458332726
  0.0003874850546528  0.1650547176022958  0.2477996613857665
  0.0798022298936110  0.9136711713766812  0.9176668009347835
  0.6662525987983214  0.1682364695869872  0.4193266686781313
  0.4131098999884040  0.4170154250135792  0.2495205686607972
  0.2480075897061652  0.0049904767830286  0.6596380084486296
  0.6649551721365831  0.2466965844369548  0.9931058945990253
  0.5771373097770547  0.3388429160646440  0.9949352166344994
  0.3247878056639721  0.2465791279101511  0.8326081250178126
  0.8300260416952028  0.4168579447055393  0.9942751197765167
  0.5858801351592020  0.2474165117794688  0.7459174385792579
  0.0752572708266533  0.0035893239793856  0.8340415297034257
  0.6670191392230763  0.7492323266915589  0.4994901445672832
  0.0808690770371550  0.9965610276900571  0.3354337274758832
  0.2481160608247407  0.7474920057236321  0.9188559724408411
  0.0736148807497611  0.9979493419110920  0.6598282897669284
  0.0850516132665364  0.4932461491545877  0.6668909942982485
  0.2465172265345423  0.9185549080961530  0.7507695185427766
  0.9208496119925206  0.4211708883517337  0.0881558681319040
  0.4163451727975055  0.0838036664892932  0.4177685797592736
  0.0817461547519786  0.5800928863779761  0.4186398059493858
  0.4135048525884784  0.4105693366048484  0.0748006639202921
  0.8288942080740128  0.5864049018343518  0.9946365978325057
  0.2528724850978944  0.2522920684873544  0.2498411839992163
  0.0025381840872990  0.5850762952038862  0.9989816546688823
  0.9934865077313593  0.5830613792734662  0.6625528347255776
  0.4251950656668897  0.6661633734582730  0.6666599270186864
  0.3359518362151914  0.0030031189524567  0.9163604388791070
  0.4974647289892048  0.2472166507567078  0.8339614117385112
  0.4137293289816951  0.4155625196353582  0.4232797889775232
  0.5809709663541123  0.5888406446634438  0.4176969683474345
  0.5836094776297079  0.5021033747306530  0.8282561441695337
  0.4209480185287161  0.9144240360764445  0.9175922538099736
  0.4119538500498726  0.4159734379933326  0.7491063184627342
  0.9191004228178368  0.3302979026461982  0.9939402085805893
  0.5805515273909926  0.4974409475511147  0.3307487773235572
  0.5827735918959014  0.4958222738568507  0.5085094745006050
  0.8346438268658584  0.6690838681791884  0.0831139092810977
  0.2456056519535633  0.6678252991765335  0.6688131603066284
  0.9932697449420875  0.9167628006143969  0.0032162535626273
  0.2468644103315707  0.5825012075964958  0.2512690648936847
  0.1618898243053080  0.0027229584481292  0.9204466786585005
  0.4172219828622035  0.8347167331803792  0.4957677933278905
  0.7498732907836508  0.5016389985921590  0.1677529040779493
  0.4213064622812249  0.7539515925763869  0.0822561300768513
  0.6711923996349330  0.6674444964576108  0.7493312480916441
  0.0757034088808612  0.6702391421572658  0.6726048360589296
  0.5837724082506750  0.5843066343368807  0.0835159252307421
  0.0792840531997810  0.7547703296292403  0.5800198321984750
  0.3376703847049491  0.8342972906900816  0.7521949860083161
  0.1659801325414351  0.5000805959161927  0.9170335211193451
  0.3342842180678205  0.7555800957320884  0.6597473186640322
  0.6658322083876457  0.2512294197776750  0.1729527315790869
  0.8285266882390685  0.0782150057959363  0.3353022172238453
  0.2455139142796221  0.0777024287270077  0.2502007776630926
  0.8312322037695321  0.7514751433324511  0.1718025309626182
  0.9962551525231232  0.5835788952332334  0.7518796956173950
  0.1654143030276213  0.4984464807611410  0.8289315187443437
  0.9152175981396563  0.4152305054764251  0.8308401799796300
  0.9979761513559513  0.5842213395422419  0.9101204791945111
  0.0782875932931452  0.4973407777446355  0.9131289061315352
  0.0796461003044950  0.5829492068419379  0.8327429697689918
  0.9949118253061388  0.3331660188142348  0.6651085558276494
  0.0827980991748695  0.6684152310561189  0.0841976074383156
  0.1628853871677250  0.6662489705704975  0.8333808404244392
  0.0822242199405999  0.7492991797813642  0.0010214142591274
  0.2476661994663828  0.6602108452819071  0.9164816523769633
  0.5028225371078101  0.0000543933320457  0.4993437531054539
  0.5853539470592760  0.0005637137532211  0.5824267690693651
  0.9955361835579480  0.4966469292942234  0.5003242269814885
  0.0003956659759369  0.7512122808340448  0.0847839371720763
  0.0828986413118605  0.5827851231778026  0.3308333557838553
  0.0823676625375714  0.8314192874129722  0.0859468046496897
  0.5829318963794659  0.9984446538586761  0.4161604308526661
  0.0003260127672649  0.7506235688401938  0.2461049045606813
  0.0804824491951291  0.6680242384853340  0.9146911097623561
  0.9991047313687091  0.4155103911863622  0.9144392221531817
  0.0811637040471991  0.3318065956844271  0.7504185336939064
  0.0023402855391858  0.5849151795207641  0.0874036654118788
  0.4199546055737123  0.9190928667795225  0.8281354143156923
  0.0886138923839689  0.5846479487703676  0.0004080355689731
  0.5822413299326937  0.9974301970641755  0.2521204406253003
  0.9162108343490013  0.5827316654715607  0.3340990011951773
  0.5047879420548141  0.0831622303870615  0.4185792769407916
  0.0837945748176470  0.5837866396141242  0.1668865914008214
  0.5034906615930574  0.0009925411370300  0.8310192529296848
  0.9966512440627925  0.9144990953469487  0.4167395937410543
  0.4162431012969597  0.1632839351914488  0.9170468630320243
  0.9981063965134264  0.8291094035798919  0.9996271402747989
  0.5843260260933116  0.9985126629321871  0.9145407332467020
  0.5853021210142170  0.0807468513207865  0.8324741333837401
  0.4162930627114436  0.9158336408601232  0.3345679265266126
  0.4209050141771486  0.8350128049862260  0.5836531525257658
  0.4173840869225904  0.9218803099219648  0.4992161070179670
  0.3349135483891245  0.8429921418438825  0.6600827380719556
  0.5043669852230034  0.8346992667015498  0.6643885253183278
  0.3323102004389245  0.9192516917279494  0.5794760290598464
  0.3345293850726851  0.8320463092989360  0.8395739598541663
  0.4171257812789557  0.8397721874440685  0.0856576873494693
  0.5857437532190616  0.9998758183771324  0.7494306641812946
  0.4979383563329201  0.1633821003058745  0.9973612198175328
  0.4998988231562411  0.9981248715441382  0.3340328155007106
  0.5857489127588409  0.0830334081634713  0.6651700183916303
  0.4182994427550021  0.9155532031449450  0.0052916031927134
  0.4179441686741813  0.9969805552777877  0.2523429910996451
  0.4161495066025275  0.8347857791677077  0.2532080269312337
  0.4173383797088204  0.9154131319528768  0.1695198518370033
  0.3306204348219282  0.8342439457737777  0.3343236458126705
  0.3318364601413821  0.9186111753420911  0.4164178581089126
  0.3294590848718081  0.8357829247339340  0.4976633063423094
  0.9983606855617090  0.8356324383138126  0.3340980356991778
  0.5832398846909942  0.0837724964185146  0.5011911878726474
  0.0819140501464777  0.9158337678313020  0.1670375887352977
  0.0830751040430688  0.6664181977372230  0.2505511391948992
  0.0017439257484849  0.6667039924860176  0.1683328145764131
  0.0810973148234728  0.3321179842482393  0.9171302816501226
  0.0840963487338564  0.4999403546476477  0.0839164176748781
  0.0016370373048615  0.5018494243438631  0.1685147629739155
  0.0824952774640633  0.5000877378616084  0.2498824131176055
  0.9938339667448121  0.5820349101914309  0.4189467031338332
  0.9996845493273624  0.5013139108409140  0.3329620137022903
  0.5022009132967848  0.0835474515948119  0.7470265066455617
  0.9949997437621907  0.7507501788548516  0.4194929066297852
  0.9901570242574171  0.7519807050015216  0.5804991211820487
  0.9864418257890472  0.6725570778660974  0.6666566210784721
  0.1627840253652418  0.8338571168781392  0.6657191929258791
  0.9970268147584722  0.7501188138434250  0.9153619070690414
  0.2475868483577971  0.8347598618960905  0.5799456322968879
  0.0821895564313351  0.8342051777797896  0.2497163440220955
  0.4938316549888100  0.2500432221135732  0.0823192370731119
  0.9981510136990729  0.2484536792822389  0.9156594449973491
  0.0064561751420675  0.4175033375145505  0.0830820530869310
  0.0806598457495098  0.3376568486759909  0.4180603437146066
  0.9998235108420209  0.3337864172015866  0.1675065241641534
  0.9961550938468863  0.3356911575666783  0.4997135233572030
  0.9994527126794590  0.3395747992665781  0.3326433586019386
  0.0801280006423111  0.4158161904278226  0.5000983023868925
  0.0817750384144467  0.4182256573331863  0.3326944167587712
  0.9182732489839006  0.0770201039532314  0.3339448202652359
  0.0804520043688052  0.3335673317185163  0.5802859531989282
  0.0869936088781571  0.1665613048872200  0.2496074823523660
  0.0830745216092056  0.3332685189323144  0.0839643851259112
  0.0802527188192535  0.1663243782997812  0.4207428814386063
  0.0832087783653410  0.2515090882258974  0.1651577392895032
  0.0833574848307115  0.4155949793754024  0.9994585106979524
  0.9968976668565549  0.0817324940213380  0.0846582170915514
  0.0833764240156870  0.4169913415240781  0.1669148628275519
  0.0806140606530968  0.0004503285764725  0.0855527155789011
  0.9969133427033424  0.2504277805582997  0.7489866533954037
  0.9130816503437507  0.2506096946062448  0.6650938685144712
  0.1659017493024022  0.4983557744061633  0.4998513988975414
  0.3311932451820037  0.5014056384374893  0.3338681606747516
  0.9935602202562097  0.8335962101047287  0.6669044475844638
  0.4129963982314760  0.5036283373866486  0.4183323522414340
  0.9954213898919773  0.8335489854535518  0.4973810177146064
  0.2460196194032368  0.5831674531617056  0.1637704500673448
  0.9142344328048815  0.1667443326469503  0.5828468833517267
  0.0820897525654986  0.6687150810562693  0.4167387021433787
  0.0796780286333509  0.2539713446519336  0.4990149498368960
  0.2489767282277279  0.5839980692603937  0.3384955778918490
  0.0802920363892771  0.1689869185053420  0.7529043932721925
  0.0790186388562810  0.8319116771657411  0.7509307990754733
  0.1652310397487944  0.4990267931472060  0.3351872771923199
  0.0799409037418633  0.9155934748907133  0.4968418718865252
  0.2481245451755855  0.5001622093020820  0.4178333197266313
  0.0832125040481491  0.2527869243471809  0.3360028141434624
  0.9152570860281047  0.1681591927003447  0.7477021093155150
  0.0792971878712148  0.0850816061246781  0.0028043869399678
  0.0817316074365303  0.9978102388502612  0.2470352888015057
  0.0809471150474623  0.4127357213550895  0.8332451462336543
  0.5009485898314564  0.2499242442644106  0.5839986591799808
  0.0866943006767676  0.7516216575421252  0.3346874190648979
  0.4176693094329864  0.1669551908909649  0.2528530564705572
  0.0811451712138561  0.6644375831399444  0.5795423521185339
  0.4965945417862931  0.2507838275055868  0.2548429624983884
  0.9934066131791679  0.7513853829991003  0.7507617976901650
  0.5809172153290784  0.1656692932280076  0.2584530900439296
  0.9946051533692476  0.6684790613068945  0.8320468721813139
  0.5744354822165959  0.2545488411190837  0.1731486693001813
  0.0827676551211354  0.7503786836746542  0.1675916724037291
  0.4987850246279822  0.1667338626628053  0.3360199881688810
  0.9986892692935364  0.9156535142571035  0.0895368658004514
  0.4999157392263447  0.2514320549927068  0.4196268969852581
  0.0832025278286578  0.9149240561241766  0.0074218679811134
  0.5814599037992080  0.2506075591052991  0.3362127614007623
  0.9992609935637699  0.0776868287541534  0.2489115819234483
  0.1633935858667574  0.7518326883219758  0.7517869651960493
  0.0830218501816903  0.3349536457732418  0.2481389583871541
  0.0783216417502156  0.0907019787614598  0.8338044316418389
  0.9963585701789436  0.0829561478685837  0.4199793415976118
  0.0812515771018892  0.1675251116295698  0.0835687775047248
  0.0828303575009050  0.0843677186472596  0.3371312060601134
  0.9993161881425343  0.1644071148678951  0.1620366336401491
  0.9960746071053850  0.0835389657142124  0.5811442412675775
  0.9137662715310778  0.9154031725375078  0.4995449828762445
  0.0789231639242140  0.0855236264321938  0.6626056603931055
  0.7514894276822782  0.5004390059906493  0.7499738635762914
  0.9943106171061794  0.0856418752781055  0.9172366092974608
  0.1614051917942390  0.5837552231659863  0.2501889419759443
  0.9982032396329117  0.1665059022782137  0.0020027899256258
  0.0801150050888961  0.0835488969513407  0.4998957688743199
  0.0813718328759165  0.2495321653872236  0.0010743784323795
  0.9945759204151211  0.0854102768772646  0.7482942351321051
  0.9989790936241040  0.3305184556602088  0.8319282822813981
  0.0810612783009614  0.2587400495612032  0.6646518792942416
  0.5810904509681248  0.5007396610007754  0.2449878721377295
  0.5004397262216460  0.9954839036851906  0.1685639731415492
  0.3324047464402438  0.1673066732059031  0.0011572332529379
  0.4134875782599363  0.3263691977982840  0.0829912539041991
  0.4175615009590087  0.0817566036208811  0.9993362118187360
  0.3325861931373902  0.5838318200738305  0.7558091421368804
  0.3367618390402990  0.7484400650199501  0.9174644838546707
  0.5001120134097328  0.5821897978697010  0.5838110357853090
  0.3321910988360015  0.3330864724248814  0.3354597148483750
  0.3316266757641501  0.5830098948770844  0.9150924414181657