Cr  N Ni 
 1.0000000000000000
    21.1250329189096107    0.0000000000000000    0.0000000000000000
     0.0000000000000000   21.1250329189096107    0.0000000000000000
     0.0000000000000000    0.0000000000000000   21.1250329189096107
 Cr  N   Ni 
 259  69 605
Direct
  0.2445071877837783  0.9171745714600728  0.1691472569424410
  0.8303990668136727  0.3325304117885877  0.8281556096010649
  0.4170758775917750  0.5857474737581577  0.8350784458986721
  0.5814775517596796  0.3326274117232949  0.5841487158443227
  0.4171766097029018  0.5833422771679991  0.6667929367032266
  0.2526799370291185  0.6707678744153477  0.7535100067042448
  0.5771974135768922  0.5836658884247005  0.3259860823664595
  0.4164542829672834  0.6675337970204367  0.4161527337909065
  0.3351555943323618  0.5040835203889636  0.9999605266387560
  0.5097235516776021  0.6675316017382020  0.6681048575201181
  0.4881305022228565  0.9152958214985073  0.0829381087425145
  0.0034384291291052  0.1650640366088391  0.9987506741280847
  0.0020723855919239  0.0711761477634763  0.0850245119213574
  0.4953329273634062  0.7461070481573281  0.0833949419577833
  0.5723705194089568  0.9144881601955442  0.1694216461988596
  0.6614555647411445  0.7479758767849908  0.0811285705112743
  0.6623102195373617  0.7524852639826676  0.2517944988808605
  0.9156962380782735  0.3327710884279903  0.0886372743201351
  0.6648960344700562  0.9144174130418076  0.0767643585241710
  0.4163590399164753  0.8258068872327694  0.9179545359599276
  0.0762787819860331  0.9977758488420251  0.5749778189243580
  0.6597419304335321  0.0829566866458865  0.2500851400127144
  0.4881865270852866  0.5846747750558221  0.4168887322480060
  0.1672032838963809  0.9985027150917120  0.8312944529871621
  0.6684581879074816  0.4155801321801234  0.4173124001025834
  0.9898475818109151  0.9964345184061218  0.8319840286036679
  0.9870134920918325  0.9976116429145651  0.6668800564539975
  0.4983560150674498  0.8344986977441334  0.4978491485277645
  0.5782158114237004  0.5861606277758800  0.1677516090084496
  0.4148061398628140  0.9159303773566710  0.8302017464041000
  0.4992675644382971  0.8346978547646650  0.6675224261051574
  0.0802298802120103  0.9952825610689816  0.9225044471282933
  0.6656289279466171  0.2476516066515280  0.7497925242613120
  0.6629852704827325  0.2452145077766789  0.4215146048700834
  0.7449218561430608  0.0831396497668742  0.1643959601761632
  0.4945334230064646  0.4233436908481008  0.2504804633575838
  0.0839800550918736  0.1668830440799799  0.9083832338260007
  0.6606060738740327  0.0805446595120893  0.0736795703872099
  0.1702164028822397  0.9093052342871023  0.9210961504383340
  0.0889604092037319  0.4190380739901295  0.8298685980278803
  0.5744466022633561  0.2490301367016876  0.8346739356765951
  0.6640667894813718  0.1663867981666142  0.5032570526634833
  0.0068419191438230  0.3338118512522503  0.0002270841596737
  0.6584019395588850  0.4281065358217195  0.9154373994972240
  0.4895647285201504  0.2512319402665534  0.7471605663014581
  0.0008529844233670  0.3356540681789599  0.3248859093127078
  0.4151405401533275  0.1669538099910183  0.5830094704933583
  0.4218612966988374  0.2505847934866047  0.8321542328994085
  0.6596972141060579  0.0820425719339149  0.9134481231965799
  0.7453050536517219  0.9966988889430876  0.0737274019525762
  0.0017538710813800  0.2480522398768865  0.0889130445778294
  0.9139418673802098  0.1640812408789057  0.0843827610573782
  0.1686929694269955  0.4196833112040731  0.9112444796740564
  0.9159592746308918  0.4169782849922022  0.5023489222140292
  0.6594766674695490  0.1572664856599358  0.9948366905810085
  0.5824389926157671  0.4135401678945572  0.5081561327812942
  0.5661608020687746  0.2506557537287146  0.9995230077943266
  0.9970069976292253  0.3385603331149987  0.5033786203963098
  0.6600520107721225  0.9956620559895749  0.1692509345231703
  0.6626885919899409  0.3363954082481327  0.8229546372004206
  0.3349150771864344  0.2494542139334888  0.9227692448469579
  0.9904607328188647  0.1638119078728657  0.6648017526728101
  0.9181357393585206  0.4168386353710812  0.6648824152273760
  0.6582723087146296  0.2464718518321396  0.2514477199015939
  0.5085626680710384  0.9990694067754152  0.6670082111836786
  0.7553625690508358  0.7521255708773031  0.5013205278288080
  0.2519593901993397  0.7508538461801364  0.1645606608552915
  0.5702524796751852  0.0839258928033197  0.3357548053836866
  0.2503146426384559  0.0017412553827000  0.2517619983903546
  0.5764043602581637  0.0838212038728226  0.9984250373887322
  0.0011889551084258  0.6679289902284403  0.0090716625498836
  0.0004605503776379  0.4238727328325492  0.9224290041673994
  0.5670771081639168  0.0837512041004767  0.1670255293430756
  0.6594432516808764  0.2492412503761112  0.9039998050237730
  0.4141529330842366  0.6655188223202341  0.2507623614609630
  0.9990886466736795  0.3312768467293797  0.8252691728338196
  0.0869453794452661  0.6624808158236568  0.9201488263558522
  0.7422969494028159  0.2483644032105876  0.9940579165747362
  0.4937774271018876  0.0832135962200306  0.0825883665561380
  0.3327698488073385  0.8325430922797261  0.6656124050356481
  0.9950491449406578  0.7545686141162197  0.9162970939983229
  0.3244547156483214  0.9153998975503534  0.9173340254521186
  0.4163421647908635  0.9070411898664450  0.6665819733917443
  0.3341670810139493  0.8279326363974540  0.1657531685136542
  0.2503366731263458  0.7591967316763667  0.6632607028596803
  0.4138987445745194  0.9142523330403298  0.0054140078163660
  0.6646059324277399  0.4157588652682360  0.5860857206712179
  0.7449609640818120  0.3392665326348016  0.0839913368304002
  0.1655061991852276  0.7547431318406985  0.5763296672111250
  0.9167800483727259  0.5108446338915561  0.0830512217281434
  0.9972096066864203  0.3335183296847429  0.6653839673684998
  0.8255580740559123  0.4140921810359058  0.4118579417771667
  0.0833820660634209  0.5823015982742303  0.6615034948115452
  0.7456051202350087  0.2464477212117801  0.6678426016669345
  0.0828167872049821  0.4996274657049723  0.5762468564983905
  0.6558540803074783  0.3398105603475636  0.0013514304731253
  0.4177306938355380  0.6682927039805402  0.7564705239243198
  0.9111339175022589  0.3314387508011730  0.9070818593299055
  0.9158820689726667  0.9150043237015687  0.0000694406344881
  0.2495093398532817  0.6699492876521151  0.5741177614125532
  0.0814080860806612  0.7525101377341616  0.4980441367506638
  0.1678972412469477  0.9144419278064680  0.0847254819676487
  0.2508343509406575  0.5823835117108529  0.4987076259831804
  0.9990577311084861  0.8378763117109381  0.3346567935166908
  0.4158012694523489  0.0860637226457471  0.6676119844592504
  0.0839166725767459  0.6654207184985121  0.7544278188171860
  0.6638971144637015  0.0804961040471172  0.7484395017367742
  0.9109736738706042  0.8343615402870810  0.5817764120985083
  0.4163772852754716  0.7616767488858520  0.6653833058915657
  0.7469696268282893  0.9174596599737141  0.6675387743219948
  0.0014925284747881  0.6610726805084682  0.3356589035759439
  0.5816968067914280  0.2481319786919128  0.6587347605369570
  0.0033210516542692  0.4251087557742021  0.4140743582193917
  0.7389156488601157  0.3289673894581150  0.2612572438509452
  0.7509441362822447  0.9059857899763325  0.1665560150374977
  0.4151177165984307  0.6686906787857138  0.5768210551041930
  0.4964534826829950  0.0010772335890662  0.5013545275154518
  0.7414438453467608  0.4192695065152682  0.1635654579406596
  0.6577977874781951  0.4202771855723776  0.0823929112806415
  0.9110168970011111  0.8338573272039748  0.7496307569303925
  0.7472402354401543  0.0027935850625941  0.9139195307967929
  0.7443422283074925  0.5060885378748449  0.0790281207736325
  0.8295954356774790  0.5816606056976350  0.0780876848579784
  0.6583729217482079  0.9961085030058866  0.3327580598574394
  0.7437476116107112  0.5041177684977181  0.9133844309131823
  0.9909738148428079  0.7574933259148573  0.7512748959535295
  0.0028918212150417  0.7502305412021967  0.2455718458587318
  0.2504395173992853  0.5828571678444143  0.3366456925848439
  0.7460392997737753  0.5010642202003970  0.2570066861562277
  0.6557488131752159  0.2520626309581974  0.0859679874753133
  0.9192008703653675  0.5899674959405896  0.3362630423503466
  0.8258509508064904  0.4166226255325671  0.5853404010661514
  0.0801152552632965  0.8318259442082837  0.5780652147040791
  0.9884573355620582  0.6675496243919549  0.6608278769989185
  0.8268630976443407  0.6695358516878125  0.8352069706504877
  0.0855833438547567  0.7547260636502368  0.8356862362705955
  0.8306070407436924  0.6760982715979665  0.6665689620738534
  0.1691110742961647  0.9979215253787207  0.0096341121736810
  0.3360438707182319  0.6692377750815436  0.6649828220286316
  0.7439542019120196  0.5936463292275569  0.1678235111244963
  0.2503238170481973  0.5833556122225484  0.1672504960296481
  0.3308529224597196  0.2447466972600086  0.2515769251106986
  0.5776870295425038  0.5030625568108104  0.9160033026889132
  0.4139128920030098  0.4110856349386112  0.6641731645474961
  0.6656761893961816  0.6693731220738884  0.5017063266258845
  0.2512606183037888  0.0843454830999692  0.4918029349769643
  0.8333462874532306  0.6760169040446213  0.1696946912067348
  0.9968050297584998  0.7506295724153030  0.4229567785265761
  0.7493259029003437  0.9064412320715308  0.3341340173422420
  0.1617929923167304  0.9950717734726868  0.6671411085826165
  0.1675897928005375  0.1660897051560878  0.4923601141694592
  0.0854966018910171  0.5849453052314398  0.1675867169764446
  0.6660734123695247  0.5824840178396413  0.4134649089322119
  0.1695817947048194  0.3367791380966106  0.4980298920469159
  0.8323629203755704  0.6709496638558869  0.3343558301791270
  0.0804861439292859  0.9973952974473167  0.4200865598798549
  0.2526931707215735  0.9955018349754982  0.5766477689064301
  0.4925301099773342  0.4163913615602433  0.4188005218072316
  0.7412085672200346  0.5851833023349079  0.6704658392558098
  0.2507507904697650  0.0812757667899192  0.1702567553468350
  0.5765325163679553  0.5838656688322721  0.5031562341875222
  0.0809281724528561  0.8410528791746454  0.7508924327604107
  0.1700084703162413  0.5067967762978909  0.0016523345381353
  0.3348447609056854  0.2515584140775609  0.7457833454595569
  0.4157363645044442  0.3336927107917235  0.2533650714246363
  0.3354465991036059  0.3356624655377916  0.9922208508713600
  0.5891788185662197  0.3323565019514055  0.2528134597396444
  0.0896307511905006  0.3360059885737493  0.2531831964694732
  0.7497841255077837  0.9925060264023627  0.2501454276515190
  0.4131919343581051  0.0829576233060923  0.0004588967972955
  0.8328051517831870  0.7576153992528561  0.0813644020762569
  0.6549833380913143  0.3348342275218428  0.1648101801398205
  0.8293573835319499  0.6689127101174028  0.9925670223694339
  0.2586653386722138  0.0008052079363581  0.9179689518594281
  0.3308555172989551  0.4229743453626462  0.2507063231637394
  0.3319581170351201  0.3340468403946860  0.1658199005965977
  0.5811693741922452  0.5855660565864143  0.6679195264574886
  0.9939662718653794  0.9948879249528454  0.3328904552904731
  0.6635765165219440  0.7515996986873726  0.7506728879196490
  0.9170493954729254  0.5826679295857361  0.6637858145381406
  0.6612027597050858  0.8191144454383382  0.1664720109538192
  0.5810955106416139  0.9149939193532831  0.8325337913804879
  0.0915967233191022  0.1662923794018927  0.0867217397258308
  0.5793441382092380  0.9142974741716907  0.9928990916883603
  0.2462489120130738  0.2517360059219499  0.8328625090677554
  0.1681701251333311  0.5030688081878253  0.3345417428436717
  0.7378355860386545  0.4140902647828577  0.5013429622199809
  0.0878673710642779  0.1673093437590410  0.4142191648674449
  0.3314741371633536  0.2521291131085256  0.5815578879640184
  0.0864916211319719  0.6670030481582111  0.0842468742027771
  0.4955188535157356  0.3347209074755306  0.1628303693315871
  0.2538569708387737  0.1732933962112467  0.5831370166610929
  0.6616484725622485  0.1746522321357772  0.3380684836907411
  0.2516365623790603  0.0840025561016863  0.6703818227535061
  0.0946540687999118  0.3324654623743955  0.0873012049957219
  0.1784374477942461  0.1663103072195950  0.0011025403621521
  0.8365558289829226  0.2469656784866838  0.0859110053711832
  0.8267900094846630  0.5018002515194396  0.6650219016175295
  0.6642604827508455  0.7525283956237293  0.5906987754505948
  0.3317382394138738  0.8335267445810995  0.4955204126232188
  0.1677993291125598  0.3364146303676775  0.3332534668910875
  0.3332251771987112  0.8333245704364333  0.3354748349829402
  0.7470447604731969  0.2463514860843930  0.3364160571437311
  0.0054687939343706  0.4246487924569857  0.0864693904553817
  0.3342486762454635  0.0044368886874441  0.1701336761530403
  0.9998081265581545  0.5066196431788278  0.8309354643269566
  0.4130653168096558  0.0040828420531538  0.9155465212778902
  0.3320857578780689  0.9995725715628070  0.8327292136683946
  0.8299121385937317  0.4201860134540347  0.7587525866683477
  0.6639810736980244  0.9984143766730358  0.5027110067502562
  0.3326226923279142  0.0839761025898159  0.7488350458211697
  0.3354068478421502  0.9982201432772188  0.6707069085306954
  0.9119634038047855  0.2475168025608810  0.6670907715296951
  0.8335352955853784  0.2496367980916531  0.9022382928926935
  0.9139192887002652  0.4270914138570986  0.9944088589686343
  0.4166970736704214  0.9980397338463224  0.5737164179169966
  0.9189932279184834  0.9110370803113101  0.1671642961411598
  0.8294497498965628  0.3351183587033485  0.9939643838804793
  0.9107171521088459  0.3291417222881395  0.4160702558407633
  0.4957624850647068  0.2476914185275014  0.4209179507179618
  0.9190212815486416  0.4157394823949898  0.3245178012513137
  0.2516456647984268  0.4937564378048897  0.7506924745907194
  0.1711998591537154  0.3360512376052299  0.6668267228835635
  0.8354910836408598  0.4984551555235656  0.1684432655142827
  0.6648005414346816  0.8437566688903788  0.5023302035429760
  0.9227448169170751  0.5854354576785132  0.1673107994725357
  0.1670476028356690  0.3316765003459535  0.0005432868420841
  0.8387157314373908  0.0813917678582966  0.2529496094695733
  0.9201356633782808  0.2481463393705326  0.9995128552333704
  0.0796300391413116  0.7566511090159463  0.6574603558167058
  0.9952337623175047  0.2515683078816147  0.5938834142111920
  0.0843396096669293  0.9968362525427751  0.2455936226020423
  0.7472551313687926  0.9127329261508087  0.0039109484185235
  0.6636258233309243  0.7571380507233407  0.4130005313434408
  0.2515337182480511  0.9051389203760575  0.6662482581997513
  0.9944621815662572  0.1622645949644825  0.5022201248522410
  0.2495163873391542  0.5805220984207133  0.6619801263459827
  0.7452499737501719  0.8279578971941841  0.9156045684128290
  0.2524648155235519  0.5845587969391742  0.8397460645572665
  0.0003744244755560  0.2501905624060550  0.4167790519838214
  0.0835724868069327  0.7489564098433613  0.0100809071281981
  0.6624113865591310  0.6683659560487114  0.8338144214531988
  0.8330607034741013  0.0787632197705370  0.0776057218804485
  0.0846900440548254  0.5010068296448663  0.7518971671650324
  0.4150618959279448  0.6657652106757941  0.0844789656992265
  0.4958593312302396  0.8329210269307710  0.3331816306811012
  0.1612696574935584  0.7490628167410794  0.2502425979929467
  0.7484665908423201  0.0827839263671494  0.3421676226990258
  0.3329741486240891  0.7488695940201578  0.9180575219591419
  0.8299349347735986  0.1553109499274855  0.9944319812356143
  0.4980027702997553  0.6667208286550352  0.8332652596668426
  0.0004401520501468  0.1648270325056484  0.3252423564954222
  0.9081452948998611  0.1645790865057420  0.4173977185540912
  0.0846504822796212  0.1680085858157377  0.7562842600532850
  0.9130714627296519  0.9153252447584120  0.8332555949258270
  0.8308622826057530  0.9983885891014265  0.5026146952445950
  0.8301609922819173  0.0800219053091853  0.7479410875276770
  0.7471034842819188  0.2456568950432627  0.1715713072404022
  0.7479068169448643  0.1706711629144797  0.2529332573413635
  0.6579721794271920  0.3399171523624788  0.9094040099712397
  0.9969690120492710  0.6650310920977021  0.9223708642681824
  0.3281149996595053  0.3338747627407528  0.2552702956471296
  0.9182072310570850  0.3386747104691188  0.9976672664184330
  0.7468316269808499  0.3333182273419814  0.1751343993862968
  0.4140242604491717  0.9149090652745653  0.9177344200629830
  0.8292349973746388  0.5898536166110815  0.6670361406905947
  0.7502095411120637  0.0841043062082955  0.2540434517889210
  0.0037521157674002  0.3376331461691994  0.4128860863849908
  0.7490398316627060  0.9923323079690392  0.3404196756840085
  0.0004010726217983  0.7501249659324623  0.3342264888018813
  0.6615868859274419  0.9057043411806562  0.1680456633082258
  0.8307759912476342  0.2446341139809492  0.9917196885440883
  0.5034097338645052  0.3335381487070587  0.2514306904566312
  0.0073333991699734  0.3361844568077969  0.0924606148772116
  0.6574665964214809  0.0854556008309793  0.3407112296816451
  0.5803771427818499  0.4121613888897039  0.4188909945014769
  0.8344506909640051  0.4951876818069734  0.2568058010368112
  0.8343922987982153  0.5879567893281774  0.1693914854213431
  0.9929939799367977  0.6685269056313420  0.7493462209193293
  0.5775859674314225  0.2495949307988236  0.7466984178581265
  0.6517119348853619  0.2463836349601864  0.9946096457526228
  0.2501150489186879  0.5811171774516571  0.7517077257651404
  0.3338052359687596  0.2524797886164075  0.8340677034711895
  0.9999554025337968  0.4201218828362418  0.8317808060598211
  0.0830008631976123  0.9979483285321521  0.3329306169344905
  0.0861281545134396  0.7525093206056718  0.9236865471240174
  0.0725448249565097  0.9959697064597106  0.6635867177203081
  0.0825654178757637  0.4949082426935049  0.6639449279097251
  0.6665458294397344  0.6707066539826784  0.4115937319423726
  0.6646169389308791  0.7584203581620725  0.5029822150849220
  0.5747199516616451  0.9129619897235756  0.0795746374250016
  0.1656743299953017  0.1735149796948387  0.5784729219646781
  0.9980717543698593  0.2498672082476717  0.5066815338216595
  0.8294515435097378  0.4129285849697329  0.6733755636598229
  0.2528201675766335  0.0850369803855562  0.5800106752558418
  0.9978112231178052  0.1600256850992225  0.4127085094695619
  0.3318044615633804  0.9159403512253573  0.1681919361828701
  0.7469735014950619  0.9154488363716199  0.9148185504779661
  0.4239238883106289  0.6732008508750744  0.6660719995252786
  0.6657484089191310  0.5816431591351910  0.5037158153919916
  0.9148888806505651  0.4245280855931493  0.0885524112486817
  0.0039032044462796  0.3323865212418428  0.9121350600277428
  0.5756010662150269  0.5856363005808283  0.4136315139088886
  0.7450361097593442  0.2467714191849803  0.0839961597731818
  0.8257294081277448  0.4175689424186146  0.4984927655284492
  0.4170046932687090  0.4965981762465538  0.6654223312608890
  0.9139500101403565  0.4221303867401656  0.4114401014315660
  0.4231146517209688  0.9967947329651877  0.6632427679133048
  0.0927545689554771  0.1633514527125637  0.9961821363716710
  0.0773750329678520  0.1697013740224610  0.6709427438581895
  0.2486757910686171  0.6706268473915225  0.6629454996127400
  0.6535898314727955  0.0852553826723764  0.1605378055436487
  0.8313759982049165  0.6713052652903132  0.0796854374948729
  0.1701238706646014  0.9990619153382839  0.9209643575755957
  0.2475923632690826  0.7483099631772375  0.2513029850192485
  0.0833522797107403  0.7553351696937557  0.7471090062427493
  0.7414020903634141  0.5064965733094028  0.1679195783969231
  0.7432655431967168  0.3410618360798322  0.9947336823528569
  0.7520732542315007  0.9933839687875236  0.1602453578688356
  0.0772234117857559  0.6689776402129735  0.6598722416579602
  0.0775942039905775  0.9979418406885265  0.8346684314979378
  0.0033439909022575  0.1582904743843201  0.0917284863655964
  0.1631782179226227  0.9939460886178438  0.5766777521640287
  0.3311774450106461  0.3337853967046506  0.0783711467929655
  0.8373602017601471  0.0831474623698115  0.1641176097920891
  0.1698145705561815  0.4190503723787623  0.0008862971654465
  0.2492649286302820  0.9935008905169385  0.6687817654700915
  0.9170847635873867  0.1576180235714639  0.9910702840616565
  0.2511682694597480  0.8307775475373905  0.9197362219939363
  0.4987994069590372  0.0829796130852080  0.5826682778448251
  0.9987145005971251  0.5009687761562521  0.5004536518831108
  0.9976588241305199  0.5812254449605849  0.7481665291737262
  0.1684713526718022  0.5022794018504644  0.8333700255487282
  0.9114794035379972  0.4200138039507228  0.8329803881882545
  0.9999907830656543  0.5783778056743020  0.9168817968419006
  0.2513289300466749  0.6662524430422809  0.9181802703865990
  0.6629184599307197  0.0828711418119085  0.4272222619885692
  0.0861235378852853  0.5025205105391118  0.9159905573658367
  0.9990943256908041  0.7510379023017204  0.0858663816985477
  0.0852235914703272  0.5835809238402371  0.8338843376181811
  0.0855586348346386  0.5048516287203321  0.2518752307701237
  0.0844022529508370  0.4097857116644909  0.6659138311055962
  0.1676616511494157  0.6670975334864430  0.8345758092998375
  0.0018895336741946  0.5864514062151092  0.2506784077332783
  0.5744440785135347  0.1665886789780157  0.0823515859742084
  0.0846712765015093  0.6658172404977689  0.2500686661726657
  0.0860075939200356  0.5838754050188361  0.0025850607487268
  0.5753643386996615  0.1664292903188122  0.2518723726772744
  0.0019139711455343  0.5055420522833010  0.3334965843946552
  0.4157113512744493  0.0837116283020671  0.3360541695471945
  0.1682538750838339  0.5835054161618427  0.4177324621561301
  0.4150378888837652  0.1670517113252002  0.4179991104649370
  0.9962479798970497  0.9156102841282298  0.4179027502114649
  0.4952825593809611  0.1677597454285282  0.3362707442832160
  0.9983591396919861  0.8330695344306336  0.0026960474608435
  0.4967115135575181  0.2493793530016712  0.5837122146710335
  0.0879603494091450  0.7503470478666389  0.3358984472204145
  0.9157557041032304  0.9132993395635363  0.3340237884507481
  0.0816826983423569  0.4220606003080254  0.0010624980376039
  0.5798499685872799  0.0819582886032359  0.5019780556936756
  0.0029759396559549  0.5841334703661354  0.0849143616818381
  0.0852478783076538  0.9147948696743943  0.1679756888687421
  0.0028100671998407  0.6671426880382532  0.1661954219884802
  0.3317717967359243  0.8312414574533227  0.8355160104229618
  0.5817508460051056  0.9982968899794267  0.7510282228076552
  0.4947028725526518  0.1644389968134627  0.9984932201615891
  0.4953516341097349  0.8296287682228786  0.1673152511528231
  0.5816608018523708  0.0822525822842224  0.6656762581046213
  0.3337990384976873  0.9157012930868627  0.0804847328892386
  0.4150157369829108  0.0009169092265402  0.2527314552374723
  0.4147905224809503  0.8323414513480807  0.2523244780203872
  0.4957223525509901  0.9159834607487124  0.2528567596556704
  0.4152100942925867  0.8340576931385065  0.4157711215347243
  0.3333597991771866  0.9163360076928115  0.4153260610273737
  0.4158346387316927  0.9150133769237935  0.4969054897695328
  0.3361782490287131  0.7492100199043538  0.2521768070209327
  0.2497038539176784  0.9969832976961767  0.7556114294438208
  0.4160502019888712  0.8346055026437312  0.5788365352017097
  0.4165090655515750  0.9999569403218853  0.4175982444993013
  0.3334178597601299  0.9134708738348459  0.7514876852680803
  0.5817947513616035  0.9159363609873186  0.6668944839906310
  0.3339064595044247  0.9143813200910749  0.5795158711489782
  0.7463898508157881  0.7521014330891762  0.6679320871034881
  0.1654841311803073  0.8331219313289023  0.6650666579493135
  0.0840075305416001  0.8327136448259738  0.0852274272292675
  0.1727374702191682  0.7483868916759793  0.9190760365194887
  0.1685593665901254  0.8318674178936000  0.0038138985916076
  0.0855542065769574  0.3335919819086804  0.7488006145135586
  0.4164449229818821  0.8328220216021207  0.7533299848133120
  0.5754717943100461  0.9990351208299348  0.2510593981485210
  0.4968306430342466  0.0831524850398838  0.4198052752646284
  0.4983860604423813  0.9992321576464472  0.8331553518564303
  0.3320126703063329  0.0843265963185191  0.9163443472931462
  0.5788272787167245  0.9997119758029521  0.9151233696338473
  0.5796597688171859  0.9988022171003426  0.4191076804534767
  0.5806153395410595  0.0811873251424755  0.8315164026926007
  0.4943603376477709  0.2499515616706525  0.0842126039159425
  0.3333477171824643  0.1669398148264622  0.3351736377372989
  0.4142448714686968  0.1671360237235648  0.2519755735888064
  0.4154118907396949  0.8287011093948750  0.0834309231862966
  0.0839260741017922  0.8325560460336130  0.2494412195714260
  0.0853500503873532  0.2514372185342579  0.8305902649363818
  0.9169804880197350  0.9939133047233469  0.0830166989638389
  0.1678158854150729  0.9157442496184380  0.2510134331942764
  0.9156905474599345  0.0811111849832795  0.3336170111614538
  0.1693391798844127  0.3350160735077581  0.8314700183768902
  0.0865721036924372  0.1661126205744240  0.2519778897468866
  0.0846043606133151  0.0810249136586234  0.1692540591848105
  0.1681201193119379  0.2515629212780914  0.4156374142489587
  0.1678955044536472  0.5040796991482625  0.1688411663416564
  0.0027362472002054  0.5042425834170465  0.0016358355323101
  0.0871332980964990  0.4200828746065026  0.1694357962372745
  0.1677320935904226  0.3348943178754952  0.1700831747779436
  0.0910498370987280  0.3348991115863186  0.4152409290232137
  0.2492571818068079  0.3351774091492537  0.4167190905169655
  0.0861208359312508  0.4200673471009281  0.3334917213572259
  0.9985332654294247  0.4172501108331788  0.5825630447106372
  0.0838670078793686  0.3359060885731637  0.5819757139558356
  0.0839414345111142  0.4167409339888705  0.4991037258783889
  0.0880833332056552  0.2496820330589105  0.1705814270479040
  0.2509104399186197  0.4182133987213973  0.8349074662651463
  0.4952510830696000  0.9996414072062831  0.9986184510727701
  0.9107836520382010  0.1635347057743119  0.5839091682817672
  0.0797193333369746  0.9145000976755318  0.4974571436490675
  0.0884035368456452  0.2523022131810187  0.4988083769399646
  0.0858573975106310  0.2508826432891039  0.3327684407951205
  0.0767145266658109  0.1664733798002496  0.5799297366219658
  0.8290295607173990  0.3264365172090344  0.6668454299168576
  0.3330730396971546  0.6674669786650633  0.4981197486066494
  0.9119683643047779  0.0813501934497172  0.6660510979104195
  0.2504246699845727  0.5008917665025265  0.4169174220553689
  0.0003063546886980  0.2448927623052315  0.9120125862743920
  0.1673748347477544  0.5007198552567214  0.4991545439633555
  0.0850942350852714  0.2569725593135229  0.6653129370403800
  0.9935774088957785  0.8337526220692069  0.6634353050209271
  0.9170358148855220  0.8315419653721480  0.2499140622666645
  0.9958491492844307  0.8341741601613339  0.4992471104072392
  0.9997910967807021  0.9132596171347183  0.2495007897160072
  0.9123924289246950  0.0802353351838219  0.5009648043907210
  0.0840281267998634  0.0755902987103443  0.0017451593266194
  0.1685145330821705  0.2500123791109411  0.9154769069160653
  0.0783571541803023  0.9951271398198406  0.7493471760174353
  0.9947086739797939  0.7526117069714192  0.5796807755256965
  0.1713692262083010  0.7517025616849176  0.7502856012946404
  0.0860909755312629  0.5040225471599700  0.0860799289324734
  0.9995872768371727  0.0786261274150344  0.2516378204688639
  0.0032977269220162  0.5038141600109963  0.1694337715070491
  0.9981356508156224  0.4180268578691020  0.7441136808367040
  0.0053250423341279  0.4225285846429035  0.2516593141485449
  0.0019603474695932  0.8328049416881557  0.1667762172359585
  0.0836209545978647  0.6671024965075669  0.4184471939030460
  0.0831148457908680  0.5830460889553040  0.4990340444045449
  0.0843489118550113  0.5020934831599642  0.4175252444125712
  0.0820948006699114  0.8388140767389635  0.9208712500549936
  0.4984982290224245  0.0814949467586196  0.7492150589016150
  0.9976034163516726  0.6668584865864722  0.8353312644278902
  0.9143467302361767  0.6689102492664289  0.4187602393922378
  0.0000766902297153  0.9146830056183448  0.0848774658374258
  0.0843527889055132  0.7491885999343684  0.1655287519308839
  0.0847950178890146  0.9963478851255816  0.0866591881644506
  0.6618120937969701  0.6680372342046096  0.3264827148385220
  0.9991721879660117  0.2500067824151664  0.7463363109185923
  0.8315492322822131  0.6695008286949677  0.5000320799268034
  0.9145984766270439  0.3301888790183871  0.2520849109180807
  0.7413706233202368  0.4176126618327434  0.6694706313387444
  0.1679186054010416  0.9996145695395361  0.1675122814534071
  0.0865216013628817  0.2526520898769904  0.0003482583976098
  0.9958157765327456  0.0742014396778987  0.4166306771719981
  0.0020116047287625  0.1657472828492140  0.1776101739453047
  0.1704547291186964  0.9995859861736363  0.3340039646717706
  0.0840882476833177  0.0859652345154079  0.3322776092406147
  0.9128664324803700  0.1640379755919774  0.7485680121781925
  0.9955706382645578  0.9975208346219023  0.4993915078699984
  0.0794687213767983  0.0829494261048568  0.6679196110727311
  0.9943893830783376  0.9149322913983987  0.5812933157188932
  0.9998023159318650  0.0807212275465115  0.9147464496162343
  0.7449650958152286  0.6689267740363015  0.9155169066242819
  0.4939877580302938  0.9999400035185413  0.1677599996413749
  0.4161617328458439  0.5012788538334674  0.7538572087435337
  0.3319809915912245  0.4164442564801213  0.5812030119510264
  0.4156712943620826  0.6679822808760959  0.9170374935471074
  0.3347428101306424  0.5850468625664375  0.9168424230985095
  0.6624531185218555  0.5011987042263488  0.6673749303775584
  0.3333035264949794  0.6664289846146941  0.0009127048398147
  0.3327461309558192  0.0005173210239343  0.0021758010968153
  0.5018599789203344  0.9151510279308142  0.9151425051644045
  0.4142567095167461  0.0015476136704465  0.0836261962560976