Cr  N Ni 
 1.0000000000000000
    21.1250329189096107    0.0000000000000000    0.0000000000000000
     0.0000000000000000   21.1250329189096107    0.0000000000000000
     0.0000000000000000    0.0000000000000000   21.1250329189096107
 Cr  N   Ni 
 259  69 605
Direct
  0.1678389641578914  0.8307527700711020  0.1669482356436061
  0.6649614158769315  0.7492316743425559  0.7578409275960359
  0.3280330962568442  0.0918648585752862  0.9177208361898093
  0.7473256579814636  0.6648091684428561  0.7527777982873124
  0.6600502344032577  0.3350987894065813  0.1691497320440690
  0.5784039810580028  0.1652550489821579  0.9112232219714009
  0.2478225775497834  0.9998422139477526  0.9213500178875303
  0.5794138520826192  0.9135757348400469  0.9986668499752120
  0.4962747097570726  0.4191773940960636  0.0763963453570934
  0.9144067635526036  0.6641159709238751  0.5816451112411040
  0.0862831241806946  0.0853797731073121  0.3314083478569962
  0.0897062644426508  0.1684379348140642  0.4185008577302269
  0.2540133638641622  0.4191310719663451  0.0000361400385352
  0.0825028018782115  0.5842062463048225  0.1688468295114740
  0.2481312291725979  0.2577237725632811  0.3344126135104444
  0.2474705912009789  0.2539788939978372  0.5005799206836991
  0.1632433874308881  0.1712495110142658  0.6636329901553784
  0.2419883657613486  0.2514955811261286  0.8324071621510315
  0.3305516230545987  0.2525955835507490  0.7436685481531525
  0.7424777910927587  0.4158190751376037  0.5003639518444112
  0.4112056926398961  0.3337003406028902  0.2493976752609056
  0.4152712603884637  0.2529297724279961  0.6650795361025851
  0.4961091814795073  0.3299542452655078  0.1651337722658871
  0.4987635617433709  0.2493828058400109  0.2520572659803688
  0.6643619558329739  0.9162329784884401  0.2568422520229685
  0.6633440499302456  0.1736220380387399  0.3369873460515366
  0.8298666018466273  0.7595080021464188  0.0827087210485607
  0.6632096506230882  0.7498980987491757  0.0808252946697836
  0.8299331903703054  0.6675596945128041  0.9912217829779192
  0.0823175855341788  0.1648793938607567  0.0869849154956605
  0.6642654336905272  0.6616521920775988  0.6697266530100706
  0.4119871566604779  0.5079466942178735  0.2483028988459810
  0.2498864505289407  0.4178634787099968  0.1646207175960391
  0.4130462406672182  0.4980547180171021  0.4156897668336665
  0.0775014414345204  0.9074534070032589  0.8349315639513046
  0.2511286523677297  0.0003057425831334  0.5699738415117455
  0.1663525264259804  0.9975431259608002  0.0137399095782761
  0.2497233534869275  0.1663560366970160  0.2409971035219530
  0.7456409386561855  0.5928847543586658  0.1667455352715873
  0.0914310270089126  0.3325101615879053  0.0865334595085626
  0.2490678725093998  0.0816550693502880  0.3292789913285587
  0.1732211597210422  0.1676783506096588  0.0027942816668091
  0.4131848330551250  0.3333614760715911  0.5844465007290808
  0.7495861687920776  0.7516416258891339  0.3342245337310674
  0.2482759201133473  0.0877606380505404  0.5061835336106635
  0.2482640491825495  0.5740229764323378  0.4969422678331352
  0.8321821015445864  0.6738209591405819  0.1685121617899185
  0.8318571048616633  0.6680297761855986  0.3328550179814841
  0.2489426776071484  0.5846073783762454  0.1670966559434882
  0.6729916693167531  0.5844147828863647  0.4149517750211447
  0.4133925624012547  0.3322613970720665  0.4190188020495461
  0.4981988003728367  0.5815946162831382  0.9169270277518428
  0.0831559091276335  0.9997504926914346  0.4179655999317092
  0.5822521559791497  0.5861836538168778  0.5014926180048060
  0.6649710254504878  0.7509126675146306  0.4086560641147230
  0.5844739791882995  0.4974606336329028  0.5922275946115628
  0.0805661732571908  0.8400631263740860  0.5769306992580814
  0.9950747703884595  0.7509369668176802  0.4192809559459981
  0.0795425521516266  0.8414763823991093  0.7512578855914196
  0.8300275702396789  0.7500634389222869  0.7517237563500248
  0.1603245938516750  0.0836573798950413  0.4171668546777713
  0.8297762567837271  0.4158372856346457  0.5853641625217760
  0.7552059846578597  0.7492720895338016  0.6715948198555085
  0.9858690810594487  0.6665138529578980  0.6669970053317200
  0.3331757117622985  0.6630744253778467  0.6638355143688085
  0.8313641136130681  0.9893764148017498  0.1673936165406746
  0.6640857125802835  0.7508380065245758  0.5829399625577778
  0.9993679669311667  0.2514381563557393  0.5847531496721928
  0.3333892216458349  0.9160788223986087  0.2575277431151954
  0.7481095173119242  0.9134223765444571  0.9957180380052857
  0.3346659456666266  0.0038941885460342  0.1670196459558065
  0.2490023280455036  0.0005349639844065  0.7486310107551617
  0.3323028304779477  0.0017805861748068  0.8346232638305680
  0.2491165430825479  0.5711621061400781  0.6667567704252098
  0.2494266605899508  0.7494581571779250  0.0082079927275006
  0.3283944614665401  0.0962820475295733  0.7474331063859758
  0.1657521575209794  0.5837316689593127  0.9173736641325947
  0.0031701577877780  0.2577241880745741  0.4168029221207686
  0.3329097239779020  0.8335824471993400  0.4938325535012399
  0.2511658477857717  0.8389667399792760  0.7504909136816535
  0.8369782090633940  0.0747199644783720  0.0793708550535876
  0.8250924761382823  0.2487407556112443  0.4203699077353845
  0.4162429443632482  0.8338099777531932  0.4140548287423476
  0.8335690347073099  0.1684345182952434  0.1713589401214306
  0.7485261070182924  0.2435783592704045  0.1730114748109267
  0.9121819355106578  0.9987803643731432  0.4173699332665732
  0.9108688370289322  0.0001649492193291  0.7498091415715900
  0.9124374355641997  0.0000857546796198  0.5830120278154326
  0.9108723613026460  0.1640290530988290  0.4205241617105649
  0.0060217700039212  0.1647546643409100  0.3305485945731401
  0.5914960130877265  0.6638488170420452  0.7551400445091025
  0.8341290078912826  0.1574147128540302  0.9915470132958563
  0.2519887126130182  0.7499536059360800  0.8363702383253944
  0.9948890836707778  0.0838096756254761  0.5833580827160203
  0.7502238929971951  0.0801753914497402  0.3381344793536913
  0.9985938917584709  0.5015362905422626  0.8322188143584920
  0.9241655032958516  0.2460003497389032  0.9954309720612494
  0.8323041856664053  0.4185349158304769  0.7599608291697616
  0.6638604682062903  0.8407149577711222  0.4973769924902289
  0.7469647648193233  0.8340941730092910  0.9165788587574661
  0.8330313525349540  0.1636783052548804  0.8298179225330504
  0.8400623760363494  0.2541763478020562  0.0862353344976648
  0.1650743511121046  0.9131272201153323  0.0855473524141972
  0.0808161200841329  0.0815335247345941  0.1658212124506174
  0.2507151043461495  0.9160946886871806  0.3312470165625193
  0.0809944705893022  0.4996497495248064  0.7587899938987722
  0.3382872494389398  0.0852152285418121  0.4180957966468840
  0.5807667025873428  0.8356792458829138  0.4142235594712949
  0.1658031292523255  0.8352388380922957  0.4941980821596245
  0.1669174637262128  0.3347252051130709  0.6668081168151778
  0.9994631171087031  0.1664050199083677  0.5100155101630226
  0.0786078984029194  0.7564403054833480  0.6643459221011975
  0.9247737629477764  0.5846566111307928  0.1686543313560771
  0.3354932970016456  0.0002008322035915  0.6591141282930034
  0.6642176820155264  0.9149238776016503  0.4167445419013344
  0.9231792437723956  0.4250010395567952  0.9975773541056048
  0.7441402499488731  0.4179736246090677  0.6698414068544926
  0.9147144765075018  0.2478780489732204  0.6679165543452854
  0.8349801579223523  0.3360280437843859  0.9958307846836513
  0.0857754291225347  0.3360516976113320  0.2492616342955977
  0.4173850981717647  0.0010641698308798  0.5703549428752134
  0.9189412679551553  0.2538888018397515  0.3283415929101900
  0.0038468516307008  0.4247040682741006  0.0833267523035197
  0.9161536799811285  0.3414803273723953  0.4166467181984381
  0.8387457678204866  0.4967619706748670  0.1693443362813496
  0.4218031760062398  0.0008822220676074  0.9191722725676719
  0.2496283001281722  0.4985518001946841  0.7524568178867890
  0.1620763876010700  0.3315652974952906  0.9994429738768772
  0.0843755450961668  0.4933394149272497  0.4149464892763105
  0.1614471176888588  0.0005171244264240  0.6606401171490471
  0.7492468732137089  0.5008243589167674  0.2573302486421909
  0.0812163497315637  0.1660518502697283  0.9107692304849061
  0.5701940368571169  0.2490095866130388  0.9943744300727362
  0.1655231293847586  0.9981825240305862  0.8368699048699240
  0.5804287770329120  0.3388929505757973  0.7510029759580551
  0.5775313306055504  0.2511006708519329  0.8386550279521698
  0.9187330202268935  0.4154144750741108  0.6686687829862663
  0.0140515059663195  0.3359369749332730  0.9962209708477084
  0.4997328400932163  0.0018557989865732  0.4999205211571982
  0.5826514654681678  0.1614572528486666  0.7490354446478628
  0.6650873729861054  0.9980232890484827  0.8320632664677926
  0.4978822988770493  0.1682874805655069  0.5031442895970756
  0.9267153216038799  0.0788764915916558  0.1680991763987815
  0.6587709357238611  0.2465588423167415  0.0817453825949708
  0.6630962907097107  0.1597940985019315  0.9928965530778657
  0.7452492255473926  0.1613648941516763  0.0778532128319391
  0.3308866491657274  0.4183013212035430  0.9176010216220714
  0.0822254876784101  0.4037866993377650  0.6698799271342444
  0.5684292597236155  0.3323913052209880  0.0793553918193336
  0.5829334885943025  0.4084868852433269  0.5048290278313440
  0.3307139118040677  0.2521375285063259  0.9219517713419244
  0.0824389233317001  0.3346730518841380  0.4154547870206227
  0.7497267673065929  0.9847701652903497  0.0810807969720904
  0.6713160673209654  0.4169704592833940  0.4161699327160870
  0.4173444486079339  0.2523927271994342  0.8314993471582020
  0.0811540270153556  0.1696031746134913  0.5821251923745604
  0.4992488090202128  0.4181910838527255  0.2516500628662092
  0.0838981897120216  0.5011008433711188  0.2489808242548228
  0.6608273018331657  0.2435701933823879  0.2519836532797159
  0.6607568806936966  0.0814579057547620  0.0768747631667899
  0.9179362959143581  0.4159315041551485  0.4989638956197919
  0.7495384970608363  0.0815793921119609  0.1708562499185458
  0.6721916656170337  0.2484392314692409  0.7503105712773529
  0.9968327795259451  0.0779770036230278  0.0848768604279778
  0.4978780975454893  0.7467785988269389  0.0837053956418784
  0.4146384365446561  0.5691880710892071  0.6661905313070068
  0.6630987145456616  0.6682205114875310  0.9988290217671418
  0.5800942765681402  0.5841733377168363  0.3260807735265462
  0.4990911785903305  0.9999424860647574  0.3344179032752915
  0.3335988048066947  0.5819610915721976  0.9184166973809810
  0.6615277147755551  0.8214130698447587  0.1651594473228081
  0.4960179611651582  0.7476556367146742  0.2500507877840465
  0.0799591255615821  0.9990851613690855  0.5740084241095268
  0.0831924807543970  0.9960363710042872  0.2418992340053262
  0.5054970848829897  0.6661291591680852  0.5007557533899358
  0.5732158104842187  0.9132347496203823  0.1684706768796691
  0.5810154669997811  0.4976545928594523  0.4164334385627890
  0.4978674588505820  0.4987116756215221  0.8353246752553878
  0.9858269656493530  0.9985260795266285  0.6642355041652451
  0.5805327692985144  0.5865949257584148  0.1664066358976298
  0.5089947984184972  0.9136042715613024  0.9161368499918709
  0.0744239877033713  0.9957901250821508  0.9234198304787126
  0.6644411107443305  0.0813924145679638  0.2524663264573338
  0.5854251273826642  0.9176568138042561  0.6658603945690691
  0.0743809494098490  0.9956390673636426  0.7481317710356024
  0.6636730891167459  0.5003860663418260  0.8337159346997344
  0.9860283906013944  0.9977693377360057  0.8312033263676138
  0.5827626085213279  0.3331680053031471  0.5867523518250648
  0.5010424913651887  0.8343571384800227  0.4970197117407992
  0.2505903324277302  0.6617461699951748  0.7576997250722740
  0.4208576745862174  0.8337486034873240  0.7557325652390361
  0.4136681879052763  0.6667281918545700  0.4070664227784377
  0.9166124058653388  0.3350173534733767  0.0853727353193279
  0.5088032777437892  0.6645949977732863  0.6649511219933417
  0.0825408368431996  0.3321966782844177  0.9123486068183659
  0.6638560472388084  0.0831982186854962  0.4260310559062271
  0.9144599891744541  0.9124913110237820  0.9991897904172735
  0.7495909602180588  0.3338406707665900  0.2591640429392225
  0.2489197558779003  0.5812190216784854  0.3322755117375923
  0.0823859188753908  0.3337650518587405  0.7509434567345594
  0.7485852787633314  0.0824004779128049  0.5019587768102275
  0.1658540925905107  0.7488955250093615  0.0851902109074973
  0.4861559737553334  0.0853183240817956  0.0824408581201599
  0.8304426894857807  0.9169790754984314  0.7506255235310930
  0.0827165462514611  0.9089124291791792  0.3312175058321843
  0.3327749903900339  0.9131660549888961  0.9205950207603072
  0.8329506572538656  0.5841642201193893  0.0778785494292234
  0.9970954225788241  0.8354501892944791  0.0021152571445152
  0.6576588528773801  0.3387842040392641  0.9936091358413958
  0.9882205520405803  0.7515885916778811  0.7508708165024478
  0.5719220724529233  0.0840382882732218  0.1692246222739590
  0.9173198256371229  0.3327512535285091  0.9038664282692086
  0.7511566172473193  0.9130897525510264  0.1667802983993210
  0.7557692882198046  0.7496014371751275  0.4956695022015796
  0.9918345039023891  0.5827016310955545  0.4151218947333626
  0.7514872109443070  0.4191959706712712  0.1674731686809513
  0.0804607456259096  0.7512516407590607  0.4890888321412167
  0.4155749414531362  0.6640943691110024  0.5803760948581758
  0.8331024865523798  0.9974291110221530  0.8305787324337826
  0.9965759722854488  0.8398619826547882  0.3328258827024409
  0.7473211281186229  0.4291085892729869  0.9971662260061098
  0.8311317656342229  0.8333497295768383  0.3346173979371300
  0.7488238812419052  0.0817029697677138  0.6658585595735205
  0.7471966224792979  0.5069432005150142  0.0789993471615120
  0.9994486869709348  0.8324370349683878  0.1693800629239770
  0.7491969062086251  0.9180275101173685  0.6675249018963110
  0.8315246390511765  0.5860853157637916  0.9161171222694643
  0.5812681196263286  0.2506138473125221  0.6607260297125422
  0.4166959145831971  0.6634290480321169  0.7577619931183618
  0.4200418391806777  0.7476842063520924  0.6638712677558346
  0.3301344450019457  0.8388991640946253  0.6640523826773049
  0.1651410116262231  0.8326354556361310  0.0039361228675080
  0.5732793106329637  0.0839451678073670  0.3364135104822333
  0.4250134802394653  0.9994294944687021  0.7457173821429849
  0.5793518463373276  0.0854169587813043  0.9906770103095451
  0.9113413302302917  0.8347580289079782  0.5809118960863160
  0.0790072677328193  0.4228108151795432  0.9964638840178797
  0.9999631474341892  0.7504627656411473  0.2441783676557302
  0.6630110567128971  0.2484062402272819  0.9015642550143463
  0.4146749441138825  0.6661110124579215  0.2493506058512468
  0.3319253896914844  0.6642057293974400  0.4963169261672959
  0.1623149772022851  0.7507847277838824  0.9206473824552980
  0.7483427899962625  0.2480342676723452  0.9914389198778143
  0.2455126661715837  0.6646129056905187  0.5801391649344418
  0.0006058986092902  0.6613443303761443  0.9993697316419230
  0.0807680938991350  0.4899912323171838  0.5816270254599466
  0.0796857890218019  0.6648380141200887  0.7588375466343267
  0.4216436082692325  0.9197614979283952  0.6621647783303677
  0.0774351236553744  0.6657380085409399  0.5795567825912322
  0.3337861237355988  0.8260136302905431  0.1687277984676809
  0.3324165973243368  0.9126023106469698  0.0821222285303444
  0.6691194920626814  0.3315740206666132  0.5039783094270591
  0.2434767599496483  0.7528979253455533  0.6594699551507709
  0.8329815984539515  0.5009167635837345  0.3325999643380029
  0.8293388992593780  0.5850491291416451  0.7535683986079156
  0.9879149799399949  0.5832851068052900  0.5825446234950900
  0.0805977300594065  0.5791790529988667  0.6711478130826725
  0.7471426776978597  0.2482448957381391  0.6698334103062438
  0.7474204636482638  0.3414562174507362  0.0831959287611094
  0.5715337375221681  0.0805540460828184  0.0784937508341701
  0.7545339554474255  0.3316901105005668  0.1725207548679234
  0.5807502790973377  0.4978715953001042  0.5062091074415692
  0.1669198366456386  0.4197802208797224  0.9992116972736533
  0.3370558448888648  0.0084706299387913  0.7472262857744651
  0.9259548492049705  0.3358828222611162  0.9922912088219811
  0.5841654197180778  0.5867639994222552  0.4125788425477088
  0.4122284395339191  0.2453678772055417  0.2510499188970272
  0.4978046398335941  0.4189707588365363  0.1631467394642720
  0.2445214356759863  0.6625201192024655  0.4930951896099739
  0.4213269602266614  0.6559646095647680  0.6686889687213897
  0.0857706085961970  0.1628926030801953  0.9985473378818981
  0.6549657722613456  0.3398085110275537  0.0818291088661568
  0.4217467046487814  0.9108872110901758  0.9223387144215430
  0.2510583171880122  0.1710854042877738  0.3280514779172660
  0.2451565394021979  0.6589126205357273  0.6690592024820248
  0.8370485012524097  0.5856307081962654  0.1684715638547404
  0.8337961262705631  0.6731503711747568  0.0790539879179353
  0.0769542707384451  0.7544493956066791  0.5756331852232027
  0.3319993750039585  0.7515521807810421  0.6629305892668079
  0.8395222426012785  0.0772676747947026  0.1721189573823486
  0.7457939467255004  0.3410028409376415  0.9899021255869546
  0.7484464772020887  0.0708855131446823  0.0766261548486320
  0.8383423771341454  0.1637477460928522  0.0814267543768928
  0.3344947654161697  0.0040420689149588  0.9257357030894210
  0.0740635247210846  0.6676631370205868  0.6701716698638053
  0.6614755502816096  0.3327418380179110  0.2587060023385074
  0.7539212487116268  0.7486965316830686  0.5829523773412155
  0.7454087937040633  0.5056444705260686  0.1684289985057357
  0.0753387903446188  0.7545023988585446  0.7564447413438073
  0.8372520937380048  0.2448450049401769  0.9917169108703918
  0.1609314419327490  0.0005205623179506  0.9271603369796968
  0.2485599356986550  0.7515721487817436  0.7490269802275406
  0.9153428767879692  0.1640550055353093  0.3312321077280439
  0.8353703175781017  0.4257458907118873  0.9938996313695265
  0.0730878819394576  0.9986761426580200  0.8363667756202996
  0.6657619173702958  0.7510879812959536  0.6717916613856129
  0.0023582651593930  0.1660052780973022  0.4209003349883087
  0.6615810351812318  0.9087653100392697  0.1680990953629563
  0.0006270784000826  0.7512093977308417  0.3318773841404705
  0.4259593285571860  0.0092566065050603  0.6555632742105196
  0.3348847126438396  0.9152486251253514  0.1696354896723916
  0.0052713890258350  0.3353099497282110  0.0881111623405989
  0.5050842798564160  0.6638513749549321  0.7550902629277435
  0.1620426168881871  0.0042485025379935  0.7491722421519329
  0.9124696850639962  0.2547648571586586  0.4199776434833289
  0.4215569500892975  0.8343875399670038  0.6661305435161068
  0.7484482967706506  0.2500030592386052  0.0834748628484394
  0.0790682061260871  0.5805557513817179  0.4108662563819513
  0.8315463045288526  0.4169745123679818  0.6736539057846901
  0.8306034589174552  0.4168670511084946  0.4969852732100313
  0.6616516025129751  0.0846897935570779  0.3401950202422174
  0.5833125287625978  0.4088345417012597  0.4147977759284671
  0.4101878659892892  0.4222346918705207  0.2513386629203431
  0.4245865291669047  0.0065299465897153  0.8328994631882561
  0.2484163345780636  0.0032038112341327  0.6563343799849056
  0.6665808010543722  0.7507971747482631  0.4941874066409311
  0.4199568295307578  0.6634410501787859  0.4929221541813798
  0.0793488129179065  0.4903493367246013  0.6714509979472966
  0.0721027251428360  0.0005453067293173  0.6594463671606609
  0.2512727808989759  0.7483766449952320  0.9232461136338843
  0.6598640543471631  0.0819159176246540  0.1660070810494315
  0.0810894804133354  0.9969553004784580  0.3301124621424240
  0.3298092787651703  0.2548460472424798  0.8331295740163553
  0.0774791196105316  0.5771222172306759  0.5812045071065545
  0.6570081787484804  0.2479403902837539  0.9895518282645837
  0.5824120587374361  0.2502290104591955  0.7494383709133640
  0.2499795404902566  0.0825563428013170  0.4185887057954391
  0.9972083538508979  0.7477122075741647  0.0022346677554685
  0.6672865017473834  0.4158462375416104  0.5863536219698564
  0.9124906306727306  0.8331184302914821  0.9169781995014670
  0.7481270271537854  0.3313101319163989  0.5869559841353679
  0.6663075181702960  0.2488536517272149  0.5865237733505854
  0.7482443626200800  0.1651254947308100  0.4201601425039742
  0.8295098735067311  0.8331385565087828  0.8333113603698324
  0.6642179171254669  0.4178290746189399  0.7508810317580460
  0.6632362407579422  0.3364771779254153  0.8309052945188846
  0.7491142132881258  0.1631161213711242  0.7493851845054137
  0.7494759238293666  0.2479033347376148  0.3358304427959843
  0.6634701635980833  0.4268165295227437  0.0817962968393617
  0.9104664593305531  0.8332565442271378  0.7508307727107806
  0.8313894451972319  0.5047756056025255  0.5000120578390966
  0.7481111892815445  0.2473346974631301  0.5036391396491806
  0.6665443558769802  0.3333071533929324  0.6684225790825294
  0.6666467247614417  0.0818071641674431  0.7490698765389809
  0.7480837543244979  0.0794607647555736  0.9897209447436291
  0.5834718671286411  0.8361625893957370  0.5811170811869214
  0.6580223123209610  0.5048685138988471  0.1666897804925045
  0.7486352564574723  0.9963498070493656  0.2522465675448390
  0.5779157047585435  0.2483637572398304  0.1660989883567763
  0.6642024609085916  0.3278128662976310  0.3432573747422968
  0.8311105589402996  0.9994701592665746  0.6659662070030384
  0.7487166239868170  0.3307363401194345  0.4179874184135667
  0.8412522309269852  0.3364891137135707  0.1690335492260879
  0.6635878354911281  0.4214038114145160  0.2506761084325013
  0.5047950472641943  0.9162092305217652  0.7501096561860895
  0.6667983978311167  0.1652784696068619  0.6667752224425545
  0.5811686630074996  0.9182620946788465  0.4985543911793976
  0.6654905225301189  0.1665158309985835  0.5038446169320279
  0.5017225161222105  0.9177019943435668  0.5792641615912845
  0.5033207920675336  0.8313619457507276  0.8338011723630862
  0.5803759055832672  0.4173068890852488  0.3287635146710329
  0.5857983843405912  0.8344322902544631  0.7510148854206390
  0.5797895218428741  0.9162669061284922  0.3338466421934823
  0.7482492828819530  0.1655128271782380  0.2536805874905014
  0.5773945134311032  0.2477278366792013  0.3370188352695181
  0.4986156249449015  0.9175776005059716  0.4164327233471875
  0.7489328616646489  0.9995931957654580  0.7496427490851733
  0.6659682441485173  0.6655970327022493  0.8366085982075420
  0.4977776174885511  0.8329366856562851  0.3327692529542743
  0.4980027703279928  0.8292226733762307  0.1673041532628889
  0.5835484742222615  0.8307515549967081  0.9175828739185518
  0.5787705830643094  0.8293726764040811  0.0829162025518416
  0.4996862280023634  0.8300699838294769  0.0011432594085938
  0.5833152261503299  0.7488825021079530  0.8364087835792748
  0.4984902482104392  0.6661744670020210  0.0003543674855517
  0.5003202714557530  0.7480557848491871  0.9183868150288190
  0.5794165753240659  0.7508925212063485  0.6653053833861627
  0.5026301841789907  0.7525589152172409  0.7512424784883153
  0.4997410441608259  0.9132686856814827  0.0833450385863799
  0.6661907089129208  0.2464098533631619  0.4226740187728026
  0.5857313298091232  0.9151843646730721  0.8328311410556313
  0.6628307389452787  0.9952389224759447  0.1676498605982036
  0.8311590317652843  0.9154628824688473  0.9149724156475231
  0.8305114266711715  0.0823725528024065  0.5845041256746885
  0.7492818801944711  0.1626433387199319  0.9109346567809390
  0.4950944779222161  0.1683327309572293  0.1665666723073317
  0.7496040545038746  0.0800014589483393  0.8316074189140490
  0.7484863498015472  0.9964866486121063  0.9143094059594640
  0.6652662484828608  0.0798406913807946  0.9120368158214016
  0.6674695136938360  0.9175615743479868  0.7491513375666199
  0.6628937567457768  0.9956856918394955  0.9978851398759923
  0.7482452272323138  0.1652049764633693  0.5852688383777443
  0.7477331218516409  0.3336338115038781  0.7516572193315426
  0.7477601769687352  0.0000642596379834  0.5838020273077267
  0.6657760332070811  0.0829685772471736  0.5832485088625291
  0.6663349900380692  0.9989788809476293  0.5001700843124146
  0.8305042191415196  0.9974585187496806  0.3361388805257682
  0.7477344844237406  0.9987376867633240  0.4178855365042539
  0.6628928193886530  0.9958801683106433  0.3348506066920001
  0.6614888004655893  0.1701141327971931  0.1676792967542858
  0.9149240157003292  0.0833527474440421  0.8313613351070406
  0.7496635734365988  0.2468685349256504  0.8297783248469122
  0.9951413374771015  0.9995950308399365  0.4992147296121609
  0.7484064670558873  0.9152621551138858  0.3345192219202615
  0.7487520142803987  0.8384118397098062  0.5823261357847102
  0.6635506991327215  0.8317947871245654  0.9991417744517703
  0.9140145853213105  0.3322538886994215  0.5862009878846137
  0.6624525981408187  0.5039755102566268  0.9985371742813125
  0.9154537379568809  0.3315359338406019  0.7504602188728536
  0.0017428940652706  0.2464808694606677  0.0850162738204459
  0.7485015877234502  0.9170815151487723  0.4990001626449381
  0.8302099284076536  0.4168655261039797  0.4109917901280328
  0.7486519122386612  0.8345096511861460  0.4155884577641689
  0.6655531671608389  0.9188413773840748  0.5828649954809274
  0.8334983824250082  0.4177076837363216  0.9063122717170062
  0.9152478478572461  0.4990065769106816  0.4150271089631060
  0.7457412234218119  0.5856385018111204  0.9969970553431915
  0.8327709333114874  0.3314874972912002  0.8283036182676848
  0.9175895770052651  0.3348357554834634  0.2521719152723062
  0.7486033158880651  0.3327297853728209  0.9042318077777238
  0.9960573878046128  0.4143622344866721  0.5841421445388795
  0.0020780568903106  0.1664392063848207  0.1683647012129331
  0.7487923586991199  0.4175120976653881  0.3341164558242150
  0.9127168403725373  0.9138485625917655  0.8340385298766266
  0.6668655048289516  0.0004730808998029  0.6662448103686439
  0.9130309443797897  0.9176035038255026  0.4994567952386182
  0.8326053288026658  0.5852907797107048  0.2553456407165579
  0.7486244226715744  0.5016753455254505  0.7530558668718236
  0.9173578997954367  0.5857552822490294  0.9977827204151455
  0.1675281566022749  0.5832673049922861  0.2484140389978829
  0.7483834916582599  0.8316681093525728  0.2517069229331584
  0.0820030680679978  0.0831044610033564  0.5010096812486110
  0.8346686679698592  0.4176405552112040  0.2538088870131396
  0.9960448116594044  0.0834711424959494  0.7480596789277140
  0.8361111941281727  0.4202966147483039  0.0848508744898248
  0.0806516374389321  0.0870500736669054  0.8301780922659296
  0.8320730935095914  0.5832452940972360  0.4140126579627374
  0.0837745665503075  0.2511836476908111  0.9986480752701284
  0.9932922386562294  0.9966961411348645  0.3344158713237155
  0.8332897727234746  0.0792863989129486  0.9121509593786801
  0.6631718527979068  0.5832542231376654  0.9167068514069726
  0.9175432485991742  0.1634426479315920  0.9126076554112507
  0.0037634690460626  0.2514168256704065  0.2505088269093738
  0.8315297416008985  0.2471865861429096  0.7493509798289836
  0.6645762962518924  0.8338799341959857  0.3327578369630243
  0.6663920323891390  0.8337599068848113  0.8345618428317000
  0.9913902221564531  0.4997006356657093  0.6688799970097717
  0.9146001842640185  0.9973656741070377  0.9163330558478022
  0.9246421777977482  0.1646054992629499  0.0848161119847388
  0.9127179678637165  0.0842073858418561  0.6666130957274334
  0.8344165582778944  0.2477104186560582  0.9053130348001757
  0.8302812384800001  0.9998605184807864  0.5005779831466356
  0.8331707892491430  0.2503638409109203  0.2522519791317443
  0.8324410579298573  0.3329182379202984  0.3346443999169925
  0.9153575660034821  0.9952815502688623  0.2509218545615054
  0.9193039553810660  0.1658093547794957  0.2456140345164805
  0.9192919226319194  0.2513620817551017  0.1700688788423552
  0.9178296597690898  0.0787339470895395  0.9976368025907617
  0.8310197945163494  0.0798604718298832  0.2583660960971031
  0.0005137121457681  0.4167002616525918  0.4146072448322334
  0.4155666619247628  0.5839058442925887  0.9999235225817600
  0.8334675893250010  0.5831297155740536  0.5840242352423299
  0.2483349697796345  0.5015638690361232  0.2479020515961035
  0.8299804151657728  0.1652357646209804  0.6672281892457598
  0.3303979924283540  0.4997051714392038  0.3322714391302930
  0.8304697485145361  0.1644666587457859  0.5032166977217826
  0.4974666360375232  0.3349137031500977  0.6659245364040568
  0.9173053698502714  0.2468128326305452  0.8293050879725726
  0.4170542474202146  0.7473186102580976  0.0019017749262868
  0.8334769547168331  0.9945732114595355  0.9982480891094003
  0.4141348981289629  0.3351921551906976  0.7485737265766776
  0.8277117334260878  0.1657073585231016  0.3352136588658792
  0.3321827185580941  0.4985468970081982  0.8355977281680095
  0.8300606944575796  0.3282335868610376  0.5037466386588586
  0.3307021024147418  0.5849139001283724  0.0846363374426020
  0.8305753209430005  0.2478093751859088  0.5866496786340696
  0.9941670986046377  0.9163364523073986  0.5799308963402309
  0.9946012654667159  0.6658647313778757  0.4972311017383345
  0.8296799605366156  0.7514813713379480  0.9163970040642938
  0.9119993244526181  0.7498028554684022  0.8350046622388887
  0.6658697379835535  0.5822094186178238  0.5849791944372085
  0.8303838333053584  0.9177496259175431  0.5828420376941654
  0.7490567763799909  0.5018932588138777  0.4147935860306515
  0.8315776616491933  0.8352246078651456  0.4988059650495283
  0.8301861988770757  0.6675853131763391  0.8349746027404182
  0.8391105796581632  0.7500613005473071  0.5823678706383935
  0.9146447262014912  0.6667887382276286  0.9163181531697412