Cr  N Ni 
 1.0000000000000000
    21.1250329189096107    0.0000000000000000    0.0000000000000000
     0.0000000000000000   21.1250329189096107    0.0000000000000000
     0.0000000000000000    0.0000000000000000   21.1250329189096107
 Cr  N   Ni 
 259  69 605
Direct
  0.2442523839669717  0.9142820477556985  0.1664844818505291
  0.5085438303769431  0.6650716492284141  0.6659297400873520
  0.4199971313165087  0.9123514007204360  0.1654526648404115
  0.9967842714878733  0.1648320805647140  0.9967356225096320
  0.0820089407966694  0.9957341483900141  0.0870620809930133
  0.4966472945164689  0.7451278769764759  0.0833547011925550
  0.5724090122167458  0.9127118990090162  0.1673895388660396
  0.6628135163789564  0.6672649988927231  0.9975515436389910
  0.3312999557801282  0.3376444927268002  0.0011073036380472
  0.5000962924968004  0.0005439702138014  0.3329789432268319
  0.4150956771903354  0.5697384985522566  0.6654490565511217
  0.6589752118585368  0.9116249700912731  0.0791711543539990
  0.5789146339040723  0.5841775725309880  0.3259129121196000
  0.0802348428166118  0.9984286074393237  0.5728107194711060
  0.3318190012184609  0.5819059641503932  0.9192122147643461
  0.5032658491706237  0.6667328402619065  0.5004291208212286
  0.5804243896797205  0.4988112213519751  0.4174193313607035
  0.9850509511199926  0.9961750564886861  0.8313280819050415
  0.9851925832505940  0.9979836728084671  0.6633087788968288
  0.5042526637018896  0.8332448664226122  0.4993423450694520
  0.5785789876515045  0.5861628897356825  0.1660215005537535
  0.4184569013511079  0.9137793847673362  0.8309635575120882
  0.0745016006692741  0.9958978674090647  0.9227780137816980
  0.9156567991156902  0.3323336748644221  0.0859767735963512
  0.5859707788720500  0.9170273000610087  0.6690183551075305
  0.5081973929627603  0.9131772308575699  0.9156993852303914
  0.7455630028628433  0.4202278747026896  0.8315937500886583
  0.6623994544262829  0.0847153363456705  0.2546102104491798
  0.5813884378173755  0.3334599292381727  0.5868119337352543
  0.0740717251641193  0.9953443252139244  0.7474257781122218
  0.4146298008238258  0.6675123287050923  0.4077402397201730
  0.2482154988547945  0.6681473626012231  0.7563782335342558
  0.6719828213602886  0.2498108739237053  0.7486471995053396
  0.3307427957633081  0.2541770543048786  0.9238122464581623
  0.6637300610080396  0.9965426593798637  0.1695243127678018
  0.6620647568599602  0.4160667359549703  0.4162541505661259
  0.0801303899006504  0.1698568376259640  0.5830170104538314
  0.5011228188414339  0.4194737009725855  0.2476725615918369
  0.6601829384476042  0.2425517994709203  0.2512747745190925
  0.6630667927462676  0.0826282513399118  0.0796771012404868
  0.7481212402034159  0.0845847304779629  0.1705610752841386
  0.1670549921924971  0.3350892644785072  0.8313985935742767
  0.0827947061138953  0.1676972131053562  0.9092188781909520
  0.6640136136210475  0.0826597236890575  0.4300369443587536
  0.1647265018984068  0.9968640562728521  0.8367332979854769
  0.4953961359895364  0.4212953757280319  0.0811190456841444
  0.5767741954943023  0.2529678542468613  0.8371379879119933
  0.0906786718216706  0.3358292588193617  0.4141856196372297
  0.5072053833750970  0.9994355150510691  0.5009956420092783
  0.5824727270064675  0.1622021680962279  0.7485358230193611
  0.4192338421112873  0.2530703296329030  0.8320168937493065
  0.6654042467889851  0.0815418688437659  0.9040473893262692
  0.4984243721804751  0.1696291322866720  0.5039292669608954
  0.0873457330315820  0.4202451083878744  0.1697508078621642
  0.0014085692786126  0.1663060399416166  0.1756450283078740
  0.6555894533587481  0.2538375237708276  0.0843047062298546
  0.9209676454732331  0.4193704582176560  0.5012420416829109
  0.7527495116058985  0.0810713714285640  0.9938066903543324
  0.7451521288032430  0.1570940320159127  0.0816510346736024
  0.5683356104704120  0.2532428970635153  0.9965552246430525
  0.0796927495484544  0.4079210607215145  0.6688631803471882
  0.2480014855899506  0.4173136077281427  0.8355231201589753
  0.5800330682447699  0.3399945478620335  0.7499169398499940
  0.5813528194074927  0.4124438166659341  0.5071152791623699
  0.9214459476376700  0.4167729109197114  0.6697184823896942
  0.0002262036619123  0.4275901100106432  0.4157619224519035
  0.4859727056854194  0.0848598694871207  0.0834608287375224
  0.3314282704787510  0.8407838783805418  0.6647614750526374
  0.3294827734587602  0.9119511891744431  0.9214076371836071
  0.5717334781265869  0.0852799570785210  0.3342870014090439
  0.6611960888356646  0.3424121667497285  0.9954657515344617
  0.5751800351639963  0.0841445869207376  0.9930543385274684
  0.9171247548974066  0.3318925639922390  0.9036386961046530
  0.0951358628002223  0.4203624506707632  0.0002583259737790
  0.9920515575454070  0.7510949634439263  0.9166971289286577
  0.7476696104250168  0.3288999298621366  0.2569520832180292
  0.6624731738515143  0.2515447467083050  0.9037662198193406
  0.4139158495883266  0.6657850633329920  0.2500845617335327
  0.7476812185907420  0.0820821809071456  0.5004158652992666
  0.1685658491570060  0.7500175490273011  0.9200863635577472
  0.7459122345087724  0.2498293248326718  0.9918385326480448
  0.8303669262415998  0.9171529432496854  0.7501013991866031
  0.0807383290342212  0.5012577715293103  0.5774426218999841
  0.8378273976792031  0.4186884804926212  0.4134474397542888
  0.0822210720906413  0.6615735458103772  0.5741660705844509
  0.9894840054328083  0.5017699308544226  0.6681405036844085
  0.9167100296654687  0.5853098926022143  0.9977933217543121
  0.3325952735715601  0.8255156350740724  0.1669157991189475
  0.0816862838727353  0.5805599443822111  0.6660911198444397
  0.7498752347508079  0.2483220748463588  0.5029726914837377
  0.4176456548124146  0.9121768472181119  0.0064864006210223
  0.7472117100458933  0.2479777105588225  0.6690094037047428
  0.7457993069012951  0.3374114691141301  0.0772697139721362
  0.2427607381543411  0.7557399855351696  0.6649774658334782
  0.4227520736761772  0.9185143268428255  0.6656982264615774
  0.8340385633849153  0.5841343128806420  0.0767083246712805
  0.4144952026337733  0.6648754937749993  0.7591264619565488
  0.9890934673519828  0.7505712874835038  0.7483088988715927
  0.3263564607908128  0.6643090043796857  0.4987275686611479
  0.7541477907860226  0.7506295381534124  0.4996619229662400
  0.4162569096314250  0.6652476315860141  0.5813148711179602
  0.2480555351841427  0.6648743284325712  0.5749730667970766
  0.0823893565160086  0.7500227939886606  0.4873582731577345
  0.7418880997141213  0.4203783549190846  0.9880446119778113
  0.0798920920163947  0.6649433494323578  0.7547465123810664
  0.9977935385396224  0.8387685561925756  0.3351095995946643
  0.7465126174426894  0.5124834520146702  0.0788755917002430
  0.4184391601922451  0.7476145019423271  0.6654403296244177
  0.7484325426601485  0.0814621392125089  0.6674389752446611
  0.8320296960726165  0.5865746839360081  0.9167670506729660
  0.5807028608307994  0.2516140578299799  0.6598958865188069
  0.7498025464120470  0.9175192611762695  0.6690684146667057
  0.2487249227576443  0.5825857624834790  0.3341568669945507
  0.7499566313483242  0.9064833844508849  0.1688465462509895
  0.9154122269035238  0.9140473982683015  0.0003196158857559
  0.2502724895378502  0.7488267798148910  0.1669350947297376
  0.7510547067892799  0.4206148961906391  0.1643440534765910
  0.1662354317728099  0.8307397114126644  0.0034623049735211
  0.0822015549354393  0.9107525849760528  0.3319793221965491
  0.8327880921157689  0.9962408395274394  0.8315372043070409
  0.4239816874934484  0.9960368404693691  0.7561717479240738
  0.0841689470216104  0.7497565775568530  0.0092347993176475
  0.6611735291925313  0.9952217787711942  0.3328142663534583
  0.9103931768085491  0.8328447370154912  0.5814152899728322
  0.5708234587266127  0.0850665835744258  0.1698684340826528
  0.0017343666777437  0.7506108630680176  0.2462823976864289
  0.0010354389998269  0.6620417338501527  0.3354961102853854
  0.9986311684805229  0.2483126999026712  0.7480144635593803
  0.7478996064437473  0.5063328021073371  0.2560674816965489
  0.0082937113607663  0.3328970150986820  0.9966683361827947
  0.0019571178474044  0.5026229439000401  0.3336327218913693
  0.0810726159531833  0.9977706727867353  0.4202880490425430
  0.5823195074609055  0.5876319053755805  0.5018707173790775
  0.6681497000472527  0.5008982787693043  0.6690700713348542
  0.0789733348052749  0.8377256985666097  0.5791657561706310
  0.0783735236953770  0.8417085881524673  0.7504138673993078
  0.9135982621971571  0.7497940766310248  0.8330583286215586
  0.8324776564637371  0.4172248792499402  0.5879420068322323
  0.7577557096912180  0.7491305402596022  0.6675454715988228
  0.9862486024265119  0.6685659212398355  0.6671682757450252
  0.3331963668219515  0.6651251363333672  0.6655972034414411
  0.0790037245634730  0.9082596683972144  0.8338811221880483
  0.2495644959017169  0.5845825978910750  0.1666160635411497
  0.1664687043256571  0.9972540895760750  0.0130572714268965
  0.5785918823527083  0.5019239931921977  0.9165170438661087
  0.7462025491829956  0.5956795647103248  0.1683332505997998
  0.2494743911392280  0.0824055787066641  0.3305840055049539
  0.5780592559319712  0.7508270848952900  0.4985091543504959
  0.1744219487307358  0.1673839083888752  0.0030490671045692
  0.3311361937897924  0.4169036528501009  0.5825078579300285
  0.9955978180781077  0.7501434920347794  0.4224988210511514
  0.8320265036850575  0.8325283806198087  0.3347002332745961
  0.2489473727535558  0.0860553712397562  0.5058866778724976
  0.2513996925326908  0.1705862913592405  0.4204832211754160
  0.1688858628404014  0.5014855278881545  0.3331708924064081
  0.8338347795813285  0.6761174032445284  0.1691792986390538
  0.3307896067308323  0.4167561885846369  0.4167757970228789
  0.8316369690966555  0.6692169381990587  0.3344115318259478
  0.1602152918479196  0.9982607981523309  0.6604624806876276
  0.2502306863087364  0.9989013123724924  0.5709195497539288
  0.4885296825330846  0.4171495500898316  0.4161871742352545
  0.6714877183780232  0.5870944542790257  0.4156206111482321
  0.1659546472684434  0.4203401093679157  0.0873630591805713
  0.8333154844799344  0.7586894268842072  0.0832268897634643
  0.8325898416764660  0.6689018013286655  0.9915221261352551
  0.2477420646124523  0.9976214351405907  0.9216947354994335
  0.4116395807782797  0.5055864787402605  0.2474792255754443
  0.4953586475124311  0.3372716675780129  0.9975876948807583
  0.6647748268040229  0.6606910415178152  0.6694203114272564
  0.0839960254711576  0.0866750748256554  0.3304052332287593
  0.6650300469533946  0.7492225524303578  0.7581936346659393
  0.3295321151377230  0.4183560672965411  0.0822409466715502
  0.8308570149035974  0.5850338772140803  0.7529042504201676
  0.2504923348503785  0.2578662401537841  0.3322353386252130
  0.4979576817685540  0.0837587045236962  0.9157352187678982
  0.3291844950310475  0.0904260749827626  0.9209627916637813
  0.5801611925734417  0.9120992245760634  0.9985792569470043
  0.6563052658118883  0.3342771933240092  0.1612228812231258
  0.9139692260029822  0.5852893543721627  0.4989064745552942
  0.0880472072903838  0.1669223995405632  0.4164322107049254
  0.4131410520694875  0.3356377933617687  0.5836308264022576
  0.0840371258544150  0.5850933235117762  0.1690851593834045
  0.4941491949340785  0.2510255931269590  0.2505782724444272
  0.3333506255550475  0.1718933772160128  0.5007254783401021
  0.6618783524475255  0.1749025906121760  0.3373513550845110
  0.2490830966566664  0.0927099653725763  0.6630114843140449
  0.6613527012923188  0.7461192066704730  0.0808045263985171
  0.3326302905478933  0.2533540499016333  0.7451355704859473
  0.0923280328703198  0.1663972404076317  0.0873946177659630
  0.4142785648268952  0.3296863069942154  0.2494358650039316
  0.2422808557877827  0.2545775778796370  0.8333559676903022
  0.5695347264944662  0.3327196685770841  0.2496331456324111
  0.7449587835285807  0.4158801706627839  0.5084362113778856
  0.6621349344488962  0.9138358682477900  0.2586435956674860
  0.2512708087450811  0.1684427111935193  0.0866563279910792
  0.0928295393490150  0.3358147671372275  0.0884805737603189
  0.0830852427362367  0.8305545936286103  0.0851977336327508
  0.9154671994100844  0.2471344595017697  0.6692633952770727
  0.3319859591815162  0.8316901969335283  0.4978995270092347
  0.7446832345443692  0.4190185945904191  0.6700931361367123
  0.4179345844093069  0.0009444447688684  0.5824578259009346
  0.8237530381556452  0.2485280419926028  0.4197003541608408
  0.0877145538445374  0.3366240344872512  0.2503071972299775
  0.9146069177875696  0.3389951003693798  0.4170898650532645
  0.9991978092580212  0.5027103635104239  0.8322489470725301
  0.0056244255711470  0.4237631939239840  0.0883329126998112
  0.3322756495362281  0.4176717988779002  0.7492065895126335
  0.8311631595253540  0.4190868895587608  0.7619947647122478
  0.4229080408759971  0.0034639950503355  0.9154634343727118
  0.5831536448343132  0.9144231094387846  0.4991811242252859
  0.3350608041977328  0.9988876617616967  0.6610634619562996
  0.7477435898547632  0.9149084744587246  0.4988465036403917
  0.8374888107324047  0.2541116061970080  0.0852899322905680
  0.9181829224119636  0.4256924491903615  0.9959402672025316
  0.6666477220121678  0.7504186625954100  0.5843930672968335
  0.2448544261435017  0.9147926690842848  0.3331800864271501
  0.8284467961282038  0.3345044048353926  0.9926681190864690
  0.4203120835593998  0.9147655499610212  0.3333500343682705
  0.6658237002993812  0.8407431280311506  0.5002928462699811
  0.9177411848570656  0.3350626755579009  0.2518312708136795
  0.3339912235515549  0.0044002944176352  0.1667568270276924
  0.9980017688473546  0.1666688446124040  0.5088327690210828
  0.8385652909324807  0.4997393853357403  0.1677258092757721
  0.3310234737244439  0.9981132160418109  0.8355798172015662
  0.7479104370167068  0.8315456311842897  0.9161748829119326
  0.1650133924414149  0.3350616319719123  0.9997965576371879
  0.3284193667073427  0.0926983426935296  0.7438523197707075
  0.9250581064078160  0.5860319755543546  0.1690619327497207
  0.9220533266092820  0.2460858327559828  0.9933687648865966
  0.1660039523818712  0.3353876943698668  0.6692908577632115
  0.4986146730584999  0.7472400593183610  0.9181249871878028
  0.0806529356587024  0.4993109568799341  0.7564378600036717
  0.9987933811945460  0.2494174914970023  0.5855025644194329
  0.2493088009409231  0.7489597741261538  0.3331059247919864
  0.7480881387884422  0.9131671501343933  0.9918172352948952
  0.0805342935158797  0.7560433219676264  0.6625604556890160
  0.2482208814358151  0.9981704249138067  0.7489891815532743
  0.8395129548261523  0.9926443731858556  0.1683115108670624
  0.2478338582222825  0.5764424881787618  0.6636459747509227
  0.2465532628972074  0.7476554973235545  0.0009264420809208
  0.8310252439797412  0.1635899842943515  0.8297088376062965
  0.1653784021884520  0.5830765309421759  0.9179364064476974
  0.0004777656079411  0.2527033530909016  0.4164190452047121
  0.9173317534311900  0.9125128360055929  0.1676589956074360
  0.8369620509857041  0.0745548347139396  0.0793125797530646
  0.7517712924125970  0.0821207557947779  0.3370399098531878
  0.4182711123426901  0.0853262131486796  0.3337562798877547
  0.3316510474800213  0.8264539106361495  0.3321582308200481
  0.9111503119229609  0.9990983035569071  0.5826328338254053
  0.9965108288567104  0.1668619795693349  0.6644430580445455
  0.9119999165122427  0.9982642609191988  0.4170240036152798
  0.9127734200513771  0.9146942034024099  0.8323977107058195
  0.3304678520793393  0.7479240053128764  0.9180247061375828
  0.7487513534436414  0.2436970601418478  0.1724527084450205
  0.0027597204049529  0.1636989855846572  0.3297447548698723
  0.5902030290956225  0.6643314485128675  0.7547659340531515
  0.8338747202966356  0.1700726186272406  0.1736531042527016
  0.9108383862252020  0.1619373815174502  0.4181172576771628
  0.8328388726842560  0.1559345651306417  0.9931445155233839
  0.0866886088396798  0.1652074088505993  0.9968901296716877
  0.7439475872131603  0.2462173789188482  0.0820786474953502
  0.4219404701894125  0.8335681608919790  0.6679830565415255
  0.9100924131163995  0.2503128056404353  0.4180188582755842
  0.1613151958521812  0.0035530949507708  0.7490774437642971
  0.8342610108483948  0.4200311296790659  0.5012594267381442
  0.5033455359857162  0.6646063565123870  0.7561545950442842
  0.3319966042482415  0.9154708955629501  0.1641062392508905
  0.4258906039223274  0.0082853633265602  0.6691446266391331
  0.5739248332865732  0.4085907959270841  0.4167308440119726
  0.0013161040263608  0.7502552149640457  0.3342705365982299
  0.6591822796109452  0.9065933096193921  0.1701280038689171
  0.0005064329181169  0.1623142823168374  0.4192181170694168
  0.6704997511682020  0.7496829210067480  0.6719659689274227
  0.0048662085261904  0.3351146926802958  0.0879318952346658
  0.6616134059039256  0.0850249909386505  0.3431484770495042
  0.2475543903725595  0.0029685386899338  0.6570191549425740
  0.4128754313066375  0.4177782549961152  0.2478620199629516
  0.2505953245736582  0.0801681097490024  0.4186430843559993
  0.4206197655649334  0.0008532351504777  0.4959898195269648
  0.5819516292565744  0.2512077354193052  0.7485312836945811
  0.6552813732332470  0.2543077936985561  0.9923234113081640
  0.2485575775604120  0.5805774011838841  0.7523162552534726
  0.3311844728084468  0.2572453755247746  0.8346783638898350
  0.6585343348189185  0.0856976284733484  0.1682874916675881
  0.0799701369229935  0.7482067702479335  0.9223479046717364
  0.0711742218086173  0.0017372922088160  0.6583119378168518
  0.0798969508132365  0.4932687153934029  0.6667025899691283
  0.4151130185506218  0.6649512040098541  0.4938686518121271
  0.6668832102640735  0.7513489866345833  0.4954346739056891
  0.0807091460122476  0.9986715915885629  0.3324391585030270
  0.3318204611710861  0.0873086502518538  0.8333156713140538
  0.0720722403748930  0.9992148512295892  0.8357244298457098
  0.8330521495257492  0.4182286975558411  0.6758851641931590
  0.1660523582412947  0.3341145147481512  0.5832403396398043
  0.0783743323635225  0.7508965422100372  0.5733338311846389
  0.6569151328279688  0.3314333563565384  0.2530491425868598
  0.8337547295710481  0.2438675841661701  0.9916553707927759
  0.7486604773882416  0.9098063540653423  0.0783175123419279
  0.4210679301057441  0.6561753856064340  0.6698947539616944
  0.0039275073613285  0.3410681676207027  0.4158057076038394
  0.7487681361984595  0.4182036210668549  0.4209535648989962
  0.2520225036211898  0.1707857516998027  0.3299543310515157
  0.5820910016925661  0.5876839388753993  0.4128301727380902
  0.7492568519293679  0.3314410651225917  0.1676809986825541
  0.9192737634595342  0.3355862530134964  0.9934808518333473
  0.3367364324220000  0.0010216068139197  0.7489721244096613
  0.0085890939349948  0.4239944118709277  0.9973392999184305
  0.5794829720777747  0.5004021210934345  0.5076375878446368
  0.5718401512297278  0.0837613963477782  0.0809749213412926
  0.4201126317069509  0.9120638930070299  0.9190325775997228
  0.2446808976445254  0.6657109785652618  0.6646910529834138
  0.3354206313268250  0.0021452552671459  0.9260794793933145
  0.8327783540835928  0.6728567381655906  0.0794614647597091
  0.1609927274656722  0.0004078596738387  0.9267520064282518
  0.8298253751295811  0.4222972887458335  0.9922536740218200
  0.0045838161526499  0.1613262171332082  0.0879919312492234
  0.0786188066410959  0.7545052617709788  0.7522787951700050
  0.7432351266668109  0.5094323053484793  0.1677278118046148
  0.3322210615768794  0.9162098775591697  0.3367697190695286
  0.7523716194112345  0.9948997703307667  0.1696386744057628
  0.7489732391267796  0.4189038338326701  0.2530360204418309
  0.0734327385228352  0.6668859482406669  0.6641193917874983
  0.6644932761626741  0.0798183944124980  0.9901560105090200
  0.7445348695907890  0.4252764995935182  0.0748882122410064
  0.8382248058791041  0.0810022680193997  0.1711426968309724
  0.3299677456686011  0.7539345639256440  0.6692050697931979
  0.8374108537580381  0.5880952988368041  0.1693686140829652
  0.8343706491061228  0.1628612486625413  0.0831937936038925
  0.9180428156847429  0.4184145273594856  0.8315628747033168
  0.9990967565518334  0.5840866184243577  0.9152926660966748
  0.0839533338825583  0.5028161329388429  0.9153782939386319
  0.0812831298478349  0.5843553897963006  0.8340009149072872
  0.9963893929746304  0.3319007280277317  0.6681666729415702
  0.2491851609753689  0.8318167217188839  0.9189398165115648
  0.5016030130232602  0.0851807598101403  0.5844186149174588
  0.2477392186944877  0.6655866523436810  0.9184108258771415
  0.5858648761058647  0.9992944634402162  0.5828932857162572
  0.9974296761412936  0.5027744633101040  0.5005347540200447
  0.9998193873256311  0.7498968770435991  0.0851682825527337
  0.9963863041634153  0.5848175877783308  0.7510334865168069
  0.0834189701504785  0.6657646658126911  0.0846879912279500
  0.1652947086440150  0.5000180430755204  0.8350708156972211
  0.1651649602367648  0.6668913049995778  0.8357737099041875
  0.0022176039403620  0.5853664021228836  0.2517002285773333
  0.4940027010011876  0.2536469525051858  0.0815529998156941
  0.4971781000402147  0.2522025653466256  0.5844411863153334
  0.0884584165061666  0.7499496243036387  0.3356993676779150
  0.5803722795417433  0.0832690286625847  0.8320977819004223
  0.0011514114091583  0.4176445767608892  0.9101933790085661
  0.3327959413082704  0.2522196690177423  0.2494231299353133
  0.0016572531815579  0.5850868149495290  0.0853894402169108
  0.4149930136222815  0.1687110709290975  0.2499850636038431
  0.0847657978225308  0.5847794595402004  0.0007246478317897
  0.5747190474010160  0.1680581765811739  0.2507932065456995
  0.9172037787336687  0.5859636647572816  0.3344358568780542
  0.5740776456581557  0.1726628127376360  0.0808260550360581
  0.1675316339246722  0.5829634264765862  0.4154677217650730
  0.4167583211529665  0.1686236012903178  0.4193118477595963
  0.9958309922929560  0.9158793814876508  0.4182704944175223
  0.4961881986004767  0.2497169946817979  0.4207842779260736
  0.9974687850905563  0.8322590434048512  0.0025005212389352
  0.4954950420643311  0.1686203757725537  0.3353113704989492
  0.9138299174787889  0.9145354838484273  0.3346182390761603
  0.5844554665713686  0.0845957748325971  0.6665699098487865
  0.4167489097419378  0.9998604836013398  0.2503077874378768
  0.4156318924085063  0.8303163258604914  0.2490346693081285
  0.4963189923293316  0.9144474935287001  0.2502342597738889
  0.4169047903054316  0.8322033116831812  0.4163127811844745
  0.3328857243155440  0.9146425783721057  0.4231481399891681
  0.4187236903825854  0.9121605977357119  0.4991473307785433
  0.3325833012588105  0.9152918189237943  0.2504058620922857
  0.2475302775326323  0.9126327335397370  0.6631342164242261
  0.4189386854692962  0.8329126764750985  0.5781730757290650
  0.4181765280861794  0.0006572339818971  0.4106643913621938
  0.3317091702389187  0.9117747690653309  0.7516330601162744
  0.5085322813643141  0.8344379244706330  0.6685442393611141
  0.3334790012764032  0.9147730977792637  0.5792483658487672
  0.3315685940410715  0.8317731032812065  0.8365604893996489
  0.4162164051465432  0.8277013546998413  0.0826787650705238
  0.5855107318544207  0.9993940043120351  0.7504932841816080
  0.4942077213103142  0.1682542063094670  0.9967707711245259
  0.4970401105236718  0.8284904362551251  0.1657187633300388
  0.0845335951852513  0.5019751194090892  0.4157352078251066
  0.5007408796635512  0.0845882737246981  0.7478706300451345
  0.9141938073454825  0.6665236800302996  0.4165151669679681
  0.9900346113472850  0.7498249935900232  0.5811964522973967
  0.8320964963298287  0.6661313670024397  0.6681865065546995
  0.1633173441163208  0.8360164898748712  0.6640789094478768
  0.9994357180679599  0.6658405315461864  0.0008444446979082
  0.0817897103711366  0.6608394940616400  0.9178364948211842
  0.1657751927089087  0.9126150898051489  0.0861993485102226
  0.0829698196300068  0.4169406711707876  0.8329329490473956
  0.4169147601810737  0.8313306645174363  0.7566083224490081
  0.5775941422147780  0.9990815618777164  0.2498720180822300
  0.4989813093440901  0.0852839079353141  0.4191216293413895
  0.5036632888291255  0.9997164857734973  0.8327435010360807
  0.4150356972041402  0.1688758344328656  0.9167388452962832
  0.5808370927116604  0.9987247323207475  0.9155195650148052
  0.5810695754804336  0.9988158756578148  0.4174689255899235
  0.3322923600261380  0.9111830398785096  0.0779472462925459
  0.0841980936950243  0.8319332730700644  0.2496906043556705
  0.5805930156899448  0.0846376378119239  0.5022224650946324
  0.4149480204398617  0.7461535972943714  0.9999503327607216
  0.0024544674977799  0.3366873633053963  0.3269014397569744
  0.1664181016439551  0.3347617709087960  0.4960003828404425
  0.0855207485947311  0.4200136710187020  0.3318596942549310
  0.9981713157564944  0.3337074714484725  0.5052270380023927
  0.0780798939699832  0.3341509505379519  0.5835013029569552
  0.0813477084773732  0.4189178920392663  0.4983695778881699
  0.1656605928596575  0.4179574047120232  0.9149853025650642
  0.9154152705822719  0.0813509223709279  0.3349229377820126
  0.0865167667796816  0.2512844858669268  0.1695799892882179
  0.0850362535943793  0.1662439101582723  0.2490031051250176
  0.0837437338309498  0.9968787246294777  0.2449980488358040
  0.1666170038748469  0.2507069988280539  0.4161747495264679
  0.0819397236210372  0.3330401044743257  0.7502459475502526
  0.0021683674087130  0.5097816830997578  0.9999884215604367
  0.0834115748336716  0.0815063814805052  0.1673491839950554
  0.1700105742108664  0.3348565210751924  0.1696219656983550
  0.0026950795431464  0.3352281540943939  0.1749656547353594
  0.1676515812305333  0.5036279450283374  0.1685107526895954
  0.3309472406075073  0.3355492921496187  0.1647338270037763
  0.1660797233183125  0.4999591026531528  0.4982242499509968
  0.9133334037187373  0.0811571924060330  0.5014269446751912
  0.9927422738592869  0.8330312197497336  0.6638334014401175
  0.9170293123866503  0.9940190961458457  0.0825805809373655
  0.9949876173743302  0.8342038469833595  0.4984948057367006
  0.7480435114592142  0.6678695354052675  0.9159197592474926
  0.9124417559042849  0.1654313050233883  0.5849121142544651
  0.6651188192943569  0.7485144041578795  0.9158313052502126
  0.0825975749775680  0.2513445087344082  0.4989705241938399
  0.5791337008402628  0.4201447574994167  0.8324928332099941
  0.0812496609678710  0.1690010210729510  0.7481745156943117
  0.9140886315540447  0.2492221448861533  0.5069256911583345
  0.2496332285194962  0.5806574137706750  0.4977833238496794
  0.7489568390130544  0.9155306121187475  0.8334542109496085
  0.2498477778346020  0.4998333746521215  0.4157193056386151
  0.8309038643131313  0.0811904802434905  0.4190351470250387
  0.4967966346856271  0.3360279027546101  0.6664286495113967
  0.0827127377552401  0.0768896649410756  0.0026992756905695
  0.1675105773009822  0.0825457435295386  0.2481741045429003
  0.0819242546047466  0.5823863647904011  0.4975194965582331
  0.0832237693493790  0.6643712220112084  0.4159122423696460
  0.0793931538719321  0.7521772102302837  0.8366964573821152
  0.0835634812464531  0.9134386550243710  0.1671296824122018
  0.9962946226081418  0.6672684420526336  0.8335250002237411
  0.0845200364226047  0.6663281377683178  0.2510219530034680
  0.0835040321367934  0.7491614965428275  0.1669290288588685
  0.0024667815284137  0.6677218643254065  0.1674403298190833
  0.9995831946821639  0.9137475808965693  0.0847196348731245
  0.0840631371011627  0.2505478020783323  0.8311732873830614
  0.1645328787845138  0.9105684144385394  0.9200910144586389
  0.0862185533296183  0.5039854435183875  0.0861187112514842
  0.1679257711368534  0.7527897553192970  0.7510250299065201
  0.0026924493396683  0.5027628515171285  0.1687202666583323
  0.0001925219228619  0.0797958149732169  0.2508560592041591
  0.0022317818231916  0.4208643013964747  0.2508702785776672
  0.0009305448726312  0.8321387348128307  0.1673713717481927
  0.9983925165846159  0.4155552687033455  0.7524001834845110
  0.9980602759173265  0.0758592462530784  0.4184963701763126
  0.7480595255556908  0.6702125826942215  0.2521651554466056
  0.9136277590575791  0.1643987980930254  0.7486751547073079
  0.7458210126017176  0.8232452466365067  0.0811507824634591
  0.0804913712741837  0.0895276427821291  0.6646707619874208
  0.9196011453290461  0.5035422107027392  0.2521966816679753
  0.9985371456936100  0.0815166419632609  0.9152930047646409
  0.9146831044009170  0.5026152463078111  0.5839637234223449
  0.9996177109888891  0.0736301545131246  0.0840890898627435
  0.8298148108699677  0.8344942761808229  0.6664405369023828
  0.1661958963636603  0.2519020317469726  0.9161841387524294
  0.9182464539635289  0.7515372526572278  0.1691816665536706
  0.0006008055714296  0.3321029108203339  0.8308796591231019
  0.7430216150237652  0.6686436305523564  0.0807779346654383
  0.9178121726234545  0.4197752133676518  0.3324635528971082
  0.6617563434058618  0.6686258623563445  0.1664149531145984
  0.1665182309165347  0.9981112183167812  0.1664385592654321
  0.4143661492694767  0.3369336093190033  0.7493700545888435
  0.3385100006040118  0.0859485248128030  0.4179639659516886
  0.3393341364167984  0.1691939320386111  0.3335689844566232
  0.4937944091625778  0.2529710973727791  0.7479834026790421
  0.4136241435806013  0.3365209574749543  0.0811645286309760
  0.4957507697123833  0.9981284986701087  0.1676610579601445
  0.3360430673403625  0.5807062187407304  0.7521578654329637
  0.3310716682101604  0.1695784569355768  0.0015872713473843
  0.5002692854321766  0.5812733526579611  0.5847320502387450
  0.4146041480462800  0.0852500721292677  0.9988781880840962
  0.4131477363656009  0.6652236999354632  0.9188423944250631