Cr  N Ni 
 1.0000000000000000
    21.1250329189096107    0.0000000000000000    0.0000000000000000
     0.0000000000000000   21.1250329189096107    0.0000000000000000
     0.0000000000000000    0.0000000000000000   21.1250329189096107
 Cr  N   Ni 
 259  69 605
Direct
  0.2428957099024695  0.9151190806092097  0.1671102964005728
  0.8290990842404378  0.6696269564334162  0.9934550358188077
  0.3322557643957410  0.3329765555336385  0.1609426898652553
  0.3260696190128216  0.4215882934332644  0.2492970465138542
  0.9942011779180346  0.9945673905612368  0.3350000698041973
  0.5732511877445102  0.5830572970906429  0.6687820428179780
  0.3327756042734242  0.4196703094527731  0.0841683989071072
  0.6618777553743644  0.7509269668140180  0.7583935423841471
  0.0907318247224655  0.3362167020336372  0.2524182995673984
  0.9201184143091456  0.5823338032720716  0.6638737768390388
  0.3318482642269675  0.0842576064781139  0.9160523532914058
  0.5801782733610293  0.9167472195975401  0.8331084058729052
  0.6552873839874340  0.3347115527988571  0.1633983078288342
  0.5790984232479741  0.9151348408150946  0.9938067325962462
  0.2583080128740072  0.0003317777166769  0.9175000321272435
  0.0016489802187635  0.5864395432236326  0.4184622676896776
  0.0870920222078058  0.1669100863263294  0.4131055640100562
  0.4941011363459532  0.2438932438647515  0.2527763689489257
  0.0859937314083663  0.6673042326440599  0.0838918406202488
  0.6625619947155069  0.1735228761620824  0.3374190976002876
  0.2483198148162856  0.1725964488644937  0.5824511407579003
  0.6598565254307479  0.8206285587510652  0.1688777889172726
  0.2486277958999467  0.0847552165542548  0.6704005701882721
  0.0900211004141220  0.1671961347118784  0.0855487191612813
  0.3342715947452132  0.2509800325702474  0.7442706631724546
  0.2461342759153094  0.2513192883697960  0.8325306023786491
  0.4146753222480845  0.3322961519690322  0.2520872013425229
  0.7435346844375191  0.4121066697451141  0.5058876726928333
  0.5894825673010833  0.3308373542042675  0.2516806779387358
  0.3307350886475570  0.2498514763415494  0.5819830005816380
  0.8317546205841949  0.7587500360721453  0.0821385728921894
  0.7489901514301754  0.9957548029223864  0.2572887522810535
  0.1693665608868554  0.5055569762748282  0.0009167037692301
  0.9976219235374755  0.7502171621629107  0.4229421526856291
  0.7467712299385327  0.5857059081374199  0.6696308716441731
  0.1740034833988088  0.1675870116283437  0.4976097829816883
  0.0801701941939123  0.8416363151988220  0.7501307079529993
  0.1687049866805883  0.3358445845424678  0.4991906046160942
  0.8287878587086288  0.4145497491944146  0.5868107305942108
  0.2518995187387817  0.9957931121507081  0.5760746472723656
  0.9889290669305167  0.6689575643511613  0.6606619372164014
  0.3356237057042274  0.1658734012429649  0.1690592849289031
  0.0834935039389587  0.7536587013646012  0.8352091890169849
  0.0931520091847888  0.3324503665699314  0.0867784212136925
  0.1690117164897919  0.9971380213816081  0.0084806741075232
  0.1767772438893623  0.1682879818568888  0.9988802530205596
  0.7436756791993053  0.5952024251238126  0.1685297230298441
  0.8325784323524167  0.8326343059218062  0.3352616802579699
  0.7528628315209123  0.7526920867338351  0.6666618576092664
  0.4132595203662559  0.4104136811601349  0.6638939563719305
  0.0847400937190909  0.5849639483582274  0.1670633364353159
  0.3349006398139862  0.6694001076444694  0.6643119539028558
  0.2486344147405107  0.0834643061981390  0.4932324844455032
  0.8328119315930448  0.6699827259746750  0.3342088570716334
  0.2498033881013199  0.5839289624502519  0.1657886010610789
  0.8330437008723026  0.6766906661711530  0.1698154075584472
  0.4873338131980801  0.4163579444925715  0.4193334511533617
  0.5770294803549866  0.5027238191619390  0.9162382130160140
  0.1612493701203952  0.9961459360143381  0.6674351040071529
  0.5753203260296902  0.5826787537985569  0.5005883275186148
  0.6656556738717714  0.6694200978967242  0.5015995317942226
  0.6673007702908423  0.5862182529805586  0.4108938587922187
  0.0806864539617410  0.8332529826375834  0.5787756150488488
  0.0822907125314461  0.9960068551156031  0.4204754751063042
  0.8281833804775166  0.6697605460064542  0.8351071246804926
  0.6652585842813737  0.8446652228540502  0.5008441111341151
  0.8318776590065254  0.2500968542495193  0.9019174306750278
  0.9998036602373375  0.2484299929489354  0.5932845530331878
  0.9187320945271161  0.9111880307809248  0.1683510846045535
  0.7472865259833799  0.9138572567430278  0.0047626575709951
  0.4944560840958264  0.2470618673398479  0.4209952220586723
  0.2498575929323047  0.9066635293560596  0.6658551430291169
  0.1698589406798032  0.3336620424966905  0.6664916247925341
  0.2496868335209383  0.5822963217097655  0.6633389590945429
  0.3333883377171995  0.7485633295534196  0.0849848592679846
  0.9225709186585240  0.5851241162493459  0.1686231248525921
  0.2514536235929992  0.5836306662074378  0.8410417347765919
  0.0001778350949393  0.2500635911558605  0.4164919161261942
  0.9142106425380067  0.4266728834786651  0.9939086828521785
  0.6630165123949667  0.6683170794256689  0.8339882267268599
  0.8324934004761819  0.0728364309959175  0.0827845037776632
  0.8241159182481080  0.3374274781162713  0.9950525404329342
  0.4971908450740850  0.9166941159054564  0.4161043561595376
  0.9144718480908137  0.0827543471118982  0.6657131687226061
  0.0834093435458570  0.1676529778027693  0.7496442298710879
  0.8309260114743821  0.9964377043334550  0.3342412203484090
  0.9131674321963231  0.9152827073642703  0.8328198923222685
  0.3315388437330057  0.7490086434041285  0.9187316292441698
  0.7471320759475146  0.2445677352637118  0.1736293511727222
  0.0008144480877000  0.1651076156609357  0.3258181970291407
  0.4971644192413924  0.6678254767656235  0.8345804324830900
  0.8323279126565815  0.1702355210802312  0.1734030901267134
  0.9068009142463123  0.1641927886546347  0.4169778171944727
  0.8297589811438115  0.1573429354195952  0.9949451067314239
  0.7522954078224392  0.0830699525227376  0.3361796666188555
  0.9181047257107001  0.4188295250540194  0.3244357084005913
  0.9203871477248556  0.2463269058813627  0.9996362169589547
  0.8360788523003659  0.5004007620785684  0.1726227156100736
  0.3345756410715870  0.9987721746367595  0.6702741890788911
  0.7483073126923567  0.9157032470352759  0.4993438163722806
  0.8357387260001873  0.2521495175257434  0.0853425354865304
  0.8272858095193566  0.5009389060174554  0.6655786223852551
  0.9141515768261288  0.2476061877922373  0.6675859314066737
  0.0845411548915759  0.9965245364247630  0.2462802310891573
  0.1686015461953633  0.3363850236068240  0.3334876891784646
  0.4158600926106450  0.9983903373770006  0.5743838385968919
  0.6645273124570424  0.7509419314993389  0.4083160939515908
  0.0057236290491143  0.4253915711427146  0.0854809797974501
  0.9141460115991459  0.3288544062714878  0.4156427453191303
  0.9954441367115549  0.1613293520452644  0.5034116049093359
  0.4125163237668010  0.0068130556719687  0.9158219682077030
  0.2510582014621844  0.4930303489326072  0.7513310493612493
  0.7462478052831967  0.8292275445100439  0.9152138822082324
  0.1678724901241757  0.3319008581146739  0.0000175701254685
  0.3322118344717922  0.0837958958184658  0.7484568465464243
  0.0829939877913546  0.7496698856399915  0.0101623309038894
  0.6625026292357823  0.7528770507309022  0.5839026092559415
  0.3315710754385512  0.8348114302301483  0.4955895813237799
  0.0851001951264294  0.5002140230458735  0.7529534674765227
  0.3327211210808989  0.8345260919255671  0.3343495095117806
  0.8330527433588470  0.2492348121501753  0.4174478678067235
  0.2489564380967962  0.7508123365902761  0.3368617385086450
  0.3349388961365277  0.0052895255022786  0.1687356880711235
  0.9998498733134045  0.5055238765013023  0.8311752494301881
  0.0803783861533971  0.7570663814190489  0.6572375626655953
  0.3313168939926893  0.9996121079832401  0.8319706054528258
  0.8290441241749184  0.4194816444617179  0.7603839456071030
  0.8337413697406509  0.0800377508034829  0.2586334915795078
  0.9175183989051749  0.5883535917088867  0.3342388386884698
  0.2509776511829993  0.0831154488059211  0.3345278914650827
  0.7469579028649658  0.5029994365444692  0.2588248468428527
  0.6604620018629305  0.9959427831708983  0.1706945293148935
  0.0007108989999166  0.2496746555636392  0.0887032882731302
  0.0837787664574939  0.1678994807568442  0.5898105624132862
  0.9209335727677486  0.4165414101691757  0.5025423067637500
  0.6596601086064108  0.2458633792977866  0.2524123468216598
  0.5678094569988418  0.2510853805724695  0.9971240198064937
  0.7445471479694203  0.0830005474190121  0.1737163048364985
  0.6624850423764326  0.3349826268734779  0.8247464645261289
  0.0833917722757750  0.1671046703395575  0.9077148378878466
  0.9197093253138493  0.4159470982141513  0.6656264495304312
  0.1675176556325910  0.9989843576415205  0.8307237531437193
  0.5086971434765973  0.9995947098807443  0.6661374228948487
  0.5747757332459520  0.2489700423595927  0.8356733397494936
  0.6612613937342152  0.0826276013400721  0.9121439416271375
  0.0033559722886040  0.3340726259866403  0.9999475600479755
  0.4899399166647253  0.2503320245788678  0.7465270427732170
  0.0016059542621141  0.1662629093725057  0.1796009619428125
  0.0887612616573099  0.4185188726774457  0.8294877051114646
  0.4958260269513645  0.1667401177862116  0.5006906644615280
  0.6591978907891997  0.1544267329398465  0.9953028256687261
  0.6647937142948298  0.0812051614086913  0.5814130267296962
  0.6557360371151323  0.2507301795809908  0.0864021068314024
  0.0000768608366291  0.3379621975658414  0.5048268743458143
  0.5710349743980442  0.3337176413748296  0.9143679738777033
  0.7457365228916810  0.9983977089267231  0.0780816237815746
  0.3349844891970615  0.2515941158389263  0.9210072762590596
  0.0944826434097189  0.3345437572691069  0.4129342933494032
  0.2506151239062478  0.4180429762865259  0.8342823227094701
  0.6618704839652441  0.3275206705562126  0.3351633874844130
  0.4215482838705333  0.2496311771966037  0.8312324773806149
  0.5807564598259329  0.4127109769567843  0.5070035569307011
  0.6657465561241440  0.2484708149262264  0.7495031848540461
  0.2521755189708132  0.6705911295520788  0.7556942698455529
  0.4143264365435845  0.6682796081430451  0.4080927395852713
  0.4182874018952824  0.9147278354129520  0.1700886125567467
  0.5083795804555942  0.6686638121999818  0.6679018250066266
  0.0844955917713412  0.9956662580209437  0.0858952632949882
  0.0016267575376327  0.1632213578143100  0.0024526094146317
  0.5740575987017121  0.9139432165243256  0.1704562432232514
  0.4961909572645415  0.7470319562504759  0.0835154830143359
  0.3344665528538498  0.5032272097658593  0.0008323225259280
  0.6610494833121093  0.6680111300159519  0.9982371672509130
  0.4174612259872703  0.5830344109775025  0.6668169862600323
  0.5774727980547696  0.8308271812608928  0.2509794076481128
  0.5775260801311710  0.5845893222126014  0.3254900536609264
  0.6657118557019136  0.9161462012257984  0.0775349893095869
  0.3340279810284774  0.5837452815864390  0.9173489517241930
  0.0819065710670381  0.9957542943924728  0.5742003681869554
  0.5026269250564394  0.6689082598974355  0.5000864511081190
  0.9893356013994832  0.9974327115154361  0.8310115728315489
  0.6607472615807469  0.4150998715526027  0.4133932046591716
  0.4994953264741795  0.8364861466055366  0.4963219640642048
  0.9871476750621688  0.9981999734287144  0.6660257962764188
  0.4151139348236261  0.9166048687275824  0.8304535626034251
  0.5790172274300932  0.5872853066053592  0.1670281788323404
  0.9148287878123810  0.3325699680192973  0.0899170615663375
  0.0801332118645398  0.9955522819427719  0.9230758402530531
  0.5038311501183691  0.9159203318687836  0.9152057356062517
  0.4989112283556664  0.8370227060228606  0.6672124908957519
  0.6620610331859258  0.0838507576965537  0.2525834723453714
  0.8291434733745504  0.3319923317958175  0.8299958831077654
  0.0795197234013880  0.9957020431087589  0.7482933391283733
  0.5796408768748299  0.3313053493467360  0.5837627770033100
  0.5001862266733381  0.4208634399745225  0.2486805778966653
  0.6597968379943178  0.0776943927324830  0.0764099442154923
  0.7430105877689464  0.3309190446141070  0.2596809128011402
  0.2492534268947203  0.5828535349320935  0.3348918020542710
  0.7555456609567756  0.7514692720605542  0.4994236433099515
  0.0082998060752362  0.4249680299516076  0.4143120800059374
  0.2511414754580703  0.7509384126068156  0.1631163756165627
  0.0822199120244685  0.7525169063273788  0.4987531298821021
  0.4157177844101877  0.6691899165900819  0.5822740848193707
  0.1698318527047576  0.0824243791437919  0.2507617036522382
  0.9994064573752346  0.8369322980409659  0.3352191423824236
  0.6542917228459342  0.4180953862245271  0.0791253436519588
  0.0009663399110862  0.6686566619049891  0.0096931120263281
  0.7468677920733300  0.0815084367590420  0.6657276088164888
  0.7446149843979167  0.5123242162170256  0.0807275101588540
  0.5681863579588567  0.0837852724497150  0.1695019619899455
  0.7486704257539406  0.9184414243775764  0.6674850237826313
  0.7441874904450037  0.5044181392504320  0.9134430318316603
  0.9993390598177226  0.3298519637530684  0.8253001695640362
  0.9156449904681321  0.9156283923868501  0.9999555976265072
  0.3261650741069314  0.6667115437465961  0.4984991701397942
  0.4122971803732343  0.0825409049749392  0.9988590822702633
  0.1657634309789927  0.9142767900086616  0.0831885186354176
  0.2511223133786998  0.5821307985240403  0.4982735122856581
  0.3267339553395924  0.9149698875816715  0.9165202136283356
  0.4149998924947840  0.0862749910607885  0.6664401073659066
  0.0830756334859341  0.6664584374945320  0.7551597802124225
  0.6591111445958013  0.3366544860066708  0.0009575045485380
  0.9118126006570644  0.8343268281018735  0.5807896345621956
  0.4162266404719882  0.7624922121994231  0.6648796796842485
  0.9115558147012131  0.3307494027440558  0.9087697946406479
  0.0019275374217617  0.6602110838397485  0.3356502139977912
  0.5806436325953170  0.2481717746943796  0.6586167176068295
  0.0026350106081148  0.7504903592319491  0.2457401338686770
  0.4170157323342978  0.6689542720490057  0.7598740121309401
  0.6643425666565919  0.9953104121813429  0.3322035092243783
  0.3324102656333850  0.8336901964518278  0.6661214627791006
  0.6653440463857194  0.0821834052572535  0.4284616902960022
  0.5723390937311237  0.0836878378773568  0.3366506267250826
  0.9102523988130542  0.8350307984128587  0.7491034746348559
  0.5767174373311867  0.0846799700204453  0.9994391329548583
  0.8301377980707263  0.5826286347824506  0.0785223799630313
  0.9998380517905335  0.4232437243591732  0.9227729513347851
  0.9960312209042653  0.6653975379784584  0.8344232507548707
  0.6613202069618320  0.2459054633814611  0.9057108796113472
  0.4138308227709558  0.6653261573823722  0.2506990382942303
  0.7517059368263053  0.9065831971266685  0.1675100354809887
  0.0864881654231467  0.6637539543436723  0.9200068417511564
  0.7431805391828200  0.2467844321135921  0.9968372563772449
  0.7459480892307004  0.4198883516974457  0.1696842043982897
  0.9952549514478152  0.7548534008579637  0.9156259211973912
  0.0842327768596761  0.5012069800549105  0.5774089811448804
  0.7477113177498445  0.0037077928782971  0.9130420055473778
  0.4156553966882878  0.9078092338125050  0.6667800660083543
  0.2500245412651170  0.7600392311641154  0.6637628597369405
  0.7463990760370742  0.3367434201737685  0.0801601134342491
  0.4137712115073548  0.9148721561787869  0.0049745620204641
  0.7455604380368024  0.3287283520175581  0.5849571796801493
  0.7452093745626179  0.2471237193578149  0.6666644813661582
  0.3339843324269093  0.8276230866390006  0.1661297243360300
  0.9162051749763651  0.5115702139625135  0.0835806560239415
  0.9985363875738962  0.3315319991077367  0.6657855033581779
  0.1652420975604126  0.7544832894466232  0.5767380242399662
  0.8322211836738167  0.4163607936157321  0.4127489479614101
  0.0833473814498327  0.5825021184199274  0.6626457535695116
  0.5725174076868381  0.4115852114139234  0.4189798628929235
  0.4226552736811172  0.9973833591331909  0.6634353090299984
  0.8309716389991628  0.4124173794994138  0.6753305214071000
  0.4152940073522373  0.4962284360857649  0.6674212311787833
  0.0901419417139900  0.1643406018326586  0.9945651384396058
  0.7438270560305866  0.2457305490363421  0.0854374950635611
  0.5775075402500607  0.5855728697173302  0.4118352121752891
  0.6656911430661335  0.7543634404745357  0.6718492997045071
  0.9958154327302607  0.1598746792848758  0.4125641445150078
  0.3304929438226720  0.9169787338121513  0.1680201216664269
  0.4226072557010909  0.6735797386304095  0.6718984057378774
  0.7467336475636991  0.9164795273930704  0.9158781073328011
  0.8322567210100349  0.4193072128959893  0.5008950890163696
  0.9206964845710579  0.4222119241396232  0.4119137600190643
  0.0039291435913461  0.3312053776469361  0.9122728370617649
  0.2483684644386037  0.6721781597480625  0.6653014721813434
  0.0773680770831695  0.9989342327717486  0.8356626859066493
  0.8312264553900771  0.6723450798540693  0.0803901663018239
  0.6544632196041431  0.0852106162618141  0.1637618876000223
  0.1697532377639933  0.4184924764897167  0.0012288601030093
  0.8357534555409347  0.0794203724346595  0.1717298165055761
  0.7421938478514617  0.4250651587991641  0.0779491708085385
  0.0866041910171340  0.1639444201431686  0.5028733266062153
  0.8309226422691802  0.1613395612553028  0.0845895767018733
  0.9162897059293560  0.4249184578085363  0.0880866613190158
  0.0776280152457274  0.6691923120751004  0.6601082178539667
  0.7517442953936813  0.9943099029792063  0.1671610459738606
  0.9170518632569086  0.1571314733788155  0.9867844537559498
  0.7421510583148495  0.5082488782538315  0.1716615831822573
  0.0833737732089075  0.7561865780639789  0.7469122759407864
  0.0031899523089375  0.1591237620032910  0.0931365803700833
  0.1696310629571880  0.9984162684730560  0.9200418608341500
  0.6662922832950591  0.5812987399237006  0.4985298418320513
  0.8344279348307686  0.5888051412110815  0.1704503565730323
  0.2501182074241751  0.0849941049827518  0.5809747258044985
  0.1775446077337357  0.1652739718234883  0.0872807653000596
  0.9132858678843953  0.3379642977367026  0.9988903311807928
  0.4151868825716916  0.9156734010629312  0.9178633518853715
  0.6629712808270384  0.9062981433362723  0.1684572888956770
  0.0009657726606000  0.7490465799832995  0.3343277334904458
  0.8304973246161235  0.2481237417838957  0.9903820840419469
  0.5032278591301969  0.3313247945233440  0.2497241669574967
  0.0062410169273064  0.3373516174264841  0.0924263353627339
  0.8349501742268776  0.5886905029158401  0.6677812795538058
  0.6590523881727945  0.3375346463214411  0.9115291945668098
  0.7462086340725534  0.3324058246886436  0.1725306647534461
  0.9969016589908836  0.2503093815125180  0.5062831339637618
  0.3265728516145285  0.3314280014214656  0.2501462914931483
  0.2475714573344089  0.7488776808779051  0.2502617057861724
  0.2479644549622051  0.9945469244482174  0.6665834841719527
  0.9964331366716032  0.6645345412194514  0.9235901827838219
  0.6616324451456679  0.0839903939034271  0.3413954742915847
  0.7454967613081007  0.4166781078788981  0.4163538937464987
  0.4133254185777719  0.4238237088235120  0.2504191732124235
  0.5758426753517704  0.9126728037587116  0.0808045254911509
  0.6592987767971547  0.5803226327584932  0.6709749770925316
  0.6663812341670990  0.7579475549675959  0.4951568872209720
  0.4146339146493024  0.6664072775709009  0.4946618827090605
  0.0834281809786508  0.4948822837197189  0.6650465894181885
  0.0734691723572805  0.9993292221041339  0.6600796241719743
  0.0864746954074542  0.7537761174893948  0.9238592133565061
  0.0063486875220499  0.3373220714242175  0.4128492428351532
  0.0827578095096332  0.9972621493328444  0.3333138936848708
  0.3336203074528600  0.2518576157375581  0.8324152768149935
  0.2507307206296176  0.5809596708491053  0.7527966926465680
  0.6535508933627284  0.2443237571174274  0.9958584886901183
  0.5779133287861783  0.2486982823223361  0.7471360374821893
  0.0000343050192385  0.4189006647455519  0.8320501984982158
  0.9916256806151578  0.6686351315136446  0.7478734761269574
  0.6636200449951689  0.4138450512275906  0.5852832753730969
  0.9136472288499803  0.8335648769409504  0.9176348804144628
  0.7484576016271356  0.2480673716850973  0.5016684446005266
  0.6645037107546024  0.2476510247175032  0.5843032174720655
  0.7498190588901006  0.1657721041356278  0.4197616781521364
  0.8300977995203409  0.8345201303181909  0.8328229289609151
  0.5780950179703793  0.3375891886057015  0.7485145505303428
  0.6615488707118640  0.4179290535197297  0.7501223228346559
  0.7460356367940149  0.1641524258888039  0.7476322682465771
  0.7482300120828325  0.2469678591073587  0.3362801313094511
  0.7449373157748570  0.4205671945196732  0.9910127372917138
  0.8295076462585496  0.7527224618493242  0.7510414366615131
  0.8327191175520289  0.5071380569413716  0.4989886091866639
  0.6637329446084198  0.3298775520525183  0.5029473229950250
  0.6636130656288350  0.3318909057342208  0.6668743251656496
  0.6642622616341726  0.0813739659557323  0.7476589663877445
  0.7470666608911503  0.3272524945242436  0.4171044432220689
  0.7450694564607689  0.2466816266313956  0.8296823110148719
  0.4987597848389839  0.9161225756399978  0.5805930824126706
  0.5780377586649705  0.4987351405643729  0.4154919444909397
  0.5785658043538762  0.4166169976438878  0.3305218425725124
  0.6610887650345539  0.4177582646237197  0.2512669614139065
  0.6555073203267836  0.5026592509182550  0.1666188954373590
  0.6645957930433053  0.1637045697562031  0.6646542749435912
  0.5758524024220462  0.2485749573966978  0.1668670504797386
  0.7487797862535613  0.0816863772385588  0.5008868419678149
  0.8305230656412176  0.9997285885271477  0.6653643112251908
  0.4156059598586088  0.7508366407565671  0.8359834663831434
  0.8355126956970633  0.3347711176156321  0.1712601792073659
  0.5812746757646495  0.8360727859918454  0.7517984113453524
  0.4995868483884273  0.9167112708675423  0.7509321857615461
  0.5804715264060166  0.9178917748578154  0.4985195017442320
  0.5809613940199528  0.8372297766386663  0.5821688999463380
  0.4971359414162009  0.9995909363370119  0.3355147987444297
  0.6631492286263239  0.8332157285927670  0.3334842270970388
  0.4972221537330591  0.8308329266348168  0.9999844895022634
  0.4973277980458362  0.6677307918516149  0.0005614610500360
  0.4990643879789054  0.8335304387068467  0.8345653899060723
  0.5773050637138480  0.7547745881341634  0.6672743882907087
  0.4994626529293639  0.7532380947732211  0.7522566050116113
  0.4900021253095730  0.9160164337773573  0.0839543515098496
  0.6642159423343521  0.2472274892992274  0.4204673811053661
  0.4963066349677899  0.0827039624973440  0.9158272386409199
  0.7400287605473643  0.1556644658684528  0.0817323873416153
  0.7475006153630405  0.1653156913829623  0.2545640278662802
  0.6585257706675486  0.1715964073545898  0.1685362975876713
  0.5774111509635603  0.2469756957876785  0.3376490259295323
  0.4150219870022176  0.9166081249367526  0.3350749095583472
  0.7475055170548774  0.0001369714884009  0.7480438777169873
  0.5800858752300772  0.6674870841426234  0.9163520927202781
  0.5794213789960114  0.9160011408152031  0.3339413265745699
  0.4953780706039189  0.7491963490125939  0.2507403430204951
  0.5807234191561459  0.8315055118027325  0.9163121751135946
  0.5785279733113721  0.8254448354398475  0.0834545874210436
  0.7467000676089413  0.1621279788811351  0.9118764808727580
  0.4943297416883452  0.1674661161735064  0.1672249793218341
  0.7468163661483792  0.0813245467761397  0.8305131945133296
  0.8321196600645395  0.9989968770535759  0.8305697186548395
  0.6631669590422793  0.9998099451749102  0.8317918634322471
  0.6645266259465178  0.9182179816206829  0.7497576672266842
  0.6611807627579451  0.0002424394083193  0.9956959857775690
  0.7474380207553382  0.1640350543371901  0.5845625596523314
  0.7466331954636489  0.3319188058742594  0.7492270113913618
  0.7476424709229904  0.9998358265132599  0.5835748890788106
  0.6657785879927475  0.9973902487632311  0.5001516374739809
  0.6649778350530752  0.1657501015093836  0.5027064745729726
  0.9125989227144790  0.9972289265332469  0.4170115355939939
  0.7483367495781947  0.9975354519768868  0.4169191714598441
  0.7485853744241158  0.9140601378826256  0.3350854508137908
  0.6629393866100691  0.9134877091885814  0.2557828137088007
  0.7468878990712673  0.0790239842815241  0.9956696024493927
  0.5798409334903211  0.7503110894412423  0.8351205897459385
  0.9147138322362762  0.0806940601958852  0.8300797716523363
  0.9976592083936912  0.5838426240304490  0.5800245181806789
  0.9965857817633154  0.0820463359238557  0.7487443323559653
  0.7491199296309649  0.7520149653280718  0.3342750918393469
  0.7442124962717668  0.5864072574278959  0.9957997444638913
  0.6624805494813339  0.8310972573921573  0.9985612545554390
  0.9156543789416712  0.2491318546444038  0.3334609208748066
  0.6599173749314959  0.5046143088098730  0.9983101508532715
  0.7492556673896179  0.8358535404267761  0.5833447314976131
  0.0024172342429155  0.3352910048012112  0.1789686658562268
  0.9145152615098394  0.3325401153297821  0.5849936428781727
  0.8331477181456075  0.5028155915943845  0.3333294618047286
  0.9147350737598485  0.3325684077333600  0.7490381146720536
  0.6654502671353592  0.9187583173670141  0.5842812279060727
  0.6646440927895492  0.9166123255013288  0.4150924382116014
  0.9171107771017779  0.5093122939587492  0.4156931760479898
  0.7490161935767921  0.8342866033962599  0.4162291288405337
  0.7436837959903643  0.4187407920004226  0.8324782971904013
  0.8283599627226249  0.4190139881495737  0.9117302870731373
  0.7481412033787262  0.3335468444136523  0.9113153699880618
  0.9949203201315876  0.5001582860451989  0.6653520461876752
  0.1673392765850766  0.5848379165949594  0.2501709851357384
  0.8300328467303120  0.4235228681169824  0.0824248413131874
  0.9148130638606804  0.5842855164743035  0.9977311293746874
  0.8321134202673738  0.5871983219016703  0.4142617384964671
  0.8336574898524832  0.8318483654792673  0.1673442523044323
  0.7456657592010068  0.4166541221296859  0.3295201185442047
  0.7470922076110539  0.7509808084721888  0.8332986782438336
  0.6645130025848426  0.0005331235143306  0.6659013400853130
  0.7479145521994724  0.8348336617719636  0.7505729633588610
  0.8332639981803417  0.5879461690549476  0.2573176752453769
  0.6620938582147079  0.7486233295520244  0.0816307178600018
  0.9127395360228967  0.5037987936836209  0.9150012991770371
  0.9115910829948904  0.9987143119324506  0.7482449010632671
  0.7487832610560767  0.8308786133842501  0.2524848685195645
  0.9130202070101683  0.9162010404030798  0.4999632568647996
  0.8309816017667052  0.4177408940180360  0.2535765246351931
  0.7452330518869117  0.5013095764803688  0.7524695469034751
  0.0820415568053354  0.0763465288241462  0.4989693321892599
  0.8315926803017227  0.0791240785138885  0.9128970096448765
  0.5791932466553674  0.5860637488741093  0.9986469696767653
  0.9141036271653142  0.1655011469076710  0.9029278424339262
  0.8303407145844584  0.0820886662930866  0.5849202783881936
  0.8291998154449883  0.2473879746956026  0.7493137641177456
  0.8405877539784720  0.9885183410478631  0.1683787734849685
  0.6637792310695720  0.8346506055773026  0.8329434791056228
  0.8287383576583078  0.1630100439409889  0.8283404010386254
  0.9147598140613803  0.9977818252175408  0.9158773451913584
  0.8315054384277787  0.2493961262852721  0.2544844228102532
  0.9118978756428732  0.9992342134612883  0.5828064087554213
  0.9166621892065260  0.9944740235950976  0.2536491195495530
  0.8295836397502591  0.9987515547507424  0.5007577634562109
  0.9165155967355650  0.2503867115268397  0.1730400614977533
  0.8313314962534725  0.3320928413269603  0.3337739276108621
  0.0021307662628583  0.2501682195450764  0.2528569845347471
  0.9156287627561626  0.1662371746079456  0.2534090087044256
  0.8353681496193988  0.9163609085035178  0.9158242044308368
  0.9176530065694476  0.0727930281690915  0.0009639209272511
  0.9229938894364699  0.0781019980638071  0.1713870580816375
  0.9159463117053748  0.5860010245917077  0.4983913375558371
  0.4961321239428538  0.3332025895887117  0.6643477934316389
  0.8314233036345062  0.5859634370548941  0.5792358340253083
  0.4148023030782095  0.7480071982831388  0.0007278050527078
  0.8290804852223141  0.1647144065475963  0.6666395698834831
  0.4147792155078038  0.3351177588748300  0.7481210265218163
  0.8304669739943178  0.1645504428924096  0.5022730982319978
  0.5780724499905273  0.4185009230617843  0.8328928889406501
  0.9159954218075230  0.2483172623392023  0.8256906940802065
  0.9093709096069490  0.2474022462909415  0.5021899001937843
  0.8315073946126157  0.9966860120133274  0.9992641441462617
  0.7473607818268514  0.9177787551003501  0.8281741011744634
  0.8314932624821840  0.1657636543815430  0.3345033351450454
  0.8315805992381798  0.0801490124596098  0.4173859802526303
  0.8311228628408019  0.3282506231279054  0.5022354617563695
  0.3343617536746244  0.2514116094074755  0.0830873029152128
  0.8304315199451471  0.2470112496868424  0.5855078688498349
  0.0823187013593899  0.0872761238628619  0.8309957411474015
  0.8298389013152037  0.9174793840105866  0.7481982955276040
  0.1685281169762406  0.0774263078059578  0.0869452703994648
  0.4140225540729316  0.2501859444995221  0.6635034572633942
  0.6610072761402049  0.5016827912462093  0.8341389124911355
  0.6624963139130602  0.5846576094975348  0.7579342226735739
  0.7525734673596317  0.5867521898844856  0.4979802733212986
  0.3305497895993036  0.4174757063752463  0.4180897295149217
  0.5791373664859498  0.4982175287067811  0.5823600133996752
  0.2516109992001451  0.9993711354717955  0.0851569745387067
  0.7479675826348253  0.5057000844327940  0.4130679387464314