Cr Ni
 1.0000000000000000
    39.4928264963409816    0.0000000000000000    0.0000000000000000
     0.0000000000000000   39.4928264963409816    0.0000000000000000
     0.0000000000000000    0.0000000000000000   39.4928264963409816
 Cr  Ni 
 1596 3725
Direct
  0.8088548168965163  0.1475757216612728  0.8289918274224041
  0.4860931658988190 -0.0189192255004788  0.3719498485264915
  0.3485260005917184  0.6314171281395968  0.9000632290453857
  0.0133209773507322  0.3593305250650148  0.4719880758220051
  0.9800160753769417  0.6422686851205950  0.0786287649009616
  0.5408848879488298  0.4429227203809596  0.0508110076903822
  0.9775123567207092  0.4016118209592200  0.8157634349221354
  0.9357225136037942  0.6652620747512261  0.0435337533701850
  0.3838431211238143  0.0090246498138536  0.4436442524276571
  0.6638647393476946  0.1215168730437633  0.9544457404504105
  0.2484177698194457  0.8924040097515102  0.9525907056075937
  0.1877909060448509  0.1138877163108891  0.3925443849190448
  1.0243339325702576  0.0649826015934086  0.1707049220770109
  0.0287465332432687  0.8120153309308373  0.5824691062741529
  0.3220854863698330  0.3366874088729103  0.4023686577703416
  0.4106507422373618  0.7676339599254337  0.4021018048246071
  0.8554059816156954  0.0607876186667139 -0.0231761747954128
  0.8765255638108566  0.5864588446052126  0.9802905818479106
  0.6404365897295314  0.3806980379314580  0.4975881539516954
  0.6378890026213200 -0.0085114722274455  0.8607968236397529
  0.6446598202185434  0.4893903162356653  0.3599836771236334
  0.7549803629445031  0.6595262109515291  0.6413148220834108
  0.3996433687881838  0.3345625585818505  0.7661581589764083
  0.9413515173898812  0.9713283084895861  0.8755695258048837
  0.2253000656769684  0.0185497795978544  0.4370934198990175
  0.7811929017714550  0.0143457124778068  0.6662096844716816
  0.9582821933477851  0.5792879323591156  0.7245319159906596
  0.8760904039624067  0.9742327485101673  0.8860856806877385
  0.9043196248305004  0.0051016674627098  0.6916812624761168
  0.8286283753852907  0.0897379181331964  0.8479220238852142
  0.0138251670475529  0.7341900289150090  0.7068957795583319
  0.0311822184513392  0.6557397672978856  0.5566639960898988
  0.9289722607216859  0.8024082402354759  0.6713923460779029
  0.7146735131240043  0.9578693209348884  0.7396653401133376
  0.7195387922842169  0.0241933591477212  0.6454584217725506
  0.9934222874695102  0.2100114585446573  0.7095443504127877
  0.6422293349043562  0.9668225004234668  0.3713485172419326
  0.9239979738869413  0.7908024267175079  0.5016940630774823
  0.9157340265496346 -0.0040707400617227  0.7545801483738876
  0.1873903010169354  0.9083880489276273  0.5260234623477836
  0.8652485668507101  0.1061882843756138  0.7449670378569883
  0.8464089472255991  0.5801607904626217  0.7431069682448957
  0.1178677027622270  0.2784566178996657  0.5744793376883282
  0.7782733752312422  0.2703215663093475  0.0162015914524549
  0.8533192596310847  0.1147406764093255  0.6825110527354626
  0.0942042216673162  0.7602896731768386  0.0700394827938147
  0.3838940955372451  0.2308219401947947  0.7819739290649853
  0.6903915419416728  0.3445127686316656  0.3544447638143714
  0.3824719142575390  0.9276482146741919  0.5226940929532314
  0.7284362469725576  0.6600628232480414  0.0320811033667457
  0.8398119350522936  0.6423935439619335  0.9536743632839869
  0.2046646188089640  0.2820898531982529  0.8234131112010961
  0.7403135755448325  0.8993390072504567  0.4216988730869801
  0.6112904156651585  0.5817662091677971  0.5504568463399732
  0.4175844577441066  0.8749689286660614  0.2050615290267440
  0.5212103675188366  0.3220424169134796  0.8091224743474921
  0.2946307111625939  0.4747383579615261  0.9044138023757804
  0.8107270956228483  0.2267548751913445  0.6401356756939998
  0.4152321056915592  0.8265531658137730  0.1596767249040039
  0.1724212001512897 -0.0167981225521283  0.4318626427325480
  0.2331184718591096  0.8983011566087237  0.4841231753549665
  0.7391334183706952  0.5498009015573772  0.6550050082171344
  0.8373125247357215  0.8096254851136402  0.1410768026033024
  0.2264635488614603  0.6445170533532607  0.8551288724377824
  0.6199838911679025  0.7670092277860192  0.2461109364045630
  0.2767811088421959  0.2776764460529077  0.5164357481382844
  0.5769169583319415  0.2228304117318838  0.3500267059133910
  0.6893490201968077  0.3748558327976313  0.4627945305004800
  0.6582341195522020  0.9015883338690946  0.5087810763176356
  0.4448470866935993  0.2737975935818004  0.5184902348396913
  0.9769006235936899  0.1073663630050366  0.3198319598893211
  0.0488202418353209  0.6015620872016910  0.5779332915302158
  0.7195021155963639  0.7048292995602711  0.3030133571985341
  0.5053592233213857  0.0562247865243683  0.2003217154580038
  0.8507354179061335  0.4103088335874060  0.2817172453331578
  0.4358065582226302  0.5666061676668512  0.4359042835832545
  0.4339628767815152  0.4106337038798791  0.3644217246633543
  0.2864971590858677  0.6455071043714369  0.4174726155979664
  0.4279100301960295  0.3634897793832471  0.6013790720407528
  0.3055355118898891  0.2314401596575181  0.1423794180639166
  0.8304958989501148  0.7500802830946871  0.1562364099563438
  0.8016362922921123  0.2724417484836033  0.6876032348436508
  0.1771841688998988  0.2709454630780872  0.5969770310681886
  0.1228737847861170 -0.0104192700291059  0.2916432696422824
  0.8567007546029198  0.1817513105779590  0.8908624945970404
  0.7598046947966971  0.7935102002623078  0.5668424033423940
  0.9653179237958339  0.0645104127090565  0.5026141278297716
  0.4811691691216639  0.9415201443615194  0.6067887654413535
 -0.0030687192077753  0.8554449475399410  0.1264909965701491
  0.3847761045601009  0.9548812374852768  0.1390377267210714
  0.4055290016346002  0.0707514670310256  0.3370861869412669
  0.5953625940348835  0.8777824721866432  0.0465378400734663
  0.4952913014198249  0.8655372919424994  1.0227107911350475
  0.4772628309139891  0.9535969145543902  0.2607680474459522
  0.8450584331149325  0.2443615519075934  0.5282560873322407
  0.8693808683880997  0.5250364669832781  0.7595151573231573
  0.4298963471168360  0.4513406670057946  0.0096133457059873
  0.4456898484476460  0.9248909821223777  0.7140764727341365
  0.4202230273783267  0.2544058705974779  0.2892217130748916
  0.0335285737243022  0.0714260625569340  0.0985147591653511
  0.6078450460720047  0.0263609142620002  0.1306017232225289
  0.2519225241542628  0.2206792802632153  0.0782754595174068
  0.1590445113918125  0.3627977886163656  0.6849086826567822
  0.8071407869632251  0.7964240530378514  0.5284198095133363
  0.5347226686107639 -0.0333216785872571  0.3350356127248419
  0.5801141138126454  0.3324782703253348  0.1509227742943497
  0.9622681864571800  0.5656920917846665  0.3962944422585796
  0.3383713527041518  0.0107618726430374  0.5469987968107357
  0.0777570834275210  0.0475601802594760  0.1327146554447108
  0.2427244738269016  0.5195626499790728 -0.0100041869787210
  0.0665478266123446  0.4726836980915994  0.3351884609230865
  0.7050099179178775  0.8464744057759680  0.9840034990425259
  0.4341336556470209  0.4291459154343838  0.5202515186144154
  0.1720613131768653  0.8022894437434389  0.8616087769385291
  0.2142550544033800  0.3168215651966134  0.4319591042304268
  0.3157828027994568  0.1486567583787215  0.9460124242939519
  0.1966625916917007 -0.0068825824436989  0.9487037716083099
  0.1194314059841751  0.4857153019126910  0.4123619966989134
  0.0666068607746944  0.4905270033460608  0.2771860906916900
  0.5082938506056420  0.1383644085621636  0.1234754499868898
  0.4546878419108856  0.1081396328580980  0.1114279859023308
  0.2423427491386075  0.7513098306036025  0.8427883425214019
  0.3018025394709956  0.7451282950534317  0.8667809064096250
  0.6276154684495721  0.8911207129001004  0.2147779875292533
  0.9180540402497482  0.8469556318945970  0.7106909035846837
  0.9436192078161522  0.8230524933346395  0.3467554423128639
  0.1203803560567672  0.4897784907816680  0.1797559544274382
  0.1427482185582098  0.6772491437081306  0.7069395814598660
  0.7514115476598429  0.0081722463459648  0.4508780189693604
  0.4236912768145721  0.6969515932883614  0.8021531252723583
  0.0424595412041317  0.7717101257502524  0.5392509062078839
  0.9457167746091086  0.2229320439845646  0.4499904566085890
  0.8632502008000050  0.3552313562315868  0.5301128823132125
  0.3865000931320864  0.9804019841340741  0.0094606476615613
  0.5897272494078332 -0.0129743305277508  0.9029916559356316
  0.0293363574215070  0.0423001910280537 -0.0174746057307916
  0.0092941851999036  0.0173560259883686  0.6025365906138080
  0.3468485366670332  0.6585860427414802  0.2556133552763879
  0.9267130614644566  0.1304277297011972  0.8745141537833279
  0.8886014724180838  0.8751996971270783  0.0265328851564127
  0.1658554752400360  0.9040531651933275  0.6143350524483064
  0.5423888051588283  0.9064493435961736  0.0287240768118720
  0.1394480740077331  0.6740893390938111  0.1255740271650193
  0.8305770043762912  0.2401758249742460  0.0415807267236643
  0.0807261982628407  0.6935138829996567  0.3968702376385431
  0.5746991425923740  0.2884602419797682  0.1072086097078411
  0.4928466838065517  0.5675507210018708  0.3353318013630202
  0.8064561575760590  0.4098738636020220  0.8164024985811033
  0.9151857739233950  0.1737711185566174  0.9139148708119984
  0.1904727752895767  0.7477732006824422  0.8796167528453046
  0.0149585471491711  0.4046912476571440  0.5161513484253114
  0.2174058418302266  0.3493416170956138  0.3113354717500769
  0.0411168024427049  0.8639537690606183  0.8624810780779398
  0.7824089716907863  0.8650012102400870  0.0519598083429941
  0.8949978532779861  0.9052140043487852  0.1341793349197672
  0.9168296889140376  0.2261809147259642  0.6237360282438562
  0.0067659626196010  0.3937291364637361  0.2855633124038723
  0.7818003920097274  0.7800235359690366  0.1279899317314238
  0.5661181894776323  0.1650549497031982  0.1360188647819713
  0.9566858011589597  0.4265128302889140  0.0321384148177999
  0.3353957553817272  0.2701705522651850  0.5372537571392185
  0.8812136571335547  0.1661629143721044  0.0210347499320939
  0.3351815480291597  0.9727312765795308  0.1780380392995227
  0.9116264746737062  0.7983620627458966  0.9428867238203315
  0.1887158630728769  0.0922806625381633  0.2078581966203122
  0.3474173724348837  0.5978053192327519  0.7913162279661636
  0.8448262924294687  0.6142224497493877  0.8487714846987363
  0.8978125875128340  0.9327279264760713  0.2398869578125809
  0.3329136389296630  0.4557303030456231  0.7002941316663794
  0.1479997341319741  0.3217220646271161  0.9140928166404836
  0.9778412054317142  0.0051179471579170  0.9751894200857019
  0.5281382880012010  0.8562473706873864  0.7537251366766869
  0.6622918281187001  0.6431369732954477  0.1894633651334081
  0.2559763098446615  0.2616468795878476  0.1219821726671681
 -0.0179268232558639  0.2718194496302425  0.4770935667585444
  0.8503752346684097  0.3938367409672800  0.3428223555749769
  0.7198488144119979  0.7938068802281499  0.7717048109878870
  0.2674830166286973  0.3606857543530009  0.6610732989012019
  0.0411113314059233  0.2123569510502085  0.6706973108274684
  0.6038328616342864  0.1044876293427568  0.3739579001729556
  0.9016784073084342  0.2449787915371614  0.4064833572471668
  0.3550763073302158  0.4329389830066888  0.8241666572967904
  0.1350031347193393  0.6577761984240986  0.5402648368268875
  0.8411082035071772  0.7775768210959449  0.8140420593049146
  0.1149625816338202  0.9471553974291945  0.2495763178689110
  0.0409075055400393  0.4792901892544598  0.6590550521540761
  0.1168040898234441  0.4578532917117357  0.3019492321464369
  0.7939709426019339  0.3898844508061790  0.9799330201901938
  0.7509532611982187  0.4591407006296175  0.2879380817484185
  0.4657675623754679  0.8117750019350187  0.1248914673519814
  0.4431858373736385  0.5498398852415656  0.4963424952300113
  0.0894129285559787  0.8691179407368537  0.8256091101853159
  0.0213428182478328  0.2687031488232785  0.6547984252224527
  0.2253874009052917  0.4891580619605193  0.8220546624604720
  0.9607442622446293  0.1120180146315925  0.6638892908983244
  0.8124779090768651  0.5809170687761873  0.1535008283066289
  0.9128385918341435  0.0781673590871829  0.5401639323156165
  0.3985830335243600  0.0966984430661763 -0.0156080224457980
  0.0987988385667070  0.4208806822716093  0.9659163631111261
  0.3808392265886407  0.4611993935894215  0.6606553952077949
  0.1778738262803944  0.9282145763573530  0.9634602052219129
  0.4494378679212565  0.0284828736439519  0.1917341403489459
  0.2858772104616203  0.9199629471500818  0.7747455644840205
  0.3385400680140405  0.5759531489804922  0.6210634863690339
  0.8462027474371056  0.5326900325109440  0.4731980630599724
  0.4391952268236552  0.3187207185814858  0.5602360219824907
  0.2137631539294985  0.2948915281752311  0.4914770763890043
  0.5399008160116062  0.0271673577338206 -0.0085067291807659
  0.8930547657033021  0.3174455202155120  0.0997052873005899
  0.5258296939789858  0.2525304407450988  0.3231058866484799
  0.0005253851438749  0.3353947499051503  0.0731568893032647
  0.2491334531763010  0.6429174136708564  0.9873245651530914
  0.6650312392281252  0.6098427596744344  0.0793520228309632
  0.9184455138978699  0.7130143012079743  0.3988075115939575
  0.5749360259315339  0.8617538260610071  0.2046093325769656
  0.6562566468102264  0.7133115876063663  0.9316826472647756
  0.6237433531673128  0.7986142537325702  0.1237538036544113
  0.4377909508435731  0.6199947492011535  0.6494191869167714
  0.0033046631689649  0.4623569509927996  0.7624286121684866
  0.0584137187539367  0.2659559274325317  0.4472934777570181
  0.3130990861447949  0.2469179871612554  0.7027184615884603
  0.2884264057699907  0.6302431226349108  0.2502469559460824
  0.7254624024618086  0.2943508508827883  0.6017525391731476
  0.4588973299162422  0.5967333910745438  0.7753593077536611
  0.3266202150217221  0.4278067727110407  0.2655013951684597
  0.1315677433695347  0.7548956812823672  0.8565443537053034
  0.6522801846255262  0.0881659437828843  0.3414918724622154
  0.9839297283300228  0.2551236455798236  0.7528790355254712
  0.0472683489807258  0.2808781993278511  0.8821990411488785
  0.9412537343651179  0.1919445614700404  0.2625374606593756
  0.0562400997140063  0.3674444857517850  0.0836968808490068
  0.8935964716401749  0.8383640794135935  0.3840064561922092
 -0.0054908197003571  0.2233754305899770  0.2730619871158703
  0.4602314486155512  0.7164341685287435  0.0324389194870510
  0.4164232163348590  0.4594640142000394  0.9509358735852232
 -0.0059000770291117  0.8099045518469605  0.3126191563030876
  0.5562935275151113  0.0413588343312076  0.1649852192872831
  0.8880748054130517  0.2770263122463522  0.9384676904314628
  0.2945941599268376  0.4396818535204836  0.8036557272649929
  0.2921801738499795  0.2236408981114320  0.5332652686158683
 -0.0091932087039793  0.2123710721061095  0.1044699371028853
  0.6106848126444411  0.0550569874400936  0.2409450909451454
  0.2809065319879289  0.5371640133678025  0.1632731216747487
  0.0177043544255045  0.1840397249425087  0.8347540124713532
  0.7876373757099920  0.8724911400910845  0.4528258325426739
  0.5795889849746358  0.9217602489568917  0.1889747554595825
  0.7272906708554912  0.6294628441677139  0.8053732831582903
  0.7017694764226269  0.5027127706438761  0.6515404315878550
  0.0196547364752430  0.0200814621517232  0.8712310884900504
  0.1383885862582684  0.4361614270134784  0.8603933827935023
  0.3940032175341573  0.9998027781448330  0.1835321681725801
  0.7331482406011529  0.5320553163384757  0.4305625687087383
  0.6151455462693403  0.6733855744586000  0.1617144838065961
  0.8440800679176000  0.3479284143973302  0.0740688873760945
  0.6777979277951913  0.2894546923039160  0.6418385598505302
  0.1354405905796628  0.6579530598157394  0.1884812929428251
  0.9769876937124853  0.6600676939385042  0.2465248717837703
  0.1465894348316500  0.8385496481914329  0.4383886931627609
  0.9416845599542658  0.3838258702106025  0.9172018016827176
  0.6373537436742359  0.3385000235827219  0.4557276565826411
  0.7315601579176592  0.2553840861668825  0.1706874474401396
  0.1509671678058468  0.5453211009367175  0.8440982909139709
  0.1045484999569181  0.2388329129746412  0.7983388974031771
  0.0267167531424967  0.9822161536536743  0.0000186883299457
  0.4078382353743179  0.8430197944401818  0.6033467612831422
  0.5301556071159264  0.3341769603410960  0.2490420798109832
  0.9597448500531106  0.4431642374251318  0.4241640117530875
  0.3050940737293305  0.1282152017639536  0.7799228573959387
  0.2815886358457879  0.1529717689207346  0.6530481559028650
  0.6474626415292211  0.1966585070729397  0.5944052831913489
  0.5002696310970899  0.2714075271902170  0.5373463523385239
  0.7533245585418161  0.0586735228761292  0.2683554626667449
  0.5116806206233329  0.7359037697120719  0.3353144253585306
  0.0021861682206721  0.4959769914641767  0.8601644640139523
  0.4367135149449457  0.9393585520939587  0.1020645868200014
  0.8171781169408023  0.1340288291245502  0.8879387927181699
 -0.0069957499578240  0.2991044097770318  0.5283122191782050
  0.7793807899536853  0.2327091174325002  0.5124400881421795
  0.4591260656493343  0.2678355643453666  0.0195639428424647
  0.1155825856842600 -0.0076343677632363  0.5296287969766474
  0.1185297004707407  0.5381253617633008  0.9988396896051187
  0.5266447112088934  0.2828628278316727  0.4345563441118582
  0.3389931229510231  0.6283099301665611  0.3834198285949524
  0.9043533481364455 -0.0082644004672302  0.2206212856235191
  0.1833327335090597  0.6331226046116532  0.9710007815485628
  0.8996299546617966  0.1160643633439374  0.6430361695985208
  0.9128864199353243  0.5679884916246829  0.2581477230764178
  0.4591842086298477  0.1702563067078008  0.0939746930217496
  0.8310431902516295  0.7647084624760878  0.3269685003286384
  0.4679509491049408  0.3842165085207930  0.4980540382352823
  0.3416036169271712  0.3410439033486140  0.7459414253020553
  0.5789345997675654  0.2830775605730395  0.3339648267554403
  0.6363551375374908  0.4531750526264294  0.9675330021017011
  0.6304558769957564  0.0597963156151318  0.5573109931824102
  0.4327027097604384  0.3326111033858217  0.5011904635181497
  0.5729302635324807  0.3963086576048221  0.6815746835666953
  0.4169392555897898  0.3756432976246332  0.5408858274708771
  0.7475149830040736  0.3841505377670651  0.6760591271551152
  0.7498217268555418  0.4077808167438565  0.0125549763847692
  0.1094032966694388  0.7771445574571587  0.7325137256965063
  0.1661853084869080  0.3966806993590341  0.2230977788494178
  0.4109385619945550  0.0618138586042261  0.5495685148946301
  0.3820874602582240  0.4273385848149975  0.5521464139650004
  0.7990222552550150  0.3936546415825332  0.6201553037819859
  0.3101468613942429  0.7995411256449446  0.2480339017191621
  0.7717404080803922  0.4792499769555986  0.7358497529324298
  0.2268137184564723  0.5456196430826189  0.5377728635045956
  0.4246775388742092  0.5608784390657475  0.0244636790034884
  0.2835909069068028  0.5509889083574544  0.3311723612940159
  0.0322820833285351  0.6890000844503573  0.2549788121537271
  0.4813699930192759  0.4444231455403592  0.4803804360707233
  0.3814747016408054  0.8460724194274027  0.8731386234852048
  0.5610261581180916  0.0688618874534232  0.2740617728667596
  0.7544400015214314  0.0424909804638148  0.3282070484595245
  0.7223410983904315  0.8260716603029526  0.8773281776194192
  0.4873458762393200  0.3738022833185130  0.8239412184418835
  0.4216154808955336  0.2778478929362718  0.7854599904708649
  0.3552787608403583  0.8690382823374416  0.7491613547148375
  0.4889429107947690  0.1580664747189180  0.5493416095488100
  0.7566491349413420  0.8749287466037577  0.8812205875945694
  0.1412964051403164  0.7400524037564122  0.3469713432098557
  0.0838404434400287  0.6842321051762826  0.6893698111360390
  0.2988311572274128  0.2047279080430008  0.9260568667282356
  0.2918833536363350  0.0478138334025479  0.1963158842124500
  0.2184004957833801  0.9351742201279281  0.3459954268606768
  0.0745598149969234  0.8466378458477103  0.6513423306071082
  0.5903323223290153  0.5037939221275598  0.6683529663604393
  0.1854433698858316  0.8480584599702249  0.6332954237057600
  0.9671226749228679  0.8486693159239110  0.6714510568398885
  0.6153439022980292  0.2133378437838626  0.8045251511169601
  0.0192546725000608  0.9390137918467314  0.9599943779836548
  0.2329510359520106  0.6005850415446146  0.2446187935215071
  1.0245118201768575  0.0752991002371476  0.3424272617339697
  0.6282151383541541  0.6884119788489662  0.5404887075999106
  0.5971379333758541  0.6205930039567681  0.4172597929427243
  0.6253772537869493  0.9032245534269160  0.7792097327118405
  0.0161842767680093  0.8546572950484987  0.6251086099543448
  0.1365659977451829  0.0923117441251210  0.3106259825211179
  0.8879949540091587  0.8123983209984533  0.0413189922359841
  0.0258162931183201  0.8282226336085273  0.5250369704933154
  0.3530340325894911  0.2025295723654125  0.9484204558138124
  0.8760170732764901  0.0681959169879464  0.1558094651711735
  0.8218658578947404  0.1631176101612927  0.4313247232185086
  0.3150953053362384  0.6659744258968324  0.7121324335836052
  0.0856620614845711  0.1005011363725403  0.7078119138361696
  0.0673604894290249  0.9856841816650689  0.3974623422035738
  0.2479043554913290  0.5218617984973385  0.6586696144064846
  0.3302357899694238  0.4585880632994889  0.3712470796145681
  0.3845598089888019  0.5282461603321915  0.8715910460736710
  0.4626728133504013  0.0477012473567142  0.9008638395261233
  0.0888457335067674  0.1220378162879263  0.2845683109580887
  0.7124648748092773  0.1497877956344032  0.4575075718288431
  0.0729502251378695  0.4543960120795865  0.4558431138289508
  0.7271128808445820  0.8329515460805702  0.0410186603657828
  0.3506812709735798  0.2953262866722201  0.7059483562670921
  0.3291674283430335  0.5341436507839880  0.0684870390376057
  0.6442660079352659  0.6570945913271659  0.4262753614573693
  0.9251207800596378  0.6117072962881124  0.0716760002422265
  0.5692843625128716  0.2932954987591896  0.6631523636095582
  0.1900927755528465  0.4954116859704330  0.5407746748849201
  0.2044437210671990  0.1698467863719354  0.5713441196182101
  0.8972008413761814  0.2543539327831003  0.3430201209771850
  0.7479485906871078  0.0499870003462401  0.4932817642166394
  0.6284540526107610  0.0348422707573424  0.9049616764059762
  0.5397453547272872  0.9319617917675898  0.4649119509530528
  0.3004885726471049  0.2191847638220913  0.0335689680232707
  0.5519731644405695  0.4528536859933365  0.6646322950232252
  0.5451169488998808  0.9695112086776088  0.7352533791132732
  0.4760718670100908  0.2509097032679552  0.4214140838569795
  0.7069072711447392  0.1035794495609022  0.8026416045853212
  0.8936862756301456  0.9172312260768346  0.5457549106924187
  0.3113961544987219  0.7350084585269813  0.9389923009999412
  0.1529905921438886  0.4781463001707129  0.6385358202683503
  0.2350048012356592  0.4193028087882882  0.4619783681416010
  0.8994693849536203  0.9151543590022265  0.3024336824705440
  0.3520612984393416  0.6524171306101464  0.0175975480485373
  0.0757381754356242  0.0803858427214865 -0.0075703039691292
  0.1064140748430134  0.3189951941767417  0.1689675021831059
  0.3010578865120466  0.6221407974966719  0.0112847200901847
  0.1224462633339395  0.9828416386892115  0.0465334181476350
  0.1795545450741338  0.0242678634105866  0.8128898356939750
  0.6467849949250124  0.0067420856192975  0.4217087688059748
  0.3903130401199273  0.6487481767140902  0.4483239166120141
  0.5465440334401266  0.8420179781494012  0.0421708058163114
  0.6789100835797476  0.5459467526580288  0.4642758571210261
  0.2737676440137527  0.4956499700729102  0.7839964525089962
  0.4657483682195847  0.4899140294350052  0.5122781623127652
  0.6634006024857132  0.7478478864666933  0.9833837660581766
  0.7987446688544562  0.3316647965889001  0.4551545562174838
  0.3988170104053066  0.6733658448667335  0.3202836076990112
  0.6897831628084525  0.5463903457362977  0.6933292870105480
  0.1416331894020620  0.1230748133841516  0.1831361576475042
  0.7998737289485958  0.4385339582551325  0.0299021319977963
  0.3853159583278446  0.9212086035733628  0.0343289408183302
  0.0915353927830013  0.1678844551236206  0.0911996966329807
  0.6172949651845729  0.7683106019470597  0.0153775226028996
  0.8007764244552450  0.4434774799797964  0.2565682447182387
  0.5705298096790817  0.7662926176829697  0.1165859542801179
  0.1761647810087861  0.8608863559754327  0.5711572479717135
  0.8637784353462769  0.0715332355917373  0.4732072953678137
  0.9631680797059454  0.4154817744975947  0.4931898831466968
  0.0868667479259294  0.3296128756461462  0.8836338772447206
  0.2468139814413530  0.9036070481678834  0.8797409034887839
  0.1061736745931133  0.8874710469575608  0.2671909087101654
  0.2693035496459676  0.7812856941853040  0.6808590258042087
  0.2881585115396761  0.3920773193106150  0.4919197409044297
  0.5791632885349095  0.5498897943119918  0.7118447617509469
  0.7897586021293636  0.9081655483539003  0.0950689475288180
  0.4738040796955583  0.8593814293639213  0.4021711132054261
  0.8349251650053706  0.2067455337957123  0.7691164043346798
  0.2370429774670965  0.6445020066598204  0.2870014753017149
  0.8534166171702080  0.7018520346288063  0.6632686486683622
  0.0572634810841267  0.3201532179414781  0.6602588637963240
  0.5491591421967574  0.1522004295701498  0.5724643986309909
  0.7404221552171305  0.9508760347201880  0.2364076621476923
  0.5777322464118887  0.1918583430320003  0.9109431632337652
  0.1243365561925239  0.5667215568873369  0.1059329720279012
  0.9702168083199076  0.6824225246722935  0.4155309413777985
  0.3186790102660886  0.3041364906316942  0.2985270506851492
  0.0366690003802255  0.7980861441066506  0.4761778834190082
  0.0181282944391965  0.4751486670992383  0.9810059301938375
  0.5014316735174964  0.7983078637704658  0.8111472666427733
  0.7190670042746754  0.1262862734162785  0.9731775453114732
  0.2254479110598829  0.2258066410517703  0.8425846416413504
  0.2735847834917298  0.1723936105801527  0.4322097541532690
  0.8749431170559960  0.6263632916867455  0.5173821804426088
  0.4172060947508071  0.1932926111944014  0.3041848621805088
  0.7642293143081742  0.9838990515416057  0.0232594396666747
  0.0684092044208578  0.5763214755024240  0.7035763398344453
  0.7956785823077327  0.4224003047701704  0.7547672093911254
 -0.0061076421055009  0.7618218375402865  0.5827185739133215
  0.0195120356095414  0.0319445430417000  0.2983177259963370
  0.8079813785246899  0.0155320291712020  0.9718290672536999
  0.9422337603808663  0.5047280827378494  0.8399323259298125
  0.0704212431779719  0.7597240372606250  0.8364932884040497
  0.4856340437194065  0.4094188851398527  0.2660835064913218
  0.7438563406080386  0.4723491045923513  0.4498692923650753
  0.4872285339308380  0.3263247471559219  0.5190143583800279
  0.9281456157839665  0.3964564702071058  0.8558811883252293
  0.2575429134291748  0.2115359084874947  0.3053444794472585
  0.6340767042831129 -0.0028412106645033  0.5791399681665085
  0.5553376075408348  0.0722597266908394  0.0414389756577194
  0.5681424647502804  0.6711997150028440  0.0314147256016398
  0.8269532629063588  0.6004322616546237  0.0159556581961135
  0.7938083384464359  0.8568491060066559  0.5135645363056387
  0.1269766566206325  0.8852781297961484  0.7230294207893578
  0.1542057024753729  0.3229122508885216  0.0723815200019440
  0.5981629777272679  0.7463604056458126  0.5236621346715932
  0.4371157769750438  0.6821646112067389  0.4644400258475175
  0.1464806625602679  0.1831277234236737  0.1653154532116200
  0.1214862261109580  0.5253409600092145  0.4548070369419507
  0.2235921110575801  0.1910900810082435  0.7349281194091523
  0.3734527106095631  0.5206508249637940  0.0309757896104701
  0.8497422803656222  0.9652408521535002  0.2117604993104639
  0.3248293807016416  0.2359907257487069  0.7603773412454379
  0.3803422741787447  0.8127255114552300  0.7677866348417584
  0.8976050529060056  0.8794771614576031  0.4315024410752511
  0.3618124040965747  0.2851801391654169  0.7642680754818173
  0.5229214187579466  0.1919483900126955  0.3395667712013026
  0.1742323770433692  0.4885247873967328  0.3109292155635491
  0.8115590091272024  0.6512244048124698  0.3730547280961636
  0.2986412844250481  0.7235007028051418  0.3327036555296428
  0.8882361350244431  0.8246269670012004  0.2106236197635922
  0.5670197163807955  0.2450944896858036  0.0581301344596296
  0.1287657530003489  0.6005473394475382  0.2096417113611641
  0.8627763241981529  0.8985733506010575 -0.0350804685381477
  0.1783534200252036  0.0538871415355257  0.9220933831467983
  0.2940555959302156  0.0618846495764326  0.1331131051289963
  0.6944743843115126  0.8350712007370771  0.5909219454776947
  0.6453116968338626  0.5936673528729057  0.4449290298849928
  0.3310947817497497  0.1548547277040388  0.4542740440125159
  0.4552843503571400  0.9140061470109372  0.7753278407553099
  0.6239088073362721  0.4330011440821661  0.7476264082107372
  0.2373076282989437  0.4466828103509586  0.7831211067054636
  0.1751897957717272  0.9212534922472434  0.7914286626420808
  0.6581152226945262  0.9457381648810359  0.5523843042597180
  0.2635956940357591  0.1418083981220901  0.9866878586734995
  0.6049232584344669  0.2556040112691237  0.8486373343814552
  0.7627911436206180  0.3730296012435521  0.7342357851503962
  0.4946562290185969  0.3127927733493254  0.5805311184274500
  0.7590218774916159  0.8421152673053008  0.7741681286181408
  0.0175421219419995 -0.0029253887749305  0.4313570123854191
  0.9473143270027318  0.7285741041456083  0.5188791630272707
 -0.0328695814002328 -0.0000289430633871  0.7101558069966571
  0.4368163750350101  0.9539368471806530  0.0404998138915940
  0.6410801412766876  0.8279403282043502  0.6272476732628094
  0.8353388522118135  0.2074130679490809  0.1633688531210488