Cr N  Ni
 1.0000000000000000
    38.8525295221951836    0.0000000000000000    0.0000000000000000
     0.0000000000000000   38.8525295221951836    0.0000000000000000
     0.0000000000000000    0.0000000000000000   38.8525295221951836
 Cr  N   Ni 
 249  72 454
Direct
  0.2967566817784459  0.7320978636247298  0.5292837986757106
  0.8471887903317119  0.7763261396547185  0.5009587855440849
  0.9155112400881611  0.9671460440251172  0.5866095097674564
  0.9596092027207155  0.9969264843834957  0.5273602613163113
  0.0194090164980636  0.9391256536995434  0.5203158430488555
  1.0021151570899089  0.0444753208025369  0.5602506444576487
  0.5505266076578297  0.2128399649507594  0.6378212051470697
  0.4752234056352554  0.2365989503803954  0.5547366384644584
  0.4722054831861057  0.1141034281042823  0.6244897588362369
  0.5172054453220997  0.0570378556877700  0.5340407133945715
  0.3028315195553545  0.1221943670626578  0.6263716009399801
  0.6416827807328984  0.7132071827042734  0.5546097086817866
  0.2977773884954855  0.0421233144420224  0.5063454109192842
  0.3192521926214548  0.8993228684536911  0.5135459900238341
  0.3798824656594174  0.9003795527468238  0.4745113878993650
  0.6861107133354347  0.5954290373747030  0.5772366571421316
  0.4501313942541890  0.7724322298271050  0.5302399104318624
  0.3689969439142382  0.2377521129176483  0.5196617871670797
  0.5248467715710421  0.2777568539741258  0.5602793650642799
  0.4491495695619753  0.5088486577045741  0.4569457266347184
  0.1692509152855410  0.1795942859154382  0.6203286258464158
  0.7770302026240697  0.4873622507917972  0.5684408245554740
  0.3531803609700815  0.4951212664033281  0.4816462707637432
  0.4872983404680327  0.5116174742063252  0.5194069131896291
  0.4150325212739621  0.5596677441287177  0.5397814428461494
  0.4585984126464703  0.6293668845931696  0.4132343201442902
  0.6844951661618158  0.3885836256664422  0.5342548527940020
  0.7339443332281036  0.4246823779096182  0.5569364643061921
  0.9817436135912280  0.8831666171192661  0.6023616220332616
  0.7614972370123790  0.5463372553457551  0.5532536585838352
  0.8568954130527049  0.9188331045049748  0.5758114831493192
  0.9596870441929363  0.9380880320078634  0.5000952372787730
  0.7739026290278563  0.3748325211669044  0.5650084752326002
  0.7989570369448604  0.5981388728579097  0.5617003004983586
  0.4513060626840972  0.6245266214875240  0.4797381903746590
  0.0175757044152188  0.5909225517640346  0.5344750551415659
  0.7110439994652024  0.1466675519541798  0.5277131337945099
  0.8969908144016537  0.4127384524681086  0.4837583848825983
  0.9444306766972699  0.3317393450462013  0.4687959950235686
  0.5600069104242695  0.9513125932245761  0.5226465326536828
  0.7517171470208938  0.7145345218129286  0.5385158342823919
  0.5921021223040491  0.9030787899474947  0.4939424910768110
  0.7594481092674145  0.5210524855714448  0.5028251353816400
  0.1767708528240746  0.4664899694984376  0.4290089378281163
  0.0609554813303273  0.8579629264245735  0.4943578239574341
  0.0530988110707957  0.7469186514949563  0.4704735343634480
  0.1934185369820762  0.6898159977125963  0.5020237041294084
  0.1162293079822613  0.6187543983433845  0.5320291843200483
  0.2913940687236304  0.5241194907881680  0.4548869110907065
  0.5347718233467950  0.3390074995039215  0.5520535037382825
  0.3319649347837071  0.3995295955847576  0.3919609950266339
  0.7917080267539232  0.9369498713698180  0.5805652200211346
  0.3438055720275794  0.4391176909638613  0.4415719988349480
  0.6039940560221123  0.1915619535532448  0.5416770354008139
  0.6491896032042699  0.3778323528664129  0.5815491592085361
  0.4414978474394717  0.3356485217140860  0.5773759513481068
  0.5634020793452115  0.3208255723899097  0.6212046566720253
  0.8295877236732844  0.9699436942817992  0.5389136045343367
  0.8953185354961894  0.9674566551238994  0.5199102520949340
  0.4969523794220413  0.1289618689774762  0.5245860396792505
  0.6909264403707398  0.4330490224699141  0.5938646026260844
  0.8054183669253724  0.4279453423892887  0.5684559581842047
  0.4426208206586210  0.4457256445072184  0.4647484026391547
  0.3752200745065506  0.3628614484198026  0.4935253320482134
  0.3437496425517742  0.6105661421373222  0.4966146000877665
  0.0036296324505641  0.3104063914763066  0.4303337184107711
  0.2144399833759007  0.9674693413765760  0.6367545748221179
  0.0268282277458585  0.6062171118145528  0.4706545398806108
  0.2682298002940242  0.3509415263020793  0.5147059906265212
  0.3756354764670958  0.3765715556003548  0.4266637317177096
  0.7369732762040624  0.9097597156790048  0.5989976895611674
  0.6573146818487848  0.8223241458989674  0.5384116677053762
  0.3463753150098876  0.1312823553159746  0.5848360440152293
  0.5393795422297025  0.6595650037351404  0.5277888159212641
  0.7604085784474333  0.9708401937341600  0.6300923612226914
  0.5960831641651331  0.8299332061377193  0.5143430551665268
  0.5186615415607759  0.7011607868926515  0.4607091957187588
  0.3396814908510344  0.2908218735273202  0.5573490158449608
  0.3398253015730007  0.0871131466831225  0.5353669372639358
  0.3159359298789203  0.2296777667502419  0.6178868380215742
  0.1311676895876672  0.0581893589177427  0.5190037341502572
  0.3016253660333378  0.0285114517575831  0.5934648551565350
  0.1630414824602453  0.2941762579337053  0.4930348174341164
  0.0522338883955230  0.1440714512663718  0.5043120919787455
  0.6824327718434468  0.9218775783593469  0.5621532823792256
  0.6471644472455746  0.9415449639534446  0.5038031944241638
  0.0603238925188135  0.3107204416241730  0.5103377402584238
  0.0181058837792106  0.4746078200152671  0.4969743441361276
  0.0182776062280101  0.4863025145066769  0.4366209107028932
  0.1306355348220243  0.1572805734887610  0.5596014606937275
  0.9050698276645558  0.1723809092421972  0.5031336060997185
  0.9167442519173277  0.4253276128497599  0.5707289171972073
  0.5321321914942517  0.0076961629022845  0.6138672424163980
  0.1431504173021021  0.5915144259359116  0.4903289256592503
  0.0489487574071104  0.6778657337339735  0.5525003160284229
  0.0300171396697521  0.7167706126215958  0.5977332474479405
  0.5186707129681367  0.9803260815398251  0.5534314199478673
  0.8083707608598844  0.1578130052186955  0.5057899361592432
  0.8849407777466265  0.3778027191472122  0.5611361908878748
  0.7334531565659511  0.2984569974371948  0.5119440969614122
  0.7899953064623491  0.2228197912355035  0.4976713866749479
  0.7103480357098449  0.0904349425834932  0.4738012556349219
  0.9239876571622925  0.0278556169486196  0.6201974187819670
  0.8277504759700020  0.0417653979042327  0.5881975689616032
  0.1748033770289537  0.9194687483919859  0.5141666998701784
  0.9736766304038339  0.1001001151981607  0.5539641423277750
  0.9308706164892568  0.1129602301619341  0.4895014746398055
  0.8241953303960459  0.4988550571833726  0.5301392982482730
  0.1928559389327890  0.8555977427996057  0.5183764936784988
  0.8949848948195175  0.2364059610285437  0.4814172920996246
  0.0188132062981523  0.2095931750310711  0.5227390041501426
  0.1964759078563413  0.6267939720447742  0.4407199745264970
  0.1669445097262791  0.8139925880148736  0.4827250251013900
  0.1998199224605251  0.7135940645492448  0.4409528249173764
  0.5773850124804504  0.3148719686905675  0.5220745869248585
  0.9225231814840926  0.1546194183948394  0.5569918088708435
  0.8441305908144155  0.3107106214540382  0.5484922028302543
  0.2669237101435863  0.3590299429254807  0.4516331390516362
  0.1298487838609405  0.4791090817218226  0.4673219073080052
  0.1698080045539189  0.4618277104716880  0.5250536294496863
  0.1390244454957680  0.5426540190339026  0.4474195860604563
  0.0879747937428734  0.5660127204994160  0.4826859572633894
  0.2412743412963852  0.6670894583385404  0.4557264465712015
  0.5977727791858047  0.9985832046505742  0.6462225425000765
  0.5619209242113691  0.0965022883695678  0.5413942727156352
  0.6227764284599461  0.0755135696512651  0.5691172338482063
  0.6547956555592911  0.1692364292849634  0.5034068368536139
  0.7133110778540434  0.3725332199510473  0.5973755383312055
  0.3311222157970550  0.7982872711419191  0.4837699209104148
  0.3231949594268745  0.8122394427266603  0.4216189849606581
  0.2984672069278870  0.7011326440503720  0.4781791017106618
  0.6781285553768491  0.1180248515403476  0.5781308076201124
  0.3999032206827850  0.5360088370551593  0.4836562088370277
  0.5019393035521421  0.6014729209024271  0.4417195838583408
  0.4738557186090715  0.0227751319953218  0.5832285082539077
  0.2760934038726452  0.8855180752001733  0.4440534256218986
  0.6563699585730082  0.1049152652597637  0.5150604264495057
  0.6144197575111900  0.1377707922914037  0.5559413571516342
  0.7747756440071527  0.0636886567809417  0.5618629918890523
  0.2191075516965379  0.8486102246761205  0.4452795636063619
  0.8012250312889804  0.6923565342966068  0.5023961897453222
  0.8424827193885910  0.9789654867091231  0.6058838579912357
  0.8213574858880321  0.9031648492227190  0.6290930098677663
  0.7182737541228932  0.1494180693940978  0.4520483343193968
  0.8622125569321741  0.1270941342722940  0.5249040055576787
  0.6615896001018532  0.6563837382627798  0.5644953900051658
  0.2849313042875778  0.9386305452952771  0.4907655396377707
  0.7634480555186972  0.6507300420084937  0.4696025418667642
  0.9533922327900026  0.6787692035849514  0.5043664904396216
  0.5387390389225505  0.8759997424370795  0.5288410605266316
  0.8398067476183784  0.3172806965410001  0.4910283995091790
  0.7353114465100115  0.3630600883627322  0.5014477599705922
  0.8079664969289077  0.4488042898758723  0.4863835227934736
  0.9037965672156676  0.8163191240592221  0.5134500521590599
  0.6496577182278094  0.4596678762475111  0.4795796345425676
  0.5252808370406207  0.5546554571978055  0.5217019836700700
  0.5408412197943008  0.2248392688089430  0.5762498688140921
  0.9034750320678600  0.7625568364647330  0.5265850286202370
  0.5383875528840476  0.9242149897646974  0.5783358982466860
  0.6080149770800924  0.0516652315141859  0.5120574304395369
  0.3195220239348867  0.6731201255584126  0.5367021036717861
  0.3835610304692336  0.6654705785967953  0.5657025476465894
  0.1096278203088431  0.7791443424641595  0.4769486350904524
  0.9681744578926889  0.8125155035202319  0.5362717603140221
  0.0782582567560573  0.0184780034247539  0.6331673199558586
  0.0781019890744610  0.9150136146399023  0.5432018919733661
  0.0246111670346625  0.8684281523133125  0.5508000228949494
  0.1315258053295046  0.9907761365082260  0.5394448065193325
  0.0324835568843572  0.0880448593021212  0.5892815680728526
  0.0547724300573632  0.8150119396692825  0.5781013561478396
  0.5913305846851392  0.5493163824706819  0.5454046366385265
  0.9985588675322338  0.8223426537483558  0.6000995002934146
  0.7585345569605177  0.8218342391420328  0.5149327869416022
  0.0974077544355585  0.6931205096035898  0.5009634240291134
  0.8301405871889653  0.8144473286669204  0.5456162778771109
  0.0674876069802755  0.7425265196718631  0.5447516269525046
  0.8568595587595380  0.6572312482181725  0.4849062371108965
  0.9600428056395900  0.6119843317186793  0.5066205542826526
  0.9167282119793585  0.5296212288677595  0.4407054781191307
  0.1711028214593764  0.6160880734207000  0.5560371823138809
  0.6959402109783985  0.9140494490766783  0.4809543760354463
  0.2154356102538750  0.4379376209959507  0.4668989467930555
  0.8388959103624893  0.7362684290482245  0.4514829735261771
  0.8655872801109279  0.0741269076950923  0.4792782925377150
  0.6397600647871232  0.2706720288827516  0.6015209303378732
  0.1506262041070533  0.8295025380097859  0.5823488356601239
  0.5708165601839695  0.6121287782071457  0.5207833897244525
  0.2291267917731427  0.9674078873527531  0.4611348800629809
  0.2523855348104045  0.0637832130786063  0.5448876586110551
  0.1817383420269496  0.9772776027103457  0.4990211469773134
  0.3586506564083992  0.6707118870231108  0.4841965821880839
  0.9659286738936704  0.4449008448499939  0.4810928138927845
  0.7111767099197888  0.6125708852508355  0.4619628248662931
  0.6166244013642550  0.9291116118578828  0.5515696509285609
  0.4830667779052462  0.7839118028291649  0.4867181308529502
  0.9570219148905383  0.3933286533477323  0.4507646610971417
  0.1789656819219135  0.7938383093884166  0.5401016590962926
  0.2480252786620059  0.8287537473314723  0.5598940410510665
  0.1126908918243325  0.8293441474588109  0.5245427606544236
  0.1903058947259006  0.8796043197755770  0.5844658822991339
  0.9653809420751756  0.5514251853969359  0.5184510923395641
  0.2871293854191537  0.8030139396188322  0.5263172442697441
  0.0222884160933856  0.5386130522356746  0.4793855458125372
  0.4646052009113367  0.2770807826338541  0.5972810209866506
  0.3271443495520375  0.3473331169094512  0.5379784783583802
  0.4250086728071601  0.3883848126505092  0.5558134455408484
  0.6013805130801314  0.5375380982680376  0.4951527498185055
  0.3820703300581240  0.3411255261264849  0.5585445202915030
  0.7068066002156393  0.6650344554443323  0.5128824001111884
  0.7396030793611118  0.6064113764017380  0.5360726429705754
  0.7852593648712624  0.7537787575706234  0.4873598261615594
  0.5315641122235850  0.3952278721837613  0.5377049998626737
  0.6679314010208003  0.4892409327770386  0.5841940488401623
  0.2795364133731973  0.2963996993503145  0.5332858107551292
  0.7348996094927163  0.7184440402864729  0.4777261234995543
  0.6618039775943620  0.0357101323178802  0.5325470358774304
  0.5839404115926121  0.7962394954087487  0.4578170837238035
  0.9990937318004746  0.1930604380770088  0.4701339170211601
  0.0695559413746192  0.5068933691073522  0.5020915312563535
  0.4372420858299208  0.8278070472945042  0.5148438756316115
  0.1858284900736221  0.9604598874027312  0.5652404211067883
  0.4136265096775934  0.1217081926102422  0.6067980194044942
  0.8956318498812565  0.3613982900973459  0.4392968260846538
  0.3252688321616218  0.1867261208947965  0.5763758008534992
  0.4514755126359763  0.1721393167309682  0.6116597054716304
  0.4276718515918260  0.2310891565778542  0.5977643458202336
  0.5783519055837177  0.7368672022098782  0.4733160919056810
  0.4359875328618974  0.9364840019204538  0.4241655078771285
  0.5861815074317493  0.8575284660859741  0.4469402526527023
  0.2789330832849100  0.6161035734806258  0.5349222720198561
  0.0843646216056986  0.1036070600099857  0.5461702326968659
  0.1761432616486144  0.2941758210588997  0.5557606848713226
  0.3449294166253194  0.6085027407362851  0.5574090684075974
  0.4383027096748892  0.1023534747702185  0.5091559599872183
  0.4272523766632418  0.8111464970376444  0.4587434454017379
  0.1742291745318551  0.2449869827038332  0.5139363602654744
  0.0899606188989778  0.0809980189937792  0.6074344463893707
  0.0038689687725763  0.3339420069377854  0.4922221558358997
  0.3476312483419107  0.0255642169312416  0.5472456921121125
  0.2536058662702849  0.4101641486430329  0.5059656255283965
  0.1282916328351948  0.0300238436250083  0.5902572702411513
  0.2733617061203830  0.4187794668088625  0.4371195669340476
  0.0347840898218756  0.0803996354043582  0.5242655774748711
  0.0671847635363430  0.0322847540453993  0.5628269422593172
  0.0859252374385272  0.9743500566690758  0.5897572672323779
  0.0207403536844056  0.1431055863318605  0.5598298637591853
  0.0937258648001960  0.1923710100483604  0.5115725254435927
  0.0344282245249395  0.9183348889296392  0.5882916170415290
  0.0481105940049082  0.1971326968282253  0.5830503852772247
  0.1624373935841608  0.9997842516797248  0.5785427683218834
  0.3607513014913000  0.6460208581123191  0.5261799216305416
  0.5715011610658276  0.9092050802171476  0.5426911716132041
  0.1061277296736973  0.9522322069537091  0.5517446634200931
  0.0666904406919722  0.8403551268476775  0.5398982095225107
  0.9915962146809646  0.9761638023021089  0.4958386750149655
  0.8635200846938343  0.6952678756842636  0.4512402082979676
  0.0414054094464167  0.8983668604964600  0.5121767444554297
  0.5541225563187914  0.9079818072419039  0.6222996707134840
  0.6993025232965649  0.6315254889357459  0.5477263856791298
  0.3485256037734026  0.0484224842646397  0.5026685010902814
  0.8513922967107416  0.4273355628109086  0.4914440316185061
  0.3408663994661259  0.7071139119765792  0.4571536550898599
  0.6438005724511183  0.9158958487707043  0.5899242094706028
  0.5238426570179469  0.0265050610375937  0.5694708549421615
  0.9833511122359950  0.3510604721602621  0.4475493074034103
  0.7820312746994460  0.8908704103650441  0.5970178405670228
  0.3381086504808885  0.9973300503186920  0.5847915321465952
  0.8692502910162920  0.9011785231293170  0.6182344980644149
  0.5539765397744005  0.5790401228430745  0.5534583609685929
  0.3622941702000022  0.4009798960141302  0.4655052713569892
  0.9718611464840929  0.1495904693370641  0.5624352046185233
  0.4784567152032366  0.0826352211595876  0.5243880227973361
  0.8002199513060596  0.7951064402221378  0.5128941100175994
  0.0508329450595638  0.1789548329800682  0.5387904302875758
  0.5503376486710702  0.9973823655432805  0.6583641889262747
  0.8558322542348643  0.1647403500732010  0.4941457549407097
  0.9788354374408870  0.8522681287461421  0.5635749289709822
  0.2244868329827027  0.9725749710672985  0.5904357303416140
  0.8202559999579589  0.9193948852050601  0.5426383415668516
  0.1680660130371019  0.9165409890130600  0.5619168431988167
  0.3180202862684312  0.4834286147114883  0.4498892831027109
  0.2542749082129007  0.9265713929229151  0.4543041374097432
  0.7283898419404223  0.3748714341513090  0.5496525024015796
  0.5661483078660323  0.8620450610940433  0.4907339807695408
  0.0502879090751485  0.5697262334989336  0.4519602465653810
  0.9368694745150922  0.9548363629360144  0.5413613301170647
  0.1565867637744899  0.0179895333676669  0.5076903102932988
  0.0901498585317388  0.7401112402794793  0.5031446654875014
  0.8109465118182327  0.6546281381948859  0.4733293344732305
  0.9934935171191277  0.5786837647979305  0.4912523373855088
  0.0957244909110275  0.6626407673616236  0.5362229778782586
  0.6079395764376238  0.0992662059316873  0.5240715721511323
  0.8883141187334421  0.9942648577900550  0.6216266324510610
  0.6667784853080512  0.4189325460415729  0.5006570229564641
  0.9395002519703016  0.9431296771247415  0.6203399583245671
  0.0754638134554398  0.7108939236473049  0.5791023696254959
  0.4405684724970255  0.5235827372517277  0.5087338134845022
  0.8035542836018487  0.9479987007162545  0.6298971291529839
  0.1969822567632153  0.8343263883288775  0.5620190446675194
  0.3079835681255219  0.4376188548536624  0.4064606693223406
  0.7528414944417757  0.6785521401469394  0.5073758848882999
  0.1632538993761030  0.0832637318200651  0.4897508378502943
  0.6861152153427635  0.1331238746850418  0.4869396985260526
  0.1984432801298960  0.6483216431700696  0.4822971838713069
  0.1007412676303785  0.1445313037700284  0.5241908392683935
  0.6789320660059132  0.6446801731084382  0.4755739069253434
  0.8281170527133461  0.7315800807653614  0.4980154618557440
  0.7190414313709219  0.5850837561610667  0.4996792760324721
  0.1718415193494059  0.4563934947911976  0.4768201651863895
  0.1380979155078111  0.7889533366908787  0.5154156686324629
  0.7952887981483708  0.4591248712339954  0.5330287938998479
  0.8707506574977594  0.9653113277775492  0.5652858949147227
  0.6711983082947359  0.0772991430140526  0.5538345838281050
  0.1075435361172781  0.0643905795382453  0.5628471163793867
  0.2608274212425746  0.4457607698010058  0.4741002392883185
  0.9214926148069499  0.3721349191881957  0.4805993528847851
  0.3052356303249750  0.6365062665986190  0.5687032622246145
  0.1087833533801638  0.5219780416332230  0.4783262334455763
  0.3707330927775460  0.6271094453289167  0.5948435225394072
  0.0196793106971311  0.1492727217675824  0.4680719884805725
  0.3027085437264743  0.0555850624003138  0.5534944208111000
  0.2937742925414271  0.0997655461266466  0.5727438698448002
  0.3952653674426648  0.4792752943902674  0.4420984533544314
  0.9843446123189135  0.6167505062014721  0.4236017420022237
  0.5618630312463425  0.1695012380273500  0.5900734167001457
  0.2406616295151521  0.7234894670984213  0.4906390296522757
  0.5443738641537503  0.1180971260568817  0.4852495783674443
  0.2174530635680945  0.6226246360346019  0.5167992945744745
  0.9501178536552708  0.7979600930388979  0.4771087246658148
  0.9445838922984784  0.7936745530599908  0.5916072511394482
  0.0973534399561062  0.6800140512993050  0.4427410186650477
  0.0079615993882668  0.8921567816505857  0.4732746280241555
  0.9144166354975715  0.4689307372934533  0.4566791141645787
  0.0039784683769140  0.8305168551231288  0.4875128997212360
  1.0010708537242572  0.7716147873332964  0.5030612230462140
  0.7638109871475139  0.5804071958488926  0.4824554324593384
  0.7827805895564589  0.7072068389604811  0.4412385403823227
  0.3873949426441035  0.9583865450622550  0.4623035287448347
  0.8050496877726518  0.6188751176924367  0.5050938299330732
  0.9524982433033305  0.3445763465063601  0.4057601295959645
  0.8642170814076675  0.5408015852417175  0.4758314993414196
  0.8920527372223395  0.3432566619545062  0.5093728399666548
  0.9095196158953917  0.4203227575516438  0.4170302532411109
  0.8612707319900383  0.5997914190976246  0.5144094623243792
  0.6326504878383312  0.7640872166199260  0.4817521883315734
  0.0537793996046873  0.7985178171818192  0.5152616899607531
  0.3050060278126515  0.4522271689689691  0.4883668672496089
  0.2972476290638550  0.5866367151287123  0.4336825249818624
  0.1868116581654773  0.5247144810049658  0.4119650074611346
  0.6288497822216558  0.3493682338206862  0.5216025800334239
  0.7349878354304538  0.1928178773306671  0.4898255644503957
  0.6794443209771892  0.2181173447243626  0.4626561976872435
  0.5804713746460228  0.3764299378740961  0.4982395821151880
  0.7595122761857384  0.0582086787915875  0.5002129165403129
  0.6017555065855106  0.1391187918808362  0.4931214454079071
  0.1454536236712578  0.7133676671773297  0.4641825776243287
  0.3206886702400926  0.7489536010697776  0.4391261200137864
  0.2524696560706199  0.4853269157658145  0.4984914972959302
  0.5018257194431969  0.5395074769125610  0.4604391560596158
  0.6387476201696266  0.8266634640224236  0.4718674621360754
  0.2956264951845066  0.5711950772771135  0.4960860921452469
  0.5397103077159161  0.4007125369201088  0.4603081915977920
  0.2949118867412165  0.6386362191143221  0.4775072746945437
  0.7508602933676846  0.8796816980129420  0.4952707104325920
  0.9198396111992915  0.7036476515894803  0.5443872918464339
  0.8990365676564230  0.6501270817797102  0.5237784501395690
  0.8126017609484502  0.5570136299531283  0.5134683907674029
  0.8184814616586197  0.5384444851973176  0.5755858993001700
  0.8397907336117063  0.6480577023861344  0.5540509252754924
  0.9083795724169181  0.7456464039353792  0.5876192398388380
  0.2390034293115029  0.5412374045510142  0.4838093846207348
  0.6460475653808782  0.2316160080361223  0.5575397471505794
  0.9891634696483325  0.6574692521043608  0.4644000544456030
  0.3538534714558006  0.7361203142076128  0.4934954910382741
  0.8162263055474059  0.5699628083597773  0.4498088490911477
  0.3085582579441704  0.1455918091040319  0.5341446801859452
  0.7023887805829023  0.5523842097252897  0.5314380720108776
  0.3937310730238688  0.0604171742694758  0.5154042461009656
  0.1037077844680100  0.4139998001191093  0.4787210287930524
  0.4523520457043958  0.0407087982253430  0.5229812693577396
  0.2129992387255920  0.2663738706973367  0.4623469640404766
  0.5021983556778814  0.4537961440301749  0.5377561168662356
  0.4965371081963674  0.4727676100203218  0.4765455111817556
  0.4466983935695951  0.4363588298437886  0.5223956093816466
  0.5480693471234378  0.4978063305185735  0.5436295176072574
  0.7874172088716441  0.2837295095340497  0.4808790938646221
  0.4245782841519817  0.2666423003976776  0.5290048223671959
  0.6088094499403447  0.4952446228329888  0.5659404950442912
  0.6542850383111480  0.5079014174733464  0.5230330769663568
  0.4763646920951540  0.3011764921297839  0.5378824218258528
  0.5875834896487635  0.3797590224627492  0.5621319615061199
  0.5998712665304013  0.4761920854158738  0.5106136414579290
  0.6492837742159743  0.5711527640278341  0.5078221253701769
  0.6274661349073846  0.7033514818845708  0.4985223338812207
  0.7005913917193136  0.7062571034546071  0.5713504274987645
  0.7602632233342306  0.8644431974931888  0.5609801285843372
  0.7373171661594562  0.7810637097100595  0.4611925099546084
  0.6834899750747264  0.7278675914395109  0.5113216786551957
  0.7754707980715659  0.8093586999970104  0.5873708845707702
  0.8173914606251246  0.8564013356479596  0.5870591004600122
  0.8109301426456940  0.8701540986257824  0.5231572450739547
  0.4924774546433309  0.4133890154348989  0.4939729569596374
  0.6289463822832502  0.2320912134539174  0.4974036434922944
  0.6785081453939620  0.7656734788908415  0.5579092224818581
  0.4189323463443067  0.2054409433133814  0.5452731153074309
  0.1102712982772331  0.3706902154738734  0.4414072200865773
  0.7241316617829898  0.6484891996764840  0.5854574496209074
  0.5565001954419999  0.6314602015131519  0.4549965183628715
  0.6302622859974906  0.4382184557018985  0.5763252493042710
  0.5723596338753270  0.4409297729185009  0.5553198165506213
  0.6252392975001445  0.6043876604477929  0.5556280635832875
  0.7172916155037778  0.8141164442125726  0.5623696556885870
  0.6021336890262464  0.6625911145229543  0.5439233366259256
  0.5283795414769112  0.7654024092013978  0.4513683525593823
  0.5475092041627084  0.4458724342180928  0.5008170200764586
  0.3722728844512121  0.0742778941132698  0.5906090736055626
  0.5288850438061948  0.3443294775727159  0.4889468554428718
  0.4788257392346588  0.3615429601269842  0.5251181639683185
  0.5412937512465039  0.3781508900466857  0.6043055574736806
  0.3728633032695751  0.3001776722649815  0.5065228888691009
  0.6156406901230745  0.3276548588402192  0.5814232648882849
  0.3450459187561083  0.0038772026050909  0.4856396579323941
  0.3661010976313366  0.2333410210942019  0.5769592337322414
  0.3632559065667573  0.1146517123811203  0.6446927087627082
  0.4015084791851855  0.1639650030878425  0.6520449166619223
  0.4929621189526627  0.8281135723796096  0.5343119698147959
  0.9977203301524221  0.2515577473409999  0.4506176239641513
  0.3903316290231987  0.1769836599159310  0.5926050605791143
  0.8567085431569865  0.2012067502988688  0.5270834880155013
  0.4796082757766671  0.8446362152267770  0.4693306007181863
  0.8437309135856714  0.3791578285074067  0.4728607489322336
  0.9289683958293889  0.8514798084300604  0.5687563616442731
  0.6305629212941645  0.2861802376669954  0.5383094701217320
  0.5993343181208850  0.9142486412586036  0.6108791775472865
  0.1280155313792037  0.2277227815780942  0.5515210619430737
  0.0940758817511914  0.6241518998120593  0.4628361657521486
  0.5536619660223069  0.5709899655273205  0.4694559035432367
  0.6829902279062059  0.3304086448941718  0.4873852533388334
  0.9107073562310983  0.0928092806938030  0.5405102526101542
  0.0260891943915907  0.5268005374553594  0.5408175838025302
  0.9673848289408168  0.5864418370242637  0.5702226696201508
  0.4314700721865430  0.8747433572359655  0.4392900910189202
  0.4282046569784706  0.8824372563901330  0.4986177986201508
  0.9157606874908997  0.5151199084614857  0.5028951187625356
  0.3770855480183259  0.8443383237603044  0.4303883018501670
  0.2862383441598683  0.9962686587907202  0.4669229383008549
  0.4146245422539587  0.7068228625579055  0.4269916098047705
  0.3215658421470083  0.3442883153593126  0.4181388680609034
  0.6503105114853043  0.9986853392698489  0.4830519737000727
  0.4499174306689319  0.5703711911027537  0.4359452633175976
  0.6130673832155187  0.9897741566049373  0.5327102199610043
  0.2824316719000524  0.9503895741069099  0.4228157168051779
  0.3812610914224995  0.8415838488233768  0.4907831367981438
  0.3739725741313404  0.7824380775452006  0.4461932296524647
  0.4203327822380867  0.7500018668120380  0.4695028869093666
  0.4633558851084347  0.6766715192318157  0.4498113287970106
  0.4053859455241599  0.6468299566554154  0.4434071208939602
  0.7370071793676179  0.1001256097642786  0.5996058694538573
  0.9258612632936708  0.5351913832063457  0.5616439458417645
  0.7331819336461562  0.2517166665396049  0.4713764827380607
  0.4138736758206705  0.9357741711535411  0.5354387521354407
  0.3089233510324981  0.5125872789569597  0.5161111535161734
  0.2074381415798738  0.6681449054243980  0.5611187151190493
  0.4832544506270918  0.3854381266286098  0.5830670253982881
  0.9603316261038789  0.7508468826991036  0.5483279741525704
  0.6242374588127736  0.4132247150921894  0.5214942742651281
  0.9490613518616349  0.6447321020236942  0.5574207808587729
  0.9821869213758905  0.6940392632986152  0.5657626666946003
  0.6800869730725336  0.2687700804728252  0.5038991076073384
  0.2356351800920716  0.4961193156536738  0.4392617617653121
  0.8590341413883124  0.7081086549382510  0.5253265069885300
  0.2664820457903437  0.2985327424618112  0.4708505696140006
  0.4321982068183006  0.0554471781999600  0.4646502268465407
  0.0433993738868939  0.6816409967662215  0.4799509734237763
  0.1874812429614171  0.5075166560064039  0.4753889508000924
  0.2667841936492216  0.2372883921137863  0.4852458661266806
  0.8713250544767733  0.6019487481096916  0.4538239914251371
  0.7518724210281309  0.4606424978507071  0.5135735232130427
  0.2172471121132040  0.3468740244337834  0.5569498410929503
  0.8847981378807720  0.4872827632737570  0.5540322787086249
  0.9675302461558131  0.5043155215732782  0.4676026877979422
  0.5019805299869756  0.3267282563178605  0.6009273531678507
  0.3756491753786376  0.5073685644888404  0.5400283176717172
  0.2480565320858218  0.7163181007082728  0.5691311960826330
  0.3314569632873846  0.9227548090262501  0.4518878811408469
  0.1354179644759135  0.5643727023634990  0.5544753236236785
  0.7879761644565492  0.3934983325969638  0.5057723063819138