Cr  N Ni 
 1.0000000000000000
    21.1201135712910144    0.0000000000000000    0.0000000000000000
     0.0000000000000000   21.1201135712910144    0.0000000000000000
     0.0000000000000000    0.0000000000000000   21.1201135712910144
 Cr  N   Ni 
 259   9 605
Direct
  0.9979288687992327  0.9987425593117398  0.0075341397980539
  0.9975743526352902  0.9978292010339171  0.8284454201041563
  0.9155678134885610  0.8319826803641094  0.7484779774578649
  0.1660019808685340  0.9173023968810710  0.4154717188574223
  0.9172581264189559  0.9169429337283651  0.5007980933487726
  0.0001940633938453  0.9149380232113483  0.5813292318275899
  0.8281789209016351  0.6703088964767692  0.5027605458989034
  0.0818284499711440  0.2492805385388555  0.1655089724178319
  0.7505306262426199  0.5837118755600652  0.1693853768091558
  0.8332540168185445  0.7508437960889127  0.7496931513462399
  0.1636623121277826  0.9977506476860358  0.8318914312793629
  0.8340480494037277  0.4128082487667977  0.2483652857181828
  0.0012685204397328  0.4158108873419335  0.4157493329570566
  0.0008431783926746  0.1661812947312784  0.3316887382935868
  0.2563222317838535  0.1668413562898368  0.9180837525266722
  0.0843490987241253  0.8336932414927654  0.5831567167331476
  0.3317216464530911  0.3328397169867574  0.3340387117538768
  0.0835273350189136  0.6645748041560497  0.9159809852771977
  0.9152924724964701  0.6646776556891538  0.9174259624366641
  0.7498751878533886  0.6664562065436492  0.5842908409865299
  0.7511556228370878  0.5878030155496802  0.5032109953205126
  0.0849831006558884  0.3332899877647951  0.7497618670057271
  0.8402911138456267  0.4980994193703439  0.5020856961650443
  0.9986865777481161  0.0826226497252882  0.2508777506087667
  0.9982884912701042  0.9994903192368956  0.3322732880520324
  0.8324858356618456  0.7507120080132826  0.0822767698437949
  0.9989783558463894  0.9082829173597265  0.9167563970256311
  0.9142492653174905  0.5832243055811208  0.1669196053810019
  0.7492130969376983  0.2490590317190312  0.1672269611052785
  0.8323612922592211  0.8310100311665897  0.0015007193360552
  0.9158208182479293  0.5777627528309117  0.5019588171895746
  0.7488096597783017  0.1664883952588548  0.9178482064683279
  0.7496633805703963  0.1656105968441332  0.7490320541583856
  0.9993177621707547  0.1654835349196239  0.5010048451973165
  0.5008240880141528  0.3322801564797987  0.1663878402770600
  0.9167446882451835  0.3350319491607241  0.7500437378488107
  0.7492932700549163  0.4143583742475204  0.6669669973171425
  0.6656676111797664  0.3318388977376430  0.5010286008541580
  0.0887006131581319  0.1692686140281678  0.7496536032548142
  0.8334492147985871  0.2504309190768756  0.5827654102090057
  0.9140401417648747  0.3365943725696429  0.9180545914815982
  0.6640528342783222  0.7520129409454455  0.2494239185908134
  0.9148342354398510  0.9161307533613423  0.6662213235462371
  0.9986821856632223  0.1660642731547285  0.6617017473905358
  0.6647435111730103  0.4143565794412405  0.2503535907214189
  0.9974468346792381  0.1669369767173694  0.0024267238400209
  0.2493884456661855  0.9148116571124347  0.9995931891247689
  0.8313434940906297  0.5834740563381826  0.0840963024610316
  0.7479717366112733  0.3335893435441001  0.7494458780578105
  0.6645420568723920  0.7499516963004290  0.4165006040478497
  0.7475880406075250  0.8320498774785401  0.9173246374178253
  0.6650516712060990  0.8324056139269471  0.1676124283882269
  0.1657613573784473  0.1661312354743227  0.6649208534275289
  0.6598486397670585  0.4996373044027375  0.5038781282362318
  0.9996275523732258  0.4163460695315412  0.7502209906730740
  0.8297618403321728  0.0844039897477539  0.9174433278701305
  0.9976367560694090  0.2503615526184528  0.0829822215972889
  0.7499587690145388  0.4058021112549364  0.5008978186197798
  0.0896925499906589  0.9978584613397407  0.9169739377568464
  0.6650290116067653  0.5824760006438373  0.7505545397954134
  0.0001583651367192  0.4158284131836451  0.5832781382497674
  0.7483778950781373  0.1666209606985753  0.0854427378793332
  0.7471887387224353  0.5833029483960052  0.0006166811050801
  0.7487865279061342  0.5837953786138120  0.3214429251511602
  0.7489690283785230  0.0017526066211034  0.7491528169420087
  0.8315582302680438  0.0847974900675054  0.5807453194550288
  0.0840829907505369  0.9148784897428813  0.0021235664301950
  0.9159254899574686  0.6678397839751823  0.2472259268087078
  0.2503995223429470  0.5821012147109211  0.3325337167422009
  0.0823429531996699  0.8322598214926372  0.2506954036187469
  0.8315756576284444  0.9154658219867287  0.0860934093082414
  0.7487658286550150  0.0000481232800726  0.9184639625056421
  0.0013323555258815  0.4157183883054147  0.2513044059631278
  0.1681907450489027  0.7509306979056504  0.0837956348339969
  0.7510156184786726  0.4962019243522836  0.4127384219092620
  0.1661124786090995  0.3338221565339023  0.5006092135671163
  0.8309935091437015  0.4164340177431487  0.0817384000212047
  0.6659271898944161  0.7498541701807216  0.9163931987191735
  0.5821087538703648  0.4986612861204173  0.5836847912800149
  0.9155174845360606  0.4995839841712150  0.4153510815032642
  0.1660299836568010  0.5015107976002042  0.6661155310906974
  0.6628089249176395  0.0831575686552168  0.0848295884094128
  0.7489480982725660  0.4156902272202880  0.8331281996895922
  0.0000024459798287  0.9994918415663029  0.1676656645614226
  0.9158605989465839  0.5829436546233243  0.8337871291809706
  0.0827517324894773  0.6671198851632250  0.2496612040966535
  0.9997759242035853  0.5839576171254992  0.0834460351286321
  0.9161249417002943  0.3324599036205659  0.2492234561395812
  0.9142548130892889  0.6660801016352128  0.4129597851612603
  0.8393709881921385  0.5831540939656761  0.4134672607045300
  0.0807082989635982  0.5840075846591222  0.5002233653528217
  0.7492942304860711  0.3340104790812067  0.9169261909340779
  0.7491907144362230  0.4979103477232318  0.5948252873392750
  0.0824859385907096  0.5012019609263851  0.7499332443089725
  0.5818631475069438  0.2522288369091279  0.1675048752705953
  0.7466063558604771  0.8361371445238120  0.5834185881543805
  0.6667790397735395  0.7498940923834427  0.7510255891253782
  0.3316033051606588  0.3346070036742855  0.5012609888323545
  0.8316213298022852  0.8326661757091924  0.1647093023380600
  0.9179958150826130  0.3318169746430359  0.4160731220980200
  0.9969477930694305  0.1689739152456145  0.8383528074238911
  0.0820717141111717  0.3349920985544849  0.9197500626970038
  0.6636866162157766  0.7497219420844281  0.0830525568989749
  0.8316388931930547  0.1669576988419173  0.3329898398657545
  0.9998477108309958  0.4169648250149874  0.0841504278337136
  0.0834685074439063  0.2479593334452549  0.3327335163516335
  0.9160471817392177  0.1659233597127256  0.0844660597456456
  0.9154721396814385  0.9175136068798565  0.3329767455435858
  0.5828744370877881  0.9160846751315419  0.8324974072723723
  0.6667966938218931  0.9164521829188916  0.5826332326838644
  0.7479685945462075  0.8331897450870304  0.7501315258883055
  0.5825441479809699  0.9997602533349143  0.4156472645976396
  0.6658983594126748  0.0834997422306714  0.5818061499992346
  0.7492657449120507  0.8343199447808373  0.4156795009546592
  0.8299775110330767  0.0819048349195494  0.7497741329249010
  0.9977559099825011  0.0880237592195933  0.9167916104936374
  0.8319543634104528  0.1661370384358880  0.5000073495103811
  0.7498092136517338  0.9167386584722689  0.1656115264680852
  0.7498302359916075  0.9162631223846318  0.3334703659226005
  0.8336589407258027  0.4985220502461839  0.6678967670566660
  0.9998466476037580  0.8319729662603295  0.0012268219429377
  0.5019324836927210  0.0001760000342432  0.6647242143710296
  0.6651414594996010  0.0010327194437022  0.0004288250199730
  0.7487685143375056  0.0849782707034772  0.1656913570754936
  0.4158760228247733  0.6669417447910232  0.9164011591085216
  0.0070211459909562  0.6681492437032788  0.4994623328110575
  0.9991844363026826  0.9159821322275720  0.0840093283994104
  0.0807436225689454  0.2524966487605707  0.8366695803178736
  0.2506729654427247  0.7511928579531194  0.0001486831583414
  0.2502323687540708  0.5830446244334925  0.4991626755451060
  0.2490973262511777  0.3326470326327327  0.7455379515931095
  0.0001736766834937  0.7496518687098687  0.0840921491806542
  0.5013345640153803  0.8329217441279327  0.8332874844833500
  0.4153094439427496  0.9166214783955736  0.5014060864330485
  0.4166489585493380  0.7502111222473025  0.3340861086865285
  0.4153808627638955  0.9916433096056736  0.0826560586452285
  0.4157993077542542  0.7498115996358473  0.1665822559036474
  0.3321915571633007  0.9979894496993840  0.9971941904957531
  0.7498913502818466  0.6764172394533562  0.4154140879686856
  0.1652808307434925  0.9164479271548654  0.5832773816095953
  0.9161085880460998  0.7525494294919878  0.6683159531598696
  0.1663333639312370  0.6661395562760294  0.8351947435373259
  0.0837473928152394  0.8319755983781516  0.7482486628817531
  0.2501232957500229  0.8321854988768514  0.0835931058463171
  0.5001070670675412  0.9158306596132031  0.5844242937692185
  0.1657164430965800  0.1649376559902716  0.5004035056177618
  0.4149775432404496  0.2489763171664001  0.8320629112535020
  0.1654896380931172  0.0835207849458529  0.5808070143851520
  0.3347444351141391  0.1663469626860788  0.8304950600619797
  0.3328976435462435  0.1643783247192071  0.5018157717597719
  0.0822304583707693  0.5849509610619069  0.3316707033064203
  0.3335299448615052  0.0826962337725624  0.7488110432122186
  0.0829193594153021  0.7506615491319137  0.3314138152607127
  0.5816526890139496  0.4163354139213890  0.8336282033918975
  0.2522773994304617  0.8327866262240341  0.2514303613399975
  0.1677427619726625  0.0822754252640798  0.0842459000056606
  0.4980163408552361  0.3311371469945365  0.3332307723333416
  0.5714040103249911  0.4990853179707531  0.4151771043771376
  0.2492261712504962  0.4161968699855154  0.3333413393298458
  0.5011828747030749  0.8344332667542683  0.6663542055023933
  0.5004900232032687  0.8315869412049149  0.0007305930477956
  0.3325705473780692  0.7499736233758236  0.4175284125757053
  0.4171956965245207  0.8325078905292135  0.9136638807934175
  0.4995491506477469  0.6648681683861586  0.8331083751508941
  0.9977780468251958  0.0762727091208985  0.7507325131516405
  0.6594535034850864  0.5891970576016774  0.4168296891203838
  0.5815284332137444  0.2500185428930667  0.8329631846799626
  0.2498576214781636  0.4168276011883714  0.0000962076802068
  0.6658244212920799  0.4997065098396183  0.3241623696335659
  0.1661430267581363  0.1673346132562844  0.3321671491688416
  0.5825398106121571  0.2489214080977417  0.6659268254855910
  0.4997814258824535  0.1652181168987896  0.3335279249130088
  0.5002302602077475  0.1638288248311826  0.5002636302760192
  0.4999687028794991  0.2517486151467377  0.0833131528579594
  0.1602843822354795  0.3337505438628419  0.8340982514491604
  0.4177525543402266  0.4989476535988531  0.0849614434458137
  0.4995671971184481  0.3328995811654233  0.8325373110154423
  0.3322808530937017  0.5016605998575713  0.4992725057322635
  0.5825495036905010  0.2522219968479950  0.0005881062075426
  0.3343574124738432  0.2488099579581045  0.7466092819491855
  0.5011949227737287  0.0842567442535195  0.5817078472968518
  0.7510255685141296  0.9997453168037327  0.4153062571441472
  0.5835506587010456  0.0832691636411201  0.9999874527427864
  0.0824780371311173  0.8331230542411568  0.9169407841097178
  0.3327294561220078  0.9159591219322430  0.5822500336294627
  0.2500628730516608  0.4188923643898472  0.1673502186698193
  0.5006799329085239  0.3310426008122638  0.0010195474621444
  0.5840831730707612  0.0824641734914376  0.8324790112613687
  0.4157138408650167  0.5003583468628829  0.5844820263713588
  0.1650781106911428  0.1685564153041971  0.8308841269124858
  0.2495259989696055  0.5855287260770672  0.6656675035242146
  0.3397961218417665  0.3325358240738355  0.8318989643002841
  0.1660795864787203  0.5837348648739692  0.0838747219951544
  0.4185918464332231  0.9982632078112357  0.9163618717525079
  0.3331766926529364  0.4167838560349737  0.4174698090007599
  0.5823680201465035  0.7506429757074917  0.5016352360881894
  0.5838779836672569  0.4997874549478560  0.0832183896297628
  0.4181683203858398  0.4164370973861960  0.1669420877741414
  0.5826750422469658  0.6667722729815582  0.0838056189863358
  0.2497957196894484  0.4997193956105788  0.2515127440251175
  0.3334220312667198  0.9176074173745912  0.9151499482854433
  0.0807718276889844  0.4162176375747406  0.3332236467539868
  0.6665719383103159  0.5005315498538609  0.0002933194560108
  0.1677726165760575  0.9983363282343020  0.1690723169137442
  0.2496264372490860  0.0008258174541383  0.4166183920883622
  0.5812260211826160  0.4162929538836561  0.6672303365559250
  0.4987533921774123  0.5846669531251907  0.4175005621701828
  0.3308032394482902  0.8317314601250297  0.6668691424464553
  0.4172933493999311  0.5006955240014564  0.9175026273993291
  0.8348771201471079  0.5835461241009599  0.2487635317179677
  0.4162931819642507  0.4996413959004503  0.7488508652950702
  0.6643764632025969  0.5835584667129852  0.2490033628891041
  0.4990465116277256  0.3309868257171292  0.5012271602639177
  0.3315465409863236  0.8346319129009097  0.5017318829580307
  0.4973512830071651  0.8332049722999871  0.3340537401783277
  0.3295728840496899  0.0806516007568099  0.0833377340082249
  0.3330712016674449  0.6645214703059540  0.8348755710163601
  0.3318693452989093  0.2491401949453560  0.4173974349867509
  0.2502736645752975  0.7502767439922909  0.6668956995518950
  0.4159945568489776  0.6686851336229657  0.5834446369518851
  0.2514088056064469  0.5828993410213505  0.1685944424010324
  0.3341209004869070  0.5827611486337817  0.4179209801431319
  0.2497630523829607  0.4260038139400097  0.8353616317413151
  0.5833091278939938  0.8321588810407985  0.0837359607387317
  0.2512713122379505  0.6647114419754729  0.2503982016081330
  0.3328256848555821  0.6663072115276093  0.1678423726230660
  0.9176589721386891  0.6679106205535477  0.5917056317079918
  0.3333066808353448  0.2519042558824131  0.0850395987399358
  0.2498547169159681  0.5821222647752465  0.8337388941201797
  0.2498669881149870  0.3347761258462808  0.9250838744350143
  0.4157253328373307  0.0816134290663658  0.9952115909816699
  0.4148164861971367  0.0830241187100225  0.1736642400615822
  0.1655281048823922  0.1669268349164663  0.0093734645607407
  0.2493545712701227  0.3332416894809048  0.5814327247458914
  0.5824505189394605  0.9143126536871270  0.1677007112909862
  0.2492387951294670  0.0005344103243259  0.2512200113270286
  0.3312547362391621  0.2499704757986954  0.2512888397476015
  0.7494218551477989  0.5833064958081464  0.8324583213926559
  0.3330006465121675  0.7507668796407004  0.0829137167201653
  0.4163546881924415  0.2486628058135716  0.6651271808979760
  0.0782707950636330  0.1662925296064808  0.9180533985360262
  0.3333125058627008  0.3364468073879482  0.0005168930825525
  0.0817244918214051  0.5854621677386025  0.8366227300477009
  0.0842536566615841  0.6651977307295963  0.7518832870139135
  0.4152456484465497  0.9170938190852717  0.1665827012976693
  0.3351920285133420  0.8337532847745454  0.8345733985074608
  0.9174453448452875  0.3310029910817220  0.5829367695378880
  0.2505010936383951  0.8322096305732163  0.7490234042608427
  0.4156254729280425  0.9999063894028146  0.4173481619301124
  0.0844561910144409  0.8306103268921559  0.0856507349127769
  0.5078915213654793  0.0830501439409309  0.0841200466672733
  0.3322526958994210  0.9154143217979321  0.0827675454959351
  0.3327257523273328  0.0016852698257475  0.6658374484081667
  0.0831284546298828  0.8337398077970739  0.4158042107801334
  0.3325683471202507  0.9994437722924118  0.8335889702999428
  0.5828563206404482  0.9171787521424556  0.3335353772238002
  0.3328345177981898  0.0833927342061130  0.5840274743314815
  0.5832960622825131  0.9988122544447986  0.2509505213126725
  0.4978096652760330  0.4994026235515712  0.1659733087398657
  0.9984656740060087  0.1657034925394691  0.7497296153515937
  0.7506209266631930  0.4954526729191440  0.5055732589388551
  0.9989644855519595  0.9978614591167716  0.9179340705963915
  0.7496741114316832  0.5879367692476025  0.4112945898380186
  0.1681280530070481  0.1657279617726823  0.9204418245097058
  0.9181707024506179  0.6686677984041810  0.5022057157162961
  0.2507194428599854  0.3371707814971422  0.8349319648846532
  0.6590898807821312  0.4971721481770639  0.4127633633981834
  0.4187379859746664  0.0825124003000613  0.0845840002175704
  0.3324007365028355  0.0832848672730795  0.4169369417366806
  0.2493246005517597  0.6665729763679646  0.5822820484122252
  0.2483177856811206  0.0830492348436371  0.6663204907788457
  0.2495067000053926  0.9160259462864307  0.8319529487734926
  0.1661877056547381  0.5839612709157049  0.5827733591919645
  0.2505925402953699  0.7493128800162426  0.8334991708833964
  0.1659330611195913  0.8317659727971991  0.8328245291545479
  0.1664060065880871  0.7488860007587459  0.5836968178865617
  0.2487868793732701  0.9174604987824087  0.5002159630306559
  0.1668162018563173  0.8322443804463256  0.6668304866799835
  0.1661458610703723  0.9147165092619191  0.7495350345087041
  0.0826569433617951  0.7495964640187287  0.8340885194219776
  0.2493896236632058  0.9165277312112987  0.6664862616717260
  0.2509210291250473  0.8326076940149431  0.9157911305272666
  0.2497101763190265  0.6662881841368345  0.7504164214257494
  0.4169953531269077  0.9999497917840773  0.5835548291695539
  0.2485106505598700  0.8333483140994211  0.5836263619031795
  0.3323518345641208  0.9998762797705739  0.5007026978176516
  0.3324735254878297  0.9997474185890741  0.3344552519141342
  0.8306064064518150  0.9154816573596591  0.7502101460480769
  0.2500522865740871  0.6654189196984903  0.9169979386665204
  0.9139369709079307  0.0833372322811753  0.0022665901467227
  0.1673593950775030  0.9159679021711806  0.2515605260112820
  0.8308647760367962  0.0004202746493540  0.1667533152100005
  0.1670065495361398  0.8328789011512646  0.3328379392297053
  0.7489065644656320  0.1666195925546999  0.2493223768341523
  0.0818873606482415  0.0001102899481728  0.4161574879673663
  0.2495812343990566  0.9167300390326492  0.3339266155095652
  0.4165377609642316  0.1664473852015011  0.9167740866025503
  0.3328835871115000  0.9162912300599632  0.2518236042689309
  0.4162130574939111  0.1681945828495001  0.2509858055332614
  0.1664337002731276  0.8344151355823417  0.4989090569576243
  0.3330990531377929  0.5842119418857672  0.5830845966104193
  0.4999981455744729  0.9986031027305236  0.1683831439399564
  0.4163950447409158  0.0823133932423542  0.5000158381116507
  0.9128702057694235  0.0823943127786179  0.8337128727812380
  0.1670387999078872  0.5833984712976326  0.2500731934932512
  0.7487583858184667  0.0835590148115058  0.8338338825657436
  0.9985400297216754  0.1665383248571896  0.1671226341861171
  0.8321477114004646  0.2491192930786395  0.0841748116676112
  0.8329239856536417  0.3326506769636547  0.1658581000762750
  0.0829693794359073  0.3324894230105995  0.2497847043408546
  0.9159850061247528  0.1661075473956955  0.2506992793221612
  0.9989764659645434  0.5003262778303087  0.3318784903214448
  0.9170831620235104  0.2484905713376146  0.4993916557536141
  0.8321567566575055  0.1670797442884340  0.1674899916164558
  0.9167408063672693  0.1660546954000816  0.4160928174091256
  0.9167672776103589  0.2485236666334256  0.3335720305442079
  0.9161868995588474  0.3343483016029805  0.0843169968941062
  0.7494431494711657  0.2500403479216749  0.0000680339590803
  0.0821328949192390  0.3341396672222285  0.0850568708655269
  0.0834091030969488  0.3321472698938775  0.4160792457425010
  0.9175267830569634  0.4148485799173290  0.3324731248139296
  0.9996446932240360  0.5006937305196978  0.1665418564301253
  0.9158929477579406  0.4996706189333677  0.0841512611608726
  0.4171134684737606  0.1658690864485319  0.5831165538937322
  0.1655004628629607  0.8321565998328889  0.9993740343916161
  0.5005833975288742  0.1666609001429779  0.8332952735111373
  0.2511871492017487  0.2472010290995715  0.8323299644292856
  0.2498595653230563  0.6669826890351119  0.0841581377365590
  0.1672639502635195  0.6664555720219985  0.1676847636820842
  0.1664131568298248  0.6670012399820945  0.0006305208933461
  0.3338227685859105  0.5823922336879195  0.9176224486744213
  0.2493036806059178  0.5018550025108183  0.7488931227827468
  0.3331558709373040  0.4174919355457370  0.0843295219360302
  0.4163519428672056  0.3340842765510212  0.0843935849327889
  0.4174803076424736  0.4173006371630436  0.0008875206939252
  0.3327633080673150  0.4166451465335973  0.2507381927724394
  0.4185298425028732  0.1649799658621010  0.7480388496090584
  0.2489810053982042  0.0824981581253725  0.5000336129706540
  0.4159895414385268  0.1661301588037348  0.4175267896401459
  0.4172820232598489  0.0825049113671287  0.6653072829467500
  0.3329664233232751  0.5012607981598279  0.6658797280754208
  0.9149776952727088  0.9999600533310756  0.2497575075164093
  0.9133163277217949  0.9993154765927155  0.7486459651527709
  0.1651179042335923  0.6656921011747298  0.4986275978304534
  0.4161651377480731  0.3319617168480516  0.5822146239580042
  0.3332448451122455  0.1645891737321380  0.6671129251023095
  0.4162616456124266  0.4162799073256277  0.5006143334563937
  0.3325912192538537  0.3333652193497124  0.6655319506257806
  0.3335937954659601  0.4183690052597166  0.7489553938035031
  0.4173453328976022  0.3331184496518535  0.7481872163513835
  0.2489676214418984  0.5014236701175342  0.5822381351903760
  0.2497911971597428  0.6654214719090804  0.4165354420475112
  0.3355321477961757  0.4191996524421254  0.9170871635845823
  0.4174256610789858  0.3333213691473830  0.9174851631334227
  0.4171812777306341  0.4171083453544712  0.8332800629070316
  0.4163607757459493  0.5838050353853517  0.6663032565618447
  0.2479380896012010  0.4997555338417510  0.4153796451576031
  0.1651378034659266  0.5004102766067130  0.3328497955754898
  0.4991976122316934  0.4153604053715435  0.2502106936525140
  0.1654952766862209  0.4191627109061044  0.7496830788479104
  0.2499664424940939  0.5009649257100984  0.9190188761407085
  0.8319089515325091  0.9998669241226261  0.5001470376094636
  0.7493806043517354  0.4147601966968441  0.1666125543691056
  0.8333485052672556  0.3325505872387347  0.6681457778380681
  0.9998307579917299  0.3317175016435349  0.3325483309386635
  0.8311796734922842  0.2515284650605606  0.9170765120430049
  0.0828621895212528  0.1656976052884368  0.4165675910639744
  0.9148776474865311  0.4170688420231769  0.0014214249014391
  0.8325809098980721  0.4160014228651678  0.7508283038634890
  0.8310055415796558  0.0839357343470127  0.0844322632167159
  0.0004145581365866  0.2484849179372464  0.4164738891927373
  0.1665188257893791  0.4178047979651001  0.5822331071102484
  0.8315468018392352  0.5006952611486911  0.0014726083237718
  0.8332345910843449  0.0838662195484182  0.4161761064493088
  0.0821068852718108  0.5007674859089004  0.0842885856223842
  0.9160781829533774  0.0003706768866719  0.4160978141641495
  0.0825611129143151  0.1655867549495134  0.5825562569162586
  0.9157229278227018  0.0831396281096085  0.3334811809520090
  0.8306147107569410  0.1671260351870544  0.8338536887450362
  0.3334692352911949  0.5001301828054370  0.0014374012719290
  0.4992053209102069  0.6668732756711510  0.6665217889098194
  0.3330349743263357  0.6661612001585702  0.0007782559005479
  0.4156177132188992  0.6667696295158315  0.0833800468248910
  0.4164331774069357  0.8328307356160649  0.0832878668714639
  0.4990660614205600  0.7492480961538655  0.0827499800193982
  0.3332987558866705  0.7495371035812394  0.2511620227245693
  0.4169381713692323  0.5837225284035843  0.3346524981508299
  0.5826268640704461  0.9975466586327401  0.0851962614400051
  0.3346339881666892  0.5818435642454229  0.2514482496690817
  0.2503172873407373  0.8329463419112538  0.4175322271368797
  0.2495894315886937  0.4176688257519277  0.6657302192739266
  0.1648957909489169  0.4194568418493746  0.9185389733548645
  0.0831391878735007  0.2511989313903208  0.6639723207721827
  0.4168229842467036  0.5837278444692958  0.5011783304907568
  0.3346564339067590  0.5011254309890171  0.8332176665250846
  0.3324078746521405  0.7503039961561397  0.5833554802575291
  0.2501062307521493  0.7495591738483298  0.1675931583056438
  0.4168160623848242  0.5831560005758641  0.8338279516381711
  0.3332117332776756  0.5835440042409196  0.7499356682673103
  0.3339349761577351  0.7487879496740655  0.7512237481650383
  0.0819718083902340  0.4172227758558166  0.8340844398419851
  0.3335811695071569  0.7490871301654282  0.9155444780416575
  0.1655630134570830  0.4165721108694705  0.4155168321391177
  0.2494909868769398  0.4174325301624798  0.4995604814811172
  0.3349532067198764  0.8334097154184719  0.9981758626337938
  0.3312539712006213  0.9987161627966844  0.1686386967630826
  0.4160870670360850  0.6669259936240184  0.2502730391630877
  0.4176153374875140  0.9145498049977461  0.9983577468307081
  0.3336589205888097  0.8329944351432456  0.3349133149597117
  0.9998204676913829  0.3330429183521537  0.4991611519844054
  0.4156050182892849  0.2484761540701959  0.5001688367587365
  0.3329715704072357  0.2484164827298074  0.5823548869986449
  0.3324671575585122  0.6669389578333362  0.6663012561102045
  0.4154410075202444  0.7514852531247671  0.5007392937343901
  0.2492868057197103  0.1663679611104334  0.7488867650274947
  0.2486326304630533  0.2489201466709563  0.3344464736280965
  0.9161990591151138  0.0833886203912144  0.4992550167663561
  0.2496415931126639  0.0824090610873988  0.8316368906560045
  0.0834627018521581  0.9168290846000792  0.4991854850053171
  0.5809365511107044  0.8338416209869566  0.2502517411616189
  0.0002696663752423  0.8342445998981739  0.5014225308701350
  0.0002969895574151  0.8336343641290187  0.6664186498203744
  0.0008328478025138  0.7509745648737820  0.4152093138871055
  0.1658770891037462  0.7499791899923534  0.4153203561801967
  0.4158476625207122  0.9992990506110960  0.2503561869860313
  0.4993414581645335  0.8345595286263522  0.5007400524615435
  0.4986291295096100  0.9172161395982573  0.4168113356241731
  0.5829819098669498  0.7504341859690501  0.6674911476171504
  0.4999279802108876  0.9998117849802451  0.5003640988948931
  0.4992636043891447  0.5827068766013680  0.0829162561373447
  0.4981030796369674  0.7509245990043966  0.2504107985573991
  0.0839063802366610  0.9982899944211222  0.0852084304673172
  0.4985055936272478  0.6666741124341421  0.1659016094392517
  0.5810855435429273  0.7510238168718173  0.3329488707427675
  0.4159163640619724  0.8328513535535577  0.2507697153018689
  0.5814050272532604  0.8338741946490927  0.4159151516248604
  0.4988530436623386  0.8333013592345141  0.1665879320781919
  0.2503348786419228  0.0811470639081301  0.0008555803042091
  0.9990130775166411  0.6668518960039741  0.3323072009551273
  0.1658423586359717  0.4168615942389961  0.2506537939740757
  0.4160051411548549  0.8328989394860610  0.5849282468137125
  0.4161421612941101  0.7506940554479209  0.6675057196564876
  0.2491257950489763  0.3338405864804430  0.2503461344816476
  0.2490091169053671  0.1667590822715128  0.2497295907749675
  0.1652188366546162  0.3355980941439097  0.0025530197144108
  0.3335179016871988  0.9168873105720382  0.7497704672138988
  0.4170684697417955  0.7491394928602824  0.8324346565016454
  0.2496380938655602  0.3346444159168999  0.0844917583685478
  0.4182322884937883  0.9168617949914318  0.8307881232671832
  0.1669609050637693  0.4179395131359092  0.0846493989521062
  0.4161777146149807  0.7497072316862449  0.9994156870249058
  0.4162781566112690  0.8338810582669497  0.7495847899440604
  0.5001824160701083  0.9153396848972678  0.0832771722389338
  0.2503328504530493  0.2502715384853489  0.1667722264061267
  0.5013907947323255  0.9984863153199568  0.9994938089551519
  0.8308262796774306  0.4166337097462774  0.9168154233199247
  0.9990677736248502  0.3347246467737468  0.8349464402961100
  0.9995595893894037  0.3335139079514787  0.6663029910770616
  0.7489955819698617  0.9166436928544037  0.4986370520752702
  0.6657521597350453  0.9164667795579011  0.9166286870706508
  0.6649228791962633  0.8331853883302147  0.3331809625402873
  0.0833959846760716  0.5004527743293132  0.5829237243338833
  0.6654183918844717  0.8340754165379697  0.4987853028739623
  0.7476631206899973  0.7521451404470787  0.5019645123426840
  0.6663491978072924  0.8334457495541934  0.6672942376663593
  0.5837749024251805  0.9999868133665347  0.7494483698860721
  0.7481935427435220  0.9173672506515822  0.6665056199412409
  0.6665400055957543  0.9171996835293504  0.7507956171380907
  0.0825764999978834  0.2487042808587028  0.5002377384677652
  0.9168687298906707  0.4152135031377421  0.6671545523840471
  0.6664574835773691  0.5835808280111110  0.9157139645149747
  0.0012176619929347  0.5829996742786404  0.5850929325964332
  0.5815736961022724  0.5830091874257726  0.1662976091252003
  0.8331831044456242  0.4982126847235880  0.1660740449806998
  0.6648755302667420  0.3318542598517977  0.6676480567172132
  0.9153922114150845  0.7500079503085387  0.8338643536746645
  0.4990890312508127  0.7502207287831141  0.7502339945054760
  0.6660462708608784  0.8331714410269622  0.8334411100628680
  0.9990809881334548  0.9174792530217247  0.2502548415992856
  0.9994578014280825  0.8331586390056903  0.1674016954101287
  0.1681205890536108  0.8332541230226345  0.1692634948697472
  0.5829934620723667  0.0828657039351463  0.1685801956052443
  0.7482862676659281  0.0841178754078461  0.0017821920207146
  0.1673636043722621  0.5826175266021575  0.9181069177460469
  0.8320095908434249  0.0836658728533686  0.2508625227329855
  0.0001016836550050  0.5835149203218275  0.7514460986744074
  0.7501998666296131  0.0831917081801049  0.3338869220867935