Cr  N Ni 
 1.0000000000000000
    21.1200604211562535    0.0000000000000000    0.0000000000000000
     0.0000000000000000   21.1200604211562535    0.0000000000000000
     0.0000000000000000    0.0000000000000000   21.1200604211562535
 Cr  N   Ni 
 259   9 605
Direct
  0.0000511543555111  0.7517513423024416  0.7509744237825753
  0.9148474448771795  0.5868133944456576  0.6674603796783012
  0.9992065808502070  0.3336060180572766  0.5029573814650794
  0.1642255097268920  0.0807418794705765  0.2508587312228963
  0.4184522351413173  0.5837841840070479  0.1655293550328974
  0.3340123602356527  0.5035737919280374  0.1654776361328532
  0.5000861178383782  0.7513591256833567  0.0770431286152113
  0.3321394396169338  0.8339415707836347  0.9992934386393959
  0.1653048846569786  0.0792528137404077  0.4207081366500132
  0.6676233758241251  0.5827468658112749  0.2512644154928008
  0.0000400125401789  0.8326883062484046  0.9993177774003934
  0.1664064907568923  0.0810835322719398  0.7498778311322029
  0.8311548945225269  0.2497254188547973  0.9145064715931913
  0.9158121719939639  0.4165380874563239  0.9998577784315467
  0.1654717910790036  0.4168455102121320  0.7500218646388755
  0.8333965850227932  0.7521548938917823  0.0845814459005854
  0.1632097031803482  0.4197094115790008  0.4193099728767981
  0.0825723640902975  0.8335849109878246  0.4151418318914686
  0.7497659289419982  0.7498436538235709  0.3337105531236921
  0.1657540092981765  0.3344132249295769  0.1697583986403595
  0.1651149996854568  0.7503643610708259  0.2496922392072254
  0.0804018716513867  0.0004996311277630  0.0829416847940402
  0.9155972163868210  0.9169021206959658  0.3338262488925842
  0.0824037468641211  0.9165121170484624  0.3333189908864265
  0.8330037371882177  0.7510960562948219  0.7482657243760690
  0.0792760364248725  0.1629550732578356  0.4185874368724865
  0.5867097350823092  0.1658767388356059  0.0803966784871257
  0.0833333054101700  0.8325031435116156  0.5838241558127908
  0.0009199291767093  0.2498511129711366  0.7492113391868150
  0.7495679246878746  0.2485646703539348  0.5016041301144737
  0.0818944014559464  0.5857726872277533  0.8342025557265798
  0.0756976305943131  0.2456648811799119  0.3375248261764280
  0.9149127207664732  0.6675787535661791  0.4165881571464943
  0.5014631600022532  0.6620745381363595  0.1669305352875955
  0.6688366089338995  0.5835003432057355  0.0833174435901602
  0.3345192783453716  0.5025321247013059  0.9981198015107363
  0.3353147484463529  0.0023724237225932  0.3339270702126644
  0.8339226253564391  0.9976208794073070  0.9989602615188306
  0.3330606904086674  0.0819483404330723  0.4215710101833651
  0.7499049339205242  0.5008054145221922  0.9158563441214597
  0.4154123945021009  0.9168154246121718  0.6666695048688013
  0.4175470215220117  0.5833378141884367  0.5004225121030922
  0.1652999073027553  0.1637995993837830  0.8307696957109870
  0.7491804328313999  0.4172393797976774  0.6676847747647753
  0.9133021890468119  0.1657527405265387  0.0816795532212132
  0.3333316950086268  0.4268772336396420  0.0815402644978024
  0.8342112464372857  0.5847154533889997  0.9153411623999648
  0.9978569635884051  0.2493481474175935  0.9147589652933013
  0.6659851755612178  0.0821108766165084  0.4183896915210040
  0.1638237686961681  0.5039769081506216  0.9978455600743859
  0.3333100062638048  0.8337791930738460  0.1669456387782507
  0.9999380781564444  0.7501563057161309  0.2508371780988393
  0.7505717647981545  0.5840473736427897  0.1652917623709352
  0.9154442098521005  0.6663805972710288  0.2499257128375846
  0.4167474894762037  0.5838707522547180  0.8334052890315644
  0.9175036786450077  0.3332669470581845  0.5828984910388244
  0.7493287352757501  0.1649332071040111  0.2516051637529812
  0.8312427111124052  0.5021501768649927  0.1662162688655921
  0.8308811101459908  0.9986690941351534  0.1680159192057418
  0.9164490174882144  0.5010953101653812  0.5835111132474773
  0.3341903621373958  0.0009227126099709  0.5004916017897783
  0.0829397700782062  0.1640452731102113  0.5850907175677952
  0.9161038519884611  0.9159729950967792  0.8320697397400505
  0.1644330115935208  0.9993858615358530  0.5013892754170992
  0.9994717909375456  0.7520450299740499  0.5826558337200664
  0.6654439779682633  0.0811625150899038  0.5841179015752567
  0.3319537310540612  0.7500648987916130  0.0820961471868676
  0.2494056114143633  0.0821954168608509  0.1644589049861120
  0.9995423547914642  0.3331974770342096  0.6676902325056371
  0.4065633535817848  0.7514564815070527  0.1669409331806092
  0.9143631122076673  0.9166298061121655  0.9998963556350645
  0.9130482180050182  0.6660174743410884  0.9154220827924526
  0.5862126935450777  0.5836871118467546  0.1664906318018502
  0.9963064146700433  0.0806367061161302  0.0824246134166271
  0.6664366305067027  0.9185635136854154  0.7487177764148096
  0.4165244564412582  0.7509670092453079  0.6679974404703054
  0.8317724559671217  0.2502406518276606  0.7479774617624081
  0.9989716465552462  0.0814544182497662  0.7492424548936061
  0.8302104707114628  0.3332336686852168  0.1661179449830635
  0.1661449638671092  0.2437613374130737  0.0764081024557628
  0.8334888293561280  0.9993501798576854  0.6659239305282766
  0.2492922469175838  0.5027739649428596  0.5846102008828755
  0.8342357398487777  0.9973838780559102  0.8319692279871141
  0.2491390952667638  0.5847658136249509  0.5020730793592167
  0.3325853487259534  0.2444525069205099  0.0823632027684949
  0.8335218610550386  0.1667771398904353  0.8322070044100047
  0.9153280278279441  0.4167039375379826  0.8321176655298503
  0.3332102655163086  0.3337858107961425  0.9872632037740761
  0.3340333991582460  0.0004003755939009  0.6684021869673993
  0.4162128400274897  0.5827555184860871  0.0001916301356342
  0.9162046272554876  0.8349733745818279  0.4161772116766492
  0.4164416988697389  0.4151203999524128  0.8314438459750874
  0.7509108119121037  0.9167067864513967  0.9998095447826769
  0.6665996291357469  0.1658909509039905  0.8326935560892943
  0.1637019666674519  0.1539309087563583  0.1678975542082120
  0.9984471828783766  0.9986100483850492  0.5004202342818808
  0.9140034609361097  0.1647918027593568  0.4185195042831061
  0.0811896134550616  0.5846433915706413  0.3334139015698414
  0.0813222538307240  0.0002206477305874  0.9162060543285411
  0.5832769336581062  0.9990589559911911  0.5849597420606522
  0.9144159102957753  0.1654707412426569  0.5841214016890192
  0.6663618729297628  0.9984537348354994  0.6648495244376975
  0.2491155754326196  0.0000591568998456  0.0826180463118375
  0.8315566868072839  0.1652963752692420  0.9983469581129715
  0.2491149798310128  0.5842253643369769  0.6662336700049156
  0.3336580547462831  0.8317846880298005  0.4989376251279721
  0.4150846801304912  0.8331108383749503  0.4156166287326093
  0.9147108725593082  0.5850817363814209  0.8328729998521899
  0.0827469910980346  0.3340554993722686  0.5849241041310921
  0.9997555345440757  0.7510431603222925  0.4156030332155514
  0.0815629391642818  0.6667167757800071  0.9171993539892389
  0.9973069569279106  0.3334058974991749  0.9962867808626173
  0.8325934541659088  0.8321728271155848  0.8318574218976078
  0.8314414525384848  0.5839514043945814  0.0841727182506265
  0.9971169678086080  0.4190241248062327  0.0818568575311801
  0.1684431897758955  0.2480107650806225  0.2523850364873115
  0.9989309277608627  0.8332600016560870  0.1675910833397131
  0.8332817406299652  0.6669134444327499  0.6660277081282431
  0.9968860332675399  0.2472804997672098  0.0804067627552570
  0.1649148072107071  0.5020521175880215  0.8315423539734947
  0.9958385400665177  0.3324687314728120  0.1622691724103864
  0.0828835018852151  0.7505930427188746  0.3332535918500198
  0.0821536941389501  0.6671406594943050  0.0838959178985911
  0.0806213436201764  0.5847162896812106  0.5012272948102474
  0.1662819001683643  0.9986699182900018  0.6682574797056033
  0.9160334520046520  0.8335525542541508  0.5839954478379641
  0.7498507333629534  0.9158182681528386  0.3346212611195891
  0.3334759418979315  0.7507590869449058  0.4175805856875038
  0.3338041041766643  0.4163014638239762  0.5845940502258019
  0.0807549964758485  0.4194293906110473  0.3369023817543603
  0.5827287235572534  0.4164173906858984  0.8330772957891365
  0.2493625064798448  0.6665302465135408  0.5838715848518153
  0.0812976340759703  0.8328404415727093  0.9175230679146941
  0.2500530562560365  0.5837418932266381  0.3343233657147283
  0.9975421573520764  0.4218664205524907  0.2514667955443708
  0.5868175721400720  0.5035869329377517  0.2506240776000238
  0.5829115819807448  0.3323730245301732  0.5856811169026117
  0.2477988447832732  0.5845736346178944  0.8324761439059855
  0.4205303340588050  0.3360470848751729  0.4174894390541387
  0.6666909610588599  0.0822424719134704  0.2508274630072244
  0.4232771978042173  0.3333454371446437  0.2511013132441587
  0.5843162450838680  0.9984316193886837  0.0816458920863520
  0.3340266012148391  0.2468322456128425  0.2462042860374085
  0.4163897269892465  0.0826499520887664  0.6671585246333317
  0.6675291293167648  0.5844787307032323  0.4183291623361106
  0.4163612020056047  0.9992985980335020  0.0816462567406237
  0.4992778183667673  0.5004543551152488  0.6669683074716665
  0.2484198842417469  0.2477286535232739  0.3374155239561465
  0.4989477076617913  0.1665071854053306  0.6663343316608266
  0.3353218694904407  0.1533024290568852  0.3358770722569381
  0.5855479422508025  0.5844894409207384  0.8322675548888969
  0.9954238481836178  0.0807968199475714  0.2509137411393242
  0.7491346685092082  0.5001517158969052  0.7487810415852308
  0.5846126853737404  0.3335266729927794  0.4194163294190985
  0.5005628526161836  0.3334267791509328  0.6669797371857871
  0.2437415899925749  0.3367321760189675  0.2506822295158815
  0.5819262443453386  0.5013732059129737  0.5849253608451461
  0.1638233270441884  0.3339316689164352  0.9896924684850312
  0.6674149120912219  0.7496850072502119  0.9149810131814089
  0.8304242128398234  0.3334603411453610  0.3365554741742853
  0.2485824883777867  0.3335739051983613  0.9150420191455721
  0.5845595796930868  0.6648944917901823  0.2513454364577524
  0.7489269950700449  0.4190879257654001  0.5021825942273143
  0.1635376571939200  0.3348345071912531  0.5047457255296558
  0.1654756206843844  0.7520895659980324  0.7509227394000069
  0.8317878779593909  0.5000980443914050  0.3347557202883167
  0.0827698805922808  0.8338192406264336  0.7508665867608801
  0.2505648599627642  0.8327742739030464  0.5833010011977678
  0.4177560658260699  0.0820803019675921  0.5012689906449663
  0.8317861432579216  0.5840205470668475  0.7491046053197089
  0.8339062842444499  0.6681400407431898  0.5006545155636637
  0.7496243494894789  0.6691180079247820  0.9158221209138835
  0.4159636651710844  0.9195093367899654  0.9995359505477468
  0.6683282858479281  0.9998138134419894  0.1681694200706329
  0.4254251627793744  0.2503082002517383  0.3343098860280747
  0.6676487105993494  0.7517593600402073  0.0823776001081514
  0.5832835724926234  0.7498430559215420  0.3337457338566453
  0.1659556459543186  0.9147122904768950  0.7516699583102557
  0.1645809797483248  0.7512590577898499  0.4153189337185937
  0.2503174665407773  0.9179200390705349  0.3337351931265274
  0.6658262275496719  0.6681280222084182  0.6665578388830403
  0.3331567345790691  0.0823842858860688  0.7490090129806530
  0.1646302869934281  0.8331043072832048  0.9981567439460521
  0.3323241770771452  0.1639980886906075  0.8315122652789948
  0.5949644041161910  0.3338062820714149  0.0814795778072900
  0.5863112092454195  0.1640423305638371  0.2507477733812183
  0.3322671814087926  0.4280540800669078  0.2492147119205373
  0.7494605551492854  0.5000019341891588  0.5843182951129816
  0.6660775061325327  0.1645629469281228  0.6657537942728847
  0.8312701082823222  0.4178237625437665  0.7471574782385438
  0.4209309980428811  0.3323811363575118  0.0838331647965386
  0.5019547786257471  0.4175081364599573  0.9124206666555426
  0.5012195979499907  0.9169728758915633  0.2505359055464733
  0.5865978439324386  0.9996497016451645  0.2504581676528771
  0.4182328250525917  0.2511071040692231  0.5003994659547284
  0.2501620884622293  0.1659216466903518  0.5858674771581399
  0.3343346271039868  0.2488077131580942  0.4288300386630328
  0.5828274561380982  0.9986613533299894  0.7497141310818964
  0.2553997019950861  0.2446058196454625  0.1654219874784471
  0.3332333198656157  0.5015770690185648  0.3356575958355142
  0.0821909322527730  0.3338595500695937  0.7504433758097288
  0.0697005452300614  0.3335388161327926  0.0807526386140269
  0.5837496334986164  0.9987833053138148  0.4189294429576484
  0.7506497658870119  0.3333159372779041  0.9135831210779675
  0.7525259211501146  0.1652818633706757  0.0810955546487421
  0.3338963998905430  0.4165757156140403  0.7508912190149278
  0.5005282575183300  0.8339664867077281  0.9986565426067181
  0.3316404268503375  0.3344521519316073  0.5007609965033418
  0.1652322197289669  0.4200601593882227  0.2514655405997733
  0.4994955792592413  0.7503615193541948  0.9146901076440913
  0.5030417686664240  0.4216118678703034  0.0817202295985358
  0.5009578132137704  0.7491665201980520  0.2560571276288918
  0.5011089927928583  0.2443857603876733  0.0837843780477757
  0.4160455076031183  0.5819292422812901  0.3354457022094062
  0.4155280225749606  0.9171512242086740  0.8340976666570563
  0.6681892790563386  0.1663138720929729  0.9992452572712256
  0.4977844305797863  0.7503097862802006  0.7502856180055055
  0.5012849978876548  0.2467344816598868  0.9128148380992580
  0.5001949364031267  0.1654239325772278  0.8330130953726559
  0.5819854619864749  0.6684665224012982  0.5839984011221840
  0.3312920495826123  0.3353443022091890  0.1649489504256602
  0.4163431445826075  0.7506402092309397  0.8328853899098045
  0.4175799472331885  0.5834041563602068  0.6658568222566004
  0.5846912279069604  0.9175696050264884  0.8317814173169196
  0.7504254989217923  0.4171608022221012  0.3355908634173174
  0.0809055505007755  0.5842427530739087  0.6667020284462375
  0.7496750347244476  0.2497748706803375  0.6673469696539713
  0.5013366115279089  0.0828245836947545  0.9149235375411742
  0.8342019925959815  0.3322280487734193  0.6658284723434831
  0.5829529009002157  0.7498776966684589  0.5003481211790226
  0.1644307660253010  0.4174103249075539  0.5838833808637683
  0.7497787318357719  0.9162091381047486  0.5016319905779298
  0.5848773454605593  0.9174292659388289  0.9991518202880411
  0.6649378923361634  0.8338177696721512  0.6667504561429651
  0.8316364503136927  0.2495224767940618  0.5843036121872348
  0.1657926243113513  0.7505162038617955  0.5833848675982225
  0.3325719710254157  0.7494649798977766  0.2508987246319632
  0.2466149255793437  0.3354753625771214  0.0792736357761979
  0.3325894114823016  0.8344038630690973  0.3342696726256221
  0.1656657207736269  0.8334914582845024  0.1674477427917826
  0.1647131319412680  0.3338143950119334  0.8310937196424115
  0.0822178566710161  0.7506999514217095  0.9997627481888473
  0.1658447729700360  0.8329831750369513  0.8330558162001843
  0.8328402295773296  0.8312234248806211  0.1673826367017018
  0.2501745919739986  0.6663549497389010  0.9153291940289086
  0.5869311089458590  0.3347432894278597  0.2514914863957738
  0.6671236046799210  0.5003851136150020  0.9970695202801637
  0.5000610644314211  0.8400808075932822  0.1664881381871681
  0.4195879411590714  0.0808853388588972  0.3345537703440946
  0.4192270622340651  0.2474116247603887  0.1675768757148312
  0.5031679563458495  0.4174236695877895  0.4183496523638929
  0.4989919832149545  0.8323922713961970  0.4996616471042102
  0.3341917646066890  0.1642724782913244  0.9978667934158900
  0.3318648159362957  0.5819031561109305  0.0820002545962452
  0.3333233736354774  0.8334548835403357  0.8334705745940455
  0.3345596979291568  0.3356482990673337  0.3435656752616013
  0.9139664930773715  0.2485869271308815  0.5039450055265605
  0.7499296102890987  0.6669973668672806  0.4177566541619895
  0.7490720712523793  0.9992328788401369  0.2506049323162761
  0.3380599916658088  0.2432636704381351  0.3387025163015282
  0.1582652982398087  0.3360725855299952  0.0782949769456961
  0.3342228358798048  0.3354300486326304  0.0750235067289268
  0.1612754863186835  0.2486171168648787  0.3408861519741745
  0.3345250711680152  0.3387552039303720  0.2536117267963037
  0.1642909579572051  0.2430664577534016  0.1647609921026459
  0.5090737476561321  0.3330114870251260  0.0807444576911583
  0.4982013008595940  0.7513942149879493  0.1665742443096842
  0.9958947956705582  0.3336908987926117  0.2511234081210451
  0.0816668782459416  0.9164399860006287  0.8341121359380459
  0.0817919597892734  0.7497702934122631  0.8349120084878308
  0.9986642358019733  0.6674734899504778  0.8331196321009489
  0.9989676081712209  0.6670004440804443  0.3335616145255577
  0.9988243490081377  0.5845614981547295  0.7497467470446766
  0.1654049756855076  0.2497362187846675  0.7505304684790808
  0.9981800337779917  0.5848113727679017  0.4174484042880322
  0.9996651067686015  0.4177914012045633  0.5843984065676803
  0.9161674503252797  0.4171816608984836  0.6668319849722146
  0.0816349829882982  0.5015451330621004  0.7503024141556924
  0.0822205084962910  0.4175317603364431  0.6671820718873730
  0.9985474419210439  0.3325954173029445  0.8320811319700981
  0.0800900692348951  0.4192001729255791  0.9963373384852073
  0.0808332314921226  0.3334406547632790  0.9138900652841607
  0.0817752872388907  0.4176989503659321  0.8330262887059241
  0.9999883625292135  0.6683361924761578  0.6670948448624875
  0.0812665096186149  0.4188711342367057  0.5009943815688532
  0.0823604884939993  0.7509083099714398  0.4991514782676642
  0.0828687983127042  0.7511715014346916  0.6671555342405054
  0.0784248531824127  0.1634617683668363  0.0812527451470501
  0.0805930584750350  0.3336098085370749  0.4199049823809176
  0.0786745420427140  0.1625292258272675  0.2518943368072330
  0.9151491245666737  0.5007809626772510  0.4176435841218970
  0.2493326592967331  0.2469072521741300  0.9958261044351293
  0.9977241440971679  0.5023316359871327  0.8326380242108774
  0.9979126945706118  0.3334705172010300  0.3386473902408857
  0.1650077981365635  0.6672649504780197  0.9996140960162698
  0.9156188254802242  0.7504316934137412  0.0004050655267711
  0.9983147369503776  0.5849911689612476  0.0828689726616469
  0.9990176941804253  0.7506049659529330  0.0838476817084732
  0.0821809075530837  0.6672667550804388  0.2500118895646683
  0.1649360792872811  0.5845826435165443  0.7497284750258322
  0.0827158954177669  0.8343605570569879  0.2503091694664268
  0.9164564255671791  0.7515596940831870  0.4997127781835030
  0.9167875637961617  0.7505159669868974  0.6665305693071512
  0.7499467594498772  0.5004531274616741  0.4185835757594192
  0.4178783139165494  0.0827322698014029  0.9982986313072555
  0.7502650254947928  0.5837651014616385  0.3350200515472122
  0.5829381225954147  0.5843031700940050  0.6664459364980870
  0.6658487494564961  0.5003721576785763  0.5016509216797044
  0.5825732769700783  0.6676872760198637  0.7495515385641731
  0.6658350708860011  0.5845075321670963  0.5838644965707206
  0.8324244397796173  0.4170556397403887  0.9147987013146002
  0.6657971096482818  0.4172632549960696  0.5846070503443246
  0.6678555302717378  0.4171740419952143  0.2512015945442208
  0.7495803082235311  0.5842273671031485  0.5014791808748418
  0.8337539130914295  0.5011962075505626  0.6656620298737196
  0.9153129056710709  0.8338612862992962  0.9167156141441076
  0.6675255150719021  0.5002883057511497  0.3356693048684415
  0.1648944578782154  0.9991399517752841  0.8321815840160589
  0.3324464263691077  0.2486245584318902  0.7504057098634055
  0.9981645069246868  0.9988047167066821  0.9994566695047035
  0.8318188739548877  0.6678982105606019  0.1665240734854341
  0.9138347873534473  0.5011384695990428  0.0832101146186986
  0.9143351149510763  0.5849325510023382  0.0001159369550477
  0.4164566460734387  0.8341627408645462  0.9164206882441190
  0.0813279502071168  0.5843977212373728  0.1662350202551409
  0.5009424813980802  0.9995383845507715  0.9987561632046483
  0.9168454341021336  0.6680923952964554  0.5835853507858493
  0.1653850057918246  0.5846616679073079  0.5841904300351074
  0.9991358031503323  0.5020932078781647  0.5011037706553235
  0.9983869313998353  0.5022499850978590  0.3347790792225935
  0.0822998882618727  0.8333747437652701  0.0830697127728945
  0.0823441818558507  0.6674324252774054  0.4162987821542855
  0.1653799724413795  0.6670778610898705  0.8323489169105844
  0.0820796484742850  0.5019655320976540  0.5844591428389638
  0.2495867615699205  0.9989971603506569  0.7505058576391409
  0.2488562791199310  0.7507260301559207  0.6663273721743207
  0.4176347491785449  0.9995129565322057  0.7508970250669121
  0.1662090528591235  0.7490672805391879  0.9155632636830197
  0.2493824514062100  0.9993206323480823  0.9153254362487918
  0.4157971351992339  0.8340740585885056  0.7509129098637627
  0.0823265872169310  0.1649062051972657  0.7499633927251425
  0.1650766485116167  0.1586243961206587  0.3353786132446144
  0.9134720325174042  0.2480044985344250  0.3363945045178558
  0.2478479273409667  0.3359281543484431  0.4204351534254909
  0.1652401865062681  0.3338668318982514  0.6672132171032054
  0.9979978111201357  0.7494940741423426  0.9162318070743410
  0.2491496033707112  0.3339290104310574  0.7508513351156996
  0.3326397995636393  0.3340272421119863  0.6671380578382023
  0.3324693012864508  0.3332056389022266  0.8331250005816673
  0.1646260350289503  0.0009912645199466  0.1659505765171854
  0.3334523235816103  0.5018454052593839  0.8317558632687259
  0.2490143501663483  0.4168006332562721  0.6664891206098366
  0.1645592341312514  0.5844570208840453  0.0820050476242756
  0.1646687926333581  0.4196494662241300  0.9141708005473560
  0.4999800252136015  0.5009640442248425  0.8315707013416868
  0.0801806203991352  0.5020788346735482  0.0820048760928858
  0.0822380406459448  0.6679918821002717  0.5838110393546421
  0.2477108640081183  0.5022090181396253  0.0815704610185479
  0.1653919949325596  0.5015523774767077  0.6673016503788620
  0.1661590717708199  0.8330890880331736  0.6677996473112854
  0.9989231810716624  0.9161125933807659  0.0826210347853915
  0.8317070647780396  0.2498366459846968  0.4196680767279216
  0.7507109688253287  0.4171037517742667  0.1666225304306572
  0.9998173815069381  0.8329655620684439  0.6665876076489388
  0.2502863518644791  0.9986142126929579  0.5842438458349257
  0.0830059032465940  0.9989564055551354  0.7501157750986206
  0.1654223542999814  0.0814859312486832  0.9150081161800939
  0.8323668950085765  0.9155165292047512  0.0840385680942050
  0.7499049390502774  0.5847957548453117  0.8328058485477099
  0.2496460179566639  0.8334707552374550  0.7504637539088886
  0.7500871942106737  0.4171138861735262  0.9978971265331092
  0.1643061791661435  0.2482309168884003  0.4268686462675852
  0.4998828619487500  0.5843125327369308  0.7497814233114501
  0.2487494616041468  0.0810739366398361  0.5032431364623068
  0.9143173857969076  0.5841071916239498  0.1663192014665049
  0.2484012095894518  0.2492949807059210  0.5037953931426747
  0.7499054224858078  0.5000778893753203  0.2507462662660610
  0.0820541144354279  0.0819934945924057  0.8320264093628719
  0.7496575110894905  0.1651972756224960  0.5843482286776506
  0.0786843865520998  0.0813219235805997  0.1665840548399001
  0.0815465493420011  0.5026176562609976  0.4176556675832067
  0.9141534111811845  0.1646507353975548  0.2510307749247214
  0.0805169708073662  0.0819338318817749  0.9986955473337007
  0.9129196704749989  0.4182986220189083  0.3349831005838353
  0.9973850962041484  0.9995512769868372  0.1669006479889400
  0.9146442655148149  0.0820732377891572  0.9986513080015651
  0.9140003122866133  0.9983805657589148  0.2499874265303320
  0.2491916194488966  0.1647534541160965  0.9141019987480526
  0.0819178751129132  0.9987838414633308  0.4176512704706485
  0.0808888322335326  0.9993879508305822  0.2501162185980074
  0.0805087195795305  0.0808860511920254  0.3352280867238219
  0.9154126409750167  0.9982200797418036  0.4172061085033448
  0.0814177000542282  0.0814449652752446  0.5023925628676261
  0.0802061659243392  0.2464467879060107  0.9959339239605598
  0.9993688159825438  0.9993239689848816  0.6673625309257512
  0.0826087746405291  0.9988423513928029  0.5840986125832256
  0.9967813955467502  0.1648563480208539  0.9981744411074451
  0.1656196589582943  0.1650304247661941  0.6672977684876975
  0.0825277114726518  0.0819450729733398  0.6673326187982013
  0.0846047656059705  0.3344528865209166  0.2518153538335780
  0.0804649804062507  0.2480024537035931  0.5035339686050093
  0.9995795998493988  0.2483246853037632  0.5853528317825738
  0.9989100963755453  0.4177451309980195  0.7502103565748788
  0.9153796844412019  0.5013238661717194  0.7494371494965865
  0.9977901062341246  0.1646813243828811  0.5021478252257688
  0.9964777295266997  0.1635908221138293  0.3355422083100400
  0.9996131154912130  0.1656154680725216  0.6671480904706487
  0.1660113905062120  0.0812048640536096  0.5848511781764966
  0.0811953639541353  0.1646348306906406  0.9140066965937659
  0.9981276399401287  0.9990115476840339  0.3343174766011083
  0.9974451323941684  0.4180030641135081  0.9153291601654038
  0.9988893891292896  0.1652223562441150  0.8318460890714761
  0.9127018061829776  0.2483872891612015  0.1654826037247545
  0.0822228525129790  0.2486446392467868  0.8325905737651720
  0.0804712455967339  0.4197074422581815  0.1675962827883703
  0.0754118426167702  0.2459992038027956  0.1666768422116155
  0.9141948206313970  0.0816522814266413  0.3340765354374733
  0.9148602958258077  0.3333052551199002  0.4194897411030570
  0.4168868650310660  0.2497558652471586  0.6668775561213820
  0.5831243266723306  0.2487395920642037  0.6672495739273491
  0.4163965035432751  0.0837328351191636  0.8324009936400887
  0.4183008746343505  0.4185500733126171  0.9964321755602665
  0.5866436214405535  0.2479307062344150  0.1667834049640082
  0.5855950476011119  0.4172421022475922  0.3346127064961947
  0.4194881319374708  0.4190016669672053  0.3346996711192000
  0.2494466276168485  0.6670609121425317  0.0832526063394359
  0.3327507665554666  0.6647630911703493  0.1664640439194670
  0.4162246133563202  0.6671326955558610  0.9163440843883339
  0.3330659513643899  0.6667851739474382  0.9989402666275508
  0.3346766640220688  0.0804362182959893  0.2487755813871900
  0.4179070829234279  0.9988321627126110  0.4177059751306277
  0.2511564765396492  0.1619868745164121  0.2515003108732332
  0.4159395288030557  0.9157464662227222  0.5003101870020867
  0.3338980111448610  0.0818252725269715  0.5847303827579458
  0.4167625612897058  0.9993915212873465  0.5841345946617889
  0.2493914072147089  0.0818770649988531  0.6672627356566585
  0.1649021440289157  0.9165833643785836  0.9168029185572157
  0.2480833282399971  0.7502973439495644  0.9995550180246267
  0.2485714070092039  0.9165544010962043  0.8337466689238282
  0.1643295445425433  0.1634951412148915  0.9977314677878278
  0.3331410339094217  0.9998666166292122  0.1648679468244319
  0.9977335026009425  0.5850786028652760  0.9163828520877663
  0.6655273512461500  0.5008913045401826  0.6660727792812368
  0.1647857480092157  0.1638353093916435  0.5029293325425181
  0.4180214416775709  0.4164972661812427  0.5020998453947726
  0.5011252019345341  0.5008597607440149  0.5019243024345087
  0.4166129020919471  0.3324070483143802  0.7500547021862196
  0.2486535501990215  0.5026284923706344  0.9145662014055562
  0.5010392861348927  0.0819573127721270  0.4183271064244037
  0.5045650108299123  0.3336512247136055  0.1711252199891617
  0.9967440717209725  0.2483802563874787  0.4206932823806154
  0.5835950391513501  0.6674260327597022  0.4173540589190722
  0.5824806578798953  0.7505336005386765  0.6665828557734053
  0.4156616849954883  0.8331029142428668  0.5832145383243880
  0.5835228950841550  0.1658637125414211  0.5847125029884231
  0.8323336642522798  0.9985178148434932  0.5002111096252397
  0.4989985730587351  0.9989731024187557  0.6671762092285473
  0.4998634946049854  0.9161012437758024  0.4177430688747455
  0.5827151251036184  0.8325819577792101  0.4177358835995420
  0.6662676513426187  0.8329804446424879  0.4999398367873454
  0.9159386219301772  0.8332787330425745  0.2501428459297458
  0.9149618455590828  0.9156206696619393  0.1667200216880235
  0.4993889228118511  0.7497942321290340  0.4164769591295964
  0.8333374861486680  0.7501829115307322  0.2509349734732447
  0.7490631245878138  0.1658110361012140  0.4186565630246248
  0.7497958424046649  0.7502167499917077  0.1665664988512660
  0.9164838783852960  0.7500645775716022  0.1669125696324888
  0.7503221686205466  0.0832458417553884  0.1661415729394112
  0.6655208937356021  0.4175396894414787  0.7491116320997409
  0.6670323776448410  0.3340920693501113  0.8320634590139947
  0.7496798091031064  0.8329329560089260  0.4171985674146785
  0.6655217609962688  0.9153571001581401  0.5837060127861969
  0.7496999330945167  0.9162552198696534  0.6658701875614864
  0.6662213229663549  0.7501892505940965  0.2517810779941761
  0.0825166717816521  0.9158859047956514  0.5009607220548510
  0.8314172558079953  0.4176352228961693  0.2511851439128177
  0.6663619260770460  0.9155830488847165  0.4179844680357684
  0.8329530438541081  0.8333247000700835  0.3339865131150003
  0.7502511875547234  0.1656086320777711  0.9148671462565081
  0.4993546602708205  0.8341485383369729  0.8337183709996020
  0.8336066350020470  0.8330541733357532  0.6665497800521799
  0.4987344838319679  0.6670331911094395  0.6670205900159577
  0.6681785937496103  0.2491915089518981  0.9146205282075353
  0.6679510424205384  0.3337551912102957  0.9963509032750222
  0.5022033356295698  0.0821690237783058  0.0816830590505098
  0.5874137182135480  0.7501916739804513  0.1663734844468396
  0.8326124955118496  0.7504300625646372  0.9160053200125087