Cr N  Ni
 1.0000000000000000
    21.0271327830282324    0.0000000000000000    0.0000000000000000
     0.0000000000000000   21.0271327830282324    0.0000000000000000
     0.0000000000000000    0.0000000000000000   21.0271327830282324
 Cr  N   Ni 
 259   9 605
Direct
  0.4159161925733637  0.1691027565342848  0.0872698634840153
  0.4181555397057500  0.3347477155860485  0.7511020147113174
  0.4180150493027894  0.5027019890613189  0.5839021538069921
  0.5833036820706109  0.5020839708117566  0.2538431183512895
  0.5002346374262073  0.6706215483265717  0.6658004691515418
  0.2532348232226604  0.5010432833890806  0.0870196018387728
  0.1777641519542509  0.1696277018447647  0.0015941137692958
  0.2527348869415764  0.1693238145280951  0.9158331408539422
  0.5851994850713491  0.7522248932941055  0.5017278053339858
  0.4173399287931747  0.5014349825298070  0.4190968970878559
  0.5850680762828361  0.5841673601675798  0.5031800308995812
  0.4996271617711241  0.6688819041886586  0.1696758101992442
  0.3347572426529534  0.1689651158563190  0.5033661989082978
  0.5837532689679916  0.7527131353220902  0.0018531607679596
  0.4182298897817507  0.7534386332058796  0.0018985751756630
  0.5864654343855291  0.5021550151149099  0.5847802192442563
  0.1693970204311740  0.3359450420442482  0.0016065542193753
  0.5001576094633255  0.4198859205526414  0.0881919975876477
  0.7448251004535931  0.5050586914828673  0.0879464743227804
  0.6655213171842362  0.6707991793910322  0.1725782667574070
  0.2523573402082537  0.0857899536454839  0.6683075026597550
  0.6672543494829495  0.6693303269273000  0.3357531644574022
  0.6674241799083455  0.5066406814343348  0.0056962603046757
  0.4946615105620099  0.2527722304496352  0.9194437207014685
  0.4179294631468767  0.2513190005939164  0.0039483910884032
  0.4164802077286421  0.1692621662749966  0.7516016464883201
  0.3358788159659932  0.0018528126661322  0.1694677775847227
  0.5025908464207981  0.3363944190308840  0.5042050465241329
  0.0846046488321840  0.1694784563402771  0.7513882679962153
  0.5845517100365915  0.4192056719540768  0.3351226987801122
  0.3341246598917915  0.2515129329175577  0.0853622548104429
  0.4175677459305379  0.9194088157724255  0.3365764095316750
  0.2522176795680419  0.4202376712465583  0.0029821794071641
  0.6675638186233729  0.1661395627872255  0.5047722101405947
  0.4987167244125306  0.3355453795225878  0.0043779078527897
  0.5852517081242951  0.1582183393784235  0.9171822202653771
  0.5002579528015851  0.5031321106883796  0.8323405051734314
  0.5843058866550478  0.9201521306351368  0.6698067531888636
  0.3346182707085827  0.3355597722426643  0.5032078037885653
  0.6647106823913511  0.8369814277726851  0.0009333279928664
  0.3363300890030154  0.8340300089254435  0.8342049792371374
  0.0006631052239636  0.8369426703727444  0.5037027198915881
  0.5007082768534227  0.1680177402799584  0.5037659401300856
  0.0855984746796478  0.7510591240317367  0.6671099108640330
  0.2522709025434365  0.6688635881163973  0.5872212770451827
  0.8352268593417685  0.2528264671069221  0.4202412861688442
  0.2508321418698776  0.4190695182507206  0.3372062161632554
  0.5836979700835911  0.0852049173830689  0.1668059388512559
  0.7517055883966844  0.7527445869397176  0.5009995742670491
  0.2525523448451036  0.4187550560326199  0.6665560552378903
  0.5842537758765936  0.7520539714981294  0.3353375546187070
  0.3334144177036187  0.2534265222875280  0.9182502609979600
  0.4191230249095421  0.8357415391199723  0.0860057848277601
  0.5844485483321500  0.2511163456911593  0.8275408106040849
  0.6669852320065959  0.2504665432631667  0.2533340164005922
  0.5823663802768618  0.2515249756625305  0.0075383755423835
  0.0848839346716288  0.7472369817973886  0.3374218989316263
  0.4165695393518293  0.0024620352854584  0.7524653452054767
  0.4165833971177989  0.7533045051476260  0.8344492820775927
  0.5831678546214784  0.0855752039401638  0.8341113810085458
  0.0861908772836003  0.0859585845916927  0.3362459338242098
  0.6659806329607649  0.0028764272925444  0.3359069267011328
  0.2522716026370058  0.9193911601741613  0.6684184944510175
  0.4180840298525942  0.0887144185316162  0.3357892695960255
  0.3351329459196593  0.1692956882460755  0.8346218240233945
  0.5852972656621228  0.9209609706140566  0.3359370225595398
  0.7522323244845042  0.2527377644197686  0.6668253137902570
  0.1705019807490126  0.8361335805060880  0.5034989276124121
  0.2531642679491505  0.7502298445363733  0.3365664498720067
  0.6687596858760145  0.2487677249546427  0.0870254968975159
  0.0889223129681707  0.6677279052148822  0.9161087738713224
  0.5000264184970120  0.5866584936717425  0.0872443482262449
  0.7520261510011834  0.6695046153916800  0.7488514324990934
  0.1699368269360589  0.5020512069869945  0.8336615473359521
  0.3350052588616552  0.5850065296431616  0.9185265952050861
  0.6669467718152040  0.8371683046900801  0.5042728631753884
  0.2539072897619460  0.6689213437520727  0.0866592071318117
  0.2507515511817017  0.3344345953959476  0.5850559274462536
  0.4175263133837395  0.0011481948189446  0.5852830196006079
  0.3341239584780493  0.3360769896756834  0.1713521418007824
  0.9191315077179115  0.1675707486923556  0.2543287683238140
  0.8341832833006162  0.0026706642428946  0.8355581133637688
  0.1696109187445715  0.6672815488969771  0.8351717351262612
  0.5003817073605343  0.2520646590925582  0.7498440242926607
  0.2530902532627247  0.6689071859606258  0.9177722545636907
  0.0869564194518057  0.9178862298283269  0.6677133278505940
  0.3346602080436926  0.7535578038113135  0.7523292435570194
  0.5847697960541598  0.1686439400857379  0.5853143880128326
  0.1706455589536685  0.3397936764180384  0.8333595825747495
  0.1704170360459787  0.8343426596784260  0.8341085825574723
  0.5023871175586921  0.2518954814997362  0.2536739926826692
  0.5851359124853721  0.8361492316127229  0.7526168717879029
  0.5000855703383675  0.0840840375007086  0.9190229945198740
  0.9190696732466406  0.9257586113522907  0.8362192520438114
  0.2516556227775823  0.0865508798071701  0.3375666197951765
  0.4172567831607679  0.4196539230468899  0.3371335665788184
  0.5005965854317336  0.3359551723679927  0.1700251743915417
  0.3346382238427384  0.5849017515941005  0.2534549097194628
  0.6694498200536648  0.4158867340289291  0.9147047709633273
  0.1691432942362715  0.0031201223761012  0.5026474496373349
  0.5008112899080712  0.7526822161503226  0.4185512578320173
  0.5821996685810211  0.9189908502939413  0.1690134003101259
  0.4193355309859136  0.2509089190719975  0.3354418792900959
  0.3343460197070071  0.9181751962496443  0.0860567016006470
  0.5784433602155462  0.5035937581816616  0.9171109491925235
  0.4992321129809423  0.6698348221186394  0.8340661850850093
  0.4178277757078887  0.8369806032930450  0.5850410236447640
  0.5015340745481774  0.1676959028715084  0.3358192435327536
  0.2518769377025706  0.4196648004148076  0.8353027595557589
  0.6688850173220873  0.0844937762581214  0.9182680376295840
  0.4997034613429274  0.9196815281188927  0.5860015861921468
  0.0880048549508334  0.6685305624493209  0.0854943620902145
  0.3347218736341347  0.5029010995145573  0.5025066878304700
  0.5014194995637593  0.9189266007611081  0.9176656664879899
  0.2529682459620435  0.7508653970973757  0.1682807291864389
  0.6669356058771282  0.0840149715751989  0.4206564438511810
  0.4202176983345496  0.6714842134215718  0.5867629916678918
  0.3363867621570636  0.8354813431804106  0.5033214339848480
  0.8345798163768970  0.5937966728242214  0.0870295672355681
  0.4203230852980562  0.7502640862979161  0.3382271749271658
  0.1693028245008411  0.2529387475274898  0.4198850617333157
  0.4159519604242796  0.0001825056127225  0.0851411024287875
  0.1690774387651940  0.3365786767659738  0.1712290172236061
  0.4182318417180407  0.5021007459365193  0.7517575604719300
  0.8352296980485088  0.1667847656581086  0.3370475031638493
  0.4179605506278243  0.5035716542100419  0.9175782626386656
  0.5833735596372737  0.2513150707607500  0.3368993264374426
  0.4194760566237072  0.6689568985541995  0.4172336731364740
  0.2534265281693488  0.5868340451013696  0.6668403333023276
  0.3368396132374418  0.0001444462966429  0.0040002552713479
  0.4166681725640394  0.1688447846485281  0.2530200006797488
  0.0022008110451034  0.2530648680636027  0.9168351978317375
  0.0868966582995483  0.1701328249771071  0.9110964882439438
  0.8345423237925065  0.5032222697697316  0.1760521060086355
  0.9201757944292874  0.7519144280251943  0.0040793162764747
  0.0853520225365972  0.5015427603923373  0.4204302544735801
  0.9198070461746926  0.4201386718969394  0.8343287072876507
  0.8351463352049928  0.0822063515001663  0.9184889113395589
  0.7522880182606895  0.2513882828907317  0.8340145004313014
  0.0022211492096325  0.4199893528976302  0.7510594300309593
  0.8345806863911808  0.7543412388343627  0.5856676390820148
  0.0875122363180842  0.2585993802626417  0.0008310566313802
  0.8286399619211468  0.7553335999728400  0.2535947727641436
  0.5752560445417646  0.4184805509459378  0.0034874252156535
  0.0008758452050356  0.1689567210995107  0.8347988038943696
  0.6658704655564938  0.5942186219502431  0.9168504397535012
  0.6685461079612899  0.5885936076893185  0.7475562808860750
  0.9187698199219263  0.0844118475371796  0.6652979853920123
  0.6686945857814057  0.6683092870158723  0.6676820735312914
  0.8349788859683654  0.5008868145312795  0.5012127504146567
  0.2524952302084831  0.6704566370004675  0.4184527929251268
  0.6696999633865633  0.4186206713427051  0.0916072935721635
  0.0851003846434286  0.6701576868120007  0.5871246871223601
  0.1703863895122634  0.5843474109900713  0.2531302765777181
  0.5028681365875687  0.7531791730255849  0.5848476322073493
  0.8352548238157861  0.3345984188121640  0.5008314334644157
  0.6655856050550852  0.7535023288901150  0.2538900589198093
  0.8347998480397731  0.5041304972982494 -0.0043383600733906
  0.6677201687244467  0.5832436476000358  0.4190487092024806
 -0.0008951833089155  0.1673953207186852  0.0010382094807569
  0.8355800557266585  0.6696448729574941  0.6666344818302955
  0.6688098709065479  0.4192338346945644  0.7493398178541025
  0.8351378310192914  0.5839283904074789  0.2507320597233992
  0.7501698750518004  0.5024037033944412  0.2538340257253839
  0.9189240871212995  0.0023279909831028  0.5853216154038652
  0.6680860739288446  0.0861801717028033  0.5852584518264954
  0.0023068617357691  0.0013633010033594  0.8331193305253322
  0.9155539822948745  0.6704760918403754  0.5862354472562284
  0.9183046787336936  0.8452171342904121  0.2513063452506256
  0.0026814242560562  0.0018953621027107  0.0036488548401088
  0.1712250104046959  0.0016992147981307  0.1716435722965807
  0.0035748514154799  0.0846554571592109  0.4191214480494633
  0.0077199177051235  0.8359791895153754  0.0038375905520084
  0.7489394410604372  0.8354415018388519  0.9205854702071965
  0.0019196205218502  0.0850297187212331  0.5860906939022792
  0.9183378599007016  0.9205919152860742  0.6677369372598007
  0.9189359957326559  0.5870755170148283  0.8341161417523311
  0.8344766895599337  0.1671653667470388  0.8328900701121122
  0.9193529206372432  0.4183082281436948  0.3365937150703372
  0.0870595006869748  0.1675792399585965  0.2535589628224373
  0.8287113844803269  0.8366748086688628  0.8359890484629988
  0.1700685552453856  0.0858795018322518  0.4197898035959566
  0.9196023050077133  0.0008516730268663  0.9190270026889908
  0.1701473831125564  0.0012402245792011  0.8328071383627186
  0.6676513220617332  0.0027778024829911  0.5029078474634572
  0.0874453829850262  0.0771674524323291  0.0018801997278131
  0.0892243116943488  0.1680872984487949  0.0914989807069626
  0.8296438548437987  0.3339658533283331  0.1704571018976716
  0.1703148203722634  0.0022500628662324  0.0024835573700419
  0.9192530410757266  0.8367561817232918  0.0834591421464943
  0.9181155998121632  0.0018091269866561  0.0863002274617151
  0.0071753623785721  0.7506622148243278  0.2509419907815763
  0.9184739271167225  0.5011120656158181  0.5846806272867653
  0.0025004696502095  0.4205199430506163  0.9179092856465968
  0.7485279181445936  0.9189262260535839  0.0021156521174569
  0.9229420191343002  0.5045094357622214  0.0872664204989812
  0.8357895262809700  0.4182906359947707  0.5836592823417467
  0.0849224736132108  0.5870176816949318  0.6672412015432683
  0.0839184896475781  0.4203519295676467  0.6669208094824037
  0.7500182423608518  0.9196497833547786  0.6686934095333419
  0.0026378726637047  0.2528159741677763  0.7521736376008287
  0.6670576651054148  0.8364203266599015  0.8349632506418722
  0.6681079038193753  0.7547080450967235  0.5832741162529915
  0.7498997821090819  0.6699598116929537  0.9172561165288532
  0.2520037334760661  0.2520231030323695  0.6673181312788034
  0.9192968255365861  0.7531684739369833  0.1613628238857030
  0.7509533678282047  0.0843691987269478  0.1682783971362504
  0.7465772757789183  0.8360930637259565  0.0839784361341657
  0.5856490806023790  0.3354185925212053  0.5839135086340265
  0.6667436702503692  0.2513492794737646  0.4197709503930304
  0.0861984822118468  0.9240639814107564  0.3376232964174284
  0.0887898030939790  0.9201928255286792  0.0022749655028463
  0.7583763168080321  0.5040997228140521  0.9157870890246864
  0.5821497269735665  0.5856270953566769  0.0033387664362865
  0.0885315208448167  0.8372259213869853  0.0854668302058367
  0.8357515087017829  0.0851316788642900  0.4181525724701877
  0.0859565130662197  0.8354930755109174  0.2486481609294000
  0.7521903565426241  0.5846619295259737  0.5015617728829799
  0.9183466316595963  0.7520109526642283  0.3411615425504478
  0.9187898179180621  0.2431143905867878  0.1703156943051017
  0.0851397907665023  0.6697932077994037  0.4200777779337628
  0.7497114869540804  0.8371852919019757  0.4208815812908990
  0.9188377397536895  0.3344218080432026  0.0794495616105155
  0.0069605880163705  0.8346549716799717  0.8353784908612252
  0.9184068719827873  0.9185626059520997  0.1675122164236724
  0.0019061785323590  0.5020346586989530  0.5024291712397190
  0.8346889935211574  0.0027548807572712  0.3352940786068421
  0.8322334249339907  0.8356032342450410  0.0034773382825916
  0.9194183533929713  0.7467396076892531  0.8356105586985118
  0.5845757917441947  0.1687186553604743  0.7519610846099434
  0.6672705420856555  0.3351587750225750  0.5022797127148683
  0.0080828214491849  0.3354246918356658  0.1710633604267964
  0.8359240877122818  0.3340602687598934  0.0023420396055480
  0.6740357974988797  0.2503695145319504  0.9174779841986082
  0.8335893902283090  0.5835103860451600  0.4202049440463640
  0.0866593808702389  0.5014084890449679  0.0858754687143000
  0.9191357241652222  0.2513611632943771  0.6673980051406662
  0.0051041194043522  0.5038932143263363  0.3376756136029706
  0.9197362707243469  0.2518770624983702  0.8354980678437439
  0.9189983273683933  0.3342633198773683  0.2596921192084246
  0.0031800566981417  0.3334300105206182  0.5022534368192593
  0.9212057099674646  0.8372243654859951  0.9306214350613240
  0.5841785026760230  0.0850396773836545  0.3371617719771294
  0.9192978534296582  0.9216143297155400  0.0046541645017908
  0.2538861966107624  0.9192564337117951  0.3365498835504518
  0.7499914357011052  0.0018881294631314  0.0871925714085755
  0.7512420833014796  0.3335041194375602  0.2548347594133120
  0.9169746169786361  0.9204625929966632  0.3361683043276795
  0.0842195823839318  0.2518250778242414  0.6699904367291549
  0.0841870813420575  0.5019629584094178  0.5851281462062200
  0.0034287179281947  0.6680722509417555  0.3367641214953510
  0.5845457556438665  0.1692834258823102  0.0847189638149371
  0.8340114374819816  0.7540199385390098  0.4209987722885400
  0.9194920607011285  0.6673229483049727  0.0871498471274934
  0.7487677364279638  0.6714964245378890  0.0862317610639386
  0.8364483442974011  0.0849920501473799  0.5869852353955465
  0.8367097666224960  0.5006988830667006  0.6660121666762548
  0.0849350915870648  0.5012783137278690  0.9171126874078142
  0.9214436496998515  0.5876740637336011  0.1690048121334068
  0.0884194429930357  0.1678927446588202  0.0013997698002687
  0.9175474387124573  0.7544195265777653  0.2513708762023811
  0.9179060583271742  0.8353957246451554  0.8385543169909628
  0.0871465697684203  0.8364486385371013  0.3370642867175053
  0.8338618142074476  0.5033191340709011  0.0854133841467657
  0.6645830640507034  0.4155160763620440  0.0039606528234097
  0.9190202273496347  0.3343140727368769  0.1697723042158578
  0.6685480049029198  0.5057545137990502  0.9136076523187280
  0.5842557975136831  0.2491088202869695  0.9174399261847176
  0.6653359796759437  0.6704584890580885  0.0032525662066513
  0.1708364650368961  0.8347144211606611  0.1698231682374082
  0.8357628137919417  0.5867405255196527  0.7503814150714399
  0.0876750668394284  0.7519068845532682  0.8349759475886173
  0.6673830048239680  0.6697707588298548  0.8318156622017684
  0.7550658541120990  0.4178837137993602  0.0015210732385338
  0.7520505336786036  0.5876251166155074  0.8323537089417781
  0.6643811843864613  0.7528801831970465  0.0869020402226537
  0.7507470037785874  0.6698431408389447  0.2542137408883254
  0.1690798141352680  0.7518477954264070  0.7512585350635294
  0.1692377772678962  0.5854937353628760  0.7504646036795195
  0.5829122517554509  0.6681208070893968  0.2530433804396916
  0.7510371501993227  0.7535440576933112  0.6672840693281143
  0.1703595314055358  0.5846416124557910  0.9188531403619078
  0.7485173859025960  0.7534248175481653  0.0022946804917803
  0.6686553475319611  0.5856137092472055  0.5845660310428610
  0.5835057575277469  0.5862241473593882  0.1700900201482616
  0.6665551742173232  0.7526996462154414  0.4189824141968542
  0.6686124021385804  0.5013749612340962  0.5018786852951349
  0.6677242660142467  0.2516200004171143  0.5846350640968752
  0.7528841270710747  0.5026240460027762  0.7494474945650030
  0.5009393436800336  0.1681600721697456  0.6687244786894837
  0.5828097622681027  0.5033184823106021  0.0876772507598755
  0.6694540708726109  0.3355106371790803  0.8323782531603043
  0.7503200744283296  0.5893383148966650  0.0018077129434118
  0.3354706444459878  0.4188134497166544  0.5850531440415253
  0.8335249032639511  0.9193015268386635  0.9213393880926791
  0.0047818977336845  0.9199590296971264  0.0873514990548446
  0.7516874428297562  0.3349585968065256  0.5843213793677013
  0.6673387217122253  0.5015034815340900  0.3357481124988264
  0.5847118338109640  0.6687755931294421  0.4195017115521183
  0.8348452975307035  0.5021812883847487  0.3355833072002277
  0.0055823429463474  0.7509175953305719  0.9194845873914449
  0.7511727151209254  0.5008674849190513  0.4180475125046746
  0.7517890886978191  0.4178891198409055  0.5015878060276414
  0.5010838237722258  0.4187933087086021  0.4194063974898857
  0.7494290953113720  0.8368353831481444  0.2532170969405957
  0.2524609956450653  0.2543400102494331  0.0022173511504353
  0.5848935812017960  0.1669815980008655  0.2520032277099339
  0.2521244888355544  0.4182243567146202  0.5029669467473746
  0.5008388909993005  0.1687056241622947  0.1698753946562329
  0.1683897312502229  0.3348333173816254  0.5030504881539715
  0.2519676750157375  0.5855610325625432  0.3370263104079871
  0.5835916086866304  0.0034177724253407  0.9184040788949410
  0.5002955184403669  0.0853908847391798  0.4194600734208529
  0.5832286917342032  0.0844314907726103  0.0029930717128980
  0.1692081852868994  0.3354579735530228  0.3373222986873323
  0.5835662130388226  0.1679791754902287  0.4210849884174161
  0.5015220253140542  0.3355393691097833  0.3358522598075555
  0.1690852938903283  0.2525582415461231  0.2533544279669079
  0.5840903410459422  0.2514645772543223  0.5025689903327840
  0.5010118056168842  0.2520361298391847  0.5851459574015082
  0.4170629282170006  0.2525090193125816  0.1703768273300833
  0.3346150298781993  0.3363769080968863  0.8338242370642581
  0.1689616741896190  0.4188633322265009  0.0862389209296054
  0.6665072513537187  0.0021880755435317  0.0030276048801303
  0.8342418713006223  0.6690997687065876  0.5018928486522868
  0.0036184245310802  0.7516565391297897  0.7512930742150269
  0.6683324450995178  0.7528344891667086  0.7505856232692538
  0.0029629787061165  0.8361062928976815  0.6678954985539529
  0.7502588751492710  0.7523547257557210  0.8348845543518009
  0.5834586900726956  0.8373793750892595  0.5865885953188020
  0.6651898377989603  0.9197151429032010  0.0865965766880738
  0.5838989411740437  0.9196374121908960  0.8343225096637176
  0.8327995895517912  0.8365705664127010  0.1667921297476863
  0.1700737304079185  0.7512585146014024  0.2523558950174183
  0.8326934986629632  0.6712150464555372  0.1703649124789910
  0.6656556005002410  0.7510703880763178  0.9172119909631102
  0.0014289184209389  0.6698588327248811  0.5033008713995182
  0.8342757762667856  0.8371371113856357  0.6684383816583312
  0.7517749684028148  0.6693583415123568  0.5850591905493513
  0.5829992766597132  0.9194001144550447  0.0012068980979195
  0.5826649546319858  0.0018252155620656  0.4201002987746545
  0.1698664366551047  0.1696792052771006  0.8332743324694518
  0.0865813550070427  0.0847476888253814  0.8342849091504267
  0.7516922785988251  0.0026937632719301  0.5854591231297847
  0.3342520646693327  0.0847689624040885  0.0860360164336164
  0.5836096312216973  0.4186686291707002  0.8327218200918994
  0.7511496632899444  0.0026714815578177  0.7512498243881317
  0.5837058700786969  0.0856534773619288  0.6681988434812607
  0.7511099397094316  0.1669673741164132  0.0860353912575115
  0.3340866803224011  0.0848341001221137  0.9177694204091608
  0.6693513839268630  0.1657236203669696  0.0026456137686487
  0.7514986395444836  0.0834245720206340  0.0030562925018716
  0.6676474219764511  0.1670653284843677  0.1694797075864229
  0.1710553334926340  0.0837914654416423  0.0873098529180741
  0.9185682333635438  0.9198406186061207  0.5028163534326121
  0.2520363600048002  0.9189409103495030  0.0017823706729476
  0.0876203690105681  0.0847032945508608  0.1704477200735383
  0.7519182743219693  0.2498764197052453  0.1705779920636977
  0.7523152554072837  0.0857639479022063  0.6671988722408322
  0.6665417110100510  0.1673627044171538  0.3368649902676557
  0.6663968833450142  0.0843236941457513  0.2522035607220474
  0.5017408588704628  0.8354303908172153  0.0019793655451591
  0.2520114200699994  0.3367738038366890  0.0863586332345394
  0.4996610140707987  0.3358619876660446  0.8331602230513321
  0.6702178834741296  0.1676834847846795  0.8325448973077141
  0.7536170365377636  0.3344498110382073  0.9165118871693272
  0.4166581811976575  0.3355521463888587  0.0876674847703621
  0.1689987847045975  0.4195855568559841  0.2535730207990819
  0.5839745262949273  0.3341341117653619  0.0884951899945805
  0.6682588949089523  0.3348979791902455  0.6683424059374401
  0.1703303153497214  0.2540142420322852  0.0875230751292785
  0.5818075196075808  0.6699282853383464  0.9185461907770458
  0.5849347013404431  0.3353388608097850  0.2529534546421897
  0.1704753952903762  0.0837564671503601  0.9165444724694183
  0.5006969189714908  0.4183961182402818  0.2536708894169384
  0.2524398758278401  0.0846889461157162  0.8342846716334777
  0.3354532151647964  0.3362919444645212  0.0027019587622598
  0.2517764950791745  0.0012820787599329  0.7508575731622600
  0.5831514577439294  0.8356656121835651  0.0860538527508850
  0.9190210867942937  0.0844490314192019  0.8337326745465566
  0.1754044782553604  0.8351728814978029  0.3363480912555017
  0.5849815676779969  0.2511930372217750  0.1695745856026119
  0.6669642784931156  0.5862943515179789  0.2539400041833536
  0.5836211130593340  0.3350614304809512  0.4200166477742656
  0.6681624735018782  0.4182258440038006  0.5852858570447793
  0.6678135634575613  0.4183522263112008  0.2530996249680229
  0.9198222805975291  0.4182707439874787  0.6681088643491235
  0.6671116171696359  0.3345895264960588  0.3364134784156519
  0.5850294331628769  0.3354614307334819  0.7506455354867105
  0.7510999894218020  0.4178944610383227  0.3361075097415981
  0.7517729512374827  0.4184500965693223  0.6674319629402798
  0.7509926955732859  0.2513762863229934  0.5021724144656750
  0.6683907496655906  0.3333100513292149  0.1708917202152226
  0.6683529246245186  0.1688151434518983  0.6677592051298564
  0.7526019413529249  0.2500107385722649  0.0019944748715336
 -0.0020188243326579  0.8369297706389665  0.3374915951132273
  0.6668156369779591  0.4178429668108647  0.4190855959410291
  0.7510626405309445  0.1678640640678029  0.4198097391084979
  0.0035587967998559  0.9204931242695208  0.2511059088151197
  0.0013049491503061  0.7530075355225595  0.5856292715885527
  0.0036852390314439  0.2507558590998566  0.0858096685371272
  0.8346930798866449  0.4144181472899131  0.0854305686621433
  0.0036139870676403  0.9189040682016726  0.7508067658752873
  0.7507385457340924  0.3346057928989234  0.4195102052668225
  0.7533919201844896  0.3350074395760032  0.7504266575356767
  0.0884071822674393  0.7512424925688669  0.0023813786926797
  0.8350555368447810  0.1662546493585022  0.0016389716853166
  0.7518140140399071  0.0850808267997576  0.5022257769868137
  0.0027552335843039  0.9192854626819053  0.5862233740940344
  0.6678562469667599  0.0855788433268455  0.7507805253396110
  0.0882775823941608  0.7516455000964825  0.1680052702686404
  0.0863061248370566  0.9193841411636571  0.5037214848571671
  0.7503769859916285  0.2504180540013401  0.3375206613660785
  0.7528417048470935  0.1687555445284477  0.7500656501707923
  0.0061992764456865  0.9193184395879644  0.9196772842755470
  0.0860208254436044  0.8359709830300269  0.5856005214847748
  0.5007157832650232  0.9201596352539462  0.2534784685356144
  0.0024198714392294  0.0851629224561235  0.7511176511086887
  0.0028925697467632  0.4183473722426664  0.4191704495207127
  0.0866010400116006  0.4198286867467438  0.1698431172826636
  0.0869468216262647  0.3355320871882548  0.2535825073014690
  0.7489108784123247  0.5885075227545421  0.1712928317883838
  0.0860046974646428  0.4188805875238013  0.0022087392435162
  0.7523931280102282  0.5012586668346299  0.5846121510576178
  0.8354626629552178  0.5846371360327030  0.5844182837004497
  0.0015466522097543  0.5034959412174020  0.6675577733076694
  0.9179965073318017  0.5855147555941150  0.5023049567830548
  0.7532556847885252  0.5850929778274908  0.6662333637747275
  0.8346046370633450  0.6699122250531130  0.8345939677106518
  0.9192560658111106  0.5029543558014044  0.7510639554950636
  0.9179284192537950  0.5858061493498906  0.6673570422652620
  0.0866247120397856  0.3359651156507366  0.0864609806177776
  0.8359590956504052  0.5890946805917340  0.9179066953262780
  0.0034466131799269  0.4192933864360647  0.0850835322336210
  0.0853737488467559  0.0860319811314695  0.6686181634326683
  0.9177665117588052  0.1661503844519344  0.9178168882699803
  0.0045667402450127  0.5860601443708229  0.0845800595852398
  0.9198267066087558  0.4202523383023881  0.0010830967252476
  0.0855892293812729  0.4199628596552051  0.8337761089158694
  0.7522295595983539  0.3329481517616067  0.0867200861259359
  0.9191971513010940  0.2503291534315207  0.0010745534707771
  0.8369426408430048  0.4184455818653420  0.9174952149153209
  0.0024932087474922  0.5035283166931973  0.8339190433491873
  0.8344568734914346  0.4183711511105077  0.2543925669260123
  0.0021005431700700  0.3368697901185908  0.8341756558023800
  0.0041389374774980  0.5033202056070307  0.1695671416922674
  0.9186470571929455  0.1687355880206640  0.5845307379045881
  0.8354883269583783  0.2530662554387649  0.5843654684211430
  0.8354704341043834  0.4177092018357293  0.4192743217634093
  0.0013895852586722  0.4180192163382474  0.5848657993171315
  0.0847864183167405  0.4185150283349916  0.5027772050658177
  0.9196460890245532  0.4174211175186214  0.5002641671583975
  0.8359877833025596  0.3354854309517029  0.6680361719380050
  0.8368476815377288  0.4194817866867196  0.7505551876796618
  0.9187678692352427  0.3352222319245234  0.7513217016693183
  0.0036547969492328  0.6684433021308099  0.8350093456113998
  0.9192993333501902  0.2506332170277019  0.3365707235067028
  0.0042975795398846  0.4198368585437934  0.2546343950201841
  0.7500431513169132  0.1669293857240510  0.2540684539940324
  0.8355426404566936  0.1681754370768618  0.5014707079605202
  0.0028649554573893  0.1679400183086249  0.3363306307768663
  0.8342585891049121  0.2495822865267780  0.2549982065013195
  0.9188389718340639  0.0858630235634887  0.5030606774169651
  0.7505851943464016  0.0015879733549263  0.9188406730953231
  0.9191170111822138  0.3349749307578608  0.5842982270042142
  0.9206134076076230  0.5024974145822416  0.2549648002108295
  0.9185777967819619  0.0019021467994170  0.7506846475035942
  0.0035484072976608  0.5865196445271886  0.9182375959802961
  0.8349587466906379  0.0841936429097197  0.2529552105184182
  0.0849130096696482  0.5861241733438496  0.5033143150513695
  0.9182122159193036  0.0011641440266836  0.2525102970414496
  0.0855805620576205  0.5026391913679744  0.7503472136924256
  0.9193498018446139  0.0844624330110914  0.3367108464190897
  0.9189754708176930  0.0029496299598871  0.4199485968732454
  0.4981894567134592  0.1680891172831506  0.8340664334780815
  0.0023259770545303  0.5855470846171613  0.4206966458065023
  0.0032889726301155  0.3351391206547645  0.3360670045425896
  0.8363452837870011  0.5040116446576685  0.8335564880856084
  0.0031445446458960  0.5038997917923115  0.0016043147188594
  0.6661706748711667  0.5885284445172063  0.0872997031390125
  0.9194220011579555  0.5016888173374690  0.4192920561864532
  0.0020173246667059  0.3353461374699938  0.6684256367857868
  0.7510759817028797  0.4180915069825232  0.1719273081799960
  0.9202119420062439  0.5875325258580428  0.0018771683081171
  0.9193425955375201  0.0837655901707617  0.0023075703898260
  0.0042477447450927  0.5856042082614359  0.2535513690489679
  0.7522926389404112  0.1670458037802906  0.9185394199643093