Cr N  Ni
 1.0000000000000000
    21.1200914711746819    0.0000000000000000    0.0000000000000000
     0.0000000000000000   21.1200914711746819    0.0000000000000000
     0.0000000000000000    0.0000000000000000   21.1200914711746819
 Cr  N   Ni 
 259   9 605
Direct
  0.0861822806450373  0.0010300986788020  0.9178409865859763
  0.4997848663696157  0.6676398446043640  0.4993240011819000
  0.5827889899087227  0.5835858839429995  0.3343891170294760
  0.6639728547605529  0.4160558517829857  0.0846830136374890
  0.4173135521748697  0.3334190848846862  0.4163515707810200
  0.2510063107604153  0.2513805978379758  0.3264384965180722
  0.0830747011453864  0.2441907664701864  0.1662275465084922
  0.3332613381176888  0.4174720121537390  0.0835173857551085
  0.7495337849136369  0.5012076477996701  0.9166320463857270
  0.5007313766241041  0.3341034065203298  0.8323087375066009
  0.4989125603899734  0.3328779661703081 -0.0005806157927167
  0.6647254812009443  0.4178593623225361  0.5826802802343688
  0.0819336084909174  0.1639967804983530  0.5835451746407598
  0.6637320504078523  0.8328719564098932  0.8323995992035809
  0.5841825838435700  0.4176459253441857  0.3339942183268404
  0.4991770543345289  0.5009456038921107  0.8322762046170564
  0.6624117788950079  0.5853411703876058  0.0844724056680177
  0.5843802380821822  0.9154829282417719  0.8341911973865466
  0.5003852531453983  0.1664832623826866 -0.0003583298423737
  0.0815996785908464  0.0001093057909243  0.7497252291766913
  0.5848413973955684  0.0825773946573573  0.6661853495461700
  0.2497733400322270  0.1620913172355077  0.4155044189561575
  0.2503435588762332  0.3419049356284175  0.4168377716462209
  0.3332150368223749  0.5004886967817839  0.3328234079448077
  0.8319022626289684  0.7483117810265796  0.7500841129366662
  0.4181053467863572  0.2522085759389843  0.8339330064622174
  0.2512893415157451 -0.0011645339711870  0.7476169245366859
  0.2511532147971641  0.3345129510398173  0.9150349228532978
  0.3334506166854364  0.6665441627466718  0.6661926803194524
  0.4998894355531351  0.4177749123991387  0.5827053144273688
  0.4163930228537536  0.5835381999220580  0.6650741578523190
  0.2512201122273096  0.2510937055020738  0.5041761157002149
  0.0840880475893833  0.7499912728912751  0.3322759004792215
  0.5837864901996890  0.0821742500380723  0.3336262549735876
  0.3339127184611259  0.1663748355492788  0.1683415525725711
 -0.0004177415525959  0.9128381392173135  0.0854376750531688
  0.4993349284632729  0.8323553575655281  0.0013112210357116
  0.7486431234509411  0.0007757264744213  0.9154744988998917
  0.4998689613662358  0.5018861454569569  0.0002298190275725
  0.0836663190315025  0.8215335848964638  0.9182066117212909
  0.1660960360483229  0.5844649549156822  0.7500902732105018
  0.4147775186332812  0.1650357799908446  0.4129369227174897
  0.1658108903504218  0.8313800999259896  0.3332018699028094
  0.7482902879116593  0.6667942183536487  0.4163053151127025
  0.7496257244323946  0.1682301642722200  0.5834856059758347
  0.6665056938357322  0.6666792439227516  0.3333296116352984
  0.2510336255254154  0.7483517947273010  0.6663122765467435
  0.4963720789584592  0.7513449584948616  0.7508882954170519
  0.3280554820818506  0.1633898793499801  0.5017128108336748
  0.4162156058514306  0.5849272505341505  0.3341563289743528
  0.1664615235251805  0.0815999272959460  0.5840471343689230
  0.0825923464491300  0.4249528182965945  0.1670565910333058
  0.6638602586259880  0.5844301092455815  0.7480328132844092
  0.4163227500168496  0.8328150385403634  0.4171238752636038
  0.2481861176646466  0.2524063505024171  0.6677635011804417
  0.5826457197075366  0.5828176556049499  0.0002709110441960
  0.7476189330484638  0.6669193589962507  0.5835925971863839
  0.3329549112917150  0.3349134032270403  0.6670721546234570
  0.6659363377838385  0.8314511289595824  0.0009949097275049
  0.1674616193822154  0.0915345838942112  0.9154335304833531
  0.6636617263331724  0.0831274668229034  0.0845021781479864
  0.4169713336868553  0.0822377839854572  0.6668669809781445
  0.4173377990881239  0.8316427133691636  0.0825252016844343
  0.5002102193728584  0.7489294753757380  0.2505823217869907
  0.8313247214399849  0.6646105202918773  0.8337051254606259
  0.1664994511742363  0.5832474214252541  0.5831613683092071
  0.1666488676866311  0.4187675568233730  0.7512207484468295
  0.3344551550600157  0.4178739749782371  0.9169398616548394
  0.4166448976274273  0.4159464193266187  0.8333092151606551
  0.3356600423930240 -0.0004208889738503  0.1664428722485538
  0.3332749028168123  0.1663539377036432  0.6663370007861970
  0.4162471926728827  0.6659089466119017  0.0842064514422495
  0.3320332438265207  0.9146864056717008  0.9161662692467363
  0.4170268460244738  0.2588467444963801  0.4997041373367766
  0.4170878270448554  0.4174429760295781  0.1665944530868939
  0.3324080388185260  0.6671784672983341  0.5002498212289872
 -0.0058488802868836  0.0820506624691270  0.4157465064023859
 -0.0020882223226355  0.9134495917559565  0.5848999886360159
  0.2498613146062127  0.9154949099403045  0.5005517075416495
  0.2514774523927973  0.5023315219694090  0.0834647263550880
  0.4991790085059283  0.9161973304491350  0.2502092930780087
  0.4190289349395096  0.3345641715029477  0.2477598986439800
  0.2509454895476071  0.7482594729535113  0.4997393277175273
  0.1660922668165967  0.4181361730617858  0.5846049911957024
  0.2522179521059916  0.7479106174564348  0.0014741163275331
  0.4979746636422169  0.0001858619274122 -0.0007216874412544
  0.0818284293293724  0.0009576865120052  0.0837269419277235
  0.4172761216171507  0.7492083529794991  0.8333407231265992
  0.2506097836386669  0.8289529624331816  0.7479523068587191
  0.4155975402775340 -0.0015966413063183  0.4165515351893530
  0.2529305862851515  0.9130814622272398  0.0027258763065036
  0.3336380068084729  0.8332891969171166  0.3331033232835307
  0.4166727312220884  0.1663085837409437  0.5917542756385341
  0.3309370983889256  0.0813133045176643  0.4145803626731918
  0.0822354465404000  0.7468565425598148  0.6655443181394375
  0.2509703179210096  0.5028863527980545  0.2502913124001909
  0.2507336102066050  0.5012951985525440  0.9162367795050899
  0.3340157096892274  0.5846596525940020  0.0844542308433566
  0.1653827276881416 -0.0005125778314674  0.1663718653694476
  0.4156164595328737 -0.0001744992728582  0.2476846631628030
  0.1728180659195803  0.0814573964033656  0.4151320934399034
  0.4164673099551581  0.5825531509061976  0.8321499900737869
  0.2471038993023961  0.0794868703818569  0.5009032521429797
  0.7479661037459687 -0.0005119073649771  0.5837785128554646
  0.5839197537814432  0.0829659914310851  0.1658756372060313
  0.4998264683466579  0.3342312630816361  0.1681002200243170
  0.5836299280540673  0.0007241784007673  0.4152905201437198
  0.5072437884793773  0.1668771463849403  0.4998625072970105
  0.6658686967676165  0.0003871021586778  0.1681509155122298
  0.5830334544703174  0.8332001847179334  0.4156867673731757
  0.4173018729364729  0.0837418138881103  0.1653632835161218
  0.4998127305589100  0.5001028719007746  0.1679658027222039
  0.4185024289344928  0.8319253306278782  0.7499978410048683
  0.9161395923430959  0.0832218204569333  0.3327595726376186
  0.0815247324594683  0.0804272540231894  0.5075722691788422
  0.7480788174726406  0.9167367181780475  0.1680745516796343
  0.4165336923100071  0.1655371765624804  0.2469230746622082
  0.0827316525452500  0.1683749476314685  0.7479479584480583
  0.4176456077576888  0.3343817542625453  0.9167641234439703
  0.9063800908362136  0.0034769154423173  0.9153719565197198
  0.4163644590653007  0.0835372481214016  0.8320815246594903
  0.5840767583699661  0.9158374701130239  0.6659748695642721
  0.1680017856598436  0.5832706513556607  0.0844828246663421
  0.4171722860024270  0.8332488241940813  0.5821284544445918
  0.3337986235495943  0.5001619929753643  0.4990613707452602
  0.4988333274799089  0.7494443673225767  0.5818647893632737
  0.6647227682749631  0.0845569057862153  0.7499047594556278
  0.4172142997467174  0.9163626520156630  0.4984390466268383
  0.1673617378525353  0.4181229591462097  0.4149550905254409
  0.2512004715691005  0.1679046771569815  0.0847836871465631
  0.5008163361304303  0.7486080937733872  0.9169948081478498
  0.0821443913559272  0.5834831856924210 -0.0005280892378653
  0.9135728197666340 -0.0000790123647275  0.7508976333667712
  0.8320481859594183  0.4165654613109426  0.0843761492512862
  0.5824197696623590  0.5001161002898491  0.4155144135013232
 -0.0017106945281485  0.3331545971833758 -0.0000205686318575
 -0.0000506148829321  0.0038500739621235  0.0073645836513250
  0.1674850075300261  0.6658659418055278  0.8333819623347425
 -0.0014069249896604  0.1661098854651557  0.0012008416975959
  0.5821048604339112  0.3338934273590305  0.9170966793406331
 -0.0025397529150820  0.3350904497649415  0.8336267827812393
  0.5843803528267986  0.2518691280527738  0.6665231453796021
  0.8309967007245641  0.2506058404084137  0.5841673529414770
  0.7496985688063607  0.1675809759962718  0.2493470696063330
  0.8311758372570828  0.3348441202002586  0.8330610314643855
  0.0842633502374392  0.7471237796827435  0.0020633858656439
  0.9158200226582959  0.0811646229155913  0.5012719031216915
  0.8302813617840422  0.1678940652472589  0.6639882350647595
  0.2501347934161705  0.6671988250838603  0.2516603216199714
 -0.0023032833980717  0.4208983246006894  0.4149601932579855
  0.6649395426030660  0.4175925902608872  0.9166838949500020
  0.7499973365887889  0.0002396800154556  0.4161629753843221
  0.6657231991615196  0.0843944410018368  0.9163835988650831
  0.0802086674912219  0.3359284583596492  0.2544565427793299
  0.7487717529032567  0.2516528076260447  0.8333055300178250
  0.6671831794625797  0.9169498008777460  0.5817620713619309
  0.8208865392592681  0.9165461049799659  0.9167246623986508
 -0.0070875166014357  0.3350681315813139  0.1664000645689273
  0.3327398354137122  0.0001687277502703  0.0012029166295123
  0.9158421947372608  0.3349298714238517  0.5828904217392339
  0.9136919808925212  0.7487406891697226  0.8315989456189264
  0.7475903444010747  0.6638969051225080  0.9154366025579425
  0.9144333360025437  0.4178000820679998  0.8344793988902409
 -0.0000668093854492  0.6675475089532769  0.8332994303792983
  0.2612279106760115  0.0013957406353565  0.9164020762815743
  0.1678068859909332  0.1676079379712447  0.1674332729039086
  0.1577273037807990  0.2513468133975780  0.4150839497199335
  0.9157850481549017  0.0014708535926821  0.0841519204929239
  0.9134068504622824  0.9160491311330069  0.8269543632755627
  0.8303243531665137  0.0027261955778197  0.8314389527787432
  0.0809276199528717  0.2519147215474848  0.4942692516004005
 -0.0030557767045282  0.0817732086636749  0.5840749735546441
 -0.0020657017638819  0.9135312787501948  0.4156514882611637
  0.9161625761251863  0.8322206193095240  0.4166081787203859
  0.9134404603516442  0.8315871721783514  0.0847473384586199
 -0.0035502283282645  0.1670502110465330  0.3325348318032101
  0.0832248656300397  0.2518760475003490  0.6736619588276169
  0.9139411778193223  0.9163112950180579  0.0091476268931348
  0.0825715213165379  0.3445010901207657  0.5835110060077746
  0.6661234539989871  0.6664504857821966  0.5000464068694799
  0.9157857854372534  0.7488286145583654  0.3335473506554955
  0.8312143897825397  0.9153203817264002  0.0834965469367440
  0.6655617442837846  0.4180839368045611  0.7503439104034656
 -0.0020239468708582  0.5005635361877495  0.4979839803551583
 -0.0013279412738657  0.5019997348019961  0.3343707212328675
  0.8320234377082116  0.5848776977826551  0.2504976756708139
 -0.0016565998906708  0.9170868909812090  0.9183184738775990
  0.0817867142824265  0.9158898059305435  0.8253364604410629
 -0.0082623603203666  0.2522141933013234  0.5843621063686325
 -0.0008768932340244  0.5020511984580571 -0.0002803212271629
  0.8308185752359440  0.9166361617583498  0.2494741647038659
  0.9163983245121791  0.8325115714583897  0.5823835847997902
  0.1775949789278303  0.9141312358720672  0.9181375372069299
  0.9144866150154524  0.7477006618212447  0.6647272707041908
 -0.0027136443553295  0.2504204240649686  0.4149058601343892
  0.7508495127283579  0.1683930902754855  0.4164567493825730
  0.7480728814164167  0.2504329458564110  0.0021751462699273
  0.4186689542689843  0.0003384441444815  0.7498718563634343
  0.8295821052819146  0.1700788213515577  0.8317868383463380
  0.9134955458988179  0.3358009457660289  0.7511534383000306
  0.7481314486071103  0.3347970186193656  0.9172803220119408
  0.5815230832917477  0.4995359305995098  0.5828843274597535
  0.5829243977906075  0.2507472202853183  0.4998733610158105
  0.5843895372178488  0.2500884073817504  0.3332421238757372
  0.0814209029612370  0.1701692991338654  0.4157207142230053
  0.9145522225851734  0.2499925445515337  0.0007238141399122
  0.9144161307275420  0.2511260471601711  0.3330888926651560
  0.1719452610106648  0.3351646619525515  0.1660111876656663
 -0.0009080411571887  0.7480562525632052  0.0852263225751695
  0.0826776463541089  0.7484974970239298  0.8320351202839432
  0.7500418334183732  0.4983822292748807  0.4154977160359796
  0.3332493392335554  0.9150602327304082  0.2485812080578987
  0.7489731886397959  0.4994208576734895  0.5834828794331960
  0.5811742411563090  0.2527890758931959  0.8334856599991834
  0.9151788110739845  0.8232376418438487  0.9181996439339877
  0.9152944532014377  0.5014157900544792  0.7511122377986712
  0.7484960780542038  0.8334275760752151  0.4143918476304691
  0.8304739533253357  0.4184453645595628  0.4157483390140554
  0.8313660548914688  0.4174552958748363  0.2493455567819578
  0.8314872459396687  0.5844208352742999  0.0838769637890507
 -0.0004818256586944  0.5016758006242673  0.1671800509485464
  0.1687666047563141  0.3350634138794339 -0.0008318302109275
  0.7478305997186160  0.7492978118533657  0.1677899569441258
  0.1670314450648112  0.3347203179796361  0.8337026306176162
  0.6654966375295394  0.9171083573065293  0.0858399527328963
  0.9138244441650157  0.2517915314514609  0.8329181394212235
 -0.0029637539630037  0.4985637914105676  0.8350360156839333
  0.5817638797197058  0.6669905820666976  0.9158745003937205
  0.7485561644481632 -0.0003090748998873  0.7498587660480349
  0.6667461636897919  0.9173598314928497  0.2481480968702356
  0.6656205924463151  0.7484290532146153  0.7491187489778984
  0.0820687635687608  0.9146183483211586  0.0082549147844478
  0.8316393509999728  0.5852719001869452  0.9168268223837072
  0.6662392733353324  0.7490639749185994  0.5823418836163098
  0.7468630496014076  0.7488008000452888  0.0009782829021325
  0.9166527790862893  0.6679450029731958  0.4166926803788165
  0.1665016932053346  0.8304764940921501  0.1668718281219585
 -0.0013133686371444  0.0000170051547603  0.8255670102417683
  0.8306957272378870  0.5014400787925067  0.8327059138138151
  0.9140347715665917  0.5845170057178350  0.3328945330602517
 -0.0006694498252439  0.9158828186310894  0.2496337077782092
  0.6647655920555697  0.6664504302868580  0.6651051664990538
  0.0825659045889974  0.3348401191146507  0.0746396107877864
  0.1672153586797125  0.9133632072087917  0.5843444175041218
  0.0835008881361126  0.7485352089708059  0.4991764446017896
 -0.0004193481023969  0.4175277346784409  0.9168825452402524
  0.9144521309485282  0.7491738503191294  0.4988100123968404
  0.3341045679022000  0.5826656879368304  0.9157184689500365
  0.8297981939576698  0.2496264311753758  0.4160132534351492
 -0.0006089901709470  0.6669560956619808  0.6644587522047767
  0.5832843443622339  0.6646213379302534  0.0844366555175848
  0.1669226822522969  0.5847022752610799  0.4161707724231983
  0.4178955406148169 -0.0009155086004162  0.0846426207906834
 -0.0020539807928053  0.5016679805623406  0.6659886357934267
  0.7481195348715494  0.1691918309854287  0.0843911629499413
  0.5825675394421629  0.4167980810873977  0.1669636306644417
  0.6651277380797926  0.3346801380584312  0.1667483656771714
  0.8313981678332004  0.4184981420164828  0.5839070001738775
 -0.0006916655387582  0.0965917282569876  0.9160847556916250
  0.9084287678670017  0.9119378746463292  0.9176098986080431
  0.0812410967711237  0.2541690166448572  0.5845913137637142
  0.4178900052642112  0.1677502909378675  0.5018490217766278
  0.1746152134689639  0.0047428901114074  0.9168313725318891
  0.2474281414287643  0.2526113207546909  0.4151981256076377
  0.0836745419224919  0.0802758242374498  0.4175505139293191
  0.0877048290236942  0.9099456729129650  0.9164578152555907
  0.0824297119888464  0.3346258685461881  0.1648226344617395
  0.9961059966645971  0.0084626876585568  0.9164805188911338
  0.8316966143962120  0.5836721854339535  0.5823994701609021
  0.6655899572793251  0.3344708284171632  0.0006825629084997
  0.5825852989202894  0.5005080826180152  0.7488786765085135
  0.6659965272703170  0.5007667633782023  0.0013371681713303
  0.7482570458178519  0.4181051949045896  0.6664025233852779
  0.4172141192818231  0.7485064046515850 -0.0000821657166440
  0.0828719189330165  0.5016493544281411  0.4165307976895940
  0.7490022729624226  0.5835119584280920  0.1666193886393464
  0.6652084522989699  0.7490000621349688  0.0840671797107025
  0.6662876653592497  0.0004962345669787  0.0008199005354583
  0.6655672564135869  0.6666526198255037  0.1682042557646506
  0.5825302561064911  0.8334528080136019  0.2499664978160838
  0.7486943458876630  0.6663156592124055  0.2501069745623151
  0.7475200420536484  0.6662458434724482  0.0847632428459512
  0.4173870045930453  0.7497176870229257  0.1673370571175917
  0.0831852988328183  0.7485754365006014  0.1675704464593646
  0.7477281954911924  0.5009478505444130  0.7496299051130325
 -0.0007660248076119  0.5839180468768140  0.4164325588089967
  0.6657898320127227  0.7497904682539243  0.4165375589061532
  0.7490300161949838  0.9163187721468102  0.4989172080743575
  0.6641278099627878  0.7489544590853291  0.9165695359257521
  0.7466377484492422  0.8308363834582987  0.9163877472469134
  0.5824099400458674  0.6665408888691489  0.2505707645953658
 -0.0017766482971928  0.1679312155480109  0.1675409415281353
  0.0818230596097234  0.5015509117054364  0.7508437048083804
  0.9149458063136999  0.5010893005620627  0.0836884030528331
  0.6660621654069099  0.5004936857636298  0.3334176848716008
  0.7489756497488160  0.5833363953003272  0.3335274044754751
  0.0822402079625460  0.5826857318151579  0.6660996745988566
  0.0827996662765640  0.5003802210838061  0.5829580205546466
  0.9156065919958868  0.5834086005724600  0.6657528440833185
  0.9152454117523019  0.5009041180560346  0.5829003149617095
  0.6664498565713616  0.4997205893070439  0.4994840923482660
  0.6663122267989089  0.5828517543608949  0.4167683356526644
  0.5821052707632663  0.5836319167933303  0.6652472506903686
  0.4991180176926431  0.9164592021238691  0.9174996180059117
  0.0001219135843801  0.5833345753353755  0.0837332407433799
  0.4991679168462455  0.6658196717020307  0.8324526969688781
 -0.0009132032324332  0.8301652420674710  0.6659944893046270
  0.6646139675850739  0.9165890018951144  0.7491825758114314
  0.6671223627270156  0.0836283632740031  0.4163942351763267
  0.0822406260210605  0.6656483270010535  0.7490186745455875
  0.7487538619272749  0.2506276930502548  0.1668414860470102
  0.5825213216379335  0.9163306589970623  0.1669326253848775
 -0.0001630182313201  0.7486538157037255  0.2511875926656232
 -0.0017010881128657 -0.0010839007081273  0.6673692561990288
  0.7481198447891778  0.0007944776853223  0.0839788231981437
  0.7481768900858139  0.7502301837769759  0.3338630542146989
  0.0824278023133060  0.5018997125781363  0.2508899577130744
  0.6665882461287588  0.9171721052130889  0.4160965227720191
  0.7488723901644947  0.9167628621073846  0.3326801040818374
  0.4997613346990080  0.8338914089553369  0.3335177125451436
  0.6654212721621020  0.2501695547027661  0.2502183771318963
  0.4174412520548493  0.8321006789348092  0.9168238310506005
  0.7480597844743799  0.6665904097144222  0.7490111361531575
  0.8288718103977492  0.8298528335221210  0.0011357400999557
  0.6652660155357869  0.8333439437767839  0.1670973173459019
  0.7482916738473040  0.0836540828149005  0.1664641321020777
  0.7487350923833177  0.7497886776190902  0.6665228385735719
  0.7472823852353256  0.9159936411881198  0.0027684304470118
  0.6652136302258463  0.5002840361484593  0.6659598990696335
  0.7486554784651014  0.8329171593803051  0.2499232809658896
  0.9144672702142882  0.5013058700895752  0.2497889351237556
  0.9140728765467188  0.5014184248621785  0.4155963132585130
  0.6656139287593358  0.6665653059346336 -0.0001063016449211
  0.5831901539261277  0.7499907999449179  0.4995119708549586
  0.0836275427525558  0.5825118912092897  0.1669241527026420
  0.8305707659542402  0.6667151492178900  0.4989000061415501
  0.5825332707534360  0.8326884900398867  0.9175176230889817
  0.7484876996297046  0.5832464949930036  0.6664477889591852
  0.7482963735665173  0.8323171424336832  0.0855138834075058
  0.7476241520364753  0.8325358610919124  0.5834751884757660
  0.6656086210150899  0.8340228843685433  0.3333217857433677
  0.6662296135475724  0.8335671475746640  0.4986951811395042
  0.0837034095210567  0.6651235860006504  0.0844447985211337
  0.8317239016401656  0.8332665543163345  0.4992750552888009
  0.0827205336036373  0.9152002653305762  0.6670095313296073
  0.6659060896862029  0.1670548741162288  0.1673125432169793
  0.6658723800500417 -0.0001194488901006  0.6666808953243624
  0.7497474717132560  0.2499231652019713  0.3324534979264899
  0.0827659326008301  0.9148017280242721  0.3314379353056616
  0.7476803046104070  0.9161595092034194  0.6656836111480194
  0.6660096583805039  0.0001552379821551  0.8327229599939481
 -0.0007319803723558  0.6658405137145312  0.1671527634848733
  0.6652596781153870  0.3343261407319391  0.8332153851897354
  0.5832375829119434  0.0001522882854175  0.7498044168072603
  0.5827502766432222  0.1669500494837254  0.0833696178943680
  0.8323708395464471  0.8329785476330770  0.3329899972759890
 -0.0004490298362990  0.8320023118253715  0.3328656983256662
  0.0830846993542979  0.8324168960423797  0.4165119799302854
  0.5832140476364246  0.1667185956521853  0.2504985306747705
  0.6653597493726423  0.1672382255642337  0.0002188271969015
  0.6664875363730699  0.9160356199274797  0.9171299203287417
  0.5818121655882473  0.7499332772198898  0.8323037013673004
  0.2494790628386306  0.4196330400932146  0.5005311945082787
  0.4168502152189169  0.9161059130143827  0.8329547866659962
  0.4173603617735939  0.9156697155477891  0.6665772223126457
  0.1663638353060546  0.7474203613443281  0.7492229440760142
  0.2515990377042267  0.8295774145660436  0.9166982028040964
  0.2504853718321805  0.4184219817705811  0.8334314154716428
  0.3343949200736329  0.9150478190082928  0.0844875337768623
  0.0826652144774081  0.2518148668322402  0.8324185808723156
  0.1670050139005881  0.3368270706771012  0.6684806671184994
  0.6653023821076205  0.8323356161972367  0.6663867788445060
  0.5001115440539415  0.0839594350500954  0.0830169375541428
  0.0831477345819724  0.3339035923359422  0.9176463470507605
  0.4995601693767513  0.9159822197877551  0.0823875258584170
  0.0828850694508590  0.3356668110926529  0.7508965525899371
  0.5837449621649060  0.0831104972292419  0.8341290882511869
  0.4999910381126185 -0.0000259623915333  0.8330969703966054
  0.7465256576968109  0.9156818829153902  0.8315060041771668
 -0.0006541803624257  0.4183846550843079  0.7505157792752206
 -0.0006041969312782  0.6664572703494245  0.0013963962358206
  0.6657447926525198  0.3351262922285118  0.6662435065170822
  0.6650010260127026  0.4166425575349859  0.2499589292201613
  0.7485540046522580  0.4177921864924236  0.8331642243360216
 -0.0000859058444026  0.6672970024151983  0.4993803266890257
  0.8310870544729281  0.1673326856719027  0.1671535475413674
  0.6662141190072079  0.3335186110358835  0.3333812300330988
  0.7487490243569470  0.3341909530921244  0.0839792477495142
  0.8313554416407416  0.3343342758679631  0.3331314832802537
  0.0831019289473481  0.9154205114405085  0.1668883739027605
 -0.0005297563094379  0.8317490958723525  0.4997203671470438
 -0.0013967419477684  0.5838283403207382  0.5822003523519375
  0.8314251473535899  0.3347631142971300  0.4999882172717927
  0.0836756126868982  0.6659541086753605  0.5823996228839937
  0.7467754201408946  0.5833639992960242  0.8313656479507284
  0.7489367773729353  0.3344605541313204  0.2492364910966386
  0.4996328979648900  0.2496930392039134  0.9172979153747510
  0.6660028817540448  0.5831784321937246  0.5824906697655807
  0.0830510106998880  0.6662607278935190  0.2504776401871314
  0.7479840421695175  0.0830604302073107  0.6664573250177449
  0.1665962072831000  0.7489693417572378  0.5828855365630219
  0.9157866420626761  0.5836586287283589  0.8334567838379233
 -0.0009556729134473  0.8295962851587227  0.0020048013828466
  0.6650203773443504  0.2506887241767582  0.0840515542947335
  0.7491459568734475  0.3351304438365715  0.5833680553495227
  0.7479224300322392  0.3344244853863009  0.7501117792127998
  0.7492318610789489  0.2510829286989835  0.5002518892011882
  0.7496491286772908  0.4173406657090674  0.3324662484714626
  0.0828311390355390  0.5842010854099345  0.8332218175837194
 -0.0013157926473967  0.8315332245723734  0.1679661877111485
  0.7481526042760910  0.2519249430759570  0.6662375554026753
  0.6661232858876677  0.1671317509837682  0.4993948321205482
  0.6651773420929383  0.2514104653484227  0.9169576634845158
  0.7501129502421474  0.0833179660148756  0.4997012079089975
  0.6651179744500461  0.1682753392703459  0.8336148479846334
  0.7477354855343543  0.1682824132874909  0.7487141897866969
  0.4995214507981561  0.5833751503927044  0.2515794030748260
  0.8312770779020845  0.5004697310060375  0.4992208958699071
  0.8315647370086893 -0.0000808118183956  0.1670088783985728
  0.8326723940815058 -0.0006843612396705  0.3336261156400424
  0.8321849754032432  0.1671305198028479  0.5005631206190562
  0.9161184231334007 -0.0020799629299676  0.4163863410082191
  0.8328447106950719  0.0831136088731955  0.4168190110463209
  0.6666120390361917  0.0001289007463969  0.3330748237879154
  0.2503454073206233  0.4187238406869451  0.3321457650924343
 -0.0007930862390899  0.7491615876395269  0.5819431668800710
  0.9142469221712771  0.1672149587706254  0.4179312406757998
  0.8307849358803890 -0.0007299409844258  0.6661826194268522
  0.7475905540522824  0.0854190288411357  0.8323287311739462
  0.9138807392900551  0.0834088879478177  0.6660077123073829
  0.8312157504356991  0.0855742928528509  0.0846129864595582
  0.7476219461885072  0.0849147113411197  0.0008249475439884
  0.8306691816136329  0.6664195994859016  0.0012542555670152
  0.9148846026893703  0.0834843401951660  0.1671638269885197
  0.7484161998780434  0.5003454553341388  0.0845501324596437
  0.1668063722447592 -0.0026533388788353  0.3324893838884765
  0.4182450766367592  0.9147215402726637  0.1662603128719834
  0.1673228203190127  0.2518686035275626  0.7509176797233483
  0.4163819286618036  0.5006840754711442  0.5825540156343462
  0.4164614290849958  0.5012547514192273  0.4161147592598800
  0.3334412211217885  0.5841461118932653  0.5825474075159517
  0.4161217426908428  0.5837632449772781  0.4995457571617161
  0.3344785214442220  0.5836082649832655  0.7490512340916531
  0.3337531702461144  0.5014084160742861  0.1673639202122517
  0.2499844726428252  0.5827979734027409  0.4994773647121696
  0.3344118404019242  0.3350420188922257  0.3319999577662121
  0.4174367145196887  0.3343488474694419  0.0837462312239467
  0.4168880394291042  0.9160677291273889  0.3332463340956781
  0.9166671532370907  0.6653275525509695  0.7492482576614046
  0.7477485267240327  0.5835563564967127  0.0013543121027590
  0.9150556945981900  0.4187134454703902  0.6672028339865401
  0.8316331411893544  0.6668174687851248  0.1670894201916997
  0.8317241491808989  0.5010298759916845  0.3322848160858391
  0.0820259244028252  0.1669984184389776  0.2502242985851658
  0.6654381411690964  0.7496364483488860  0.2506692930968917
  0.8296013341851245  0.8310777826420871  0.8318173086996987
  0.7474991176045089  0.7480936679013572  0.8331298517698569
  0.0849626599219608  0.0866488192601225  0.0014864950904436
  0.9154929652760641  0.7489051327192146  0.1675433685782091
  0.1679368861141305  0.0842960624293525  0.0848807496749701
  0.9158479333070897  0.8327050653570141  0.2501539892587157
  0.9155133682769474 -0.0012355947931245  0.2494602191282580
  0.1688747282332915 -0.0002029312829801  0.0058162707150617
  0.9145465409430688  0.9162642275182724  0.1662136860093117
  0.1661758494170268  0.8320717801517327  0.5002596774507019
  0.8315249085119176  0.9152219405610429  0.4159110950495994
  0.1672514938503661  0.0834699045414752  0.7488388950562670
  0.9157596771441159  0.9154594025495553  0.3324923900478191
  0.7467762666762242  0.8316020614591249  0.7493881584956519
  0.5812363775790196  0.6670151440678042  0.7492930827431643
  0.8319712268372235  0.8321221449303920  0.6654885164607972
 -0.0022681265951940  0.1672127634620253  0.6667249225532095
  0.9147319815626587  0.8300968484437463  0.7483207562806679
  0.9156746430156782 -0.0020071985265401  0.5838478785881335
  0.3342530514941600  0.9154073494761339  0.7490872222296191
  0.9156431134026410  0.6670155856799607  0.5819963862201599
  0.0833123834839720  0.0842207702872992  0.1670002936406880
  0.9148913639945591  0.5835988741884295  0.4986698205225262
  0.8317280445676594  0.5008170300869305  0.6663698978703738
  0.8324428300069630  0.5843119407711040  0.7499571471750369
  0.0832449001734557  0.5012635771012189  0.0823063012301134
 -0.0009011171427573  0.5835959414666174  0.7499560878179738
  0.9144040423759973  0.5020400016480507  0.9175428760756791
  0.6645350157008505  0.6664623276550173  0.8318639638514046
  0.0840559961239178  0.4194826462140840 -0.0013857216080502
  0.8310893536419833  0.9160745101938444  0.5829162985866214
  0.8291774306507682  0.0026053545738301  0.0016047864840001