Cr N  Ni
 1.0000000000000000
    21.0211724039904944    0.0000000000000000    0.0000000000000000
     0.0000000000000000   21.0211724039904944    0.0000000000000000
     0.0000000000000000    0.0000000000000000   21.0211724039904944
 Cr  N   Ni 
 259   9 605
Direct
  0.5843710683801207  0.5051423448933596  0.4223106628660309
  0.5011183903946144  0.2535597379035506  0.5842104684782794
  0.8364214827987330  0.0045244511694524  0.8361260208230726
  0.5004507201867671  0.7526973315597518  0.0852256593750279
  0.5849565275508047  0.4186034782610620  0.5014309735396822
  0.8396235082752730  0.8382759265466585  0.8360697069273541
  0.2536816312244716  0.9192936905466724  0.5005214012818626
  0.0857557146691751  0.0854011525973478  0.5004187915875200
  0.7512211775515678  0.2531256565453553  0.0010088235302759
  0.0849695958530091  0.0009757506022076  0.0862874509981975
  0.6668583986663639  0.5003005952848523  0.6670045049508915
  0.5834657774170285  0.3336046927724473  0.9186080537772263
  0.5005141307986172  0.4188179342486765  0.7518206021623283
  0.0031752573096496  0.0857725356619671  0.2519989191895733
  0.6676790440280133  0.1708349069359002  0.6691875789638454
  0.8341026864179687  0.9202062086120600  0.5850094742888634
  0.0876396394553483  0.8281428782450229  0.5857943502496450
 -0.0024556600963497  0.9195721507018155  0.5841162064963252
  0.5841835849992053  0.6697425968334009  0.2534520630508935
  0.5839541705441181  0.5863091966180864  0.5034198828948998
  0.5844764479482039  0.1685274715531081  0.0868074687615522
  0.9201952435820751  0.6723318839809975  0.9199840834440263
  0.7536684888809836  0.5009797406228275  0.0949065855238055
  0.0015124640519092  0.2525303076337439  0.5847866251093251
  0.8326839815789865  0.5859120244951610  0.7444494192979945
  0.7498524062381732  0.9214774240047460  0.6680911262984819
  0.2523128126944876  0.7517723973712153  0.0026643560666715
  0.3356250641408212  0.5864074378492850  0.0854434510714412
  0.9183476553837346  0.2514694867658908  0.6674950752253174
  0.9194591950998233  0.0858219608982643  0.8359249790323908
  0.5006993280773390  0.8357224012071677  0.6677477112058146
  0.0858956141144179  0.9180083778680024  0.4942276730563868
  0.7502484649351491  0.7563684292173483  0.8356390527429284
  0.5842188337996906  0.6670691701101369  0.7515511749296913
  0.7515042438840379  0.0829003405227858  0.8340241596268818
  0.5012957196497281  0.1667422212324607  0.1690306049927495
  0.5828875326560226  0.8368298950939604  0.7504046762106040
  0.9184108422491752  0.9192627895247536  0.0025687661560162
  0.9184026023015038  0.4185755031922034  0.6649990662099005
  0.4179329161440214  0.8349586247923904  0.0852769129991872
  0.0014105369778472  0.3330119402102457  0.3342065347737426
  0.5021634186930477  0.8367597155580291  0.8351865272659673
  0.4182043688341080  0.4192411658655861  0.0015334651556064
  0.0020444475573425  0.2503518291507340  0.2530601231508373
  0.5817977916226245  0.0052360494252609  0.7493594384952185
  0.4995794749261862  0.0045974900826272  0.6676624962749071
  0.7477527044538397  0.5796664517912614  0.8349297679395579
  0.5780194491678389  0.4189866083868243  0.3366063386122088
  0.6657941401620465  0.9207098737155731  0.5836163635140248
  0.5008421506206862  0.5034025829245345  0.3355041144591650
  0.5025617792730875  0.9210504931010219  0.2535100727957091
  0.0872974790432760  0.1688317905031456  0.4195674288981833
  0.0834282482214400  0.5842118574946868  0.4944658254817669
  0.6592523720470270  0.6684881064389232  0.8343773235744499
  0.8349376901623370  0.8373579891342526  0.6671735816224245
  0.1678637406277255  0.5856618331267619  0.2536728136461422
  0.9171442250314753  0.5022591733021501  0.2521865650050285
  0.9187987059188371  0.0864250739410400  0.0034331891593901
  0.9172840015134126  0.6709962977247392  0.4193175357795740
  0.0869719140469460  0.3341889256129950  0.9186834316870830
  0.0851321915834034  0.4202075027683054  0.5001875037738203
  0.5836682858841638  0.0061856844356696  0.5834582037292992
  0.3354835570785232  0.8359532289798847  0.0024508759314430
  0.7519339601706612  0.0875290376049567  0.5009936628925242
  0.8350441634140058  0.7543872483671279  0.0847086650650375
  0.0021332662181558  0.5877538343754662  0.7533531442897876
  0.3350274161384115  0.9188380424161969  0.4199707462375570
  0.3360547651349328  0.7523080431105620  0.4186889507688681
  0.9182223087931485  0.6709180013168971  0.2526054024393286
  0.0865442768265786  0.5864815088641446  0.6738639093986044
  0.7506948575132774  0.0859763368935586  0.1704187302108121
  0.7502792888561747  0.9196105253996270  0.5026320564975405
  0.6680523540655382  0.0035002201556908  0.3362621579026485
  0.1675637216186288  0.7539243997493771  0.2537172336464198
  0.6673193480320594  0.0041614049857265  0.0037582202122774
 -0.0033480081863804  0.5852020017373069  0.5827707255701193
  0.3354888248992059  0.8345284938349868  0.6688342665216090
  0.5022175413931081  0.9206101773224599  0.4208313939824738
  0.9220806417460190  0.4159351209052925  0.8420290406520332
  0.5830152306115819  0.0870988831400045  0.1694445214545533
  0.0855680230149911  0.7527469436264416  0.8368653315373006
  0.4998299706948304  0.5003298296924379  0.0025652643482318
  0.8342823902939979  0.5009405921385838  0.6675323276167463
  0.0868320459308250  0.9189445716999610  0.0038651599169316
  0.1742056750659544  0.5867167955335137  0.5864616570262066
  0.8313183567354001  0.4183079491879376  0.7508173390521611
  0.4191954454915284  0.0015319073091712  0.2533679206524360
  0.0017682010347043  0.5015519216938521  0.5000010131893676
  0.0861436442378274  0.6762920360275227  0.5874255608371068
  0.9188663595101034  0.1659446097011838  0.9198650256577315
  0.2518214624782688  0.4180746312458086  0.6698441633186404
  0.3366468692319692  0.8347650818883358  0.3344805339670833
  0.9176266740040651  0.8401829285673990  0.9195349060384096
  0.8358736505745081  0.5896858046560942  0.2519569483552731
  0.0086580889562087  0.4173110419209171  0.7539510715187173
  0.0882253394188511  0.6697964083462720  0.0867406104159442
  0.5016315612467869  0.7526073813752708  0.2531460001464682
  0.8373081487399466  0.2499116105586296  0.2528423127027460
  0.6629198415356542  0.5005855027750028  0.0032375556139012
  0.0862620948861483  0.3344407734549159  0.0872242902990850
  0.0010310983578328  0.6717913691403078  0.8367763528750932
  0.2551266107815379  0.7524726182825348  0.6707979734732606
  0.4175727066168951  0.6698762529010275  0.0853517433321467
  0.2531294974541251  0.7520211634681963  0.8370077895527696
  0.9198546004016456  0.6720592368302811  0.0864860265631884
  0.9268910687465723  0.5858619252773827  0.8380468530867979
  0.9198059703571690  0.5010577205230899  0.0853309014720166
  0.4201736515962108  0.9195403043730304  0.8350825711901876
  0.0859138344074163  0.8380362081985574  0.0874668334195576
  0.0865617661622540  0.5021856093935115  0.9194794471831110
  0.9186930916282048  0.6696110285429131  0.5850530042259153
  0.4185379193041858  0.6666338451223922  0.7532603110509056
  0.8355193183929339  0.0032220233452600  0.6665045457915526
  0.3341259787745911  0.7540700356805951  0.9183875602124110
  0.5023762805263291  0.7530043843566128  0.9186364498020436
  0.9170444379650048  0.8371982205350033  0.4183765785702778
  0.7501214008179665  0.8362680640134681  0.4190708191653612
 -0.0008200202839597  0.5863887328440491  0.2533832245605364
  0.8356071140135826  0.7529341982542507  0.2526825730109484
  0.0851633280281736  0.4966831824537884  0.5853880757934030
  0.5014764394632832  0.2511481670513130  0.9207674477385018
  0.7504229982430581  0.0055614918106932  0.7489100386466234
  0.5006422301422269  0.4186744189351069  0.4220334813253425
  0.4181873200907081  0.7535171262128786  0.3367203060481381
  0.6682600559922161  0.2496552424119496  0.7515094400652389
  0.7490079001724457  0.6710765787511672  0.9275899897708719
  0.0021683600311254  0.7539325895494248  0.7542152698643622
  0.9190816646351674  0.0858348736440102  0.4998143002895414
  0.8369655762515685  0.2507263125957133  0.5858449891960854
  0.4993211380878620  0.3330487566242916  0.5022010914767624
  0.3353292779141613  0.5839533141450068  0.9193868913497605
  0.5821859829830786  0.5041629342781881  0.2518253542368715
  0.6681907757897421  0.2511486552729051  0.2512540595460059
  0.3361697945968628  0.2519636118510842  0.2519189614861363
  0.1764394636893274  0.9187994781637142  0.5846992652834130
  0.1684135274573526  0.4178650163637683  0.0867047026478641
  0.3364008809928275  0.5850851066510608  0.7531818462308459
  0.5002612407065820  0.2510546888034824  0.7527252886391175
  0.0869884323548851  0.0086418603779409  0.5849948167501517
  0.2531719289498680  0.1676057344155985  0.9190998019694799
  0.0026466838991454  0.9199919628687357  0.7543256959671230
  0.1694055628951730  0.0834790556237002  0.2530004683992964
  0.0864550863544601  0.8379519668974762  0.9203149218356892
  0.9218147357269989  0.3319282442829040  0.0861980775196391
  0.6681933827397539  0.5006464178412713  0.1618665047569030
  0.5001946123755944  0.1681170745831266  0.3351762918398309
  0.6681918769214308  0.5069457246430185  0.3394862624144188
  0.3343346837490908  0.1695359109383971  0.0024061940518309
  0.0015118914363913  0.0023312551498879  0.3343789005451622
  0.5833750469561518  0.0871983171820074  0.5023594944396504
  0.9189650606101275  0.1659575675078484  0.2517890057255239
  0.4178292867640157  0.6677091730095129  0.5854733344418095
  0.0037664250410272  0.0846325927753877  0.5843452882882014
  0.4179128206135544  0.5856755599429055  0.3355176477936804
  0.4183582133138989  0.4180315039393397  0.8361089944427753
  0.0029215223740359  0.2502938983897155  0.7531393019608738
  0.8377442368464528  0.3320288910130223  0.3367171042392091
  0.5849382270835366  0.3338126656459798  0.5853237231173791
  0.2550961470912911  0.0012072842196559  0.0858319486006794
  0.2518314934834108  0.0869435888696128  0.5017274542854419
  0.3356305569616395  0.5853042234854331  0.5851164044715497
  0.1697269616917580  0.0025682110841923  0.3331974437482472
  0.4164205144811098  0.5864356423308015  0.5062644225795065
  0.1687465356142853  0.8344696470313088  0.3339356851782804
  0.5015974690382181  0.4170012296277142  0.5827786489826725
  0.0870478861006455  0.0853091992841815  0.0032763736640922
  0.1700229963321357  0.1679932969622240  0.1679737223650307
  0.6679439445559041  0.3321668295629985  0.1687580778679479
  0.2519545830151216  0.0020920591900589  0.2545073675538612
  0.2515970219424885  0.4180484382100816  0.5012288738123010
  0.5841853545150897  0.4169989146882389  0.1702824737483852
  0.0869811892041663  0.0862686599362105  0.8354313951238578
  0.0851040976790305  0.1665126625584318  0.9196165281370789
  0.7516188270588903  0.1681325112663777  0.4193802352554399
  0.6694443173212683  0.4120198072493338  0.2479089461924466
  0.8358344110599408  0.2486105768394757  0.7509290296223381
  0.2504840827524842  0.3376753057215663  0.0884975113992777
  0.8347538989558864  0.0017135094173801  0.3344431670017937
  0.8355499565344370  0.5029117318526751  0.3355914450536021
  0.4170433027790963  0.4187094377071767  0.1677683407958053
  0.3333606992969919  0.2513414668541134  0.7531856221865124
  0.4179812772521094  0.1689053974808451  0.0861066062205839
  0.7509580703810179  0.3344613744915342  0.9181655680510304
  0.4186164596819077  0.3360492677728567  0.9189194007980854
  0.6689086213187554  0.4173926111751335  0.4262662593745996
  0.7517842393265948  0.3339769751188671  0.5855945901340806
  0.1690829286520641  0.1696511353270164  0.5027879853586726
  0.9188865968761590  0.0876318648318739  0.1715170433249342
  0.0030280887007689  0.5013218491661290  0.0042216011733007
  0.3339627144457156  0.2518389127476862  0.4169013968920006
  0.4185041613792800  0.8353239233486660  0.5857203644408826
  0.7522404058565045  0.4094940527761034  0.0028769296936811
  0.6671875342480711  0.5836428109078166  0.7512997147477133
  0.6669972154213146  0.6722605912102255  0.1679243218050517
  0.1676547062868260  0.5864445475217029  0.0855422555581869
  0.8419805568408878  0.6734315927019963  0.8382438022052823
  0.2540958405099183  0.7514589450464366  0.4993054337135613
  0.1684009519140744  0.2537870653939814  0.5852492226342524
  0.6676058341433082  0.8359793811790185  0.3376277654624096
  0.2533032982621510  0.3366995235017830  0.9189572692901916
  0.3358479131625592  0.0009679376769043  0.0028985963215212
  0.0859146556672092  0.6699550426055740  0.9181314698415723
  0.3344661135827512  0.9182774368090765  0.0860990165903854
  0.7511247371337006  0.8382086602577141  0.7434791097038063
  0.2542368349072547  0.0024055412099522  0.9179924451860579
  0.4198219471857003  0.4197004075252077  0.3370258030715947
  0.0033403333685443  0.2519585063191172  0.0853429714880400
  0.8398658270880094  0.5016377053442321  0.1658745058002132
  0.5007634445479355  0.6669450112579716  0.8355907518431817
  0.1690792487553254  0.3360577579235084  0.3344357681008744
  0.7502480511694218  0.0871543598259054  0.0030207675042194
 -0.0002799635225459  0.5041462287071745  0.3337325935601032
  0.8428918796797866  0.5002843450705776  0.0040828060959658
  0.9190896151155112  0.1668807174050802  0.4201182544280299
  0.1705477075467178  0.0865070997946592  0.5847902428770163
  0.4173240291841688  0.2503845111408537  0.1694260609791236
  0.7513817298123302  0.5902394943915128  0.0038359852794307
  0.3344466160184967  0.2524682777713108  0.5851018857960067
  0.8366233508015296  0.1692957054054707  0.6675855337091640
  0.0864160220672572  0.0851893278269745  0.6677954992227700
  0.2532599204550950  0.1697431082348744  0.7514988214957926
  0.2533440572045077  0.1698419288400918  0.0869374272511126
  0.6693387841565015  0.2486002353847201  0.4188004237662884
  0.7644154223720296  0.5047141721718169  0.2485014571391372
  0.2531405450940292  0.0861487033221605  0.8360686334893773
  0.1688391605525608  0.3342258812706591  0.6684118000090687
  0.4186208809414145  0.0863928059157789  0.8359828697879403
  0.2526421774519533  0.5018590220834805  0.4177464332492173
  0.7534708881182445  0.5872251993886498  0.5037787472939481
  0.6672471047257351  0.6694469552448403  0.0020045199457728
  0.2543740192615168  0.8350155130677173  0.9174756396156547
  0.6662616659734393  0.7523280928737991  0.5843946215183315
  0.1713082910145982  0.9193983424745585  0.7537815452219602
  0.1720942712994238  0.6712025130874686  0.6703796423400137
  0.0864036135687149  0.9185590947240496  0.1682862072294135
  0.4178011122286665  0.0034545257592099  0.5866305446871592
  0.6673634845538036  0.4176807619273249  0.7509325276923812
  0.8334269643075305  0.9204537702496873  0.2533837693376799
  0.7513381093648649  0.9342238544334963  0.8319008919121333
  0.6593947704364129  0.8382450639507532  0.8327993538303911
  0.7494425011255754  0.6685845830472023  0.7468055551044822
  0.4171427253003100  0.0002188093020280  0.0846989901965477
  0.5823477469519979  0.1696887377780227  0.9204962407088604
  0.1692886344837361  0.5023167202100909  0.8368222277237128
  0.3358455273350011  0.0039932696733119  0.6687192945248406
  0.0013488052340875  0.7529522808631590  0.2529715394146647
  0.4170193884347015  0.1696855737237178  0.4185932723069004
  0.3356440354664293  0.7531996608044010  0.2554999699897190
  0.1684313983933182  0.4191733620285951  0.2529247202523423
  0.2524255037538008  0.6693642593403711  0.4180425667533508
  0.2503240419697579  0.4193831655330710  0.1692225014585935
  0.6672813341769547  0.8371194568509384  0.1692461187476932
  0.8346309001332060  0.9207353190361336  0.0865522568611976
  0.5840591727067229  0.9204113102920456  0.0033792264170893
  0.0849163751361924  0.7523812184995327  0.5010946764090736
  0.7495163788197713  0.8387757392563898  0.9244620804814938
  0.5841699169605659  0.9202079618350929  0.5029077145235294
  0.5836075756628041  0.5848994144746716  0.3374656364594439
  0.6669142680431146  0.6698623772593859  0.3369418916125835
  0.6735350760505504  0.5036724408414218  0.2494353802058382
  0.9199399249537398  0.4170294430160615  0.7536090019890550
  0.7496073619614320  0.8459667945330570  0.8342119792128743
  0.8386768797706016  0.5822539388824473  0.8328624350951164
  0.0857186248706139  0.5868801076906274  0.5844746572566465
  0.7493632832433053  0.6683929849979399  0.8371907612289858
  0.6676664594271885  0.4158449169268322  0.3386639120273099
  0.0868934156256367  0.9174947986660056  0.5841297360672578
  0.7526758659706834  0.4996171936695312  0.0038831004864983
  0.0862727442455590  0.7538820611723903  0.0018780221857583
  0.0013059623678747  0.8362388078275493  0.1684883760578298
  0.0008172696410605  0.8354666640706393  0.3352385086557608
  0.0023035245656145  0.6710128264368748  0.6698015910259004
  0.0033047896279788  0.7535396968737732  0.0850583986363259
  0.0040098687752603  0.6713121153342269  0.0031954462499590
  0.0848994241706519  0.5866583309448946  0.8363265833711131
  0.0022483692058142  0.3356224589666097  0.5019151493027181
  0.1700098126977348  0.2512746745448202  0.9197475224887338
  0.1695211843464371  0.3343755138025001  0.8369163888728037
  0.1679614463286758  0.5031856597359332  0.1695355447536805
  0.0016464254422750  0.4184557839756498  0.5844550085341271
  0.0871731416107819  0.4175154593393330  0.8371583421358579
  0.0021834591516876  0.5018670790027169  0.6681643982199021
  0.0040775426291330  0.3324124322058949  0.8370374776765882
  0.0019459037619731  0.9198883873209415  0.0856085133922688
  0.0047329760292038  0.4172753780713689  0.9205383865224535
  0.1695082261075756  0.6691827915770034  0.8364209702524740
  0.0867892652329180  0.6699141195138264  0.7535982452363094
  0.8335496809593148  0.9196608350438360  0.4184978487417497
  0.0853737366228209  0.3364844350144623  0.5851623757820876
  0.6656806765429076  0.8365381885769967  0.6672643794269092
  0.0010449520852664  0.4184818373001637  0.4170588748435923
  0.6670957120913034  0.7541882924324099  0.0856948329643205
  0.0023556912228099  0.6711177892031318  0.1690137697870392
  0.6647326262956182  0.9230592163106540  0.7494971125040606
  0.1682802948822716  0.6693870779764806  0.3348361677252870
  0.0009169361365389  0.6703096733971797  0.3357383592581810
  0.1716235274957767  0.8343249120342183  0.6702558581946750
  0.0003591586832347  0.7534009091625149  0.4186462925906368
  0.0004131909522326  0.7528320619398903  0.5849374520912272
  0.0008587508998047  0.6704684071459114  0.5006157851401593
  0.0848732495022341  0.5864123925087108  0.1696441411814771
  0.0853791276774720  0.6698207252566508  0.4182067974523547
  0.9196600148418715  0.7557045749760464  0.8362115154546791
  0.0858655382602270  0.5862548552790003  0.0033527443286474
  0.9186482389002311  0.4183873958987054  0.5014203213270360
  0.1678113087913155  0.5858144872463656  0.9190196364186750
  0.1687590434161516  0.4181073471980490  0.7531293180273098
  0.2526372933801020  0.5857257312206684  0.8365593381026124
  0.0871521247684050  0.2514425115597416  0.0025958728433006
  0.1703279108955078  0.5017208399702489  0.6700495571176220
  0.0864082945436802  0.4176860558947833  0.0030983046000365
  0.1688209204247109  0.3356094315976813  0.5020057993870545
  0.3358171594503969  0.8355530574508383  0.5018852203211517
  0.3348378044696725  0.3352135652431353  0.5017700775203078
  0.7515227297686145  0.6720431820082420  0.2517319462086352
  0.5844141506878994  0.7536332091588580  0.1695589983848417
  0.7496092451331802  0.8370044961608655  0.5848858093491012
  0.7535269895082488  0.5901464533145714  0.1666413520204696
  0.7508159055429134  0.6717819786751874  0.0851257959702828
  0.5840828888825643  0.5878365447357609  0.1681255652664052
  0.3348491563685880  0.3351335389658094  0.6691577193847115
  0.1686527868462674  0.6693278052406318  0.1699427243138897
  0.0853180847642833  0.7529803913939351  0.1697422941796911
  0.5836200359741484  0.0039741152971095  0.9200066622442522
  0.1699356168160117  0.8358136717780602  0.0025389573715418
  0.0855223098226222  0.3354642276087960  0.4175041714196044
  0.3362780581699245  0.9189414188927484  0.9188782202427312
  0.2530703446782722  0.6689163402856799  0.9188431580560066
  0.5843900891704417  0.0032275589895693  0.0865849593173237
  0.4185492647566135  0.9195110722180739  0.5026949064542391
  0.5836828386367251  0.0864812339311473  0.0036743822757209
  0.5012145058408670  0.0022431945993177  0.0031061946470613
  0.0844860432093062  0.5863318869061430  0.3352064343699784
  0.5006673652321810  0.0021737763230361  0.1694528972588834
  0.0865596994121876  0.4183276515902576  0.6694466599526793
  0.6675472770312404  0.0036371101299691  0.1692389861155785
  0.0862093946282668  0.5026753921654342  0.7530282939611924
  0.4181710454179994  0.1680669199506473  0.2528519710185880
  0.6663776863446403  0.5873683179205819  0.0863059796768290
 -0.0001661421399491  0.5860003871450583  0.4177765322292741
  0.0851898012140092  0.3347614185203110  0.2533499997802158
  0.8350403215228167  0.6702517681898135  0.6670087515213143
  0.6671020820939603  0.0858657445704147  0.9196338075404092
  0.1695798648416809  0.5014641854830583  0.5007391022840902
  0.1702843262867079  0.5853525957544942  0.7540542358480666
  0.2520202524417671  0.5013564562550892  0.5858892299968366
  0.1692879762321144  0.7536372714244064  0.9194968431770528
  0.9191923798258964  0.3284456674767225  0.7520951038483700
  0.0847724906396061  0.8363754940373486  0.2520788285351007
  0.1686786336715030  0.4189646310217366  0.4176419679926339
  0.2512433611596490  0.5027289503696368  0.0866118980339346
  0.0856737823158769  0.8352053668078909  0.4169855070911345
  0.2508084209792792  0.5864882101530483  0.1693853423496924
  0.9205308489009344  0.2501863642167306  0.1698060729664301
  0.1695560744888844  0.5852940643331966  0.4181993368471814
  0.1686350283798455  0.4179408514087611  0.9200990958455995
  0.0849022382411943  0.5011485278373919  0.4166305531275187
  0.0025979870752387  0.2514812525508341  0.4182949139323710
  0.2523901794563082  0.5854824102858874  0.5016044609636591
  0.1687802845908769  0.5027114336285444  0.3347414196345322
  0.2517109721561436  0.5861571077585939  0.0029143435207840
  0.8349665193920559  0.2501368678688801  0.9192024180012719
  0.0842979126216864  0.4183937243466250  0.3344581143463237
  0.5841273504314741  0.0857673060572464  0.3354311234712085
  0.4999877317146433  0.0877783691798879  0.5849213424229078
  0.7512569693318619  0.7541725600075666  0.1693061237528691
  0.5828550614790226  0.0879307853269331  0.6678366022280164
  0.4174324106591684  0.0870598089654268  0.5021458935995141
  0.2537188375252797  0.9187338426490613  0.6695441149473079
  0.6674656265967803  0.9194737664623833  0.2534370424773023
  0.4195853751916426  0.8357513939917970  0.7516762987269360
  0.4992490600376601  0.3352078575435515  0.1692625706150400
  0.3355621092204116  0.9191566112547827  0.5858856727817064
  0.8346030611946267  0.1680002191366283  0.8359194960681332
  0.3353680291805461  0.6690071611835572  0.3354610541843471
  0.9186956777017430  0.0038988100448169  0.9211249770539922
  0.2524544225330052  0.9188096891295076  0.1705053112243406
  0.8350346455309441  0.3328609525965739  0.8357972774805189
  0.7516524972137179  0.1678519524894200  0.7516175724237931
  0.0851970338520256  0.2529282690822224  0.5017791651930806
  0.0860185166926761  0.2516083545650820  0.1695827087955148
  0.0023926178154225  0.0851622252070689  0.4179109420537360
  0.0867940332441581  0.0024516518364795  0.7522059200719753
  0.0856881413417984  0.0854209594132239  0.3352506976164662
  0.1690422864728390  0.0028775026658203  0.8363940983184577
  0.0020172184269904  0.0020976965862263  0.6695894007443085
  0.0026759150947436  0.0848444717808055  0.9205012145982232
  0.0024286760832952  0.1692002984723999  0.6680600293380153
  0.1709723043613972  0.0846915354737629  0.0857057677106281
  0.0862998031161498  0.0033003952629349  0.9202124546285314
  0.0867515188888106  0.0845043126079973  0.1688992794292380
  0.0028823586340177  0.1676598906042841  0.0029698325128635
  0.0017224967039077  0.9196596423621105  0.2523756869822940
  0.0021154102526523  0.0852485915420494  0.0858147962254801
  0.0862221384365710  0.0023143079994411  0.4172527576752356
  0.0859176501192115  0.2513609896988076  0.3350097293891996
  0.0011353236992889  0.0018852391403151  0.4997360374515630
  0.0855545786853348  0.0018599061225384  0.2519060722639347
  0.0011063699754578  0.0021343050550906  0.1689214660052621
  0.9202817948874681  0.1676191231511929  0.5839823940081557
  0.0043309504110180  0.3335774837707483  0.0019754648653591
  0.0849666805163184  0.2518101087476144  0.6680481632916031
  0.1679520128496842  0.3345666811482644  0.1709908831306726
  0.0869082327290406  0.2507096791296752  0.8370021604889853
  0.0852227639149138  0.4189924755971486  0.1701795348295047
  0.1695125691248452  0.2524065422508960  0.0854975258697767
  0.0864135459242083  0.1678472637894996  0.2522227096795635
  0.2517868143406665  0.5028271371148468  0.9195165197767483
  0.0850564456169749  0.1689400391872702  0.5854449675305722
  0.0861311499096934  0.1686263384587980  0.7515572699617663
  0.1716861750868521  0.0028042346336327  0.6701378999825282
  0.1691009833973918  0.2516296437930393  0.2527161902994592
  0.9196457316746950  0.3324797587789778  0.9182081829669229
  0.0039632425376588  0.1682209004967375  0.1681125580096533
  0.0036016455809067  0.2498126921481180  0.9198115524088978
  0.8353293768560105  0.0860020636967989  0.5844708149389573
  0.7520575968490045  0.3335650188208534  0.7515529559933093
  0.2507851290478539  0.4188471297589165  0.0032676490870664
  0.5014341517028639  0.0024346896043871  0.3365437271528375
  0.5011571836099363  0.8360331185140757  0.1694715741809135
  0.0039170952906984  0.5863841668489724  0.9219674037487228
  0.6662526345426327  0.8388663790391122  0.0034643353940235
  0.5838536427508457  0.8365178952554805  0.0862715224793543
  0.5007938454481135  0.7516116674296680  0.5860816555854859
  0.5829461608026734  0.7525205633527003  0.8349130858932123
  0.8348891555171740  0.8360446278605008  0.1693527793012087
  0.5837650851208048  0.8377727027429080  0.9188679998900116
  0.8359945233903436  0.7554684059161609  0.9217334215280794
  0.5008608767001163  0.9204530336339215  0.5854392698175851
  0.8359963197900792  0.5860479180238073  0.5852521036388536
  0.7509919897603450  0.0045463132305895  0.9211909869302143
  0.9208087673237542  0.5876091603943846  0.0036607403906037
  0.7515812795421404  0.0870751387886702  0.6680194819580043
  0.8377374641214325  0.4166532272808852  0.2513590712837274
  0.0022475708467476  0.1678500380927285  0.3355253273307058
  0.9174201845443285  0.5867117871269533  0.5006828446171628
  0.2522057062046741  0.2516025963468207  0.8368632523329619
  0.4175829473643162  0.2525756377618140  0.6689601550683115
  0.5005477438000639  0.6707410143407897  0.1694934414865210
  0.3349363879794048  0.4188032749658190  0.9194857531138568
  0.3360082749380628  0.5026799244823517  0.3352886069156316
  0.3341142445053815  0.5016644550096792  0.5021914214182448
  0.4170769653155500  0.5011403620446582  0.5857464508079506
  0.4997845593230244  0.5862453694368178  0.4205782819284105
  0.3352287909765349  0.5018383314449064  0.6692723965845099
  0.4181157895107055  0.5847256797707138  0.6686511168187965
  0.3347704108509761  0.5017192853932950  0.8363067633796446
  0.4186041337238040  0.5836430096728267  0.8363693920744758
  0.4183629214209251  0.5011416472603165  0.9194473482796266
  0.4174052618810341  0.5028292883855477  0.4200457591149795
  0.3351157321173567  0.3353413481216230  0.8359532645568371
  0.4184857131803117  0.4179545928832429  0.6694257816180195
  0.4182979590114311  0.3352731101833880  0.7521151498739423
  0.3355638512533002  0.1695646376913464  0.8367797256882029
  0.4179799456800485  0.5019696502074095  0.2517369588081727
  0.5836545828360205  0.2524385706104360  0.6695343525126517
  0.3344804237540161  0.2531572539614033  0.9198192203243565
  0.5004173385643750  0.1700508750902811  0.8361063997562826
  0.5836356275204732  0.1701192622776570  0.7519781141135319
  0.5834318022896273  0.3342047140482117  0.0873527230105992
  0.5002913312579091  0.2518744635934396  0.0857839680357794
  0.6678663860694554  0.1686848002689990  0.0020684142670269
  0.5849538739104204  0.2518867360555463  0.0033075017503162
  0.5002250468746487  0.0851689109542000  0.0852680985499184
  0.6678176781048185  0.0860184859125160  0.2522209011504339
  0.5832070318417888  0.2505647308382089  0.1690092955643877
  0.5842159264704535  0.1688658622452411  0.4180750915027193
  0.7524390447027759  0.2512590768029886  0.1698286312818151
  0.5003417916594693  0.1701772257910399  0.5016378130312101
  0.5846901230518994  0.2508067407070028  0.5013870102108867
  0.4174511320959978  0.3349118646357508  0.5861690142624491
  0.6682147427909729  0.2507446291189792  0.5859391162211104
  0.5003811014811136  0.1709382109548133  0.6688708058671108
  0.4174152761379433  0.1705275816342365  0.7524072362062866
  0.5840868979905260  0.1687219843105994  0.2518650005816885
  0.5006811195561116  0.3353637381063917  0.0025653934701341
  0.3353780441867355  0.3361858260177592  0.1695813280421440
  0.3358188571222865  0.4194436474409241  0.2518053620240102
  0.4998538669240553  0.2508953328859637  0.2516467990476637
  0.4175899147469778  0.3365066861186056  0.0863198447975853
  0.4173488211084967  0.2518403627108580  0.3352814409883522
  0.3347651440151519  0.4194016411481568  0.4182018182073681
  0.4161279773445938  0.2519473359313448  0.5017855499604917
  0.6701843214875973  0.5920274497784647  0.2505788408288056
  0.3334363730206056  0.4186648573036736  0.5854742888038025
  0.4174987075572213  0.4178281909101768  0.5024248012029552
  0.2520534006723156  0.3352515139560583  0.7521921020774883