Cr Ni
 1.0000000000000000
    20.9579132336804861    0.0000000000000000    0.0000000000000000
     0.0000000000000000   20.9579132336804861    0.0000000000000000
     0.0000000000000000    0.0000000000000000   20.9579132336804861
 Cr  Ni 
 259 605
Direct
  0.6710338892084489  0.7541469876765026  0.7539584086824689
  0.5871771819764455  0.5879306028062733  0.0053681439627253
  0.6689463028478230  0.6692528125719073  0.8366779091206603
  0.2532295551076177  0.9202750968245447  0.1703909452069987
  0.1712063832520261  0.9200615470344308  0.5871711364284963
  0.3363085354254010  0.4204896823418317  0.4191433760614380
  0.0890147719867665  0.9206692484813701  0.1707404934741419
  0.7546626150354320  0.4197611031057188  0.5033682848137725
  0.8373724725225403  0.3377636560575144  0.0061674810411294
  1.0052258394913276  0.3351229401103284  0.6697034788867716
  0.5875382059119864  0.8378142504483218  0.9212815816762077
  0.1709275520815168  0.5862873602157157  0.7537042577945513
  0.4217009348474500  0.7549805374391945  0.5031694776847054
  0.1692911302324613  0.7537451909529603  0.0870464283171404
  0.8370217129454708  0.8379530178673077  0.8393285800103113
  0.9194928704712431  0.4203179482513748  0.5041973283048605
  0.3373893438123310  0.4192995284642718  0.9224471874034182
  0.9196703273330863  0.5863664067918474  0.1718262608424784
  0.2530100459038416  0.0036968476939898  0.5857370405503950
  0.0883052763318326  0.2538116769089001  0.1704678237925882
  1.0031915127935573  0.0037534592605097  0.0045769464550125
  0.7535188011903046  0.3376567388100673  0.0872487126107461
  0.9201319462631862  0.6687524877668186  0.7544388961456097
  0.0876724518081858  0.5042385829819165  0.0871569780371168
  0.0873183722129182  0.6684683078763495  0.9219063697426098
  1.0030880598377361  0.9212607803696600  0.9200783666770725
  0.8378613742975792  0.1702753508761800  0.0042581465792568
  0.6706120582577937  0.1700030077762671  0.0034509200171455
  0.9210302524014228  0.7546597054252491  0.0035100741104717
  0.8368743411423208  0.2549737277962754  0.7554396615068525
  0.1695603144298441  0.1713366987984605  0.5028182933302972
  0.0873875060654261  0.7550441315626252  0.6713616161065772
  0.0051049974961263  0.3385435435287562  0.3363991999624597
  0.0879247911833559  0.1712529560765965  0.4195000041200663
  0.0874132880629396  0.5863001287877574  0.0037235736354189
  0.4185849584564849  0.5876888457903601  0.8374686092057976
  0.9197528200290458  0.1721980657010964  0.5869696771629231
  0.3367727422347238  0.1702568335535376  0.0024746197834791
  1.0044927706002615  0.5041792840801882  0.3381067007204074
  0.5022753778394465  0.7539790318444095  0.7530557257346606
  0.2517780337464208  0.2553523932961611  0.6690204596540403
  0.5044232201239062  0.2538918842912484  0.2534743283182344
  0.9201601349252779  0.5858189842169689  1.0038669357864420
  0.6701360497420343  0.5041491481868701  0.3370239843834381
  0.9213602211911232  0.3386156255548861  0.2535164164093438
  0.4200499399147715  0.5032880639990498  0.0867153833485131
  1.0029757297302053  0.8370382213140902  0.5047284662696551
  1.0025633656918496  0.7537172526240630  0.0869550105949223
  0.2527349088004182  0.1697475432530683  0.5875961654838275
  0.6706334712996258  0.4207969752666380  0.9223937358904734
  0.4200616004764088  0.9205487765757656  0.1691163858895349
  0.5877161628074211  0.5873088542583753  0.8372446530623685
  0.3365650346777352  0.8376664082256164  0.0040085086504122
  0.8354377827904452  0.3386540496771299  0.5046208967151860
  0.4197793159650275  0.5866278522899840  0.5027308761063787
  0.0868110694958380  0.7540490962125589  0.3375672454160938
  0.4205728470361094  0.4184807090662209  0.0052977297541441
  0.9200706252891993  0.8366966271358552  0.2526228856155483
  0.0030172843905363  0.9191611893655022  0.4188553976936671
  0.1705911417038409  0.6700353539251261  0.5033005201643185
  0.4202636308712080  0.7546848455084572  0.6725223982370866
  0.0879478016939858  0.3385163013717217  0.4199947628202959
  0.9210874388966671  1.0034690123373373  0.2537483129514562
  0.3369948837640852  0.0878133459724868  0.4186194812772605
  0.9199969549377564  0.5866379064279000  0.6703572657652263
  0.2547326437529114  0.8370427624868526  0.9216221419554161
  0.9196536259563035  0.1710892505158274  0.4207926649334253
  0.3348473659482643  0.2535865328227229  0.0878515654332019
  0.2533685023660445  0.1723835134251516  0.7528195762437394
  0.0871026714877691  0.5044934369599759  0.4182469445430911
  1.0042864692859506  0.9190136672240296  0.5865724374805487
  0.9203800030609331  0.6712347346754515  0.4204670332492504
  0.9205128820095694  0.7523795230603343  0.6720749201219078
  0.9200670374977614  0.7520506300614567  0.8364875057353611
  0.7542638171826236  0.6702169713777855  0.0885240048774681
  0.9205005198524768  0.9211197332659500  0.0035096824403056
  0.1697720981463461  0.4197082384870568  0.9211236783536063
  0.2538098480386133  0.1702716291942650  0.9206795958835083
  0.0037641532470165  0.0868150718069810  0.0869092772054853
  0.9206501681498058  0.8375708099441106  0.0876217502383580
  0.5043412044574851  0.1705768902271634  0.1703849923755923
  1.0030930729728584  0.0903626657246772  0.5879148674947577
  1.0025598491918808  0.6704719980734791  0.5038271598035057
  0.1706378269903779  0.2545799153683601  0.0886972346879924
  0.1713149728011075  0.0023212563801993  0.6694048697769409
  1.0049662101614567  0.3372028325042500  0.8377040276886953
  0.0043964571627753  0.0877388595569870  0.9223303822394011
  0.9204805067997809  0.6695027949459271  0.2542784624010952
  0.3362742037098025  0.0867387576230709  0.0862761466466256
  0.1716767601589570  0.8379328605191921  0.5040678332882335
  0.5034095282343015  0.3358311510556372  0.8375460257811621
  0.0868537901392904  0.8368180917380712  0.7521299076960675
  0.2545673371701712  0.8356559065758344  0.2546357418949599
  0.7544307139069802  0.7535350133408133  0.5039913910142564
  0.8369247238027154  0.3377371480259106  0.3354933659852806
  0.1706075091150210  1.0029396776747053  0.5043109987279167
  0.7533371569196270  0.8371729873284793  0.7536068754727434
  0.7543152885133984  0.2535259798410712  0.6724204438568239
  0.8362891425833414  0.3375477555438069  0.8369610440994661
  0.4215870429187587  0.5843710172094080  0.6698236311590005
  0.9198347132601101  0.5031146563533251  0.5887557651021705
  0.5063196555025375  0.0018902619879198  0.3363782781449844
  0.6707962809664110  0.7539660968894406  0.2558530812094807
  0.5045232664032976  0.8364560679912738  1.0036573599264325
  0.0869707854533350  0.0858662131137903  0.1705215265465162
  0.5876440212728637  0.9205434845578785  0.3360681730732356
  0.8373036063810153  1.0034608622927186  0.5030916812747740
  0.0865764757153580  0.8378059579710614  0.9192013414404795
  0.8359483602759747  0.9192226719845018  0.9218038302562882
  0.0877177696544797  0.5849792565926886  0.1700586201915399
  0.8372012139921801  0.5864108575375999  0.2537201766886822
  0.2548058302354905  0.5887708664235959  0.0011883142919744
  0.2553020135223805  0.6723352561467645  0.2552360048668487
  0.0045591411987999  1.0020324914283445  0.3392160637445049
  0.8385358872434210  0.1705995784564109  0.3376941828044476
  0.0025150831902219  0.8365930291883424  0.6721103584885725
  0.8379243231248694  0.0879171876389282  0.5861856497238317
  0.9213333291071807  0.2557873244835293  0.1713814552327250
  0.5034753428903004  0.5050775980995420  0.6696160512225795
  0.6697212190927371  0.9194624441501892  0.5889719728551028
  0.5881446038568718  0.4191503283836889  0.8373433591060048
  0.9192791569146058  0.0047659009271624  0.7553300428527533
  0.6713140039251418  0.0871286720360843  0.4186583573337692
  0.9192979488736825  0.2549218639025394  0.8376731322605729
  0.6710410962961892  0.1696683630721993  0.1700924016580118
  0.0875567988234207  0.6720130268494560  0.5867272188903726
  0.5024307775288719  0.7539148758607335  0.2545143085653039
  0.2531975941727916  0.6704879045425857  0.4210545439803308
  0.7539468263679194  0.3375880912705109  0.2538222750578127
  0.0044577189182973  0.5041338227988638  0.8367430789539814
  0.4213144347931784  0.1691218892677522  0.4194106724957334
  0.5022806714128334  0.6713992818584474  0.3363695297356433
  0.8370397023422639  0.5051059485419912  0.3367396185283285
  0.4197670018122974  0.8368598496542203  0.2538617600890561
  0.2545040392483316  0.7546437567507764  0.3366923682021244
  0.4217270706734743  0.2534819303322435  0.5030515149563265
  0.3372039079115739  0.9213829509608557  0.7538050887776138
  0.3379060526373462  0.7539142659865522  0.2545751692624622
  0.6718155724809942  0.8361654829253370  0.6720396670221513
  0.5879113049201086  0.0043493045189944  0.2538825057446624
  0.5878529152724215  0.1700520018615432  0.5872498352466355
  0.2534013489754927  0.7540542042650685  0.6695992816116533
  0.3375184970976471  0.2522337181953515  0.4212054288075720
  0.5053869702794003  1.0038937541673003  0.6696794602515901
  0.5868086224166424  0.5038382721003354  0.4196664716583566
  0.5052405316091303  0.0045806810802084  0.5054099256509664
  0.5036719879141143  0.1713332922751367  0.3360920840089888
  0.8355875828759958  0.0045907837648438  0.8362975141609225
  0.5874079910732402  0.5871057634406874  0.1716028595687459
  0.0866959833148202  0.0029449131308676  0.4203218369263573
  0.4209261660888977  0.5034830320939776  0.2530729917578864
  0.6728011565268806  0.2533288394268979  0.2513549495139477
  0.3356626357464155  0.5872665221135899  0.7539948689566923
  0.2534667618877739  0.2535979174524399  0.1699327627514874
  0.5026557851577100  0.2536209923307094  0.4204575299129514
  0.8366494296047345  0.0877698283337416  0.7554354915065700
  0.5882752953636355  0.4195427239184086  0.5030605541474480
  0.2555904754866877  0.5024637578688297  0.5869637592356438
  0.6712238446268340  0.2539630330239585  0.4202844855075988
  1.0040720333868818  0.2540707150461436  0.5860987968940244
  0.3364494896478746  0.3373696861198605  0.0032124249784633
  0.1713239777192331  0.1712932599860489  0.6707736413202664
  0.5868449378576281  0.9201412126070460  0.1696515715006334
  0.1691449918703772  0.0037091741528137  1.0035564425039167
  0.1724980365095014  0.6708814005897522  0.8366816971178755
  0.8380052235053032  0.4194876844164815  0.7540655564362149
  1.0042632090529509  0.0880114938824940  0.7541563859126004
  0.6708346164367123  0.7523917468081409  0.9197601240307266
  0.3377084458916098  0.9199279530353792  0.5866290437488471
  0.8369449322647352  0.6704873026771161  0.1702138415180952
  0.0018087248132910  0.1712475590189002  0.6701170560475033
  0.8375674478345815  0.7534454559834055  0.0877846308057722
  0.1696333125479070  0.0024675552629441  0.3373376375289154
  0.6695402582434166  0.6720685809403460  0.3376634623454838
  0.8376081162889211  0.5037458887722701  0.8366768895411010
  0.4205651375366746  1.0032123277001483  0.7545955064784244
  0.2525893432370179  0.9225060267695550  0.8376198017167478
  0.2538907774472097  0.5845348121272925  0.8370567775404698
  0.6707893740967382  0.8385541783579349  0.3378003319434401
  0.7536686775551354  0.5038947333078805  0.0868778992680256
  0.5871064164835826  0.1718876191512388  0.7549300879667588
  0.5039796629244515  0.3375557642316299  0.6686550339052857
  0.7530964335398704  0.2533757357100442  0.1714208710534166
  0.8365775386762407  0.9203172873771398  0.5869118142114665
  0.5872606382593470  0.0036083580531339  0.5871850369616560
  0.9199787940490024  0.0027511626054226  0.4203080649924372
  0.5890734435823223  0.5879078911223989  0.6714056244363853
  0.3373904096121094  1.0033782365705912  0.3372483204718568
  0.5044536799922886  0.9207867870355256  0.0869115580012009
  0.5038055063110209  0.7559164254268047  0.9215325823764384
  0.7547239413226078  0.5044050151900833  0.9196957452735102
  0.4215572804478129  0.6714593213131799  0.2540179957758362
  0.5036274373391002  0.5036251916300494  0.8382795413057595
  0.5052865946436734  0.0866310113858883  0.5890966985607475
  0.2545817564233570  0.6718429497206694  0.5873916765089451
  0.7538062611647355  0.0879565908076075  0.1708721080325311
  0.7550996002883968  0.0045718045733535  0.7549494502088399
  0.7533949230139469  0.1711974157110167  0.7551799366408694
  0.0876256465049450  0.2554817352306556  0.6697133654771421
  0.3360547596630526  0.2547655170371539  0.5886319770213083
  0.1705756144151471  1.0034488775997299  0.8359600852365423
  0.6683144750646535  0.3385952418562571  0.8376370203290104
  0.1691260792432071  0.3386949398798219  0.5020117339703543
  0.1699799210399189  1.0035290245400690  0.1708978140239144
  0.0049646190632812  0.3377231433817393  0.0056846106008020
  0.2538112464889536  0.3376851408697910  0.7539383327253771
  0.4192850075448818  0.9218621623027328  0.5043178151552373
  0.9217693806405204  0.0847217987574891  0.0037786428950395
  0.5045746964689548  0.0877998475342714  0.0890457110345235
  0.3377879246191743  0.1709408926680016  0.3375590806215960
  0.9206084529077195  0.0874813248680387  0.1708302478397496
  0.7537269016891138  0.7536365076518268  0.3360334846667501
  0.3365684496389638  0.4210095314740188  0.5861944907242574
  0.5871484904283731  0.5855488386763396  0.5022728219316931
  0.3357200152454721  0.0887928483029957  0.9211999252659171
  0.3395670501471521  0.7537794886406161  0.7549151703222404
  0.5033102422345324  0.4203393894984470  0.2527539518647702
  0.0858651175904524  0.2547223808374303  0.8381879780321607
  0.5035988992718841  0.2544577321140444  0.9194117615681244
  0.3375930365142728  0.0060448544569729  0.0039229367694159
  0.1716347191588593  0.5056283706403191  0.1703372268860498
  0.4210674153649614  0.2547129149174808  0.8370504141347503
  0.3369362018929110  0.1706008096181757  0.6702894697704838
  0.5035690849167709  0.7541684008595955  0.0860992952097470
  0.8366639434465909  0.1696136300965253  0.5039467587426042
  0.5042710680796390  0.3368548197376279  0.1707820868822715
  0.6709658014518748  0.5867611587517770  0.2544056068895079
  0.2535085287323091  0.6706862425858289  0.9208398825307754
  0.8368099244175095  0.8375984398049486  0.0036845893971023
  0.1708903207539351  0.5873426964497435  0.4203914751937591
  0.8384045866636656  0.9207461818329155  0.4205413516129621
  0.7535334665071663  0.8377009132009590  0.9202705129053115
  0.6696257476017781  0.6703351299302128  0.6712245361726163
  0.7529623012813618  0.6702649877366930  0.5857297880930745
  0.0860304019717663  0.5035933027453151  0.5872637535860076
  0.5046035687299001  0.3363468640735025  0.5032481505190485
  0.0863031275047500  0.5863866360574269  0.3386552034461712
  0.0030974036722853  0.1710716413022677  0.3383262098225470
  0.3371200294015094  0.6697537499889511  0.8361670596999431
  0.5876799855641710  0.7543454531240220  0.5044680903324090
  0.3380199351534625  0.5860026071076301  0.9210231340186684
  0.5059305351174178  0.9186958797121524  0.9222689265648155
  0.6699610785421587  0.9197226205140400  0.4191589050615861
  0.1703836393669485  0.6701450694434159  0.1700251950556998
  0.4200315587315311  0.7544910241901523  0.8364027247320098
  0.2538295235115603  0.4220075333123335  0.1714205891224903
  0.6735410466981446  0.7526774004525758  0.0874223915443267
  0.3356088880571100  0.3385713452635089  0.3360875956537648
  0.6707108407599315  0.5877040783741733  0.7536059965622676
  0.7560415075666711  0.1702717063240118  0.5852851794097378
  0.6689929908916443  0.4202340842699560  0.7547101012579484
  0.7539853441999759  0.5039721152832601  0.5873265698501796
  0.5876193531689415  0.0865482091110132  0.8376793137431690
  0.2554499466684240  0.4205520571900876  0.3380243775608751
  0.1699567284915569  0.2539849524612789  0.2524107235432969
  0.5866881050480383  0.4198183139002154  1.0044324274800569
  0.6691395898712295  1.0033355057290276  0.6704048232289137
  0.2539776182971776  0.5026788868837240  0.7550265124812413
  0.5051425512846118  0.0874547846520594  0.9189370564128029
  0.0035842623352953  0.6695809121340884  0.1705185142171555
  0.0873495193076101  0.5866331445656406  0.6693242274557740
  0.0040596628392035  0.5044846955011446  0.0041860081140631
  1.0039431250916151  0.8363538314243053  0.8366755609980604
  1.0041458395364198  0.8376426575716669  0.0031864540534696
  1.0049174331784818  0.6697168880809068  0.8376418033727975
  0.1709413220936892  0.7541005181342909  0.7536088012655717
  0.1704246352452938  0.9198378628484689  0.2541597694687132
  0.0038465904490570  0.5871611960991414  0.0870618154721287
  0.0868810719512210  0.8367008800483779  0.5874702765911758
  0.9198648814621895  0.9212939443498581  0.6704763672864741
  0.8367860791484620  0.0877771495290203  0.9212056930922169
  0.9208485630008494  0.6699285565522866  0.0872689610111216
  0.0866704453884151  0.8370665699405141  0.0870344821021867
  1.0036839826245501  0.0869048750508483  0.2539086023838233
  0.0042393150397147  0.9201894958535933  0.2539472408817626
  1.0031462060049243  0.7542136495477717  0.5876931875095252
  0.4216302648847277  0.9213749785860260  0.3371278327404655
  0.1701453704974285  0.2544439333096962  0.9198234954845755
  0.0867370450864250  0.5865523315892119  0.5039562156721797
  0.0042604966456526  0.2543936672098870  0.0876759515745420
  1.0047222200378845  0.3375788846900615  0.1705713232919291
  0.0869469639537061  1.0034847856093845  0.2546962309085577
  0.3383685011666859  0.6704010156223927  0.6704671425222827
  0.0868026784108540  0.4203287145949328  0.8375035716810360
  1.0038527539653319  0.5867796809528315  0.2540690289456947
  1.0034246754013527  0.4206074112278332  0.0873114377087594
  0.0867700615639450  0.6691262302875541  0.0867786668267234
  0.0871873988120513  0.7533970670530837  0.1699463759931174
  0.3365577532033617  0.5869531599771037  0.0869752291760676
  0.0871409768334355  0.6698229929311015  0.2534975766930237
  0.0878153215995349  0.5045601788780177  0.2540766874821779
  0.0874395664953619  0.8362926938276530  0.2537387511190978
  0.2541993662709704  0.5029633126959780  0.9208672358571164
  0.0870314150169179  1.0039605520936741  0.9207062789970286
  0.9199857955229810  0.2549850393511645  0.0043579141749314
  0.9200282288187203  0.8364282632397990  0.7544702260917816
  0.5044126424739827  1.0039612163899612  1.0039087772762050
  0.4204182548004642  0.0872829697534374  0.1704901137990451
  0.5873643727374565  1.0047341565024270  0.0876659401312068
  0.6705317893499564  0.8365553269958543  0.1706867324464197
  0.6712620738903206  0.0030885036195332  0.3369824450523475
  0.9206832041177528  0.1712814707848062  0.9220443015839359
  0.1696277295554722  0.6705778240181379  0.0035873628242888
  1.0034019048254561  0.2556312595195792  0.4199830851551060
  0.9195239378187060  0.0034825424475171  0.0886752920392677
  1.0038277189334148  0.2539518402725854  0.7539993097540866
  0.5876513153645226  0.0875097724595606  0.1706348589212851
  0.1705687410952389  0.7532821062063593  0.2535200907891624
  0.5039152483824948  0.0873280386114514  0.2535504922567234
  0.8375758440559247  0.8365923937280116  0.1702979694809343
  0.2536584071570366  0.7535184734479048  0.5039957476264660
  0.2550496604388227  0.9203357345767792  0.5027255524708946
  1.0035051724222539  0.5040311423585310  0.5045154109168879
  0.1708434333078925  0.5877460962087265  0.2546355302312923
  0.1712761509503687  0.5033791011755546  0.6697968871421014
  0.1704647252890678  0.6711707534822968  0.3370539586114116
  0.8369697451697267  0.5866085047666650  0.7539972324928658
  1.0045885718040430  0.5874096036114614  0.7535032283696284
  0.0033340740094956  0.5864560582024154  0.9204036522107882
  0.0867583017905926  0.5035320722266807  0.9210760200029808
  0.1708982779065599  0.8372681257470352  0.8370837059783528
  1.0028366667095683  0.5874914911060725  0.4218783295056331
  0.6705622875993107  0.4209982430484120  0.5867904933702547
  0.1699813051633952  0.7534410497791690  0.4207468102994215
  0.4210473144188805  0.8368919839266562  0.5867679738672338
  0.8369469732549915  0.4211174237542917  0.4201151707401143
  0.4201322668283460  0.9213705154866120  0.8385684298472733
  0.5035325483304729  0.9216296882270557  0.7541670438750062
  0.4205554150475205  0.9213114970274396  0.6700313324444521
  0.3369710325927048  0.8380724759553659  0.8372419808501941
  0.4206327121546316  0.9209940395404789  0.0039484483502890
  0.0874537563909102  0.0873370151261225  0.8371299054419359
  0.1705404584731237  0.9206475157054248  0.7534911936100157
  0.9196122139101054  0.2547579724616936  0.6718615961147886
  1.0037816737655023  0.7541014258904529  0.4204316246532834
  0.1711407824614708  0.3379638302180745  0.1705237826644878
  0.2533082406050189  0.8377338953264272  0.0867630620443058
  0.4200794391854330  0.2551581664120897  0.3361081451334809
  0.3377205377262236  0.5880692116392546  0.2534887358750715
  1.0038943465350720  0.4204706369246689  0.5871751989770198
  0.1702923336013765  0.4220628831778945  0.4199592539061225
  0.3370708870655991  0.3373742816176319  0.5028811440742628
  0.2534174985184885  0.3379279625177682  0.2530892384585383
  0.0879999614228222  0.4223992351406368  0.1701213709541369
  0.2535922647959878  0.4210451731780595  0.5025539651072773
  0.2543275363906912  0.2543127545961730  0.8366108309236316
  0.1709764452745590  0.3382896701874726  0.3370773504093123
  0.1712829668188136  0.5041300901930882  0.0038803627698226
  0.1704833525475570  0.4202226840678017  0.7538136833331086
  0.1715516889655832  0.5045804257192499  0.3365999199390530
  0.2540160616281684  0.5037849356662261  0.0870492658781616
  0.1703907372589803  0.3374259357449276  0.8373490208903227
  0.9210341807981183  0.0865905276804784  0.3376431463644036
  0.9202042859670262  0.5037302150971888  0.4202432040078998
  0.3381129238160276  0.5870170317854216  0.5870838404300728
  0.0883030516102508  0.5865697231096727  0.8376934435252983
  0.1703130378973072  0.5041164258810924  0.5042764453093294
  0.2534041446958352  0.6710513196098394  0.0869518034870467
  0.3383094134256056  0.5031286805141166  0.8383238998109902
  0.3367588751544873  1.0029435125464603  0.1700715607742068
  0.5871890207633715  0.0870959236277131  0.3371100496388759
  0.4216985590579639  0.8379452069998868  0.4216062126803471
  0.1705475002206668  0.7548018099652496  0.5865366991214124
  0.1718159575649632  0.5880131349206973  0.0863253581537113
  0.3367239832253519  0.9199646715267745  0.2540264099349584
  0.9204852520570148  0.4204611283714265  0.1709467251790099
  0.9212499318117898  0.0886887566425563  0.8386564212889945
  0.0865292083399549  0.7537042150807676  0.0035618447015136
  0.7540630670453851  0.9204488973731914  0.1700611380914338
  0.1702118267697178  0.8358042208775890  0.3372631187982682
  0.1708200965533709  0.4214922590105958  0.0875697199301437
  0.0866140941365576  0.4217623423065318  0.5030265517707114
  0.0874662687596307  0.3383397556527550  0.5856188977902577
  0.1708042531093145  0.6702869517208421  0.6696516120990754
  0.2547320927393374  0.5884645315332001  0.3374948875938224
  0.9198973417781168  0.3375789465671532  0.5877742167211446
  0.9211983346880265  0.4206878674787616  0.6705719924584285
  0.8377729145509396  0.2538766437629091  0.2536115894352015
  0.1702373994114358  0.0866763349958067  0.4200601582427604
  0.0869472228313427  0.1702152520975580  0.2536027435134868
  0.0868159433331228  0.1713744258436870  0.7534631413046100
  0.0872794870391671  0.1704071183511218  0.0873996736238311
  1.0042390952690612  0.0031897386020785  0.1705739084952323
  1.0037564638196008  1.0029737439991693  0.5028859821704783
  0.1696182349462850  0.0862443491920077  0.2547098460804663
  0.0865090867905060  0.0042555382042224  0.7530720086792263
  1.0040773276068866  0.0870770150994734  0.4199524710577393
  0.1692545036137526  0.2551725820596464  0.5856413791374757
  0.1700143370920786  0.4212916442418682  0.5867584690715545
  0.0865164741686941  0.0873831841660872  0.5035500316510410
  0.0876070777484119  0.3378236755641734  0.2535822255655995
  0.1700281847651393  0.2546844731325421  0.4199101976716360
  0.0872974642503327  0.4212466789078029  0.3371733418293538
  1.0039693761342185  0.7531981122402117  0.2539922997075800
  0.2532684850288090  0.3365410962548310  0.4209180457262939
  1.0042500317496661  0.2541413934000786  0.2540773476553323
  0.3387901622697291  0.6700926351880497  0.3381573377591747
  0.1703629461791508  0.3380910885285494  0.6700290990666441
  0.0029370642838695  0.8365821265792109  0.3363889308506813
  0.9197544572538731  0.2553654451142786  0.5027768158475754
  1.0039223060206057  0.1713170081592722  0.8376072842750883
  0.1706707439776738  0.0871153402427571  0.9198535190138835
  1.0039463649531486  0.4205714864308006  0.7538321200938546
  0.3362093842097389  0.3376382828644484  0.1703176865814178
  0.9204471925012166  0.4198972264033287  0.0039084248875453
  0.0879835286852396  0.3381386889063921  0.0876546153978336
  0.0867862877491578  0.1709631542711843  0.9210072792453442
  0.9203299211413833  0.1703807913948103  0.7546494465830821
  0.3373212109188815  0.2539363839206389  0.9202957338782641
  0.2549367493887373  0.9200543897825938  0.6707171155561483
  0.2544123445951182  0.8376459899454656  0.7539722004248823
  0.1700063172016012  0.7538520026827180  0.9206908390662549
  0.1699101293229779  0.9205424915373480  0.9202884558532666
  0.3363006436453516  0.9212108015744414  0.0862058510107507
  0.4204520547843781  0.1705774541965552  0.5865700736306177
  0.5041238516348749  0.1705632398485439  0.6705683934724612
  0.3367315647763748  0.0869380444081448  0.5871627203608453
  0.2537239420341202  0.4200253587959875  1.0035803650816240
  0.3371515061490332  0.4203784027051552  0.7536790341342647
  0.5042313525582558  0.0862695009925942  0.4198318499061596
  0.3366838549169094  0.5025263515647801  0.0041122398314374
  0.2533767978789135  1.0031290165239468  0.2540837374616984
  0.1703693402629474  0.9204208438731851  0.0867439596145097
  0.4210300175816538  0.3371496826586300  0.9211758154601196
  0.1710432270374809  0.4214440865656625  0.2536186220166716
  0.7538436000990733  0.1715629379768540  0.9218322245738120
  0.5863295724370204  0.3365974357376561  0.9222341880233335
  0.6704117203062194  0.2544281080884642  0.9217612636506979
  0.9209390539306729  0.5034583827431485  0.7539461501419571
  0.9208781100199789  0.3376825000295740  0.9208236181750769
  0.6703391892702555  0.3377526144738603  0.0043589574515469
  0.4200083295884909  0.2535716707872901  0.0038816662502953
  0.3361922501964078  0.9214846313490432  0.9210607215142244
  0.2551559829560472  0.8376680549663093  0.5869358701464071
  0.0877767143592715  0.7538237330545121  0.8372507427808700
  0.1696899869441473  0.8367984677118901  1.0028791974050408
  0.2533677527606604  0.7537486982696723  1.0038388876504680
  0.0039761511639427  0.1701491082480011  0.0048587759673751
  0.2542548410924024  0.7542957317801432  0.1706382032798429
  0.4198232631391751  0.3359763401568265  0.0876169866770537
  0.2537721442480812  0.8367942686799495  0.4205072196236530
  0.4209608544787777  0.6711464626641719  0.0865996413074762
  0.3371715536239601  0.3376499927346628  0.8372970820066885
  0.3379236554993071  0.9211751860091378  0.4202241628929843
  0.5035984685617266  0.5035978777014759  0.3368884737674613
  0.3371716449550425  0.1708789384143904  0.8370237389561433
  0.5043730444285308  0.4206142623428483  0.7535757560709644
  0.1705977458612602  0.5856931829572423  0.9206690572047739
  0.3371441574878708  0.4203497098706504  0.0872177835266386
  0.4204660680376400  0.4198246354472224  0.3367045049127566
  0.4202394623683205  0.4204184108145359  0.1701189488011619
  0.3370756302083994  0.4215458395555261  0.2536812204070960
  0.5046847368026025  0.4199673045506603  0.4206402369177306
  0.5867335278956766  0.6713257825564914  0.2539908807830257
  0.2530141945331153  0.0031365423565348  0.4201130989755086
  0.3369033250913458  0.3379861915485807  0.6697350344873229
  0.4207168751876024  0.4194109619715634  0.5029591658907537
  0.3374090208457583  0.2549977407343558  0.7527391597494898
  0.4197846401782078  0.5866208826482925  0.0047550639873460
  0.3363591549466730  0.7545916676360178  0.0865922686214217
  0.2524412667454661  0.0866149004134573  0.0042090571475158
  0.4211456856180969  0.0045294271168594  0.9211274170651295
  0.5874122667464129  0.1709553684091259  0.4195227277271842
  0.5040148373211715  0.1697354973007986  1.0036697333978211
  0.5034070609680908  0.5037322105511449  0.1704111520772421
  0.3371822764792052  0.5038527817124082  0.5032165494073284
  0.4212632218114722  0.6704354875458755  0.5868327721102926
  0.4211124529601696  0.4210312672425963  0.6696725890875952
  0.5042806910571157  0.5871461311846775  0.5856041042141902
  0.2536321338689080  0.5866259400596673  0.6698855706161915
  0.1696578983409133  0.2554331524070976  0.7546586798622432
  0.4207160824829289  0.5032097256162782  0.7542919826377852
  0.0872046936247481  0.5035604222237287  0.7544313208849501
  0.4213714181191866  0.5030550605302121  0.4208263200182218
  0.0868645343323570  0.4208469330000932  0.6702273781628556
  0.2544201042891660  0.5868355887927804  0.5048600128159850
  0.2536799635867461  0.4203252122843587  0.6697212196031229
  0.3377078806744152  0.6707360277279257  0.5044674586813003
  0.1700509317829861  0.5025312678355499  0.8380750940957140
  0.0877951682756778  0.6703445172889091  0.7537616807406705
  0.3371023686420467  0.5034060795500656  0.6701702533462270
  0.3369622233062382  0.0873090715708610  0.7539625427638643
  0.2534697311785708  0.3378774025640775  0.0874744322618582
  0.5043339734289997  0.2534403187739542  0.5872036159189893
  0.4200549287449344  0.7546602458036842  0.0037385068643789
  0.5034488186055989  0.3368652335622860  0.0046963692613557
  0.5865269550521747  0.4204316041554608  0.1712981919922492