Cr Ni
 1.0000000000000000
    20.9593513884312195    0.0000000000000000    0.0000000000000000
     0.0000000000000000   20.9593513884312195    0.0000000000000000
     0.0000000000000000    0.0000000000000000   20.9593513884312195
 Cr  Ni 
 259 605
Direct
  0.2545826652373920  0.7541401139666357  0.0044760831271009
  1.0028962545870548  0.1710710863484287  1.0036223898858274
  0.7546796925517202  0.0036679397897925  0.5860368442492441
  0.6700865825073941  0.6720442291506254  0.3365965095902307
  0.5047155680869694  0.1705532944755030  0.8370261696372497
  0.0871266128568939  0.0048663143533855  0.4199109185952188
  1.0037075705096701  0.8380648690351882  0.6686573727999380
  0.5030302846957446  0.5854724044958768  0.0876624538640163
  0.5046520895441520  0.4198995901013696  0.2549235553919289
  0.2546069578591350  0.2533201684226767  0.3359881259083068
  0.8389089629873402  0.5037206016019363  1.0033100897038247
  0.0045459314056696  1.0035576113265361  0.6695456517883186
  0.6706528994405627  0.1705548870089227  0.1707009492781910
  0.9200853473538336  0.0858633352452922  0.8373433849640650
  0.2534362512143947  0.0866781824713151  0.3370647588034758
  0.8367686244982692  0.5034826139432914  0.6703328373668211
  0.5048481824906141  0.4207242562410863  0.4199737331059289
  0.9210844138729808  0.5032489251060469  0.9206245961051633
  0.2539649770350512  0.4195371848584277  0.1706963872552651
  0.4213603440904575  0.6701073133962423  0.5863683612626918
  0.9197682749229816  0.4199315298489535  0.3381800564388051
  0.9206904757507877  0.3387185868233387  0.4206260831113118
  0.4203246187301651  0.6710830661509416  0.2541854282856058
  0.3376467419886524  0.5032731879016543  0.5044550743647370
  0.0870439011486920  0.4211772808943685  0.3370957797755100
  0.7532005335955662  0.5059766944046774  0.4219832614147996
  0.9205492249020182  1.0044125980857166  0.9217789284193845
  0.9201097980044188  0.6701295406197666  0.9208782141797024
  0.6711728629675038  0.8374476405683375  0.3363471471804328
  1.0046846985470390  0.7530369655821627  0.4195675494548698
  0.6708972350459999  0.5032301962318539  0.1713976839010678
  0.7538444509634618  0.9202978959942799  0.8371720373332103
  1.0025794353443864  0.6695846865602759  0.3388033569506937
  0.5864329441552623  0.9217411205140069  0.1703493247681397
  0.9197707807932731  0.1698697702381920  0.9199072650985765
  0.8363517092841924  0.2545491742976876  0.7536428418756852
  0.9179335693962600  0.5017698823563543  0.7518732702430505
  0.0027286953289269  0.3367131542779930  0.6701343175534280
  0.5866282860888501  0.7534217844376729  0.8373635664297273
  0.1708664567153341  0.1711617427163854  0.5045286610499613
  0.0878721065178573  0.3373437136930033  0.2532684221569935
  0.0052549199603233  0.5030717361444448  1.0033504347028712
  0.8368901481549340  0.6702050854840340  0.6709366919893899
  0.5870552702865049  0.3361398473007574  0.4201308836383245
  0.4206733603848782  0.6700791787109317  0.7535584686453998
  0.5882988304158856  0.5030115986864049  0.2546725683842069
  0.5862657056957329  0.9223521431277236  1.0048107248273797
  0.0880978284432130  0.5026521952306096  0.9192653879394935
  0.1706292584078764  0.8365423043296160  0.5042405458702756
  0.8382469915633129  0.5875630294804065  0.0868989157705728
  0.5036919997574711  0.6706379721931328  0.5056010124230578
  0.9207399565300388  0.6706247576397200  0.5859176250405077
  0.5041542751082660  0.3358763669783068  0.1706598355349620
  0.9202444523375232  0.4204714325114337  0.5043927906651346
  0.5055310401280110  0.5030430486583358  0.5042658554551743
  0.9189449775939422  0.6706014472684244  0.7536004411822360
  0.5880338118741939  0.3350657193727553  0.0884099152919304
  0.5886331087880390  0.5041726085165266  0.9193981271782748
  0.9202659642314298  0.3360030996245399  0.9206042515352545
  0.0862387331366636  0.0874222454029747  0.1682519898987768
  1.0030364094446769  0.1708227419728772  0.1700849629347470
  0.1694434867634634  0.5016566363387037  0.3350282221738561
  0.3385529589985206  0.2530180091022127  0.7533706854391841
  0.1720159751522722  0.6707297434586217  0.3353670081483221
  0.8371001935833776  0.6704940348877120  0.0034948683453018
  0.6691516088978701  0.6709045154020979  0.1721101657026239
  1.0050583368003041  0.4211938470558088  0.5864718671072565
  0.0859481574674225  0.5857394715581897  1.0034677617331276
  0.1698971664754640  0.8362135423220705  0.8378545581642359
  0.4201977058072106  0.7535815513383702  0.3365268673492641
  0.7554051984537828  0.0879258848068360  0.3384734228508538
  0.0043460865802387  0.5865533188205309  0.4193199704501735
  0.8372526447600552  0.4204287320464568  0.0866527335996877
  0.7556183937930228  0.2547678965498352  0.3387978822133967
  0.6701904727166076  0.2537630144004286  0.7545478935937648
  0.0856055770300816  0.4220108191172637  0.0036545975720454
  0.1687316387444738  0.4196211153599707  0.7532036944036575
  0.8381724627771201  0.6702818266535138  0.8383380467267217
  0.9203598118873044  0.5037775904562919  0.2534336387165723
  0.6697238412381207  0.7522752067581000  0.7556830273048977
  0.0862586752612646  0.4202986846791278  0.6691815609068439
  0.2541582164702961  0.4196342208497574  1.0038041331075076
  0.2533873463462180  0.1705297934401208  0.5873661693948031
  0.0880740247192677  0.5862836278986462  0.8387341152604004
  0.7530079940281432  0.5872372435705948  0.5027056465644900
  0.0039522768310135  0.5868770107494482  0.5880797975247358
  0.9210659936001089  0.7534936955383097  0.5031423013714666
  0.3372624043031214  0.0038661079739809  1.0042989412157277
  0.1704364139972367  0.5040066309906117  0.5046564153316503
  1.0032509754796870  0.5029302170700755  0.5036611720268714
  0.5038702613762578  0.9219116631807782  0.0871110446914262
  0.5025858830723843  0.8377309352087804  0.3356698090844916
  0.3371171032861446  0.1702976530639950  0.5043312170958796
  0.4200482837423760  0.2547461049565838  0.3384504402941951
  0.5025372089150005  0.7543855422403323  0.0872046973808863
  0.9208963709016861  0.1698755676855149  0.2513044031551436
  0.5872738855489364  0.2541191431453252  0.3386760770063664
  0.6694963819774790  0.3359128936719136  0.1699223152639827
  0.9207034301438332  0.8374438715071632  0.2537273814362180
  0.8370837625342085  0.0861846158260618  0.9206436606503368
  0.5878989560492135  0.3369968945328797  0.9199795980189840
  0.1704391567827716  0.3368657413059914  0.8369488679122227
  0.5857365911792947  0.1707365459497917  0.5885517671698055
  0.7554036733237105  0.1684544837848869  0.4209674854612961
  0.8373701089589869  0.4217415599959230  0.7537032152401035
  0.9210535204949886  0.8391173668455527  0.9201137027057553
  0.4205440546476129  0.4193549210396104  0.6710356836191308
  0.6691820971944207  0.6714461925574112  0.8365885585252478
  0.0861459585440262  0.7541652328280470  0.6688234550852138
  0.6684830347166562  0.6723265426980293  0.0052682034350163
  0.7555249617092761  0.3357479894031551  0.4196195271424314
  0.7535660930097708  0.9219140643536099  0.5036812873545198
  0.4192596019517775  0.2549750884149490  0.6700164826633941
  0.0883553504717070  0.9216332846621315  0.6696422442701309
  0.1697809745030015  0.9203297494881897  0.7556400207380605
  0.8368002262459679  0.8369054694755906  0.6702372675768112
  0.0865483345961505  0.0875746599950694  0.8381111967356186
  0.8377732764640127  0.3378612038182938  0.1694212031436751
  0.5043431139493458  0.5024000434048493  0.3352252229749190
  0.5877174829182772  0.2544447401677527  0.1700405475013418
  1.0040175956251831  0.8381754115622779  0.1696293068693329
  0.8376706483630701  0.7528766821323262  0.2529074518486057
  0.0865081908110635  0.8363984794482867  0.5866968384573789
  0.3369942063305661  0.0049804679006686  0.3368321412744736
  0.0860420261643316  0.9212963069878046  0.8365873425487395
  0.7536023099982890  0.9183531997994584  1.0033221958402949
  0.7533033575413007  0.5038817906309001  0.2520774102107331
  0.4208262688521231  0.3369628644849370  0.4211533086279031
  0.3374260912221351  0.5033119114277692  0.3367734016587791
  0.5884853488106428  0.4202132033523935  0.6705976591020993
  0.2546362541651262  0.9208360601963734  1.0045257980675424
  0.5029586427310985  0.7536729394231247  0.9204616242554857
  0.3383495524202139  0.0040444711793556  0.8377255579085948
  0.4201671021794087  0.5882334853304421  0.3369138975150432
  0.5848469876093452  0.5019857249460329  0.4210102380695048
  0.3365388388221020  0.4213879416539643  0.5866071060465771
  0.7529986381325312  0.8372601915102168  0.9223160397806984
  0.5879273334137326  0.5034131876233345  0.0872993985693801
  0.5871488028816803  0.1714555817385452  0.4204099631673411
  0.0051291736098766  0.0038837950942686  0.3380708206034072
  0.9207908852162784  0.9218921354310321  0.8368286931218224
  0.8371608185261862  0.3371532056079082  0.3380201772110971
  0.5877995430614289  0.1699491892031567  0.9208933255858742
  0.0856909310414729  0.0026378296156111  0.5874347634251137
  0.5877777794558644  0.0025322091211457  0.5863410656846724
  0.3377749357071136  0.4190725669000028  0.9209086246761747
  0.4207146691179746  0.5857040641212988  0.1709693979512806
  1.0026456685091616  0.7519853092908793  0.5857565082793761
  0.6714612633067294  0.9208333390319966  0.5852798782556353
  0.3353229331335595  0.1725933341529343  0.0040173797311970
  0.3365513311791601  0.4208659844214996  0.4218690834599072
  0.5874773326349786  0.5871939018509768  0.6705357922014553
  0.1706634926451407  0.3366067274221606  0.5035256647427432
  0.6701301599844193  0.0862921247165132  0.7543599772751350
  0.5028108955813259  0.6695241088818714  0.3358261577438695
  0.0871214522624983  0.9206198651674290  0.3366130506924712
  0.6688124776171073  0.5030947181703562  0.8371255891874576
  0.5054431867570818  0.9220864151406185  0.9230336825938683
  0.1689498050179461  0.5872245280062295  0.9207417377890963
  0.8386566983710250  0.0861740755028780  0.4198047693225354
  0.6701464876836454  0.7535293218326836  0.0872266807633401
  0.4195805622377120  0.3390814940896624  0.5883250703554436
  0.7540283354150555  0.7526078470643565  0.5029236197736308
  0.6715516058794226  0.1703530459285282  1.0021511042705302
  0.2537872624853127  0.8370805106148133  0.5868790127436641
  1.0046616808233459  0.9208113099453505  0.9215037784292541
  0.7540941661801062  0.0876347231044297  0.1712740475991787
  0.4206130145551805  0.0871382310454817  0.8375438333246108
  0.0039363442666663  0.2545367705895331  0.5873611292715034
  0.8363115886766342  0.2536742609584489  0.5870816276918694
  0.1693334424555508  0.0035296544483201  0.6713274412071811
  0.7533126136036364  0.0874517669257536  0.8351561731278548
  0.5871390221853642  0.9209682936258545  0.5038192212482937
  0.2521796230208075  0.3372007551054471  0.5867339692120624
  0.4189159378266092  0.0026513186881392  0.5874191143290720
  0.8371044812262234  0.4221822746825192  0.9217984667456525
  0.2545323805216656  0.1704611979062957  0.2530273074644712
  0.0874876160804074  0.1703416100922844  0.4216760694127321
  0.0867221687142615  0.2541186432976037  0.8361348923070534
  0.1712831431759367  0.1718202835352900  0.0042131365835318
  0.7546176810537332  0.2546656225266206  1.0025908481960177
  0.4216417550821833  0.1688586012156492  0.2534797665046632
  0.5860909049548298  0.0041630881457413  0.9216395514642840
  0.2554291017101178  0.0871949791214741  0.8365107305236570
  0.1700826448378462  0.2542752927794473  0.7554167020227457
  0.0872507565254327  0.5022892623765303  0.2547173392895924
  0.2551079182330477  0.0871989130306911  0.1717901021494991
  0.4207831013695141  0.3373182980884897  0.0868258566869546
  0.3369743146882308  0.8372786091536958  0.8373122980021199
  0.2544583293663514  0.2537629418252126  0.0042099527543160
  0.7529568186874360  0.5866583528468524  0.1706992621039930
  0.5039442954840696  0.7535825376527878  0.7531541423449446
  1.0035272431483233  1.0043942605873595  0.8366877860630698
  0.3364410727762345  0.9206102469409186  0.7548464185292135
  0.1713082992784647  0.9207544484905277  0.0872850942886381
  0.8366261385935658  0.0868876447226860  0.0870507414050388
  0.0867386188750103  0.2536985433945764  0.3376695420289882
  0.5872126699125282  0.6716631552684439  0.2536212122897037
  0.2552481896663375  0.0036895571864706  0.5875564306992184
  0.5040728565472267  0.8378763692390875  0.6708453673585750
  0.9206187725045236  0.1705354368455389  0.4205659894856162
  0.3370182921957474  0.7532445201211683  0.4204369768548467
  0.7535611628182954  0.2544886089189013  0.8361143362172456
  0.1715915354838968  0.1696719048178417  0.6703610271239251
  0.8368429646529587  0.5872640443513992  0.9223495747311848
  0.8372484150500503  0.6686836930893585  0.1685870938034499
  0.9196802815286926  0.9205456456596274  0.5029697846150140
  0.5042433242194985  0.9212620534743848  0.7540782917776200
  1.0043483946541751  0.3367619343049190  0.1709833113069283
  0.1701882482552095  0.0880795630063138  0.0861634134002648
  0.1708775438288550  0.2528161534533580  0.0861821134135533
  0.0877153462069236  0.7547761899011706  0.8372127546927135
  0.5864293789888329  0.0035827379616780  0.4192510579207367
  0.4207952601183396  0.8385131030015840  0.2545759909442518
  0.7543565043485156  0.3367839136764881  0.5886741395882289
  0.5874925738407017  0.0025468178064900  0.7545256825183583
  0.7550107274781811  0.0047326551332091  0.4200461132465418
  0.5048138612462145  0.5854065419635666  0.9198839770675536
  0.7542806245970777  0.0888621904821108  0.5031762595962523
  0.7537778623379691  0.6702126168397927  0.5872840012415126
  0.2529480789374014  0.3358060527602915  0.2539093108868253
  0.4190629119552384  0.3373822130448024  0.9199000798168484
  0.3371664334572818  0.9214323875314673  0.4199181011633724
  0.5034688176432974  0.8376606730807806  0.5046847381447008
  0.0864106460093234  0.0862273396389884  0.3371613557006999
  0.5043729915086181  0.1717650135379368  0.1713439648858006
  0.8368092956238534  0.9223396456124067  0.4205421897733331
  0.2528785819527337  0.6705464864339621  0.2538271153563620
  0.8366775916845444  0.8390979424964679  0.0044640141351508
  0.3377864270458945  0.9218057476064567  0.5869355278217945
  0.2552712595797563  0.7540529639272472  0.6701350160378815
  0.1683385103563867  0.0033951844756448  0.3363496972983129
  0.7540490413326697  0.9206170833727841  0.1710417907450495
  0.5054911071030386  0.1699025097947033  0.6704949023826858
  1.0047472319920268  0.6708145842444945  0.1715565626862076
  0.4200458225948934  0.7533644683295753  0.1710250528087082
  0.9208121575530848  0.8382999840003524  0.7536011173229690
  0.3369982357590435  0.5858418605759403  0.0890283576673790
  0.8379424725682645  0.7528471154084758  0.0873457637214706
  0.0869841706236600  0.7536768756490522  1.0050229887726643
  0.1717835378631396  0.6700184907755355  0.1698744891449964
  0.1717502316964035  0.6706354777739617  0.5047873919454100
  0.5034280518161481  0.0889456290235692  0.2538608347565786
  0.2536618850940190  0.6706040539520544  0.7536252975037034
  0.0863578699308351  0.5866245775878071  0.6704829152907409
  0.4210796315942175  0.7531220569301164  0.0038086274073177
  0.6695700436381619  0.7544021666152091  0.2545337879193858
  0.3371285634405762  0.0032504469115895  0.1705341051361398
  0.1710739740305327  0.8389132663890847  0.3371603472366858
  0.7532647789652194  0.5041671084657046  0.5874948144758227
  0.4208817404637945  0.3369483140854630  0.7532803489427667
  0.3352896091738072  0.5866538689169687  0.9201730172839578
  0.3382706987172433  0.4199357138163557  0.7524961414397132
  0.8375024910416766  0.7540678272453774  0.4209144344132515
  0.2525355827452747  0.8382986776801028  0.2535271134184063
  0.4194654106969671  0.5056238110010193  0.0886510034606624
  0.6709173065174454  0.9209902950693564  0.7532916024188155
  0.4208075245167404  0.5868490268462710  0.6709035367677042
  0.5038296694395406  0.0893163016032968  0.0880119034475944
  0.0878101320921605  0.4209165465341247  0.5041417547617932
  0.1703629032127642  0.6705750384291039  1.0042416796632470
  0.0874314240401452  0.5035395645598396  0.0869187226548651
  0.9206985838932271  0.9197113838454146  0.1701951301726016
  0.0870712933432499  0.9205648000287997  0.1696895717915176
  0.0044696225125425  0.7534902500580152  0.0877954378795036
  0.0876838690584180  0.8368517137311152  0.0869045411396248
  0.1700257782697309  0.1713515333571640  0.8368835841843789
  0.0873610474559139  0.6706938128485025  0.9205451792978410
  1.0039981918688676  0.9209641224976683  0.2529525610198884
  1.0050614510108553  0.6707464807175042  1.0031647927387397
  0.0040317543145221  0.0041400020270766  0.1691602896943781
  1.0032306447608468  0.3367010285775806  0.8366502982943127
  0.9202141376854913  0.8372175372375119  0.4197599453546284
  0.9196364078393937  0.3373918256304551  0.7533831332819487
  0.0876039285574440  0.8370003889317179  0.9213375797302459
  0.5875252165315614  1.0048651294087112  0.2532572689635980
  0.0049273144420725  0.5873467150426096  0.0884005737266889
  0.0866956030952714  0.0040847937953640  0.2534618517351022
  0.5865746824792327  0.8374303758812274  0.4204680345437579
  1.0038108274156292  0.0874103026459281  0.9214251776413294
  0.0876759208732584  0.2537897347281953  0.6704143150412888
  0.0871141312350075  0.7533888153468995  0.1709797887201165
  0.5035379550590247  0.9210118946479927  0.5870070220253978
  0.0026510818969623  0.9201493903085616  0.5857196904557567
  0.6704270670632759  0.0059194300737390  0.5018307218925901
  0.0873041557534102  0.7524504615993645  0.5030857573489715
  0.5041350242013350  0.0871905246686921  0.5865182401773463
  1.0033894120877394  0.6707026350195562  0.8369240073505957
  0.5874565814983644  0.0863049552335719  0.6702079573622295
  0.0868886557069831  0.0880419474472374  1.0044405511502319
  0.3369406912775917  0.0877510106895120  0.9207403690128249
  0.1701743284105602  0.1701961454050278  0.3367709186155617
  1.0040208647627382  1.0038076489317593  0.0038007221969976
  0.9204873683902108  1.0037718400723876  0.5875553174077940
  0.5873050435040211  0.0887328411388133  0.1705831597202807
  0.9201851316028964  0.5860722162046877  0.8363774943439417
  0.1698226784733622  0.5867297360203680  0.0872488293454634
  1.0035768940996457  0.5034154180472056  0.3369090921557203
  0.4207243097108708  0.4203318285835849  0.1703671428468328
  0.3377269246959111  0.6701949001337552  0.6706018699007801
  0.1708432858415391  0.8370906964216054  0.0037980445919559
  0.4210783315495751  0.8374175542590370  0.7550519006645054
  0.4208160815461307  0.9212342944872008  0.0040605515191782
  0.0046445470092271  0.5872164082730105  0.2544799529049440
  0.4213375304575181  0.2539820245409564  0.1707000258208838
  0.5879639694318135  0.0050569446390358  0.0877394713069537
  0.0883081181755171  0.5869706248889497  0.3369402143089252
  0.5041144057909032  0.0046757119877038  0.3373696116817599
  0.5044305567661571  0.0869729629751897  0.7540707061035216
  0.3381695473310650  0.1702038555752260  0.8372627259314867
  0.5040780543265480  1.0054962016473235  0.1695552625228890
  0.6705059567910866  0.9210541112320200  0.2541806129960435
  0.5037855409956650  0.0877144855287022  0.9209106289240656
  0.0880807052031636  0.7536061107105917  0.3366596739869022
  0.2532092060173522  0.6699383072204629  0.4201967447539416
  0.0877604723169515  0.8366797926001791  0.4203358724048762
  0.1706551510361116  0.7531259887614422  0.5876055776395211
  0.2536478975889512  0.8370046051062059  0.7541853733903954
  0.2543289106019326  0.7536566380211343  0.8366105449445337
  0.1709372421905472  0.4189777112903441  0.2527467564811016
  0.4208920014884761  0.9208369338797415  0.5033080464476344
  0.7543835996189280  0.0877147798408490  1.0039351415789581
  0.4210193726557515  0.8379020632204831  0.9211112542338229
  0.0874574335590593  0.6706272483356754  0.0875407697556151
  0.0872636249397359  0.5877611465078086  0.1715351500926830
  0.0879002386914206  0.5047646273913313  0.5870460627368855
  0.9205238338410195  0.5863205869166397  0.5035889522046831
  1.0037966870554902  0.5036866856832104  0.6706807427792176
  1.0033273704713446  0.5033483821827579  0.8367154775229806
  0.0875457714084504  0.5871147402087357  0.5034449073409369
  0.1712439701696165  0.5027579126628461  0.8362498312077987
  0.0868057489687276  0.1703056570355110  0.7534183623796039
  1.0038370351345689  0.2530869292777113  0.7538248504751976
  0.0044238598696448  0.7541863261428056  0.2540719405346512
  0.1703626698367220  0.5027426254218280  0.0042740512717374
  0.2545789659871714  0.4199510369629731  0.8366616880681970
  0.1705513011325950  0.5866771596663725  0.2537134282953430
  0.1705034758246168  0.4197060313757787  0.9208088703937174
  0.1706454026848166  0.5027087541297327  0.1705770498293221
  0.1705177637325255  0.7534825820845445  0.9214526118531430
  0.2533551286813960  0.3373547283720487  0.4207425726441766
  0.2535832227900499  0.7546413369272518  0.3369361363632608
  0.2534054619828017  0.4202842413097697  0.3371953929223442
  0.2533909433278449  0.5029224903905072  0.2542953532451228
  0.2533355272005748  0.5863516454302609  0.3373858377061369
  0.2537152697901675  0.1704878262040072  0.4210038594100944
  0.0868845047428210  0.5037053236459941  0.7540076362034677
  0.2529577050311450  0.4209301672840171  0.5037719753538937
  0.1700488710160005  0.2537871042835154  0.9205230154218791
  0.2535700287029425  0.4201228908396040  0.6706478626733022
  0.1706347292268161  0.5878023352245522  0.5875972794278894
  0.0868290135964687  0.4192790375002767  0.8363685104808064
  0.0873165569722422  0.9204692523001438  0.5040413111462243
  0.1704887528709640  0.7540042415674906  0.0870921775132183
  0.2533494026552088  0.5866075989979052  0.5037192413664791
  0.3373711540373592  0.6706005626776480  0.5043191482279010
  0.3376349929293246  0.5869944242324705  0.5874637298533885
  0.3369875782733308  0.5033374298493652  0.8370561606378497
  0.2539802118870255  0.8373777864736064  0.0867382045267706
  0.4202370363044967  0.6692035036060398  0.0873321677608644
  0.5032828050030130  0.7540055939577766  0.4203268610260158
  0.1700812562456946  0.6710394239244776  0.8372168926758091
  0.2535045810574346  0.6702914313097594  0.0867041581792120
  0.2531480667341972  0.5866180059108406  0.1710051589359828
  0.0879830335057689  0.6704733886502867  0.2543809143196076
  0.1700142471519256  0.7542551001632822  0.2535376638557661
  0.9207558997572445  0.6708158683384788  0.2533896484098507
  0.1704088655793677  0.6705858166836748  0.6707161957041133
  0.0865794105188207  0.6699224103826602  0.5867613342694528
  1.0041114732191514  0.7545244211231967  0.9199451924511021
  0.2536649790048209  0.5031223621505430  0.7536883409341574
  0.1700838322475057  0.3366520100740528  0.3370654747912371
  1.0032813000953784  0.0879089925697781  0.0869285294689748
  0.1707984441182183  0.0052937352319817  0.1695220839106393
  1.0034093546048610  0.0883397869406234  0.4215524364950705
  1.0033705589871711  0.1702133206076249  0.3369057761348241
  0.2542520077342147  0.0047362383641316  0.0868826588108126
  0.0042296829036271  0.9201272558295033  0.4212978813132456
  0.0038802741093666  0.2540726876182085  0.4199864677494910
  0.2539302368106092  0.0871410868456859  0.5046063266010044
  0.8362496404483005  0.3367166098089782  0.5033541963400865
  0.0030967014455145  1.0042285074671946  0.5033447524885168
  0.2537620725332145  0.6708979957148383  0.9211614384007731
  0.0880852464607617  0.3367516670186872  0.5870126256949625
  0.9217570037861818  0.4195344548333487  0.0045329279379572
  0.0881930646332478  0.5040954617361448  0.4208021568794783
  1.0030940127378396  0.2538789347390739  0.2542881096333149
  0.7533802764173598  0.2539510577938361  0.1700222152444351
  0.9197445158046743  1.0040967848930868  0.0869979025989784
  0.0867414730743024  0.1710758881202755  0.0865583601247668
  0.0870258540597645  0.2535359436717947  0.0039947424713477
  0.0861479276520688  0.3366640584576949  0.7526748051962339
  0.9201554520810168  0.1706870842662046  0.0869033437348091
  0.2538614297364991  0.2541660433308861  0.8366487888205717
  1.0036768581185880  0.2539049953521643  0.0868598032758749
  1.0037016619237344  0.2533792468961817  0.9205441716560124
  0.0032396849288141  0.4200110163537680  0.2541131310262100
  0.0870436518628480  0.1705714901128580  0.9206710467983912
  0.0038335807485064  0.3372570197301784  0.3369687971075275
  1.0031094485007139  0.4194710569805045  0.9192008487253933
  0.1709070713361605  0.4205856703811274  0.4206371152518628
  0.0867677173985099  0.4196321152552918  0.1713023920317236
  0.0870263502515841  0.8375318232915193  0.2534414707481591
  0.9208822575835305  0.0874221033432830  0.6698396821976853
  0.0878172270406519  0.1708991119820344  0.5876628942571638
  1.0033490589762428  0.1714459569842740  0.5035871887613010
  0.1702591239616963  0.4207595341095613  0.5871689503679244
  1.0042445576713708  0.4199212608244846  0.0880109707003291
  0.3370161907287398  0.7538986703622440  0.9211686016452452
  0.4205887161042521  0.8373633522375856  0.0872021978870224
  0.4202671749723939  0.0041599852383275  0.9212054144707020
  0.4202244592994400  0.0044635600601004  0.0871337872881389
  0.3367828746153479  0.7543309058379278  0.2541549652827585
  0.4209282246247066  0.9215303944116987  0.1710185916080762
  0.3366744435102411  0.8377787129805387  0.3368870341705117
  0.3373459010182708  0.8366851090888979  0.0042517654483457
  0.5041945185521189  0.0041375442079618  0.8381327295610204
  0.4204020402463630  0.7546575714433097  0.5036543876442651
  0.4213644811337025  0.7539421354144489  0.8375901670858531
  0.2537322450194015  0.9202943195663766  0.6708437550839804
  0.3376182312072085  0.8378322313332180  0.6710354540902825
  0.2539902672453371  0.8373067568070028  0.9209909616592830
  0.3374451640529449  0.6700776680690396  0.8376990642177469
  0.2540052661746728  0.9208157249050932  0.8377939371144915
  0.1704569781697085  0.9203952036508890  0.9201926294796217
  0.5884783683592171  0.1706973422286801  0.0868999604446719
  0.3377843448955898  0.0871497160391303  0.2542414698329341
  0.1705135811977019  0.8372203345560222  0.6701467778295740
  0.3367700454406174  0.6704752414604224  0.3366284639400348
  0.5046288895823656  0.4202967994518159  0.5877761600045776
  0.3371621526899785  0.1706767869637992  0.6700167099103406
  0.8371732163028244  0.6704154422847670  0.3372356714016643
  0.8387404912223001  0.2528128827370293  0.4218174440005033
  0.9205052378565195  0.1716926481211457  0.5881780449441879
  0.9213205346835831  0.5873771448703621  0.1708827562155528
  0.9206540812215133  0.2543543169329728  0.5042316127715858
  0.5872121628023167  0.0871341179335273  0.8372789392970588
  0.9196398751025657  0.4201494623599666  0.8373641562023232
  0.3369269753865782  0.5034038215884804  1.0033182281586155
  0.5045236718089966  0.1704528661948003  1.0032382395792070
  0.3379396915289641  0.2539983836938013  0.2537322299763627
  0.3371291904523376  0.1706607481034165  0.3369645574374114
  0.5041026245374307  0.0880409198361967  0.4209568188961322
  0.3371688674926439  0.0871903406840702  0.0873700710531785
  0.2536360707212361  0.2539026537701740  0.5041408192652833
  0.4208428847152087  1.0046215882367455  0.2535823069175501
  0.3371083869481085  0.5865254608855534  0.4204440582297144
  0.1708689933838947  0.8376804623357186  0.1700010596789013
  0.1702359203873323  0.9210870249147909  0.2525567158598213
  0.2531776934174866  0.9213698064035238  0.3372405282401931
  0.5871936271141538  0.7543672173557524  0.6714631403026958
  0.4207803271006441  0.6702284268191561  0.4212667624301006
  0.2537400907270657  0.2538040891458131  0.6708146801435233
  0.2536101030961043  0.1704114471172614  0.7540380721466782
  0.4211824935960780  0.2540398253838248  0.8371462996462385
  0.1699131074320212  0.4195599488867263  0.0872707306348332
  0.4205450309349849  0.1703758998866377  0.9203075872638607
  0.4201664002586754  0.0883374472576234  1.0041438065086090
  0.3373398989321787  0.3371274817667770  1.0043228760812153
  0.2536198644502060  0.5031731466899121  0.0866616660235370
  0.4193567626921693  0.5043408281880404  0.9202235166256587
  0.4202513631671932  0.2543309954201686  0.5047119552502667
  0.3372953498772767  0.3373317423053043  0.1704646442326507
  0.5036795804611685  0.1712797686001329  0.3381318834169741
  0.3366368738831983  0.4195984707246329  0.2542103065066434
  0.7533750041377525  0.6708220702344264  0.2540769145918372
  0.6713613054548488  0.4202127631946805  0.4208856961982123
  0.7543645321787902  0.3373357338455646  0.9198167886305887
  0.8369429605621554  0.2542440383486095  0.0874178417467243
  0.7536887474344941  0.4208734692526487  0.5041616549679114
  0.8366547606450170  0.5858942662073504  0.4200067512225059
  0.6702468010160219  0.5037586266669336  0.6703554877195147
  0.3368912441551815  0.3370490422974315  0.3373700537066768
  0.5041803364112074  0.2537764581342790  0.7532682655455127
  0.5048871770910246  0.4201570470742675  0.7531445723950365
  0.3364232029445076  0.5868687843999947  0.2533048409604385
  0.4199668283165218  0.5033742843439363  0.2537414247151656
  0.3371306155278574  0.3372106800512093  0.8364798371943669
  0.2535973715208492  0.5039436890674410  0.4209715980918762
  0.4212411099567098  0.5034978322880219  0.4207287217495778
  0.2535806760686979  0.5867823009498200  0.8376484276143835
  0.2533822664889993  0.7539052041417199  0.1711412954927256
  0.3374788170564904  0.8373697711944977  0.1707469592069988
  0.3365928023341374  0.0875553157224789  0.4202632967717927
  0.4208629722832850  0.1706545260802634  0.5879728068526708
  0.3369513033834060  0.7538585663561231  0.5869022071503259
  0.1701520766956020  0.2533756867176165  0.5873158253665189