Cr Ni
 1.0000000000000000
    20.9585193088145303    0.0000000000000000    0.0000000000000000
     0.0000000000000000   20.9585193088145303    0.0000000000000000
     0.0000000000000000    0.0000000000000000   20.9585193088145303
 Cr  Ni 
 259 605
Direct
  0.6698624766981299  0.2543297556799054  0.4192899891051144
  0.7546763366881931  1.0018262393739832  0.2547852899345338
  0.7528710456620207  0.1699605171885866  0.2523469643455322
  0.2542767494088973  0.1710720093327187  0.9203292507853778
  0.4202883486973267  0.1709013449715880  0.0874276495432077
  0.8372372620923535  1.0019405614095405  0.8364444308736239
  0.5038752358630424  0.1712848114772474  0.1708688290269334
  0.5872580183786718  0.0035849206514662  0.9206575643665028
  0.7537089056607973  0.0873222979397974  0.6706032895694968
  0.1715603568707368  0.7537191576683118  0.9197814160839972
  0.2534112396576404  0.6700620384686444  0.0878598155880416
  0.8346469607021516  0.0842255032377991  0.4213266529647499
  0.1691668535179832  0.1683687757242301  0.3386671800129992
  0.7541384387045336  0.5872061335356403  0.3377499175031903
  0.3379377202834729  0.2536649540850123  0.5851489866151606
  0.7544981816381425  0.6707029743126113  0.5876216040674224
  0.6716111458804277  0.3373940235591692  0.8365155550520404
  0.3371970122647643  0.2537492973642666  0.0893654940124647
  0.2537923533962867  0.1731314158102107  0.7522195927951330
  0.0031259866838993  0.0866334773159208  0.5895911011579874
  0.5047636076643239  0.0867596212581904  0.5871955321492434
  0.7537964482398340  0.6713217636950838  0.7542218644593590
  0.4194529957730767  0.8359235302040445  0.4220376324155192
  0.2549494345145539  0.8353809254878618  0.7544654798633909
  0.6719684265485374  0.0849165728042134  0.4203374236075587
  0.1698345158191314  0.2530879927069389  0.0862720913501278
  0.4213088351020861  0.0864372927046513  0.3382460383921713
  0.5046072809163349  0.8364201747418831  0.5047136265719433
  0.5031008909583802  0.5868392173251318  0.5872738458577815
  0.1711150285249383  0.9207726031453742  0.2537831662066378
  0.6696710927118061  0.8356539270013774  0.3378907554705387
  0.3352404987729906  0.8368430859199352  0.1718161717883514
  0.9209191535100543  0.8371820472563372  0.2538808417513778
  0.3377972104314887  1.0033938930171846  0.8346613588722283
  0.5874087994292760  0.7535678939648196  0.8377874966756430
  0.5043830929426504  0.0870428711024374  0.7532827590070635
  0.1726316444988554  0.5889788217449670  0.5869432137647576
  0.5054408311550455  0.7531856880378018  0.5846180619677147
  0.1695159311720844  0.8370577793916139  0.5033608639430027
  0.3366234327960544  1.0039071799561652  0.6707900014273896
  0.7533268723142013  0.7547382135244397  0.0044918308499120
  0.8374199921437839  0.4212995884359497  0.0862111183410963
  0.9217297843137051  0.5893640478873466  0.1702298046742830
  0.4211676198062205  0.9205747557997696  0.0051120738509438
  0.1706597732207094  0.3368580558103336  1.0041452047595916
  0.0053940388260068  0.8370376058404694  1.0043730611274446
  0.2530038230297303  0.6691057489126164  0.5862229145610900
  0.0858613537935091  0.3363293488028888  0.2539678084940047
  0.5044711378979768  0.2563478206645524  0.5878587448236378
  0.5044513857682517  0.8362865211278633  0.3376490701493086
  0.5033144685203257  0.7548648996619931  0.2545314599554238
  0.1701978185689240  0.4198411927435057  0.4205275191909355
  0.0860476374066613  0.1706184237581279  0.9199538953698833
  0.0862243823418042  0.3368583688073175  0.4220346813340797
  0.1700643489365248  0.0046614687400461  0.5037788683043148
  0.3367195645392363  0.5037613931029471  0.8360708225863986
  0.3371596153819493  0.0054929736678890  0.5054526071568458
  0.4200477791711750  0.9202650743098234  0.3373753501056272
  0.3389039794589778  0.1723398958503475  0.5037015327650004
  0.5875622924976898  0.7516563878412552  0.5042368260883462
  0.8376154317994655  0.2522025970019315  0.4186630521180029
  0.3373453967533881  0.5028952675354398  0.3363910733250073
  0.8380237924149708  0.0025317439980792  1.0035729405192435
  0.1694893456020589  0.5869235414143444  0.0897583287811687
  0.6716982854145193  0.1686274581089141  0.8361216872443429
  0.8375690542604292  0.0033976597055265  0.3361732421345348
  0.2526815094016215  0.5024050536730924  0.2543454831044007
  0.6680315628827148  0.9214082475415761  0.9207657958975659
  0.1721837855073427  0.6695224795889937  0.5031365147194385
  0.5035342398030960  0.0879498841785598  0.9209726414360456
  0.5043406265784641  0.8375263873313336  0.6697620701450843
  0.5034590544813490  0.5874778290136280  0.2532896494903038
  0.8365705106278588  0.7523566512573918  0.0840342950800384
  0.6716650183449420  0.5052475313242178  0.6689701682752281
  0.1693506523634542  0.5870821359889485  0.7534316867501482
  0.2539958683077801  0.0038272768670518  0.5873385425819031
  0.5029975830420232  0.5866167726526291  0.9203816111305437
  0.4213862200842074  0.9198194602915295  0.6688171164740229
  0.6703368313496664  0.6700652528882608  0.1709060325625084
  0.7539147779294617  0.3372688225341899  0.5868800160411181
  0.2525046081199352  0.6694368877665973  0.4213530920466297
  0.2544687336684168  0.7531621778248360  0.8369597680470131
  0.5865010086989423  0.9203994518879045  0.6704518682363978
  0.3369891408386734  1.0036229058274251  0.0024702600951865
  0.6690809834237736  0.7540644705024552  0.5868662813554371
  0.4195586802803279  0.6701548105255117  0.9204520211462773
  0.8379688033306655  0.1692617080637942  0.8362028337505095
  0.7546393725917586  0.9204326561254146  0.5032204236098095
  0.5027597885070496  0.8362471865769604  0.1715223161015114
  0.3364662286072945  0.5025003826396037  0.6720385098012261
  0.4198423000623179  0.5874940227623949  0.3370926151549669
  0.3376690716536375  0.7547440240771607  0.7529486157017847
  0.7537938343188043  0.3377380653885481  0.2537842299845873
  0.1706631623912983  0.0875242574840111  0.4205769407017083
  0.2524316966009835  0.0879938171694414  0.3390724646844474
  0.1708895656033002  0.0036878867925105  0.6712506859837174
  0.8383140374174531  0.9209891985182094  0.0858586292453734
  0.5045180839884169  0.3381576399895236  0.0047448584889860
  0.3385415959367665  0.8374680320732678  0.3384459807529950
  0.4203062348883811  0.3384377904797435  0.5870468868824920
  0.8369519983740125  0.1687602770344347  0.3372055621305494
  0.4198143381557701  0.5864225179043000  0.1693310878014086
  0.7544514496478314  0.3377751935090731  0.9193764536929938
  0.2535491813504929  0.0025113003941468  0.7530524188336630
  0.4220112765402714  0.1709370148348590  0.9219337259674093
  0.7532466824657470  0.2535388364969367  0.5031433582843504
  0.2541303190347834  0.2545591957955269  0.6705790601028634
  0.0025989243614970  0.9183855407457882  0.4229556166342082
  0.9193994244613342  0.2530074772552737  0.3376538825171642
  0.5040355589360616  1.0046551218230200  0.1715100563249909
  0.6717768108355837  0.1698084660024465  1.0043788866737418
  0.7538497277630317  0.1693470643480239  0.0866640878851397
  0.3387073451684363  0.5871970482946364  0.9206894592281837
  0.2538025076000040  0.6703862950127624  0.9205143861656274
  0.4215775085725794  0.9204562653483231  0.8375308119595209
  0.3377036947752743  0.8364033428835722  0.5022701016927364
  1.0025805928772942  0.3375174982762071  0.5042092118996022
  0.3386156183679568  0.4211952038521658  0.7552125055236675
  0.4205360274930954  0.2548287500573693  0.6702098412826539
  0.0044955569000748  0.6709123942936150  0.8359581260271888
  0.7528204988975665  0.0865260327303885  0.5032766726841964
  0.6721944494415739  0.1702508888156098  0.1715810786237410
  0.1704610486567774  0.4183200405411940  0.9236240315831111
  0.0884919793962871  0.0025069879678563  0.7531144609353209
  0.4208232841778384  0.4195647552058210  0.1715378661415858
  0.8364964682695187  0.5892429339078906  0.7557005393296521
  0.9210019988476223  0.4215515380690721  0.5052077488380964
  0.2537780286624122  0.3361574568363762  0.2542486526086293
  1.0042087348039603  0.6708172594136161  0.0042391492030919
  0.0033889234268281  0.5039588136185500  0.0043314261179383
  0.4205032640404708  0.4185925801363415  0.0032422905667042
  0.7541628989975556  0.3375642689638415  0.0860585342955876
  0.6699670447721867  0.4226434085647600  0.4206599556721616
  0.5029048122248911  0.9189132795872462  0.4196089410329897
  0.9198240603642842  0.0867662084978101  1.0030003869797581
  0.5893953627252616  0.3377130883661469  0.7552646444752931
  0.5880440311037589  0.5048245931034825  0.4210534663171367
  0.1701931169585633  0.8374318765947403  0.0030921389168699
  0.3348264611699597  1.0065809592205057  0.1712682112433795
  0.9208748687496758  0.8372198678479219  0.4213788782705156
  0.9201974308661159  0.9196221212262223  0.8367602180809435
  0.1698229471250282  0.9194999249013097  0.9202897755091017
  0.8369652910793889  0.6708567542987040  0.0040833660402838
  0.5891569213816529  0.4205710695295083  0.1726876420038467
  0.2532975421738054  0.0866407949709678  0.1704701924062685
  0.9214387884062361  0.0877457190241013  0.6701561166661866
  0.6717013087281356  0.0860270581861080  0.5869373512152040
  0.5035874964287852  0.5868559756865411  0.0878701694455814
  0.2533026104199381  0.6713099739793934  0.2544112885851381
  0.9210541011616752  0.6721266198565907  0.2526116515027951
  0.0035607210032764  0.5888259742392868  0.2525328779635886
  0.5875773987234277  0.6713975345650959  0.7539351028422874
  0.0883375558378498  0.9198826042728651  0.6704319856668923
  0.0027555359428255  0.3364512262437584  1.0044660494714590
  0.0868447897569759  0.0862787812086656  0.6713860076746823
  0.8376565826621538  0.7537951895144500  0.7552129438568278
  0.3374335036497182  0.8367264547902471  1.0043014365455762
  0.9210584079494459  0.4196708358917141  0.3368393496486359
  0.0872029667953992  0.0868493904512299  0.1706281424243496
  0.4191657376185271  0.7546616517263703  0.3381287017532371
  0.0038347302051895  0.5032064322227043  0.8369622396078241
  1.0037395372436426  0.6695425247575134  0.5038976391363816
  0.3383349769515144  0.2548197355732579  0.4189430119920689
  0.5037509354257140  0.8375256279267045  0.8365979732936855
  0.5881734426372350  0.5032914977327391  0.2533115343248262
  0.0024373779125513  0.2535665717863688  0.5872171282360830
  0.1702959292301430  0.1706334992348841  0.5032626800133854
  0.9204573398007415  0.0859008048619255  0.1696584107899576
  0.1713857876537993  0.2517764554872996  0.7537857499911537
  0.2540222011898198  0.9205010051635838  0.6701845392307814
  0.5861067992317959  0.5879293472312230  0.0053712490941538
  0.7527764543336697  0.0008863140460220  0.4194446329085018
  0.3372207434755835  0.2537914838639674  0.2562302713225718
  0.1697782136502737  1.0047890996537123  1.0032125659469844
  0.6699353786817935  0.4222720382423904  0.2537941887602970
  0.2525759269984995  0.4190785065429509  0.1720187826341201
  0.4234033605657797  0.2536728119989207  0.3369608089938079
  0.6732976877245547  0.2549022685698789  0.5868903619028166
  0.4219141641409137  0.4203978319470404  0.5052267469069294
  0.6697439216526825  0.7553509464324223  0.9227597320222104
  0.5043536770118130  0.4207085499796513  0.5870721472157268
  0.0866735883035722  0.1693976196172455  0.0864696053893756
  0.4202106071085113  0.5024760437942897  0.0877812112447141
  1.0033929102388324  0.4196777617669871  0.4215072517019151
  0.7530082544037856  0.9186991385283886  0.6714953048549160
  0.8370630163949889  0.9213866857317164  0.2541211326401296
  0.0870795880055801  0.3382126062744120  0.7527325529360378
  0.0015511622036697  0.4196927291484011  0.5865222619995830
  1.0042299920794600  0.5885083987826141  0.4193305426510148
  0.8349236487836393  0.5878796100006363  0.4188023291178058
  0.4214618545917798  0.3361239200323567  0.2563399711616818
  0.5021530542123755  0.8371704901211987  1.0036668207698867
  0.5047870625120681  0.3362654067469075  0.8359744780724014
  0.9201508372162126  0.4211830277008972  0.6707811912785346
  0.6690908888457811  0.9217309736766399  0.0884101878682731
  0.3371854876250314  0.3379292433899999  0.3392304350271304
  0.7550431376855632  0.5890258768904411  0.0046308157871605
  0.8364696363381108  0.5883420678359079  0.0864926848304433
  1.0022270811997593  0.2521460248826319  0.2549990301670633
  0.8366900704037209  0.2536943318930837  0.0861012202477278
  0.6716157799874317  0.8378928871300374  0.1688682015884010
  0.5883412704378234  0.4230559289177180  0.5034130889789596
  0.6730262970739120  0.3384717454517166  1.0036934660362742
  1.0036371364724768  0.2521544890564213  0.0860417834492742
  0.0872054331489848  0.0040116411007327  0.0870863015749894
  0.2556456460409093  0.9200135836463706  0.8365662291596550
  0.8356100264524868  0.9217761131520910  0.4210316589187565
  0.0027307752213288  0.2547092282389444  0.4215761320876589
  0.7536383044139855  0.6719413924238244  0.2528496514180658
  0.9207858864034920  1.0032021742627437  0.7541411651723569
  0.9209437091888596  0.0050659168245491  0.5896644207492011
  1.0027825839268867  0.8375680326715832  0.5032745093659688
  0.9213083075424250  0.8366524457772017  0.5865692946912286
  0.2528909909642139  0.4202219021415672  0.0027215699396697
  1.0022197377961326  0.1707789495784622  0.3372309131100300
  0.8353127607599157  0.6726044429338388  0.8363070983700521
  0.0047961289862556  0.1703790298469087  0.8370272002515869
  0.5039750936135692  0.5062075065554310  0.8383699076105294
  0.3379440115215702  0.0877298602031302  0.9205726408488815
  0.6704423340016111  0.5056842625922755  0.8368086174885010
  0.8375126913740999  0.9192557384193828  0.7532415530057978
  0.5890439012000896  0.2533473699846490  0.3383101062914715
  0.3367157970538462  0.3379815386211734  0.8357446135900433
  0.4211022695620310  0.6708891246916199  0.7526108898216489
  1.0042789969591854  0.7544850840143204  0.2524022554527258
  0.8365892322185806  0.7552479800392904  0.4207042659343973
  0.3383216744155769  0.1720211020249329  0.1702544249131658
  0.3357583306257489  0.6687395180767953  0.5048617485225445
  0.0876923981673704  0.8377563633511165  0.0857362483607195
  0.6709204210792409  1.0024700134944080  0.1705762586773154
  0.7548497527048009  0.5050780177935021  0.4205220304962179
  1.0045021138565324  0.9197197201990658  0.2540129545455409
  0.7545199086213321  0.4205145956814358  1.0027406831331094
  0.7534192933780011  0.3372133608577261  0.7545338697875418
  0.9195449772339722  0.4206614463811160  0.1697214570172288
  0.5034797216081444  0.1725112036469660  0.0029609534584518
  0.1709419242834668  0.4209308357069966  0.5867436441792434
  0.7525799343361360  0.4216750848415275  0.5029733124069463
  0.1719163032959345  0.5874632014578450  0.4197126110865022
  0.0041638127759697  0.6703709268077568  0.6698514994818270
  0.7531310324663947  0.8380692276613766  0.9215211149379974
  1.0033156529488318  0.5897246645815249  0.5870365640696886
  1.0034463929155357  0.3372316094491319  0.8361592938646372
  0.0873856928444088  0.5883855493249108  0.1702838783480702
  0.0858568793629911  0.7530388098589469  0.6701396145103405
  1.0031452131776570  0.4205241978570095  0.2524984466239729
  0.5054781307960182  0.2536060176426329  0.9201870213260381
  0.6683069034918961  0.6731900754722588  0.8387659089286681
  0.1709272441006455  0.5878867884417418  0.9204187900907422
  0.5869072024959219  0.7544217543793459  0.3370935971635889
  0.0847013387683287  0.4181034276409282  0.1720268085291232
  0.8352097758728371  0.5889705065312123  0.5872882450606108
  0.8378717110357181  0.4213120283583160  0.7540493236741617
  0.4220576973024916  0.1700776480762466  0.7526390558881659
  0.3369716304861113  0.5867305370588259  0.0893277272368472
  0.1688639534836058  0.4189483639928327  0.7544486985640826
  0.5062269911637610  0.3362226648511972  0.6702987297982349
  0.0869502131631270  0.5882836842502309  0.3376442181504813
  0.5881645881851831  0.4198618605874252  0.0036148820223219
  0.7538535141935913  0.1692815747161131  0.9202978244133176
  0.8364744956675082  0.2530515523714155  0.2540719011234532
  0.7543571294719222  0.0857263456290442  0.1705640515462986
  0.8372747651856763  0.0861245400502149  0.7539105955355332
  0.5873999377052223  0.0872835679416443  0.8377607483543021
  0.6716809589197139  0.2531612406467313  0.7543887055192181
  0.5881312279107518  0.1702410403063557  0.5864732040127622
  0.9193220104284301  0.2533707816831663  0.5033149526320683
  0.6711693060053783  0.3382519426967802  0.3373629048830678
  0.7532682496058370  0.2534729712527261  0.3376721285454302
  0.6701026687624279  1.0025885922360693  0.5048748088099489
  0.7540642690011963  0.2536094694378977  1.0025567713171999
  0.9202935054254019  0.1700154325152620  0.7542478447368209
  0.7541310001031967  0.0865312013667189  0.8374361113488248
  0.8369304851203464  0.3372597979174236  0.6709536676385064
  0.6711469701562256  0.1701019769877448  0.3368691935708499
  0.6705244385679727  0.7535980335029614  0.4203183123887562
  0.7536704149129900  0.5052171359018193  0.9207238678124777
  0.5048038523088710  1.0043896481717738  0.5035097302249631
  0.4197220402336256  0.5865990216773816  0.5044588995823421
  0.6711187345954052  0.2533061574626999  0.9199955119457730
  0.7547109583578565  0.9197781708206852  0.1696602633049190
  0.5860886425654035  0.7547686786271038  0.0044376735378985
  0.5873758850663902  0.5046849708687829  0.5868926846377807
  0.5856738241485655  0.6704239381646427  0.9222243467140290
  0.4217760078346295  0.4210048117301149  0.8371148204650939
  0.5037202367990140  0.6707669960753034  0.8371425073275534
  0.5050172595444112  0.4208826449888435  0.7539753460631522
  0.5871691239196024  0.5881531692133711  0.8370232392696507
  0.6719084179789813  0.5882031044406748  0.5879450642117058
  0.6706609334015206  0.5039052539671800  0.0046353201000905
  0.5874676698446250  0.5042823779711905  0.9208658362045188
  0.6706173214059969  0.5049227536558476  0.3372214471624885
  0.6703401234338610  0.5873716419717269  0.0867590670807505
  0.8365203662735770  0.1701452155219020  0.1701571232442616
  0.3366341555796912  0.7543216902816179  0.2544561093052169
  0.6709186793904004  0.0036402538965727  0.6700522404052235
  0.6714442286231783  0.2533285915790379  0.0868550161949609
  0.7535311820712322  0.0030217930516367  0.5876042958302612
  0.6698117311248453  1.0029380620105384  0.8370016184269703
  0.7536801244060738  1.0031557904893258  0.7534032736581261
  0.7532859615575516  0.2541744263676852  0.6710475934937639
  0.5027619492923098  0.9202274871319726  0.0888009654924685
  0.6708157216808179  0.0865576138990154  0.9204878441535941
  0.4208639972030959  0.8369271239460553  0.5853809414533716
  0.5038402647663515  0.7531284471377876  0.4211392491225642
  0.5869032032803757  0.6710403731557184  0.2533307122664697
  0.5865367458862496  0.5871547403144072  0.1705513252433940
  0.6713969343417011  0.6698626691497476  0.5037336763946327
  0.5875882819059172  0.6698266279869469  0.5875535963434677
  0.5034994944381133  0.6708691851822497  0.3371272475176781
  0.5025586798270053  0.7554104447463500  0.0882915719102689
  0.4192671283274637  0.7545490142798019  0.1710531545243338
  0.5036380563835567  0.6702968482410816  0.1709518368811055
  0.9185383653549077  0.3362374221352959  0.5875619856159305
  0.8372169349005562  0.4211187895262969  0.5875637904449341
  0.6708108251288769  0.4213164571991555  0.0877514282073773
  0.8365161938239561  0.3376035638165335  0.8360662730911133
  0.8369879034057091  0.4214070061464290  0.9200293164353119
  0.9208661953667003  0.5049267723759012  0.0870966603410901
  0.9212669779366555  0.6706812399044381  0.9204934629842302
  0.5880529257798591  0.3379874730986764  0.4210412034403300
  0.5869051602307830  0.7548248037422429  0.1707092203258997
  0.5025467913823235  0.6703870588148546  0.0046060331718179
  0.5874810209000577  0.8381364860393388  0.2528481986471481
  0.5875418807798222  0.0034932888147070  0.4203592831558145
  0.6703571076341576  0.8365921917969866  0.5039144980863348
  0.5874654927583958  0.9194478768842220  0.3365727382036713
  0.6708395373245037  1.0025742214384621  0.3365366269860507
  0.8371711116928509  0.0037208166009179  0.5059023973610065
  0.6703938868311161  0.0861290544769004  0.2530308453378164
  0.8371920222502929  0.8369797470123083  0.5050033744799676
  0.8372583596482931  0.0866015007159153  0.9200161305083236
  0.6703446385240710  0.0867400682025617  0.0880759004411396
  0.5881712228371025  0.1697516487426713  0.4207476881418992
  0.5878009886882238  0.1699238910499158  0.2539444219750420
  0.5863841309252993  0.8371483743819196  0.7535074575046540
  0.5853294595706490  0.9207061454896858  1.0050545792870664
  0.8368460836395237  0.8371755815301068  0.8368804841159131
  0.5859642749713940  0.9202985427008916  0.8371370673133520
  0.6700157624266053  0.8370475904780555  0.6706347226057167
  0.7543690693222213  0.0030403839122781  0.0874832852739692
  0.6712487652650291  0.0868404040821975  0.7534287455264514
  0.8374551058650422  0.3368725401999579  0.1705142447857000
  0.6701231931345544  0.0028554709923492  1.0040597794282600
  0.4204911364534251  0.8372023899585929  0.9209965721029926
  0.8371387498675332  0.1694678345479776  1.0041563638284705
  0.8380061848305926  0.0024990342861351  0.1702425266231768
  0.6709318049362029  0.2544492089430426  0.2537559826688512
  0.5866441160873445  0.9200276816348195  0.5032749663818908
  0.5036049002294631  0.9202433798857823  0.5865405640099931
  0.5041340812526358  1.0036338961169269  0.6699519883960505
  0.5869932783140691  0.0031836984074225  0.5873614028154918
  0.4199547915024503  0.6703170600801304  0.4207653897149012
  0.5872289779075607  0.5873273185700084  0.5043095669830735
  0.8366075821234054  0.0862101702712525  0.2532570094131221
  0.6702686600541282  0.7545558002171429  0.7534651680923159
  0.6690093072888734  0.8391022095466368  0.0046710196381529
  0.7540854771781972  0.2538855649191964  0.1700354959744628
  0.9202587833470410  0.0035865848902965  0.9195821272840511
  0.5860994925494769  0.8372534662165352  0.0882339460854617
  0.7525997637182721  0.0865922302091729  0.3361689368434837
  0.0867584045853851  0.8383385743839428  0.2538607499238816
  1.0031327606589242  0.1697637183351905  0.1700787045517890
  0.8363351232872460  0.3374714076807674  0.3372735496407618
  0.5864374582832136  0.9200735569709020  0.1707892185064310
  0.7540363144759689  0.3378662873756881  0.4206344448820760
  0.5031015556573173  0.7542131074156539  0.9206193106263539
  0.8362393560846980  0.1695145173398588  0.5037226401231056
  0.5864656777341849  0.8382268531938372  0.9214274084644590
  0.5034558534511339  0.7538587841161478  0.7534201748493098
  0.7539713793188748  0.4219161147643058  0.8367673702380145
  0.8379078199058207  0.8374964009092805  0.1694297795172761
  0.0031548721389389  0.0032542874664792  0.5047356630632571
  0.9199437521487194  0.1683660204054264  0.4219094828542490
  0.0858401052959694  0.1704957400280935  0.4214789568585166
  0.9198566691210602  0.1701760122182869  0.5870271062777394
  0.7534247435417252  1.0025875795483741  0.9203896499881005
  0.0861262831054981  0.4198656819472207  1.0037865226110112
  0.9207644798151726  0.3375982826808659  0.9200034578801547
  0.8368481335043186  0.2533557977448799  0.7547958513963375
  0.5888436968172740  0.2539935177935930  1.0037353583824249
  0.9208907538810649  0.4210859530394118  0.8368601287075516
  0.0034768909581726  0.5046319832421038  0.6696234183083866
  0.8370724940813241  0.2524709384025686  0.9192406741065486
  0.8377118135848153  0.4206651172587110  0.2533209119491396
  0.8374833798028717  0.5046004764698618  0.1708082224452342
  0.8374075729684636  0.3366290512447518  1.0029918722819746
  0.9197251535997677  0.2527011565114509  0.1699843819289192
  0.0864776905997600  0.1699207804587957  0.2540558689611560
  0.7528790097361712  0.1695878344233027  0.4200137829311384
  0.9212946062729345  0.9199330455161738  0.1702877717489727
  0.9203358913989365  0.6708193083973284  0.7545493252821817
  0.9213346159443971  0.0036262766446995  0.0865582337477786
  0.9210500791279194  0.8367923298375572  0.9207072848977088
  0.7536117058946225  0.8373890796923479  0.2528537214739097
  0.9209663221105987  0.8372703485448705  0.0858786260422697
  0.9205071375640814  0.9203928306788234  0.6707618714440942
  0.9210454325757841  0.7538461864742096  1.0032252007163240
  0.0041690668247964  0.8374388608589388  0.8369126596905500
  0.8363302362503996  0.9201740503223070  0.5885399329707287
  0.7543146564985395  0.1694828692743290  0.7541624138825949
  0.9204076542256990  0.0863888078543361  0.8368473182269817
  0.0037081376496340  0.5042710793836332  0.1700048873300601
  0.0052016798111716  0.6723249411038866  0.1693458517366214
  0.8373413121809380  0.4214654574926771  0.4206149052287401
  1.0033786593597118  0.5048775961847803  0.5037466358011344
  0.7540761543727736  0.7549666999120946  0.1696202673305125
  0.5876592950353074  0.5873266706211542  0.6707650938613785
  0.5045085061854628  0.5875613747763890  0.7540577617913677
  0.8375785966036162  0.7546216495257116  0.2531267205497174
  0.2549884104847577  1.0033807587444401  0.9203339546236097
  0.5031213556551488  0.5871361099935384  0.4196519351419465
  0.1702005590868802  0.1703034866999189  0.1709413548956791
  0.3379798732885033  0.1709843722163621  0.3380785331598044
  1.0027978468903813  0.1711620585707536  0.5050205269956171
  0.0863454430297987  0.5036061311996863  0.4210300552153138
  0.2547755344431030  0.1711870756236096  0.4217934878982636
  0.8377131552604902  0.9205299157667369  0.9202452586864812
  0.9209939751115107  0.9198253372016099  0.3375129452125957
  0.8366771356531171  0.7541008981326489  0.9210823735860466
  0.7541434900431830  0.5052459216624192  0.7539200084580833
  0.9198901452700009  0.7531899302446196  0.5044290625097001
  0.8367272800106716  0.3378827344371880  0.5032108402127057
  0.8375737825516941  0.5048147918595025  0.5039584191133960
  0.9202823731771375  0.5056600792669327  0.5873954697004923
  0.8373170518116424  0.5049717606914691  0.8363780936082023
  0.8372021372035453  0.6710546510915189  0.6717476953903297
  0.8373641243190453  0.5050546577512354  1.0041916799791228
  0.9213623110653428  0.5048381176871318  0.9205590483306467
  0.0867238713650523  0.8364019661185426  0.9209093945681943
  0.7542001270148819  0.8383508808277761  0.0862129764193863
  0.1706637501756283  0.7537586891559866  0.7537586704065568
  0.2548639261376298  0.8373540333036305  0.9199874698437581
  0.2536737451065222  0.5871826602259949  0.8364038516952477
  0.1709732275706409  0.9206341723193515  0.4218464560892271
  0.1714945173382749  0.7542214896595372  0.4209390425494561
  0.1709465517091671  0.9183482463439316  0.7551618711051546
  0.1702120365637636  0.0870664521350843  0.5864017832332720
  0.3377497349615126  0.0048012491713579  0.3376134799054953
  0.9205526881614504  0.2531011613034903  1.0029204008979014
  0.9202080749740141  0.1697349981452719  0.0867495197132567
  0.9206525878453193  0.1698441005982887  0.9191585456427060
  1.0039088581674915  0.0867843707386706  0.9192655141018905
  0.6705224830251023  0.5881393606189788  0.7544388899235094
  0.7542003696824016  0.5883376938660089  0.6714697166191859
  0.5879220110663739  0.5046043046568126  0.7539940057472432
  0.6710126375444379  0.4210608833433865  0.5867503751928348
  0.7545791472022120  0.5879735864419549  0.5032270657793364
  0.9214093281475995  0.6707443040478430  0.0867851558414498
  0.7520603148872599  0.6709682554787818  0.0882132953494228
  0.7541019465112799  0.5045482089211323  0.2538581419753485
  0.8374038216526405  0.0861911059252065  0.0868710721574062
  0.0035173422069357  0.8369582280413875  0.6701153248641836
  0.9200141563633313  0.0864177639605386  0.3372866546765439
  0.0868122112039190  0.0037196476829251  0.4208569904207120
  0.7538805966671883  0.6711622547241913  0.4195611305359164
  0.6707438131092474  0.9198554923320642  0.5879453914007781
  0.5879413180151108  0.8381613829565200  0.5869990015176820
  0.6706940705997717  0.6710349825369006  0.6704765706405802
  0.6697818049886339  0.7543606081257221  0.2530039017920274
  0.7549369454659660  0.5045004683663185  0.5871555812231765
  0.6710675086286534  0.5870850535837315  0.4198330557772650
  0.8375390302950444  0.6717949217655562  0.3366665646864500
  0.9193785610712860  0.3371318670717471  0.4202122234425184
  0.6702703148690036  0.3379500755437560  0.5027819862816713
  0.1693197246015149  0.5029825697523616  0.1715646244449223
  0.3357767052661808  0.5024413955235365  0.1720240964181288
  0.3368099767411201  0.9215413642067046  0.4217870432417117
  0.5046732733492116  0.4203838114873493  0.0879374928958508
  0.2534753441892917  0.8371648630224470  0.5864896958779644
  0.0039615265297392  0.7536491346739248  0.7535581217317932
  0.3371944205800732  0.4193129534469872  0.2543620489819934
  0.3372779081015036  0.0874556256027016  0.4208049234606802
  0.6695784981650494  0.5875706740774665  0.9211742870485268
  0.7544075082952099  0.5884180638620644  0.1710544551250462
  0.6703885148594971  0.5875908994581434  0.2537827259526113
  0.0858687873377981  0.4199587864000826  0.3373123830863403
  0.5867373977058077  0.6716640652320421  0.0874356589767967
  0.7537961576572559  0.4219765309391391  0.3371263564683116
  0.5867612461670066  0.6704023794865805  0.4201881353032030
  0.7537240014723295  0.7536773723654563  0.5044753441254272
  0.4207335521903371  0.7532287032630698  0.8366722243731691
  0.6701867270626717  0.7546392833928894  0.0875638410331739
  0.7530211899384723  0.6710415699161242  0.9206418205873295
  0.7541242619974330  0.4211489221275043  0.6715610278080526
  0.7537666537168768  0.2526396854588396  0.8373698343453964
  0.1699048795051455  0.0043681348393864  0.1705254715451742