Cr Ni
 1.0000000000000000
    20.9572415918210915    0.0000000000000000    0.0000000000000000
     0.0000000000000000   20.9572415918210915    0.0000000000000000
     0.0000000000000000    0.0000000000000000   20.9572415918210915
 Cr  Ni 
 259 605
Direct
  0.1716052251282399  0.7533495795085133  0.9204398136502102
  0.6713279980192280  0.4191336218956320  0.9200905554096763
  0.7547041273870017  0.5045367474296585  0.2537397645780181
  0.4208175698461851  0.8367247626214429  0.0873764805115346
  1.0043070973640753  0.7544254702882331  0.0882201234787987
  0.1703539156434910  0.4210290689388062  0.4203980445627611
  0.0029158009947312  0.5036122187052998  0.0021503984367863
  0.8375563827803127  0.5857479355468630  0.2535732352930907
  0.0048370807257960  0.5864061955170441  0.0871173970913374
  0.0036150138937643  0.5026319069945343  0.3387539792986711
  0.1701580109159991  0.5869916322059493  0.4205284759774052
  0.8372344435867448  0.6711743954119376  1.0031219098451498
  0.7533680574900934  0.4201786810153341  0.8376687849894178
  0.7534346068661883  0.2539492301707106  0.6711322415487543
  0.0033576733066212  0.2516307330894766  0.4192961566264761
  0.5881499932860227  1.0045319661629208  0.9197070166427888
  0.0852287640757220  0.7531949100030740  0.3365977841025255
  0.1702362539692211  0.1694645917775035  0.1702633497359886
  0.1707145401763830  0.4224716681652431  0.9208129143063003
  0.1710100643682339  0.1690780854274218  0.6701009302169495
  0.0031399399138647  0.8372114099980912  0.6697632882144331
  0.9184126437107030  0.6701498144200737  0.4208407105160035
  0.5040193592023805  0.1720079163456749  0.3384267428662200
  0.4209782164323436  0.0869977066009535  0.6706475862289011
  0.9197574519776728  0.4204302538118469  0.1702480921338292
  0.8365449234692600  0.3367026033335868  0.1696409508295953
  0.9201028399182440  0.5044729500095982  0.7542433137310766
  0.1694702822665261  0.8388396973564357  0.1702692321307858
  0.5049049589982211  0.5039924841153320  0.1693880417127777
  0.0873936931686667  0.9207410805750579  0.5041855670661343
  0.9216386075063364  0.1712773333803297  0.4192710040372347
  0.5053454666441137  0.6714896278241278  0.3373636071557345
  0.6699039215436230  0.5037499834050099  0.6701321869527154
  0.0861596823191028  0.3342648513497242  0.2543444975781086
  0.3368102024030157  0.6713874224364621  1.0037365108795544
  0.6690884915042965  0.5044658230840567  0.5038580715340951
  0.9198020161183170  0.3363137719587682  0.9206602176822497
  0.3367015391166774  0.2542909239328675  0.7547821838064753
  0.5056509580275765  0.9218365699778954  0.4189686472130895
  0.3366681873026531  0.0037728321481696  0.3374048405135709
  0.8390555552884333  0.9176442079630874  0.7555035664780176
  0.2536458341642976  0.0034090657368722  0.4199220738174204
  0.0870669825606652  0.8372015530853032  0.9211351867258617
  0.2545808355442805  0.1706732873021885  0.0871140535988594
  0.0039042782799294  0.2539498605941164  0.0878350440623253
  0.4200192988169111  0.0041870833814386  0.0884072609712903
  0.3372740051819099  0.2526598426054507  0.9211258941159710
  0.3369702297536376  0.5044049157675193  0.3386477291755274
  0.3372627735060592  0.3369415538192112  0.0047674050918292
  0.4207096910081841  0.4203291805343751  0.0019825021002049
  0.2543173422243183  0.5044656031389666  0.0881673462973294
  0.8373526306626162  0.8371030595718481  0.8366115225914083
  0.7536564752398530  0.5872329509420944  0.8353385550856193
  0.0052300171222740  0.7552899471111282  0.9198268662488366
  0.8369299093385522  0.7535626743879261  0.9202438803348635
  0.7542243902110045  0.3374410257352671  0.9191931484152656
  0.5036302055203700  0.1712626566392402  0.5040880147279100
  0.7546020829506284  0.2538211238775772  0.3376657264071911
  0.5041911017436844  0.7531776255368625  0.2544498108375104
  0.5877475871590242  0.8387951212898314  0.5876662993083205
  0.6693471037264844  0.6698995109747953  0.0026455189980872
  0.0040303893021855  0.2536153855444302  0.9210932891282532
  0.0874952998124282  0.5041363955943656  0.4213712897610535
  0.0885849919417463  0.3365920211158440  0.7536165201907872
  0.5867311772208437  0.4206938480520562  0.1721867524184697
  0.0878659490681368  0.8377204302281376  0.0879170646576458
  0.0855603497544006  0.5039364900447018  0.2554654622476880
  0.5859372698522889  0.7555776887615263  0.8382015034810429
  0.0864153015355625  0.0864905883848008  0.5036762629684420
  0.7538523855694468  0.9205010692964201  0.3379333803197369
  0.2534195669116672  0.8369591528819516  0.4219425497430407
  0.1712242298035093  0.8366226255055825  0.5030248181977933
  0.2533535274897481  0.4217502397399557  0.1703902228566943
  0.5889920505691778  0.6702546804763122  0.4199440985298301
  0.5860995132109820  0.9211270675538786  0.1710181710502067
  1.0040605031935634  0.4217274713962155  0.5876198246303154
  0.7538718063718781  0.9200886636361088  0.5035534820678688
  1.0052347083460562  1.0053244427109813  0.8376791757560679
  0.6717986496347119  0.9190682231428807  0.7540994719886562
  0.7543350498466347  0.1715206747302019  0.0882277859234848
  0.5048877594065759  0.0033179743250489  0.1705004980320488
  0.8362981816460107  0.8376867735033511  0.3374625765769946
  0.9200867415876191  0.9212065841516971  0.1693534842055218
  1.0046549716781468  0.1706503182681662  0.3387777691038390
  0.9216185351270811  0.5872860240954271  1.0038084727591954
  0.5039325110784130  0.9200210363450433  0.5860406662782788
  0.4198868280285023  0.4196187723622675  0.8369429799994772
  0.8373751293521428  0.5882366783101791  0.4203307493108694
  0.6693246875587132  0.6688263056397733  0.3387544085241143
  0.9204453131606165  0.1708975770412910  0.5877141267463801
  0.2526672331827410  0.1700645662133491  0.4212927320804599
  0.8373096852402206  0.3372292296384548  0.5043864280270108
  0.6697714550113574  0.0879876550571539  0.7533356240866728
  0.4199101980667659  0.8378897583917193  0.9192022902000351
  0.0865097472894445  0.1702627915287606  0.9213550433941224
  0.0029320920321758  0.6709915988703602  0.6689618385567243
  0.7550277661072708  0.9213368893161228  0.1700395373984117
  0.5856254835780478  0.3373686408292254  0.7524371881570853
  0.7540728829270021  0.7531067259158001  0.5049875219261771
  0.4194017692875857  0.4205583301632816  0.1702899830903345
  0.2550200893603788  0.5034873648713796  0.2530986366381427
  0.2536146328851696  0.1703799690571790  0.9215179343981653
  0.6715229083684704  0.7525166147141398  0.2531820770475430
  0.5875425493358690  0.4209097319161912  0.3392937885130176
  0.0870444413179918  0.5869590494425121  0.5031570867327132
  0.2547579391051940  0.0875190352105947  0.0055295402936585
  0.4214351874499773  0.5877274688355997  0.6701660829531981
  0.7539314038339288  0.7521622851817310  0.6709442578692262
  0.5864936585202998  0.7544355933971891  1.0018995783857787
  0.8365094660674227  0.0051232841292446  1.0040790360380063
  0.5867765928041435  0.8350129383489616  0.0868803043602810
  0.5039455017482504  0.5876959715553773  0.7544519208934917
  0.3378429266209437  0.3381087326938215  0.8373549850176869
  0.5869353983486264  0.5046489372951302  0.4208370135009751
  1.0043828611105294  0.7546047577638884  0.2547896285851253
  0.9207498784100752  0.6699440011791931  0.7533751841736598
  0.7539389296928753  0.0054049994129045  0.9202948219138559
  0.5858726157135554  0.5860918166404738  0.1695114892930033
  1.0044142149375408  0.5857586470636320  0.2535441206782164
  0.5040901923594450  0.9204411934204088  0.2554287462848384
  0.0852206101342580  0.0875325996249419  1.0035106809838128
  0.7555944024866608  0.8376288604151001  0.2540329024069217
  0.3373462415227967  0.5886690427733733  0.4202105392800700
  0.6705299083984342  0.5868436588785478  0.7533240056811106
  0.0871731952959740  0.9201559281961500  0.1699539566710376
  0.9209503484266363  0.5031470028537753  0.2546824817035460
  0.1688950482048775  0.8373938433005058  0.3370660092833583
  0.5038827253674578  0.2534327487746046  0.0893429763099901
  0.1703736717266757  0.0865837798233747  0.2526566322738799
  0.2543526937230668  0.1688824495608204  0.5875980623592374
  0.8368233498859108  0.0868475921853339  0.9211095792989421
  0.9209470323465914  0.6707513831760842  0.5866075214915686
  0.9200002489359299  0.0047502379832871  0.5871309972271475
  0.5868777161123000  0.6712453555667393  0.5870944479480872
  0.1695887352869334  0.9200924450786137  0.7535070183571217
  0.8379926247085124  0.6690382889387043  0.1704101633960734
  0.6728139766483162  1.0043957847042164  0.3384567963311488
  0.2530514914294245  0.0884338278576692  0.6701619076301483
  0.8365859260076568  0.0032198052787518  0.3374173202955391
  0.2542372067374813  0.0881922195291589  0.8376589447966820
  0.9202561674186296  0.8382756139028490  0.7545397763787129
  0.1731753474253854  0.2525996281399486  0.4215291093241018
  0.5881295253541327  0.9195109519053479  0.3366667927615930
  0.5857809957710645  0.2530014562481599  0.1693082909420789
  0.5031372848785964  0.9206357327598907  0.7543698923789385
  0.3369119137491707  0.0870316056665346  0.2544583381872403
  0.3360590943553965  0.9210660910727158  0.7536556380082977
  0.8369979207648980  0.0047373712788633  0.1697877984693307
  0.2536303253531841  0.7532514743508982  0.0033669193600776
  0.0861737810908405  0.2538421493035934  1.0034654665089187
  0.1700602434393075  0.6698567647111542  0.8371270816611968
  0.2538314412489600  0.5039774946583326  0.9196073939766298
  0.2537700228218591  0.6711884014872445  0.5871664610127588
  0.0884361630339150  0.8384608838613680  0.7533351931880191
  0.5050969636746283  0.2533248567562589  0.9211802184968000
  0.4211880358786518  0.7539480475969209  0.5037450572636044
  0.5053446759726612  0.2538168991850128  0.7535610907414839
  0.0879716449732435  0.9196858647450161  0.3369325365342353
  0.2540550528101276  0.3361786194386167  0.0876314185262791
  1.0036025885177837  0.0867965039580570  0.2545847601740520
  0.0887992603714822  0.5885768643807813  0.8360844579007665
  0.6704340612690277  0.0883515507834032  0.9213146403030448
  0.6697038352225422  0.8373035962014965  0.8371339788355737
  0.1706253753068141  0.9200947917080365  0.9215238427170551
  0.1687182895205498  0.4201982419730910  0.5888516853832367
  0.6712981173595404  0.0881467536957897  0.2543118477020482
  0.2542501181165847  0.5866656432858351  0.1712128970909203
  0.1701963770512679  0.3371093005850718  0.8363657261836613
  0.3371125838947743  0.4217734030829784  0.2550330672068314
  0.4237901272247184  0.5870621413388055  0.1701266606803375
  0.1703968576801746  0.3365534786223325  0.6699839138964564
  0.5047790375241390  0.1712551837122934  0.1704506046732601
  0.0864660656991877  0.5020490105058254  0.5873058374448348
  0.0031004125470566  0.5041448903856982  0.6713149130253850
  0.6706017898563845  0.9204072202883058  0.4202489416691959
  0.4193500041311767  0.3378479126567621  0.2529775600623171
  0.6703441668644834  0.7542263873823529  0.9208185127529029
  0.5034123767433131  0.5879315446511330  0.0857294246306471
  0.3379963857608403  0.4200047412429587  0.7556266270557532
  0.5061329147397183  1.0027543996317330  0.3366969840212131
  0.0047568467002395  0.2530414579175845  0.7538573292964831
  0.7542354483516895  0.2542393405398132  0.1709709923638625
  0.9195947109010797  0.0037984319296580  0.4197851941669181
  0.0027567500735288  0.2549977192170984  0.2539113255299573
  0.7544288998170035  0.0032651739158642  0.2541442913124315
  0.3370980376753110  0.3374688620517267  0.1703121462313958
  0.0039498495183334  0.4206575110463763  0.9194191642556681
  0.4221225544543289  0.0863646205297021  0.0052892001685716
  0.0867731963062193  0.3376928348822242  0.5880335484505328
  0.4198608001681927  0.6716873113525688  0.5878264092329331
  0.2541805679744316  0.9196988120568563  0.0032305894739586
  0.7543688572237266  0.2541765249736054  0.5040354172468861
  0.5877831323358776  0.0879344203939436  0.5047572333993464
  0.7530754831702492  0.5035825494685308  0.0865941461855770
  1.0035653031957015  1.0049851780088088  0.6704241157162354
  0.3369030195461114  0.5876817880219515  0.7543417390994954
  0.6708089669876532  0.9191831074319898  0.5862386212219995
  0.5035192842680238  0.7539043056142908  0.0862999826501863
  0.8377030476917914  0.5029731724393323  0.6711510170996658
  0.8382385621885261  0.0866426994886215  0.7534716606130795
  0.4191106524135954  0.5048003453734138  0.4197746211651577
  0.5856183579878409  0.5865150283464932  1.0044346665444304
  0.0856522981274856  0.0864274701338912  0.8379459358220720
  0.5036305119836202  0.9232876695819237  0.9217277985636625
  0.2546842404233525  0.2552781660158366  0.0026861729229524
  0.0858424680276081  0.5053148304594994  0.0860120484223466
  0.5049367512453812  0.4209860148317563  0.5853319809027060
  0.6708676154663307  0.5865060033150084  0.4213917694024273
  0.4203610872658958  0.3373643137892311  0.4201369091511932
  0.8353953329120142  0.3371986824416850  0.3375320770751432
  0.8386642134288068  0.0886422133513165  0.5867990289300873
  0.2540720646015323  0.7534821611511540  0.1711609620741238
  0.6708888202055078  0.0881795567937508  0.5866142927156811
  0.8373285795949803  0.6707914073329904  0.3377967050861853
  0.7540382792902334  0.8371719139624314  0.0879461022699540
  0.9212894289788126  0.8380846259270831  0.5884971411541898
  0.1712268195201004  0.6709998168691026  0.0035785301514617
  0.0861189337508989  0.5875910614521225  1.0029866502162834
  0.5047946058734331  0.5033027145105350  0.0035896738459842
  0.1706118328651829  0.8389134562191610  0.6699496515582961
  0.7521646988929143  0.6696962946096799  0.7556650943216663
  0.3362753582616044  0.8378156466207607  0.3375085310425848
  0.3375509523473038  0.6696231075756075  0.3376410856025436
  0.0861484383177877  0.2538754485013492  0.1706299937414920
  0.0031171110431778  0.5042056486051324  0.8366460061035793
  0.6721068559243550  0.4202393874890638  0.0864356289863184
  0.3364460980798383  0.9208250528890035  0.2540632114912885
  0.3376950524294681  0.6702958277428577  0.8358179305877069
  0.7539216641597345  0.1700530658062628  0.2529849630385561
  1.0032635649793551  0.2534928171669766  0.5873534730466152
  0.0050320370724774  0.3362976065508046  0.3371482595729078
  0.5863087628280940  0.3361409711194626  0.9200739488831258
  1.0030233685840750  0.7553493500500706  0.4212280548858772
  0.6705958542132197  0.0872759423390136  0.0878000106412732
  0.2528674995159865  0.7548493134115828  0.6703942723851364
  0.0867739739853467  0.5883138909417522  0.3395247601919131
  0.8381178655469692  0.4188473875559581  0.5871065570239855
  0.7537846705330467  0.1693337197002852  0.9196578697295472
  0.4216523999075306  0.0868605004463373  0.8368712563835805
  0.5035028374588271  0.2532971945634996  0.5866233392475969
  0.0044906872711658  1.0043169716692726  0.3372873767253508
  0.2538273346123353  0.7553972642158646  0.5036075782949646
  0.8384277214054358  0.8373330080631199  1.0027571291564106
  0.3352444209163338  0.2518921536116073  0.5855815933498697
  0.5862487250426553  0.1699065419165000  0.9205707895864835
  0.8369616707077576  0.2537045199284689  0.9206394298557815
  0.7548925915120192  0.3358474563807393  0.0886062955455637
  0.9200461465131263  0.3371732997247403  0.5869634811015060
  0.4214513427148050  0.7539975418180855  0.6710640101452090
  0.2545959457554697  0.2550697684588834  0.5044807127413873
  0.2535635859127250  0.2529158048378908  0.3393186599804012
  0.6701776237539684  0.4212612548348110  0.5867926790757917
  0.3371687744193770  0.4212387645327563  0.5875113402770511
  0.3372942022309062  0.9214154216772038  0.5861165949374694
  0.5038866992887453  0.7536304744319166  0.7540542470948374
  0.5866701466375701  0.4207192013615730  0.5034867874267437
  0.0871686338969703  0.0874403090337468  0.6706497231191244
  0.4219064694851312  0.1700603872906524  0.4206083353777209
  0.4226715016927700  0.0876272279374985  0.5025875202445236
  1.0038311701273106  0.4196994819835181  0.4199896931860255
  0.2543495668226859  0.4204547714301405  0.6707043011487057
  0.0881749125674441  0.3364971282366094  0.4203631943148586
  0.0866491502047997  0.5046111807360651  0.7538414943496325
  0.0039331181679182  0.5880637124881140  0.7529845908227218
  0.0872573438201541  0.2538342924725740  0.5036587519589841
  0.1699972374364568  0.9207530898695842  0.4208739845138325
  0.0867369940879715  0.4199534783490904  0.5037174297004560
  0.1703090183829357  0.3375528056653931  0.0036853289602357
  0.9210924975950037  0.4206518185042478  0.5030175221890029
  0.1703567382376140  0.3382305910549233  0.5044224820213229
  0.1708377088975797  0.8364999968354058  1.0045137527047487
  0.2542216313158942  0.4207906172530838  0.5043192277201226
  1.0045967849523079  0.6707237962615907  0.8365501391923977
  0.1703980127803677  0.5033628941350663  0.3366748945271820
  0.0867606797707464  0.5868986821359711  0.6700241060105914
  0.0037794805270266  0.7536980589979493  0.7530237324190887
  0.1706899190316978  0.6704837353099325  0.1709223686560300
  1.0034887036831099  0.0035801609103623  0.1706476428004610
  0.0869238493636020  0.9206020676176840  0.8372801290804273
  0.9206643104796376  1.0038611302219147  0.7542940194970742
  0.9203182541424094  0.7539304679531794  0.5045672045479069
  0.0863279283498854  0.4204089826951308  0.6725078712590835
  0.3383437337007210  0.1696332569548376  0.0041804947043239
  0.0870659078279932  0.2530413546268072  0.6707387706151376
  0.0872580924551850  0.7547537564414655  0.6703696122034120
  0.0874693711754796  0.4211864008349970  0.8366740481245195
  0.1711505698463355  0.2535489707178327  0.2535020516750078
  0.0869655058462293  0.6712956578697657  0.9204257658965430
  0.2536711333648282  0.2536324881263221  0.1706053769692842
  0.0869437493743229  0.6712642085690814  0.0876130061989386
  0.0869272543811146  0.3373206176508138  0.9196905017698236
  0.9206063284957434  0.6700278159855577  0.2538938901437440
  0.2538940277712400  0.6709507536299361  0.7534178686275689
  0.3378000192602786  0.5871645842937927  0.0873560278754099
  0.3370981155018219  0.9202406999154248  0.0873638493677707
  0.6703842088426962  0.5031508508386360  0.1706231678103212
  0.7535864493514937  0.5871849218833365  0.1701950111628269
  0.6707569999193456  0.5034884508071341  0.0030892609182755
  0.6696521744823891  0.7539248142070156  0.7546155126701153
  0.1706133339898349  0.5872172987883110  0.0877254726265519
  0.7534563656978335  0.8368744199522336  0.5872586552005573
  0.7544250334501932  0.8377490641640598  0.9206719304580987
  0.7538400638758510  0.9209240578217228  0.8373123207152762
  0.7544859647890568  0.4209170773841127  0.3371122587049784
  0.6688657292625784  0.6712406468027289  0.8381377442412458
  0.6707631806977786  0.9204512978688935  0.0876432744067109
  0.5869815970586589  0.6704882090198265  0.7543356231857986
  0.1704917751509269  0.9209398466400591  0.5868210227252245
  0.3370509113779586  0.8371502209052183  0.1707522708464941
  0.0858333356619641  0.9212810779851655  0.6695864263323802
  0.4203426679681428  0.6707996870800368  0.9197887399733683
  0.3374535885546425  0.6712350555016501  0.6706204422903825
  0.0869405157419857  0.4201973905199729  0.1713469246400158
  0.6708179996276269  0.4203785699132002  0.4204688995005368
  0.6708796101100224  0.3360469080336225  0.0036552032384558
  0.5864742951848227  0.2535290236796413  0.3372265394880590
  0.6706569283458385  0.3371703871215216  0.1708634095927192
  0.6701906601484799  0.8375616434357994  0.0038234587862127
  0.8375232007189201  0.6711448160586471  0.8370318222857248
  0.7540648348847763  0.9204581971375538  0.6710912482249012
  0.7534456379562157  0.7542823082075655  0.8370302261227276
  0.7540377901826542  0.3372319623060119  0.5873564344372760
  0.7532649535171080  0.3371316371334510  0.4211835259155590
  0.6704926035088745  0.4204933792179691  0.7535109676227997
  0.7543786668166975  0.5869736416223524  0.3375016018812329
  0.7538162671607257  0.4208660242461700  0.6702764616025356
  0.8366653554032494  0.3368174665187119  1.0035487774814513
  0.6702845575632416  0.5033129030443623  0.8363719983554508
  0.7543495692283293  0.5874141190323149  1.0033123291551023
  0.5877523337131330  0.5033005560108299  0.2542376951582169
  0.7535982895971766  0.5037037466633383  0.9197380899906603
  0.2540967616161103  0.3374092384246425  0.2538567559956200
  0.2534381263609890  0.4205452627873554  0.3375477031977354
  0.3373013435428306  0.0038262389857464  0.1710199956622689
  0.4200183237653603  0.2540278856597384  0.3377043283656279
  0.0873516466620448  0.0874123342368305  0.1713548710432336
  0.3369849958851915  0.3373769200524038  0.3376868044541672
  0.0867211363050024  0.2533244282605604  0.8376080352801815
  0.1703913018888438  0.1692574222404747  0.3364330675993812
  0.0873217657344515  0.4212356948552852  1.0029612848711984
  0.9200907237392515  0.7539871798424579  0.6707311486059175
  1.0041798360542775  0.4199168569853554  0.2543860843107707
  0.0032001849907810  0.3380942070163365  0.1701149851837830
  0.0044245821067306  0.1706438381910453  0.1708588554731578
  0.0867250825568883  0.3368990000719062  0.0871255375542380
  0.1707832123308606  0.2532816821798652  0.5871396700122672
  0.2542444884060270  0.2536647624558143  0.6703387406151979
  0.8369311452068755  0.5877598297921119  0.7532874033352412
  0.9202451538470431  0.0872239186508121  0.3369511250725058
  0.0876397939431533  0.5048861200214289  0.9196659142530866
  0.3378243966794636  0.4215483689179832  0.0871557183532134
  0.1703607645708857  0.0867509431224805  0.7544658163257753
  0.1707799146250599  0.5044312762057187  0.8369042845902386
  0.7536802704831276  0.4209138531717950  0.5046262890780776
  0.0875336832073456  0.4203472555948636  0.3373677608111302
  0.3375343113892068  0.6701522447969195  0.1705517127953791
  0.9214185105269062  0.4194866664398524  0.6715431025718277
  0.8371057364729639  0.5036600057547761  0.1700463989336188
  0.6705843782508258  0.7535793916303872  0.0866064576292696
  0.7541962599885512  0.7528592420188732  0.3374221869332449
  0.5878067602811794  0.7541254007158836  0.3367926420617099
  0.7542933024084895  0.5868844966251350  0.5043838904194703
  0.5866853182688297  0.5866711710559550  0.3367120508756384
  0.6703976567882727  0.6703592419282900  0.5041603744272095
  0.3370129588692435  0.7538911189949175  0.0872324516135842
  0.5871453424687652  0.6710726281973544  0.0869857323721860
  0.1697902185673586  0.5043479714309437  0.1708097175341960
  0.8376436165105122  0.5871602278037725  0.5883096119775116
  0.1714381945799641  0.5030849691236654  0.5046689569118662
  0.2534435593731604  0.6717551898598536  0.4205124724693253
  0.1704639445154633  0.1694038704847969  0.5050085625222058
  0.1701649830985207  0.0868506135926299  0.9217522093257315
  0.1705558495756334  0.0865549499148399  0.4210974770639970
  0.1702839129477755  0.2534306902064060  0.9209141740020760
  0.0037235748699200  0.1703483799825313  0.5033907626292605
  0.2535754072240374  0.0037449566255217  0.2541115117631023
  0.0033940278896556  0.0865926617499978  0.4201823674613120
  0.8368944736940357  0.0874618151324393  0.0869966707056756
  1.0042154284606759  0.0868466593245230  0.7538970166936927
  0.8369146184062083  0.1710726916335981  0.3375498894452643
  0.3376052565766632  0.1697844483759780  0.6709977412290754
  0.0032231419747688  0.0873234605370503  0.5866199436544822
  0.0032943090789770  0.0868873452572020  0.9211738767688870
  0.0875633129856888  0.9199406025571015  0.0039887452668847
  1.0040968045344221  0.0863265129459593  0.0872637868281275
  0.9206491996660585  0.0871255180383514  0.6709149783405751
  0.0881205189413247  0.1700605506666668  0.4207258667379522
  0.0031821273406785  0.1701326341207065  0.8374711287134911
  0.0870899046299871  0.0868647972495719  0.3369760011201429
  0.0871360758272453  1.0037155943140847  0.2534485236091786
  0.0867911288416926  0.1706970182588404  0.2541427764513001
  0.0043604584868564  0.3364251179304106  0.8370501659026488
  0.1713972454823809  0.9210945699813493  0.0860237458394129
  0.9204681418930060  0.0870629868466708  0.1711551158539609
  0.2537131251739141  0.4203540591761031  0.8363745364560828
  1.0038972292355055  0.3364435692205298  0.5038547421004749
  0.1704365293941568  0.5047340996894022  1.0046233787263021
  1.0039093268242860  0.1698856144798314  0.6705309678027299
  0.2542502413175106  0.1696614693654741  0.7542302670381363
  0.8371848475678437  0.1705398009857130  0.6709109779868848
  0.0863798117292609  0.1699470381047518  0.0869119712465243
  0.0041540461264699  0.3377090825047503  1.0038724590799479
  0.2541973431976354  0.0037618583016996  0.0869277375107292
  0.9209067930402938  0.2538279333465563  1.0034772020380851
  0.8379161803303906  0.9207805592683221  0.0866224749522590
  0.1698822160541425  0.2532983019588732  0.0870704773017132
  0.9213106728504227  0.1707148021860897  0.2544014094524418
  0.9199205106917304  1.0041477750432892  0.9209566825667900
  0.4215407602723051  0.1704637898928540  0.2548659976394926
  0.7538368141466359  1.0039306032794373  0.7537645869670555
  0.8372148493763012  0.1710069813577594  0.1703483046251562
  0.7545602273033175  0.4205767499180866  0.1701175807640840
  0.4207618146793351  0.6710151607979320  0.4201965300926342
  0.5873635913132046  0.9211878036621258  0.8366144584440013
  0.5857707463616784  0.8389519568102439  0.9205663170226682
  0.6703370114728193  0.2537752575760669  0.9203089538856332
  0.5873982015928784  0.9208456822175283  0.6706979572387544
  0.6703541187840270  0.1710138805198143  0.1701798246761069
  0.5863471503203944  0.5875531152673475  0.5042708954106269
  0.5039347708129521  0.7538514593915119  0.5871172793999417
  0.5873802414697802  0.5035050099073831  0.9199103830705321
  0.7536011956963498  0.0870128940450045  0.8365302024729678
  0.5867941072892486  0.0040598746935577  0.0882320831149613
  0.5870293043012558  0.1706982377567059  0.4211002130573414
  0.5043829605656970  0.6707298615706051  0.1705171938631872
  0.7544623009644740  0.0047833953929042  0.4215708655229741
  0.6707512414688953  0.1705891098283061  0.6708400990334683
  0.5863506208163898  0.5872546365625958  0.6707812909023919
  0.5030156333458760  0.5039379465806350  0.6709763418594035
  0.8377786234597954  0.9203096561223336  0.5871264192669046
  0.6700752706065911  0.6704478763738420  0.1702281030537243
  0.3375159127970334  0.3370007788207418  0.6705212589035919
  0.4202357685314999  0.5044954282657451  0.7536845127284809
  0.5034209409670786  0.5862315854350808  0.9209897728448589
  0.0872434173711153  0.7540930169784609  0.8364759600939765
  0.1708341349265410  0.0040543847555315  0.0038800089386388
  0.3375792515455048  0.0041877934429116  0.0036675092154961
  0.4208194323044654  0.2533813105122053  0.1714277102642647
  0.5041291860770138  1.0038703632716326  0.0048403390472378
  0.3367739718024546  0.9209259264188282  0.4202019845112752
  0.4206024384202529  0.9208715810181053  0.3369337301662763
  0.3373508570730413  0.0868855047013125  0.4199945194072098
  0.2536628957764992  0.7537421750586819  0.8367375947479880
  0.3372977067886300  1.0044332571373678  0.5038120945934121
  0.5035188934055154  0.1707591374543584  0.6699540134385671
  0.6701327561015779  0.5864713422738241  0.0867589589301446
  0.4208428866638894  0.8376236151654201  0.5870386832860064
  0.5041008214221073  0.1705651079744845  1.0043382468279443
  0.5873138391706028  0.2533793575298710  0.8369621051408829
  0.3381570452875488  0.5871194557960063  0.2542475644407770
  0.5030418320953455  0.3373274799305467  0.6696820176034183
  0.5866275878999906  0.3382867846832717  0.0878571567491026
  0.5037205437635036  0.3377047286035457  0.3376734237333906
  0.5035967264428666  0.4206134427191582  0.4205273459410886
  0.6715825371070590  0.2543192962004441  0.5874313594034454
  0.5038819116320935  0.3364026430323798  0.8368411999376215
  0.4198907276069557  0.4204473235403704  0.6704591375632521
  0.5862776553056501  0.2538855514637197  0.5046863622336517
  0.5872311533719508  0.4192454240598014  0.8370676137155721
  0.7532585767462793  0.3376936985504931  0.7532925986172194
  0.5864875518340780  0.2542737061382792  0.6703812267879994
  0.5038891936079072  0.3381316403242307  0.1710138135368279
  0.5865993987304798  0.1702726295648797  0.7524419581809175
  0.6705186051740762  0.1711605784930415  0.5051020966974281
  0.1703634743701055  0.6712046235678825  0.5038144882288333
  0.0038490709657997  0.4209166700975704  0.7543854999692401
  0.0043538284530521  0.6705212992671999  1.0041039294289857
  0.8373896000792320  0.2539655717926889  0.5874615301417010
  0.9209271127559117  0.7537821524059672  0.0034268688936254
  0.7536857576959161  0.7540660296442948  0.0035615840628143
  0.9208014572396496  0.6709266955178924  0.0868640070222330
  0.9207343110934086  0.5866554470566916  0.1702132544878587
  1.0037224094222250  0.7542447409883005  0.5872418321531370
  1.0027934358499166  0.5881068955443375  0.4211908009198617
  0.0042783223353812  0.4214073821330860  0.0868520120509954
  0.2539144288331117  0.3370338991069413  0.4212235712473703
  0.2533349961974680  0.1699997791845943  0.2538535388308215
  0.3378670924064118  0.0869768468392688  0.5869812815641188
  0.0870207976395856  0.1696140590675291  0.7546326807882160
  1.0033355660444170  0.0042341925780164  0.5037761427923743
  0.9198250679974139  0.3362471742432874  0.4202713680213609
  0.5873737336809305  0.0871419994429684  0.8366058511820709
  0.5874211060543256  0.1696169146747689  0.0872006602586027
  0.5051988141465151  0.0869085153682442  0.4197710218784213
  0.2540865666188078  0.6704152234046450  0.2543083944472977
  0.3374795271675715  0.7533632778860964  0.4203786108296348
  0.9201685637481439  0.9203433907759210  0.0032738078382675