Cr Ni
 1.0000000000000000
    20.9580675997539529    0.0000000000000000    0.0000000000000000
     0.0000000000000000   20.9580675997539529    0.0000000000000000
     0.0000000000000000    0.0000000000000000   20.9580675997539529
 Cr  Ni 
 259 605
Direct
  0.9205554547775420  0.8379849329625845  0.5870354838487619
  1.0052420571087426  0.9205462594004505  0.9198344276015751
  0.8390135342193811  0.0036462270054416  1.0042535319181090
  0.5030622204092374  0.7550307600195345  0.7544191498000441
  0.0874914544829571  0.2541906262534676  0.3371163605899321
  0.2541681528714221  0.5026356456104122  0.0868790495291021
  1.0037988510840490  0.7524417331752645  0.0868513963433354
  0.0877004150939870  0.5056290576150758  0.9192116151938841
  0.1699308880806567  1.0043231788270477  0.8378001917586676
  0.2542101204252938  0.5874547838147516  0.5038920276825238
  0.7543792075554756  0.9198289715178770  0.3364032971663475
  0.2555597880344750  0.5048109871063139  0.2535631221342030
  0.9204983015706962  0.7540377758663401  0.8379423680646259
  0.1710139387915386  0.1712715709217750  0.6696154812207618
  0.5040653124592481  0.5880298905453737  0.0875103773336208
  0.2547683905566132  0.7539385582879221  0.5037778933275876
  0.8369633276724544  0.5870456953827339  0.2551119275712910
  0.2523024795860565  0.1704013940788320  0.7528630545376015
  0.2551027333204886  0.5048254586383315  0.9198121213950649
  0.0029822018522772  0.5042736896162608  0.6715764514041382
  0.3368216437892182  0.5860353445358633  0.2548752377396705
  0.2547782544805319  0.0862171412106520  0.5047796892373539
  0.1679778772561008  0.3381231815404440  0.0041415844085327
  0.2538794477826001  0.1713166653812466  0.2561974066416274
  0.8378433835404976  0.9208389056823195  0.7529289901337154
  0.7550103611431199  0.5876433506920774  0.3345543184073421
  0.6713163319767469  0.7539891677770812  0.5868649805146567
  0.2529523989837335  0.8359304285278997  0.5863988688850551
  0.7541235984749688  0.2542279871555273  0.1717830943054670
  0.3377627991090624  0.2545946900812979  0.4198730123557805
  0.8374084162159557  0.1702641555662539  0.0026202096235137
  0.3351257483265300  0.2535497817542574  0.9215361652628615
  0.3381954109246939  0.5045528949993332  0.6698882022735678
  0.0029634607189950  0.0863950617706639  0.4235350113361614
  0.5042929568503467  0.4196434744102990  0.7553587152942214
  0.0865469469241449  0.1708622744076758  0.5873814539815416
  0.3373310112434532  0.2533456388098185  0.2531043587586395
  0.6701501365264708  0.4200098683096727  0.2552482397813773
  0.0046513033574309  0.9194859235837775  0.2538296172196645
  0.5868443985081009  0.9205339957362881  0.5036808784570478
  0.2543268320626383  0.7530709292434227  0.8377005667821070
  0.6707442753169532  0.1701779433055690  0.0034508312873578
  0.0869922692061101  0.3382341895016928  0.4214935986155006
  0.8373584823612036  1.0053293944179149  0.3348557238343386
  0.3362517596539809  0.5876089322788558  0.7519938481872097
  0.0038610067877927  0.3372469165881373  0.0011213867038447
  0.4191309942179985  0.8373923589031175  0.2539923148244876
  0.9200134025559431  0.0864730792141800  0.6711634639222485
  0.9210638533849177  0.0866572453059516  0.8368257366001562
  0.0869305426584421  0.4206743577182865  0.5027984744866443
  0.7550141983682412  0.1702119418399584  0.4200145020945239
  0.1698799348392102  0.3360556427832876  0.1709562054533280
  0.4184381416867167  1.0037320151252478  0.2544967537579525
  0.7537366779466679  0.1695203897749145  0.5874975453376917
  0.1699334017850401  0.5035483584325384  0.6690253243840655
  0.4191386039511903  1.0051867110370778  0.4219478799447576
  0.3367698849625790  0.6706949778084424  0.8379514001621889
  0.9201774850327252  0.5873220862548085  0.5041329324394225
  0.5022887812191188  0.9217078892881023  0.5882212942718457
  0.0870043404209893  0.7541668222118603  0.6698101595540564
  0.9206952725006592  0.2528654336495885  0.0021299532296550
  0.3401567081977803  0.2536840403816167  0.5881890206265824
  0.8365229623942801  0.5051148253693516  0.5025833138400131
  0.7532764508669089  0.4202388811460276  0.8369866885760097
  0.1714313768312170  1.0036557592833584  0.1715689228044686
  0.1707199521149101  0.2534016879764849  0.7523095486079326
  0.7531043544525214  0.3377421550275474  0.4215006240653603
  0.1692101809889458  0.4215929524786277  0.0874381440644527
  0.0867019330401005  0.6703895912216373  0.4196770204354287
  0.4213857207535109  0.6687317386385243  0.4211308432892720
  0.3365646884608180  0.7550635251214174  0.0870354562719965
  0.6698734178998880  0.0868647285693976  0.0863966746235334
  0.5057265446935246  0.0859727009214904  0.7530121140759317
  0.1715567755856572  0.9194148694810251  0.4210630910218330
  0.6711364488466979  0.6714551885664063  0.0040004346575573
  0.4229785702224420  0.4198912798203091  0.1697014123520247
  0.4205067228279066  0.5872764297488140  0.1704706883086837
  0.1716413604737115  0.9198899355684292  0.2543557016634342
  0.4209330437266210  0.0872911595605481  0.8394587126951325
  0.1710128344777736  0.6707336747532544  0.1709407072237242
  0.3377767567860157  0.1706343897758007  0.0032469063245686
  0.7545607258536107  0.4197858862486052  0.1698481045878223
  0.4213706504474454  0.5864708074289666  0.5034135065474934
  0.5046817737585315  0.5042684280100251  0.6715560186388515
  0.2543260514234343  0.0860022185405813  0.6673300720908223
  0.5853488245244304  0.6704729245879419  0.2548455273124260
  0.6698919549945105  0.5046540737456230  0.6713492604585249
  0.7537350155053255  0.9188175202728750  0.5032401648190485
  0.8383817665016996  0.3368751930602685  0.0041700491843529
  0.5020228342164712  0.3360719993689464  0.1700766718188980
  0.6712191585843926  0.3393023014635925  0.8349451237734068
  0.2551582085450475  0.3365305820798534  0.2548441424942254
  0.3382932606824500  1.0053661888960321  0.6695476130237622
  0.2543079685185803  0.1710915839915221  0.9206655186901589
  0.5024103179412134  0.0041750319001843  0.6709642506154532
  0.8362344734301070  0.0872969136592123  0.7538217947275723
  0.7527504550795939  0.5029963883861230  0.2536094373391670
  0.4204284836799935  0.8357183289052477  0.7543573973557776
  0.0865282409711175  0.5051475121657955  0.0882548572045104
  0.4201079917602532  0.8377688458341426  0.9211988972589846
  0.7552177319836820  0.5868864197794672  0.5035247862037737
  0.0863247044455659  0.1696550681286615  0.0888420717537745
  0.5048737043638090  0.7530031231075988  0.5852410885076519
  0.5053964717518092  0.2548775333749703  0.9184747349579517
  0.0875620548756597  0.7539622889730309  0.8371927161710701
  0.7547983176993451  0.8376783853954592  0.2561928944335665
  0.9199273516559017  0.5040073972252412  0.7524733051957215
  0.3380425837342114  0.0871732845465811  0.4200727208041057
  0.1710055519804901  0.8368811712303251  0.0042141708054439
  0.3356605215891499  0.5039537449410865  0.8382707240266382
  0.8358810518314314  0.1698365774885694  0.3379199487129390
  0.1707830590271535  0.5044103523229093  0.3377934246953448
  0.2526197357397405  0.9181850725658639  0.8375157136321529
  0.6698563472203545  0.8369811558679497  1.0042512567293616
  0.3361468068026095  1.0036738639114813  0.5039198498950455
  1.0038281861251046  0.6718423642732564  0.6698462378244914
  0.1710083669594432  0.8368250931813288  0.8370596887492640
  0.9217017096617383  0.0857135693848690  0.5032829661371057
  0.6710081887174685  0.8374524205069055  0.5039178965276007
  0.6715191612360499  0.4210326388151930  0.5875697340858297
  0.5879724293568512  1.0047202893710716  0.4225925551005689
  0.9205206626793554  0.2543849009354080  0.6713213445080548
  0.0051582632731295  0.0884616286993911  0.2559349498222233
  0.3373002342050490  0.3373396703496379  0.8377187242867983
  0.6702402534846100  1.0025257823618146  0.8369065975651444
  0.3368534011465864  0.3366789216881083  0.1706052322415041
  0.3367514823267798  0.7528183726747532  0.2547688450864469
  0.2522173925348532  0.4198483480513958  0.0046224232346661
  0.2517965570451865  1.0038784199615705  0.2539765683600204
  0.4210336589101163  0.8363567435373399  0.4199678176432987
  0.6725091828989551  0.1703462127995118  0.8370185718357410
  0.8369619002949182  0.0863193364102040  0.0869782784147066
  0.5870687089615348  0.7566536905113725  0.1712299749739002
  0.6718642445881468  0.5869472684290600  0.7546795022675337
  0.9210641732442220  0.5886991586670065  0.8379286156365114
  0.8372658029997718  0.3351696365756869  0.6692321628169393
  0.4201701756009547  0.0861485636899677  0.3368441660818295
  0.6699879257436704  0.0042703436165843  0.0054030182412792
  0.5048660134895792  0.3370641194307936  0.5037704516913475
  0.0039199177526538  0.3380135987605882  0.1700891265571071
  0.7531848845017297  0.6707417856993299  0.5877320917902897
  0.0045044992139657  0.1711023907735342  0.1713169313103266
  0.4207396677861192  0.4191686418391419  0.0041793080209710
  0.1695990563876585  0.5893189322951190  0.9206379354923859
  0.5855766730271976  0.5885245709075424  0.0043883400469976
  0.8374238038965506  0.5042243304570273  0.6710198553371488
  0.0861514275944470  0.0860676513466306  0.3379152500474615
  0.7540821905725139  0.3379764953956909  0.5872456122867037
  0.7531277340517604  0.7552145482147017  0.5030779984786915
  0.8358760643316303  0.0868156250987033  0.2539930937868100
  0.9210247080524075  0.1703986525129161  0.9204540065739526
  0.2526730112669057  0.4213610253667391  0.8363603014668153
  0.9204824697958459  0.2549624922422175  0.8373508819873345
  0.7528316300801582  0.5040380312213155  0.9210720614370986
  0.1696936953988496  0.6712157570339637  0.6684799413446655
  0.5025022839431601  0.0868793678159200  0.0875214278929204
  0.5033577865853062  0.4197982847355977  0.0873705487410507
  0.6700982959162635  0.5052794342171160  0.1701375367306070
  0.3368303406572827  0.5042897739496370  0.3372484557628923
  0.3382661703777665  0.4217386305418229  0.4200705281856316
  0.6698473238370888  0.5049038243515441  0.0053731374446580
  1.0049750640355188  0.9197252633521550  0.7528834402295594
  0.1724370472583371  1.0040567588469183  0.6696997348279597
  0.6707900585794311  0.3364043027302598  0.0044519432704327
  0.6712150811223538  0.4197457680602514  0.4206553691655215
  0.5880166324284289  0.7552451581560635  0.5046227801311673
  0.4222962387226970  0.5884811070993616  0.0037596116482312
  0.5032486114166657  0.3370104325378698  0.8367596814746593
  0.5046053052709639  0.6705525352273687  0.3363956300638196
  0.0024148485605362  0.4220811421959984  0.7527646207889863
  0.0837774999590103  0.3362961438380540  0.2547500497451585
  0.3373950994412321  0.4227353550015367  0.5873227118517896
  0.8380659999549624  0.8367817955765839  0.5045466682038552
  0.9199722870992834  0.4222167101687155  0.5033246551662129
  0.6719742597225248  0.4194754108508649  0.7537782159383979
  0.7542313080698114  0.6731595307937013  0.0869083675303017
  1.0041734097737365  0.9188146398353692  0.0870125650749644
  0.7545392474731170  0.6713233304635587  0.2547685281446134
  0.7537632408467204  0.1702149223874344  0.9195810992989262
  0.0034304061408963  0.2545346704362507  0.7546588328171019
  0.5869909172297835  0.2539239008125637  0.6708841108837704
  0.4199647378888278  0.2533728462477514  0.3377131412048077
  0.2549161359343632  0.2553902195044795  0.3377289699219438
  0.7542757020298324  0.3394857622317163  0.2528589571838651
  0.5881065316973583  0.0856853173845392  0.5031800466401696
  1.0033675440217518  0.6720162247003140  0.8377565353009628
  0.0039250801753074  0.7521500064824495  0.4206743130233283
  0.9233203063332429  0.8382788950086582  0.2538268692547216
  0.1684182763679191  0.2545429445871858  0.9209226741116829
  1.0027853109370466  0.6714475251307416  0.0042803770051167
  0.6704193674193709  0.0035140036446277  0.5032671376917000
  0.0033007911844107  0.9209296914008701  0.4225815733787289
  0.5871202675641799  0.0863130488040049  0.6724285069593828
  0.6715315129868972  0.7545747761520305  0.7555024871279949
  0.0052610120256755  0.2529758602343726  0.9198576250285700
  0.4211574243760609  0.1700553668110853  0.0860921665637644
  0.5034989115762691  0.4194497064099351  0.9211735483429285
  0.9202050081477819  0.9209869509451122  0.5039998819458339
  0.4202243633155148  0.2551223982970369  0.6708641658223224
  0.7531485763609822  0.1699851369230787  0.7545181986118351
  0.1705250593516153  0.1717606327454295  0.5032360188570943
  0.5017414539209971  0.8379677755949715  0.3376586594034331
  0.8371184917611468  0.7548301484975756  0.0871126863280282
  0.1692168769965942  0.8346351092171677  0.6687706186427935
  0.1716620916827619  0.6693821234603681  0.0048539993017359
  0.0031161990388817  0.2516537304903376  0.2573653251754907
  0.5871231331554697  0.5862432767363499  0.5040105506987020
  0.6712740935951518  0.8357476565931777  0.8354545751629954
  0.0887007367953826  0.0854425171359284  0.8376027696526152
  0.8368878453265467  0.9216601265618998  0.9212381122271931
  0.3384572797956154  0.9190747221089696  0.7523637637615572
  0.1701271053151179  0.4213049637178661  0.5872460852011611
  0.0875950436931681  0.8358721662739909  0.5880333068539395
  0.2545656116664521  0.7531277486046668  0.3370352040338699
  0.3364856722360050  0.2513862001219955  0.0869527441446779
  0.7551246002733182  0.7545850608983723  0.3370710135126637
  0.7529000886308265  0.7553339881037622  0.8364215877453647
  0.5037589763393077  0.5877121147365372  0.9223308474633271
  0.2554047505108289  0.3370347265884731  0.4212481105459847
  0.6696357801479687  0.0041389987903039  0.6703318409039171
  0.5887529449217719  0.5025780656948566  0.2528244304672514
  0.1701233385789538  1.0034964546739067  0.0049203092223616
  0.0031774731376937  0.4211376489197727  0.5866316649341138
  0.7552051725662737  0.8362102105154038  0.4211474923031022
  0.0876665298624555  0.3370148104979487  0.9190368246251386
  0.9195819914499558  0.2534794317414822  0.5032428373021874
  0.5013427356376752  0.9205913002496019  0.7531479250029547
  0.2530421241524226  0.6696282536745900  0.9211912046038309
  0.0869458099496915  0.2533995188602026  0.1699656185731686
  0.5033061316634754  0.5866485202728021  0.7539350399632007
  0.2535308588264762  0.9203374347288193  0.1699738995373070
  0.9228850052967079  0.3359839079592978  0.2532990884501580
  0.5029204991009794  0.0865062595025808  0.9190524504272924
  0.7534893710737843  0.5874504124933906  0.8372245890926975
  0.0862946080927549  0.7526918834632792  0.3377419370779696
  0.3357652830287356  0.2532932098783133  0.7528948615345564
  0.4195426314560098  0.9194446069713361  0.6697858813757391
  0.5021760570640433  0.8377911329934363  0.0048469048126574
  0.5862432281039757  0.9208683736762230  0.1707312916355189
  0.5871689060138068  0.2526925849445591  0.0028557648154515
  1.0040586427652443  1.0020846767080638  0.5045637931441227
  0.9212401031412160  0.8379690550063736  0.0870221712803370
  0.7529203640693302  0.5033122897755657  0.0889481993851230
  0.5862522328256508  0.3368095220593538  0.2533712802450051
  0.8377531428492315  0.9192773649588245  0.0866455158639889
  0.9225386490932705  0.2527264362521764  0.1707068505455349
  0.5037333666370596  0.7555929521154889  0.0879902393886274
  0.2547202221594688  0.1704012325412025  0.0854363556525637
  0.1703296839469483  0.3373194402693171  0.6688330954639297
  1.0042341506465677  0.3374297821954466  0.8379210524023541
  0.5860841485269886  0.8374390377050592  0.2527846691096290
  0.5872669332962246  0.2540668737206286  0.5035678111789305
  0.5030734840604426  0.1688839906252498  0.1708216013764281
  0.9214360680865411  0.5049715710931415  0.0873443029869080
  0.2543650180689119  1.0030709986552604  0.5867713691116470
  0.5867388653865492  0.1706561410871884  0.2528124765353091
  0.5877221692917266  1.0035960371590151  0.2532331274829103
  1.0043592025178942  0.5050734904519586  0.3368470828203032
  0.9196162739864147  0.5058583008493148  0.9190833206330301
  0.5872341535020990  0.9204399837518569  0.0038064818255283
  0.6702706311613282  0.6706340081724347  0.3367203133167131
  0.5035842260599274  0.9194651621609528  0.9209782840765691
  0.5046821458095809  0.5040096438633628  0.5039671028219822
  0.6703057450264900  0.0035995752427325  0.3368148489593090
  0.5868476480005421  0.0861400610262494  0.1704480406010635
  0.9210960382391752  0.5867000485236755  0.3367445067939333
  0.5868685553817337  0.8381714797135345  0.0873531580304642
  0.6712542895179633  0.4200720673606305  0.9215775617965509
  0.6713903534949505  0.5042783948483374  0.5035477955217598
  0.5865894535585408  0.3361693724371825  0.0865255056785642
  0.7537303807660590  0.3374221581891292  0.9211187976076899
  0.6703644117283475  0.2531640215068281  0.5872773009732036
  0.5041629034984656  0.3376128811662896  0.6709394555830850
  0.4207571008256290  0.9201646701854664  0.5042775125443014
  0.6711458054600259  0.2542395029794064  0.7533215623524505
  0.4212531657187854  0.5039106692011140  0.5875377870390153
  0.5028693996100795  1.0040829729146465  0.1713918782610387
  0.5866366550966218  0.7548585504723082  0.8368589327090517
  0.2536152823034490  0.5042255711288945  0.7526873386324272
  0.5038963202781592  0.8373488704261232  0.5037647137736899
  0.4205867228964467  0.5039059573266125  0.7545577140061032
  0.5025043863380254  0.7549685549766372  0.2537440525913813
  0.3363263687315410  1.0026445144798128  0.8368310935728027
  0.5872385459121261  0.5872029044605421  0.6718911466309856
  0.5871105166159264  0.0874244290370044  0.0029286931618406
  0.5026874475048839  0.9214901400695814  0.2545851478884600
  0.4202821323265996  1.0031142206428281  0.9198808300539653
  0.5865762137998181  0.8377178143737386  0.4205881573122275
  0.3360428658015730  0.0870323493478793  0.2546048409474350
  0.5882712122122015  0.3379426949123508  0.9200810407076235
  0.2536190709939044  0.0871382399610008  0.3383132901322704
  0.5866293184456789  0.8378956275582430  0.5888612862973726
  0.4194226743184908  0.9212889108306694  0.1707297539843822
  0.3361545577029433  0.9206894118084999  0.2542756309906071
  0.5038732903527263  0.8363604745717499  0.6698115346323253
  0.5877779960973942  0.1701002678495944  0.9191310140460636
  0.1707553130696567  0.1702862403525096  0.0037388968373735
  0.4204148177027690  0.0868208516625744  1.0023934323744201
  0.7533795263718552  0.0872063307386269  0.5038519442182789
  0.5860859204530205  0.1695048519953363  0.0869252541430602
  0.6703996461073521  0.2545607414764235  0.2537011858335152
  0.5873701557121217  0.0869341599157206  0.3368330155608722
  0.5049274298003186  0.0868900587554577  0.5877549114405339
  0.4208387690409759  0.4213423751557386  0.6712020402620963
  0.3377743135706158  0.1703225269112495  0.3380049273852984
  0.3360439622003158  0.0867815713394994  0.9200844186550843
  0.5870793020385701  0.9194994662937777  0.8374958261894380
  0.5035464628706969  0.2531466511064105  0.2541295091775303
  0.6712981932772201  0.0878069765920319  0.4195787911699598
  0.3369260126290164  0.5873801457682191  0.9206826273065877
  0.5020946208682343  0.8384837865236268  0.1711153370337825
  0.7537631199669406  1.0031269815121160  0.7543234067365844
  0.6707243657986224  0.0866920573086880  0.7544187883894351
  0.6707242899389476  0.6718083114470585  0.1713900679678827
  0.2524579790443703  0.2520893673771441  0.1706138410195331
  0.4212194649704789  0.4212112295479537  0.3372417346393508
  0.4207580798607173  0.4210282485179925  0.5042172863339721
  0.3380882555852511  0.5035671939619639  0.0039119694694010
  0.4207884536737307  0.6713780180762186  0.0875783184513686
  0.3374369262405431  0.9204870257741063  0.4211032625294069
  0.2534150816602819  1.0037112028190591  0.4209119826749310
  0.4209124331472250  0.2549718034009542  0.5041052211069937
  0.5041889047857666  0.1698314672827784  0.3368584334704466
  0.5037505678989248  0.0870387027828040  0.4199138523983224
  0.5041681749084567  0.1706768926020871  0.6708857346865494
  0.3364397150397847  0.1717488981776848  0.8375362656439954
  0.5031878365474263  0.9214733813758043  0.4205418953024744
  0.5875364693333215  0.0037609800530807  0.5873037439564505
  0.5031791155322125  0.0034363471933712  0.8366435568253110
  0.5874280165742738  0.0033327917471142  0.9203746398757578
  0.5872637307434603  0.0861249584926441  0.8372636021619820
  0.4210009949228433  0.6703269439815207  0.7536105373368608
  0.1704469035210890  0.9200180619046450  0.9212094676532474
  0.5038251880666550  0.2527062849807262  0.0875184561853639
  0.9202699397682761  0.4217958971565273  0.8373597728060843
  0.8373675702263511  0.5880761962006091  0.7542883858735108
  0.7538116190725448  0.2537185194494880  0.0039763108121996
  0.0037466585633648  0.4216789477231483  0.9197859819893381
  0.8363110801665086  0.6712252220057118  0.0042912416158939
  0.8369500303366653  0.5045219311305960  0.1703321940710324
  0.7544681259025827  0.3360946498087898  0.0875949376264534
  1.0041046583753330  0.5877203688927951  0.9209683659258283
  0.6706829716823387  0.5877148363802347  0.4204157711651267
  0.5874075600595079  0.2538879204045996  0.3365375918072911
  0.9201310971390010  0.5871952257805090  0.0043506170800741
  0.5028188659748358  0.8371907875885244  0.8374998446170611
  0.5032630384135056  0.9207160750119927  0.0873166530381836
  0.7539027061302346  0.4210390559957214  0.0047421583417342
  0.8371383783887201  0.0873018788955173  0.5873858952491936
  0.8372505754774672  0.4210157546451224  0.7536209799151812
  0.8371721002507159  0.2528245646712136  0.5862905068646248
  1.0045776386158332  0.0871623710737771  0.0874335823874223
  0.5037878984841729  0.1703944278424479  0.8368498719479200
  0.4209764569803089  0.3373857760509374  0.2538040532363378
  0.1708708033786821  0.5042139199484511  0.1705487214687463
  0.5872349821152641  0.3373361842089615  0.5879030015027497
  0.4213049032318452  0.3382353181058051  0.5877983012169590
  0.5048397880993560  0.2537850857260920  0.5872474378548588
  0.4205372630603003  0.1702451496237562  0.7540576974050903
  0.4215378829556115  0.1712666237930959  0.5874188246617765
  0.4198082979355300  0.0055396492595009  0.5866331045627946
  0.3363595329473445  0.3359826244746034  0.0038253077971688
  0.3376023991874473  0.4201188536911621  0.0871386734877184
  0.5043747890671130  0.3365822622428291  0.0029613197375371
  0.5867286311151687  0.1704601828948509  0.5876677777396957
  0.4201461691541482  0.3349364344276219  0.0857789243724531
  0.5041806346933214  0.5038767327985424  0.1699863834555794
  0.2537287991323450  0.4207089107078889  0.1707791822149706
  0.5034215600049186  0.6705671673331656  0.8370485404095669
  0.4210546289990288  0.5036206544392761  0.9206314034119942
  0.9199757699374678  0.3381022322068599  0.9198914315302992
  0.9212554758771128  0.9203541273333516  0.8369836113058080
  0.8369340216387824  0.1703263062697690  0.5037007402856514
  0.8376591892203958  0.5877017006948078  0.5872903765528874
  0.8368440939467869  0.6703937159890146  0.5032266599367642
  1.0032537112971234  0.5872850413186070  0.5876249528202202
  0.8366735169585989  0.7540044977595362  0.9196680133369436
  0.8378379629572985  0.8385256977794839  1.0032905558442820
  0.9212235140932458  1.0027998958318194  0.0877941904695720
  0.8382427535400083  0.8371384087085033  0.1713911721586433
  1.0047763355399986  0.0031985266256573  0.1717288927221577
  0.8387095821865921  0.3369868277494863  0.1708261703046826
  0.0048028184264219  0.8372904793172015  0.3378734475370279
  0.8375810374347217  0.4208193242059292  0.2536102848532138
  0.0860807771581902  0.4224753544989921  0.0032234293463176
  0.8369710152838427  0.4201169720540293  0.4203675383044500
  0.0034477935107065  0.4215510885344980  0.4207268043843175
  0.8383860238364569  0.4206167763868356  0.0867386497123399
  0.0865863948796493  0.1705503136806381  0.4211908013715904
  1.0032402453312126  0.5044279760521202  0.1701376403073321
  1.0040944652627422  0.7538102624271726  0.7540263368097656
  0.8383713132356991  1.0027408120333114  0.8365036866531499
  0.7536034928741103  0.8381845958412321  0.9202438478455545
  0.8376420151736321  0.8381232939100512  0.8369956656290064
  0.9210925517548806  0.7538693462086687  0.6700941516955223
  0.9208572960147769  0.6712074066897336  0.7544122877858339
  0.8371025838722803  0.4211625084546026  0.5868065174323008
  0.6704649244563526  0.5879037174657451  0.9212407108769627
  0.9211289770079280  0.4213410162862580  0.0033148281024922
  0.9224815095070253  0.7544305062240849  0.3365737850216625
  0.9214549327720861  0.9209674306205672  0.1708088369148653
  0.9210785634064081  0.8375554331184750  0.4206448694852625
  0.9209383047984989  0.3369403412193124  0.0865617818065670
  0.8368555972136533  0.9211245286904738  0.5878966140856539
  0.8375808661692381  0.9213400576845425  0.4199192281957917
  0.9209412577070331  0.9202826578460095  0.6711255549022462
  0.9214953480059209  0.9207111701274108  0.3368105148506150
  0.3373730035057568  0.4210326623134301  0.2537161497209168
  0.5876695362317877  0.8372510273872329  0.9213404288727629
  0.0868697164809595  0.2527452521218594  0.0054889079369532
  1.0041952009443482  0.5872397306033338  0.4202740737988511
  0.0864709072245091  0.7533761493064495  0.5033413748121989
  1.0036256144386790  0.5884746761302634  0.0869620908916163
  0.9206111913535121  0.6700489920745187  0.2539765986968370
  0.0877014766616271  0.9197611015939189  0.5037563163744528
  0.9202457173510393  0.5876592027037588  0.6705733665107451
  0.1704566144174334  0.6715580554143818  0.8371535328343681
  0.2536086347179803  0.7536176201363962  1.0043939858660802
  1.0038151026008004  0.8367661088235968  0.8371228904424525
  0.1701113609454456  0.4204466833490912  0.2536768454645837
  0.2542691704598797  0.7539544947626534  0.1706086342229680
  0.0871229713819683  0.7535588112250903  0.1703366405197106
  0.2538480345910024  0.1709528530459862  0.5867678226136330
  0.5039081299040876  0.2541421026452890  0.7536969288241029
  0.1696332735223431  0.5051159276178440  1.0033193812425625
  0.1703525844848270  0.2542249718543753  0.5872036719001508
  0.8376763614410448  1.0041098242627631  0.6713764663488023
  0.3372706494778801  0.6703791012977343  0.0044642630128628
  0.9207125061940374  0.5047594229343066  0.2541560353465847
  0.5856045716171823  0.7544050052281485  0.3361117686889045
  0.8386593249120391  0.8373844279529752  0.3373960254229177
  0.6696222089665669  0.9199835890662250  0.2546292894134587
  0.6700889219468086  0.7543767091876757  0.2548369316296794
  0.8381979641687383  0.9200315708919239  0.2540984788956301
  0.6702478231373215  0.8369798594584157  0.3369902675615050
  0.7541650920646658  0.0031221469796190  0.4201146231668340
  0.9207551107537943  0.7543690067525606  0.5046177599855188
  0.7538755923065088  1.0032427656450920  0.2528400168879466
  0.6703005290230643  0.9207991974554741  0.5869050246284789
  0.8375748708537476  0.1702238061570828  0.1707429399944283
  0.3374169524280958  0.9196360472880692  0.5869334187808892
  0.8375845190654845  1.0035231702868292  0.5043067629260859
  0.7543947873667350  0.8378194689519199  0.5877059935001064
  0.7547993762771024  0.8383883742310745  0.7535890880379246
  0.7534569764640934  0.9207240057252969  0.6715234286689893
  0.7536740996657824  0.9206708112968336  0.8372983822449355
  0.8378120592080461  0.7544890170291974  0.2541801027622373
  0.5049361637988752  0.5036557241717674  0.3369646232039032
  0.5876179069725137  1.0022549453533254  0.7549054818786518
  0.4211490071077196  0.5045365775114911  0.4209981124593721
  0.3362966363854535  0.0871367064057726  0.7545236286359963
  0.0877528105667172  0.0025475577129126  0.9207465186882429
  0.1708830727066530  0.0864931098002049  0.9212364692543324
  0.2527019122962209  1.0029498133093049  0.9207715827393276
  0.4192876258754357  0.2536894673002752  0.8368489356439277
  1.0042628548535022  0.1696035416535293  0.0039299973590135
  0.1700572681948688  0.1699684194025106  0.1709163719654743
  0.2539462680905729  0.0873130636493365  0.1706884331319422
  0.2548889812393100  0.2547268689594105  0.6686014032097927
  0.7544488230590570  0.7547770842241156  0.1711446294815120
  1.0042925300626535  0.7537563507048626  0.9208780993548135
  0.8373329592503486  0.6713082840417596  0.1709941741796837
  0.9198176532461552  0.5048859511714372  0.5876548185957475
  1.0043289582214252  0.5868323671954853  0.2535280936209911
  0.9202980786727084  0.5876476581795143  0.1696718001144230
  0.3377378038553485  0.6698877527326079  0.3375489820557235
  0.5869636664393250  0.2527615249695667  0.1703880133677936
  0.0876049649985627  0.8369036772656893  0.7539106753992296
  0.3365680506140997  0.8362835293090388  0.8375447719858989
  0.1711829848627194  0.6704110818637615  0.5029726386654368
  0.0037654554769246  0.6704357902686148  0.5035795466306126
  0.3377704439425083  0.6703026264722309  0.6703921811844060
  0.1702458814136028  0.8357364283340241  0.5036504470348613
  0.1708372696912191  0.7518262181426898  0.5852504231318559
  0.1705330120981008  0.7533731153797714  0.7534545428374497
  0.4197844791329528  0.8372213974997863  0.0872482168634995
  0.4203181568784665  0.0876988282147647  0.5033602993870655
  0.4202100222924052  0.9201156049860993  0.0038345967921452
  0.1700482659653902  0.5873329631088389  0.5867947961205221
  0.3372119020952644  0.5039317630301736  0.5039391926916617
  0.5041827626897541  0.3368823969905845  0.3375530135199429
  0.8376742191634549  0.7538214833682958  0.7549025201848590
  0.8369654294647740  0.7531208321303579  0.5873035858503610
  0.6703339722372982  0.9201214860486421  0.9208454317814280
  0.8365353956497681  0.6712361401205509  0.6708651591887732
  0.8384823314107767  0.6716044371989841  0.3374816309899389
  0.1706973763488957  0.8374622135329346  0.1715120757729526