Cr N  Ni
 1.0000000000000000
    38.8588641550299201    0.0000000000000000    0.0000000000000000
     0.0000000000000000   38.8588641550299201    0.0000000000000000
     0.0000000000000000    0.0000000000000000   38.8588641550299201
 Cr  N   Ni 
 1596 106 3725
Direct
 -0.0274118378699563  0.8465778467027543  0.9699120952432422
  0.8542326869710720  0.3267895236617662  0.2000523260115326
  0.5462054378063756  0.9769763571712965  0.7470999469482991
  0.1095395747492938  0.4945321012617029  0.5994972093452017
  0.7908136827010172  0.8254866525306952  0.4116996286585742
  0.7302821917494146  0.0767539394869522  0.2336446450483453
  0.5312199085938326  0.9374974166169214  0.2357709527935657
  0.4269760586150325  0.9917999306600486  0.7068282062120901
  0.7953059532485416  0.8662899151550852  0.4597744779414186
  0.3675959534657482  0.9963959035366565  0.6867571783759593
  0.5305282147681786  0.1649135986391264  0.8596394315134569
  0.3297921195937205  0.9137778901081253  0.5811875375565647
  0.9553856540863868  0.2912665451535482  0.1329811445815905
  0.7768512065080941  0.6638014369662677  0.1682887509153114
  0.0316259013275068  0.4328218153941906  0.7222777771789838
  0.5839378817659121  0.9053015349427114  0.2623360291126359
  0.0227554638668887  0.4431674383222091  0.6660536525143755
  0.6337937439613430  0.8911167993904320  0.2264994250433166
  0.7441049704523404  0.9198294539096997  0.3690827665506974
  0.3224823871570283  0.8279901720230510  0.7600116667066119
  0.2878640326463370  0.6449762446828592  0.8946500852005677
  0.5686132562777626  0.2137952189725868  0.8618036457125441
  0.3417954255586595  0.6786519144298370  0.9606862959051270
  0.9851697807287896  0.6370810513317855  0.3662162496362681
  0.4730134658739600  0.0100618614169408  0.8704811568706450
  0.8538464052295187  0.9412680157476239  0.5196768891507472
  0.8997252795254748  0.9883577266000018  0.5286843350014084
  0.8041090130746373  0.9638708892240427  0.5496754923818251
  0.3680888505137569  0.7988309136952151  0.3912095429436881
  0.5525895624419794  0.5706283149773715  0.4647147160480376
  0.3641150320750654  0.7520690866406535  0.3448497508339873
  0.5071269636004615  0.1920919102992897  0.7364791664363108
  0.3654694725121362  0.7684448437629415  0.2834442428402337
  0.3108886419787810  0.7998589666407859  0.2565340226993378
  0.5629411119266469  0.3205081394086720  0.6218909334047823
  0.5053440759488245  0.3276758520697586  0.6014154489161252
  0.2669836018878162  0.8590243981108809  0.3463377014768316
  0.6124156456648221  0.3548179861328951  0.6881345118175329
  0.5523283213390772  0.3628977726110026  0.6658600412912539
  0.2145261258996972  0.8902250692015882  0.3213962577811552
  0.2198795306967642  0.9577499751023790  0.3027520432792839
  0.6709344583024742  0.3778407258171053  0.8176246379905224
  0.7087918328110444  0.4258529436004308  0.8226733742912544
  0.8307942259451412  0.0467023538395233  0.1595090477767624
  0.7060566507229773  0.4598535496802830  0.9268891131192897
  0.6464699908418364  0.3857130177867644  0.3342815738320324
  0.2232620147655237  0.6505570472756064  0.8751240358584027
  0.9777992569784986  0.5781168672893193  0.3865840341050035
  0.8182096498421098  0.9110413412734258  0.5701167381324969
  0.3391526905763452  0.9354059401996939  0.7454844959868578
  0.5042785756075279  0.9851540255474491  0.0576655521041859
  0.5242898039542856  0.8466545191034441  0.1442011256337910
  0.0347198836976521  0.3376900007533721  0.9325934291150860
  0.9664208502940009  0.3633174190583869  0.0448138424315210
  0.9161506665943266  0.3976355721393880  0.0191767518795784
  0.6803478075704987  0.8302802148389601  0.1455779674996782
  0.5282587755486805  0.8916855223349333  0.1900933661239891
  0.0443012249396221  0.1695578330690223  0.9749886790991044
  0.0293952945732154  0.1824488817273113  0.9099373803346066
  0.0048658701318279  0.3399008404981996  0.6512364172789891
  0.0649143377788757  0.3621432579586234  0.7726143153623619
  0.1865915500473873  0.3728830979108585  0.9976130583249464
  0.6273418443076438  0.8030875432756492  0.1307985235307522
  0.1093982712031970  0.2698011309038289  0.9713719196306766
  0.6222381286433571  0.6933311898336780  0.1050881985435584
  0.7255655962707880  0.6780340145613140  0.2034505259676120
  0.6757794114014816  0.7076110650197521  0.1765679711142492
  0.0499418707237331  0.4062582167109182  0.8438028425068057
  0.5435961092299874  0.9091916630235221  0.0374529620074750
  0.7196958201554222  0.5831973884079257  0.1183191188156109
  0.1247116194811434  0.3524045338393015  0.7970176208002591
  0.0754408983344383  0.3166994830960403  0.7295086216276301
  0.2947353866083551  0.6802087851720465  0.9999338754788918
  0.3238183395007237  0.7969309178771609  0.6547838461232720
  0.3273162827318159  0.9789668062447942  0.7893993731182348
  0.3461300200407791  0.7220940992900984  1.0052779103553937
  0.6827184129280467  0.7997517782984077  0.2674677510202424
  0.9151773195943319  0.4167761606152581  0.1900750240762393
  0.1623205686388476  0.5555087858688154  0.8305229228047288
  0.2274100650079048  0.7515593002253974  0.6297214674687290
  0.5827869389080994  0.9213832934608315  0.1988706555503630
  0.1883470836626708  0.7027978677926408  0.6212283875565201
  0.8825812667833707  0.3482258172974860 -0.0011888316863097
  0.0959247756765005  0.3901010624780112  0.6086791482260114
  0.6755057893765876  0.8438212543828761  0.0876807459354695
  0.6279144745659339  0.8638845972445501  0.1154466831184768
  0.6333083485288133  0.9076053084879416  0.1643457434867707
  0.0786384843890017  0.2823536654137834  0.6260744058330372
  0.8504276493238117  0.2335366968982049 -0.0364151471418426
  0.3948951131269493  0.0495333033751921 -0.0098274394617891
  0.6362809676892174  0.9686198175172493  0.1489036126397485
  0.4617000349458185  0.6723968829487718  1.0026635445900187
  0.3543398641825157  0.0667387504059441  0.0453166242292990
  0.3565057470656539  0.6141338273945109  0.9797247072990224
  0.3469807993745624  0.6385567456098923  0.9179186649211131
  0.0661956178379806  0.7759532489908286  0.5248127343557504
  0.5495056546971858  0.9542959236732004  0.0826292970553970
  0.5417788796132196  0.0916215136101663  0.7078020072307738
  0.4799246651477995  0.0983662100254025  0.6871140118246062
  0.5897499646150389  0.5604739599571876  0.5522344068460125
  0.9952158669029297  0.9488078597951694  0.7402431314310309
  0.8872513879878487  0.9584957658844032  0.7548363907478012
  0.4714526484058043  0.7367594776182228  0.4391133740118397
  0.6898485489853130  0.7700972456166725  0.5568124484535995
  0.7953736207110821  0.8063129202122202  0.5807776774218006
  0.4743113134845722  0.7966639138218790  0.4258230281339007
  0.7837881075729811  0.8513721566357808  0.6242088491651523
  0.3863946048059452  0.8840332913184403  0.4873632687142161
  0.8379779753645269  0.8846873774351869  0.6909807729855520
  0.3255295677574887  0.9238837339303118  0.4683402759469049
  0.8578674738523435  0.8948881889271959  0.8114777195397181
  0.3308959645455440  0.9827443896701719  0.4484408402778797
  0.9422168959209090  0.9802846591363480  0.9113223453343864
  0.9328049788773309  0.0137131142453881  0.3201044494131187
  0.9281766257733119  0.9880955408873094  0.9766713254113305
  0.3539471400063399  1.0087789449907685  0.6196564340841666
  0.1677810685635674  0.8543301555002357  0.6021559135391586
  0.7655257180298918  0.4253025250431497  0.0111498252470917
  0.1423924505037227  0.4265089194852456  0.6769217798168700
  0.1768759550085794  0.7986877036474961  0.5514577728585704
  0.2471031210425687  0.4580743225031375  0.7676701463119669
  0.4378566194132232  0.9787509406417916  0.7697004081612454
  0.4732096532093904  0.8795179786054673  0.1184871169111997
  0.5748853269628325  0.6226858547388319  0.9961014708870303
  0.1364615096502396  0.0791071853862698  0.5770371707599635
  0.2017172602125210  0.1048518969483580  0.7035146870362442
  0.1172086619989411  0.9573551754253430  0.2675842373644475
  0.9627050474040446  0.7705419643254412  0.8588667471060770
  0.7464566427977115  0.4742320234181067  0.8279152946462890
  0.7035896891481108  0.4330726857999204  0.2798810437909842
  0.6573565070488717  0.5080200777602140  0.2932859457532764
  0.9397387969499597  0.1072639661279274  0.1808088235161973
  0.9983090577893882  0.2101888780349180  0.3471236251707623
  0.5750998265633953  0.6223941176004006  0.9372189174064062
  0.1697172865669164  0.1704702992117806  0.6231468533830269
  0.1556432843384430  0.1835673249206385  0.5544509934948970
  0.9460310985463539  0.1834330009068647  0.3319872013672791
  0.5473809882403367  0.4580405841524641  0.9829252543731265
  0.9901073294123295  0.0610285089924283  0.2693434799800498
  0.4374170992828019  0.4263392670030803  0.8975781609808838
  0.4267764442407933  0.4378908470911745  0.8361082403911325
  0.4318103500277105  0.9515436630158599  0.3713436503758435
  0.4286739506162297  0.8908389626592299  0.3866757101536617
  0.3417530284567251  0.3515694935973944  0.7640964408607265
  0.3446201575291047  0.3189677053407937  0.6571030155459352
  0.5714252168904843  0.7052817760513480  0.3690345592548275
  0.6668335164839686  0.6157904904722037  0.3164585991121330
  0.6187250308305483  0.8803020689023153  0.0528687156965371
  0.5623064690343825  0.6145776741243785  0.2815620684289498
  0.5420057442091387  0.5694458676424389  0.9436917683648656
  0.5009636488247614  0.3476025613260233  0.0632274573447675
  0.3985274126188421  0.3901959761821976  0.0611986249600622
  0.3970593175481719  0.4390873315812314  0.1074667757790220
  0.6520835984532942  0.1493025365849197  0.9009281505330193
  0.6608820005033883  0.1361809413801743  0.9630301475531878
  0.4014455539179381  0.5029357280787685  0.0929304894787920
  0.5244217839765209  0.0142759734789641  0.8292370930343563
  0.7313087186112722  0.7592913071080724  0.7365430525243739
  0.5346829458735882  0.0018467585017940  0.8919689992538198
  0.7097265093467966  0.7340264764727320  0.6767632085305603
  0.7039216787581857  0.4518324320800668  0.4445584811527372
  0.6675193273267553  0.2261852839700662  0.7806298440041785
  0.5574119700447948  0.1986000790587326  0.6955587300164087
  0.7047156760717184  0.2771610957468459  0.7862197554305077
  0.2779326976434463  0.5785859200107145 -0.0155493138045267
  0.1953900246716350  0.6190943384783502  0.0421325352453457
  0.1563347028602283  0.7644534345410671  0.0487239936785277
  0.8801272527938768  0.4386280624353439  0.9954380384319914
  0.1562714059221842  0.8083784503966870  0.0921348826384336
  0.4777670984211554  0.0683595589457586  0.5764973288826561
  0.0752972666906339  0.8960152326363554  0.0580831416170015
  0.0303662737726514  0.9499939883255052  0.1428144880128992
  0.4677920687806442  0.1115534667541802  0.6226208615900500
  0.5630095399602310  0.0627534882543574  0.8328052548101843
  0.6003425857490013  0.5655656506594990  0.9645515929036085
  0.6060352568388201  0.5234145818308085  0.3271548881011295
  0.9197516204294089  0.8138348432394273  0.9521904172777494
  0.8207413864612565  0.6935633224205088  0.7760232493323876
  0.8376174194298946  0.4011870410283157  0.9287500659885563
  0.7554440629604816  0.4165154947425835  0.2472294832032327
  0.5841199008883559  0.5897395702902558  0.8344245144382578
  0.4451171552555672  0.4085307093403775  0.1373784106745581
  0.4096622259855332  0.6934825170999133  0.2631428973676457
  0.7719872129312620  0.8102755964521395  0.7390982965534073
  0.7662181943396854  0.7225043183192064  0.6960002779790525
  0.8311146658224505  0.8320227130165800  0.8722073007958998
  0.7435351459102022  0.3771066052881373  0.4359323242746657
  0.5320525585721753  0.5557545962300722  0.5222197171647230
  0.7779891441694122  0.7102976577323549  0.9843209171777849
  0.5125548591913756  0.2856997377101640  0.5561533041141650
  0.3948976039313763  0.2443450002829317  0.5234499298383797
  0.4169950857408339  0.0036252029243097  0.6426761705084577
  0.4408821273743687  0.0476345317302223  0.6821143995124598
  0.4946327017323138  0.2947996135614395 -0.0055860862457209
  0.4504712308242779  0.3141185835437609  0.0422656372511287
  0.5522897443920524  0.0764572053099318  0.7706352329442251
  0.4533515324847952  0.3804372351394085  0.0274556014324639
  0.2619561485440154  0.8334060017999725  0.2338144050210003
  0.2584417539865533  0.7586474758490400  0.0816089193659668
  0.4450672008481054  0.5135215040736739  0.7184584116216011
  0.6606561953296665  0.5223507639733483  0.2318697620031905
  0.7778350631629488  0.0156049498786666  0.1518372132003397
  0.6121850928270661  0.5027109169190946  0.5629848576704135
  0.6791116239315391  0.4713894446452607  0.6420992579392881
  0.7396293914573094  0.4634328753627348  0.6633094246966008
  0.6253318596234207  0.1523967971022048  0.1182636987114601
  0.7556651267106921  0.5792034438614244  0.8333339543598376
  0.8123161556518702  0.5724197462511594  0.8579900209697987
  0.6858690107802390  0.2279319862522181  0.1737543255480952
  0.9225248576677088  0.7561625070725337  0.9720165913477463
  0.4933091551387404  0.4143193833232716  0.2703826712601003
  0.5963996205162133  0.3813953091845600  0.2033540029099106
  0.5357474324386522  0.3946125265485909  0.5399194524310871
  0.5517388209305342  0.4599003905297638  0.2171553974572675
  0.4522930125500907  0.5526948962316315  0.2654678024256970
  0.6508525750034867  0.4040487147477503  0.6926148454288821
  0.6892141634577043  0.4548645877979340  0.7000565758970905
  0.4544367096450986  0.5671407308236142  0.2018177899092326
  0.6390929754882230  0.4466465855701108  0.7387095141552107
  0.4082462737015625  0.6319543909706214  0.2790621464799884
  0.7227060878391797  0.5326612576550031  0.8136037975618498
  0.6062585724820877  0.4912969807350803  0.2237501701967708
  0.6079078692549525  0.5382123411806318  0.2654602192201642
  0.8912436869413113  0.7942247276311631  0.7842984065410796
  0.7598828234755681  0.5676904385976010  0.8998886430596968
  0.8257958363787552  0.5489941615979892  0.0549106123435399
  0.8027178450713477  0.6096490104412696  0.9636597924402484
  0.8715206493355683  0.7190627163414967  0.9022821790767004
  0.1545190430886148  0.7897157908316963  0.1530385352000123
  0.2074187898967935  0.8029789150104246  0.2232058708154941
  0.8783961493034795  0.6865299331577802  0.8009363483262365
  0.1583643023373007  0.8514367341070752  0.1375728596688024
  0.8583067592305073  0.7513012638617950  0.5581774167373169
  0.7989027130984694  0.7678529745472019  0.5381488629755770
  0.1628582052903936  0.8971995231698617  0.1852342571221777
  0.1346342604992710  0.9162066667524883  0.1376432473476796
  0.1356290836863976  0.9589141631329605  0.1803526379744770
  0.9084189630886149  0.8260697719015927  0.6701187199371451
  0.9181410614823943  0.8140644499630051  0.7332846621976032
  0.7132651371354440 -0.0023486428570539  0.0661032644693801
  0.6733785230697471  0.0938040516715877  0.0361431362519997
  0.9168181659901556  0.8880399156114919  0.8314510002329696
  0.7195415282388971  0.6160421639345420  0.5242984850391648
  0.7133395880254699  0.6715405943953758  0.5175843648622945
  0.5814990336224154  0.2517136441380511  0.0700767175410134
  0.4937842840920478  0.3818989951865303  0.1675522319626213
  0.3034889056829407  0.6770437053762693  0.2899800802883982
  0.5558071945369989  0.5038960274486062  0.0313335656073560
  0.4334513434294078  0.7512226124298643  0.5374526720002660
  0.5152737704258150  0.4923706944540737  0.8002271566535087
  0.3617836123024739  0.7730071346621391  0.0550974281440344
  0.9798055376644645  0.8758012418169736  0.8563399682450273
  0.6053577448559277  0.5338838970100951  0.5008263997104192
  0.4520156414242640  0.5187792463642027  0.1611725468156506
  0.6950973644318624  0.5825977571319804  0.6334134310491851
  0.3498632023561162  0.5654484070001868  0.1669789793250311
  0.3549226947078842  0.6160685882082004  0.2129184146457375
  0.8408234501023089  0.6542695348445338  0.7361870032421175
  0.3579652420753596  0.6789488584118956  0.1931051197888239
  0.2542299496422163  0.7243481304415235  0.2029730152287862
  0.4044178136297833  0.7448465929389979  0.0219526570507732
  0.5730466289584181  0.8167716977805067  0.6185927467182109
  0.4274156896750940  0.3905102333858416  0.5614774356742416
  0.5312395004036312  0.4211878247501399  0.6511170597258175
  0.8944025262226296  0.1847086904346603  0.1988111258516401
  0.2959275459968280  0.2790429854035782  0.5898498390545897
  0.3374584063392921  0.3303824664384576  0.5950488880473858
  0.3110218498514386  0.4205259196304165  0.6840459040991160
  0.3834542560189847  0.3690950805766477  0.6632627571659693
  0.7452704582694758  0.3414168241301293  0.3295820978130392
  0.4072769705957568  0.4638344162702798  0.7121615123231773
  0.5318938322111014  0.7693242228792243  0.6126913311159734
  0.5084997685471209  0.7633045283890701 -0.0036883389349904
  0.9547609777735121  0.8179898195981998  0.9072271656290217
  0.4099838925609561  0.5667620138704987  0.5347519261674489
  0.5314768205103874  0.8433405359625243  0.6581448756546781
  0.7614262355313184  0.5456460035795057  0.4389942132991588
  0.2170479421672525  0.2121091934054377  0.6884631545246284
  0.2326000735971086  0.0694026169934926  0.8890930843532112
  0.8564335253465269  0.3912028371762684  0.4119859510970657
  0.8532986842241047  0.3461451753018772  0.3704475444442520
  0.8008675859443766  0.3745301999492495  0.3389152443413170
  0.7575396935193702  0.4505781682499932  0.3511718363019986
  0.8119039625161639  0.4825923650764789  0.3598980398166350
  0.3990126597494841  0.3765646494779001  0.8932830465952146
  0.7640366324687493  0.5597885456451557  0.3783316335830681
  0.4472071089136314  0.4126987278375595  0.9574606005439714
  0.1721023547545866  0.0302131736843161  0.5542653797408321
  0.7948576920917746  0.2917526131910880  0.1891172654847121
  0.7934660430706760  0.2457650261986208  0.1468611194311045
  0.4242048476166980  0.8448599195173910  0.3381230244379589
  0.7041988272959310  0.3985321110591105  0.1755534472885034
  0.8160225448423708  0.8667588244377219  1.0035146158409733
  0.3792338053898118  0.5052012342930433  0.5353464292763672
  0.6547204109619664  0.4607473135890337  0.2509994456775130
  0.4793259746627077  0.5562404279026840  0.5586120266729748
  0.7071863147119195  0.4466269089641896  0.2176268438248805
  0.7277644907535874  0.9552015024558766  0.8125956231811094
  0.1680000142377511  0.9431007807315436  0.2308923729974354
  0.6161446618500830  0.9032240120171475  0.5704416557160866
  0.7338097884320098  0.7129536160363220  0.4751236295571654
  0.4743270992054900  0.8176411479848302  0.5351635512141470
  0.5786131076534387  0.8581032820276729  0.5659940351936261
  0.5374491141558243  0.9315198193807402  0.4684018207108876
  0.9581795861966516  0.3282674236530988  0.4687037577241339
  0.9576746194596192  0.3905420381850401  0.4532935645332197
  0.9081432288272318  0.4238393235830294  0.4869307666887953
  0.5841520704023228  0.9966674417872389  0.6445620095081405
  0.4817225741373409  0.5638738295102388  0.7259974017304426
  0.3999868315188989  0.4777340749374576  0.6538908813078045
  0.6787191381814053  0.9185762560750331  0.7454520726018987
  0.6737407886612359  0.7988266126431097  0.8199279901292255
  0.6675621716581861  0.9618791103440901  0.7901643479514453
  0.5795762848440829  0.8115548676791174  0.3987300141484870
  0.2393181724625602  0.1879265501298772  0.8114561837187206
  0.2987053917835723  0.1808586597729467  0.8330135448151399
  0.5355970376172089  0.8757937712886111  0.4801752289395925
  0.5245521521252529  0.8053582719388724  0.4965618623271494
  0.9985569217237735  0.1516384424995767  0.3598198323234801
  0.3704812074066838  0.3158669586382710  0.9584431337708686
  0.1822776854685647  0.0138178171992805  0.6197396893646352
  0.6788435834712141  0.6856581715750433  0.4648299801560025
  0.9997702433445965  0.1968581330002115  0.4064372180728749
  0.1610635381501853  0.0530690440398777  0.7008571622724297
  0.5118237913174165  0.1319610594166513  0.5073490918693234
  0.2118497687359190  0.0924668745375334  0.7644183708311558
  0.1516691982742893  0.0986379459112711  0.7447090718485178
  0.9023626541424504  0.3164130078688840  0.3943221192555975
  0.2110608666263571  0.1258638340984495  0.8700144117247157
  0.2712729307093328  0.1168790969107049  0.8938882930345327
  0.2577432395758720  0.1610473941806179  0.9334333057416301
  0.3542688869108671  0.2087587406652543  0.9564604320638044
  0.1842092903410426  0.0299922503660636  0.8267775218310225
  0.4722995170159886  0.4275647777485776  0.6304203719556783
  0.6491295668327461  0.7056428905051676  0.7754019164299970
  0.5745367205466192  0.7273329887817357  0.6897941090433364
  0.5788787203939482  0.7936782155264768  0.4588128659848255
  0.1409830187583183  0.1089855073998704  0.6830827544950734
  0.4444422378795469  0.1119266465853125  0.8957134865183064
  0.2082738113038483  0.8192825497510667  0.1621698951259065
  0.2496941931309430  0.5319212756891741  0.0328721844581259
  0.3519330276305155  0.5826520804527849  0.1042955046811542
  0.9233960563770034  0.9703841371720275  0.6595732514142906
  0.5681393975707403  0.1540413751107346  0.6522438002606060
  0.2957535130683629  0.5005857757644047  0.0549021769648638
  0.5168648317168865  0.1173528610400242  0.5840027502756269
  0.5223279733434328  0.0762893160663043  0.5335665111852042
  0.6498958112612981  0.9552960321148813  0.5568565716377261
  0.4540938377269462  0.2498722188243263 -0.0168047671988284
  0.5748556467116870  0.6035210659535493  0.7693488730368648
  0.6221188598383477  0.6392956419914488  0.8343405825137733
  0.6575953899020139  0.6904845289232917  0.8337814301686436
  0.5977946483629353  0.6970900432920791  0.8150732350253271
  0.6066601005319698  0.6853045610318507  0.8766043550713528
  0.6649635141935901  0.6784071186050494  0.8948768471248087
  0.5166929036391683  0.6905957172516535  0.2980931975515477
  0.7143465662973739  0.7171818449938686  0.9597848396233959
  0.5214376805090394  0.7532487012496378  0.2827742767783802
  0.4199252338095659  0.7988128830605520  0.2921545990901687
  0.8153424694341235  0.3066536352894522  0.8777254517941696
  0.8147768810883872  0.6270871203843648  0.4993868112358614
  1.0362981483082767  0.0020326825365571  0.1903513335759874
  0.5320794661767232  0.5835477459721891  0.8788934810802841
  0.6834136889614042  0.7549613072947349  0.7760704075372969
  0.8944960864936645  0.2162167940556174  0.3050859064524618
  0.8489423398112264  0.2931615103936249  0.3245215015453701
  0.1566928988755782  0.1220554033993175  0.9103508564549039
  0.2378609267118708  0.0559034351224968  0.9472522337614808
  0.8125233019309167  0.5773275128746036  0.4523935349832993
  0.7085456760939619  0.6218322320915231  0.4650399505616079
  0.5919561151864866  0.8985535638157144  0.4925647399642415
  0.6106527727923109  0.6502865245842522  0.7728171681689379
  0.5165728794979846  0.2333843853150484  0.0054892790184687
  0.7676428396509539  0.2901585813787559  0.9773537266141540
  0.6114183383643468  0.0617030142691785  0.0187199547423363
  0.9297806886941268  0.9223132421741244  0.6156490865659634
  0.4765378742302933 -0.0013286000144519  0.6630934779001921
  0.8973128649173574  0.8416869583198517  0.6080876046874114
  0.8955713033408522  0.8558028651606289  0.5523810091147346
  0.8459342825150518  0.7709072120903636  0.4988880680543216
  0.9725587835501220  0.9729399776509128  0.6178961265673578
  0.9146640685063965  0.9882533891135477  0.6029207256027155
  0.9781882508115469  0.9291423593522045  0.5733167830220294
  0.9445351857879599  0.8799827215634572  0.5726852148556772
  0.9550390967937894  0.9620446671558045  0.5003791167643576
  1.0135135911772664  0.9971908980281753  0.5115278357459920
  0.5002896524704439  0.0031409869997288  0.9946436646087070
  0.5462180069446151  0.2106769589434548  0.6363432858437839
  0.5735963165674860  0.0508290513244471  0.8972140702913303
  0.5956848850409545  0.2476855687941993  0.7003456571756725
  0.4826256163392982  0.2353018803682725  0.5564588180625921
  0.6746504446966628  0.2422960104077504  0.9468565485732062
  0.7268234647259909  0.2514203698331496  0.9068577288207760
  0.5748567125074612  0.2088594397070804  0.0231820649881668
  0.5800445978022308  0.1705189059454512  0.8187615709264403
  0.7062177791617539  0.0213549229139534  0.0016132136666645
  0.5797877693459140  0.1410390542597033  0.7121983901134574
  0.8164791580953047  0.7793356265880157  0.7009409762719918
  0.9281384538728521  0.4669682282045938  0.0068508691888025
  0.9701856029384635  0.4172010767396471  0.5069623543396002
  0.3259012987360532  0.2111321185044796  0.6712242691548124
  0.3972805929697014  0.1933454479834063  0.7538575128342559
  0.3866855872430446  0.2368197968793785  0.7969531518504085
  0.6746390955835336  0.2751606856266895 -0.0082630078923976
  0.4950203025770386  0.2663367951108835  0.8854605257068452
  0.5560288612099172  0.4429480688396520  0.0455376538893573
  0.5090090566795803  0.3704540775704428  0.8790723102386790
  0.5039483636905447  0.4576826098549141  0.0845939106770329
  0.1781912205759257  0.0437818369275475  0.4914997524638977
  0.6110382791274164  0.3618403418037104  0.0130041872672870
  0.2541104958256832  0.9654677258003322  0.5999374261646717
  0.2645859251540530  0.8256477543385394  0.0670538816347985
  0.4511689620523419  0.3478417235791486  0.7475470315752902
  0.2095212322166816  0.8372084116295456  0.1029158488444619
  0.4987889284851680  0.3851507262399364  0.8117315498787429
  0.2368200622459184  0.9390970886287441  0.0444020687572686
  0.6076313348924188  0.4155051411321616  0.9012834227165709
  0.5495891352473896  0.4256716351427745  0.8821879633860504
  0.1861204640701198  0.9413554818958992  0.1412747957393286
  0.2334494404160465  0.9249055522320259  0.1029064638115845
  0.2583716345624844  0.1412389888912868  0.5492334432848313
  0.2587740158279158  0.0661880015425229  0.6171939568383615
  0.7260938161372267  0.1223691964765398  0.0465544233319470
  0.5575381590031027  0.4887706988593005  0.0922732531880882
  0.4569831595241572  0.5826083186190010  0.1425939709667739
  0.4559239677980230  0.5352850189477266  0.1030522536129987
  0.3541859255713249  0.2754795809264583  0.6134546952880868
  0.5136468017403111  0.6285136200669483  0.0879740489446899
  0.3083678968858650  0.7436878138068052  0.0444241669851370
  0.6595909106141690  0.5597404665798984  0.9849813141946441
  0.5693724601429182  0.4715944247827789  0.6570535306736947
  0.4784372504539691  0.1694549941404849  0.3499843061559928
  0.6164235119803908  0.5027888305502626  0.7239661889232922
  0.5560748594685219  0.5131739033380606  0.7017940082927014
  0.6254754934921715  0.4900047144102142  0.7830408129653860
  0.5881625004822807  0.4422561527576442  0.7787413404079213
  0.8003094945167460  0.9027739338441627  0.7893258028394208
  0.6727736009690299  0.5278676664406706  0.8485020951548196
  0.7021068461059928  0.5743984568291883  0.8758075570666263
  0.6434847347297890  0.5826803391175996  0.8564189933665737
  0.2193789272440915  0.7427894310023803  0.0145776825401262
  0.7357925597710320  0.5209407991331247  0.8697421051165610
  0.6876948039585815  0.6204557884222364  0.9160315914043260
  0.7308557730531310  0.6678582864471768  0.9794762897679010
  0.1739301280932115  0.8432908999470149  0.0469772279788481
  0.1264002411608457  0.8795016822435030  0.0235106760141326
  0.3876895730032837  0.3425964751770308  0.5564107285612077
  0.5571643895153430  0.5206875703696972  0.1959090397837543
  0.2574699501991961  0.7099490838095955  0.0391009305098761
  0.3597585062292164  0.1740700850839561  0.8550652667942749
  0.4211120258774507  0.1668515221096717  0.8805023676297520
  0.5281673186880289  0.4492870930710505  0.7573167911358539
  0.5757145146608644  0.4858255062051847  0.8225347834560629
  0.4115456047892625  0.5763084526046720  0.0124145176240547
  0.6853394437112936  0.5185477570304079  0.9081982288550982
  0.6250047560160670  0.5250173444906306  0.8862218640148377
  0.3569684634914864  0.5992023079435371  0.0451838649862083
  0.7130495444996066  0.4456839808100649  0.9891939167981210
  0.3564877750958561  0.6458893872943116  0.0853174999766963
  0.3607569165897874  0.2290461484932804  0.5721461794800272
  0.5856617572460719  0.7122936561566675  0.7516530978466739
  0.4099570343126377  0.6747585549907410  0.0993869273020146
  0.3711064010479933  0.1299123555325931  0.8126808006295062
  0.6360754254867702  0.7889025943790522  0.5372887604569075
  0.7002014170475790  0.3530622341774712  0.1354925105326512
  0.7234029118349082  0.8585230861666621  0.6030602152477813
  0.6714495704448915  0.8572109943777906  0.6444684991613822
  0.7334741337626273  0.8475005793365125  0.6639487178180420
  0.6036783403747285  0.4452554416369007  0.1826543091931835
  0.6910044335355977  0.8732438410449515  0.7002721149518245
  0.7897772953377995  0.9172251088517951  0.7267460870729162
  0.3471568547201352  0.5703458543785502  0.3945118378579148
  0.3045792055360948  0.6247496473552507  0.0211384386442498
  0.7879087177120775  0.9475714730802459  0.8354739939146651
  0.9367641703926717  0.1472768192730280  0.4508520270729992
  0.4390519944553463  0.9303705741855186  0.4942319784432786
  0.5658374229119311  0.6460003095832502  0.1582049087495670
  0.4117428061754952  0.7082060985022831  0.2030492248102865
  0.4154143085683225  0.7555590845951827  0.2475085726719453
  0.3717231843672347  0.8322813148285327  0.2669040507116055
  0.7104790270387186  0.8176705421823974  0.7183498069746146
  0.6625841625049681  0.8125681625125649  0.7597197764923185
  0.3229520541553869  0.9251286756505314  0.2290076682913572
  0.7617564999059590  0.8544147724911645  0.7849272891452229
  0.7596066895310128  0.8847111301255249  0.8918941855078557
  0.3273414679202553  0.9703685389568052  0.2761023530947179
  0.7982932331082142  0.9333329567573428  0.8973727845146399