Cr N  Ni
 1.0000000000000000
    38.8588641550299201    0.0000000000000000    0.0000000000000000
     0.0000000000000000   38.8588641550299201    0.0000000000000000
     0.0000000000000000    0.0000000000000000   38.8588641550299201
 Cr  N   Ni 
 1596 106 3725
Direct
  0.9745600951720319  0.7840791408335513  0.9812004334479549
  0.4924852955037249  0.0091641055423393  0.4920596799850320
  0.1492610863125575  0.5951938509923289  0.4875418135582416
  0.0909629686813687  0.5646723220729853  0.4821379343595186
  0.1381913006314717  0.5443988368863071  0.4448423239150143
  0.2086465679819051  0.4474587605149221  0.4819094639311993
  0.1280930892874554  0.4829352645952982  0.4631338164728028
  0.2214621090041404  0.3854569411207366  0.4207839951560710
  0.1005594235839135  0.7976961338086384  0.0212675553984981
  0.9314216816804508  0.1818337918977736  0.4907253100632871
  0.5914184529445606  0.1567490637249109  0.8784434510060574
  0.5148261123614934  0.4850485474552411  0.4763887121322272
  0.1641116763992821  0.9077878136427430  0.3555307730818691
  0.0171933624880900  0.0163493629800319  0.4446400338531816
  0.2933486467626326  0.0623720158657064  0.9108726277038881
  0.2436260788921864  0.0237870241406165  0.8471564037632401
  0.3947756202666368  0.1098569435028080  0.9312988189626881
  0.7798426481535724  0.1251189665040445  1.0037760339705932
  0.2228173089830998  0.9732805208486687  0.2409866592228055
  0.6457154658006762  0.9867959781405751  0.6629667706107606
  0.3797491879686449  0.1174707764153297  0.8721940828917619
  0.5685733253491769  0.2140782079643563  0.8610213562045260
  0.3150361586609318  0.8359625739015267  0.1398570419244398
  0.2191334204988011  0.0488718365541880  0.7207010911351506
  0.4742879305247368  0.0096641187356359  0.8668261124436106
  0.8541920008313965  0.9427270090186556  0.5175138028301005
  0.9016594158106398  0.9890371616153214  0.5278360269944868
  0.7524164677583949  0.9326133864990156  0.5426746877751213
  0.3682959297280811  0.7976783324999298  0.3909078624983472
  0.5576445419769740  0.5780565850245430  0.4748965598159422
  0.3651546237209147  0.7528688500299980  0.3464263785543719
  0.5068474447124214  0.1909121616109206  0.7358232988933291
  0.3641218778479968  0.7676154890649295  0.2859964017001183
  0.3151926204935913  0.8002575487103939  0.2625749588734990
  0.6029089615198201  0.3680238729773968  0.6275112547599180
  0.5053882570106060  0.3251689163108260  0.6000642999998297
  0.2672476361004911  0.8609123314783673  0.3471146780214406
  0.6113110780938824  0.3536701639997918  0.6878385844046544
  0.5517752667484345  0.3614178163672105  0.6664303085513116
  0.2195175118668349  0.9573456332354108  0.3028814714169307
  0.2721920860457646  0.9223300836810956  0.3320294987104487
  0.6692372793546923  0.3766578075408940  0.8186055179923861
  0.6577966985169224  0.4204695244119146  0.8615903621523499
  0.8312874580401545  0.0347599935252739  0.2213149835988512
  0.7049750179105900  0.4602307952508303  0.9276927331077522
  0.6471766278594512  0.3872796005779076  0.3312116808335197
  0.3194898458164575  0.8801453149909892  0.1849059979929462
  0.2677244550188863  0.8761020015117911  0.2830932275679133
  0.8157276378541571  0.9104807588575429  0.5692825341166887
  0.4566432370632904  0.2160733306577789  0.8786802576747955
  0.4992835436296980  0.0031112495160765  0.1592545722580937
  0.2465210002190268  0.0306120023458180  0.1353321086111389
  0.4277750220337791  0.2739884281869637  0.2421803049562347
  0.0119320687499598  0.3193516011702872  0.1430635184701550
  0.4252358495309936  0.2251133536914602  0.1973213155990589
  0.0560006465349105  0.2451316225288966  0.1262878834754406
  0.0503389192674758  0.1841271968874407  0.1418159171713041
  0.3783051824184468  0.3072855377228739  0.2135481957692850
  0.1898433575550988  0.0165865060049012  0.0626855770223268
  0.0616211892678154  0.3062189528708437  0.1109299478947210
  0.0020497716314704  0.2339404114843450  0.0509716914977590
  0.2853605500630745  0.4444734275702825  0.3013910705038415
  0.0966288407553007  0.1233919145908215  0.0613598091264557
  0.2435237000449966  0.5843150341214837  0.2981356652585464
  0.0373177090665512  0.0489891347817070  0.0052902692170808
  0.1882764565469971  0.5081756259044152  0.2480760744745832
  0.1596690975358696  0.1972450168481700  0.3435110729764839
  0.2538425955791399  0.1045524222788837  0.2881769818012167
  0.0394563090981166  0.0299579613528910  0.2968710009174167
  0.0831719418581017  0.1527955860979183  0.4842345371459095
  0.3511315310203281  0.5542457893215219  0.4554569748670270
  0.0509650479960643  0.8039813728904888  0.2839626822343803
  0.2810237624590596  0.0422180467835418  0.7432117451449063
  0.3660397088481462  0.7859188353102613  0.2245609948055219
  0.1567435584008412  0.1801022334032278  0.4072413840591524
  0.5411962630397548  0.3350800372240266  1.0161494414562255
  0.4696494369207254  0.1965710864260311  0.9952126873453210
  0.5231750108393090  0.1643574615922088  0.2486428730763985
  0.4641761222175254  0.2057409296496532  0.9373050924643609
  0.9655581320122905  0.4202175931959954  0.3236478481320711
  0.0050016184554804  0.8818249911397956  0.3039003216441707
  0.5068594395747823  0.5537709032633826  0.1692020716598543
  0.5430477336953378  0.6994872605835484  0.5302440054009616
  0.3601112630222911  0.7422113399072149  0.1792196358431847
  0.3459543647808821  0.2204025573247790  0.8948551570388784
  0.0614226047975557  0.2907307350165535  0.1696113067243824
  0.4244477399861319  0.2573601835766353  0.3059158055327805
  0.0133693302863334  0.3546567953114823  0.2467849660064110
  0.0197686866124921  0.4367972928164656  0.3930993782601683
  0.4845543294919394  0.2924013773331376  0.3163783476708878
  0.0133229331663837  0.3709263484302152  0.4149221960611096
  0.0114166741687216  0.3240977766205703  0.3758409656088546
  0.0644664107128809  0.3714592940886953  0.3152873440916074
  0.0102982252151454  0.3090638592196814  0.4373021370642237
  1.0000541178248925  0.2111693553167579  0.3462836139500158
  0.1603429941561464  0.3376902252460099  0.4725090260924360
  0.1144759753323369  0.2754865008564011  0.3638184513959062
  0.6072795498219526  0.5245326256420356  0.3272022600131322
  0.6002575631089803  0.5646066219725245  0.9676449578153044
  0.5782311486408646  0.5615567596094680  0.5370717660836886
  0.9950657129237347  0.9489948162545641  0.7382615266229143
  0.8861925512897552  0.9566585681615093  0.7540192277140331
  0.4724645202689473  0.7357750140662659  0.4446256341209011
  0.6968429668275444  0.7695105874855314  0.5563530302341415
  0.7982848084439425  0.8024668393968077  0.5815485968098510
  0.4758435532330335  0.7965226637162327  0.4265229462893029
  0.7721561391841423  0.8731038715996233  0.5554468242840822
  0.3854284193699096  0.8800723010086106  0.4893121651190285
  0.8366800624525536  0.8843270462684332  0.6900247058095693
  0.3221430541608043  0.9222895431603345  0.4636752863359203
  0.8583125835055545  0.8939517616077313  0.8117676234760103
  0.3292157271123038  0.9831946432169766  0.4485134532375413
  0.9400763658333124  0.9790300253708456  0.9080762970487447
  0.9312512482581747  0.0155967932195100  0.3216664647206555
  0.9598599291052481  0.9667077521708933  0.9570024807627970
  0.0315006818133023  0.5732775452877168  0.2884648804588834
  0.2815447652653347  0.3673437809425816  0.1564168151980792
  0.3812556869095727 -0.0007284543720174  0.2844625402751949
  0.3843629126242534  0.0439913857468892  0.3305667392988763
  0.2750343302305156  0.2896062986621968  0.2421727584616750
  0.0352228618958163  0.5690239585985314  0.0616437330557344
  0.3346696352919226  0.0776982763322344  0.3053843686509722
  0.0173978275655650  0.9873399939585997  0.3387624165571854
  0.4231280613191790  0.8298143315896677  0.3986140192239598
  0.8137216814563403  0.6217290932800530  0.5012242123236910
  0.8151297987744794  0.3068747197954899  0.8763740807724264
  0.4179545465365830  0.7990889368391418  0.2933653530517359
  0.5210976681991413  0.7537286405667293  0.2838931256838108
  0.7133487186429763  0.7173510078750946  0.9598924667076622
  0.5178273717680730  0.6914162338048730  0.2990724023376523
  0.6643703308851859  0.6779955870722957  0.8944427746679744
  0.6053352242357488  0.6841399593024313  0.8772745472673010
  0.5960254287218275  0.6965269678561384  0.8160339123581833
  0.6557767661486865  0.6896983637812114  0.8332827973401563
  0.6203996504657190  0.6383550958351463  0.8352262748140662
  0.6108380719512838  0.6536244137808470  0.7729829827156783
  0.5790605046616301  0.6055423897414192  0.7585959760965074
  0.7161669763766778  0.5557241632976908  0.2403123643116545
  0.6083617964687464  0.5396043727917159  0.2662147227338840
  0.6112864482041572  0.5542634107447402  0.2050553550131024
  0.7070271756330164  0.4474361015390999  0.2170130372995190
  0.4123744166025188  0.5541551456962218  0.5346556459556553
  0.5316430166264681  0.5500479839398226  0.5784152361864220
  0.6554795896192441  0.4624029668826736  0.2507957968485738
  0.3766916183933983  0.5034903279429255  0.5327554495865819
  0.8169668264576025  0.8661317270292999  0.9963068242898175
  0.7037739697433759  0.3997655948295963  0.1740029828744631
  0.3221756542387794  0.3401931904978880  0.4144226092001972
  0.7933032152069595  0.2467953658388686  0.1463522741968491
  0.7973206925761910  0.2934259639697543  0.1893684397455153
  0.9619943631574797  0.7722122001740636  0.8579936330183083
  0.7457162699859166  0.4759056087561099  0.8271607583732061
  0.7039548784045578  0.4332347630623066  0.2784772115176844
  0.6580910028643671  0.5090259744385908  0.2932559103567939
  0.9398042530167318  0.1075040271137425  0.1803049103333624
  0.0000641361284878  0.2291546029023961  0.2790035346365676
  0.5747023593036709  0.6236939185570172  0.9402894177083286
  0.1645766179693528  0.1731142337760149  0.6206003586782300
  0.1925032227236555  0.1518650716186700  0.5215498375615409
  0.9473614932108078  0.1853260531824521  0.3310492759583162
  0.5484171485433085  0.4569103791403683  0.9851170433249613
  0.9900906824740914  0.0617165400779250  0.2691764751253671
  0.4359342860243721  0.4255802174838887  0.8962884545304286
  0.4260319283642598  0.4371137586790879  0.8350698609623397
  0.4304747291665721  0.9510401284668877  0.3710697919354036
  0.4275325116807077  0.8912034779632902  0.3861563095810300
  0.3413049977925309  0.3508351951473471  0.7638670408147920
  0.3440413844804943  0.3183256608169984  0.6567282072011620
  0.5218466479613890  0.7388373017038693  0.3437798620482609
  0.6648634701042823  0.6009143454832109  0.3794443418109898
  0.5756947776630625  0.6216933881003371  0.9980065421644458
  0.5629942861060673  0.6159499972168775  0.2830289365687695
  0.5380975987406561  0.5691947857104975  0.9438780273860564
  0.1171516511746740  0.9569816264315999  0.2685900988265022
  0.2182568764196133  0.9589709117226431  0.5442538615547211
  0.4451386717360844  0.4139179420343810  0.9576859731747509
  0.7652177976119601  0.5598584260288366  0.3767060325811336
  0.3983056742478224  0.3759714823040008  0.8926024565516051
  0.8130101875706343  0.4827383839861205  0.3593092362199840
  0.7582020815774183  0.4509696687349086  0.3498395504470844
  0.8038431562334636  0.3734936904134129  0.3371756527246881
  0.8521365096345086  0.3446320907984790  0.3663120848257876
  0.8565115318131302  0.3916122348773484  0.4114007359358701
  0.2326036920997679  0.0683117865205456  0.8898865776227766
  0.2164640046263674  0.2117958256646221  0.6868950386593589
  0.7635236505527014  0.5447312228181503  0.4375597075556169
  0.5635847011139882  0.8832278431175407  0.6580728194929104
  0.3621564343700694  0.7754342240328539  0.0552555787807129
  0.4042636584332222  0.7462111294129550  0.0229500552577462
  0.5847666649041477  0.8278949545852181  0.6767798524428422
  0.5421961350341742  0.7950863389580122  0.6225625817739273
  0.5084379619674785  0.7637929227785395 -0.0022724481663648
  0.4328161809376019  0.7559050885205362  0.5339504356064797
  0.5562543391084567  0.5043200692424685  0.0330316941725885
  0.7276031720157839  0.9541603989246606  0.8107439892232824
  0.1375850300669664  0.0767439960816992  0.5784144299553089
  0.1996394598081060  0.1046943076985070  0.7012989336403522
  0.2620830853899835  0.8323681371564688  0.2361281866399765
  0.2585300562250915  0.7606001608274927  0.0836966782357413
  0.4438536065249731  0.5131843986207308  0.7165700264203690
  0.1822812714073943  0.0127623541341298  0.6191011299865238
  0.7540670709352045  0.9778210842961017  0.1097991649337591
  0.6085849559943224  0.4976267756778304  0.5534530059796370
  0.6767387513890976  0.4713889051161155  0.6399717609471374
  0.7378477101467047  0.4632173413829140  0.6623004998672987
  0.6254256152933398  0.1528632808809692  0.1163771158434926
  0.7545134750166014  0.5798793484969865  0.8343180706721184
  0.8108959981677053  0.5729708154681626  0.8606653201233119
  0.6862468688985315  0.2294238943327009  0.1711820415458178
  0.9211196497565296  0.7583830329696080  0.9713714990616218
  0.4926680218242334  0.4155723055672484  0.2696957485851853
  0.5964986355008697  0.3835829949551803  0.2013231378216143
  0.5357229668753767  0.3914306305132960  0.5419165034728394
  0.5512494880928990  0.4612359274795787  0.2157162851979310
  0.3978609091558350  0.5216123959578804  0.2564040885740176
  0.6494048158394619  0.4038433559409658  0.6925948986691066
  0.6871281756041595  0.4549524738285526  0.6992235788373169
  0.4550062227400257  0.5685608268105100  0.2029326390440401
  0.6374585462523662  0.4464636588561901  0.7369193701819245
  0.4093108795790865  0.6318233225319435  0.2812846084738914
  0.7223368043561508  0.5330662351735156  0.8127297329426999
  0.9983236520853981  0.1524370017946922  0.3594690080719321
  0.3841886075171057  0.2699300476259993  0.9003184161314423
  0.8894994072787902  0.7933840110411305  0.7861326018113599
  0.3045436899871969  0.6758275609565784  0.2919969226084598
  0.7599187513435378  0.5685075741305627  0.9003574347341327
  0.8029377917051481  0.6101119014160992  0.9658958927039413
  0.8715546435968822  0.7205773299912247  0.9031643826266386
  0.1542552143665401  0.7898744428327991  0.1542475186278903
  0.2077280004983717  0.8025701328546752  0.2255413294816626
  0.8782704137879112  0.6865535034953589  0.8020771852677110
  0.1550231154760909  0.8508385858353203  0.1405795412558649
  0.8597753382612610  0.7494695117199314  0.5576853066132976
  0.8024237869680219  0.7642348790183404  0.5387251108049882
  0.1627263045392417  0.8974699360147609  0.1868546277081994
  0.1323410363191732  0.9154820834697499  0.1391900486382351
  0.1350220902953318  0.9574896790180394  0.1815959467242730
  0.9070978420411958  0.8245759971863647  0.6707679031587185
  0.9735741871714261  0.8415945768300083  0.7547337905687372
  0.7174518154145847 -0.0011661247394160  0.0699760276248160
  0.6733817994857931  0.0952532371057198  0.0342359137380154
  0.9183684468968935  0.8877671636819559  0.8364862167521442
  0.7356541617899873  0.6040557667853852  0.5331325305832103
  0.6524347974493184  0.6534286514396395  0.5063661926335205
  0.5818101563663023  0.2470326837682243  0.0738432995487419
  0.4930514741863797  0.3831662593796514  0.1666913239508254
  0.8290445526512961  0.5473858887764921  0.0518273885545551
  0.5139313706445620  0.5272000392268070  0.9077534337158645
  0.6829631815012464  0.7525116642995697  0.7764152470578030
  0.5127123955534361  0.4920368168042718  0.7996125009574433
  0.8157575844872575  0.5777830972439176  0.4503067599712939
  0.9795969561144720  0.8793465393088471  0.8576604788866570
  0.6279209685071447  0.5542344978986249  0.5016057875694299
  0.3977842081699299  0.4882461075174112  0.1520928274928513
  0.6934448209625654  0.5816394738819215  0.6328777825300104
  0.3497651818039879  0.5655414711528325  0.1672993280997405
  0.3542321141160615  0.6159486408699234  0.2126685870137685
  0.8394071953297590  0.6518859923044925  0.7359766876223006
  0.3542400203658919  0.6753604288590109  0.1970101043735636
  0.2543828064113739  0.7241943857869988  0.2047955668651094
  0.2428312645055373  0.0551931718561450  0.9514592728797769
  0.1585045564368857  0.1199574414538472  0.9105181112638980
  0.4257656007377287  0.3875655348450082  0.5613283877781163
  0.5304543683901745  0.4192753960748509  0.6487514225098764
  0.8937632707775597  0.1841243392738915  0.1969260282305605
  0.2946379638198881  0.2782492341272561  0.5877745189231780
  0.3368695217852810  0.3289796282468289  0.5942294185174740
  0.3100411750690951  0.4201562083314718  0.6843402151312350
  0.3826741219412223  0.3678538172996634  0.6629806031947314
  0.7974086302406078  0.3145804669011706  0.3546985093186615
  0.4063861421201593  0.4633064853839661  0.7115122869388781
  0.8520085357129624  0.3555261590499523  0.3061943668864023
  0.8950645395059423  0.2175137294514894  0.3036970246456686
  0.9546567115623585  0.8168834820809857  0.9116167519101407
  0.5321972192161309  0.8769429048991175  0.4807039771474663
  0.7108702818464849  0.6218222548871849  0.4616023485621845
  0.5899320918179337  0.9104647712513830  0.4822625134793208
  0.6139903681751721  0.8957523318190820  0.5610542523866334
  0.6546493791811571  0.9523529819696867  0.5588797935538103
  0.6772392667401985  0.7070770254523525  0.4037875239007084
  0.7328305016323203  0.7177505235100912  0.4733100005929580
  0.4764494559439521  0.8115581006927156  0.5356798412786674
  0.5749953203601640  0.8506360034185346  0.5550242503829812
  0.5361745485753657  0.9332351559592577  0.4654843444171720
  0.9520061959569479  0.3226271641779150  0.4719141035439867
  0.9576634074438009  0.3904373666224108  0.4537532992328531
  0.9684241190195388  0.4570193531086021  0.4366178742579611
  0.5874162507646681  0.9949548459409223  0.6431178333935518
  0.4811569451757088  0.5631541640771379  0.7216124461486142
  0.3975519752462112  0.4763073217463682  0.6527705471949931
  0.6779191250856408  0.9169750984602700  0.7441480975040174
  0.6730192062769794  0.7975141659623241  0.8186802756649483
  0.6676199818125498  0.9616197692435766  0.7894917075644569
  0.5808025696405346  0.8146269992507305  0.3969624412135263
  0.2378581564977148  0.1877982085862415  0.8095842460359891
  0.2981894190207752  0.1810130576539821  0.8310559818598707
  0.5312121375293882  0.8149484578350370  0.4959748270358694
  1.0349250254242004  0.0019273825569439  0.1906514783040939
  0.1678762006952123  0.9431336679590421  0.2324022038778536
  0.4947567083478752  0.2076586840004906  0.4544595351127386
  0.5203193851220232  0.2373050460888736  0.0049045797987719
  0.7680688353553012  0.2926528677612228  0.9765242976664906
  0.9287137576663613  0.9207865182982626  0.6154628732094700
  0.4763179524491414 -0.0027809037647240  0.6610765752404915
  0.8966386016294805  0.8397809787344648  0.6082806664162576
  0.8924326023387593  0.8548790030464900  0.5530013455126468
  0.8475876489121332  0.7729512157391218  0.4964533561187920
  0.0076814108442805  0.0236657615753016  0.6198057311770979
  0.9139734435139186  0.9814541652943665  0.5970962184219267
  0.9773714307665178  0.9260245546770103  0.5740278983524717
  0.9420081037211283  0.8783170821252548  0.5719693825916580
  0.9552607593010538  0.9634690161188664  0.4994604012203401
  1.0144783672630180  0.9978168085392691  0.5139280403201893
  0.5019232158476111  0.0005657283260729  0.9949257840578070
  0.5449474615298907  0.2095800944575799  0.6341562398532363
  0.5728462667194741  0.0514107647012426  0.8951672984383945
  0.5949057410952294  0.2462624117266583  0.7002131488213046
  0.4749447719666223  0.2313847857282509  0.5495370356708812
  0.6761393174418296  0.2435713693488761  0.9435185230080977
  0.7270385981498035  0.2518965764329732  0.9048188154884678
  0.5751424137291522  0.2062141553700954  0.0250170292642444
  0.4531737403268022  0.2510637482636092 -0.0161000855653446
  0.5795205232555870  0.1706729266858526  0.8184636930577549
  0.7043348432243693  0.0221873662715289 -0.0007731245120990
  0.4013415980663547  0.5033382529905625  0.0937936097675202
  0.6113248866303040  0.0638397398396562  0.0181504129415254
  0.5783123532199936  0.1394282869793431  0.7126588537942958
  0.5406261409458647  0.0904892754660405  0.7075306781001232
  0.4776503389826834  0.0973001320359644  0.6856568173273481
  0.4647506220210366  0.1102076101153497  0.6221965637108876
  0.0273651079348361  0.9493042922733856  0.1428045752332529
  0.1337421050612647  0.9713705023923539  0.1173843695350313
  0.4786214583605309  0.0657535940588108  0.5735182537105872
  0.1558348053321572  0.8090224570832275  0.0939511769072382
  0.8814893290203656  0.4406692359203755  0.9970559148143385
  0.1552766164385962  0.7654034033653310  0.0483913970478069
  0.1948903142905747  0.6210775471774568  0.0390178465292732
  0.2808063967698897  0.5780303986769014 -0.0149745638779933
  0.7050592230253320  0.2764292168635529  0.7848384842355866
  0.5559945276688243  0.1969984357169898  0.6954891452546519
  0.6676994689381514  0.2256617026153728  0.7800612876588837
  0.7059866379798968  0.4506493188429285  0.4432465867585338
  0.7089092472849166  0.7321461896342982  0.6761130531665754
  0.5348895499413228  0.0016014239987026  0.8900130093503965
  0.7945005499345709  0.7499440060667963  0.7587563935798296
  0.5243646248122745  0.0142509911861554  0.8266163152607467
  0.6615728777092922  0.1369960900259782  0.9608746706964372
  0.5269505716620984  0.0704070052024087  0.5297794701374966
  0.6520261187222711  0.1497093213885255  0.8994630240774197
  0.9998045433066505  0.1968955393788676  0.4059388135516999
  0.2110890803220771  0.0919346427872710  0.7635941096873528
  0.1506548877481906  0.0979443381927620  0.7438513987352067
  0.9010632277867174  0.3116927096174870  0.3992120410004418
  0.2107363317237393  0.1251801113297256  0.8690709065061746
  0.2699980316842086  0.1177593160398610  0.8913660770310173
  0.2570815850799806  0.1627325889371773  0.9320639390319189
  0.3531598329111705  0.2091222590654695  0.9553307416264567
  0.1832596870419441  0.0294268320465746  0.8262447279197378
  0.4712970652291293  0.4264312835188661  0.6277014559861502
  0.6460589647448389  0.7028698304683535  0.7725548166109273
  0.5626549644151453  0.7661978179887918  0.7382343966276274
  0.6348057697276894  0.8429800777278591  0.4077185210298701
  0.1390146810157905  0.1099013949425531  0.6810069295757167
  0.4442035530223449  0.1112832436328385  0.8952729401510174
  0.2081985315797287  0.8186615435299105  0.1647905424287549
  0.2524556969540001  0.5330977733219145  0.0344762630740002
  0.2905537788503922  0.6131489998862485  0.0848151571480501
  0.9208074096207679  0.9713587009135837  0.6558951156905234
  0.5662973622446538  0.1536130631857090  0.6527500928939771
  0.2975606998068719  0.5026592596549329  0.0565467140779407
  0.5116776707512406  0.1142947555644265  0.5865498501795469
  0.1588903274759837  0.0528905466622656  0.7004066012090905
  0.3975295758002301  0.4403999926896903  0.1080316956626330
  0.3960414469849703  0.4058246680406538  0.0007525105425625
  0.8644508956058818  0.5794578575821178  0.8200521667825345
  0.4974755606534980  0.3509080522210395  0.0628490948432199
  0.5630186734134667  0.0627985620822602  0.8313801490343717
  0.4678477025953066  0.3564498695476648  0.9775833414975499
  0.5506052136306493  0.0773758764928524  0.7679371050433498
  0.4526642789166134  0.3144246133392343  0.0391458675100762
  0.4924745140784953  0.2960171442516720 -0.0077393813011538
  0.4414473567284130  0.0476105212531300  0.6796844360329541
  0.4166104468498382  0.0029609428786580  0.6413696809849312
  0.4046357353973038  0.2355512730995828  0.5272675693828003
  0.5149780654192175  0.2812384692486784  0.5537105989174246
  0.7752669602174783  0.7114229480083393  0.9839863743364698
  0.5084295732856980  0.5955447208924172  0.5140996348295149
  0.7468062813240415  0.3787043634509655  0.4322681851296507
  0.8298304495559389  0.8324911377105507  0.8712468047648455
  0.7649060817678899  0.7213817806932433  0.6960275628105596
  0.7705479208838841  0.8100328593919723  0.7383872117968379
  0.4099030548301829  0.6926479762695964  0.2657433933026742
  0.4456792843595117  0.4108477888874633  0.1374997235184820
  0.5781620061426486  0.5900407821279607  0.8321999696764066
  0.7547861706299757  0.4175260064367106  0.2456354139014820
  0.8375122995768230  0.4020846196540895  0.9282712182044595
  0.9158347049390938  0.8166818672147687  0.9529509207943120
  0.8156468970497937  0.7791752854931058  0.7005564391520394
  0.9237182182554640  0.3374483374536053  0.9533445893476904
  0.9692235545621475  0.4177649041606654  0.5066116682334475
  0.3756227090231403  0.2482531150099516  0.7367282954564081
  0.3866401804218420  0.2361115804648707  0.7960412526588883
  0.6772806492729860  0.2778574221745947 -0.0112989883122273
  0.4946949983758120  0.2655865607956435  0.8846530281423932
  0.5569051612631793  0.4426641979432536  0.0481291719886826
  0.5081798592819877  0.3713259799450114  0.8785755646554049
  0.5051026563006500  0.4590475921116913  0.0842439420126977
  0.1776495203853252  0.0442453821470871  0.4894513702221383
  0.6041982683353240  0.3637840987796691  0.0287504160308884
  0.2552574043387252  0.9656686314940834  0.6015444956438992
  0.2654614010425549  0.8686241242958568  0.1132900050256204
  0.4295998236449161  0.4055625615498409  0.7299131551900067
  0.2104280665369591  0.8336676808388661  0.1053171103957003
  0.4974394059620507  0.3845583352270265  0.8105928170608080
  0.2341609285277582  0.9377356898561663  0.0433013782295583
  0.6152463705935766  0.3998190018982159  0.9626003708974725
  0.5488990708945126  0.4249708987171424  0.8816469885597857
  0.1687784947606867  0.8806640342546124  0.0893876340216729
  0.2334276656044499  0.9254860470558609  0.1043581711699288
  0.2786865339489312  0.1325010513962365  0.5541370466804397
  0.7256212272342895  0.1238998585711424  0.0444671228826162
  0.3256955987696671  0.2102970783456656  0.6695677874865209
  0.2582523198865054  0.0663684841849989  0.6163562775776759
  0.5569756119390836  0.4902538897769634  0.0923894494667013
  0.4572337025644150  0.5829308385458596  0.1440188516810006
  0.4557612067475204  0.5366547800265333  0.1022910128752259
  0.3563280262091272  0.2748524663320872  0.6173700373177560
  0.5151081515307877  0.6300030111152409  0.0892146955419348
  0.3097726644036475  0.7450807628189680  0.0464076853340310
  0.6587796076783357  0.5607006778460167  0.9835605725728905
  0.5675979190434429  0.4706744305163023  0.6554772080410601
  0.4768544748502712  0.1704439636877085  0.3526787524222678
  0.6138882088475993  0.5033396993144273  0.7217301715923348
  0.5167678953066723  0.4615335549420965  0.6925725981541280
  0.6248764775956932  0.4899258884642883  0.7813637002743896
  0.5646202942724960  0.4968640209660941  0.7613882638892461
  0.7997095413995046  0.9018375979939121  0.7881602576861652
  0.6728524861594061  0.5281070876748035  0.8474240919585212
  0.7009805253960557  0.5738769558515735  0.8764384631874563
  0.6428954393938439  0.5827066831313592  0.8549276363309636
  0.2197629048966790  0.7444720088660607  0.0150649545655067
  0.7358207461911482  0.5215221702295779  0.8693311133976008
  0.6873516812416598  0.6196285830088286  0.9159081866821368
  0.7311020020725761  0.6680456205417264  0.9798508706744390
  0.1704932972661527  0.8390392984437104  0.0453512191461688
  0.1250558771567750  0.8778779497306777  0.0233228565546718
  0.3885309637405086  0.3399343843015961  0.5549690574969822
  0.5567449958180241  0.5222446191778501  0.1958698636247689
  0.2585806829496881  0.7131495190192472  0.0410720911255744
  0.3590781456325052  0.1740613601429537  0.8533313065182547
  0.4202067775795655  0.1653120874883759  0.8812162492463126
  0.5374936296369990  0.4388753198527629  0.8144983097132485
  0.5741891510191888  0.4840058283880244  0.8231269382703996
  0.4173497717913751  0.5755915497626958  0.0072345156976488
  0.6841321843923623  0.5181705269555987  0.9070066361516618
  0.6236995041885389  0.5241517879785452  0.8861921850760394
  0.3678163343244669  0.6006253833199326  0.0357681641907527
  0.7642784157446761  0.4516712476705647  0.9507123783457497
  0.3574695111255526  0.6464742098905231  0.0853762928885313
  0.3583847054951389  0.2372552696638185  0.5698354486585814
  0.5854214255142614  0.7098893741327774  0.7522123970788563
  0.4101272683894417  0.6598200790925393  0.1596798709739071
  0.3703399435977165  0.1294641479018223  0.8106066547371641
  0.6418759930155601  0.7589853647802487  0.5956274506112081
  0.6998750188756471  0.3539729134691062  0.1336526913869111
  0.7230997821064412  0.8576623798755614  0.5994398708817259
  0.6679477729814129  0.8544586570272642  0.6418049571372993
  0.7499709058462526  0.7852449459889059  0.6785105295645811
  0.6036517682365512  0.4459614084618955  0.1801549400302247
  0.6880970040357716  0.8715805004031106  0.6981785454014477
  0.7882069111125285  0.9151624115640070  0.7248653417927732
  0.3507040495249486  0.5698456457406303  0.3967612585704979
  0.3055077028017755  0.6254854321208277  0.0230293059748686
  0.7879119088830532  0.9468701512476797  0.8343089082800812
  0.3569511628191543  0.6153820520095563  0.9783765031869081
  0.4614551052261006  0.6736035487381890  1.0044481088540338
  0.5665621536555145  0.6471483797483267  0.1591898268474348
  0.4142204982315981  0.7093230828898565  0.2065135039765794
  0.4157123932204183  0.7543786163291392  0.2488271966014587
  0.3680375440450727  0.8315795877494009  0.2698346849114382
  0.6915937369616970  0.7937269725492946  0.6608275908423628
  0.6616992053224346  0.8106813141728755  0.7590654467388273
  0.3236442151893806  0.9253885916870100  0.2295253662528553
  0.7607496308391196  0.8537725023343499  0.7833714376930134
  0.7592813531026010  0.8850702570614594  0.8914121715721569
  0.3277726427713485  0.9701888305380936  0.2760406678744785
  0.7973740622494108  0.9333814649065694  0.8965433351921573