Cr N  Ni
 1.0000000000000000
    38.8588641550299201    0.0000000000000000    0.0000000000000000
     0.0000000000000000   38.8588641550299201    0.0000000000000000
     0.0000000000000000    0.0000000000000000   38.8588641550299201
 Cr  N   Ni 
 1596 106 3725
Direct
  1.0034880727157600  0.7270682076332099  1.0047167957963166
  0.3824106315490371  0.1202279613140085  0.8683760812885800
  0.3148267301640638  0.8173245760756497  0.2000942321994801
  0.2718284266934922  0.9407930277421159  0.2651535441007434
  0.3241754509999447  0.9007040677581265  0.1258118632803586
  0.2065592510330369  0.9923609022607998  0.7451624929509276
  0.2828516387096531  0.0423298212853785  0.7398539381557456
  0.3655162540867256  0.7860124540752038  0.2239503832964968
  0.4973402178582946  0.3505259430334015  0.0595538894622454
  0.4744886481274203  0.2048888890886575  0.9936907448775750
  0.5713055212559268  0.2150946973456062  0.8579154589905147
  0.5817247795368256  0.1998875020084496  0.2559054767992235
  0.4341306192189017  0.1581483153113424  0.9368612784852480
  0.9609059368611088  0.4022113881834430  0.3842320289378351
  0.0604950001986482  0.9109077152084892  0.3182083972255900
  0.5066585791954152  0.5535786756184048  0.1703738026004081
  0.5335078892176699  0.6872982799020148  0.5288828228418987
  0.3602969309099427  0.7433698375898827  0.1786779977647276
  0.3495307106645665  0.2232286788644917  0.8909851369829599
  0.0572743057640261  0.2308543132109490  0.1821560899177705
  0.4242385806832807  0.2572677332768680  0.3006276401208152
  0.5455866827054753  0.1541422161634068  0.9176533454314041
  0.4849985119645794  0.2915659213466790  0.3110777183500131
  0.0136269707408656  0.3700051548902858  0.4151380931864073
  0.4631411841900185  0.0556034145276107  0.9110710884337208
  0.8630222220505609  0.9235428878759577  0.5281359177113853
  0.8949212263146534  0.9828777406225808  0.5290423653180852
  0.7592954327764789  0.9270814032226372  0.5461005851476790
  0.3675272325491649  0.7988013140654832  0.3929345372041109
  0.5620895985313825  0.5723181316929080  0.4735005428351691
  0.3644576955728052  0.7531254161403753  0.3462669732787129
  0.5087293111005869  0.1896666145458818  0.7310321859145988
  0.3643129676403692  0.7705905499508118  0.2862111838662690
  0.3107162861844874  0.7560048670662320  0.2157335939368295
  0.6031879916159849  0.3697332540980615  0.6257229669808924
  0.5051040786461286  0.3265752734110917  0.5967924644351356
  0.2679856801790926  0.8614259832223713  0.3444316111099638
  0.6724507087694016  0.3472111681909298  0.7076255890212583
  0.5389542403197815  0.4044722083896959  0.7116174047570685
  0.2238567483949745  0.9411299927092299  0.3624603211220007
  0.2722818170247324  0.9237786123677114  0.3280123800282010
  0.6708159178789495  0.3756806658224128  0.8157297341320232
  0.6576187708030685  0.4197013461670664  0.8631608387441370
  0.8310138961199596  0.0325865540848861  0.2212546598842336
  0.7043270326376254  0.4622135255847822  0.9278951286289197
  0.6468887015647971  0.3875011439430178  0.3335403072513951
  0.0153327903370062  0.3546265276543152  0.2447395988624160
  0.0730097757720057  0.4652075848050700  0.3966300223923102
  0.8207370615905978  0.9090867554416497  0.5708038400303184
  0.1591646014967862  0.1955136719946131  0.3407698449100836
  0.0386853615766923  0.0295955614014936  0.2936090043094868
  0.0849345760659484  0.1516252193121833  0.4807733181303360
  0.3460954807549088  0.5603428626731349  0.4608563586802819
  0.3244705653287148  0.3386401403747271  0.4101113718904589
  0.0171581776934128  0.9877637050382760  0.3352895914100590
  0.3355136527907188  0.0769141040412499  0.3024801368709144
  0.0378756520043495  0.5725563007735812  0.0704294108778763
  0.3226093928237280  0.2750129151276720  0.2012164711261875
  0.3861252672480564  0.0447040862824600  0.3254102663561947
  0.3832894263710384  0.0003774329946545  0.2817847045111970
  0.2801068352490828  0.3680714067087433  0.1580415756778809
  0.0336196627367356  0.5881573710965247  0.2329220102639890
  0.9353697216626372  0.3463335872199129  0.9511899088243962
  0.6429828269698523  0.9994372600770176  0.2486803627050701
  0.7831365364986281  0.7018786740147471  0.4374734176943522
  0.7765775565756015  0.6600133442770250  0.3955500293762054
  0.3022766324891836  0.6842882488248493  0.6748944074521048
  0.0708350095547683  0.5983993530822000  0.6365815439121791
  0.8148773487808768  0.5947956510279309  0.3912553170666669
  0.9289404888408875  0.5890857964359736  0.1942715020436026
  0.9846614549973950  0.6200854630630438  0.2044451432618943
  0.2541940863616087  0.1051448478540144  0.2850466361863391
  0.9577155015644565  0.3365405325884184  0.4044469170436146
  0.0671096035198628  0.3685582047069281  0.3131424838925927
  0.0410581040197141  0.0530229583359541  0.0018638036597708
  0.0146100422043483  0.3081385715102732  0.4334040536907822
  1.0035778293958877  0.2130925399904969  0.3397991832335217
  0.1628486888438290  0.3322746222635722  0.4650234837480198
  0.2084072864245771  0.1649711558207996  0.3670636695630796
  0.1158662663019585  0.3065512643385774  0.2358343466174338
  0.4592546121768152  0.2179159728713045  0.8726861226541560
  0.0522609218589178  0.8039513952504679  0.2863278148140679
  0.4397012409108134  1.0049289302047035  0.1839718449666684
  0.2977276670368190  0.0170199710571166  0.0978413872824844
  0.4256412089276071  0.2735199552888069  0.2342615130121024
  0.0125908748597835  0.3249372938457334  0.1394468137632175
  0.4245586866613538  0.2275114207133599  0.1945250279710296
  0.0018523057437218  0.2173989404374073  0.1107422406999698
  0.0470710416989362  0.1246642493546052  0.1529299917307500
  0.3785770801823044  0.3056192791044592  0.2109729499805723
  0.1927518875390174  0.0195373018579536  0.0644651681719811
  0.0633219620075159  0.3097171324863705  0.1051467028257458
  0.0034436841802069  0.2329322861994819  0.0504798178655107
  0.2358982460300389  0.5223885831214861  0.3212517564637737
  0.0983872219168707  0.1269398253087398  0.0555975514929686
  0.2424917395526704  0.5850667148309165  0.3032937677409590
  0.1820899838739009  0.4930624066930254  0.3107437194407612
  0.5168400438523018  0.0096212975040439  0.5539261646083972
  0.9398065150248841  0.8747656784612102  0.5737650932675737
  0.5842639579594769  0.5647387435250514  0.5522578463358485
  0.9962527327189893  0.9507872957069927  0.7407595744029303
  0.8879108557599087  0.9573763331378236  0.7551195362570620
  0.4697257311508461  0.7339779696662247  0.4421240816480622
  0.7584251481361884  0.7095178164587875  0.5307329917753817
  0.7938524266159598  0.8024216981015998  0.5840975202639197
  0.4744581360770912  0.7958331427505951  0.4251489701871367
  0.7435347807307126  0.8874695214339909  0.4954214769233854
  0.3797726156848918  0.9079463845476021  0.4220838271816759
  0.8403395283318247  0.8796462745338366  0.6955115754964046
  0.3259710009362710  0.9265783060025832  0.4614434608084412
  0.8592993248393420  0.8943666895285695  0.8148461409692672
  0.3331150445671296  0.9855145234054955  0.4451777794007765
  0.9379151398097194  0.9820090476647904  0.9103179830028765
  0.9282410524744165  0.0120815015526480  0.3169567663785155
  0.9486272322700494  0.9707939292285769  0.9645596775136315
  0.6842432375935875  0.0172049367837664  0.7658719863743421
  0.5910111538426136  0.8624564986293659  0.7841881046665635
  0.4870612998403337  0.4915616248863138  0.5756482346429661
  0.4278114833703054  0.1271848739703004  0.4015456271109791
  0.9112295525320453  0.4385827735033131  0.3554007493788886
  0.6028130883948800  0.8501508169180083  0.8450862994592707
  0.9194953088775969  0.5473607784883090  0.3804230562293431
  0.8659040793022462  0.5170223533741852  0.3709570068655629
  0.4907252120353932  0.3013012625997356  0.0021337412950397
  0.6635860425210864  0.6021340629675691  0.3798214103658082
  0.6215392993183410  0.6451257603076884  0.0618936923093670
  0.5070150464967766  0.5849140056072916  0.2738333646177215
  0.5856635997495814  0.5790263854641176  0.9034581166018510
  0.7110707665701977  0.5634222619723515  0.9393608221274480
  0.5506327048961401  0.4934364905985340  0.3198055326696899
  0.9203103994929099  0.8138411119852887  0.9544037710732916
  0.8504706996451280  0.6227050468446413  0.8595027900838570
  0.8689031892674488  0.3510582665849871  0.9295164481044600
  0.7593699011314723  0.4650012130506126  0.2901511406434175
  0.5803678096927666  0.5912974758756938  0.8324163872867462
  0.4401267780928103  0.3993364369039415  0.2004046132800796
  0.4104586001841816  0.6925091614413174  0.2650613748400885
  0.7126227478783331  0.8147441247378796  0.7194945565128501
  0.7763942277958443  0.6791882073340586  0.6520785014415438
  0.8324721265486709  0.8318516300514732  0.8750013923974920
  0.7445697894373794  0.3308606782928701  0.3946668095157332
  0.4969348192870610  0.5872501518907928  0.5261753005056311
  0.7801148150579835  0.7614343266260476  0.0274977127477994
  0.5035310191867368  0.2559952321791287  0.4944770121794079
  0.3929271983756226  0.2386685517223608  0.5165125648817882
  0.4148250127267381 -0.0005266037060460  0.6411104454686101
  0.4402152982028488  0.0438818639155368  0.6776034903053456
  0.8640283497150609  0.5018195235051600  0.4314560593882090
  0.4362859404400051  0.3211437519554124  0.0547681900978054
  0.5523173206278622  0.0756364467212412  0.7674171321162030
  0.4699614417832844  0.1048952680582507  0.6196242106754316
  0.4798426991634716  0.0941927436206186  0.6820662183133537
  0.5413336317256595  0.0879668514377652  0.7046644662938745
  0.5800299954311198  0.1388266688949610  0.7089742992972552
  0.6177260809349565  0.1078321743733140  0.0659097413563968
  0.7458484804063010  0.0778633001585292  0.0038833361704065
  0.5210081746257286  0.1768681642333787  0.7912795817147954
  0.5756331343166597  0.2062617595758019  0.0218020378417847
  0.7322210668720303  0.2532624338006036  0.9021836228761391
  0.6837541469880013  0.2464077447927268  0.9417259328387336
  0.4848813959726344  0.2283571711794776  0.5448638969217825
  0.5968194791327059  0.2470269573774095  0.6973062648234293
  0.5744804616245548  0.0512187062125491  0.8927250621126153
  0.5386223768323309  0.2205354235453546  0.5709095273536210
  0.5033750818933016  0.9887238208620950  0.0497368401491130
  1.0135515904741188  0.9964980841328646  0.5079941283828353
  0.9527434327459960  0.9649542103137904  0.4979431493187498
  0.9474537519925359  0.8981903117535353  0.5138792175062924
  0.0215772860897074 -0.0216988001442271  0.5797922809361625
  0.9469542549034387  0.0289218357604308  0.6294515095840288
  0.9914026237036735  0.0641309929474390  0.6919103438374632
  0.7889659596852587  0.8170901050480162  0.5239732738832686
  0.8840702430509565  0.8502950791302581  0.5506536944108746
  0.0309480506509281  0.9743438567621822  0.0784594327328283
  0.4716797647919036  0.3605352341870915  0.9790691906666208
  0.5640915873704619  0.0634802759701882  0.8298894684468839
  0.4442248864755935  0.3805301368085366  0.0375717934531350
  0.3940887832573390  0.4129631661102676  0.0076964915343355
  0.3914105782840190  0.3966676808960622  0.0680222006706392
  0.6528473979121000  0.1512320894546136  0.8983467053973173
  0.6130344369546531  0.1878424052882515  0.9900605649772246
  0.3514845129126442  0.5356041584248177  0.0696213216231276
  0.5258244400835620  0.0165614318910939  0.8252154031522394
  0.7945498907537685  0.7495328181381715  0.7578888803206144
  0.5362161065493670  0.0033734631469882  0.8885318986920225
  0.7105900562414338  0.7335726920086301  0.6781639677439426
  0.7056893488189468  0.4531886325734312  0.4428883270271695
  0.6696082839926979  0.2260303307931801  0.7771574283867655
  0.5581437108133619  0.1957368534154697  0.6925780102530570
  0.7078942090426549  0.2773089094668915  0.7822895470125778
  0.3274200419343278  0.5773583873138715  0.9514632875049556
  0.2028314647797336  0.6799594683014143  0.0341066006606352
  0.1589813277454718  0.7606938694694124  0.0543619958849620
  0.8828292149921637  0.4456685541657852  1.0010377927762344
  0.1587108112932894  0.8075069952781031  0.0967220105820042
  0.5416032511591561  0.0554468721742949  0.5971133090776102
  0.1352679591003602  0.9721559219537237  0.1167126305675154
  0.2631032246564297  0.8331518270425570  0.2363340612151816
  0.2595434776046054  0.7590324120320937  0.0865882929299958
  0.4401183511781270  0.5111281847212575  0.7208499039709982
  0.2339400252517596  0.0719961872871383  0.8866714924920137
  0.7448969938465518  0.9819665623249171  0.1121181172529650
  0.6320497003629434  0.4365093221459809  0.5734911149426117
  0.7118227879918341  0.5227977671261385  0.6497426039913444
  0.7359843408025156  0.4644691280642817  0.6647963243035563
  0.6262590234713272  0.1550910423852101  0.1159942928707394
  0.8068787379005652  0.5880710527573797  0.7928153810204330
  0.8147234526594450  0.5740438830126868  0.8563551816380380
  0.6920550702226799  0.2925049830634568  0.1551033862168511
  0.9204077722776817  0.7557740203371612  0.9743762881018034
  0.4914137531899462  0.4006714860880873  0.3306415941296305
  0.5958056950699335  0.3848904667664784  0.2022958148776964
  0.5337282902859789  0.3978447189373634  0.5408581419599017
  0.4985706796688735  0.4760125847317041  0.2500465779262407
  0.3963737012736450  0.5224214657844691  0.2576556311805902
  0.6496262142655214  0.4041943199515977  0.6923125107298944
  0.6948253300028520  0.4403679798077076  0.7615949307599295
  0.3990203974141626  0.5377430378540379  0.1980965581746519
  0.6360237176360644  0.4467828930024826  0.7390997324025000
  0.4051126665863446  0.6169534582488374  0.3455491229964300
  0.7206071648899516  0.5321711762765819  0.8142946427639751
  0.6614077855333920  0.5291033316516693  0.4646033227509062
  0.2183628672858600  0.2125429104194437  0.6816116438289692
  0.8915401141223478  0.7925028910283030  0.7857613164978208
  0.3040477336878851  0.6780277824299785  0.2940428500066275
  0.7605974489633329  0.5695487127950123  0.8985165811086296
  0.8060247749366970  0.6088052096746620  0.9636279109464182
  0.8156351835233466  0.7257543483455849  0.8804184900085406
  0.1560653907058141  0.7900934680732318  0.1569443073904424
  0.2092180288549819  0.8033244162714059  0.2262800276282209
  0.8434165083593744  0.6352921821373680  0.7964450618871716
  0.1598162507997075  0.8525004527369169  0.1409562593200830
  0.8605959805674357  0.7471689371880297  0.5564347837401501
  0.7514912564559647  0.7545627035521489  0.5787899835777902
  0.1630229234824569  0.8812302587329627  0.2471240673039128
  0.1313832424191322  0.9096555165326983  0.1321383557499516
  0.0858665404809507  0.9865265038830562  0.1506882334262551
  0.9075197422710539  0.8249961330900641  0.6726977268121613
  0.0222911977529310  0.8446093242639922  0.7193905637220628
  0.7191480813713897  0.0008164925304392  0.0667866065061635
  0.6729598647571199  0.0992167181095275  0.0343851403009423
  0.9183128984207922  0.8874096402676865  0.8383517990009711
  0.7595517506925172  0.6512859440217570  0.4810030013476480
  0.6057976515204583  0.6741467857132561  0.5470511608103861
  0.5883145923264294  0.2918600741685022  0.1177409972677640
  0.5441679346174845  0.3693644307006237  0.1308361465954342
  0.8317190706144485  0.5514182598467633  0.0517206612792522
  0.3457553169375968  0.3177705681360342  0.6474004567114177
  0.3449695805921222  0.3521600466849863  0.7506115780002431
  0.4620740195604444  0.4846265163736570  0.8421605916435727
  0.9902719025346399  0.0785814472710312  0.2049054859278182
  0.9803888046532983  0.8815397094749106  0.8600918617063996
  0.6192417362797724  0.5475951231413465  0.5017163651201754
  0.4464901671449323  0.4595954095326898  0.1818462863754388
  0.7440830370628170  0.5881588687580648  0.5953540644122054
  0.3525630385456395  0.5830881161568851  0.1085844571027290
  0.3526738702924386  0.6158460575736663  0.2140284229547708
  0.7835352960922766  0.6620644247800872  0.7134415715777538
  0.3553143186102627  0.6761450906137424  0.1981086989776064
  0.2556270991864440  0.7248309004845492  0.2072057087730533
  0.4355865044680463  0.4237239525932610  0.8951440892051146
  0.4243357283146762  0.4349266723431545  0.8374695824762911
  0.3674418041355144  0.3914553611271938  0.5224684546099226
  0.4776997826676339  0.4111315490819454  0.6915912858422902
  0.8949650006135818  0.1852279731478137  0.1958872292495963
  0.3482344688568789  0.2823699910447133  0.5450008987273027
  0.3916739576677049  0.3343781651311917  0.5423542732275650
  0.3035646303037653  0.4159593081003557  0.6987277733520092
  0.3837145880639115  0.3674495307503741  0.6525824647645873
  0.8477769195586483  0.2932980717066764  0.3244994561941145
  0.4034934616489545  0.4601964888298061  0.7177264179474896
  0.4325767708662272  0.9386266127489483  0.4311489935400659
  0.4772735875049051  0.8580017955631927  0.4089148864131028
  0.9555699665348310  0.8208277194525668  0.9131639898153568
  0.3576325263975793  0.7765697078564878  0.0512210468832158
  0.5486638947970293  0.4575887562380411  0.9864374552725862
  0.9483726737526210  0.1826627025269275  0.3297009439000069
  0.1917846808781102  0.1504876361953704  0.5165613707802537
  0.2176407579426742  0.1755191490937491  0.5753299455650631
  0.5755879628456038  0.6246595392091088  0.9398139428234017
  0.0037551396278016  0.2291469925724443  0.2793433119396126
  0.9410128204624173  0.0931326702389506  0.2389726372754533
  0.6567104481897525  0.5097490125904217  0.2954363528136199
  0.7044049141052594  0.4334175869172205  0.2811707103930318
  0.7445842715219194  0.4761390110120089  0.8302745873478959
  0.9254242967813807  0.7249994705382491  0.8662373535793424
  0.1184728587965295  0.9579953797146934  0.2667893395602156
  0.2010968993751162  0.1051135172097519  0.6992310199583994
  0.1406215877854673  0.0751631120701212  0.5753940426386414
  0.7292223049030589  0.9541715976722579  0.8130596092593770
  0.5546260627068188  0.5050589871205448  0.0328862422690632
  0.4280540478633247  0.7519268799818243  0.5329180537800386
  0.5042463100595765  0.7621392411093953 -0.0028049107694772
  0.4770790754774248  0.7926630085563201  0.5957283708914382
  0.5901587578883603  0.8299597525719448  0.6806410575844350
  0.4036908490635309  0.7464537453806923  0.0244871597818735
  0.5578235738430484  0.8887537090849833  0.6018690291295384
  0.5210575042587822  0.7383531544320422  0.3431123758786540
  0.2198460146806687  0.9289720706054188  0.1959685852029497
  0.5973189926871391  0.6679032835032487  0.7065256225869194
  0.5969587249048703  0.6985665811340259  0.8137474686759307
  0.5685827287876666  0.6351707978690551  0.8741782489462269
  0.6666298019701423  0.6784987703172729  0.8956694476258402
  0.5161430143700738  0.6932684002985151  0.2990493901664962
  0.7149964213692930  0.7175363436504122  0.9614842454889823
  0.5208288825268149  0.7537684146563128  0.2820767563348741
  0.4184129142415436  0.8011529330014087  0.2938792791043086
  0.8204429734726791  0.3096431803309546  0.8660589624581048
  0.8348411397606732  0.6390290577419958  0.5636566735568957
  1.0358414046597673  0.0023447769264309  0.1859621491790239
  0.5133991200176258  0.5250404739660743  0.9074997137021619
  0.6972175665359457  0.7416414828769488  0.8373146141243262
  0.8965104053288684  0.2145029480212974  0.3032701454757087
  0.9100425500829896  0.3395969404518358  0.2724717145592643
  0.1608581017909380  0.1270221631076084  0.9073515793370249
  0.2443885545762863  0.0622782556756108  0.9511618698957679
  0.8157230097519245  0.5793530991348038  0.4531172374495101
  0.7063828226258188  0.6279551139221987  0.4711693872717916
  0.5946885391052645  0.9533522029858028  0.5366407487628747
  0.6112789438728197  0.8871237605396560  0.5599004536552451
  0.6572953147589503  0.9425947153584959  0.5655228522243609
  0.6796375721685979  0.6339362264121886  0.8535996787474849
  0.6762092136013234  0.7069663613105600  0.4043747050175106
  0.7309221020426047  0.7187429173860743  0.4737605003984438
  0.1616664009357873  0.0542396874475671  0.6989461709849245
  0.5054391771412636  0.8500245068501366  0.5317267563635745
  0.5728227341946569  0.8373704987494888  0.5592201224854546
  0.5339668475034074  0.9331183989014700  0.4630621703446502
  0.9643646683030807  0.3291187574043586  0.4679283447666877
  0.9582963264366359  0.3865847462879763  0.4545670644253903
  0.9641975064028729  0.4528562357718370  0.4275874362321020
  0.6029159031555803  0.9420968131280198  0.6041610909430365
  0.4772507185949242  0.5617563897078065  0.7274523818052613
  0.4400060564793211  0.4801278636333968  0.6154449102174433
  0.6798646072941146  0.9170731823370184  0.7475701519906998
  0.7338902450999522  0.7901496208156914  0.8420088848531445
  0.6694004053780085  0.9615436142719378  0.7908980022898503
  0.5795775434904411  0.8147004469595072  0.3970135584294570
  0.2395821917498387  0.1889669518070607  0.8052392594574052
  0.2894908811097875  0.1935047883542171  0.7641638209226147
  0.5787266540793861  0.7971915641893756  0.4566242602496058
  0.5252655787850474  0.8078691905432794  0.4936447799733610
  0.8966097885555877  0.1743934886910495  0.4238935653284715
  0.3855045417274080  0.2717104026879756  0.8923314630526118
  0.1862512064950356  0.0099809599407364  0.6177423736376962
  1.0017655102383947  0.1951777218640734  0.3998835615365318
  0.3110878264173035  0.1369711928679497  0.7833922015633888
  0.6196631500171824  0.6381082547657118  0.8326835288396203
  0.1526625876138780  0.0995977941286162  0.7412531980643735
  0.9038093122375170  0.3614538194993249  0.4409998486751737
  0.8022741225897637  0.3732210322225870  0.3398794730137452
  0.7581474937676719  0.4521409078820737  0.3515963852776097
  0.8111614257745458  0.4836581370378391  0.3600779585558885
  0.3743529890842964  0.3215252234758623  0.9373646918969102
  0.7642243129009038  0.5625187644628217  0.3766811798412173
  0.4463520450584321  0.4190472694352643  0.9528688696810915
  0.2187144119127369  0.9543372835344521  0.5415435919739089
  0.7462214614724455  0.3086792168856555  0.2253353633800011
  0.7879486518566103  0.1851714721194744  0.1624926449407146
  0.4234399000560090  0.8296532046967363  0.3997227268069699
  0.7031026426820218  0.4002028084614879  0.1779728335412555
  0.8233931819523533  0.8682279098091038  0.9901796962645639
  0.3622776974585713  0.4933366598525271  0.5377900092018598
  0.6046934420035979  0.4933803433360067  0.2240877717971280
  0.5207627805729526  0.5540547582602884  0.5780800053870184
  0.4328453739198104  0.5969228916330017  0.5318647817147771
  0.7065079545658635  0.4478471032761266  0.2210114877357957
  0.6101597109956789  0.5540138382960094  0.2051119113630769
  0.5585004810935263  0.5695136819400087  0.2387105514311581
  0.7155080818125684  0.5564290218661188  0.2419154823264421
  0.5721256732389365  0.6035554977191947  0.7653816444901612
  0.8989966577734357  0.3223198498192795  0.3291176961945976
  0.8993968355480535  0.3049242788123963  0.4011866303631006
  0.2130166150437178  0.1290233060821065  0.8658177700937639
  0.7771528822961860  0.2952277709033687  0.9727145708576277
  0.2720649431809992  0.1211595377503438  0.8866919766122284
  0.2596071600052786  0.1669852003629810  0.9284470401335232
  0.3125693792871507  0.2215629292680117  0.9894930384399625
  0.1847223472808477  0.0323225934155752  0.8241815782041149
  0.4671778054192847  0.4253677195536140  0.6297613611274805
  0.6460786722555517  0.7040661923631688  0.7723080413926787
  0.5499922438265585  0.7858633519306542  0.6747227550141542
  0.6900591287320654  0.8740957497847424  0.4183321447741736
  0.1414013072319366  0.1108538830303327  0.6776182983905810
  0.4447781740229120  0.1131537000639026  0.8899671953274055
  0.2100479122488106  0.8206153518345902  0.1658692515695151
  0.2760452981190809  0.5813461896198099 -0.0095575942400363
  0.3041503144913075  0.6159281407686455  0.0865946526064173
  0.9568750296542207  0.0162275758871931  0.6897465166100406
  0.5681532719600314  0.1512750991190445  0.6496243643573577
  0.3547496655073525  0.5509593551957321  0.0068868003079146
  0.5200331410968546  0.1098181304870578  0.5797811465257433
  0.4921281818657681  0.2098092356327414  0.4447361410841835
  0.5330709266522431  0.0697346822557636  0.5276617727470665
  0.4609183365555710  0.2568925599177298 -0.0263239718894350
  0.5246276154729480  0.2417289862900997  0.0016104843076012
  0.9301178654098774  0.9222728125003501  0.6171137785276841
  0.8618638566497322  0.7761402882123252  0.6639283424967523
  0.8955650136841640  0.2907038327220262 -0.0429445745278240
  0.9658388785589530  0.4250901351720691  0.4995610170758234
  0.3771651594360498  0.2479901677757830  0.7286490538292827
  0.3885777772313894  0.2367848694153281  0.7891911539850636
  0.6932693271299516  0.2845623719668373 -0.0088816275045666
  0.4985277902028481  0.2647842480133343  0.8810161919624933
  0.5553395065319834  0.4435996879576206  0.0470963855759900
  0.5107933281954757  0.3720304756860771  0.8762430033837839
  0.5027017281168773  0.4592677049350128  0.0844041069515397
  0.1821375133601239  0.0431392406158840  0.4875033459104289
  0.6055977269532772  0.3645468317414643  0.0283050607021813
  0.2499513204155215  0.9660170658871134  0.5997148200505399
  0.2655349942829097  0.8682856533179483  0.1150551151211303
  0.4132825137216020  0.4482042811871608  0.7774868333329813
  0.2113165635974696  0.8375111869851063  0.1061830035487886
  0.4994860017363516  0.3846227220873743  0.8142544118495532
  0.2365982679413959  0.9399477550950197  0.0450968400222689
  0.6192715278703125  0.4025240846014158  0.9639611910364794
  0.5714569135331637  0.3663299300376445  0.8975369473938135
  0.1317022099676591  0.9260952452775584  0.0721608690076037
  0.2354003130269215  0.9270499016761553  0.1064324281564364
  0.2785923539199603  0.1337768400746373  0.5514403204668185
  0.6824472079033101  0.2019187308307817  0.0651124418517647
  0.3278545350754165  0.2100857036176390  0.6634833677066960
  0.2400097199503270  0.0213892251037664  0.5742589041461151
  0.5588801678400427  0.5379794439246428  0.1361448717846676
  0.4490049376126715  0.3307344589939287  0.5728186675072560
  0.4548113766935054  0.5372627415578424  0.1029618160535195
  0.3154056581970656  0.2219363282376292  0.6038423576841399
  0.5149939543591859  0.6290299658400281  0.0885042145265564
  0.3089420965584427  0.7430297983855167  0.0479759085670378
  0.6590697869317297  0.5607484822116238  0.9845936848031365
  0.5661277678446782  0.4703430678460861  0.6585142612021526
  0.4818090911501318  0.1200755468648935  0.3029435680196959
  0.5427387313392182  0.5338152773532224  0.6432341419678919
  0.5136314552452224  0.4604037936999246  0.6969609062919149
  0.6236921099872861  0.4885285644651385  0.7830066356051502
  0.3441529540814109  0.5658994258927437  0.4025688124381982
  0.4211386136668657  0.1682887114120358  0.8715629231014561
  0.6101300559708073  0.5308457345833608  0.8243373360895119
  0.7009949816765660  0.5744522173143651  0.8757642841575812
  0.6432880477397285  0.5839777039649219  0.8539832007033843
  0.2172281025182125  0.7432931540903093  0.0219037506275200
  0.7323843091148458  0.5235548517977798  0.8717978066206493
  0.6874505048700836  0.6198622843965598  0.9134864161646012
  0.7320229721870428  0.6671519519219141  0.9788754759499929
  0.1815137462601887  0.8478224409701957  0.0516902966189149
  0.1295863656233821  0.8799954341728539  0.0254099932611572
  0.4571928184201144  0.5837253012868330  0.1434922174495744
  0.4493696914536096  0.4420683342892101  0.0130219835305642
  0.7998786978808742  0.9010444602325868  0.7921572941504166
  0.3608165872959561  0.1755467483408152  0.8478556257143380
  0.5559158064664903  0.5224723560783033  0.1959372973039234
  0.5355577851232373  0.4325269220676385  0.8191208474609355
  0.5728423321478660  0.4829084592177089  0.8244608190069931
  0.4109651758105172  0.5799454927191321  0.0133822844049317
  0.6825562174617326  0.5188968668724039  0.9092336333044222
  0.6212724978971361  0.5225722711311382  0.8879966587754020
  0.3577227484112044  0.5998560908778765  0.0456090914763662
  0.7767426966649613  0.4086749657636531  0.9119728785003718
  0.3576892977404252  0.6460464102208560  0.0872181101620911
  0.3451486361576167  0.2030548076413523  0.5078086354586977
  0.6230478688185994  0.7605346460461275  0.7566516557898613
  0.4100432477043509  0.6603894650236457  0.1605514678989341
  0.3729674327750879  0.1304381414530967  0.8059021190420009
  0.6429587027728739  0.7629016912509622  0.5987314699291804
  0.6987484536426775  0.3547792756540130  0.1363793069837474
  0.7265278087526750  0.8609090251016821  0.6057807071778029
  0.6742997338211758  0.8571017510796252  0.6453729010909666
  0.7517364866319849  0.7845522669513161  0.6828947703396071
  0.6029005378922724  0.4462384091313221  0.1814580278342071
  0.6915695398191711  0.8721010425664290  0.7021402017481150
  0.7787882806567805  0.8915822726755998  0.6729600171005953
  0.2570170394133751  0.7091153324373594  0.0449421623254216
  0.5638635051239260  0.4965486351831083  0.7650534002299271
  0.7884292964380927  0.9465880037767291  0.8359419428827869
  0.1695148698647141  0.3456880649819995  1.0187774972313020
  0.0114517184194219  0.2974160179488554  0.5992538599708415
  0.5675132405952676  0.6470781925592333  0.1595080589964605
  0.4153495643614638  0.7092544138888348  0.2076968221497640
  0.5252996408382562  0.8147504096775927  0.2668560740772961
  0.3682622172951150  0.8315141818435053  0.2694379261258183
  0.6934718322492148  0.7952312309100569  0.6636745339358378
  0.6623518853394200  0.8105310539075179  0.7609883861050339
  0.3241189087340077  0.9253299925525872  0.2280176083286991
  0.7621118948206936  0.8525798189197529  0.7862603904584694
  0.7109924168282753  0.8791943728142233  0.9324111176914600
  0.3274108151143432  0.9444500275541933  0.1672836806295660
  0.7981988312778268  0.9344754798001831  0.8983551178390117