Cr N  Ni
 1.0000000000000000
    38.8588641550299201    0.0000000000000000    0.0000000000000000
     0.0000000000000000   38.8588641550299201    0.0000000000000000
     0.0000000000000000    0.0000000000000000   38.8588641550299201
 Cr  N   Ni 
 1596 106 3725
Direct
  1.0037125380235479  0.7270853860344498  1.0049546599099177
  0.1641680235420878  0.9085782106764707  0.3514794696117399
  0.0112861161974320  0.9506492795765557  0.4602174423681064
  0.3043853807956223  0.0195019718055807  0.8653630734231047
  0.2439658742696344  0.0259722016357718  0.8444079722547082
  0.3424366568242806  0.1070182987768054  0.9720450662745649
  0.7779916663132984  0.1262065357588468  1.0020504993882986
  0.2231964285368432  0.9735273782250176  0.2397993866739302
  0.6932874177971619 -0.0304286910931254  0.6258519191296283
  0.3814288132785308  0.1197855324635086  0.8672699826167374
  0.5711237532803839  0.2150728275787161  0.8576690421545471
  0.3147828146685189  0.8174129514112481  0.2001508221135452
  0.2717817794386558  0.9408709956584893  0.2651006343653958
  0.3240867015124229  0.9008802373808504  0.1256218283000756
  0.2065851738453982  0.9924304321141012  0.7452582367397083
  0.2828897687180453  0.0423569535435792  0.7399948642181424
  0.3655279423850550  0.7860999453822943  0.2239183434222192
  0.4973751553190924  0.3505586599180026  0.0595121568264192
  0.4741881930245627  0.2049496923520620  0.9936138994468889
  0.5817622163180864  0.1998351709805256  0.2557396587679625
  0.4336545568873872  0.1576418412278443  0.9392968919043938
  0.5457183243438436  0.1542023867451990  0.9172891123436897
  0.5067114663395832  0.5535961952295593  0.1705085347831249
  0.5336961649099419  0.6871324619736910  0.5290071920772745
  0.4631213429703628  0.0553256655170881  0.9108501136078467
  0.8630679770493085  0.9237466042550075  0.5280199009392222
  0.8951258404882423  0.9830280818668314  0.5289872884482307
  0.7595044920496550  0.9272969990739760  0.5458490263844799
  0.3673530161884005  0.7987723192966525  0.3928491025078104
  0.5621246400705562  0.5723938059420015  0.4735059174700226
  0.3640530306838871  0.7529679276844290  0.3462962553563795
  0.5086866995415426  0.1896353551509203  0.7309614244322497
  0.3643742591383434  0.7706748922133897  0.2862230995513019
  0.3107238497687824  0.7560909659424554  0.2158168631275459
  0.6032185363725970  0.3698652487190762  0.6256538889066908
  0.5051885015683057  0.3266853985877080  0.5966794093341677
  0.2679284731956783  0.8614943824585110  0.3444401039448399
  0.6724151342309524  0.3473088108229680  0.7074864160076615
  0.5389004417280275  0.4045521038053186  0.7115830888427772
  0.2238801228910447  0.9411466935199212  0.3624614107292982
  0.2722765450438328  0.9238485983427848  0.3279404011554537
  0.6706871504850895  0.3756437597280214  0.8156397662130919
  0.6574492344535452  0.4196119620571950  0.8631917304512651
  0.8305243354472409  0.0330656815895477  0.2199437299772997
  0.7042010997444095  0.4621593192866513  0.9279547776174973
  0.6469779857199781  0.3873333482532961  0.3336383384903628
  0.9609520298524501  0.4021632227259178  0.3843590976580938
  0.0602194384884032  0.9110103917511880  0.3183177446615155
  0.8208360042170217  0.9092604237305723  0.5706370293349161
  0.1925422692677402  0.0197244614581389  0.0646765647989146
  0.0033791689225526  0.2329830691591750  0.0504347393405315
  0.2359450961916112  0.5224018113645441  0.3213835729746267
  0.0983014725826304  0.1270910852085084  0.0556214654499505
  0.2425192489404471  0.5851010646542705  0.3034047935951573
  0.0410653789386688  0.0531478892721446  0.0019971546200252
  0.1821547650126346  0.4930544885950079  0.3109063376291307
  0.1592370325795950  0.1955795904974446  0.3407670870660520
  0.2541920399929972  0.1051526748840279  0.2849250364704729
  0.0385076249244635  0.0297332919942415  0.2939583203767319
  0.0852701935595284  0.1517382316592790  0.4808787393214909
  0.3461468175495798  0.5603879089459569  0.4609470035660619
  0.3246614350100606  0.3386832815737530  0.4101533167117143
  0.0171727390327216  0.9879034144032305  0.3354833265401550
  0.3356012453363278  0.0769295770620601  0.3022582452034951
  0.0379095302226227  0.5724569400746323  0.0706289277294991
  0.3226174210808954  0.2750995536499986  0.2012000529097534
  0.3862909006535433  0.0447014453736453  0.3251012477438009
  0.3834089664964584  0.0004275150416074  0.2814659644926036
  0.2801377675470851  0.3681601316349272  0.1581391969238030
  0.0336600281679377  0.5880909283732879  0.2331328100690028
  0.9353431157859313  0.3463693684923760  0.9511588146205782
  0.0632955610257861  0.3097531679764989  0.1051521819514044
  0.3603104777933797  0.7434482430925701  0.1786999067842944
  0.3491648869090229  0.2237986093649923  0.8909584443551642
  0.0469591023877448  0.1247883624046700  0.1530188868697581
  0.0572596138028793  0.2308974528279551  0.1821734850122614
  0.4243223556508111  0.2572158189753999  0.3006312373141756
  0.0153720162318848  0.3546066373209545  0.2447756577432023
  0.0730771973095102  0.4651585814368886  0.3968105982208775
  0.4851039144083674  0.2915035633254312  0.3110522745821755
  0.0137679145038331  0.3699539635544091  0.4152107235995558
  0.9577897997890644  0.3364780144642284  0.4045023527044182
  0.0672367679393020  0.3685242945212720  0.3132814675365110
  0.0147710181571349  0.3081845920398645  0.4334200088699452
  1.0037881957375405  0.2133013420306947  0.3398560279231893
  0.1631132513612349  0.3321895375024547  0.4652717868708011
  0.2083146290718435  0.1650817219371180  0.3669963826348282
  0.1159113446698911  0.3065810113707573  0.2359045709988529
  0.4588474282949199  0.2172924858416691  0.8726634616049428
  0.0521587884985550  0.8039663562306874  0.2865397652430375
  0.4397534835036405  1.0050730192639261  0.1834523264422367
  0.2972334509741440  0.0168282782940256  0.0983622736406850
  0.4256767268426211  0.2735112058779453  0.2342728121806809
  0.0125843481912647  0.3249435608373152  0.1394536622811668
  0.4245357130982655  0.2275329264739561  0.1944737201749760
  0.0017906200816673  0.2174092504300854  0.1107088560902102
  0.3786045818044307  0.3056570828109442  0.2110225001540599
  0.3547800119164364  0.5510031294798680  0.0069638999867044
  0.5201316120631561  0.1098576388622380  0.5795002724814354
  0.5842932336277780  0.5647667336498243  0.5523315116954614
  0.9963688049296011  0.9508322911987744  0.7409147376420644
  0.8879984309573249  0.9573861623933619  0.7551173909050675
  0.4697367218627496  0.7338186511271598  0.4423677747175939
  0.7583687390635216  0.7098504107157553  0.5308110444728981
  0.7938336493214059  0.8026091737108708  0.5840941303344457
  0.4745343990707412  0.7952746853523760  0.4264382262998906
  0.7436629880761212  0.8878348085664682  0.4951333128471378
  0.3798403564147295  0.9078994104360145  0.4219228056331421
  0.8403556021504407  0.8797725486377657  0.6954730195885988
  0.3260396355995815  0.9266645106723045  0.4614375499248745
  0.8593785525515898  0.8943774637931666  0.8146559661202456
  0.3332634159369358  0.9854851697086416  0.4449588461430959
  0.9379881651251150  0.9819713280008169  0.9104134136212775
  0.9298417834075954  0.0140871031961540  0.3199330665495800
  0.9482881871764347  0.9704002855170017  0.9646696208143269
  0.8640268013586853  0.5016480470126560  0.4316001793800213
  0.9846823127014817  0.6200082261607920  0.2046350328207478
  0.9290100983953137  0.5889781318013312  0.1944185726643773
  0.8149723844301515  0.5945931898741775  0.3913254706451846
  0.0707232909622259  0.5985121248690299  0.6367463060415529
  0.3021977617660294  0.6843829338333433  0.6749913182419306
  0.7765204955875654  0.6600503112515429  0.3957198177514130
  0.7831009811636047  0.7019999255312724  0.4375474019023862
  0.6528173741084078  0.1514737418642413  0.8980777313994668
  0.8688952584918198  0.3510886452565802  0.9295085259914934
  0.7594217815592629  0.4647518590080694  0.2903468964722148
  0.5806020518454642  0.5911098117763900  0.8318713049836871
  0.4401810870049617  0.3993769092666218  0.2004946493073940
  0.4106331119255338  0.6927162887620631  0.2651409094248995
  0.7125965701573593  0.8149280355169083  0.7196492918243848
  0.7763090888263711  0.6793761841041456  0.6520937080491600
  0.8327589148424286  0.8317537776861683  0.8741079488634415
  0.7447155899444485  0.3304684605165342  0.3947227579169968
  0.4969513647532726  0.5873142692648252  0.5262442646637459
  0.7801801784524557  0.7610792743627205  0.0274395715822030
  0.5039250638364005  0.2560387318378965  0.4943528402110877
  0.3932186750808607  0.2387141809066196  0.5163869381602310
  0.4148649112784870 -0.0004621970829664  0.6409777013216452
  0.4402830376938072  0.0439169231558090  0.6774718603323859
  0.4906620031112258  0.3013884990660337  0.0019286456653205
  0.4363602583630533  0.3213627171123951  0.0548853217631811
  0.5527356002699776  0.0756981656037435  0.7665997166950452
  0.4714948452303979  0.3605806484730632  0.9790107508210660
  0.5640469421130722  0.0634525444306111  0.8294927223016714
  0.4442722031950257  0.3806243227931008  0.0376195385272273
  0.3940658403884400  0.4130785371676273  0.0078184362571628
  0.3914493502837422  0.3967711031735604  0.0681290525392533
  0.6433724718899966  0.9991499845499238  0.2478143643142675
  0.6131424496579622  0.1878516833563400  0.9899258933455323
  0.3515436890381661  0.5356754382309777  0.0697346913327977
  0.7321701235912194  0.2533962948543546  0.9020051019844687
  0.6836742360596042  0.2466246528471728  0.9415370513460164
  0.4851548154028240  0.2281611924942121  0.5444772043906527
  0.5967977977663821  0.2470275642313232  0.6970910326387897
  0.5745031233840701  0.0512988663914079  0.8923702925905200
  0.5387514875449517  0.2209351406281852  0.5710902806416873
  0.5037428970833445  0.9877447988321810  0.0492958911070790
  1.0139036644806898  0.9965039365074718  0.5081426986426654
  0.9529929707735032  0.9650570618823938  0.4980477278113907
  0.9475261241917294  0.8982153349438927  0.5139777978182808
  0.0217742086337353 -0.0216000134083384  0.5799600098751210
  0.9472397414749141  0.0290563503718474  0.6295744449249790
  0.9916937904413506  0.0647743877082909  0.6929053551409149
  0.7889992040915393  0.8172958033963802  0.5238643169449591
  0.8840333397386642  0.8504667711087219  0.5506693230179834
  0.9398255042341570  0.8748788945219780  0.5738564041185337
  0.5168634763552202  0.0096038079716426  0.5536509110892370
  0.9302502652892091  0.9223493255886399  0.6171662848026297
  0.7771087083476267  0.2953560207286139  0.9726117380105784
  0.5244906697029831  0.2417183287511691  0.0014854468605838
  0.4606117646861915  0.2568960211348554 -0.0263167242813240
  0.5331474540413784  0.0697292591160719  0.5274740580366611
  0.4925007571985681  0.2095823509420650  0.4447787745906760
  0.5756028516944256  0.2062826639844640  0.0216052960986684
  0.5257969825546897  0.0164456137324744  0.8250378819031292
  0.7945160112412036  0.7497410469541907  0.7580591789046047
  0.5362829834140524  0.0032746403743200  0.8882378887366821
  0.7105515098825592  0.7338774691152707  0.6780989366290411
  0.7057338324590237  0.4530679572397439  0.4430984626213089
  0.6695747438102768  0.2261170025936887  0.7769470873402986
  0.5581690683785124  0.1957119876788331  0.6924434316439696
  0.7078126927333231  0.2773863737331792  0.7821297367658328
  0.3274280593713214  0.5773520952537322  0.9515206812031367
  0.2025564030775016  0.6798628198675820  0.0336784004186364
  0.1577571107244291  0.7620350041879654  0.0568533289070024
  0.8828034824052434  0.4457121815833193  1.0011110348201888
  0.1584381776561858  0.8077276833771170  0.0968996102040681
  0.5416191666296172  0.0554333976456909  0.5967938724243050
  0.1350149299292365  0.9722879414203031  0.1169730185904464
  0.0308639759924651  0.9748968288289517  0.0788017409158775
  0.4701112079905232  0.1049230568005984  0.6194549878021552
  0.4800126598450358  0.0941991904874181  0.6818788922042933
  0.5415706066298910  0.0879852013616464  0.7043364752960356
  0.5802564096020932  0.1387313169666550  0.7086631701026218
  0.6176615181515602  0.1077519100763575  0.0657618877513068
  0.7458216635267616  0.0787574101196237  0.0036501169725991
  0.5208810608649811  0.1767923189506641  0.7911283689240641
  0.2630410963430994  0.8332146083545575  0.2364282016797842
  0.2593330364212931  0.7590804637985598  0.0867765300804239
  0.4400521889231396  0.5112033756328738  0.7208905983581794
  0.5037136473766994  0.7617617635911849 -0.0029380153941870
  0.7479258026045124  0.9795645995048214  0.1115974496453790
  0.6320346945602442  0.4366247674492568  0.5734934586941927
  0.7117770460496817  0.5232319112982436  0.6501938023808523
  0.7358854901833088  0.4645701013015109  0.6650234974042237
  0.6261344644817809  0.1550422146817247  0.1157840305875548
  0.8065960212110619  0.5882015949188584  0.7924962344318822
  0.8145456091140258  0.5741182533722361  0.8563882984559359
  0.6920261422575007  0.2924326965811369  0.1550555294410204
  0.9205356001278627  0.7557948172560892  0.9752680541043696
  0.4915068609713927  0.4006333200646978  0.3306947588213854
  0.5958355765530952  0.3848052720910841  0.2023327358943958
  0.5337539300867141  0.3979629730105023  0.5408092604835102
  0.4986255455946419  0.4760000569124642  0.2501208377016791
  0.3964462193149246  0.5225065489570251  0.2577468677188135
  0.6495826668788468  0.4043210412015178  0.6922740014272500
  0.6947000580816732  0.4403886815139492  0.7616928393443095
  0.3990899740935261  0.5378425668074871  0.1982019041316376
  0.6358543265926886  0.4467873135929915  0.7391350780111433
  0.4051194397635759  0.6170417867015584  0.3456227332660986
  0.7201649637376925  0.5321966074703811  0.8147675275329944
  0.5545752147357180  0.5050342682487056  0.0329676200396956
  0.4279063346323153  0.7519954683509721  0.5330022393432957
  0.8917282323198067  0.7925577870782591  0.7858532899193013
  0.7605968776509813  0.5695404005756723  0.8986737233721152
  0.8317758627486275  0.5513566226484383  0.0517721349871425
  0.8059121188013315  0.6088294682826622  0.9636631129824131
  0.8155362969163691  0.7259073276328963  0.8805333634732436
  0.1559527760643971  0.7901312543218871  0.1572994461082281
  0.2091351592994392  0.8033743668860513  0.2263960189320052
  0.8434745799498614  0.6355635600249369  0.7964480780274792
  0.1596356917732676  0.8526970879285537  0.1412880847548588
  0.8605430052423155  0.7473586878350033  0.5564562693722064
  0.7514500253258845  0.7547527570023378  0.5787740446956902
  0.1628069301829322  0.8812932520131009  0.2472700878068494
  0.1306334586635922  0.9097555552822955  0.1326385846150474
  0.0857056260921321  0.9868130929320131  0.1510316993748718
  0.9075242118592850  0.8251080944566507  0.6727008381885000
  0.0225347788423209  0.8447616577849836  0.7195149361974034
  0.7850847719927561  0.9685202380175918  0.0670717264487894
  0.6729841154115654  0.0989096372846088  0.0343256857639269
  0.9186237557244269  0.8874308970205192  0.8380992761440669
  0.7596181139596884  0.6512991542797165  0.4807485672103323
  0.6058743985029776  0.6742139228678830  0.5470660023629149
  0.5882732720251703  0.2918325231400816  0.1176655070575474
  0.5441792659124290  0.3693378801242518  0.1308476512518434
  0.3040913755967757  0.6780758722460178  0.2941169058408594
  0.9203634906961609  0.8133584223427709  0.9561212068018775
  0.5506842695998760  0.4933941402054075  0.3198631930131512
  0.4618517273879673  0.4845136576219619  0.8422065889475743
  0.6635881748094621  0.6020993305065693  0.3799284746974884
  0.9804282445787160  0.8816253789507683  0.8603186367937845
  0.6192798180385000  0.5477183754843833  0.5017564029049593
  0.4465465137195060  0.4596568601080846  0.1819429071286251
  0.7440500457348764  0.5882350402830224  0.5954663969733850
  0.3526127468378439  0.5831718036597947  0.1086638666447670
  0.3527514262569107  0.6159607138916842  0.2141079959261040
  0.7834118286924769  0.6623894103567545  0.7132026685275562
  0.3553698959641161  0.6762399663069903  0.1981684851486462
  0.2556372499500892  0.7248884834698626  0.2073229108931071
  0.6217974016765635  0.6449901699277162  0.0617984413589916
  0.5070586721208850  0.5849793427339469  0.2739171877554030
  0.3675820010497045  0.3915398504405645  0.5224626501497520
  0.4776714305040081  0.4112134263169634  0.6915837306143422
  0.8949124796278595  0.1852737775282065  0.1957657893290203
  0.3484636581019129  0.2826354144867483  0.5453078098452528
  0.3918376059249697  0.3343716731971057  0.5422933705050793
  0.3035791903470613  0.4160507350187214  0.6988285669431988
  0.3837497556777678  0.3675189193865748  0.6525006773186831
  0.8479066859989390  0.2929711932482196  0.3245457346352101
  0.4034349870416112  0.4602683047874033  0.7177606512747157
  0.5854862213467146  0.5789375872054227  0.9034326420290452
  0.7111107717949691  0.5633762488539558  0.9388658379437915
  0.9551397929902962  0.8209608736046553  0.9139848109120090
  0.1408642039252104  0.0752331700798703  0.5755066663557418
  0.5208111851861301  0.7382395028990146  0.3431002218062015
  0.3458684860450373  0.3178907807140023  0.6474345048725265
  0.3449711425957735  0.3521514814199783  0.7505874946928107
  0.4773210240327604  0.8578735985403868  0.4085798197934306
  0.4327436363084201  0.9386385295406775  0.4308961780865931
  0.4241631447994752  0.4348525521333577  0.8374816085699833
  0.4354274085084122  0.4236570916965786  0.8951570093907588
  0.9899036037108229  0.0786645187680689  0.2052384633978156
  0.5485695319931554  0.4574885385317292  0.9864971570071559
  0.9485719835109997  0.1829015144616974  0.3297489974297114
  0.1916911099296964  0.1502569828045084  0.5162735157153400
  0.2182931963213104  0.1755258197353107  0.5749035913938771
  0.5756083921996050  0.6244094906344191  0.9397210214391538
  0.0038249412729444  0.2292119929555770  0.2793331600026914
  0.9410157488987706  0.0935188034189621  0.2389944811249022
  0.6567610541810904  0.5095993105274094  0.2955757420511891
  0.7044690891727986  0.4332088244959273  0.2813296824674810
  0.7443535450298036  0.4761514716973133  0.8303745429523273
  0.9252926987832488  0.7250900341028141  0.8665417234802364
  0.1182195724149821  0.9580331403966792  0.2668123171260701
  0.2011733028316231  0.1051737995371428  0.6993065171680756
  0.7292516395797073  0.9543087990218693  0.8129220806260323
  0.8503784852317517  0.6227346273307054  0.8595019753135765
  0.2197114031844787  0.9290632357821096  0.1960967848746857
  0.6047572790461786  0.4932560950534963  0.2241797343654730
  0.7065583793781820  0.4476552650124128  0.2211587961331800
  0.6102107335598091  0.5538738202481382  0.2051943400611100
  0.5585515470391925  0.5694498415894401  0.2387815799184035
  0.7155589044296100  0.5561832772169109  0.2421192674222084
  0.5722270886520350  0.6037886709735045  0.7650090885871205
  0.5976827588181121  0.6677742111048095  0.7066469954460686
  0.6197220059679106  0.6381104192158019  0.8325244772077751
  0.6795143518730953  0.6338410632515694  0.8535753352761465
  0.5969306482274824  0.6986141884443737  0.8136510927425675
  0.5686133845746093  0.6349883949265924  0.8738827731148583
  0.6666057930377305  0.6786193011943459  0.8957255979145000
  0.5162650339494561  0.6937431072275159  0.2992036641856529
  0.7149083184511195  0.7179234652573362  0.9621352806415281
  0.5214520153807110  0.7549694364644833  0.2824971077501568
  0.4183985726781653  0.8012398911743712  0.2937858691713008
  0.7578924354646456  0.3155392533881470  0.8470276896309423
  0.8347386683078329  0.6391990755894934  0.5636047213313339
  1.0350516027518017  0.0025647378675935  0.1862736819401885
  0.5132779855164264  0.5249801539964345  0.9076036022896299
  0.6971662360130333  0.7417523036314783  0.8375711099470852
  0.8966078093410762  0.2142522310926295  0.3033201289250789
  0.4328121483784913  0.5970816612727420  0.5318990410365552
  0.9100678187145229  0.3394700636890615  0.2725127566516349
  0.1606745532755568  0.1270476352169276  0.9074073730996433
  0.2394410471955463  0.1890258573275192  0.8052297698103225
  0.2446931508092424  0.0622180843221312  0.9514125879043361
  0.8157007902799202  0.5792279619868841  0.4531857825201749
  0.7064641377407240  0.6279630725944887  0.4711182159525034
  0.5949435605648083  0.9533978889396827  0.5363503475088370
  0.6113403078085896  0.8871677088243729  0.5596131049949697
  0.6575129536530778  0.9428054039195860  0.5651515976229466
  0.6761434529733255  0.7070886191833365  0.4043122672522366
  0.7309258438324931  0.7189131808586371  0.4737744442191321
  0.5055297168032210  0.8500366119858396  0.5315542049862485
  0.5728621624202558  0.8374378234578441  0.5590320344794294
  0.5342851457507193  0.9331515760782434  0.4626802808615806
  0.9642824220683420  0.3291190293728879  0.4679749360840043
  0.9583343623027887  0.3865272864261664  0.4546417874164279
  0.9642111364330650  0.4526881839098195  0.4279429417445457
  0.6030885719062221  0.9422236645758520  0.6038709214339250
  0.4772062569288924  0.5618441668394858  0.7275306496408047
  0.4399684725128950  0.4802221436540379  0.6154676858689710
  0.6797998515603274  0.9171728528968444  0.7475560912366138
  0.7337669596347275  0.7904792703402721  0.8424959470499963
  0.6694139220106431  0.9616291693798060  0.7906765963179576
  0.5796097748799108  0.8147670274467367  0.3967573715828732
  0.2894971983740470  0.1935303045059973  0.7641783314277888
  0.5207725426660681  0.5541134754968954  0.5781156704843327
  0.5788408990368997  0.7972575857755881  0.4564716716825903
  0.4770347788879817  0.7928105433874557  0.5956093113724290
  0.4033504711146213  0.7462644749160391  0.0244920865858926
  0.3574219546268798  0.7766313609002673  0.0512471068772998
  0.5578882729135979  0.8888826739601777  0.6016554339244913
  0.6613587845063227  0.5290978362307831  0.4646372280505314
  0.2185173706425863  0.2126310814362586  0.6816172153220235
  0.2342830993839215  0.0717635703970593  0.8870111896326747
  0.9038813285347823  0.3612974264452346  0.4410297541779678
  0.8991089976291373  0.3221057452973074  0.3291624854716505
  0.8023492806648749  0.3729346791988850  0.3400287831751035
  0.7581898682231165  0.4518863820042379  0.3517947286988019
  0.8111900038361866  0.4834068044792316  0.3602851706496537
  0.3742541427426028  0.3216648133207619  0.9371721498204999
  0.7642601883271705  0.5622726330242094  0.3768433699347155
  0.4461754921636472  0.4190373471918715  0.9528844570972159
  0.2188581184830284  0.9544272932997498  0.5415755347184849
  0.7462577433860957  0.3085055577758544  0.2253697458006989
  0.7878374225324958  0.1851878480071089  0.1622618397176833
  0.4229534250049856  0.8298647392633435  0.3996931874961304
  0.7031280687699966  0.4000452001352631  0.1780658398438910
  0.8209352135556468  0.8658980356559167  0.9993892451306612
  0.3623126327316469  0.4934586879106381  0.5378518298369470
  0.5899959914988220  0.8298035371519483  0.6807116508192946
  0.5253051216961498  0.8078286939350411  0.4933533684889047
  0.8971275597500588  0.1740554107486353  0.4240408925368279
  0.9571452058835487  0.0163503644500187  0.6898475461269196
  0.3854167028603677  0.2715504999800191  0.8922642948157671
  0.1863920943879921  0.0100935696278546  0.6177884026617413
  1.0021369626626448  0.1954964849495437  0.4000590551647131
  0.1617529469633572  0.0543592944061185  0.6990808608483019
  0.3109893030991074  0.1370174858622860  0.7833401712939223
  0.1526844861835646  0.0996771420047091  0.7413520347768474
  0.8994962511450891  0.3046787428913268  0.4011666942257811
  0.2129832247155728  0.1290531997377244  0.8659624327138392
  0.2717303219122045  0.1210968254113492  0.8868220052580765
  0.2594523056469252  0.1668702442503076  0.9284821925894389
  0.3122409846954309  0.2220056073110638  0.9894895136477414
  0.1847408287887198  0.0323864928553775  0.8243542781029701
  0.4671514576113591  0.4254391634498816  0.6297699871989024
  0.6460669573820217  0.7041665538243369  0.7723430814941625
  0.5499227970065169  0.7858135948190361  0.6746540769164777
  0.6902188446317384  0.8742051597246097  0.4180274297560315
  0.1414810655791378  0.1109693125754831  0.6776589636840553
  0.4457862978921925  0.1120181507767788  0.8898647609638851
  0.2098862835071751  0.8206783427107389  0.1660151961797962
  0.2761414786280684  0.5812920665753732 -0.0094732661281947
  0.3041703558497845  0.6160335757610134  0.0866897421149531
  0.5683658991950449  0.1511799802044767  0.6494163591045105
  0.8618065133348765  0.7762856872455636  0.6639696747127066
  0.8659435470506793  0.5168004664574021  0.3711425475858690
  0.9658448484169889  0.4254439677338795  0.4993347160423920
  0.6190938813178110  0.4024756243201859  0.9638883547336746
  0.5712561580557899  0.3662684286489355  0.8974344503973051
  0.1314161931108171  0.9263083420656885  0.0725654925687128
  0.2351036637102210  0.9270800762027346  0.1066125296231357
  0.2781114315272278  0.1342017172197892  0.5513283416509964
  0.6823668708793219  0.2019477276361676  0.0648991875419550
  0.2401908981623443  0.0215395969882565  0.5742137777572008
  0.2674964074166733  0.2171055133692935  0.6425059978810919
  0.3772226083522255  0.2479405112456537  0.7286968277355105
  0.3886457090030507  0.2365788951385541  0.7893655248292817
  0.6932020155919011  0.2846765890089995 -0.0090303119431234
  0.4982799564526063  0.2646137054853439  0.8808294440237089
  0.5553475847024423  0.4435733802097274  0.0471224232433718
  0.5105976610937943  0.3719286437560164  0.8761938476197616
  0.5027210667832828  0.4592863570790220  0.0844793428955035
  0.1823501904342563  0.0430838821506027  0.4875269873510141
  0.6056078865284760  0.3645302087406030  0.0281934627386265
  0.2500464036151750  0.9661839041484499  0.5997394998217241
  0.2653848027333126  0.8683087336376735  0.1152025532325896
  0.4131642218155241  0.4482041299990508  0.7775089046963157
  0.2112725452619854  0.8376961256898103  0.1063998365353405
  0.2365603580391107  0.9401346158792554  0.0455275486387522
  0.4993242495870910  0.3845599923610911  0.8142137628455233
  0.5589379477307715  0.5378952393177933  0.1362514663629698
  0.4491177751807211  0.3307332549072473  0.5726923414730931
  0.4548568795700672  0.5373179056492029  0.1030447371254120
  0.3157612147608890  0.2220890023974914  0.6039895812861330
  0.5150932497867082  0.6289645456040295  0.0887254511048271
  0.3088470880975702  0.7431001015198423  0.0481430198639300
  0.6591208218234570  0.5606444811336723  0.9845722650406930
  0.5660628485245166  0.4704839440975850  0.6585772691215985
  0.4820191165745265  0.1199836412540968  0.3025431421321803
  0.5426709446472980  0.5338451852075609  0.6433096057795580
  0.5135961790833591  0.4605372373930684  0.6969853055771618
  0.6234094535822072  0.4883910096483998  0.7831414019365499
  0.3441753926900961  0.5659588308526066  0.4026632177722705
  0.4207585373025382  0.1666153118588452  0.8734667631588048
  0.6098222424372777  0.5304528129037969  0.8245253017997496
  0.7010034768053225  0.5744835566077456  0.8747726098518758
  0.6430032039666927  0.5838486437645836  0.8543119148386956
  0.2171986767406126  0.7432343890316305  0.0218694815108743
  0.7321091346853263  0.5235785052971236  0.8721935310095029
  0.6874948079436132  0.6198833996356745  0.9131381817079278
  0.7319224124373886  0.6670744839776642  0.9790682361200967
  0.1811352704133092  0.8480297902027878  0.0520298976361990
  0.1292678741965929  0.8803452374119366  0.0258420891386468
  0.4572478289976063  0.5838070411546205  0.1435989611954471
  0.4493532414172741  0.4421104665792536  0.0130859993503300
  0.7998590453113836  0.9011540971944677  0.7919720070557539
  0.3605895356647964  0.1757217758860331  0.8480963948824956
  0.5559785292030047  0.5224049005827497  0.1960194688641047
  0.5353362102859941  0.4324144136792513  0.8191042075266105
  0.5725497105560139  0.4827053531343404  0.8245797151687778
  0.4109933927343055  0.5799382718536499  0.0134137606436246
  0.6823164523216559  0.5188418549367577  0.9093063037768051
  0.6209912710157839  0.5225174616986770  0.8881550535738646
  0.3577815537487867  0.5999041802277155  0.0456835041698393
  0.7766110511891081  0.4086497493810788  0.9120151418773476
  0.3576995110006705  0.6461344886605841  0.0872298176692712
  0.3451066271704279  0.2037034106733573  0.5077369882160493
  0.6230367676104384  0.7605814032155276  0.7566972951482747
  0.4100880931997967  0.6604725848594698  0.1606057884282914
  0.3728478469548905  0.1302978616682738  0.8059616480481798
  0.6429350684511419  0.7630570346111678  0.5987241418693140
  0.6987436864553794  0.3546712043560378  0.1364271123768175
  0.7265569555676737  0.8610807744806594  0.6056835059268828
  0.6742849862010089  0.8573236805390119  0.6453110379038662
  0.7516700352839923  0.7847747835203757  0.6829622525558464
  0.6029383487762313  0.4461182199954443  0.1815242058376185
  0.6915292540055276  0.8721822491103997  0.7021957815900796
  0.7788291748044914  0.8916199159905691  0.6729300790797828
  0.2567443449891686  0.7093092523811445  0.0449677536754781
  0.5636822153326068  0.4965809617063262  0.7651606505665105
  0.7884615005136663  0.9467327503510349  0.8357976202767303
  0.0137116631349479  0.3632006930702530  0.0161926657000681
  0.5751533796667734  0.8327670425370780  0.1075685541333882
  0.5676287780065874  0.6470032087782194  0.1595189521220625
  0.4153981922164489  0.7093450353640796  0.2076902717336260
  0.5255608247236855  0.8154525786346621  0.2663138449356099
  0.3683349794787986  0.8316211767086719  0.2693764460221251
  0.6934257692805404  0.7953990196470547  0.6636839475415989
  0.6623444147854336  0.8106374110055020  0.7611474003510238
  0.3240882009295745  0.9254227328632213  0.2278972010743820
  0.7620510730456588  0.8527463800615745  0.7864451503701967
  0.7114513823906699  0.8781684089492581  0.9361794822393407
  0.3274188189268167  0.9446005322349885  0.1671035904410237
  0.7983231578318521  0.9344713709167811  0.8984163620005400