Cr N  Ni
 1.0000000000000000
    38.8588641550299201    0.0000000000000000    0.0000000000000000
     0.0000000000000000   38.8588641550299201    0.0000000000000000
     0.0000000000000000    0.0000000000000000   38.8588641550299201
 Cr  N   Ni 
 1596 106 3725
Direct
  1.0046010051111403  0.7265782904400735  1.0062950116479226
  0.5336952337784463  0.2657696213401057  0.3371435262479066
  0.0123537231733186  0.3712208968769046  0.4124811634378616
  0.9612863774767593  0.3878726883270193  0.4487739037386927
  0.0699258257665651  0.3697093749501967  0.3184978246661177
  0.9565139967088667  0.2747667828768690  0.4239570699298139
  1.0029136437061326  0.2139262079745148  0.3388933351686443
  0.1226465973668885  0.3704664425277651  0.4500404977573971
  0.2092484673602911  0.1660418220996860  0.3663113863534220
  0.0653917737043921  0.3199157826034916  0.2702730208400148
  0.3527410434246571  0.7228722839450430  0.7413313334448440
  0.4588111975136964  0.2158139004309527  0.8730947694978677
  0.0534736897933550  0.8037531109273517  0.2872663554733868
  0.4412911820201831  1.0070053706461597  0.1821269070174046
  0.3018478966158922  0.0636333894259790  0.1423838780207014
  0.4243344771957314  0.2754498537271618  0.2330571959646341
  0.9567206280927841  0.2925671994731587  0.1284849225861487
  0.4743444812170076  0.2153243092847203  0.1584671314368230
  0.0020363349814617  0.2188394984020112  0.1090149489995171
  0.0452396314989229  0.1266419326448970  0.1521803700609784
  0.3779883450721789  0.3077843742724270  0.2103543583130534
  0.2676292653508782  0.6521769422902649  0.5759081319617818
  0.0525755181865959  0.2299184893857123  0.0043729383401082
  0.2377917881040635  0.5246077586758205  0.3214938299972551
  0.4643409276603931  0.7554264471071500  0.8214815753721205
  0.5316430633703704  0.9006568888711999  0.8683884000113596
  0.2548795207806506  0.7482705555770380  0.9256202863596129
  0.5642991584633297  0.7987935429398607  0.8417117209510316
  0.2953927828199399  0.8012053036851542  0.9263410408492868
  0.4318666288904713  0.8242990891319601  0.7421290947522444
  0.4910175666187257  0.8182291826986730  0.7613853631735048
  0.7905081154184188  0.8164642044822232  0.2388340896110791
  0.3210483518001274  0.7816827051929690  0.9925984392139378
  0.3309600381367837  0.7457149352516801  0.6163661140074332
  0.3033264201132226  0.8353047636215997  0.0277270116794948
  0.9745857541725376  0.5272583551140820  0.5206300231080672
  0.4386579539392809  0.6976858008097639  0.5524555126586175
  0.3371259361470556  0.6997341397020108  0.5745560000070453
  0.1285585692101202  0.6257309890423198  0.7586832860285810
  0.0606674450270768  0.6447973801391869  0.6763390719969776
  0.1005882600579382  0.5640431721497006  0.8185716549616338
  0.1840367772824024  0.7666654106390133  0.8408739797582762
  0.1349646583403112  0.7281011237497873  0.7741844909551280
  0.9957638455349124  0.7422405795068427  0.3959972199035309
  0.6025368088381277  0.8793591421301435  0.9484724828275454
  0.3847187035051632  0.9337755314378016  0.0395484284555632
  0.1938170964089911  0.0192556069603026  0.0630162084911243
  0.0635782682870049  0.3119882547798491  0.1036261768869735
  0.0065775950900132  0.8949434202740657  0.2425211839735033
  0.9294663491285243  0.5886400273115889  0.1951919445638595
  0.8647486754228584  0.5014570300360001  0.4339052718285045
  0.8684381752566248  0.5632493307045570  0.4172207032012585
  0.9214221377570405  0.5471595028710255  0.3816395809372371
  0.6024470895407273  0.8487222869955410  0.8452658642712184
  0.9133397567134668  0.4360321135525316  0.3570985695075768
  0.4142467893771338  0.1379382812344203  0.4102964620281751
  0.4894908549465057  0.4901138720123220  0.5751281690372494
  0.5906390850666159  0.8598286665714060  0.7850141537872676
  0.6834225611711831  0.0170990793365446  0.7648275114001565
  0.8954665438994163  0.2888417973849943 -0.0452421798026016
  0.9220881787011531  0.1852747308099308  0.9272224395832434
  0.6679248891463251  0.0176623221973702  0.1041775335302720
  0.8210505503252052  0.1435134362428473  0.8998195876870123
  0.2535400238905730  0.7138133356808359  0.8212402096550222
  0.4376572880161870  0.6924911176410989  0.8817666647433416
  0.8405913994609987  0.8019865260560500  0.2065301866434011
  0.7923311751299845  0.0152181956875112  0.7468429040620548
  0.0106278616586781  0.8554634566751678  0.1281021042720241
  0.6481831954985662  0.9829092521655811  0.6624411214347283
  0.7212760314891651  0.0315962934660711  0.6585371207793078
  0.7580422554503362  0.9808622018823826  0.5986835858066806
  0.9905457700946091  0.6818871915309718  0.1867068610806779
  0.0987451558454962  0.1282688307152694  0.0548344977650661
  0.2436147502818366  0.5858757223949993  0.3035238572371610
  0.0717751638651144  0.5980097889065056  0.6370029409131891
  0.0424622145440253  0.0534993737461213  0.0027554270997948
  0.1856001390483078  0.5100353084790715  0.2503840191436984
  0.1588124147358299  0.1967736881619767  0.3388569121752951
  0.2321979821000565  0.0643512153687670  0.3290131113079071
  0.0360623335019241  0.0315861552711384  0.2933199459768412
  0.0864642298727981  0.1531235922602464  0.4796433556760671
  0.3468493751497702  0.5621717198120886  0.4575836261905176
  0.3258243516819348  0.3427151627052740  0.4100417699602599
  0.0172152829881814  0.9885624506816766  0.3336545436740823
  0.3377060833087668  0.0762812468590020  0.3008086105758758
  0.0381763178474747  0.5724258641799725  0.0700635759406329
  0.3215481644957933  0.2766660655667287  0.2004801743859546
  0.3906137989027835  0.0481607471118804  0.3219904562061602
  0.3873349195525896  0.0028026403613858  0.2807979064432945
  0.2798353384114123  0.3699283776867583  0.1576423858834788
  0.0337842105526769  0.5881487922171889  0.2332895714811376
  0.9322972132381240  0.3407434390103003  0.9478059155635341
  0.6552914590074654  0.9962897061108671  0.2444944319778144
  0.7833691318492235  0.7052883581758501  0.4403823922860521
  0.8141687354165332  0.6432797605755268  0.4453577872629641
  0.3022207491896886  0.6832099708348210  0.6762501096637885
  0.8140240811981284  0.5930179024075312  0.3879890852561190
  0.8386078067908592  0.2373876003869747  0.5019375837016417
  0.0062393767490783  0.5221289834347098  0.8092575825556210
  0.9393823864108393  0.6958826251105931  0.2182189188789310
  0.0517042856739441  0.0553830227903062  0.7178742188005562
  0.9373003219689985  0.5712947241039682  0.0278665372324922
  0.0144679674137850  0.0047118900672386  0.8678055265804245
  0.8554247043819762  0.9643285681825192  0.4544678509113629
  0.9062776937330849  0.9504339739632635  0.4173741680028865
  0.9219567105176358  0.9367442489571648  0.5526586339377866
  0.0706650375028327  1.0009699671960115  0.4072250250846152
  0.1805925812002292  0.2304178004661162  0.8878471601625268
  0.8097426095249042  0.4178311028338551  0.1547851912146093
  0.8102393766954527  0.4494623554134059  0.2582229579051947
  0.1315758501806359  0.0769878734430968  0.4600095377843791
  0.9104988934053700  0.3582744192328132  0.2093915571734257
  0.1408754703822754  0.1452934294717355  0.7815524507485941
  0.1783553763958326  0.9668603217525384  0.5733971252463232
  0.8619430480464841  0.4197875191929716  0.2879175530186486
  0.2434099227745085  0.5558320768834627  0.1975850954272852
  0.9094126720911634  0.1652476244029635  0.7573310597984828
  0.2459812064880235  0.5716948644396597  0.1374157783654846
  0.7992205969440012  0.1682083387440030  0.7769558180927432
  0.8781483296343301  0.2681392475994035  0.7840665663688111
  0.8510408502934390  0.2060719166861364  0.8416292730588336
  0.9162423864695312  0.2255767026923927  0.9860965179075688
  0.1509401873786990  0.7114032474180568  0.2345634441302937
  0.1842390032023982  0.7325429816400049  0.7349014974641028
  0.2861802900789926  0.3763427075962951  0.9258138904786576
  0.1096210792195621  0.8624471996180169  0.5751274307276727
  0.2076561523256709  0.2925438071573067  0.8276317786657280
  0.2502957796173505  0.1781214417585224  0.8657892449226418
  0.8434186425586107  0.6858961618167394  0.0130842589368676
  0.4319116521802126  0.9098616880479016  0.3228105454257139
  0.2078111806909876  0.2568326314027313  0.7238191898258691
  0.2668363070111278  0.2502126808714807  0.7456375263200491
  0.4274001179536779  0.8810511355447853  0.2163128029316599
  0.1367664775859559  0.3097058997226796  0.7446095628293995
  0.4874679495522984  0.9393517040887471  0.3311467866049346
  0.0536707446106365  0.2207489369533476  0.6795682083655681
  0.8243344313613251  0.7562592381217659  0.9829246791229050
  0.1416190082176121  0.8486551992467548  0.6973600327054030
  0.9436210424773727  0.1707544042988223  0.1602533562722012
  0.7287612978349242  0.7089447179566364  0.3087212320460728
  0.3862983499880899  0.6533358898311771  0.8182169115742679
  0.7918405716981619  0.8107747136323482  0.4650652165804113
  0.1260945391622142  0.7536683196255031  0.5574140948677372
  0.0758662781250221  0.7037942861709534  0.6429586754562070
  0.8788240048101318  0.5727600082435880  0.1233146959817508
  0.3755699978552516  0.7005900785046040  0.8599098881871586
  0.8842959827392521  0.6332313264895596  0.1026907777023433
  0.0508877715527583  0.7736467090316693  0.1839286359198624
  0.8739075741682525  0.6284287710128380  0.4026847556608728
  0.3362208065341554  0.6496844350371050  0.8575331506903979
  0.6254640512550911  0.6606715334174285  0.0010300711266352
  0.1707509470001707  0.4396689002467443  0.5970528818955424
  0.2127617126833465  0.8287548875352139  0.7819705873213489
  0.9763322022231687  0.4801629992836337  0.0776172626055156
  0.3385372636598993  0.9676309245740213  0.8499993434211919
  0.3772503077232255  1.0007581361677902  0.9494421760247527
  0.4437427003667498  0.9588005464329767  0.0472115102022499
  0.8534239665060723  0.9206802702421273  0.4061503378825720
  0.3317050040298026  1.0032625355401206  0.9894975619558648
  0.7904417008836815  0.8306012373067149  0.1775770873289397
  0.7317747012074205  0.8263271871147535  0.5064577696920527
  0.8349908394730529  0.7100665203283658  0.3453243165938037
  0.4940407444683980  0.9203005597829512  0.0743577685677068
  0.3431753403809242  0.8431798192299310 -0.0108424087553832
  0.5992878466638963  0.9807770806560091  0.4120410763156199
  0.4711875301377044  0.7878622247321245  0.9265025507787011
  0.5750133200342946  0.1710061008380935  0.1489429190895535
  0.8533872917863239  0.2649035793030443  0.4395085789593542
  0.8258307191537214  0.3005256083934483  0.5424572085756753
  0.9792210334313772  0.3602030877151480  0.5208640500008741
  0.2020482286270605  0.6659088762974883  0.0948841139487651
  0.9445596317088267  0.3469401677283967  0.6225026332031142
  0.0481547341607654  0.7253823901728889  0.1355998899889989
  0.5151281426030553  0.7072089203332119  0.0078051842295181
  0.3234256842524012  0.6609372554203318  0.7987382657313814
  0.9209509787772312  0.5258710982766134  0.5016378171790932
  0.0854417053762330  0.6899995805234873  0.7072619194241939
  0.8350905996241186  0.7115986579592418  0.1146911042979206
  0.2487067043167651  0.5773326813322014  0.6982639209104384
  0.9752896336312233  0.4876253687853613  0.4734626110245451
  0.2970685946073682  0.5822430951576804  0.6590735260364324
  0.1905692675405853  0.5492151348050147  0.5779440333737598
  0.7134607526575852  0.8758974833818356  0.5398709883585485
  0.1413601882199899  0.5139521608147020  0.5169901191385470
  0.3208386669624040  0.8613976212531962  0.8665934549575731
  0.4930014139107075  0.8687509646331588  1.0292398484956105
  0.8404379760771080  0.7322742114149917  0.4504212783539516
  0.1010039762209636  0.6561497738735437  0.5741337796833225
  0.0882573525204965  0.6684762377656398  0.5097676202597164
  0.4300739557276385  0.9161020096126890  0.0928106123353626
  0.2687425203750157  0.5537981146455375  0.8212676889817553
  0.4330432620981257  0.8915077126801504  0.0429198230144521
  0.3564925915935932  0.6091409723814264  0.7864607895590641
  0.2880808013902904  0.9278863917400302  0.7854402390364469
  0.3404692802759670  0.5008862752755294  0.8013914959301771
  0.4678828334808271  0.8395270139617663  0.0694627270981003
  0.5191426772347818  0.7540652724715134  0.0564971279510354
  0.9439088200881646  0.6287343941775325  0.5497859039627749
  0.2818226815019951  0.4001874693129011  0.2608978130937187
  0.9731192159847626  0.5571372396720089  0.6265423755590748
  0.0504056814463592  0.4360162835426905  0.9471900994413355
  0.8477052931310427  0.2806735236459879  0.3836262059373374
  0.7732756471066199  0.3908620968692569  0.7281774073915180
  0.7923133048972675  0.1875571773664040  0.3903360359571325
  0.7554392533183939  0.2829774895915071  0.7426026524973863
  0.6633706765435921  0.3616139894280853  0.6453213963941086
  0.6533626609812482  0.3771456760927201  0.5836276179191036
  0.6732384571674672  0.3193450828827200  0.5985141022529343
  0.0988624295798533  0.6664972008392248  0.0604022366683936
  0.9132586783339891  0.0121683221707323  0.3989114112506403
  0.9718046867660857  0.6113529466816000  0.9103785212493607
  0.3205329033339926  0.8625733834954870  0.4807337868702439
  0.8550238050024380  0.4713779383887032  0.8187764051890284
  0.3680379381672047  0.7798639993134200  0.4525197320684755
  0.3076394590048296  0.7050251171997183  0.3979207268875352
  0.8068226947280078  0.3211736198534911  0.8067463255773903
  0.6680050543961852  0.1944052513723434  0.6706370237932001
  0.2582467051271709  0.7378957070854912  0.3736288471694399
  0.7489695101023343  0.1298911776548223  0.7103262854434201
  0.6786273604311734  0.1506976950073166  0.6236411856080722
  0.2079031358282716  0.7705163486694534  0.3489871683037081
  0.3303573068570280  0.3701473399625784  0.2866759324285911
  0.5373757665509942  0.3257209500369166  0.3173883739828077
  0.6936251568663128  0.3501073945396357  0.4275211573412722
  0.9262093945260272  0.5706047945649190  0.8429972773866262
  0.2695787351620977  0.8928706801106783  0.4510768362813231
  0.9346634524868948  0.6760632979272019  0.5975784972488440
  0.2223144792746487  0.9258048515173539  0.4282532136282087
  0.1644010180459333  0.8921995945647142  0.4171209186948032
  0.8094256412753605  0.7015864526348815  0.4922823734410006
  0.7743698019963816  0.5096653957700615  0.6761091236381643
  0.8837318422650792  0.5349156046082727  0.7635598359826578
  0.9612211641513430  0.7731731118557277  0.5495984895346356
  0.8217699945774023  0.5426390551621850  0.7408388877236142
  0.8398961058342479  0.1942621528094280  0.4606331652502044
  0.7220793864916188  0.3542011197848103  0.6649701355162756
  0.6956765650102057  0.2890196834153519  0.7218525634075100
  0.6361073215343611  0.2966877986401498  0.7008522586875336
  0.8733892263500229  0.1397645644054656  0.4675846754323160
  0.5845157509394633  0.2594073953110571  0.6352771671632470
  0.8078902794948178  0.0460152435910280  0.4666176252314117
  0.5950390722449055  0.2191999598515004  0.5953201628317532
  0.5757556152190549  0.2393281127897683  0.5267353965204972
  0.5583851826162057  0.4850309695965323  0.6009373893325143
  0.8791679720224977  0.5561462076281712  0.9472049672168956
  0.6588304883905620  0.5027566704181093  0.5230997479318986
  0.8539241932653506  0.5098935478642663  0.9179832449164518
  0.0731578741072185  0.7987676739371606  0.6402676718054952
  0.0599942408547698  0.9056360584996936  0.5516050767765146
  0.9201057593197657  0.3521248973363502  0.8895968077608708
  0.7186262785093351  0.6020439227275389  0.2837353854375935
  0.7024927989668318 -0.0071717517945626  0.8902549644386563
  0.4014485833995172  0.5973931105322561  0.4111715087780476
  0.3389125868812795  0.4774814062778555  0.3103192649526405
  0.6953783823940100  0.0360254559006207  0.9326483226453693
  0.6616762946007053  0.1066938096522548  0.8540881865470871
  0.6623705341541555  0.0732365497021591  0.7474072677150633
  0.4955159322982532  0.4362611816890086  0.4333166859010663
  0.6238415529026622  0.0234033257223514  0.7448017320285960
  0.8390582621446531  0.2508316201518707  0.8849797109964086
  0.1141777199818003  0.0847827204728533  0.8414330689172057
  0.1086372975938504  0.9828877899013230  0.8266471634610870
  0.7516777580223893  0.1949981184398325  0.9217980788337553
  0.6902323610463331  0.1686837469764260  0.7950720729559880
  0.7610365884613227  0.1181226619678821  0.7733349553711228
  0.6308138944944355  0.1758717008353605  0.7743071334871053
  0.7217487228980453  0.0674581325527893  0.7683091630038882
  0.6820344205325852  0.1571745716803989  0.2474130666313618
  0.5243613106386219 -0.0013052457067999  0.6215221891582423
  0.4514393295626220  0.0285083621789392  0.5276114133141995
  0.5381658753215609 -0.0522824991728292  0.5776403419626877
  0.0063255083646283  0.0384737355665156  0.5567085876984855
  1.0045547670473369  0.8186235173591202  0.5554330767101346
  0.2129792822759464  0.8591864629395073  0.4401849813804654
  0.7023102217218457  0.2061254120120589  0.5663777491983378
  0.0197901537263890  0.1624269853750218  0.7354617219637606
  0.5356891323677960 -0.0144692831900739  0.6873532356261854
  0.9774668632024996  0.7435117202458648  0.6785211813352670
  1.0191218939103086  0.4215450748326433  0.9954929494674454
  0.3022726708529072  0.6624608138568372  0.3546478482202532
  0.7656872949594636  0.9257541103728851  0.0055831860633067
  0.5888258811197556  0.3106503459918391  0.2833709096772125
  0.7279816074584845  0.2197088372156442  0.7989540092496322
  0.6552728477503490  0.9189839283771374  0.0174985833798994
  0.8185054973709487  0.3094676860945303  0.8668287300679238
  0.3506282675851526  0.6015664904461202  0.2758643936047032
  0.9080050976682428  0.3627268393871891  0.8287605249179475
  0.4506208914723117  0.5400462882718478  0.3276942513686150
  0.7450913394824306  0.3267466479748464  0.7883371267474174
  0.3489547753648201  0.5854580902732259  0.3375169289128584
  0.8565481586920093  0.3257822006135834  0.7641695468181059
  0.8267461611084851  0.2314391150044026  0.7191750552171180
  0.4438663730685096  0.4467515293492073  0.2404429830598207
  0.6915045280676465  0.2602726982779290  0.6141389491177299
  0.7554565539399920  0.2533521533958348  0.6361035085847487
  0.7156614379762040  0.1984905654529546  0.6315889315395474
  0.6610787924434959  0.1638425692335983  0.5624034024530763
  0.3254302418660744  0.3117909263275956  0.9831004313464947
  0.7726192742068487  0.0355392475853419  0.3169507650507128
  0.8384693906231045  0.6499325708424590  0.7363430842945201
  0.5928994640831301  0.3899981433035365  0.4303507407462486
  0.6402492951598675  0.2677568490958236  0.3738914437927318
  0.9332310201558144  0.6905983383969956  0.7636613158895660
  0.6880621807594367  0.1893672641721365  0.3552510748567534
  0.7922818156664894  0.6189157518806891  0.6687405882632923
  0.9028395182231027  0.6118185583078639  0.6529163982146980
  0.8699107300583223  0.0442702717444691  0.3706261213359079
  0.8351790113770097  0.1075641199833243  0.3694294947297734
  0.0658135779362093  0.7777780252546126  0.0241162752055727
  0.0700237129089926  0.1996017661035102  0.8022091983969603
  0.9368400734354458  0.2273264423292503  0.7001826387607422
  0.8710397723519258  0.1160597320022591  0.7547337082829904
  0.8614419942571059  0.1291560633006280  0.6926582519930095
  0.8314781230362567  0.0383837491527561  0.6445152045076429
  0.2456905941593867  0.4823472879962953 -0.0042066310055768
  0.6998973101087108  0.0008542960232316  0.5579105199699893
  0.1820274758976362  0.4340585609743032  0.1057634569986942
  0.2827023144533099  0.3559408074932596  0.9937256656873192
  0.9983838510771711  0.2191572402617832  0.7145877165745769
  0.6771654722989014  0.1446228296712417  0.4703984399070896
  0.7631490412240631  0.0770456476489718  0.4462630919341706
  0.6016981822908309  0.4530783834535315  0.4067102917483036
  0.8506111944859120  0.1415739177914612  0.6326684688559777
  0.8665917757973955  0.1852857113797069  0.5213789794129012
  0.8548065836264479  0.0749498169300089 -0.0139202016695231
  0.1881636132951570  0.4951204775917404  0.0866377285630152
  0.1426338528121929  0.5726597421399305  0.1051677923956596
  0.4731843454787457  0.2511192789035795  0.0367095784206194
  0.9422692536118257  0.4611680418781703  0.5804609554668901
  0.8383446801920605  0.2183855252364162  0.7804626592983924
  0.3629606727176229  0.1731474270923472  0.0740733964530190
  0.8986641935519746  0.1777024291266412  0.6972148825794149
  0.5189319904894587  0.1584349665664991  0.0781189701320707
  0.8142806765578550 -0.0121681718846182  0.6706305520404989
  0.4292875681348227  0.2924824733710643  0.1762468146622985
  0.9736705944858995  0.6714821326801743  0.4711421261844401
  0.5308370823568109  0.2629873879130279  0.1073791582324366
  0.8216096251625857  0.9764130521167168  0.9370362688549558
  0.7119435584526126  0.1439081413940224  0.9186023241330403
  0.7827964546117967  0.0932277204867424  0.8972778915250131
  0.9901614083982849  0.2973784559629495  0.8645069260824153
  0.3727518843706568  0.2780205471242667  0.1069789287868726
  0.8852098809585111  0.3875392639202480  0.7057119313907035
  0.9273643597710138  0.4729745310143282  0.5198851725436030
  0.2847692485596349  0.4002130413046638  0.0350681741397347
  0.8791507722968053 -0.0384429056687584  0.9674833363962548
  0.9885359239458341  0.1675860660022729  0.9477673877927577
  0.8120898536363416  0.5589331875448218  0.6829796543325956
  0.9296712297709762  0.1413297438442731  0.8817148238910761
  0.9640181085554808  0.5057960167401792  0.9049832485577921
  0.4852486552566612  0.3093257666086875  0.2440959093813773
  0.7285184360059788  0.1872554074911380  0.6925788055398965
  0.2128053106323657  0.8312552258237634  0.3336618760523413
  0.4074239324951044  0.6603330100812527  0.3885849768813349
  0.6091555884824342  0.2104660145799173  0.4945742006647482
  0.5739924303580692  0.0019292031268341  0.5720808585565309
  0.7448617145007317  0.2684150858481866  0.4100057058898378
  0.7291544163248856  0.1526649455371486  0.5844941086478712
  0.4885337956472036  0.3790901076720785  0.4534181295232638
  0.7842821401376907  0.4944965747413436  0.7351248560296860
  0.7845977403006404  0.4640226888406572  0.6346982233498978
  0.6918920816413177  0.4279511615151569  0.5889527773963837
  0.8130817784749164  0.3520924590760007  0.5239283701051097
  0.7687331290929744  0.4873094035938986  0.5139392934337933
  0.6039082004439108  0.3437189598213296  0.5151423752087291
  0.9725859622876121  0.7640431601146417  0.9321251711966871
  0.9324732055560048  0.7101629645224425  0.9299185231366414
  0.4669215006216585  0.6729216321104133  0.4578863912649997
  0.5067276370219037  0.6009695179339558  0.4390762264252914
  0.5037997329058104  0.5565695836070775  0.3978235649344136
  0.5599186747612608  0.5225286285033893  0.4849367078125319
  0.9168787961871159  0.4639971898173587  0.8427321794540782
  0.9917908527025804  0.0964288294183026  0.9555234541807472
  0.3649600282480334  0.2546481173198410 -0.0021894243641883
 -0.0047234850148996  0.7568668560328525  0.1082503430085058
  0.9394087484730658  0.0975833014480195  0.8411184835452256
  0.8914271906751995  0.0577382291117548  0.7733473031400147
  0.3081727794250426  0.1421579737998248  0.0659124796158305
  0.4092324119808211  0.1112428956322885 -0.0066531241860682
  0.4531972732895764  0.0795447565005216  0.0164498738429593
  0.0656710387618707  0.8372554655600351  0.0850530608860751
  0.7671267674538418  0.2040604353425935  0.5895013223200291
  0.5088533546961285  0.0344886582634240  0.1025488122986956
  0.9254128631064340  0.4201658715797850  0.8014531947731282
  0.5644525799883913  0.0831304937910978  0.0186652967455913
  0.5671305560004660  0.0658245487816829  0.1115629774571451
  0.7438379917263905  0.0956316178971970  0.5448378200041490
  0.9969290842478676  0.4004553885489939  0.8834647267092982
  0.9857761171663357  0.4117143294041935  0.8229849054537076
  0.9466293211811969  0.3797434449516213  0.7260924498342047
  0.9792705441716576  0.3091340027666564  0.8060806846397806
  0.9067696688018654  0.3304776935876063  0.7244965124407429
  0.5626769974731248  0.0259154215270210  0.0605984749144938
  0.9146767736201495  0.2854866314941754  0.6823722849254131
  0.8457444336829487  0.3379869668128875  0.7045160003742665
  0.8444642550710322  0.3048249295134129  0.6006048515247129
  0.7567490903136743  0.1815027215350730  0.5354593031056835
  0.0639395565287110  0.5128360570812988  0.8210868399606883
  0.7989210526397161  0.1369000143628506  0.6722850494724462
  0.8962771300254350  0.8174944398588271  0.2795854432576853
  0.8767030939769459  0.0104992810845906  0.0106115655434559
  0.0033379984663174  0.8202643159984944  0.0891821716067928
  0.3783268236951998  0.5521720572098804  0.8033599337676954
  0.3013745512792158  0.4849814263389743  0.9012185653448197
  0.2339311529195747  0.8387317252995987  1.0152936352772097
  0.4512114508657448  0.5311534846031284  0.8834055183281819
  0.8894282843056681  0.1033963564855996  0.0392420411656394
  0.8119718651739273  0.0280799048336331  0.9832553282029498
  0.3040591579738469  0.4553536144237703  0.4737045183565000
  0.8774499627634207  0.0493043255536761  0.0626918914940186
  0.8973083700018057  0.2171001905684020  0.0706852893775920
  0.4155524925098584  0.7416458478797052  0.0828147911649630
  0.1027376654682378  0.8642544471678243  0.9055631519070750
  0.4178136944579787  0.7896398893960346  0.1254769278700069
  0.9109746417245251  0.9004469016305751  0.1258760453412604
  0.8474428378403241  0.2986864238487456  0.0856675081768953
  0.4266190570498961  0.4722503953955815  0.9429808455139819
  0.9977102010797663  0.7100142689354342  0.0640303143886921
  0.9385339513209353  0.6646092532795164  0.1137424999450196
  0.0759548041964474  0.8458652382158595  1.0184062227171842
  0.1034219387052410  0.8310237073944204  0.7990815386258040
  0.8378310963470147  0.7809495208374275  0.0908375496273161
  0.3501955178912841  0.0315317494346875  0.1654268108152544
  0.1899362979751658  0.9192493367188677  0.8678231870820415
  0.9256735282088917  0.8614675114233952  0.0255210179889751
  0.0823771334831422  0.1162151513970364  0.6587303242552600
  0.8532777158927085  0.9072369453839395  0.2330632324653594
  0.1538707927018619  0.7293856503309037  1.0042965727154642
  0.0501619778153496  0.7408859231728893  0.0756875118416133
  0.1648860745193803  0.3368464588712272  0.5834037972640497
  0.4772160872648669  0.5350799273804318  0.6222569435405317
  0.5207582636720421  0.7404168348467404  0.1160302108163846
  0.8182765413236700  0.9689169951289993  0.0073974904752493
  0.8075536199245411  0.0695896675468919  0.0257803104881074
  0.9838456343223432  0.0195090694395233  0.9894108832346511
  0.8202464562126609  0.4940665388350749  0.0754326508363269
  0.4255695994226200  0.5863624772635466  0.8802480719190118
  0.1924938575193511  0.9752032275762210  0.0219706395059824
  0.8679357303747703  0.9737068495717633  0.1401050845941124
  0.3150969370623726  0.4030135803473144  0.7609578055556956
  0.2403231708624171  0.9588483790811588  0.9318223890257528
  0.2732260199863103  0.9168055758772151  0.1626204715932050
  0.8866019655827909  0.7401618978185167  0.1267690081726836
  0.2618908323005826  0.9037012771299747  0.9501048062413183
  0.9403098548574073  0.1260237766567724  0.1149281025791914
  0.3575010908569760  0.5410475062349285  0.5787700383858561
  0.8920115814609224  0.1570398148765161  0.0908634867936990
  0.1550668571059813  0.4010081459753674  0.8221301542616505
 -0.0068762133437125  0.0368524040530450  0.9218538078688066
  0.4140909429836466  0.6386591319785552  0.9964263018159374
  0.2151581325113686  0.3758822029328929  0.6447216609136041
  0.8049488665644857  0.5081178561221500  0.9531058626876415
  0.8696739328237842  0.4641422583399218  0.1003864058871894
  0.1974009828873918  0.3032916847140625  0.7662404730767599
  0.7835059118092764  0.6945642720762107  0.0487009080076629
  0.9629138692885724  0.3600140392276917  0.1104528425986792
  0.3676897297151794  0.0624230044666808  0.5938987933134017
  0.0099081459337442  0.1754944594743485  0.6727614083427446
  0.9005190732379775  0.3258939719739432  0.0995983657670320
  0.8959898786423336  0.2865430170690830  0.0350228982430032
  0.6793200344504078  0.7838069931873810  0.0986985481042226
  0.6741503031716138  0.7944132011539573  0.0385645316299653
  0.9973128111156992  0.1746888453277868  0.0631537316118274
  0.0886019182372148  0.3404355612616725  0.8877310261152902
  0.6479007394311822  0.8070601458682108 -0.0223151897415975
  0.5027287017563727  0.9698829358445290  0.1190019812421532
  0.1150886827443475  0.5416726250998433  0.9387196801542340
  0.1577721673827578  0.4368620188392576  0.9277454473527580
  0.0975381597618132  0.4420780175528246  0.9057211083385435
  0.8240299802106161  0.5405115334432211  0.1154084037120815
  0.1241940932277596  0.0709848291234408  0.9105327123179039
  0.9240332894840113  0.9910618629156036  0.2148916421261125
  0.3871284086158800  0.6360821886012497  0.6212423144005457
  0.2079141513668644  0.3247643154240092  0.9299621368079025
  0.6702396778950028  0.5656465456684520  0.0471082625931212
  0.9718555602817615  0.5001047830532748  0.9598818163843381
  0.9335051628268772  0.0375297431706104  0.0213903188457813
  0.0530573637727859  0.3102843560120296  0.4980809411974772
  0.5362091772777627  0.7025299155520479  0.7955129183414453
  0.8300465157068176  0.8490154939160591  0.0693647670383539
  0.4979394933365052  0.6525465375756228  0.7943621107238585
  0.9681629599024133  0.9259021857913380  0.1360894799235161
  0.0744415121737889  0.7703164547997365  0.8563274744465671
  0.0540102809098757  0.8261685994609028  0.8384914643267900
  0.4121368366581424  0.7162921140384769  0.7595468263241577
  0.1155627085595300  0.2948387461716401  0.5197777839082363
  0.2360806806733114  0.3190420304450206  0.6642004463834372