Cr N  Ni
 1.0000000000000000
    38.8588641550299201    0.0000000000000000    0.0000000000000000
     0.0000000000000000   38.8588641550299201    0.0000000000000000
     0.0000000000000000    0.0000000000000000   38.8588641550299201
 Cr  N   Ni 
 1596 106 3725
Direct
  0.9766573421726373  0.7852456854174930  0.9816917429543033
  0.9194649967560160  0.4994545424293378  0.3355135302477933
  0.6027918894256716  0.8514602258352499  0.8440532756243631
  0.9144500028968058  0.4383551298465064  0.3555545562498114
  0.4230452565220336  0.1250176726956475  0.4087905971337746
  0.5085409065872912  0.4811422994580394  0.6352183995673304
  0.5912195887470137  0.8636893827194779  0.7836574506176759
  0.6829098563105257  0.0186674599246451  0.7656086074082449
  0.9187245464317068  0.2212118423289052  0.9825423128956204
  0.9232264371618264  0.1798003409645066  0.9311943368721531
  0.5687310438617866  0.2143991037261632  0.8600784031145878
  0.6132204750877708  0.0459062331989567  0.0828587592048452
  0.8188771680537589  0.1437390005725351  0.9022931766117122
  0.2681481719954597  0.7026072208716458  0.8796244182763067
  0.4283029229279224  0.7068427944780238  0.8185966094345277
  0.8395290027151349  0.8027669848499870  0.2066761141530742
  0.7426586855088411  0.0118863930041474  0.7892132708866361
  0.1045355377005858  0.8501253518009425  0.2346983560347477
  0.6128708657183322  0.0377956631317967  0.6820511569551744
  0.7229637002267885  0.0316296762072839  0.6621932866002077
  0.7071654011766813 -0.0637943190712090  0.5866366330113657
  0.5308418686741418  0.1653340748967480  0.8575967751268947
  0.9030188525437631  0.2442704449471521  0.9259697512009687
  0.8490215791925861  0.2063115766161687  0.8471931014861778
  0.4759485785999997  0.0105755339299991  0.8673322096087319
  0.8539820021331984  0.9425291588921106  0.5182268147935917
  0.9011261221025516  0.9876322624489788  0.5288382394620590
  0.8054108876133560  0.9668464290662656  0.5485620322328942
  0.3686971263803903  0.7973226638514349  0.3902904820263097
  0.5568429192162191  0.5721574843136917  0.4747521665219701
  0.3649548368534608  0.7520506735902799  0.3448526168089696
  0.5069017205228604  0.1920312908887682  0.7342981368976419
  0.3647848837114387  0.7664357588678351  0.2848189186103107
  0.3145987634158558  0.8001319394161744  0.2614683310625108
  0.5612569159085768  0.3214408220692306  0.6200126310626018
  0.5040994966944263  0.3284591069501279  0.5993016554292129
  0.2661845182666997  0.8601700866859805  0.3463175222163584
  0.6107890555914848  0.3555294941883636  0.6873016555929773
  0.5512395492330848  0.3634802171707116  0.6644918171489614
  0.2136122053795986  0.8909074854851206  0.3218194237029323
  0.2188094618547920  0.9569711100944853  0.3025319436970155
  0.6697721042982638  0.3784014024968601  0.8167321578922015
  0.6581395769755585  0.4220521948497911  0.8609993586685949
  0.8296311900271056  0.0464814061556058  0.1596206650075944
  0.7055973065529332  0.4616779542746293  0.9260257402421217
  0.6470175151810196  0.3853242730389857  0.3340176732865925
  0.0982864879080124  0.7412160382049995  0.2036293976536577
  0.2006323180798330  0.6937209217143533  0.1939522488805565
  0.8427864303994332  0.8753583043041320  0.5279740499611507
  0.0692100305754145  0.0456710645162734  0.4545046357840459
  0.9156784112778728  0.4388140511366636  0.7306923085276078
  0.1093969760308422  0.8772620178932984  0.3443781557146578
  0.8722021654319859  0.4063903356365401  0.6522164576493883
  0.8127490015070616  0.4130657794549146  0.6354280196399394
  0.8639206875243838  0.4197444963877540  0.5910952698276319
  0.7646551437762710  0.3750116493023735  0.5644158653796876
  0.2057837638650981  0.7844194250369644  0.2833905382390107
  0.1995467682771407  0.6776121760866189  0.2545356572616836
  0.9252684853703814  0.5613898850064141  0.6682881114333532
  0.3031678265435295  0.6479881363181523  0.1840812512021138
  0.8512483118946559  0.4295338038669461  0.5283888941837712
  0.9620249944142842  0.6079384733956097  0.6791207474496079
  0.5712317831723535  0.9534286712101322  0.8731543828027916
  0.9475433969271667  0.2137009303226225  0.2080994428202332
  0.6095424630930234  1.0021071033963633  0.0331957794243327
  0.9527823061871268  0.2759821392375315  0.1923001449638154
  0.1133741786162580  1.0062162415754519  0.5429608306926214
  0.7155007739072508  0.7884449583084772  0.0024827276310241
  0.1027448916784736  0.0952405127772270  0.7846941605261054
  0.8525046164846807  0.3242069431286614  0.1981109333797766
  0.5472224913463103  0.9772506929779619  0.7457830718546896
  0.9572654328086192  0.4877055602759011  0.7421171183360732
  0.8769092919603654  0.2702490999606831  0.7912088153604142
  0.7998766430318236  0.1705024648990595  0.7805525216354224
  0.7258788038777755  0.0317801939986993  0.1907684168790242
  0.2426933183904982  0.5720477138971377  0.1063206163822946
  0.8480544991876496  0.1727523020869754  0.7425156894104199
  0.2443825927072527  0.5518733706091835  0.1908736303605387
  0.8000295341722956  0.1392170722159529  0.6716413955275071
  0.3441648106929204  0.4561223030106856  0.1437002384962131
  0.7528695021695396  0.0979208951259116  0.6042468228270719
  0.3428216742302944  0.4104401601590484  0.1010517330118729
  0.6620015384229743  0.1086648977519037  0.5242092579131233
  0.3898043541658439  0.3759107289521652  0.1251434446141790
  0.6453231521579469  0.0151954991457281  0.5349871842381346
  0.9759389478062971  0.3460342719415136  0.9122831258725824
  0.3351842748994661  0.3489707792975350  0.1225852325611758
  0.9867666081385733  0.2999752138861188  0.8699307035339237
  0.7815113469525083  0.0612267469174520  0.7930671755109618
  0.7513290048318810  0.0001665688720267  0.8519459973148812
  0.3562398893820691  0.3078190123494723  0.0281224327273198
  0.8110936343163294 -0.0094152798948031  0.8736490425557777
  0.7825825060486888  0.3478705920964278  0.6907449548408462
  0.6303900877589474  0.1828383324122572  0.2246988166222129
  0.5772115071152593  0.1389225033723414  0.2800149957985641
  0.7398927349716831  0.2749815777865126  0.5725521946486087
  1.0005848554384247  0.5569969543191861  0.9291537573594874
  0.5361563871701693  0.9314367426099137  0.4674145045613194
  0.9536008317747051  0.3231928863664333  0.4709674796586913
  0.5824335869930585  0.5673945599909139  0.5408058221607384
  0.9954031497026617  0.9496213561943880  0.7417402527743825
  0.8878205415978507  0.9588011000749388  0.7553653713472673
  0.4719779579588023  0.7349880932109062  0.4419372608579259
  0.6939030184546762  0.7714132815943407  0.5587021006193327
  0.7972698175483702  0.8056463791564680  0.5823148632040507
  0.4742790896286899  0.7963595128881114  0.4253934572844547
  0.7842699440418415  0.8511472792044070  0.6252526924757943
  0.3849290853838930  0.8827356989940496  0.4886326471518790
  0.8381423667481309  0.8854391764630516  0.6921161102751308
  0.3208272558257469  0.9212566940996676  0.4621206197388350
  0.8589144216575745  0.8957130923353399  0.8132789521378107
  0.3271071720282686  0.9824444028077607  0.4532008124842087
  0.9404151206116708  0.9825094831499005  0.9140640235923705
  0.9312339742116231  0.0137943162614048  0.3223762621364957
  0.9225164516685439  0.9841257568541002  0.9815034288155347
  0.9547732454149691  0.2894064495638047  0.1304415910283566
  0.3897419970821812  0.9081110705933270  0.5968406477848182
  0.3682228141244339  0.9961489524238772  0.6862774517889477
  0.7947510030265712  0.8668037946979735  0.4607147636830665
  0.4275586058277566  0.9916383705463686  0.7050979475699289
  0.5322243550491117  0.9376715779392381  0.2351495652999242
  0.7298510395710606  0.0766624932957536  0.2334496287754026
  0.7906448333496989  0.8257224253908588  0.4123512019677916
  0.9716993618865274  0.9729663986799766  0.6178397788376746
  0.4799783365346401  0.0663272730035151  0.5743146675589835
  0.0726347133414208  0.8944082384989447  0.0591152529597127
  0.0264687845244354  0.9488183820443719  0.1416577459612950
  0.4676908629817779  0.1099670317361634  0.6212901479172194
  0.4793187130174016  0.0975383378615303  0.6848005773396139
  0.5417617168022508  0.0908016042291735  0.7056852825493561
  0.5794410388958522  0.1405184267054068  0.7101173095111544
  0.6117816648295541  0.0623233896112898  0.0183911351876325
  0.7048062649760138  0.0236202942949625  0.0012258640131280
  0.5800864785780097  0.1709718173867531  0.8167214674395055
  0.5750833190271702  0.2040490217767500  0.0254311526202904
  0.7269516790905992  0.2532812560049068  0.9048843578024525
  0.6767776864274915  0.2446557167708412  0.9448468579083222
  0.4819290952461504  0.2323377271783190  0.5536581934770031
  0.5948614322835239  0.2478529338762951  0.6983079735320656
  0.5735227916106977  0.0519229089015251  0.8960454958664846
  0.5452413176873876  0.2105216325562612  0.6333315897961510
  0.5003765666048683  0.0029574458469782  0.9944068747156122
  1.0129920066300167  0.9972469441444425  0.5120989697408401
  0.9545668193541912  0.9614915365860038  0.4996962546203697
  0.9443610864391218  0.8785561000782364  0.5732895347457844
  0.9771323667541346  0.9282405638934764  0.5742015697896411
  0.9148102201051923  0.9821642299912853  0.5958190718857910
  0.1083131717168698  0.4955560802164438  0.6059310199679366
  0.8462452274001241  0.7707231901373796  0.4995136091299791
  0.8934939512287500  0.8576446337766177  0.5514604437636952
  0.2705502031066486  0.1182274603267517  0.8916836035787753
  0.2111394370580217  0.1265033730928826  0.8689725527809168
  0.9020605123289200  0.3166005637814084  0.3923709797688917
  0.1516090483952810  0.0987669748401984  0.7437973712890580
  0.2120313154762242  0.0927814445932118  0.7634003952899668
  0.1601241265358161  0.0530545654382473  0.6999325431464898
  0.9995751388663914  0.1966053070828953  0.4053732714079565
  0.1824137505822974  0.0103041897198423  0.6205720712883315
  0.3704753938489547  0.3164851973116781  0.9580541268360684
  0.9978274871765382  0.1513547430535072  0.3586849755644111
  0.5281352811323275  0.8106351311207667  0.4944020740893693
  0.5308720795766486  0.8765613994396980  0.4800732414087588
  0.2989828871734968  0.1817586967319289  0.8313026780283620
  0.2389876983130121  0.1885961206560069  0.8101066715636478
  0.5800053990605045  0.8138585123218681  0.3975430615266417
  0.6681734024050950  0.9628042707589961  0.7898033620916282
  0.6744779091687602  0.7993557054943102  0.8210685080287992
  0.6798216484165226  0.9189666268209059  0.7457435110563498
  0.3988201528886843  0.4772728128395167  0.6537836829668767
  0.4805641573063091  0.5651235348058101  0.7240707946449279
  0.5877913028008057  0.9933830272559691  0.6416522688680439
  0.9099299774724601  0.4248834431614004  0.4852266176544999
  0.9591213029685828  0.3908544319379001  0.4519788308030833
  0.2578818852423619  0.1622756054772529  0.9326065001434137
  0.8975677778937626  0.8416993219913721  0.6092201090330776
  0.4777998650930859 -0.0030315559289241  0.6610275170668075
  0.9296761407807875  0.9205934299266864  0.6155171085834164
  0.7638164965890898  0.2920235590918918  0.9801299011058374
  0.5188096678314321  0.2347806533859138  0.0052852654905030
  0.4542103155476501  0.2496743820989490 -0.0182349415324590
  0.5294391882212286  0.0724017066897356  0.5351602240043154
  0.4829923339238598  0.2014085427040643  0.4536602303174049
  0.5178765171553565  0.1150442535361747  0.5821470145453977
  0.2961498875521853  0.5000450743375882  0.0555842944063487
  0.5674896439574459  0.1533300460117435  0.6504239196621704
  0.9227338056641201  0.9726823210110765  0.6562427490552324
  0.3509373905207192  0.5811880600676845  0.1029894055349356
  0.2516342829791874  0.5322731525563367  0.0343937939046452
  0.2079682352474049  0.8192056048763809  0.1635482496293349
  0.4453536985404045  0.1119869218496501  0.8946726171211200
  0.1402359832826008  0.1094304188396286  0.6812492696302256
  0.6335909807235854  0.8419673135959552  0.4088042629286736
  0.5638240397673649  0.7700731586717611  0.7362687655250499
  0.6476189602780678  0.7049883813670438  0.7739106579871460
  0.4713315322443272  0.4280468174589993  0.6291581051247905
  0.1847891069700711  0.0307276187118147  0.8264346430017466
  0.3546420389213787  0.2100999926693278  0.9553230840463356
  0.2614838422355615  0.8329449998567847  0.2348120374000088
  0.2588637443051752  0.7598124797847877  0.0832319689192762
  0.4440073093597903  0.5139661357736870  0.7178701839461785
  0.7732994160221057  0.8106180824942739  0.7409986569169282
  0.7489999531190207  0.9780509380970431  0.1141700901806953
  0.6126607846290483  0.5040019846467761  0.5628167543486937
  0.6776100133172982  0.4734026581725138  0.6409396432881027
  0.7384047660714085  0.4649152713381803  0.6624836223732432
  0.6251123033644180  0.1515628011068951  0.1180960980320372
  0.7556074811221590  0.5809449132149852  0.8337409175704866
  0.8128435427230972  0.5742124067537824  0.8593318400569137
  0.6859147147604385  0.2281426429843778  0.1730007212701865
  0.9225191937122615  0.7576184469524325  0.9718238328327711
  0.4935414032071571  0.4140216275652779  0.2703455643306338
  0.5965689185573204  0.3815027379338145  0.2022881808191596
  0.5342014409374021  0.3975372425110570  0.5368428076149052
  0.5514108241135638  0.4597809181228908  0.2167024672214020
  0.4528027125893467  0.5521929556012030  0.2662712165402886
  0.6498315254979343  0.4063609231490433  0.6920642180507269
  0.6877427389664050  0.4566112829250573  0.6989197531720717
  0.4548604329089250  0.5664001731852762  0.2030592814551722
  0.6370041108175457  0.4482496824949179  0.7373865681840120
  0.4089681877512647  0.6312500302948555  0.2799339187219891
  0.7231600719283581  0.5344201322613129  0.8119904146108849
  0.8314897477872433  0.8332707745453329  0.8741782715468105
  0.7666089062766710  0.7225006174529879  0.6975674006834029
  0.8912018079840415  0.7945234119878666  0.7856545084161649
  0.7609266480888041  0.5694183381218645  0.8997341549681500
  0.8295833346914016  0.5476252583865895  0.0515074378289615
  0.8046370898061730  0.6106485293285888  0.9653014628439114
  0.8730569258117350  0.7211626986706834  0.9033697529650903
  0.1539050361688803  0.7896665501628568  0.1541765579115062
  0.2075087384135250  0.8025104472737541  0.2243254570580867
  0.8782191669678762  0.6865033702088124  0.8026225779243032
  0.1563337655622996  0.8510871750674758  0.1408937836244384
  0.8593247460083838  0.7509563508653857  0.5596311701218301
  0.8009672041276816  0.7656031571133997  0.5391360432118282
  0.1632095842540876  0.8971656290698773  0.1868113663667339
  0.1289422411806047  0.9146270307369641  0.1434300286980319
  0.1337616498823455  0.9584471732619657  0.1821012599487427
  0.9083341616789011  0.8261138757919427  0.6716751863713449
  0.9180068499631187  0.8149022434721818  0.7357413579339452
  0.7154275467537922 -0.0021731186094200  0.0711931790120807
  0.6719546833588027  0.0924499766871129  0.0355531187905921
  0.9181969615177780  0.8899020063436018  0.8359185160298234
  0.7307944879399549  0.6110821248561163  0.5309320361359293
  0.7138820033659375  0.6684853528201846  0.5199776784235878
  0.5817706395979549  0.2450582571845235  0.0756316553244563
  0.4939934395906115  0.3820343378356260  0.1672879749848739
  0.3039924991481380  0.6760722597359304  0.2905480039737198
  0.8806808876143033  0.4405577198677569  0.9972872811215542
  0.1556116759169627  0.7664750695323251  0.0485162594986691
  0.5147033515974231  0.4929739325467594  0.7994294952668853
  0.6671889021702720  0.2267783255370270  0.7787624141193970
  0.9817080159270312  0.8818119439550312  0.8581972938304642
  0.6086528284322625  0.5365472076913229  0.5015269871764024
  0.3976555626016176  0.4865196748921111  0.1514068269363838
  0.6937526066498071  0.5841562012077328  0.6321502946150884
  0.3496719699458926  0.5648453272799566  0.1666182868682300
  0.3547781360953548  0.6152553335455270  0.2126379055772928
  0.8404847392168344  0.6539950001444241  0.7375865992987185
  0.3576853240008312  0.6777305431608303  0.1935457499484775
  0.2547348448602074  0.7242941087654474  0.2038192841269001
  0.5566638109403391  0.1983793894929803  0.6932216250564890
  0.7046887988594985  0.2783847354173958  0.7841485985856078
  0.4277037209100563  0.3889036724099880  0.5590471493768462
  0.5302250825005134  0.4217029434939058  0.6502673501878057
  0.8938847461611081  0.1841803183576426  0.1972146534547989
  0.2947573546802065  0.2795890575317967  0.5904021720810200
  0.3364148008104891  0.3303667664699764  0.5947687339739325
  0.3107605863132381  0.4210160887609726  0.6839141388253526
  0.3830061102607252  0.3688775533189653  0.6621342170518639
  0.7931989947571183  0.3104951056171540  0.3596066508158976
  0.4069375984449803  0.4639424431762496  0.7118185452630834
  0.2794226449211059  0.5782898523311328 -0.0144681246749551
  0.1937656289020721  0.6209791259267939  0.0385957759761023
  0.9567624016447592  0.8183055377869836  0.9119383572594603
  0.5127498195120321  0.5831538895607080  0.5125469453307042
  0.7043757135784912  0.4515734272479280  0.4450172505227415
  0.7111318175737428  0.7338629609458790  0.6781912660404292
  0.5351237648886386  0.0024165185662802  0.8911663726923498
  0.7965759836657484  0.7517480036175788  0.7609889413098715
  0.5251115832510598  0.0152152119699204  0.8270837492400888
  0.4011234512264540  0.5010217210579754  0.0932539246756383
  0.6609186453608241  0.1379825844441789  0.9618381365733396
  0.6523119858128195  0.1505876644695761  0.8990730804424055
  0.3975114385555095  0.4377533545543095  0.1076457916974262
  0.3986743284578569  0.3898219514430291  0.0606484728675573
  0.5001645435411401  0.3487773185432371  0.0624968655968832
  0.5635541517918010  0.0632959611043047  0.8311194826647789
  0.4538731715599929  0.3809377005244119  0.0268170141729548
  0.5519636038186524  0.0770792070719587  0.7674601124692974
  0.4515375768472971  0.3149573559495396  0.0419601145311829
  0.4916560801906525  0.2966751336306558 -0.0062590476007454
  0.4427487910708522  0.0479006440770279  0.6801827936926931
  0.4173050705609774  0.0032810707806020  0.6421593228578127
  0.3932029417462202  0.2425132723466160  0.5220035460096405
  0.5089841814420250  0.2885636030501931  0.5534150727782862
  0.7766385704892186  0.7124399634531602  0.9850833238204563
  0.7454718172085021  0.3763448510375559  0.4356504434331692
  0.1569094807444746  0.8103162969474546  0.0939504090689723
  0.1670607807042871  0.9428895450296026  0.2321090710375215
  0.1566599110642561  0.1850493328818906  0.5543647824925294
  0.9982866743005325  0.2096869307568366  0.3459104131961476
  0.9389212494917012  0.1061364675375093  0.1799351672264743
  0.6574687261013691  0.5074607072169721  0.2939385817178015
  0.7030430932293548  0.4319378491904746  0.2798807185722257
  0.7464200071206935  0.4771641076525600  0.8264544428488164
  0.9635630488816594  0.7739141166995174  0.8588896108428661
  0.1160423448499858  0.9569552852464323  0.2683867207162108
  0.2009384036471228  0.1048397912133809  0.7015472162885272
  0.1369335718217198  0.0790932548051100  0.5773500192168387
  0.7280581818341061  0.9562050561623132  0.8121093877371725
  0.5566101639272217  0.5034328011834426  0.0326915077100004
  0.4306851816572795  0.7586987395781497  0.5341313441093979
  0.5086490810640333  0.7627427169087146 -0.0024858870892718
  0.5393502890769040  0.7768726479762554  0.6168683830499366
  0.5796257582389760  0.8242491098750483  0.6202066667582921
  0.4043352235681080  0.7443119413049207  0.0234706789009914
  0.3621659901580663  0.7742616110858996  0.0558813017240135
  0.5494468356017986  0.8609560901744224  0.6580781988911005
  0.7626377131865502  0.5450457719011077  0.4376354803664941
  0.2173429012210659  0.2124036066508003  0.6871143979220142
  0.2328416509821855  0.0700682022700332  0.8883310096999175
  0.5753926955530726  0.6240948987707998  0.9405243399436951
  0.8572844113446804  0.3906823922514572  0.4103225864249806
  0.8538700844717608  0.3463731292646844  0.3687714163928129
  0.6120968628668698  0.6560275943504738  0.7703663148100868
  0.8011259990926952  0.3750340748047050  0.3380666513525084
  0.7578372852021419  0.4496281130038887  0.3513414442188827
  0.8126583939278843  0.4819562185982576  0.3596731329450567
  0.3995220661401424  0.3766305489737588  0.8921687088328764
  0.7655256313142267  0.5590092348466068  0.3772284728814780
  0.4469381701752785  0.4136851743406417  0.9565782165115861
  0.1722628865911588  0.0299926272855808  0.5534099745680605
  0.7972822551255959  0.2923274396212141  0.1898457110256728
  0.7927601349129400  0.2456870767750221  0.1452503385425489
  0.4227869471348745  0.8431304755831448  0.3389499925454130
  0.7037581968611799  0.3984298078679280  0.1749010942759366
  0.8148508031838017  0.8673109501129862  0.9937172137347786
  0.3766480965808888  0.5023210538183521  0.5350730741532310
  0.6550084496566453  0.4606431903296685  0.2513140342051156
  0.5316411300260077  0.5527843368668340  0.5792418917188684
  0.4091199664551962  0.5618730757498424  0.5335203342391790
  0.7070430390181096  0.4460203900046770  0.2176992764595824
  0.6056880774311042  0.4907037086046832  0.2232453412548300
  0.6081812101981335  0.5375254615637455  0.2663769194985510
  0.7159739118812577  0.5545552640354611  0.2403432299822533
  0.5749091339012761  0.6044691858472685  0.7612880333344453
  0.6233086214743452  0.6414238494793916  0.8365070145369844
  0.1657550139968291  0.1737809355876353  0.6216107753064269
  0.6585292432126100  0.6918222867098494  0.8343596693766517
  0.4098874039816489  0.6924410116774827  0.2646592491846222
  0.5801150919754374  0.5905528028200546  0.8349433607782897
  0.7546929486544557  0.4160587332144575  0.2466315215528425
  0.8369514514643908  0.4033420395050278  0.9289143280493368
  0.8439695959216867  0.6372491778465725  0.7991200777531459
  0.9174354224250962  0.8148323227243416  0.9532858146774802
  0.6069142426613617  0.5229061841793801  0.3275224950068080
  0.6005852622531880  0.5644167396238289  0.9677702507119498
  0.5386496255977665  0.5687053528207917  0.9436027128220346
  0.5627632488874202  0.6142454526533256  0.2827396880622376
  0.5750891007804942  0.6223773773570732  0.9982864510867575
  0.6675717225857197  0.6151924302575613  0.3160885794128618
  0.5722533185909143  0.7061587302040425  0.3699713301879330
  0.3444347562260456  0.3192429358229810  0.6565432388472874
  0.3416684908594594  0.3517283699932229  0.7634757166170705
  0.4276760480641486  0.8901595765597001  0.3869169489373938
  0.4309799183361291  0.9507799650937845  0.3715457912624721
  0.4268423304093751  0.4376955239365094  0.8355593139848533
  0.4376073033352291  0.4257481739158440  0.8956877588882853
  0.9893427086685165  0.0606970388505965  0.2690187668789620
  0.5486550192486644  0.4558757316010508  0.9850923535389846
  0.9456205526582092  0.1834350051987270  0.3306878862110200
  0.4458508957628792  0.4087030455790248  0.1375036715719108
  0.5981922723882832  0.6989492989011892  0.8157943020140087
  0.6065224870447615  0.6849686335684821  0.8774035175220922
  0.4766182176587224  0.8108609433995697  0.5353369440265469
  0.6652367942484714  0.6785510827592371  0.8955839760341540
  0.5170671765058195  0.6898780926245334  0.2998363701272644
  0.7144343636064088  0.7175283841673351  0.9608625437479615
  0.5214395355895878  0.7530083199869521  0.2835818346561148
  0.4191491854884266  0.7983472354475367  0.2942670293103077
  0.8148965800060378  0.3089309456831558  0.8774013777466699
  0.8147951557912001  0.6270285764045448  0.5008727457261745
  1.0343259873773838  0.0011416204950515  0.1899387135563796
  0.5155997000850485  0.5269379874195815  0.9066949990100179
  0.6841945490857515  0.7541709823992735  0.7787830296627722
  0.8939710696750569  0.2159784348332238  0.3033016376329522
  0.8491373646396646  0.2929799474850248  0.3214288390591528
  0.1566865208875873  0.1223707611355449  0.9089206791902488
  0.2446068585118137  0.0578346547975126  0.9466277679490206
  0.8139007133467325  0.5769928090252447  0.4511862696635423
  0.7070865947901827  0.6242765506778150  0.4702726155753340
  0.5933302000565975  0.9087772869527261  0.4877743929162958
  0.6107221403567352  0.8879773966076607  0.5666539715212399
  0.6512360623231646  0.9471906530210497  0.5584433060752146
  0.6794716199106933  0.6873660563161822  0.4651289723016460
  0.7340045380751582  0.7120066698324018  0.4763104004182340
  0.5746279250465122  0.8427669932506335  0.5616985634102107
  0.8170324768240796  0.7790938809084094  0.7028051044150786
  0.7766988560092366  0.6638601736065786  0.1684378126387765
  0.9696304559714159  0.4181355527301303  0.5052659109056016
  0.2649680514346534  0.2170208460998011  0.6493400968547798
  0.3754871070764896  0.2493688752116236  0.7358754701237642
  0.3868505602638758  0.2372382152018991  0.7955192499848959
  0.6876277047518219  0.2765898524245760 -0.0053698020338185
  0.4955286944895834  0.2663454877962566  0.8844018311279744
  0.5580886817465605  0.4419599894530730  0.0481853812594452
  0.5096822484560457  0.3704094654165048  0.8790186706690136
  0.5055666881295018  0.4577761484832589  0.0846357817249094
  0.1760486998002293  0.0442862138448408  0.4896123293451345
  0.6044353644056627  0.3635528647136048  0.0271862265803963
  0.2519683311761505  0.9618226305645428  0.6022896809083220
  0.2652180927585606  0.8267724698753379  0.0676252180786024
  0.4509660492522954  0.3476486485432583  0.7462976929235181
  0.2110108583527358  0.8361610420098781  0.1044840660049840
  0.4989353116742138  0.3851172576001543  0.8109273028042082
  0.2341480024837819  0.9366349114434310  0.0442488275487964
  0.6180573161027600  0.4019337596211112  0.9630111989255781
  0.5500819929482413  0.4248451805316740  0.8817597726332359
  0.1712742920814394  0.8837296674896860  0.0934375413831349
  0.2336700049050671  0.9238809644751580  0.1041277214780338
  0.2801169752188341  0.1313947968638030  0.5554441503028865
  0.2583936230762739  0.0655202117357790  0.6162931112202282
  0.7252763356839418  0.1215163521096719  0.0461225195821487
  0.5571036713136500  0.4886818762921531  0.0924626942974745
  0.3866905558398553  0.3407592301354325  0.5552439619862831
  0.4553725755556272  0.5344544937616997  0.1021305172290419
  0.3533900031524300  0.2752713576347784  0.6124600486611822
  0.5137587604911478  0.6283211420451892  0.0893878689402310
  0.3097288498063182  0.7448002362813283  0.0459911241678699
  0.6595991365987227  0.5611645933396363  0.9848536824486550
  0.5677507678631981  0.4733329163640813  0.6563524516811985
  0.4761330297048026  0.1700045373507204  0.3524869902080889
  0.6143843847426279  0.5054976810995349  0.7208321245448671
  0.5547332678007061  0.5144755885119459  0.7007435725890346
  0.6257422011223580  0.4909259771324205  0.7811576531924653
  0.3047415149987003  0.6246124278401527  0.0241759006791333
  0.2586206504735786  0.7125403970385414  0.0407724459742831
  0.6737426453550746  0.5291095547586464  0.8466666799026841
  0.7025818179939248  0.5753712564919998  0.8765318684663294
  0.6450771167440106  0.5833341719263019  0.8561944703850572
  0.2206237608446462  0.7449486314281273  0.0151215386411625
  0.7362390584788202  0.5228315580045128  0.8684010211243427
  0.6881660354027718  0.6208542156155152  0.9170582563484553
  0.7314161307004405  0.6678295690045192  0.9803865536629125
  0.1723514473703125  0.8402135119480929  0.0455943092231164
  0.1247256150518160  0.8781215827982058  0.0215106155641148
  0.4570469750905060  0.5810251823739641  0.1438255410901922
  0.4214157976147587  0.1667491216244789  0.8794985905027281
  0.3493602936845346  0.5699100659103848  0.3959792556708561
  0.3597022436874717  0.1749932754332351  0.8533551389845384
  0.8007740797642827  0.9033749309824853  0.7901248578544201
  0.5282238853789428  0.4501131462606608  0.7567052108899183
  0.5753208939998637  0.4856615445960267  0.8212354342266480
  0.4166294698500224  0.5738043113494899  0.0085559096479732
  0.6846025266357449  0.5194530017247367  0.9064761758916282
  0.6250720125215506  0.5243161050710139  0.8867830363451811
  0.3667578320004129  0.5996378967460280  0.0345150075270616
  0.7126661857070230  0.4496548828429873  0.9877769490221990
  0.3564484395215129  0.6458524000488032  0.0845421521102787
  0.3604841887623041  0.2289861747812299  0.5710182806259375
  0.5866454277120069  0.7125011628568360  0.7520284218275557
  0.4095726811746532  0.6740961199668052  0.1006321294598634
  0.3713525245698743  0.1303078681883951  0.8105970509512413
  0.6410516850146332  0.7840519027333055  0.5414177708911646
  0.6999901529114522  0.3525055067956276  0.1338466056181820
  0.7253476297867099  0.8592582818158427  0.6023998231511570
  0.6714984856587558  0.8578707191180701  0.6450248573469299
  0.7526665923444159  0.7871628852745363  0.6805773137084050
  0.6037441978130346  0.4453804997391784  0.1814511046635578
  0.6916676925531469  0.8746412353840902  0.7019556591416147
  0.7901627507402188  0.9167969880314456  0.7275125600924227
  0.5654760141668240  0.4987752134598404  0.7605240464830412
  0.4530959205274737  0.4411195123147260  0.0138108276489926
  0.7881820355843295  0.9484213294792949  0.8356106491131361
  0.4760687366100472  0.5925919967838453  0.8439080095882509
  0.0650996009690169  0.9695676252628515  0.5355138266499733
  0.5656522787998155  0.6456075173900365  0.1594268844228484
  0.4117749134684278  0.7071411267402442  0.2043101650857946
  0.4157079710797744  0.7535020290705580  0.2494052439802835
  0.3685240593701516  0.8311186039291691  0.2707162873559807
  0.6959898686850799  0.7944630478179757  0.6642839030553459
  0.6639913157804581  0.8121613795000829  0.7620461121338318
  0.3228368010513252  0.9254666709142119  0.2299587294393386
  0.7622340125603808  0.8551742051788644  0.7854942133630167
  0.7590226421887231  0.8862304009829862  0.8920372267061216
  0.3267547622289494  0.9697913249886128  0.2758161144400545
  0.7981253726957220  0.9349857148127336  0.8980188581624632