Cr N  Ni
 1.0000000000000000
    38.8588641550299201    0.0000000000000000    0.0000000000000000
     0.0000000000000000   38.8588641550299201    0.0000000000000000
     0.0000000000000000    0.0000000000000000   38.8588641550299201
 Cr  N   Ni 
 1596 106 3725
Direct
  0.9755821276113473  0.7853127018442995  0.9810452048362329
  0.0319521653800000  0.5734780246263179  0.2879644269268609
  0.9235721155477189  0.3374955788078314  0.9528322060488880
  0.6400689684579344  0.9987646413978170  0.2533054362650376
  0.7856316404425179  0.7006586062156915  0.4374968885429176
  0.7773030257116649  0.6615719831698900  0.3944111493839577
  0.3659708790788808  0.6800028822595041  0.6933922554262180
  0.0733892939483091  0.5990822583784179  0.6294016948502802
  0.8179641688910662  0.5942932452877492  0.3903539436736188
  0.9294530286078823  0.5873297011707684  0.1909457218339279
  0.5686179676150664  0.2137925989788465  0.8604375553490428
  0.9843482100035329  0.6183765391553430  0.1983702410218327
  0.8697675706747897  0.5651665168188047  0.4154342262553418
  0.8675655119933132  0.5157038049652218  0.3702073874269443
  0.9195552681143785  0.5006577330721732  0.3362218176217500
  0.6021448725477159  0.8507556346247998  0.8425338838694403
  0.9148693450963261  0.4387203054972660  0.3559212867822055
  0.4226069608025816  0.1252601343237911  0.4090708080960225
  0.5076825799049542  0.4787514791156018  0.6329732791503527
  0.5902814781729572  0.8625545064524249  0.7820453122123965
  0.6828044500717435  0.0177882091735210  0.7652689919244047
  0.5307567583021000  0.1646991581749582  0.8578087812272687
  0.6132883796222263  0.0461567610700210  0.0822720741141808
  0.8187595198926005  0.1433162800318115  0.9021319965731925
  0.4760070339577217  0.0100895059373160  0.8666394410205296
  0.8551778360061534  0.9429312458368343  0.5179197078593458
  0.9020360859563905  0.9880201765325475  0.5287650729335481
  0.8077516938416975  0.9678374659138617  0.5476856652418371
  0.3687209725843127  0.7973499785286778  0.3904832261348192
  0.5559578196357167  0.5756176165034679  0.4774032703539616
  0.3652398869020836  0.7521888424238444  0.3461205242218562
  0.5067445135865879  0.1912548012762537  0.7349043700252843
  0.3646378727442192  0.7670050889444138  0.2860666465947312
  0.3153986051679161  0.8000616521391890  0.2625940887604951
  0.5618712430714669  0.3201890069688095  0.6208772075046716
  0.5049447111997137  0.3259418638399613  0.6003127589489428
  0.2667839460741374  0.8599944875279435  0.3477024991097945
  0.6107598038744080  0.3542815225008989  0.6871122187164774
  0.5508005388449297  0.3624215021670879  0.6645778925515406
  0.2139822491141559  0.8908003900637279  0.3221916700347003
  0.2190519346546920  0.9568865067093099  0.3028865821862374
  0.6695029239397084  0.3776507556670746  0.8167569071665745
  0.6577641423877555  0.4216169665110399  0.8610574757664209
  0.8295023073686104  0.0469278241508454  0.1593285862957726
  0.7051713118758665  0.4614184816005192  0.9261607880173932
  0.6472010568813383  0.3861686183200898  0.3343825014909114
  0.9185219647527366  0.2209032732175202  0.9827190645534589
  0.9230307310296170  0.1793883479499209  0.9313606396192974
  0.8448955976706183  0.8764351529512728  0.5274707978815246
  0.3342715003363496  0.3495264861166761  0.1223099377174641
  0.7810806271301065  0.0612339016013602  0.7925577384358961
  0.7511355182423687 -0.0002204439239369  0.8512692573786254
  0.3562021739070132  0.3078007494621889  0.0284403086143198
  0.8109620625084012 -0.0097753773148572  0.8729233510166801
  0.7824635387359175  0.3470592605621781  0.6910386066991844
  0.6309197006081666  0.1829011313400267  0.2247578972198169
  0.5772259252887592  0.1398313435301062  0.2798074847836111
  0.7384400539076259  0.2759273878677378  0.5718511817673224
  0.7253986028173064  0.0325408504672701  0.1910746352715141
  1.0002244142693193  0.5572023841662874  0.9292160610647032
  0.0700400539976001  0.0461063623070939  0.4544140966081859
  0.9567866073995851  0.4869463761787044  0.7429542463664086
  0.9152337124120917  0.4379554795566217  0.7319058819888944
  0.1098370621070397  0.8776091375114181  0.3443877527322654
  0.8719433195527690  0.4055663467749454  0.6522071530414149
  0.8123752921543383  0.4119870955533838  0.6357588720138350
  0.8638063112341001  0.4191127671200476  0.5914708682615134
  0.7646884004957704  0.3743067025481041  0.5643488829933502
  0.2064660196094201  0.7847642793329072  0.2838893083467931
  0.1995993340311591  0.6776015063395322  0.2551504247802067
  0.8856164470126737  0.5115876988636876  0.6571364367600592
  0.9865856345367181  0.2996334745407277  0.8701706555145983
  0.2677442212226280  0.7022571516265558  0.8796616512117912
  0.4271847286134218  0.7065517423791310  0.8190282474799279
  0.6421386494410672  0.0187059471631925  0.5343333666946561
  0.8394289457384356  0.8034304385047949  0.2063132994964683
  0.7422450939873061  0.0111216249738421  0.7886617501737594
  0.1047410189534857  0.8497456364323372  0.2349631278486709
  0.6128986957656201  0.0371654278317684  0.6821277976210184
  0.7236552468091543  0.0309295945193867  0.6623793442414749
  0.7107769865382639 -0.0624785091515935  0.5878923518850100
  0.0984066329945364  0.7412409868313107  0.2033261245226205
  0.2008299157663091  0.6939363516855779  0.1946428758541307
  0.9029184550787691  0.2439872030054913  0.9261412673425311
  0.8489518194740132  0.2058471316503891  0.8474080176289025
  0.8766457429589077  0.2695790184241718  0.7914645105463624
  0.7982676435206610  0.1694139840476156  0.7795752370545909
  0.2425722139283343  0.5721103722668713  0.1069362987297918
  0.8463512281029201  0.1719065266308556  0.7428114500250668
  0.2444395733130419  0.5519205999079000  0.1914039642828525
  0.7994359573444627  0.1387208495667404  0.6734259300664499
  0.3441320987927948  0.4563388866375947  0.1438309274950333
  0.7530941999891020  0.0986040852821453  0.6041998244872510
  0.3423866759818573  0.4109490557904557  0.1009737210752704
  0.6625096934008162  0.1126482671361141  0.5244492201960538
  0.3891449225707488  0.3772582167329123  0.1243224988757776
  0.9757512937038756  0.3457944841075566  0.9124706719119323
  0.8493306490016803  0.2933824126928407  0.3212690661094620
  0.1564408532967665  0.1220654402388145  0.9089990058927141
  0.5779402933901436  0.5661098051053255  0.5395251686486683
  0.9955845194326601  0.9493034258246233  0.7414689366903405
  0.8872467228384381  0.9584419330289774  0.7547941737156011
  0.4724285320017134  0.7353610308369857  0.4449313739158102
  0.6955617413079913  0.7707316101565838  0.5577506085663435
  0.7981585872185540  0.8058594905846527  0.5814868657915954
  0.4746403343149008  0.7969795569309230  0.4261252222513154
  0.7841169262636737  0.8501235617444590  0.6246005310847027
  0.3849287387875076  0.8798126646706498  0.4892601341239236
  0.8382112440939634  0.8852428514951645  0.6910652839581030
  0.3230260902285867  0.9220050248243195  0.4642474937928697
  0.8586823714580443  0.8953712530507459  0.8118349858609855
  0.3288112066572545  0.9825386686721811  0.4486101268334526
  0.9401229250788212  0.9822873597785876  0.9136661605388776
  0.9315130537003712  0.0146201700077092  0.3221536209258532
  0.9222576196652100  0.9838331267591732  0.9810729679028415
  0.7150695647368461  0.7905936049496269  0.0014244421791209
  0.1137925687397314  1.0071787991033485  0.5426401485466138
  0.9524610077085420  0.2761772990040051  0.1924494955547931
  0.6096217806297430  1.0020324877512101  0.0323897855852437
  0.9473974017743159  0.2135283880974390  0.2077225339371351
  0.5710438495561665  0.9526641853758027  0.8723789814400942
  0.9621891528928822  0.6092474975773471  0.6784920561578454
  0.8513253099063848  0.4292857494005133  0.5285619543577441
  0.2961696352974821  0.5004263018759344  0.0557963525193668
  0.6767015349110642  0.2441437402859123  0.9446864526409735
  0.4854601246378735  0.2308785460508927  0.5512193538006624
  0.5952241522660782  0.2466042899805940  0.6988387824669032
  0.5736673698076921  0.0511596126192234  0.8956627320068103
  0.5456201691785144  0.2091652554296799  0.6361211375658758
  0.5003321837812018  0.0025750910435360  0.9937288661005017
  1.0137522443945721  0.9977599819078593  0.5121019597638383
  0.9553800902091694  0.9624791605661711  0.4996007869492994
  0.9456315398114347  0.8787244129618135  0.5732048498566651
  0.9784223496141756  0.9282094646930734  0.5741656559655510
  0.9156019390107139  0.9818792598304918  0.5961175691252533
  0.9723539918198112  0.9727099750470097  0.6178096164104255
  0.8471510687645302  0.7728917111916550  0.4973375514860789
  0.8948422662811775  0.8578352854294609  0.5516630917008302
  0.8986167205840144  0.8405656733000618  0.6090419529240431
  0.4773876297491895 -0.0034892195952040  0.6607459880525386
  0.9304857041227347  0.9204136093516595  0.6154871248369828
  0.7637064653883087  0.2917733330063208  0.9799900770335320
  0.5187034487923562  0.2348926855134462  0.0053014483940478
  0.4540067543755246  0.2495123252407607 -0.0183409092091502
  0.5285530151959997  0.0712908233879761  0.5342416678294866
  0.4828587666138012  0.2031507652909308  0.4522478346730335
  0.5170159045664457  0.1139107417822581  0.5828494840741714
  0.3033325450414463  0.6483471031526458  0.1845926872943852
  0.5680685752106879  0.1519390217636235  0.6520205418876651
  0.9229026621082406  0.9722326621110381  0.6563024618709575
  0.2987130198388187  0.1813702242378760  0.8313317496405896
  0.2387551784760155  0.1882785230485206  0.8101789707615676
  0.5805943299419729  0.8143799104778597  0.3978381719328271
  0.6676665504106003  0.9619921424303174  0.7890607886589140
  0.6736580811252088  0.7985644343953432  0.8193090101805718
  0.6784414475891886  0.9175112201736401  0.7444873443237146
  0.3979230733564645  0.4763505028178269  0.6533732386912109
  0.4797058151495888  0.5636131143442946  0.7226942041882225
  0.5869258389805875  0.9939895556867439  0.6416666000832163
  0.9101216999064067  0.4254111415537237  0.4856210017815714
  0.9592196210270532  0.3909326836056122  0.4523155711559715
  0.9542735514040125  0.3235085873167280  0.4714870486506582
  0.5354862660035528  0.9321332878697265  0.4664893994317783
  0.5736859425715756  0.8485108518025541  0.5576045682027512
  0.4755900851606160  0.8104635604469878  0.5356772678616499
  0.7322807842954046  0.7164055045403181  0.4741396252359583
  0.6793181793925129  0.6876574740440023  0.4653423178186250
  0.6532108780920168  0.9502058491008619  0.5614715561321526
  0.6088540177694868  0.8973213693577865  0.5574487348189738
  0.5977360171200122  0.9126684366940344  0.4914107176570490
  0.7076859454470176  0.6256884649733012  0.4704423576892720
  0.8161768614293502  0.5781022157427576  0.4510249183366524
  0.2438490806877706  0.0571379919489107  0.9469021409995105
  0.5315827564491306  0.8772239607195659  0.4795284761581518
  0.3509172876085557  0.5816949468114528  0.1031724759063604
  0.2515185344003358  0.5322973837288302  0.0345874354773686
  0.2080940012015189  0.8187189433191110  0.1642892202994851
  0.4451887598658038  0.1116296871381413  0.8945074465940656
  0.1401609162678183  0.1095705948144917  0.6813099806754694
  0.6345203551632168  0.8429306873517467  0.4088087255405266
  0.5631925166119104  0.7666115065747818  0.7382291341929074
  0.6446323535495306  0.7034948291298379  0.7755444139524642
  0.4708260583440911  0.4260204120627114  0.6281177640255132
  0.1845275265832754  0.0304012595070422  0.8263170556924790
  0.3544310133685256  0.2097608695342318  0.9554316289390116
  0.2575858110088675  0.1619890278007191  0.9327154643082416
  0.2702008047363515  0.1179215140455155  0.8915869474056078
  0.2108559910116216  0.1261777379333019  0.8689983235471888
  0.9024899772509918  0.3170488173158524  0.3923024987242166
  0.1514137838423879  0.0986747652705304  0.7438958106950154
  0.2118062918349190  0.0925742973541821  0.7633854969625308
  0.1601719788416961  0.0532573752782290  0.6999693072356167
  1.0000435473855360  0.1970763417091342  0.4051812583019674
  0.1823038957152635  0.0119815534253534  0.6209078178536699
  0.3703656580772212  0.3162202844203110  0.9581640918320169
  0.9983679922944901  0.1522154026703398  0.3586924317526128
  0.5302560742964300  0.8133205067834625  0.4957716334726992
  0.2617296988463244  0.8323985282356993  0.2361605626236469
  0.2586767485839507  0.7599568306910813  0.0834028056551598
  0.4434775453966878  0.5131025084304757  0.7171484735807697
  0.5518857008590237  0.0763033366002846  0.7675595677050105
  0.7487376028268838  0.9788580629806676  0.1140988739855772
  0.6131619436197279  0.5030238214865318  0.5632584290492191
  0.6774658036870170  0.4721274050394932  0.6412075259480188
  0.7383582791073288  0.4639952998441184  0.6628229223784966
  0.6251741746965066  0.1520024439815779  0.1177029586802681
  0.7552276544824339  0.5804496485338473  0.8337881287229894
  0.8124403449968557  0.5739779914235396  0.8590251901719065
  0.6860201676674543  0.2286187114138105  0.1728586621305314
  0.9213294732676726  0.7578288954157976  0.9709620246733063
  0.4940695872565865  0.4154063306534594  0.2706658615443446
  0.5970109289674765  0.3824328215097141  0.2023240388761761
  0.5340026710280198  0.3949869500595332  0.5381994798113185
  0.5517431962955092  0.4606908684834228  0.2165707862941297
  0.3983285599743481  0.5212923607418694  0.2562048218933418
  0.6496454216845770  0.4049851869178487  0.6918641292467418
  0.6876114181824324  0.4553727778737586  0.6990392368340660
  0.4554521320749196  0.5671214561529885  0.2025155142859668
  0.6368464419285135  0.4471092203277444  0.7373808852144300
  0.4091645601405138  0.6320560523002910  0.2799578424930234
  0.7228627786308404  0.5338805351235604  0.8121540093785727
  0.5635680322796400  0.0624980689596360  0.8310102920701037
  0.4536990951069296  0.3813942228869916  0.0265420301267178
  0.8907668057069033  0.7942209373134889  0.7841703896375309
  0.7605982234573330  0.5692222405450489  0.8996262592668700
  0.8293235646349206  0.5478652599851690  0.0514598613839192
  0.8045461976379020  0.6110810086330976  0.9649917099249781
  0.8729584928771527  0.7211639415593573  0.9029046398495306
  0.1539295814546143  0.7897122819484236  0.1541695511538275
  0.2077961748605247  0.8022536080491128  0.2250583113580740
  0.8771670195245834  0.6858864116578262  0.8016620109776793
  0.1549732977636618  0.8499466176141798  0.1410102886815490
  0.8605256561639884  0.7511435729286178  0.5571710381152269
  0.8019744230801823  0.7673470535065866  0.5384045210874047
  0.1632572043288795  0.8968057416010812  0.1870376248554990
  0.1300823410211394  0.9135429109188721  0.1430892749544012
  0.1339752474549173  0.9581456711887854  0.1818794345481082
  0.9094273054337328  0.8253178318515623  0.6705760004911291
  0.9190166665019319  0.8139662692639501  0.7345172998267571
  0.7154295436963828 -0.0019836844330992  0.0705122754651414
  0.6720118001573419  0.0928576049646169  0.0350312529717164
  0.9181131134506921  0.8898125106714785  0.8344842435561124
  0.7319169941928896  0.6085655228992815  0.5316016536135376
  0.7132529710447654  0.6659985785266039  0.5194767712138535
  0.5817429557426649  0.2453884684905851  0.0754759874916067
  0.4941800726700610  0.3834885170366543  0.1671390954362417
  0.3042107898218751  0.6761904482669192  0.2911887501344982
  0.5750317604167409  0.2042107766120305  0.0252479335519040
  0.5801113552800584  0.1701966412985457  0.8171589471656360
  0.5144063194073517  0.4927542409892137  0.7986970064293603
  0.4791249611585152  0.0969444532905437  0.6848217838240892
  0.9811201520425554  0.8813515045398757  0.8576988493639655
  0.6125287233741987  0.5380108258725604  0.5034204064515773
  0.3976901186975896  0.4870424814233261  0.1512377795236110
  0.6935903275507362  0.5829970146853213  0.6326956137386630
  0.3496847759634190  0.5653279970789284  0.1665673735207980
  0.3551769443535760  0.6153788857255100  0.2130001285528720
  0.8411101528408793  0.6535619115596680  0.7370586809467887
  0.3577441011278086  0.6782318223783613  0.1939169683722544
  0.2548955502243316  0.7242550189635321  0.2042087049873253
  0.5416820066767981  0.0901075040736637  0.7059072901519171
  0.5793271320500383  0.1394957305242477  0.7108696254994611
  0.4242031338711790  0.3868655841049963  0.5620787291718559
  0.5297794255570013  0.4211078572945208  0.6483302408020045
  0.8939055365864689  0.1845739071260671  0.1970987729449191
  0.2953041391954702  0.2792939956295969  0.5899874801722250
  0.3353034517338758  0.3293428521642390  0.5950783391098543
  0.3097009363165958  0.4204164257435398  0.6846042055928464
  0.3822548565620840  0.3677188780449600  0.6628192718245753
  0.7935956222784482  0.3110370681535729  0.3596942693693092
  0.4060929853884777  0.4632798565994558  0.7116518752922313
  0.6116304304992072  0.0621463891673679  0.0179670695607707
  0.7048559410189693  0.0226215155379696  0.0008371621938896
  0.9560620292013413  0.8182755737909034  0.9115757007100540
  0.3984047091644516  0.3905386821687854  0.0601262888644051
  0.4674507696277119  0.1091759768590772  0.6215127423225968
  0.0261390980578273  0.9488691695829229  0.1418409696039784
  0.1253307353748803  0.9246641058578798  0.0690313320643058
  0.4796225833534716  0.0653377673376827  0.5738035891844762
  0.1562644634893470  0.8082652146562284  0.0935615521543531
  0.8801272274555251  0.4403949704487116  0.9974433286862237
  0.1551368542848471  0.7654102974305306  0.0479530152264464
  0.1936331710990285  0.6207906560636631  0.0388827824905620
  0.2791402690500867  0.5781020426680814 -0.0142861851167857
  0.7046286945748864  0.2773849556059335  0.7842583459034533
  0.5567171954513859  0.1972873579874203  0.6945950462870421
  0.6672072952332109  0.2259583255049566  0.7789900332104766
  0.7044894362592614  0.4526328395660295  0.4451773074828071
  0.7107626996206053  0.7336802385107842  0.6762399089374458
  0.5351773267325108  0.0018051579251195  0.8904172162540499
  0.7953889410257261  0.7513155555365204  0.7592087458705845
  0.5249394432183628  0.0144309422866166  0.8264877445531799
  0.4010979465175324  0.5016008526222985  0.0931015967259960
  0.6609516110400788  0.1373197574405530  0.9616875600342664
  0.6523708658460161  0.1498926891225991  0.8990328664801053
  0.3975770980621530  0.4385633110369503  0.1075128084988626
  0.5000114667193015  0.3493627079626181  0.0623461763380185
  0.7268347350966081  0.2527636724845195  0.9048430328572064
  0.1669769961178639  0.9427723316573038  0.2322986660793522
  0.5749215123670571  0.6222679257411903  0.9981699089684749
  0.3440234226628441  0.3186297952935961  0.6568520808252521
  0.3414580078728115  0.3511777911615853  0.7638166831004642
  0.4274589574036134  0.8909245544045572  0.3862923095955070
  0.4306842815468952  0.9514534001244844  0.3713787141568868
  0.4266496874789644  0.4372104918029733  0.8351740934364041
  0.4373000204493930  0.4255083063686714  0.8955289075948587
  0.9896105177706388  0.0612238308263319  0.2689382060176144
  0.5482530352071794  0.4559431281327729  0.9848457721191481
  0.9466249626481585  0.1848208597417035  0.3306714523499045
  0.1570160208442195  0.1850535564495386  0.5540979178590983
  0.1655084526022627  0.1739135948092023  0.6217459348553435
  0.5751097092512250  0.6238887973501243  0.9406586272650177
  0.9995367838270688  0.2106454521865264  0.3457267671556469
  0.9389279855632334  0.1063042934741763  0.1798734418905808
  0.6579007926383011  0.5081638323557993  0.2938415433625497
  0.7033641122629610  0.4326190793758041  0.2800315916877931
  0.7460440907800734  0.4764996865321067  0.8267716942138740
  0.9629165492168211  0.7737656294297124  0.8585046413222284
  0.1162572045126201  0.9569933319955951  0.2683431883293583
  0.2008622224611446  0.1048997911198089  0.7015884851810444
  0.1371271773914753  0.0794707884321526  0.5772644376598560
  0.5725665709335812  0.7071054342332270  0.3703835551433856
  0.7272748934689131  0.9555451992613114  0.8110140027205267
  0.5563915707756488  0.5036140694531696  0.0326397470885825
  0.4229493282290281  0.8437355884210404  0.3386829488638776
  0.4326672030424407  0.7552024476160513  0.5337986651687777
  0.5083497412766139  0.7631844788670574 -0.0023764586083120
  0.5415265602168605  0.7941589917807380  0.6221741379956004
  0.5860536093596936  0.8420886183943628  0.6141951036244756
  0.4040383334755403  0.7448663709529684  0.0235523448273273
  0.3621579926710859  0.7745815463792337  0.0560793633252023
  0.5628931617509769  0.8823267401292570  0.6580201539706518
  0.7637188009286799  0.5461302158784789  0.4375424007210164
  0.2172072459328597  0.2122203790648986  0.6872601383413734
  0.2325533574966553  0.0697063228138171  0.8883707156847374
  0.8571551586887625  0.3914501983364354  0.4107879027366488
  0.8545362786208736  0.3468962466721380  0.3685912938303941
  0.8013622655869499  0.3755904173141406  0.3383209454622068
  0.7582159704043593  0.4502780310615135  0.3514858651870534
  0.8129841564189514  0.4825881325931747  0.3597790103030424
  0.3993074642119516  0.3763263375978425  0.8921330352702417
  0.7656892093766012  0.5596250418609144  0.3769209990086284
  0.4466199504147138  0.4136522928263386  0.9564325062783119
  0.1726228559428693  0.0303617237055111  0.5533924049219364
  0.7973234598910417  0.2928351425611810  0.1898642470748187
  0.7927497560143780  0.2460488922586250  0.1451076259349399
  0.7038572649671319  0.3989689842119770  0.1749284295758404
  0.6680355128851897  0.6159727041440530  0.3155988708197278
  0.8145642226738784  0.8667557462799971  0.9934869176142537
  0.4512123168777297  0.3154911276335647  0.0424517458656381
  0.4425014698150034  0.0472715222103760  0.6796899728633375
  0.4169418223131820  0.0025509421357475  0.6416056629997415
  0.3950615863202222  0.2410305691552493  0.5234227225660523
  0.5129229403855786  0.2829363687019000  0.5544450672302637
  0.7752876309963648  0.7122284546428470  0.9835776646718909
  0.5096312130697600  0.5928544639467206  0.5146172223721290
  0.7457616666642298  0.3767548694110187  0.4355702479430166
  0.8308481957443359  0.8329979668298660  0.8717059951512593
  0.7736454843728876  0.7249020841879655  0.6953014451863471
  0.7709289461794088  0.8115406441595010  0.7394851409651145
  0.4100122876300940  0.6930553215533595  0.2648206155338271
  0.4460817888758870  0.4098234177518790  0.1372904965389044
  0.5791179477272324  0.5898911561892100  0.8356695619809752
  0.7548728054836993  0.4166433467960369  0.2467421977078966
  0.8365200093034643  0.4030325032175696  0.9293655196160810
  0.8434208131264622  0.6367872285517580  0.7985406180435748
  0.9167111718552490  0.8149243112526838  0.9524962074921578
  0.6075205840424204  0.5237240030820502  0.3271969011011752
  0.6002730080624917  0.5644540537950963  0.9677981932358055
  0.5380447071382713  0.5686905629988259  0.9433871944765181
  0.5628780635436758  0.6150409170586284  0.2823433211501481
  0.4913282889775926  0.2967198364802933 -0.0060616709852014
  0.3764657826771631  0.5033687070279841  0.5336106627287512
  0.6554015192929569  0.4613479274234211  0.2512885499964288
  0.6832554831703781  0.7536932696025136  0.7774675914327500
  0.5304878499919851  0.5511649528188611  0.5788082879489910
  0.4121905399520037  0.5533960144877960  0.5348977051319180
  0.7072694949142181  0.4466600542960045  0.2177107531460105
  0.6059982294393285  0.4914204740238530  0.2230817317651712
  0.6085735234373185  0.5382867984841423  0.2660747530654000
  0.7162494348032795  0.5552049011814904  0.2401992157949283
  0.5735786499538094  0.6024212310485112  0.7625032036015816
  0.6103416123225723  0.6539819155354050  0.7698591895103455
  0.6224374169977455  0.6411269654176064  0.8365911908842715
  0.6582907254033138  0.6913252366007773  0.8352701730314257
  0.5971797514878510  0.6982072711199826  0.8159905779619062
  0.6059176263361516  0.6846451429652982  0.8775544624782765
  0.6649221092971823  0.6782736398602758  0.8958015657649681
  0.5173786663870383  0.6910228923562695  0.2997106672630101
  0.7137234310144440  0.7170782778480880  0.9600556056838750
  0.5216830293061800  0.7537140480643975  0.2837575172503834
  0.4193623345943625  0.7987859143576588  0.2940565078972848
  0.8147613838444497  0.3084437210853808  0.8775921109233565
  0.8157666763725052  0.6228154369646032  0.5021852692536692
  1.0342960610337195  0.0012519197236640  0.1898617175552907
  0.5150739264309333  0.5267814143799981  0.9062220699905448
  0.8946442919597044  0.2167380109458484  0.3032426587092653
  0.8179512301056954  0.7798489523939023  0.7009668310195797
  0.1024750131688008  0.0950039031891156  0.7847590453657397
  0.9696367203054580  0.4174526404645073  0.5057116632775949
  0.2650672530656512  0.8262089679659284  0.0675560673893984
  0.4298757740747751  0.4057234250412149  0.7297557624548141
  0.2106366087305710  0.8356176979210167  0.1046883440582461
  0.4987478733716276  0.3845906813620880  0.8107917326682786
  0.2347171857936457  0.9372902560136976  0.0433364522071025
  0.6175081813949935  0.4018882664466306  0.9628414923500459
  0.5496797711313651  0.4246559392558747  0.8814854564587054
  0.1618478768469822  0.8776240773603166  0.0854649101684148
  0.2336442850459258  0.9232277912331408  0.1042020897382186
  0.2809697151544850  0.1312336843641237  0.5552870019355500
  0.7253430291900711  0.1216801664932918  0.0457544231165648
  0.2585553878597475  0.0658552303395636  0.6162921397751492
  0.2649973462471816  0.2168049344554772  0.6492814533953790
  0.3753365199767048  0.2488683267315443  0.7357562476939392
  0.3865702182080552  0.2366621078585647  0.7956440555956003
  0.6873196291658777  0.2765157685548777 -0.0056574300310928
  0.4953020598211170  0.2659392303428222  0.8845803634374606
  0.5579292281095671  0.4422996816999697  0.0479723868695366
  0.5094345209889493  0.3701470293346055  0.8788317593171637
  0.5055927092675770  0.4584791463052924  0.0843323548359055
  0.1768064606387183  0.0439320785051294  0.4899642232398084
  0.2546706739025916  0.9644748996657903  0.6027438957499390
  0.6043585560292133  0.3638780665324336  0.0270897289827358
  0.5570893882412529  0.4893022617333290  0.0923883313664969
  0.3856250438778017  0.3388080966811972  0.5558514763641813
  0.4554253140650421  0.5351189137307952  0.1018776718640722
  0.3533897240957098  0.2748267112667049  0.6116023097017345
  0.5138087869451933  0.6289874791672101  0.0892145372607966
  0.3094874158296476  0.7450571037725351  0.0462924465927960
  0.6593351007275886  0.5611033047977483  0.9848305534306796
  0.5677364866533485  0.4715730208705680  0.6559722430940155
  0.4762331780391178  0.1701917221937419  0.3526026675307043
  0.6143487767738823  0.5037757192942394  0.7207044182343989
  0.5542826717440160  0.5124319172363242  0.7000881121474294
  0.6255688843773077  0.4902059683496853  0.7812556743723512
  0.8000009304355589  0.9029784788819072  0.7886508527960555
  0.4527740161638173  0.4415031118822099  0.0135117038722529
  0.6734053134517051  0.5287434340567616  0.8466889079632812
  0.7021289275903906  0.5750618960360391  0.8767430423100477
  0.6445467903072742  0.5830401207059818  0.8565167255935596
  0.2204935706873504  0.7443412007438009  0.0153086688259955
  0.7357782544309710  0.5224195372162050  0.8686117294742635
  0.6878751458382422  0.6206404662118422  0.9172052847680434
  0.7313269975606508  0.6674649171519830  0.9798848151909740
  0.1689210719032682  0.8358504811468587  0.0429243880813473
  0.1252787773697746  0.8781052619955574  0.0227628239131401
  0.4570335105163219  0.5817274866665614  0.1435725160595288
  0.5652472261603197  0.4977231564422430  0.7600926373385142
  0.5575847211362703  0.5210010168126209  0.1961932444364834
  0.3593872723898968  0.1745673894695186  0.8534058313008293
  0.3045941878625104  0.6247269169196541  0.0244254803772945
  0.5278899191562334  0.4491349312424733  0.7559845292273698
  0.5751341918983069  0.4853307073267569  0.8209069659675521
  0.4164183680167269  0.5743856112637679  0.0081287118753822
  0.6842120715724964  0.5192014527793350  0.9065657150350269
  0.6247168820759991  0.5239038048629163  0.8868161124986270
  0.3667126974767119  0.5998685647727795  0.0347937958015743
  0.7122181267289550  0.4495970390251836  0.9878439071793474
  0.3563432726320149  0.6462414890330349  0.0848266048047690
  0.3610229687724257  0.2289309968878796  0.5714383729524297
  0.5849053323884846  0.7099745028660329  0.7520138886135377
  0.4094957631509883  0.6746674984222403  0.1007967077876284
  0.3710675943418956  0.1297920480835008  0.8104793542266626
  0.6435734722266471  0.7871843785039422  0.5430521475928644
  0.6999794223263797  0.3529179747171565  0.1337911476274185
  0.7230351578893656  0.8587875157919239  0.6005063804188661
  0.6687546478359273  0.8580879133206966  0.6400708800936347
  0.7515183799387721  0.7866842214849922  0.6786368467835827
  0.6039683294941574  0.4460245683673533  0.1813706439903490
  0.6886245170575542  0.8723559744423669  0.6989685489620859
  0.7889833729281115  0.9162429125774166  0.7265342312359447
  0.4211080883137949  0.1662015254067451  0.8796412099384302
  0.2584196164587254  0.7124130429230402  0.0410979204481913
  0.7874975967909095  0.9481524242902184  0.8346238450994165
  0.7982705673015631  0.9480546203180494  0.1449888876243269
  0.0518703489930336  0.9078683919793025  0.6561389225748329
  0.5657939106703390  0.6463052999483235  0.1592936491577209
  0.4118698140349221  0.7077240533432527  0.2044365749066178
  0.4158009613233872  0.7540821240601217  0.2494615598988687
  0.3689080610055464  0.8315539082748559  0.2710954147714441
  0.6932041498476009  0.7940653134119930  0.6619800475733068
  0.6622167534150697  0.8112178956019668  0.7594022784347755
  0.3230242978719583  0.9251974825870393  0.2300284610301204
  0.7613054342464343  0.8547773513602099  0.7838105309213802
  0.7586430627287699  0.8863546323215460  0.8901224770612897
  0.3269578653289680  0.9697342517355255  0.2761153737504392
  0.7980988551500822  0.9348032985437232  0.8968591241954090