Cr N  Ni
 1.0000000000000000
    38.8588641550299201    0.0000000000000000    0.0000000000000000
     0.0000000000000000   38.8588641550299201    0.0000000000000000
     0.0000000000000000    0.0000000000000000   38.8588641550299201
 Cr  N   Ni 
 1596 106 3725
Direct
  1.0043376327999023  0.7257196228773358  1.0054062428462893
  0.9288166644412774  0.0618157713715317  0.3677557181947060
  0.3175921750705865  0.2552596896721239  0.7064711789133372
  0.7532368510160686  0.9484622441707458  0.2370474546986316
 -0.0156650989640906  0.2174379003631832 -0.0070727286425708
  0.8823331659628765  0.3040025718211276  0.8902630685964257
  0.0304485295995778  0.1209168504106548  0.4719346002330678
  0.3509101590346899  0.6170490631538120  0.4437900765091393
  0.2081520074148938  0.6177098460094772  0.5092796314218911
  1.0030998526557049  0.1785728789066962  0.4611917756587662
  0.5465005620565332  0.1530571896549249  0.9167075523211750
  0.0745767054252056  0.2799875640831908  0.6213349921149133
  0.2670996258380554  0.7309083565572293  0.4896231039720597
  0.2089762317799678  0.8382302423896558  0.5081908302790453
  0.1559022341428683  0.8606817631777760  0.5377475567195366
  1.0144403175275922  0.1396957668333052  0.5723097467153555
  0.9397343440134831  0.0387659925463177  0.5667351432977433
  0.9240534246126867  0.0852696833340917  0.6094194520848533
  0.2144591270511320  0.9059196571231758  0.4913490461756614
  0.8575313626750680  0.0540126474018861  0.5434196313861251
  0.8849271672408933  0.0403253180527172  0.6011200998677841
  0.5717384479614455  0.2146585379824417  0.8577240176930165
  0.9930241883456248  0.1021339547472726  0.7978049568817706
  0.9763601788268610 -0.0059698596942293  0.8115799793743587
  0.4643733168812910  0.0546690783757616  0.9098842371564188
  0.8630191866258374  0.9235450328345688  0.5264935253862877
  0.8946459173102442  0.9827233851680022  0.5277653149355409
  0.7600739431637682  0.9253244331686730  0.5446381614756136
  0.3747377474546466  0.8414399209204400  0.4376883105629518
  0.5518354151997839  0.5825784613674573  0.4739388768690502
  0.3639289507046968  0.7535044854036441  0.3461234171949292
  0.5093539098498598  0.1887421878352205  0.7306639789988081
  0.3644219846908047  0.7712287637855298  0.2857598719063671
  0.3108312025544671  0.7571589130691369  0.2156145658861039
  0.6034073042834239  0.3695712270187558  0.6253256550843533
  0.5044956292658417  0.3272214532945145  0.5970553767837071
  0.2688392206229482  0.8623904214545168  0.3430430292026364
  0.6735668303034394  0.3475956967768037  0.7066546610127301
  0.5522856566328773  0.3619638892048728  0.6656742420998357
  0.2237724959077540  0.9406995766933295  0.3605107951089984
  0.3234644032075442  0.8927426191502846  0.3527341633371505
  0.6714871971946262  0.3757399389782792  0.8145568848013219
  0.6580436825446329  0.4198248945719782  0.8636306425346142
  0.7742834309041230  0.0677475856428812  0.1944750112044558
  0.7055795257945775  0.4613876738710133  0.9294601495153214
  0.6477642424504130  0.3881175433704953  0.3335099596139746
  0.6780447413242541  0.1021854990587751  0.4342428563969473
  0.9740982483936156  0.1257519214285339  0.6756315509555322
  0.8217049513421468  0.9087781345418976  0.5688313188605963
  0.0072602834624131  0.8870491011717661  0.4747499148926445
  0.5815591125490588  0.1139029712177914  0.4165535186002160
  0.4665377523112613  0.1371640470184981  0.2338790097092484
  0.6053481662139252  0.0374401853365184  0.3876026473280780
  0.5003703113734251  0.1395497489731140  0.4566264240852843
  0.5353654412256061  0.1380461572590565  0.3823015960057142
  0.3209434758849014  0.3271066720320284  0.4665971794647302
  0.3810615893370475  0.3703262007585463  0.4161410305716177
  0.1125160730156416  0.2954895755587240  0.0701693436370954
  0.1276218068393134  0.4145108232460468  0.0340477857357774
  0.2985104496172092  0.2268223713459621  0.4735093095178909
  0.3714454427713824  0.2041549171187652  0.4138121965555852
  0.1391605171938879  0.5551726367803467  0.1643119204266420
  0.3471400019402650  0.1538703490338617  0.4529285141265086
  0.1358803075695428  0.5398793033406413  0.2257059987594651
  0.1438471652479954  0.6177864436611327  0.1459341693722165
  0.3899347418701664  0.0302061683886739  0.3863013047874496
  0.0259406793944655  0.5885169983404250  0.4577116668974813
  0.5096191280660965  0.0358896433926064  0.1017200598461378
  0.4529944021505785  1.0035932159190613  0.0918384874178803
  0.4576371020840869  0.0488018805296733  0.1391970368187052
  0.0666975781849203  0.4009900478343409  0.4189303938504785
  0.4201000839823180  0.1980864616732092  0.3150615165431505
  0.9521700898695675  0.0502631642128122  0.7947709537656281
  0.9612927383388717  0.0352217037328213  0.8613845454952547
  0.3144360048807343  0.1982049387590758  0.2777452847707859
  0.8995711108267764  0.2586533961368531  0.5178899270436530
  0.9673391985872183  0.2540463335940272  0.5455321724090316
  0.9861046154867298  0.2384350896874165  0.6197770456866151
  0.5366580092338260  0.2980597658748563  0.4487362699008156
  0.7075874364235575  0.0090426888614666  0.3146637329190394
  0.2428314639095535  0.1330812077798804  0.4850014363856748
  0.2739413811783675  0.3204748247848697  0.3397297147612861
  0.2646476189964119  0.2122615485032016  0.3132840361991863
  0.4135336158340700  0.2961346967908848  0.4827383330130303
  0.2264301999677230  0.3975835104063042  0.3550517143164045
  0.2468620064310567  0.4750892393518677  0.4502661860485042
  0.2901532172495049  0.4741072845446826  0.4060027221541867
  0.1318681443616113  0.5551846299907157  0.3909301764356999
  0.1783575602629175  0.4755468002249209  0.3716435929059249
  0.1277298767486867  0.4606374617209130  0.3058867589008895
  0.2913563910975314  0.5376582730323816  0.3906013595082996
  0.1846945514383676  0.5397762540973009  0.3547651837764456
  0.0872425801758120  0.6337787445814174  0.4064175603035874
  0.0908344396465064  0.6784420370608826  0.4542797187256932
  0.0486613611149950  0.7503734610791444  0.4725057183446826
  0.0101622805068236  0.7734515319560640  0.5067503100921017
  0.0553204604963333  0.8410078683773597  0.5096753978004879
  0.5547359710202933  0.5046706816430822  0.0333018952861880
  0.4286761164849406  0.7525292476358475  0.5341352306171068
  0.5821067229444032  0.5630664203611707  0.5389794967740977
  0.0091315747892108  0.9392874161510025  0.8017082703065500
  0.8886569514256010  0.9570800756454688  0.7544351327621935
  0.4696380013352390  0.7356371437514518  0.4401802439697228
  0.7582864394039255  0.7082034709046644  0.5281152775068643
  0.8539651281904622  0.7895965488726346  0.6046839698251698
  0.4745817287577657  0.7973165195457386  0.4251995738735024
  0.7424137033793631  0.8886118621430503  0.4933395484591974
  0.3813881547767901  0.9091941681693583  0.4225137320307881
  0.8404031246965228  0.8786713967919118  0.6955372137091564
  0.3280363853361229  0.9259397114747919  0.4627495442886051
  0.8600621670933493  0.8941817237881124  0.8151545822552702
  0.2831316529601535 -0.0035648670717443  0.4792466787587980
  0.9389491392809399  0.9816489597635197  0.9143457180578396
  0.9234955299615815  0.0203961208664338  0.3264168320565651
  0.9219097792263108  0.9815467318486750  0.9856805220438697
  0.1326656719232386  0.0903883225982191  0.3993922121039425
  0.1821021374252402  0.4622754941704950  0.2091239520614999
  0.4178649724093715  0.1849304049453326  0.1461372025730858
  0.2145691176586028  0.2437370915272469  0.2875620824074073
  0.1194160253233659  0.3172663727228124  0.4040924509355787
  0.2226677321054793  0.3165459851179136  0.4358998241911247
  0.1225380225451754  0.3843546967138341  0.3830888158361537
  0.4363123094223892  0.0477719825228255  0.2262669273631625
  0.1624116671705252  0.1270675009027277  0.9071397803114677
  0.2901210685026228  0.1931569690613464  0.7644907825853385
  0.2403073188299996  0.1888794900272451  0.8051718940286653
  0.5797077283378304  0.8152187936499334  0.3964939488430707
  0.6699920810926719  0.9618096653951150  0.7906016675956242
  0.7344933165212547  0.7897114493382625  0.8422358462829376
  0.6795754704463914  0.9161097952867107  0.7468923372771158
  0.4410783637360675  0.4819386599612201  0.6146165557490946
  0.4182136995834341  0.5701192480962550  0.7043060593858577
  0.6020489193074472  0.9412999191697671  0.6029996541409078
  0.9638762869890221  0.4502142090122907  0.4259495990600887
  0.9543603113472451  0.3936707496183507  0.4449916523851820
  0.9673549447080314  0.3388218420538063  0.4641443159677878
  0.5382344370827815  0.9341466724459241  0.4612720562147318
  0.5708861698372446  0.8360277817335160  0.5605345719137438
  0.5126184503885451  0.8501932142273817  0.5393223548118472
  0.7333685665319176  0.7167750640816341  0.4752163642168878
  0.6754173967439383  0.7074998019136599  0.4042142781490307
  0.6556547981667334  0.9409547686184253  0.5613673716518076
  0.6102580424870808  0.8846944713833815  0.5575545667301505
  0.5929272848457986  0.9526847116342980  0.5366198535892943
  0.7100127844405757  0.6274554297710847  0.4659297409326203
  0.8139788867086704  0.5790616334523978  0.4593442329448710
  0.2447721325030015  0.0619242868795124  0.9518771200560213
  0.1247918296185011  0.4458628053598491  0.3676089075954101
  0.9082976287499697  0.3419388290759026  0.2751824198936065
  0.8956198329259972  0.2162315610090466  0.3034090210208419
  0.7733017473299862  0.8679436232795935  0.9584818305363875
  0.7024772560821514  0.4006429181840669  0.1781556922054546
  0.4234366457917768  0.8298067438937180  0.3997344309858860
  0.7861893695975173  0.1881870323669482  0.1620784230729900
  0.7460427143065880  0.3096662306761597  0.2254086993973616
  0.2186175550368982  0.9532503059104376  0.5409405511941379
  0.4486499683279237  0.4148091884656728  0.9620644280498947
  0.7625433029155656  0.5624292233625278  0.3779362355174173
  0.3772070593556565  0.3170041043038818  0.9454646072867013
  0.8117322984767570  0.4842635330659618  0.3610032037478970
  0.7025498806940795  0.4195966905815985  0.3416034717200238
  0.8025888173467512  0.3734967786424441  0.3402736223205597
  0.9035792860956721  0.3242969311054589  0.3356292507108718
  0.9026880558967934  0.3609456711877441  0.4412475528394842
  0.2348831843501068  0.0714178403450199  0.8872326826429447
  0.2195361207135426  0.2122288362156935  0.6804723775630954
  0.6603004335197509  0.5265990057429885  0.4619300623357365
  0.5560411291879206  0.8817081383460215  0.5987131400601127
  0.3595313858188940  0.7747290173905945  0.0536960253952908
  0.4055048148090115  0.7463765964929076  0.0257855074020865
  0.5901859376511259  0.8285985769449934  0.6808995102529822
  0.4781121123318046  0.7917490570697431  0.5965604547070102
  0.5061668713739776  0.7625822398559602 -0.0027890710895401
  0.3645743150586602  0.4904647299345859  0.5344308403600694
  0.6972068195656224  0.7408731809999283  0.8378430017422446
  0.5139248335063237  0.5255243330311138  0.9074786884002222
  1.0303028522554234  0.0030395089453564  0.1880362569324365
  0.8345327721874980  0.6372739937796190  0.5654894963931568
  0.7581423160082574  0.3159803807660223  0.8460253562709310
  0.4186039481777107  0.8020175657948735  0.2936584567150125
  0.5211997822981026  0.7555072413796388  0.2822169656341276
  0.7155275763465041  0.7178751024034518  0.9621738882566453
  0.5160493091733280  0.6940861628236419  0.2985820568041794
  0.6672686256456081  0.6788393694516314  0.8965393040682924
  0.5698580473363283  0.6348057664601101  0.8736565409950428
  0.5976468136790112  0.6976505010362601  0.8146481641216244
  0.6938435112442136  0.5879857240298845  0.8099185525563164
  0.6204959699099084  0.6375172013630552  0.8329501370242436
  0.6092162178385181  0.6943431418097035  0.6536510029428700
  0.5732868682580221  0.6033758274214015  0.7639631834537254
  0.7156211494646020  0.5562887496355727  0.2422454243821355
  0.5583677013246187  0.5697104921066879  0.2382614950795834
  0.6101243107057136  0.5541220730225577  0.2049658878901340
  0.7061312615476075  0.4482228437761828  0.2211673827372191
  0.4673361815748420  0.6566438986828865  0.5215331822866425
  0.5218278409850897  0.5542433031138126  0.5788973011458322
  0.6041378949142978  0.4933070165529108  0.2240864273274771
  0.2635551025609893  0.8342464368913389  0.2361251714995803
  0.2601331694955029  0.7604515765692563  0.0842430557357953
  0.4404260424780218  0.5109801584007851  0.7207871446529978
  0.9305205409502666  0.9217926241216231  0.6159886920715398
  0.7721184000207926  0.0357968693052055  0.0857938136807768
  0.6320259907707814  0.4360930494100930  0.5736356170649887
  0.7116846824691756  0.5214895252128047  0.6513556065750759
  0.7365684296939163  0.4628135875428479  0.6661763315070571
  0.6247627033102330  0.1575497932523689  0.1129739475110695
  0.8069983496852864  0.5870846366382610  0.7941549936483857
  0.8156761492539930  0.5732382329090789  0.8572939537293917
  0.6911898041165757  0.2938834384543776  0.1545607948490069
  0.8735330035716765  0.7704566514585627  0.0061125575200436
  0.4912916472178612  0.4012322015208099  0.3303248862632500
  0.5954037297906184  0.3853613742644733  0.2022257822837542
  0.5327362419915063  0.3970551138616969  0.5417950462987665
  0.5468923006878621  0.4467288315253542  0.2777427714799172
  0.3960177860368587  0.5223863450824194  0.2579793569417643
  0.6500230770528892  0.4039669894921905  0.6916878304240207
  0.6947202732825285  0.4403835409976198  0.7623970521518630
  0.3991977565771900  0.5379320744545301  0.1979068439316191
  0.6357246735409058  0.4470950911668086  0.7392280677665405
  0.4025939841509746  0.6151819028484783  0.3464650897276876
  0.7207908781534330  0.5328902499126323  0.8151766280675793
  0.5228490622553826  0.2429256794219964  0.0002360529184167
  0.7769175483978787  0.2953123135621705  0.9722499679690517
  0.8714596123044298  0.8481541017993385  0.7691434199963364
  0.8308504986587901  0.5507428769641497  0.0519241172335252
  0.3039278359290773  0.6783395222929475  0.2939259358303347
  0.8074460204057897  0.6080113241420797  0.9641027235374016
  0.8157386616927547  0.7251330399857387  0.8808107277828801
  0.1561902390214057  0.7903284488024778  0.1570168990897732
  0.2094591788628216  0.8035402763696088  0.2257980987676028
  0.8440520494663496  0.6344985889188044  0.7972250680902890
  0.1598665654799493  0.8528820559960579  0.1410542365046125
  0.8601462079965566  0.7457494295632945  0.5562509412566441
  0.6931018039454593  0.7681651436177779  0.5584242860492148
  0.1625364443580627  0.8807924167487547  0.2466783994233498
  0.1282012259457120  0.9097581986069296  0.1326585069623455
  0.0831171598173526  0.9869448549935922  0.1520901437889113
  0.9072375238073439  0.8241814224889936  0.6724295715244016
  0.0207635822393841  0.8429434904588189  0.7195120027331806
  0.8063369117002485  0.9604049466778682  0.0711941862247184
  0.6722611847090222  0.1032482993693346  0.0306394301569370
  0.9194959590604262  0.8880567090405174  0.8392014268764157
  0.7624259563606561  0.6585283657099545  0.4798658675786416
  0.6043701879805491  0.6745807586985653  0.5485796038995885
  0.5869640021454590  0.2936713141381719  0.1168321334617190
  0.5428112904005569  0.3701839059405843  0.1307179241255148
  0.7607016576570754  0.5689199934904914  0.9004946617793582
  0.5254652139497679  0.8086826146352251  0.4942077263190288
  0.8962288613613946  0.1776619992660576  0.4250256214734329
  0.4624411792087270  0.4847749467113070  0.8423659831398289
  0.3119053906109742  0.1367229145083188  0.7834089333582589
  0.9803305916498326  0.8809748294094717  0.8610159510829456
  0.6396627272665452  0.5569921175508197  0.5033349100270486
  0.4458906614988525  0.4599788739965441  0.1809256826175093
  0.7445123788958273  0.5856038485750057  0.5987706514858229
  0.3519431593088554  0.5834169928682684  0.1083115937310831
  0.3531882218080966  0.6163778269186130  0.2138968425114581
  0.7831248519112927  0.6608926285516945  0.7138135582777598
  0.3554712572262425  0.6767737929432442  0.1983638363548362
  0.2559617305661168  0.7256461359934980  0.2069242350225197
  0.1469184432906001  0.9978990062264941  0.7256689395999670
  1.0039923658044074  0.1971437851629390  0.4024062105768543
  0.3654681085340115  0.3928153377638629  0.5226128676212400
  0.4784144028698195  0.4114281569955405  0.6915409468458920
  0.8931525173443796  0.1862262646802179  0.1960536394036278
  0.3467974645487877  0.2843882218092448  0.5476816736992340
  0.3879793686509490  0.3385648030891155  0.5436443685981476
  0.3043551037712702  0.4155745145623759  0.6992876085513816
  0.3840376841137892  0.3683440582127226  0.6567733980044740
  0.8494210255941934  0.2950724540093145  0.3237271249668621
  0.4035079355736639  0.4604120454551025  0.7180202705682230
  0.1864329639593817  0.0086581788945642  0.6170218920189797
  0.3868066736366004  0.2713007644922918  0.8939306244166275
  0.9558865303447224  0.8201984885563276  0.9152829200444418
  0.5813361184653398  0.0736439452972104  0.4860349958945885
  0.1909536356585051  0.1498791191141223  0.7409452802676916
  0.9001766171949206  0.3078974451203851  0.3985492008298696
  0.2141792354664940  0.1289293204508022  0.8664660728924412
  0.2725922825173963  0.1208953482571023  0.8870453652584651
  0.2599622918404073  0.1666625899288010  0.9287902391684888
  0.3125282923542435  0.2241673981774830  0.9883662165971816
  0.1851087104644450  0.0323960927481706  0.8240120950528695
  0.4324494740396612  0.3755631173042690  0.6214872844799176
  0.5867293824265269  0.7110634107320107  0.7530067494895909
  0.5505108546997857  0.7845170738685577  0.6755785693522331
  0.6907403672260829  0.8737851154591059  0.4165506253627313
  0.1410576760242509  0.1104267356772031  0.6777186531099550
  0.4462121198430439  0.1114804890414631  0.8890794620313173
  0.2107131241011479  0.8215206783546150  0.1653380167483264
  0.2758228641374684  0.5825690433596429 -0.0096077632879408
  0.3037685531108234  0.6165817045978592  0.0863289446724026
  0.9569866742107711  0.0164080713845152  0.6890099735962739
  0.5684407799361425  0.1502505730028583  0.6483475315493868
  0.3546736754297889  0.5522596657591712  0.0071024250580285
  0.5211910174856803  0.1098388680678261  0.5796075115084880
  0.5370123629013939  0.2486342596613405  0.4024339758657182
  0.4181399833253906  0.2888994636873914  0.0081924888459998
  0.5787158001920102  0.7984548190369719  0.4569094671448166
  0.2190026638784280  0.9293413179470450  0.1955465353266932
  0.4795349748946756  0.0937368330673190  0.6811489963637297
  0.1328624676766046  0.9724290082064007  0.1173737427262414
  0.5414943447376194  0.0540765283691181  0.5966775843802569
  0.1562902295586489  0.7439593673655448  0.1171384176277606
  0.8821317253048208  0.4443291582144278  1.0003484021247402
  0.1610485764126205  0.7616516431342341  0.0515851576875552
  0.2027692008873364  0.6807080542662683  0.0337796402827404
  0.3273935793108664  0.5784882610090741  0.9515128424950927
  0.7084443634223686  0.2776737157756354  0.7815510749750547
  0.5585994910302500  0.1942412663074054  0.6918779435724611
  0.6698884555972866  0.2263247555512925  0.7763657294258546
  0.7052394637961695  0.4548947479230255  0.4430335090411572
  0.7101667626671669  0.7323073297111227  0.6784790885584040
  0.5365998602366894  0.0022030301150937  0.8880476488760759
  0.7951313048918350  0.7488056273058687  0.7581899460934006
  0.5254504710119697  0.0151840987360325  0.8246902077467100
  0.3509847683516927  0.5361072804080582  0.0691607317848693
  0.6074851016313764  0.1882371959530350  0.9869924268698677
  0.6042347880167273  0.1462692378094088  0.9394673104278422
  0.3907177681617143  0.3969452209759472  0.0655136112171846
  0.3929758988697250  0.4125571239183489  0.0053495419964728
  0.4416193124331614  0.3847287775260985  0.0258233612150284
  0.0279741787408492  0.9752546226110225  0.0814123924210933
  0.6254232437069404  0.0558697777498543  0.8511536497866354
  0.4757864463645298  0.3580813928764244  0.9759015932844239
  0.7112534518757893  0.5627378820887221  0.9401168507715343
  0.5527414247422792  0.0757012567527960  0.7655278400191220
  0.4343613813583111  0.3225168210410965  0.0512568616776079
  0.4891321135938469  0.3024395771950540  0.0035360198062946
  0.4416788305161726  0.0433054726960906  0.6775293856637619
  0.4144254731207441 -0.0006368476568789  0.6406731712273288
  0.3939877576348110  0.2466568134186649  0.5214466032416095
  0.5047224268656335  0.2568982908185264  0.4939255983344486
  0.7804008140868289  0.7599861078317715  0.0275780816728960
  0.5087896602587115  0.5880100354746373  0.5140177623969103
  0.7453296603353147  0.3302759087909209  0.3948587366661747
  0.8333336030764651  0.8307946068015105  0.8742950492585059
  0.7763690918292609  0.6769588654174337  0.6523064491741620
  0.7124939136190225  0.8145181504328085  0.7198593282642698
  0.4103332160433947  0.6933141582586498  0.2652174568968731
  0.4916349882365546  0.3837373136413417  0.1645291765449386
  0.5814181748142684  0.5907336846222218  0.8312510149081856
  0.7584463395528084  0.4643094643680455  0.2905980749957541
  0.8700177391503339  0.3491957059921900  0.9292567168425102
  0.8511899633799810  0.6220641582207849  0.8597452160888651
  0.9200054551763542  0.8140809230114756  0.9560365425819054
  0.5503225416559453  0.4941092075339295  0.3195632510475807
  0.5858163687898427  0.5790835500543963  0.9033284033513247
  0.4705441856334486  0.1050572308753335  0.6199650891627869
  0.5065772100693884  0.5852335394956923  0.2736741409851804
  0.5166205258789277  0.0085198926502508  0.5535687038703212
  0.8840227505544646  0.8499156210282316  0.5494983054343608
  0.7887974938227081  0.8155776476767083  0.5229427468356986
  0.9926378835361764  0.0645594957808117  0.6925593348483446
  0.9478332077393571  0.0287090417621824  0.6286753172274453
  0.0224007393655603 -0.0222584975733141  0.5791229864499287
  0.9469475308604678  0.8981849444258333  0.5128160491767125
  0.9531401614587418  0.9638530561688091  0.4982799947643142
  1.0140511469453837  0.9960433299846744  0.5068371787524359
  0.5054455892827088  0.9862817006374723  0.0494643879159169
  0.5391336980977763  0.2211794946466835  0.5720065374197810
  0.5747165115622717  0.0517004525772480  0.8926325653020429
  0.5622201548261280  0.3466511421180124  0.7254114014801052
  0.4856474820799799  0.2273007250069145  0.5450178549736873
  0.6832751787995346  0.2470477490988614  0.9414171050171587
  0.7318880941824792  0.2529448933415201  0.9017684861549576
  0.5738227496829891  0.2094414152014017  0.0217207379509828
  0.5215647131861371  0.1759636256386228  0.7912459274256760
  0.7473467090754231  0.0780721764571016  0.0022242499778925
  0.6168544593296308  0.1096799622058341  0.0639112554466469
  0.5802787215849134  0.1381480412597935  0.7080315522396956
  0.5417768467260079  0.0872551867315822  0.7041785839833093
  0.9400917092986089  0.8740929514169594  0.5728416454317311
  0.6216603085645201  0.6460622466935990  0.0615275724121066
  0.6630438544293145  0.6026572859278446  0.3804705173400149
  0.1448394076856114  0.0670705394899768  0.5777241217216667
  0.5203674306328163  0.7389714696140269  0.3424926136793073
  0.3453734631152949  0.3175854448599487  0.6492314989998064
  0.3449402992290057  0.3513215923299035  0.7527828718570578
  0.4783706709143169  0.8593165926428619  0.4088307938176742
  0.4340079318524290  0.9395953667299615  0.4317633032141005
  0.4246103151763246  0.4346805349088356  0.8384591493444198
  0.4368518978567518  0.4235845474830142  0.9003560714397738
  0.9871215353211891  0.0789257135628786  0.2056567560036972
  0.5482418615563706  0.4578298748316480  0.9862229285723410
  0.9457992226545263  0.1839781587342025  0.3273306939258067
  0.1930293340245917  0.1492094953642678  0.5156082019700881
  0.2181099307642027  0.1753116504433729  0.5729577701543030
  0.5768443366346443  0.6255792376939077  0.9389394625286775
  0.0028176288237922  0.2296095747577356  0.2780902742415495
  0.9420608188211363  0.1388175581040234  0.2857032238044769
  0.6569710750616417  0.5102614691178616  0.2958130497758165
  0.7036941768929325  0.4334486330592546  0.2818119322948956
  0.7449776016690284  0.4760278738643349  0.8315270202582614
  0.8875938696521335  0.6730150386295823  0.8618658494270963
  0.1168105228937134  0.9577897219556253  0.2660365295022830
  0.2016716652620319  0.1047013295140253  0.6990098486364565
  0.7293678673466851  0.9539110482557956  0.8122287377821136
  0.8620648874385951  0.7754087122776583  0.6636953561796028
  0.3084378474950107  0.1345728216248765  0.2926110068967022
  0.9626870940726997  0.4233597958830646  0.5006497998572762
  0.5017565096762560  0.4597218672009605  0.0841227705338155
  0.1819085752509355  0.0417278854320436  0.4868313538294611
  0.6063905701512411  0.3633247262109834  0.0268741540694605
  0.2496430606155768  0.9649194266046798  0.6001944680212121
  0.2652983237274680  0.8688821193382076  0.1149525711496163
  0.4140540896928550  0.4481504190313657  0.7787214691444848
  0.2118922276974013  0.8386703914091055  0.1061235550237933
  0.4992737585111703  0.3843397993735473  0.8147636848195799
  0.2344188872784590  0.9404497672656641  0.0454201006989104
  0.6198384527795211  0.4032117690282602  0.9644131423404863
  0.5727789088764836  0.3664967533947784  0.8959033966665692
  0.1295018589513596  0.9257871780507594  0.0728421203095842
  0.2343392899949341  0.9275498926526466  0.1064951671998599
  0.2797231157486629  0.1320007872504508  0.5506584773552846
  0.6813691656991553  0.2044478899708691  0.0635946312856607
  0.2410945281497278  0.0200039908055774  0.5742167316690779
  0.2679849189290756  0.2168556620780296  0.6412018381559018
  0.3777818214225315  0.2476763264874936  0.7296029142722505
  0.3893303803728826  0.2363322141178305  0.7900210511782414
  0.6911178178716321  0.2867506098439698 -0.0104287983135972
  0.4995545072822721  0.2651665323562979  0.8791729553721267
  0.5107783226192194  0.3726099704453255  0.8755736797795277
  0.5547048764027591  0.4442357294000449  0.0471469848269682
  0.6116302338216559  0.5231371928246229  0.1006247328112760
  0.4621075395959229  0.6468268235738109  0.1259756222667422
  0.4542792614695245  0.5373283335573845  0.1024250242397099
  0.3145184090788006  0.2218068329332043  0.6031681453954385
  0.5153708757253778  0.6289456815182083  0.0889214536278616
  0.3082804511214042  0.7430049634713362  0.0476405391380399
  0.6593293562917398  0.5602495454442090  0.9852223406213688
  0.5666608677583752  0.4699233600513718  0.6589014607526770
  0.4858476720499342  0.1224301974514232  0.2897169101550118
  0.5433371649062252  0.5341612603748885  0.6436528790445216
  0.5138845991596167  0.4615266246802899  0.6973199283050274
  0.6234458527570640  0.4877522972238341  0.7832251538170698
  0.5639180003761802  0.4960283068089748  0.7649280355235218
  0.8006779810919168  0.9002217288600426  0.7918428539740745
  0.6103590383587476  0.5303113917324358  0.8242983597490708
  0.7013298984411936  0.5745916563233887  0.8754256087175034
  0.6430417039916007  0.5831683822863982  0.8536980812555697
  0.2185052125586038  0.7447449969181041  0.0206707843335050
  0.7327695383630181  0.5236888235294435  0.8733231897358964
  0.6885517069206798  0.6193177247140258  0.9153910216823010
  0.7322801265848642  0.6671858937947281  0.9797655092408291
  0.1805618181885941  0.8492380028133415  0.0512327008156652
  0.0762762834676328  0.8962561369323757  0.0639648533264732
  0.4503380711419819  0.3290080367627818  0.5703639765758931
  0.5562700086593741  0.5223984334960555  0.1960679470454500
  0.2573925110182258  0.7095027907990290  0.0434872283853816
  0.3613910214805232  0.1752996869999746  0.8479129074127918
  0.4217975031147197  0.1657921145605397  0.8720721388843947
  0.5353589708001527  0.4322658549998936  0.8197433981463710
  0.5730828930555019  0.4824142273684683  0.8245031099000025
  0.4110810272514490  0.5803157441569712  0.0127789395225236
  0.6827463244107066  0.5186515715754741  0.9098482486179958
  0.6217749336358697  0.5224790572935903  0.8882472624403042
  0.3572751786748978  0.6007759596731967  0.0460063770341955
  0.7764181817987250  0.4083767315719095  0.9140073092940006
  0.3583721754851247  0.6468270816882138  0.0880054505648016
  0.3475637508804759  0.2020380728583115  0.5032672106080701
  0.6235026873121355  0.7596646620207679  0.7572961864494883
  0.4112171341049791  0.6594543808744419  0.1603805443033989
  0.3733056744096541  0.1299730380172367  0.8056583589006416
  0.6427488776962542  0.7613698248849949  0.5995940663660703
  0.6978443034931597  0.3555247391816789  0.1361171283454323
  0.7267607797478105  0.8605811799138351  0.6056073759033742
  0.6734238652962907  0.8562530107214372  0.6456112738439336
  0.7523973399284573  0.7837685205678607  0.6828183102350659
  0.6023545368530983  0.4469915634372785  0.1818633303058723
  0.6907109375126655  0.8714210379415164  0.7024306594623460
  0.7773816543597657  0.8902502964808426  0.6715076795653705
  0.3464157620343850  0.5688015781470122  0.3980606960167468
  0.3047484511827262  0.6289689071765557  0.0265072715813000
  0.7885573754377425  0.9456936783624823  0.8355968417744587
  0.9075374218512151  0.2410467918490824  0.9082056692689530
  0.0506126183459798  0.7728150980971603  0.1842566688398989
  0.5669099217897631  0.6470009564751097  0.1592611939778147
  0.4150332987893289  0.7099039506683300  0.2071146819810131
  0.5256682982306556  0.8160162078488363  0.2661417462841989
  0.3690131829203831  0.8328421350815362  0.2695231965770603
  0.7434066210976660  0.7971982926016346  0.6245958224822942
  0.6627380408411568  0.8099333203149753  0.7613061343221041
  0.3251541298659676  0.9264599222246880  0.2274550929045184
  0.7624320648468620  0.8521378739678439  0.7863203151216434
  0.7126130134720787  0.8782618240424953  0.9357715185956098
  0.3278175877165029  0.9453577551992328  0.1671077702687087
  0.7515134957572842  0.9292743784486378  0.9381986697742976