Cr N  Ni
 1.0000000000000000
    38.8588641550299201    0.0000000000000000    0.0000000000000000
     0.0000000000000000   38.8588641550299201    0.0000000000000000
     0.0000000000000000    0.0000000000000000   38.8588641550299201
 Cr  N   Ni 
 1596 106 3725
Direct
  1.0034329989950361  0.7251482754422152  1.0043946786061706
  0.4944131188937226  0.0162452530868802  0.2492447841864945
  0.4262940246768369  0.9887098369752491  0.7032530637867762
  0.7962226451699097  0.8732621987628931  0.4555872379610889
  0.3659999756917363  0.9951426420416117  0.6819822919411839
  0.3867370361786183  0.9033291478509646  0.5956928237215277
  0.9020956214583840  0.3073324239004160  0.1643517922045782
  0.7805835155320370  0.6779594289791684  0.1071360894271687
  0.0245550992873037  0.4294081906231510  0.7210373760457278
  0.6860735824092702  0.8630720208646908  0.2494228839299162
  0.3520901707697773  0.7240929351423028  0.7417072488740587
  0.9929791605860097  0.4981834083854261  0.6422979687193198
  0.6450363691192446  0.9350519937494560  0.2647630744979159
  0.7516430090518744  0.9666146322541308  0.4114502962151887
  0.3221125106954298  0.8263443656363428  0.7628262104917527
  0.2749197101511260  0.6583419178158919  0.8380576892616970
  0.2058356394367836  0.7113083001224156  0.8594407646261615
  0.9722676785323557  0.5734003484122684  0.3924377296638347
  0.3425933791458761  0.6799673043605376  0.9625743503097077
  0.9807104944911608  0.6364003386605276  0.3722478987006968
  0.2456662782403984  0.6311001950971559  1.0029719376964374
  0.2674432055922298  0.6523529608290187  0.5756936799397464
  0.6824704566021923  0.8162997822063104  0.2035028527797945
  0.9084112023008383  0.3738571091658531  0.1478536861241735
  0.4657892076722060  0.7572057686584548  0.8208665693994522
  0.5328616912164874  0.9015171837127564  0.8678366854874699
  0.2553397232082041  0.7482499715976969  0.9251342482351814
  0.5035296742579143  0.8061495013101914  0.8220078082910728
  0.2967755081241710  0.8011257863277134  0.9260065780995869
  0.4317315099036870  0.8255143523283737  0.7415659137689848
  0.4911791229056390  0.8187120077410314  0.7613582116084903
  0.7894180458486282  0.8164586984910959  0.2388852038505813
  0.3220035061068614  0.7807608927148841  0.9918073970190326
  0.3307982489482475  0.7466719495245714  0.6161336529266122
  0.3178631317957966  0.8214965442967460  0.0342844236601791
  0.9737495190709390  0.5248706337796217  0.5193770555845862
  0.4389161317533803  0.6986416851084256  0.5523098173944475
  0.3372156407556355  0.7001418928239919  0.5741629791078475
  0.1294330292649284  0.6267318126095321  0.7590551853362861
  0.0609448648427979  0.6458773694874623  0.6773391485168866
  0.0918861241221851  0.5768050097682645  0.7586825577416433
  0.1851291509045190  0.7680559070442757  0.8406011736447411
  0.1362426999781037  0.7292543093453838  0.7740384372782483
  0.9948020063654549  0.7411044851006934  0.3959435270980169
  0.6019819458095726  0.8799161764101306  0.9491681785343759
  0.3696308866056877  0.9469536093658945  0.9742566296704401
  0.2625358238724845  0.8002503425280758  0.6349648183009118
  0.3468770925909412  0.7241638863278658  1.0073074279222751
  0.0061354167839761  0.8937382347742779  0.2431914546738786
  0.0119129352446147  0.3631774269748159  0.0150772813022757
  0.6838668626653257  0.8316317676537508  0.1432252812516819
  0.5307695971162333  0.8783974156724181  0.2490429857618505
  0.0448426479060490  0.1277458146466718  0.9223962314019073
  0.0728634719232710  0.2345965404392374  0.9081607965363826
  0.0155861378730683  0.2918329113070600  0.6043234007435750
  0.0676506127721341  0.3649826988341979  0.7670070548215492
  0.1676321914898945  0.3461346262443965  1.0194404853941450
  0.6293531037862222  0.7864990148834008  0.1926794653315484
  0.0593723104681195  0.2759092473575704  0.9997479622054255
  0.6262912744613031  0.7572904975245487  0.0851431250093869
  0.7264312948586319  0.6796069338870200  0.2035396007635006
  0.6209718706803032  0.6779091825170799  0.1671632854148291
  0.0465172992920353  0.4058192609959678  0.8426147927595018
  0.5472531333979931  0.9102034938682835  0.0376619761082201
  0.7212465417323841  0.5839060881315481  0.1193538902099929
  0.1896609573335575  0.3503182614764817  0.8073265743313800
  0.6853654256432590  0.9087012336835799  0.0618991261984793
  0.4197418703829140  0.8505818289627138  0.1092830034497747
  0.4040733778288758  0.0283532847428888  0.7820531927437326
  0.2433878696077241  0.4576749337366326  0.7819952729238245
  0.1717199992934403  0.7979181664264871  0.5544692972937943
  0.9135356056741385  0.3910540069674336  0.0869925210621876
  0.1098175826594592  0.5540264880613454  0.8794948747612034
  0.2326993986472382  0.7370955863691955  0.6964695199764582
  0.5769486446583665  0.8337933504326167  0.1072445634528245
  0.5883452536583338  0.9251606175736055  0.1952038662904321
  0.1833683290759310  0.6995011664836900  0.6294246059162215
  0.9012207638224138  0.3467271295782231  0.0461644991598569
  0.0824185952578697  0.3998849753006347  0.5427156078580738
  0.7329655607300356  0.8144668149830645  0.1076849950600032
  0.6310655740626336  0.8653124246441765  0.1123461496649299
  0.6373453461882831  0.8925671576733337  0.2200407682924505
  0.0646881379849266  0.3275915819667156  0.6619594707491593
  0.8556200542938032  0.2370724868138855 -0.0434985604017218
  0.4050853215324610  0.0470496226709768 -0.0066504209233889
  0.6477539854712264  0.9705151161692298  0.1394501315183770
  0.4641675632816167  0.6748600587361344  1.0016842149864384
  0.3503569259061744  0.0672886810109964  0.0409407931246932
  0.3618303087405240  0.6169101120649713  0.9798295493448427
  0.3477809018144408  0.6398651625575361  0.9189739904535271
  0.0657078777077767  0.7710424781917310  0.5326301383075613
  0.3272777512612260  0.9784518662094154  0.7875439348058608
  0.5622916280248552  1.0025477794903317  0.1268382714515484
  0.3265493497762648  0.9459664011505123  0.6808313828747290
  0.0791018302328744  0.3188587401252659  0.7223014930472922
  0.5519929504791959  0.9512818675993995  0.0805912354018799
  0.9663339412566265  0.2340547637529579  0.9280181019921113
  0.9732036489749821  0.7634150155973111  0.9312902657658184
  0.9328332726228420  0.7116193425172735  0.9283817173438836
  0.8882599082272666  0.7256945016451727  0.1884869625983264
  0.0537866558462498  0.0561869499326904  0.7179679236065493
  0.9369946607761575  0.5703970602856953  0.0277476763938332
  0.0174425183192392  0.0080087462487999  0.8649843088548279
  0.8543848079183228  0.9638866607018801  0.4546535847196438
  0.9054288632688573  0.9501608448086477  0.4174653353724888
  0.9220476539194846  0.9370291464505789  0.5530514879760356
  0.0700593638698561  1.0003853158226521  0.4078241422108385
  0.1817434070313940  0.2314521551606785  0.8886590222708426
  0.8095219323508255  0.4177358140637961  0.1551500597414850
  0.8102992182685331  0.4493580951937795  0.2580343969710838
  0.1157036498914705  0.9521370915108096  0.4970282352344268
  0.9104024864767076  0.3577783743639420  0.2092058993855066
  0.1414713182930995  0.1452221126041345  0.7821018654146702
  0.1612468241082956  0.9667649552711112  0.5682759712209517
  0.8615810704912090  0.4193067668564642  0.2871251650057305
  0.8333646414488909  0.6139074226973211  0.0287729454017086
  0.3474399201606192  0.5180778291823245  0.9631923129298929
  0.6693541245015370  0.5660769338653781  0.0468575269943821
  0.0533408812227018  0.4896251475289753  0.6605995689288411
  0.9732912270610886  0.5001784277252509  0.9620405787917007
  0.3071591583087654  0.0010601946077575  0.6610952737014613
  0.1705461071855010  0.8494154825031919  0.5999924253029005
  0.7686978531067741  0.4432423151017428  0.0135026515345216
  0.2850129156131795  0.3993904519372745  0.0350221131582299
  0.9077445077976853  0.3318916640494964  0.7239874364485094
  0.9797843865185645  0.3101755788083109  0.8053241663242751
  0.9470992647608238  0.3815291516680208  0.7254770427378971
  0.9858641215286870  0.4130962855103880  0.8227407687306569
  0.9972363029688486  0.4019353875192975  0.8829295370313919
  0.7429303756752939  0.0915392815190359  0.5456014901165342
  0.5669993951965026  0.0653806731321420  0.1117729835856208
  0.5657152667510922  0.0848082701510587  0.0203818794275386
  0.9255391705477634  0.4212654459257916  0.8009941661598659
  0.5146687104545616  0.0775630133817775  0.1483202989679522
  0.7679615081370438  0.2055798435078559  0.5889878536733878
  0.0631648638449434  0.8363772850141599  0.0850934363198671
  0.4614577995140590  0.0857277482284985  0.0137384548736538
  0.4103527763552086  0.1123550926187316 -0.0084476848087400
  0.3065763252883941  0.1412751704622507  0.0649366283787858
  0.8932013121355700  0.0588529021832052  0.7735174434011323
  0.9401045707774980  0.0983694489299419  0.8393105030638394
  0.3652614473308534  0.2541885670915284 -0.0026102420808672
  0.9906088619868674  0.0960915615706320  0.9548785243478017
  0.9119769266480100  0.1995497347871587  0.8628399420711705
  0.9924807815323262  0.1617586598508286  0.9542599811698286
  0.8544244785126991  0.0756698395030452 -0.0196896436074809
  0.8699084036224443 -0.0333366270098671  0.9677279146566319
  0.1051821382747649  0.3769232586336339  0.6656538221271070
  0.9281411693363358  0.4700011054372862  0.5174001815849262
  0.8852030633599656  0.3888353841724318  0.7054175685433643
  0.7558306423157319  0.0322774062524066  0.5651674968746507
  0.2437783081751085  0.4816846696462305 -0.0055789603119266
  0.8231729206850812  0.0842304629840423  0.6882619212376094
  0.8629568177249051  0.1305368282993199  0.6930073676540720
  0.8720379997994921  0.1172064669552818  0.7542870196193787
  0.9383154355939274  0.2279108247854029  0.7000807883307151
  0.0706674952998707  0.2003059323209448  0.8028812382428283
  0.0643694424619350  0.7774435075945176  0.0239241965771599
  0.8347462810793482  0.1075419212079700  0.3714723341054562
  0.8688334057875804  0.0439148740921209  0.3717796023492121
  0.9032752776718044  0.6128242236057747  0.6495623378213334
  0.7927322944739458  0.6202436841751245  0.6679710196859349
  0.6889647446484173  0.1886742765037265  0.3560799936558270
  0.9338908556895689  0.6920524581082439  0.7628384215639457
  0.6391936585557076  0.2664357975163493  0.3740257756803249
  0.5911881237082384  0.3887883235442614  0.4313037077720395
  0.6009586148348619  0.4519116048362734  0.4060739759120790
  0.8124550125458504  0.5600266902210448  0.6819992545335275
  0.8392259794882303  0.6509158012535025  0.7346665051026896
  0.5588132139372529  0.5228627107331768  0.4853053061112562
  0.5033335823697795  0.5556875284937390  0.3977444049336097
  0.5058463083936022  0.6013325190082354  0.4394005138681387
  0.4664749784723559  0.6733352176073507  0.4575081359855253
  0.1811247564042222  0.4322921909527204  0.1063719841274041
  0.3730477260032270  0.2772212438665947  0.1066343681579847
  0.9514782679945186  0.2481429723066135  0.8651249878276687
  0.7824854230393210  0.0931043548893758  0.8973841597874970
  0.7121608944310923  0.1444619807067140  0.9187440469483074
  0.8037335091209031  0.0361916178927264  0.9164582004836949
  0.5314300698029876  0.2626239351454079  0.1073829897884701
  0.9756847857810395  0.6706926467013734  0.4722279151541063
  0.4295584228450057  0.2919289201627225  0.1760628015329622
  0.8446063595997046  0.0261751498805282  0.7053307766886118
  0.5190723053142210  0.1593692202122353  0.0772545713223321
  0.9007903136058472  0.1789736042190672  0.6968001301950574
  0.3622292821177333  0.1723588586599785  0.0744125933541335
  0.8395754092973814  0.2198218949978133  0.7798218249572613
  0.9419728733108109  0.4603127536262770  0.5793448870363399
  0.4738571159129130  0.2522021272801290  0.0363372053872641
  0.1419026616346094  0.5714333844743552  0.1051665713671385
  0.1872579889588802  0.4939742590060707  0.0857879472823927
  0.8671603703647590  0.1850592084887275  0.5207519116650285
  0.8519843575072730  0.1428505299282579  0.6317804186520904
  0.7618179160008421  0.0767631388702146  0.4484344176211083
  0.6769886937245230  0.1442792710393163  0.4714816130370942
  0.9992613677585328  0.2210733412394691  0.7145877731265139
  0.2820987918597980  0.3557646730694515  0.9940841394518255
  0.9391638774441775  0.6276309432067505  0.5427753537317058
  0.3323188720237394  0.3836641442025221  0.2272271180389290
  0.9724658736499727  0.5566772334062418  0.6237014517490669
  0.4601599045469460  0.8458239790434657  0.0673886162158654
  0.8476431577214874  0.2811195336218341  0.3841087844073015
  0.7734915235988541  0.3924044502539318  0.7276942314646463
  0.7927614224639966  0.1868460505295402  0.3917518088675371
  0.7562150864651807  0.2842228597212211  0.7412956878013003
  0.6636004192253611  0.3626869579704731  0.6451220160526610
  0.6527358163010200  0.3780674297090578  0.5840180448085615
  0.6723027127483634  0.3204042908869221  0.5979306672298039
  0.0985651522162655  0.6665303669600526  0.0604441219222637
  0.9121255348346647  0.0115797121764676  0.3998106809751750
  0.9723582219119693  0.6104850802883450  0.9083959489337766
  0.3183638963518144  0.8615657457064302  0.4783871579975984
  0.8551150953667819  0.4721363325199495  0.8188401860677599
  0.3680847285254298  0.7790464805536625  0.4522166336553364
  0.3075004269893787  0.7040187072129220  0.3981070552957684
  0.8468054241734693  0.3707772912819681  0.8065637692135865
  0.6681421240908796  0.1957971456222946  0.6698692208566296
  0.2580884031923932  0.7549683157331334  0.3130685861950415
  0.7518153711041811  0.1335507287999972  0.7083049759179970
  0.6794500000329651  0.1512085775905205  0.6233013726564475
  0.2075558842848191  0.7698761061118826  0.3484496243283718
  0.5177937492263669  0.7064085636992384  0.0086141136018594
  0.5201057475775390  0.7538413447081461  0.0564717099879868
  0.6920779099934122  0.3512366952954665  0.4284221218773374
  0.9269972684893393  0.5712307231126068  0.8410935235151468
  0.2670959006547384  0.8917607390078209  0.4516002058045465
  0.9341876488866135  0.6765291311076760  0.5955178763956909
  0.2208713086783797  0.9229368394194695  0.4274640244171478
  0.1631382283319661  0.8906270476524224  0.4167073576795436
  0.8138341253018827  0.6896727362477654  0.4909283447863000
  0.7747347570949372  0.5105043331468198  0.6760467322379383
  0.8845907387508046  0.5359476207453200  0.7640692738501691
  0.9467761231692128  0.8308124032824010  0.5285115166771296
  0.8219475549567532  0.5432688102796275  0.7407921717466472
  0.8405868616485521  0.1951117178774172  0.4631468642115380
  0.7224182870616243  0.3555598089287316  0.6636187719100115
  0.6960427135961511  0.2899244601237239  0.7213503151273739
  0.6364909311431560  0.2977547065720151  0.7002837797054123
  0.8170849128925269  0.1087006963935234  0.4576251598782519
  0.5844187447714915  0.2604577826762230  0.6342259141334629
  0.8618932590849933  0.0744683474900977  0.4785526108691962
  0.5944677058382303  0.2195376408840286  0.5931642791725289
  0.5785238706961552  0.2391326781729360  0.5277684731086499
  0.5580691232764464  0.4861652325884179  0.6029338035737783
  0.8804436609962699  0.5567135798831155  0.9462986550249065
  0.6577653279690072  0.5028503255381616  0.5233728061190461
  0.8548949754539905  0.5101962040033617  0.9183423848870339
  0.9159384943914876  0.2864760143793953  0.6823856112957662
  0.8465371546589272  0.3393526915502458  0.7036766236705516
  0.9209183005476683  0.3528076280791340  0.8895114645193399
  0.0066077271068292  0.5237566729292125  0.8091573415669917
  0.7037958507876483 -0.0069964710484967  0.8906307434502084
  0.4010695563092828  0.5960108867622314  0.4103893602125088
  0.3943954580796983  0.5070973554541510  0.3193013946670336
  0.6741208940478671  0.0947689476872504  0.9163810163691541
  0.6628284079531582  0.1079014218412075  0.8540684730726463
  0.6615221388892339  0.0725828547401239  0.7474335661022028
  0.4973560314885249  0.4338744502144487  0.4313940749444250
  0.6245927368607658  0.0240110255864507  0.7441592759745415
  0.8404952482657914  0.2521605864422475  0.8859465124242575
  0.8405476044387006  0.2394564724010996  0.5021337560116726
  0.7594052361781646  0.1770867129688358  0.5366586247001635
  0.7519763467339685  0.1962288770121592  0.9208771864531200
  0.6916635792639345  0.1704221048074128  0.7948607622038475
  0.7119919154218611  0.1126712504175130  0.8144734468577096
  0.6316903829752448  0.1768943952981359  0.7736779320067863
  0.7117385056623270  0.0777177786062025  0.7034591248226620
  0.6821182376542482  0.1563732986602069  0.2473224478198213
  0.5293736811223416 -0.0020724753131531  0.6215778937205625
  0.4621740975253342  0.0050770834439988  0.5996349954444804
  0.5410234759176787 -0.0490162570955453  0.5775600357415086
 -0.0040587783548920  0.7574172673881001  0.1080765279334359
  0.8455310533436948  0.3051987741501825  0.6011954792215362
  0.2117551922938156  0.8582689315583244  0.4405689237454631
  0.1692114974383412  0.4408868275450617  0.6003540668514191
  0.0477440672085107  0.7245706589446115  0.1372089364409356
  0.9353422236550949  0.3929779179163095  0.6660133736099912
  0.2015175450072382  0.6652235695837244  0.0955075296123661
  0.9329338710733094  0.3562210476071927  0.5623008188388336
  0.8304744482415689  0.3043928875594699  0.5457226865887637
  0.8530018963813142  0.2660846636119342  0.4402050416786049
  0.5749568107654803  0.1705208396826612  0.1485835846848212
  0.4716455678721795  0.7886785160175694  0.9261852568497748
  0.5962863913918067  0.9818047775311233  0.4103474449673802
  0.3452750791345959  0.8442346648069118 -0.0085158225813615
  0.4925840862324707  0.9209139266272676  0.0745424199601504
  0.8342487076203366  0.7099125880749280  0.3451130306823627
  0.7309281023826257  0.8270898112685031  0.5062961354471960
  0.7895396700453391  0.8303761360432586  0.1786372475120368
  0.3377862216984391  1.0052574445181466  0.9909791244413629
  0.8524103137371255  0.9202862918858179  0.4059302254118629
  0.4468085419395989  0.9591958754184872  0.0457110587977995
  0.3780952299369956  0.9997673309266149  0.9475463578514560
  0.3395362060383416  0.9680383943154811  0.8482339954635609
  0.9762031598058811  0.4792505965839652  0.0782357079044898
  0.2140765827195258  0.8301647386483303  0.7830628907221219
  0.6246942517158867  0.6622079359357143  0.0026785536536216
  0.5628247606813127  0.0262434004225874  0.0581344492111205
  0.7705418021325001  0.0374104060257442  0.3194011435886255
  0.1845096544309062  0.7339233719875706  0.7347129509131199
  0.8781919320775985  0.5727006074353911  0.1232438101960039
  0.0762100056677438  0.7047472840241500  0.6429755608270749
  0.1251950227602358  0.7557877140577404  0.5565898660427305
  0.7903178436720509  0.8070879774105322  0.4668785599695711
  0.3877044083022561  0.6537889425805035  0.8172132904034645
  0.7275907114183814  0.7090817123662516  0.3085190143773940
  0.9434839730196674  0.1706628935703124  0.1602328193902494
  0.1428494652342573  0.8497802082362245  0.6984324263532798
  0.8244402796485973  0.7569036254698713  0.9831540480150288
  0.0543230871042757  0.2212722761549845  0.6782976874075143
  0.4803958662650196  0.8936737569026013  0.2856752206111243
  0.1008324300492059  0.2609048686089000  0.7425309094793603
  0.4260058842061653  0.8806446005855337  0.2163381825652989
  0.2186289473735300  0.2470493926021630  0.7853157912394040
  0.1590385786272896  0.2531265613977985  0.7633822186369330
  0.4295063501847284  0.9093035556556731  0.3229019309422388
  0.8430321427190327  0.6858456538401343  0.0122729205218751
  0.2515280278874722  0.1787729984609106  0.8660773582695835
  0.2689252126005016  0.2862923964124368  0.8487865876416536
  0.1120563788418395  0.8629478697915212  0.5776549103449730
  0.2872107910507620  0.3769688387525100  0.9256058944240372
  0.3768252883508401  0.7013569723191230  0.8594290923903827
  0.3256399009205873  0.3125576820839444  0.9840614992719932
  0.0739513203207846  0.8000590453552939  0.6406977397557586
  0.8571803219333023  0.3271518144014730  0.7642091435671406
  0.0014258071877138  0.8669560602765450  0.5977671328341754
  1.0077985263373466  0.8163840559404684  0.5525914498584028
  0.0055040271814434  0.0381395718514335  0.5545589994956899
  0.0740742178585657  0.0365702642529249  0.8443008077182761
  0.1154173414274963  0.0853807239639832  0.8426139801080156
  0.7174402603008099  0.6021667116633292  0.2837510911397633
  0.0210709075655695  0.1621087366951879  0.7372895132072105
  0.5376681462893117 -0.0141492287524994  0.6843066342844427
  0.9778962234706275  0.7444809183737543  0.6781372896205318
  1.0192804223991498  0.4207834757803447  0.9961015765645158
  0.3017062584837008  0.6614229248388585  0.3545938992901720
  0.7655084929698496  0.9257045444333976  0.0056302836233122
  0.5894481876782924  0.3089624714939869  0.2831142868356059
  0.6812062257835174  0.2138205026540748  0.8375052413928149
  0.6531225573748354  0.9194817820852267  0.0171847645744602
  0.8207787045057474  0.3095047333803685  0.8667918678557872
  0.3502106979512282  0.6000821472074914  0.2759634211026143
  0.9085678691046631  0.3639235186636564  0.8277653654647638
  0.3982895078062156  0.5526483133930832  0.3656111353531872
  0.7459546149188390  0.3273848416523771  0.7866769173485941
  0.3482714356654080  0.5843405358188564  0.3374880069637421
  0.8277836861798256  0.2331980786720283  0.7189704583987306
  0.8837655596234207  0.6327147730607794  0.1020979597150991
  0.4435176713506425  0.4461822430397408  0.2411985956080730
  0.3410654655886921  0.5018601324504343  0.8012502947294945
  0.3568865806513943  0.6105601109805978  0.7862862056021315
  0.4423927435456165  0.8951419990901073  0.0326849726127437
  0.2692642128469541  0.5550011246867719  0.8214794943304695
  0.4293016501908756  0.9091349931953696  0.0883050108879055
  0.0877043599859647  0.6677769014394884  0.5109969738468764
  0.0997872991411051  0.6563871246371210  0.5751634725983042
  0.8387208998197188  0.7313779024447957  0.4514135817151876
  0.4991801357351283  0.8698797348194964  1.0275765755185846
  0.3223517759446187  0.8622991121943464  0.8676557114816437
  0.1410128603031592  0.5146598753545631  0.5176648439646588
  0.7179069597718885  0.8779240827171656  0.5437514787652801
  0.1902423549805011  0.5498057802248852  0.5778145484983735
  0.2975007466552759  0.5830960024911526  0.6588292068326258
  0.9755049930841115  0.4834743118090077  0.4752774449660679
  0.2490232201890142  0.5781589603989673  0.6981230232630081
  0.8347673989484334  0.7107066565987175  0.1152750241490277
  0.0861855529408374  0.6911883187654716  0.7072383746799048
  0.9201932602165517  0.5240970374429691  0.5000851098862905
  0.3242746932179764  0.6626091361634578  0.7976836614903062
  0.3374251636730609  0.6508708714695891  0.8563555886165194
  0.8734062496807942  0.6284119085770464  0.4023273456918915
  0.2898310459923661  0.9292272305391688  0.7856669762815079
  0.6917467624600935  0.2615290704233708  0.6133176509924804
  0.7565366018109302  0.2548420251293407  0.6356692408671678
  0.7679717769115304  0.4824363247771253  0.5144926768494618
  0.7162226265697184  0.1993744134760484  0.6310923002371090
  0.7034181024537428  0.2067995260674733  0.5668244387273610
  0.6634205605169148  0.1642645167099989  0.5631301975286098
  0.3303364061763300  0.3681351609732789  0.2858772554293186
  0.5387401514521631  0.3378982054296143  0.2558175192458721
  0.0507831643303750  0.4404316332378376  0.9452931464190596
  0.9283175090578429  0.4538868673823592  0.9056997023067194
  0.9171162448428559  0.4650118022948431  0.8422134901967302
  0.4858165170131883  0.3082241831395652  0.2433686166660036
  0.7289874611118559  0.1889109785351541  0.6917588609659971
  0.2132495803854130  0.8309506820153351  0.3330497084686310
  0.4070344416353462  0.6593253842678418  0.3885512258124984
  0.6127311530988301  0.2107506237009903  0.4949837713307189
  0.5807572914804806  0.0004051111628714  0.5798311650170493
  0.7442732194311976  0.2677800841519081  0.4131295380493181
  0.7297481143330353  0.1525999757663247  0.5840052136006952
  0.4831173902945753  0.3795071941859122  0.4612037756249615
  0.7847191385885777  0.4958276552149046  0.7354671001301574
  0.7842031364028846  0.4645092531494425  0.6344118082031206
  0.6913583835793066  0.4291898472474411  0.5881384691842605
  0.7461491873464839  0.3722759486026804  0.4997170465842429
  0.6026881909934828  0.3439679227685204  0.5148298692138326
  0.0641616233004790  0.5131856855608585  0.8204208157939968
  0.3644336139711341  0.4427854154574247  0.8215573721814713
  0.8954852525731251  0.8171417734112132  0.2802142509765968
  0.4162081711804546  0.7398866842911865  0.0830872422208659
  0.1045556990869470  0.8654214641069613  0.9061584916126201
  0.4172016291585887  0.7887232498370709  0.1258180879561363
  0.9100070087904950  0.8999923293141744  0.1285111215450734
  0.8461818392880930  0.2996568140641773  0.0868432481669441
  0.4273475370916617  0.4727066308880222  0.9429165331089300
  0.9915565850671836  0.6481410337144206  0.0819005670869668
  0.9384464777065501  0.6644758735703414  0.1132212825130157
  0.0744116823364619  0.8457797406386786  1.0178615916599805
  0.1045595304918386  0.8323101804637162  0.7995082712596238
  0.2946364095113990  0.9979371460955879  0.1578295890600734
  0.8375872255272327  0.7796250359982849  0.0917131096838755
  0.8725799662059344  0.0143407721464428  0.0084070437810873
  0.0006003686186303  0.8207299044112238  0.0887561929829269
  0.3785884189295399  0.5530008714233118  0.8033112169941541
  0.3024482731443646  0.4857517201926809  0.9011578501361062
  0.2327574919615883  0.8369365245936887  1.0153693241852657
  0.4517388901262487  0.5318155093670883  0.8833949825367844
  0.8878149086902610  0.1040004693580796  0.0407060098610741
  0.8141573221279522  0.0236683020603206  0.9806008318071218
  0.3014713474036956  0.4549553146530925  0.4722509076410030
  0.9452701489255715  0.1875516188496297  0.0992455379390516
  0.8780702180495620  0.0474246411571985  0.0668569022762060
  0.1920397985784680  0.9204436053901942  0.8697523066362718
  0.9243790692296331  0.8602367464509998  0.0295830074361032
  0.0833192647452630  0.1179893897348955  0.6582315305459832
  0.8530792167719277  0.9073433793767458  0.2330530306051094
  0.1506733249370422  0.7366954403367056  1.0049037583310434
  0.0507492245637313  0.7412551401097862  0.0769509794882704
  0.1654446787799100  0.3368008387921986  0.5821273118442832
  0.4772009045182972  0.5352810541939580  0.6228022658726117
  0.5201479732028528  0.7404759697578335  0.1163804786787189
  0.8187614508217981  0.9701824511585944  0.0078341543468650
  0.8136603517739696  0.0677854791399768  0.0261035663914081
  0.9801597752029667  0.0209567939968787  0.9921857903967940
  0.4723468455756046  0.8029324800366383  0.1946354290571084
  0.8626800150932776  0.9617986756067189  0.2090565291875981
  0.2681792858427926  0.9442078474698047  0.9994182871843897
  0.8666429270270610  0.9731768959380940  0.1422290200799037
  0.3159263104167144  0.4038325092743796  0.7606501653903075
  0.2462591205783025  0.9588789518393260  0.9335749045071280
  0.2724389137509000  0.9171837579931862  0.1609240242704725
  0.8872143335852567  0.7394316191609438  0.1266471824009121
  0.2653324231349580  0.9021843502729101  0.9536264813515282
  0.9398507116517433  0.1258774262630382  0.1158658318910370
  0.3583548190771291  0.5421019208971615  0.5783063791517092
  0.8931548993675628  0.1566029120150365  0.0925962857602296
  0.4265909607302045  0.5869631757922066  0.8798927229314366
  0.7685101551830372  0.5099805897179224  0.1073233696366927
  0.4137861999424545  0.6374269451249580  0.9964108332541820
 -0.0207836399041000  0.0327839172874905  0.9282104887877098
  0.8058504000259757  0.5086198418196720  0.9537314837952124
  0.8700411996829268  0.4631099230902062  0.1008178548360068
  0.1496858562396815  0.2997525619939929  0.8063660256926319
  0.7824466770008328  0.6945858291229955  0.0480613238323915
  0.9626180055099837  0.3579266635060351  0.1106789458124529
  0.3694771709575970  0.0623863778977933  0.5927152614692086
  0.0129403472250069  0.1753468715825520  0.6766308137197889
  0.9010209825309989  0.3250537583945669  0.0996261439286584
  0.8945906990513850  0.2865181065744595  0.0370490344439466
  0.6794713435685574  0.7841501630676864  0.0983513258940024
  0.6746966434000908  0.7960132522348391  0.0379730063819197
  0.9957917378574104  0.1715913950275001  0.0652589953061406
  0.0895422851334932  0.3424854244779406  0.8867383024536412
  0.6507088092250348  0.8059554796170033 -0.0215557027830633
  0.5001013945461785  0.9689080941944889  0.1166973034440456
  0.1402861115040852  0.4922961119513449  0.9617867668643328
  0.1591020925999957  0.4380091591589934  0.9259135872275627
  0.0979491637585047  0.4442897577788028  0.9059039535438167
  0.8230994394777769  0.5403716351413445  0.1148171893714843
  0.1262309235905526  0.0728954126474055  0.9098545803209557
  0.3873582986428566  0.6377634238492463  0.6215619421931903
  0.1557766414094093  0.4025815628225118  0.8216915071609995
  0.2084955684029629  0.3260887790574051  0.9294205045323795
  0.6258391913856070  0.6110921660822231  0.7227592473805243
  0.5285669492579805  0.5702574130233733  0.6898515192952226
  0.9796350434473191  0.0058889117671494  0.0550438218400751
  0.0552474928789894  0.3048615210407455  0.5003839897463469
  0.5366212990534786  0.7042823438119874  0.7953005261926126
  0.8296592950689573  0.8504235814474075  0.0704447774209412
  0.4992708609212038  0.6536663359784362  0.7933282858552519
  0.9674489247893596  0.9249253674387642  0.1381842410790792
  0.0756536697493738  0.7717529596414743  0.8559449046342281
  0.0549501688383800  0.8269492809313208  0.8384731049345399
  0.4374288864384195  0.6608744796838284  0.7759925611055980
  0.1161098017748239  0.2944513753023647  0.5202089541503220
  0.2361852110259225  0.3194507311856284  0.6647449864355934