Cr N  Ni
 1.0000000000000000
    38.8588641550299201    0.0000000000000000    0.0000000000000000
     0.0000000000000000   38.8588641550299201    0.0000000000000000
     0.0000000000000000    0.0000000000000000   38.8588641550299201
 Cr  N   Ni 
 1596 106 3725
Direct
  1.0035226685671583  0.7273383279478641  1.0049015180919763
  0.1922662031858685  0.0206356823579048  0.0638629190542112
  0.0634366426381240  0.3098196864782512  0.1050147910125346
  0.0032845821670826  0.2337192453514770  0.0518112727147065
  0.2353953022906040  0.5224908899658746  0.3206768376837486
  0.0979665191879607  0.1267828977999530  0.0559836106728064
  0.2419465563752963  0.5851456185591533  0.3028862291677477
  0.0386792524967471  0.0531917045622787  0.0018196380433865
  0.1816767810452477  0.4930706167956737  0.3106570960719490
  0.1589309830730433  0.1954086066913588  0.3407413629648726
  0.5712438303123573  0.2146151910409708  0.8579820813563136
  0.2536415063506997  0.1046700008490112  0.2848913618666764
  0.0382058741966159  0.0296611480370012  0.2936340187547972
  0.0842194084353027  0.1516092924290847  0.4805864782659222
  0.3480517920183447  0.5555556633692897  0.4587617536723561
  0.3250148735303098  0.3350879742388703  0.4086305340935391
  0.0168326092395648  0.9878246061840508  0.3354843722862059
  0.3351832127220502  0.0762373428007975  0.3022313513668364
  0.0380418375772722  0.5724707860529128  0.0702142882742562
  0.3224890645405996  0.2748500157023509  0.2012904651810055
  0.3856586630013203  0.0440510308973648  0.3252406701305571
  0.5933844133461598  0.1575486139226533  0.8765003127146912
  0.0333747814504515  0.5881783493352521  0.2327158612603373
  0.9341003542467069  0.3425217942295833  0.9483461283974260
  0.4638103733590129  0.0555959002076750  0.9110076651158081
  0.8609752482231988  0.9231781800844280  0.5277393186078028
  0.8939775969723306  0.9825445441237428  0.5291496941514570
  0.7571636997973055  0.9263346277904843  0.5458066820695926
  0.3671173982070473  0.7985254811288791  0.3935426806958920
  0.5631369492352640  0.5689330495099294  0.4722015953276834
  0.3637697649137208  0.7530976969240967  0.3470324413078997
  0.5089580811284665  0.1894728620218497  0.7308712287611632
  0.3638856934620575  0.7710666109907598  0.2863290783340628
  0.3100707298724212  0.7564643229792954  0.2151602535189853
  0.6040093461284869  0.3691145787956790  0.6256254438176905
  0.5058828800248886  0.3261715786655662  0.5968688012362884
  0.2676215173262828  0.8612054025512924  0.3441581084215291
  0.6730885058219475  0.3468346788899894  0.7080255204002794
  0.5396989530327749  0.4041454848063233  0.7113175838608276
  0.2233744495222962  0.9408216208238150  0.3622293794940292
  0.2718321672891028  0.9234261161602678  0.3278733763022539
  0.6709735482100742  0.3755221643968653  0.8167737145512503
  0.6582760713936355  0.4193754660457488  0.8638227624904625
  0.8302605011284782  0.0354475328816877  0.2204584257940270
  0.7056877948781323  0.4609789641176741  0.9289712285902608
  0.6471113335117430  0.3876622742729663  0.3339072963698491
  0.3829124093725557  0.0000173696886664  0.2815816010203861
  0.2797958594725110  0.3681611059257969  0.1577615495281730
  0.8192408915287148  0.9080300266843134  0.5707869144990820
  0.0003832224990827  0.8524039327173015  0.1961938404074244
  0.7241597634720963  0.0322083854685969  0.6607851656939394
  0.7566246795221129  0.9814188506338276  0.6006970633550544
  0.0491618131849968  0.7742387270518102  0.1810464837764945
  0.2010477991900803  0.6950765193969086  0.1989026268944718
  0.9053043630563606  0.2437434519086488  0.9150511554751245
  0.8518294676902005  0.2065177930721001  0.8430557354636672
  0.8799609817997474  0.2686330771101655  0.7840443399650289
  0.8001562280721938  0.1687545536399061  0.7790849496952871
  0.2450467188755895  0.5702447027004522  0.1377661782981811
  0.9095351784832905  0.1659127949501257  0.7586273010323070
  0.2423957874484101  0.5541169346294355  0.1979275546592245
  0.8006873094359626  0.1378613060193330  0.6737752151773071
  0.2924140361539465  0.4908967714649730  0.1227166992918325
  0.7535284909957889  0.0961474562618635  0.6048651491473458
  0.3387832906751195  0.4121805851358120  0.1051144863846449
  0.6573282639125534  0.0548873846279834  0.4869742842459056
  0.3871693518405268  0.3836504672401994  0.1318751416909315
  0.6370919727936537  0.0099410569791836  0.5347097000022834
  0.9497729382417898  0.3996414856859133  0.9236610597807688
  0.3315875793420138  0.3534737845847287  0.1227640892654773
  0.0794532529606741  0.3534258185257462  0.8266641267330478
  0.6146402673120088  0.0359457102783065  0.6828501291061593
  0.6429501796474938  0.9993183797417122  0.2486044020213578
  0.7810356784873183  0.7030617438561003  0.4364402099685230
  0.8378863260125047  0.8051720817960943  0.2065365588212734
  0.7755439002735288  0.6597007393166457  0.3957839341079004
  0.3019639358730548  0.6847120708904548  0.6751719751511911
  0.0713020306572869  0.5978885252420083  0.6362796071691287
  0.8122328892081124  0.5954675657003018  0.3934950614375593
  0.9291908962154790  0.5892274535413408  0.1939340746752270
  0.9841449467764545  0.6200609957734943  0.2040972076605726
  0.8635871677117938  0.5018386093470907  0.4322844431135842
  0.8658851506183907  0.5173521271353415  0.3707134085931920
  0.9184626391685651  0.5475674381903640  0.3800464132410579
  0.6031530928570258  0.8500678297608650  0.8443221527920642
  0.9120928641029550  0.4365905502827557  0.3549680639749494
  0.4260332801958197  0.1260310776351984  0.4032493481925785
  0.4879797012624790  0.4915296995980987  0.5769998374288045
  0.5911416727583845  0.8620623469853302  0.7838698910908314
  0.6846300268012208  0.0169783625413456  0.7660895733308470
  0.9202598466591972  0.2276227529887172  0.9796259393209708
  0.9238525337393081  0.1845736654442266  0.9308201251805597
  0.6198993144490353  0.0466841606982582  0.0777331599276508
  0.8211018565290118  0.1444637024771766  0.9013412470404326
  0.2542279269415615  0.7156206961690741  0.8194283798638645
  0.4392250704333983  0.6931187575549786  0.8796841832335099
  0.7431602847824500  0.0104029740858291  0.7899327222526292
  0.5261215558156898  0.0164091292746061  0.8250535961532233
  0.3510896163920034  0.5353427915124354  0.0696137018881924
  0.5777553350361214  0.5572358626342929  0.5407974302479218
  0.9961689237968424  0.9504289431878481  0.7406637988104743
  0.8879998996491930  0.9570333553128373  0.7550906299945090
  0.4694301919285234  0.7352921726216127  0.4404740251008483
  0.7583165083359639  0.7073698005178570  0.5315416449711972
  0.7941494720431097  0.8006049533878038  0.5837863824667154
  0.4734292536936872  0.7966825699987637  0.4240657681511114
  0.7430350173549914  0.8858985562848820  0.4946696666382250
  0.3796336203457958  0.9076304057020512  0.4223366399189351
  0.8399034916376361  0.8791693579134459  0.6951096593248182
  0.3260369572225120  0.9265482527512597  0.4619329315480351
  0.8595375953032034  0.8943703176512098  0.8147733486800555
  0.3329195545146597  0.9848055548544905  0.4453002269648221
  0.9418245461385486  0.9816837040980124  0.9081906167963895
  0.9278292968251658  0.0128045800409268  0.3175616716117562
  0.9499981457103852  0.9710431751544241  0.9622939288407885
  0.7259285325960745  0.0344238310996991  0.1867721810611193
  0.7436465607392952  0.2668674141455887  0.5693259768908177
  0.5864566249580729  0.1854068233667677  0.3223970092440635
  0.6360204179523044  0.2315297729721846  0.2683242638074900
  0.7836912888364393  0.3480490035117870  0.6858601595427813
  0.8624021222555858 -0.0030353603873441  0.8337606804719424
  0.3731223386437674  0.2923839759183757  0.0480158852012993
  0.7441077822041653  0.0439325918692859  0.8957842579022055
  0.7042623256026347  0.4332149289155374  0.2809926811023006
  0.3740502553545151  0.3215039022664120  0.9372555320246747
  0.8110620948494121  0.4838885915750463  0.3592536849461872
  0.7580970997198762  0.4522144666337141  0.3516308520781189
  0.8024142533653640  0.3738454132087971  0.3400282196683605
  0.9035317460796100  0.3241809770334231  0.3345934676500542
  0.9053550481101793  0.3611833189422241  0.4404122574524392
  0.2355611892233840  0.0719979894156310  0.8868167810001883
  0.2189155518911219  0.2125207275115201  0.6814230686051622
  0.6625076347165768  0.5311838234434845  0.4656712092990090
  0.5581073791372151  0.8877424479984125  0.6023667296550178
  0.3587036723410222  0.7742024623851345  0.0527341430835013
  0.4038945557106555  0.7469778110572594  0.0236155362031176
  0.5902246953016174  0.8298235353530308  0.6795631770728211
  0.4769879387049271  0.7905110840587580  0.5967110223246563
  0.5047349072578839  0.7614859302439243 -0.0030755355787959
  0.4276114189105353  0.7538692714691343  0.5343783791660116
  0.5546511910551198  0.5050741815238149  0.0332308712860480
  0.7295257823549648  0.9539168456414315  0.8130976984090128
  0.1404420496344203  0.0748811102570947  0.5753625388707522
  0.2013286803167045  0.1049849122798541  0.6992152951429733
  0.1180975401257004  0.9580334055044946  0.2666311788912001
  0.9255584952464173  0.7248446038412436  0.8664949560146080
  0.7452248785928266  0.4759404402516490  0.8304336682311979
  0.8428278384941895  0.0528201325154113  0.8151440032922012
  0.6565493895543240  0.5096759005654824  0.2951922046781669
  0.9404529505261626  0.0937257769594311  0.2397584726042639
  0.5821069534958396  0.5913315722119823  0.8311562156126304
  0.4400675607917309  0.3992109994697950  0.2008118853218973
  0.4125737988663502  0.6932566260920644  0.2693771559535134
  0.7125522507224509  0.8141841948884283  0.7193165973220901
  0.7763834662259932  0.6778743360267434  0.6526395469496509
  0.8329979021789049  0.8319490879226201  0.8751584159600572
  0.7466754912492607  0.3311458018147497  0.3936244154055427
  0.5064921586829423  0.5807282891864417  0.5159863961901886
  0.7782564184989582  0.7097550660484002  0.9827139819671702
  0.5048155606086628  0.2542760395889876  0.4928483645713898
  0.3940354949380366  0.2401649442324024  0.5171868988526230
  0.4150912842902291 -0.0003517665044929  0.6406787412071725
  0.4404019247065423  0.0439762543696543  0.6774757228559637
  0.4900982763982719  0.3014497643962464  0.0016146468731683
  0.4361295846632619  0.3210246493111592  0.0547570488161239
  0.5526340955008637  0.0754999717393981  0.7674658613102234
  0.4707681342743542  0.3606803994649518  0.9795228791094420
  0.5644049481427078  0.0632465315065153  0.8300173098845611
  0.4437259855089114  0.3805832005824650  0.0380613537537103
  0.3934630274710171  0.4128094391893659  0.0082016674385193
  0.3909357316365784  0.3966720921198472  0.0683694649895502
  0.6530250663287158  0.1510988249657483  0.8989643643939751
  0.6109895367439879  0.1863984970355290  0.9899926782681286
  0.7594196817868024  0.4647936474374109  0.2898519659065065
  0.0034710626799548  0.2294868161066020  0.2794124164803465
  0.5761283317914799  0.6244108388987408  0.9395252253054522
  0.2173518012859323  0.1754294633388352  0.5755085571074332
  0.1914085799944325  0.1499599140761752  0.5166603262639299
  0.9475911865006442  0.1838357167128033  0.3304515974905578
  0.5490556874846138  0.4568551936566046  0.9870542828364882
  0.9898190408196414  0.0790572048118369  0.2053683632143743
  0.4350596963943786  0.4241535072666428  0.8955433328113680
  0.4239298121705730  0.4351347223673821  0.8375008100465472
  0.4325940615835957  0.9379073911862008  0.4313027378059340
  0.4768962941859992  0.8581830164733865  0.4086893692338480
  0.3560070871777845  0.3405669970626852  0.8109463046915188
  0.3458087303837747  0.3185885379042168  0.6466649433207610
  0.5203464755882606  0.7380949502648387  0.3427035227333657
  0.6633356429158810  0.6022998624852028  0.3797205819047769
  0.6219879131715681  0.6449959915903593  0.0618221317554561
  0.5067959811936918  0.5850302720282415  0.2739366286757653
  0.5867409082442916  0.5785204797292987  0.9033525585189254
  0.6499370239641328  0.5697748932332886  0.9213832466584484
  0.5503671238397583  0.4936027082839054  0.3199211189616167
  0.9202053192226622  0.8137644474830388  0.9541546701332653
  0.8509980967510569  0.6220975808896404  0.8598805353495802
  0.8704712527841419  0.3498745119141491  0.9290377010196607
  0.2626336558627884  0.8332847812864145  0.2356908187132342
  0.2596978083820268  0.7597626509476736  0.0836421426483626
  0.4403060351290766  0.5116440667074799  0.7213751666458644
  0.9092844125240358  0.3416877732629685  0.2746790609388242
  0.7448564675320207  0.9819984913861516  0.1121751430586598
  0.6324804823055009  0.4358719415852149  0.5726138425402886
  0.7120317914907579  0.5219150320461894  0.6493594770724317
  0.7365610418397670  0.4640684580814916  0.6644575906531837
  0.6259391951318845  0.1546074329375050  0.1159241848905621
  0.8071116370929056  0.5876680930556278  0.7935920072214847
  0.8154868544173505  0.5737646146907242  0.8567722591925644
  0.6919026166977924  0.2918341983840140  0.1553651343828023
  0.9204929760502997  0.7557138549497746  0.9744239953260583
  0.4913614562905089  0.4002878749370825  0.3296422413222097
  0.5956684227438224  0.3845867238550316  0.2025437523509818
  0.5351757387427692  0.3974214972360727  0.5415683413872057
  0.4983396934522761  0.4766231291117434  0.2498412435196392
  0.3959812023114822  0.5222920714615699  0.2574877853757514
  0.6504165719164156  0.4038488585912192  0.6922491594952928
  0.6956137667594249  0.4401135103942581  0.7615732009070775
  0.3986594882819181  0.5377514104089191  0.1978041286635458
  0.6368535417028715  0.4464830158262014  0.7388221668183355
  0.4047875710823557  0.6164937352973585  0.3454773290166254
  0.7217281586209985  0.5319612281003199  0.8142427553065213
  0.6975587542541056  0.7415660934326865  0.8373476710657562
  0.8959841903774637  0.2161962043689018  0.3036414398061650
  0.8917369635104112  0.7926163194323433  0.7859177902558475
  0.7610596364365403  0.5687730936778571  0.8999849834762964
  0.8329813798091107  0.5517801094418366  0.0511538818969077
  0.8059918686932981  0.6077832409986899  0.9633374310070424
  0.8156723548737728  0.7255850177282376  0.8803861372716628
  0.1550756368372964  0.7902462759192049  0.1559122746503171
  0.2086589662612024  0.8034795966542378  0.2254859543856224
  0.8439043950135459  0.6347080744508811  0.7974954003789677
  0.1598288217838083  0.8529413620897351  0.1403586929333203
  0.8601086395526228  0.7438408468798170  0.5563126598427072
  0.7511714275568597  0.7521667003572930  0.5788729552741139
  0.1625313355284819  0.8811985942196718  0.2465986110838520
  0.1305654067263963  0.9096893033574509  0.1317087984340074
  0.0854148595051610  0.9869003241134569  0.1508084152089438
  0.9071037900821036  0.8244301758060248  0.6722564283125022
  0.0220141988180574  0.8444826179539767  0.7190316465472311
  0.7190232991536993  0.0010030976738149  0.0668136045179873
  0.6720099152332096  0.0999787101036007  0.0340026145652120
  0.9197319641590742  0.8883511710594328  0.8383702168522709
  0.7610006436311102  0.6524403255040029  0.4827392900140977
  0.6041673593426213  0.6716172358218355  0.5465908755577049
  0.5878354685333441  0.2912729055736584  0.1185048565792461
  0.5438218580665506  0.3690832080152699  0.1316948154123425
  0.3029077406307326  0.6782468895805848  0.2940070488898763
  0.4444977030178405  0.4199901030214642  0.9537953452931038
  0.2181518591568604  0.9542801263033603  0.5413518514339436
  0.4618988816376705  0.4844817267894122  0.8421413444882964
  0.8226245758455480  0.8678216230853188  0.9910037299784681
  0.9807410128423824  0.8809452652086156  0.8598240073173694
  0.6182553573252052  0.5452021049357776  0.5016418094759184
  0.4461573071867985  0.4598619481640379  0.1818653403882745
  0.7439892634780132  0.5870145338663193  0.5949633214769725
  0.3521105527550970  0.5828294025109377  0.1084227144158268
  0.3513202804417500  0.6147901032956725  0.2134517930608302
  0.7835918853110436  0.6611915521427436  0.7141012649339332
  0.3548366139554213  0.6768921395545595  0.1958505546013811
  0.2549115555883610  0.7251896969015053  0.2064542649915647
  0.7029482790338684  0.3997457112815206  0.1770265798045930
  0.4229759221411289  0.8292143613924334  0.4003427881042444
  0.3681952166864608  0.3952773416380275  0.5202125209901013
  0.4783819395825139  0.4111988193709379  0.6917761334530221
  0.8945012823809179  0.1858045023041213  0.1969026687009171
  0.3492592398852260  0.2846451788756569  0.5448198628279565
  0.3886841727554977  0.3350316828494903  0.5450953992431259
  0.3033690813922904  0.4167787676410553  0.6985302095375175
  0.3840245391073143  0.3688571170261915  0.6522899508571524
  0.7969650673881173  0.3128070657550205  0.3587061478241961
  0.4033857912657400  0.4605070485689812  0.7185377046617122
  0.7875605895208349  0.1858526395691713  0.1628319067681247
  0.7458369096221874  0.3090599459385440  0.2252658355626840
  0.9556460275261944  0.8206675483333652  0.9129944095037230
  1.0352643677743028  0.0027052511693970  0.1860974098001641
  0.3661801087578185  0.4962993302251437  0.5397809517913862
  0.6046092584917748  0.4933100357782789  0.2240567627487905
  0.5249735566023773  0.5525735485176043  0.5794976822590802
  0.4511974967235797  0.5988691409861640  0.5376700045820647
  0.7064266621961161  0.4475230408492128  0.2205072522482358
  0.6100311997540989  0.5540427654888518  0.2050076292683954
  0.5582250482312904  0.5696511215936670  0.2386511963330933
  0.7153766902291989  0.5562694648855354  0.2416361014633817
  0.5729385323788809  0.6034862379440907  0.7643503615528665
  0.5978019653494291  0.6669764327422094  0.7067863764283868
  0.6203749132041276  0.6379480757642203  0.8327402472725390
  0.6801433317697236  0.6337516207834236  0.8543515198929907
  0.5974970951063827  0.6984161537337548  0.8135878714594247
  0.5696138964900359  0.6354032588807663  0.8735446412111567
  0.6669482130694052  0.6786166994882727  0.8958505180437530
  0.5161756087713821  0.6931407732839786  0.2992760658914408
  0.7146853656697107  0.7176028470166596  0.9615133767567692
  0.5208594426877633  0.7542213270023107  0.2819882570124575
  0.4180906392900826  0.8014458443495477  0.2939790614547454
  0.8198224845176576  0.3094357655646182  0.8674154021854689
  0.8244794251565429  0.6409986403851395  0.5042029007927790
  0.5156293696085511  0.5250526810030149  0.9075671838618224
  0.7637932827960568  0.5625620194556966  0.3746173124281279
  0.2194164730338918  0.9290141521924566  0.1954094153175215
  0.2899863664947577  0.1933410373018217  0.7639500997240164
  0.8944107887983984  0.1783480778579399  0.4243513133299612
  0.3852769559636200  0.2721438985070637  0.8920191418888014
  0.1858964916830306  0.0094460295611633  0.6176852105870057
  1.0004457491058354  0.1962541074500206  0.3997972195190038
  0.1615291665961977  0.0535808286663556  0.6987825122998376
  0.3120268974311088  0.1368001117124549  0.7833680926665453
  0.1530621845689391  0.0991790706892263  0.7411248761620821
  0.9002710598609700  0.3080877938458681  0.3963423737807487
  0.2143586572519267  0.1292253401237121  0.8656869214399729
  0.2734279814465576  0.1212197411933886  0.8866949082977816
  0.2597973620007064  0.1668912145366543  0.9282028130166792
  0.3121706898081207  0.2215423984536705  0.9893098514826810
  0.1858163241480744  0.0321625440415968  0.8239146119327511
  0.4679798239221687  0.4249472846710933  0.6318457338549847
  0.6466019750025531  0.7036656312086271  0.7724498108197664
  0.5506235552207321  0.7855683159519392  0.6746141616434596
  0.6882567375313970  0.8745549801996115  0.4185751755763508
  0.1417028573442872  0.1103857625894275  0.6775754654688655
  0.4448623918015464  0.1134402140481535  0.8899739997241211
  0.2094974181759306  0.8209693294558296  0.1645981808080247
  0.2739106048016199  0.5826911309258493 -0.0083802991547739
  0.5253369541573463  0.8083382219765978  0.4945038069442814
  0.3037146661923852  0.6162179924581286  0.0868773251457187
  0.9559346613494840  0.0157496398563187  0.6898962577147486
  0.5747790249354969  0.0506802547520972  0.8927291283994715
  0.5688230294733465  0.1511228107738881  0.6491000010825162
  0.3535848650551843  0.5510768016619846  0.0081197961409533
  0.5293239116290608  0.1094361220163144  0.5690600117350418
  0.4913232902991592  0.2085560669862039  0.4455252778416972
  0.5343251988392919  0.0662744097429898  0.5253295546153588
  0.4603229881889336  0.2567383822091545 -0.0265017081899135
  0.5234297621422856  0.2418062398437033  0.0014002826658385
  0.7802142325043168  0.2947541816641996  0.9707103879520121
  0.9293467446358651  0.9229035957808569  0.6177310223601136
  0.5176830958645714  0.0064902833968548  0.5512087323634569
  0.8964909943172489  0.8375341250187499  0.6100231215424416
  0.8852911681704337  0.8485717047119004  0.5517237989620151
  0.7885834016624008  0.8128464153265740  0.5252360019827736
  0.9915468098809582  0.0636473882948891  0.6928369280678663
  0.9464056615043973  0.0289214089545286  0.6289759872729925
  0.0200353189865251 -0.0231836523482278  0.5786437420181385
  0.9458203549476482  0.8975819841799270  0.5142051686119149
  0.9517232662412346  0.9644896935474262  0.4973645413369121
  1.0115045601585049  0.9965985297747542  0.5071058605275588
  0.5046161124391024  0.9859742093682204  0.0489265036610509
  0.5472886281204613  0.2073715558886927  0.6313869248588753
  0.5973443828185125  0.2464973065316182  0.6976550830977277
  0.5777457064112494  0.7970118335003630  0.4566728328795808
  0.4855051073975644  0.2271960803180056  0.5453065878661689
  0.1616527891594249  0.1269410086811975  0.9068999025285590
  0.8156857141415217  0.5813643192281758  0.4547026218170674
  0.7043511337898876  0.6307811403837684  0.4715312179238393
  0.5996733671212966  0.9505985160344316  0.5379555171842609
  0.6100122405679060  0.8828093216317767  0.5603129974926246
  0.6546605780965195  0.9470088120080139  0.5621599334897750
  0.6753241127763032  0.7073913036019446  0.4035947884916212
  0.7280131663649200  0.7198762349688288  0.4737893111266614
  0.5053581110872202  0.8495664620118181  0.5325839447265786
  0.5726122704436981  0.8351669044270210  0.5599220355850740
  0.5348425112862653  0.9329330262506551  0.4625577328856654
  0.9640778509184152  0.3303530719924687  0.4651357092882377
  0.9585936368130145  0.3885819470384804  0.4507988814768599
  0.9635422965345976  0.4537324538027613  0.4268986432131138
  0.6026071565472833  0.9437227571793557  0.6044438641843944
  0.4774339085684208  0.5615647139478657  0.7284136034976482
  0.4403205692028672  0.4825961730382697  0.6169133798051408
  0.6799671334464381  0.9167212132713726  0.7475332251029987
  0.7341785617095519  0.7900765139149514  0.8420129204117911
  0.6696067634075694  0.9612644549437346  0.7909523183708945
  0.5785678710467278  0.8144923516580991  0.3967172941353241
  0.2401797135225693  0.1888365987151271  0.8051805189146197
  0.2449803217158140  0.0618702313793944  0.9516383677202203
  0.6824756255019049  0.2458264679412204  0.9429494162476744
  0.7316388391684817  0.2533392055614850  0.9033194770671391
  0.5366261559695634  0.0030359251757349  0.8881774915103284
  0.5744398683426908  0.2071742918070427  0.0215111984220868
  0.5210863369231757  0.1763786286591392  0.7917146950892006
  0.7465196511267214  0.0779389715690936  0.0037851789877873
  0.6171137719698980  0.1075392801114374  0.0657087937073644
  0.5805470103724765  0.1384175691252152  0.7092272465349058
  0.5416321827603098  0.0879988062499450  0.7042405193629713
  0.4794562634838244  0.0943857603753221  0.6817363471271612
  0.4692306953963895  0.1067724157850358  0.6190949625372182
  0.0304712698004725  0.9746126056103372  0.0784766342270781
  0.1347821505269686  0.9724347545814078  0.1164836611077730
  0.5443601748859888  0.0517200107621956  0.5948871042577053
  0.1591786708221147  0.8084290048784164  0.0959402922691259
  0.8836885247295008  0.4456371214658345  1.0013456365796982
  0.1592765671122703  0.7611958431141683  0.0541659299535891
  0.2026540461570274  0.6807623759999903  0.0331919249110195
  0.3247388716713006  0.5773175798109823  0.9527898898843412
  0.7080503797046525  0.2770803868256443  0.7830968421393928
  0.5588576732829371  0.1957075726758936  0.6923848938632903
  0.6698179911861718  0.2257074379784149  0.7778388292935807
  0.7036296108437243  0.4546046312205215  0.4417023480606548
  0.7106415489625497  0.7321003498295345  0.6784162001604093
  0.7948913808633916  0.7492708819811301  0.7580621109147542
  0.8618939382407772  0.7754980203900204  0.6638943094383444
  0.6584822642790960  0.4436573028708836  0.0877345992488235
  0.9671852223856233  0.4217234763853788  0.4998289135020925
  0.1311048788905688  0.9267448285645896  0.0720400400455742
  0.2348770771836008  0.9276913585373915  0.1057995676694846
  0.2786752657887350  0.1340795328711451  0.5512921906144490
  0.7297584411118057  0.1876772224249831  0.0288817398417567
  0.2397205658140875  0.0212563506564131  0.5741869215821191
  0.3281407831727126  0.2105289188643390  0.6629536270557626
  0.3776034532309061  0.2480019850722159  0.7276581246718311
  0.3885414416398754  0.2369943506210724  0.7886298252973901
  0.6816737450775269  0.2848581408621020 -0.0127592386423686
  0.4987051184216272  0.2647248096788913  0.8806715439293135
  0.5551803373364887  0.4436760751118189  0.0478438369394604
  0.5087596703972774  0.3692237155375567  0.8804246917691734
  0.5023574732633581  0.4595230675299003  0.0845523168629835
  0.1815205700304016  0.0429936737432350  0.4873221365753814
  0.6037745510446586  0.3649410478357030  0.0317695128347465
  0.2494106732122489  0.9660067971720023  0.5998892030019851
  0.2650518844067610  0.8689613878487850  0.1144533169055152
  0.4131822963152170  0.4481787071960913  0.7780390170292018
  0.2116664578247166  0.8381915022543491  0.1049353570815567
  0.4977135919521433  0.3826973721143566  0.8121675130623064
  0.2356927453231973  0.9412849514502990  0.0445772295794527
  0.5717807313331775  0.3653111760655791  0.8979301482448449
  0.6209089713413583  0.3995458332017892  0.9651484435297596
  0.5587040543824561  0.5380811303058660  0.1362332951813514
  0.4499849497068381  0.3303971771101561  0.5719985186041286
  0.4544551382500761  0.5375024235302894  0.1023406336674870
  0.3159401502503426  0.2224224353929165  0.6031048067478285
  0.5150286735049292  0.6289907308577567  0.0884940704137698
  0.3079182298878458  0.7425220313737672  0.0467539046177202
  0.6607506478125291  0.5603081022854420  0.9851090066644751
  0.5668909919341709  0.4697071252036891  0.6590990944186176
  0.4811829514643575  0.1194820364804490  0.3044239091791531
  0.5443227965605388  0.5334900946736386  0.6441953775438559
  0.5138409286798042  0.4602569922903508  0.6970770799885321
  0.6245310463268215  0.4883634736274828  0.7828096609900557
  0.3437137083760950  0.5649354305022358  0.4019434598372182
  0.4212122299503854  0.1686416288352501  0.8717666340187082
  0.6114717326877064  0.5307957788047856  0.8242028587681737
  0.7025078922908433  0.5739006969190309  0.8766600550350598
  0.6445953440911447  0.5830768611592422  0.8561064067081702
  0.2209734131052972  0.7453298438350864  0.0201132507605820
  0.7337700143629193  0.5228423515121375  0.8717032670380805
  0.6876623745104027  0.6187834457505511  0.9139390046391493
  0.7322451972206755  0.6674938727380149  0.9794495715008501
  0.1811656289197469  0.8490768698556408  0.0510356331660635
  0.1290334097847065  0.8807718622901046  0.0247466281674899
  0.4569220668436767  0.5838061625739579  0.1430398263420556
  0.4491811481143767  0.4422133503255412  0.0135559716057686
  0.8001553100578934  0.9008237053044437  0.7921732550940390
  0.3613234699772631  0.1761140698798954  0.8479237515453499
  0.5557872093100534  0.5226629216242910  0.1960462555930604
  0.5374131489603271  0.4361510344581990  0.8168617974149819
  0.5740925939207554  0.4828317427783542  0.8249281983582721
  0.4087819943514314  0.5806242837893868  0.0117304466821947
  0.6838176782351940  0.5184469791375771  0.9097936589812894
  0.6234981174313228  0.5243013845941745  0.8889073282548794
  0.3571177548803309  0.6003784106816379  0.0459499302739660
  0.7765543882406125  0.4085385031932546  0.9126650599084888
  0.3572789801245987  0.6459609484802514  0.0869391706200800
  0.3019320168794039  0.2336998263389312  0.5386313998286048
  0.6232082952622594  0.7601048218177610  0.7564448577479547
  0.4100042034210045  0.6606418731146536  0.1589650271081121
  0.3605327153860431  0.1418581627314880  0.7428021818021199
  0.6422496956792975  0.7594090520151034  0.5985606651772968
  0.6985738793887015  0.3548963064337073  0.1356482496599860
  0.7256407949064556  0.8586874748717597  0.6046152653247021
  0.6747329173143051  0.8528572428181923  0.6456669238201120
  0.7518498365123093  0.7835274041091148  0.6826874184407213
  0.6028208302119480  0.4462186064140561  0.1814791105830553
  0.6915305650985214  0.8715900274500001  0.7017696719551991
  0.7782461898716446  0.8908476528482444  0.6724304545142458
  0.2570837151538937  0.7082958127416689  0.0432449500688684
  0.5644230646725965  0.4963240122778047  0.7654633524774479
  0.7888422738219710  0.9464063360809017  0.8361050819536473
  0.0027035817449987  0.4526841173009096  0.5996501995178479
  0.7864268793881370  0.7850378748662374  0.3629270535842914
  0.5674881046437535  0.6471242595956335  0.1593278345081394
  0.4154089528642083  0.7100203440868414  0.2050904886898588
  0.5250691877388718  0.8151513865109375  0.2666190990033654
  0.3678549258972565  0.8315535210269821  0.2693196701374667
  0.6938519581231640  0.7929605410889020  0.6638190889817422
  0.6625329615425458  0.8100940642195219  0.7606744659987210
  0.3238684110765540  0.9253561370186305  0.2279032602448482
  0.7623209208416016  0.8523131382689556  0.7860029200818826
  0.7112298148299416  0.8791783892193025  0.9324587596613072
  0.3277776183148376  0.9454904844967849  0.1671984325115397
  0.7985502268156925  0.9344640123261153  0.8985610474373482