Cr N  Ni
 1.0000000000000000
    38.8588641550299201    0.0000000000000000    0.0000000000000000
     0.0000000000000000   38.8588641550299201    0.0000000000000000
     0.0000000000000000    0.0000000000000000   38.8588641550299201
 Cr  N   Ni 
 1596 106 3725
Direct
  0.9755407688993208  0.7857764361081874  0.9802610778214775
  0.2622205027674565  0.3814715617080137  0.6173550914403291
  0.3739067979941768  0.5344653492412167  0.6349323905562487
  0.6165214982052457  0.5830773214549680  0.0824546085729845
  0.9448730885340303  0.8143642505193289  0.1838730396618651
  0.3597102560399173  0.4264782505595646  0.6468298304050143
  0.9595035032955793  0.9813555815264148  0.4319618145768325
  0.1166788302938476  0.6526540589432757  0.8887362548364397
  0.2004177534583607  0.4210236649690667  0.7018512587072864
  0.2529702801937178  0.5472584891526704  0.5906472761701904
  0.3544979508755078  0.7246877541572475  0.7352967630001519
  0.7914726946516043  0.2622530857440908  0.0827388021307457
  0.5146935033309656  0.6607546855515468  0.1939480295329001
  0.3467809408662191  0.4701240681435648  0.6909304497252822
  0.0959095155248329  0.9926413273200417  0.7671006772978690
  0.0565341352841484  0.6616672864805033  0.8593370749981601
  0.2301788320185578  0.4491250401752933  0.5411839304005666
  0.2877294987042537  0.4771287237890202  0.6685656549149087
 -0.0027981677271816  0.6695010098248676  0.8279864057649495
  0.2587911911978866  0.4772247048212705  0.4937677830580543
  0.6666759244872816  0.7496964854999486  0.9949778347976937
  0.2698954402447383  0.6549525465944829  0.5733576185058340
  0.8041112971342396  0.9757002802063105  0.4878006661493770
  0.3941365286505600  0.8096636779568130  0.8463834044235511
  0.4651477447930802  0.7580885345065280  0.8216333501845762
  0.5413700272134113  0.8580430287556148  0.8249992981600507
  0.2550196748112299  0.7454080811806648  0.9226068786519510
  0.5031689018418347  0.8068222699621316  0.8225485415453485
  0.2939235412940511  0.7969440085672849  0.9289771391375883
  0.4318839179252142  0.8267688358871188  0.7421005343783259
  0.4911760926468636  0.8193197775904288  0.7618887042030550
  0.7885462422929672  0.8179400979002809  0.2413586008019953
  0.3240856559427989  0.7786051121553016  0.9913748225104277
  0.3845654285635381  0.7545916024686385  0.5735434463357616
  0.2848839183198709  0.8336818496460603  0.9726132772750085
  0.9640843005674353  0.5787224304811505  0.5748877513469931
  0.4425899825636371  0.7484266650913971  0.5956992350662860
  0.3546434989155883  0.6924753871504143  0.6324924713644088
  0.0831042335384586  0.5867102972265126  0.6906275451412330
  0.0316732400206364  0.5806049515238307  0.7274665813289704
  0.0924663022027678  0.5748930333407954  0.7490916577443621
  0.2024903535123291  0.7114198009428830  0.8548241918837898
  0.1377864977404947  0.7284882719162760  0.7673700158912193
  0.8858061587830460  0.6798999347443769  0.3717023588571561
  0.6023501228043481  0.8802222535385285  0.9475936752385146
  0.3800539936074787  0.9391076420836145  0.9803612897958377
  0.0169781593375786  0.6252809377128933  0.7722683177315216
  0.8841684857063309  0.1729831953844964  0.0284017097466540
  0.0118568512791699  0.9404866705758866  0.2923602402277965
  0.4155795126300270  0.0163107394673463  0.8458714322415425
  0.3401161042586586  0.1393164889473774  0.5119752567648987
  0.7361391096732944  0.2007281749850095  0.1972556770388983
  0.6919684644123650  0.3095829875044397  0.3216256931685000
  0.4452997629023847  0.1665998795157949  0.6040948867589857
  0.6529746026163222  0.4474145112804321  0.3133397560101497
  0.4233507395241857  0.2237045640990119  0.5865115876134992
  0.5735691349912950  0.6910358044692287  0.4283224457568831
  0.5260511565170387  0.7667727923237391  0.4518662620530077
  0.8639214168598225  0.7834801654107799  0.9451545307468419
  0.8160078930562376  0.7685491659101077  0.9818298131913286
  0.4747069185488784  0.7794694936598205  0.4905468342326577
  0.4351320173921142  0.9244715664874249  0.4944391227012546
  0.9902039975339750  0.0881175213910558  0.3748593414586802
  0.9376780222470866  0.1450872432033661  0.4508784585542173
  0.6640859147582487  0.5138260024096855  0.6818090537847528
  0.8945086764949158  0.1811267063741357  0.4275657158868634
  0.5916124766538975  0.5615240994610502  0.7058256487636068
  0.9018024580087757  0.2495886239851559  0.4098468020273045
  0.6282746872959535  0.6102774316082101  0.7230649642712791
  0.6866021294590470  0.6012802782372819  0.7477296186473845
  0.7317522038967821  0.6386550710008153  0.8146567131700766
  0.3928654163086507  0.0734928669376614  0.8281814013723788
  0.2241559816760952  0.8773708852866614  0.5545692599869275
  0.2099695687381513  0.5951984963807422  0.8965838608042428
  0.7372210362329294  0.1716806944300063  0.3220895638794855
  0.1189947364967000  0.4833229139454382  0.6635448013294740
  0.2045047749824748  0.5418971570539437  0.6280415406139214
  0.9701023808168573  0.4470205612621374  0.1988117096598924
  0.9637254727185197  0.3857826927097903  0.2187148216660882
  0.4821125986600401  0.8973388372307652  0.9088603221943456
  0.6245492640387791  0.1168798548013267  0.5672123244986966
  0.3679354149230548  0.8145776483993123  0.3318016167071983
  0.3198625804110188  0.8740475559053018  0.4150836918787643
  0.6429337526022973  0.3160874469756902  0.8725382219904352
  0.6015983141329301  0.2991901810110715  0.9733425166594802
  0.2709510073849783  0.9060063050402292  0.3930748778799519
  0.2669738303038707  0.9603721716592801  0.5141693997487422
  0.8855448988372806  0.0499824791751161  0.2934132532259515
  0.4291065011736252  0.0915832219107314  0.7236660246359811
  0.4405775711920150  0.0789972413153966  0.7876212089181446
  0.4806095352138341  0.1285576704027165  0.7922091913260051
  0.4701861531168579  0.1726326344761796  0.8381322162556615
  0.4841092396097105  0.1578360911797159  0.9065475681459231
  0.8388459085822495  0.1402156914642932  0.2506928947104356
  0.5200211913240844  0.2083786069544775  0.9003809412085804
  0.5271221870888988  0.1941395793862147  0.9594432972947777
  0.8417770388087679  0.1877043491987348  0.2945934040942519
  0.8365779152775771  0.0644636655166723  0.3307406949172072
  0.7848475034306972  0.0795086736406157  0.3662982444746469
  0.8875776162524115  0.7253211853529946  0.1880150786067905
  0.0501030433607909  0.0553213970494602  0.7191588551108471
  0.9646140460150437  0.5789255599613282  0.0322105934371324
  0.0171212331419833  0.0397781474789616  0.8211604980795244
  0.8533265194705405  0.9630910418795855  0.4544788205876004
  0.9063429692749477  0.9504313018503160  0.4203537357694023
  0.9532108689784289  0.9017341412583681  0.5095854408111383
  0.1694872134925526  0.9838031344604318  0.5083933671377987
  0.1766656725874269  0.2282355423597247  0.8933877662678584
  0.8106007411639270  0.4153681507369791  0.1514496607797235
  0.8106214327649550  0.4482310350640007  0.2559206827976131
  0.1159403444295297  0.9518897336107519  0.4980756086751079
  0.9083867017247608  0.3541563624393200  0.2076029602374080
  0.1394762528541792  0.1438253264123537  0.7848302518151115
  0.1606298072697685  0.9697317508187575  0.5684465449972927
  0.8543211014719215  0.3710857375247556  0.2383099865231427
  0.7685376867621319  0.6882643389215655  0.8170635680663406
  0.5669440585257433  0.6459199582237906  0.3859563240633106
  0.7445923926769856  0.7462202458481273  0.7981775270880349
  0.5623211455349366  0.6285916564300543  0.5294973493691368
  0.8098638377708376  0.4550819139415989  0.4819784635483698
  0.7762600519607836  0.6772369192058465  0.8783703895047823
  0.7909185876468641  0.3486209842353337  0.4646058262790698
  0.9038464948253108  0.2945201396815464  0.4633296615904943
  0.9299506949848295  0.4264312779238909  0.7912770746395675
  0.5801598461024909  0.2121185052111737  0.1972906502721387
  0.8422427764763357  0.2644542761105416  0.4463414508024969
  0.8380517008123060  0.3171355490993039  0.5493968631413672
  0.9350168706959237  0.3612945624884106  0.5700605652253328
  0.1457436904886880  0.6798066534209195  0.1213171103726488
  0.9440299625064408  0.3511671483685155  0.6299490243082816
  0.0436403236085055  0.7244176622418524  0.1315881748100820
  0.9785793764545360  0.4288316028035758  0.7604436202615453
  0.7871254559022546  0.2777403285517575  0.4810206469326385
  0.8179811498858962  0.2125021355193040  0.5562297041049854
 -0.0051987372723062  0.8021648757169269  0.1503814643043320
  0.8454876915973522  0.3096870503752943  0.6079145580613754
  0.8548777776221553  0.2964166519871746  0.6678509741809407
  0.9161311031552390  0.2878771286695240  0.6895243682469135
  0.5588073115017231  0.0163938101372616  0.0680613000451908
  0.9048953657256831  0.3339663712459148  0.7333320561116103
  0.9648285443688086  0.3263971775554762  0.7515590974052666
  0.9436086562757591  0.3842793837940879  0.7334807877509962
  0.9892913831982910  0.4156260908442437  0.8212390792645974
  0.9974598225918172  0.4052738714376024  0.8787551389868944
  0.7435274940571445  0.0983741079535675  0.5487888787359185
  0.5135399076962025  0.0919394736575576  0.0929808359645202
  0.5637355945576719  0.0772607523576567  0.0540982230244818
  0.7951583570285572  0.2989491255666122  0.4210533721148926
  0.4703725772328973  0.1691387452913296  0.1153502409287724
  0.7691005154769696  0.2102727310514071  0.5935600961847265
  0.5200335628381515  0.1526572450381121  0.0808937215250382
  0.9011976398737342  0.1792496568685067  0.7011672962883886
  0.4698930492057999  0.1847930688744558  0.0539287341361991
  0.8900438390339337  0.2265916821884157  0.7484899747958572
  0.9482484976519227  0.4631276844464867  0.5806979107977910
  0.4745507957793382  0.2560691468731675  0.0421842536311998
  0.1408005918535607  0.5685005996210205  0.0964207154404499
  0.1886753951930676  0.4869943517308497  0.0786999705081234
  0.8024447068373830  0.0819506521256420  0.5117937855246174
  0.8500469189472989  0.1432426329748912  0.6349334760318709
  0.7347443803073983  0.1398508256252343  0.4451591449297210
  0.6820887449385755  0.1496784343721637  0.4736355615545039
  0.9419714167193984  0.2299426125387524  0.7027684953337299
  0.2460852634259084  0.3619781973498299  0.0202993890578173
  0.1887537145780927  0.4364667631806310  0.0368170546305979
  0.7539986704099632  0.0376342044105902  0.5639702236078848
  0.2571594885704149  0.4766507917614998 -0.0101963854246244
  0.8204176112403672  0.0832107210509825  0.6913407890357562
  0.8597835629890335  0.1293821978629315  0.6962840780959197
  0.9284796249879774  0.1072453337160587  0.7792091352780968
  0.9687667857737680  0.1559418236860229  0.7842552157918354
  0.9587265079739502  0.2017190082237544  0.8265835735740764
  0.0467207078369962  0.7428752264683591  0.0689472658809039
  0.8396275624519973  0.0233020159919255  0.7060208734260087
 -0.0028462557585620  0.8186493945371274  0.0853875848745283
  0.4538429456891662  0.0760851168637531  0.0184497308494048
  0.4100980111645424  0.1068555688934686 -0.0038553130814151
  0.3645937707094249  0.1721735393281265  0.0780041358521456
  0.8910683258131452  0.0582815351038801  0.7753646929305578
  0.9376570810576217  0.0935061281550167  0.8401758400158453
  0.3529027745982710  0.2505244008377084 -0.0013832887178912
  0.9862474351442246  0.1243881483988013  0.9068517937737096
  0.9284991548094422  0.1364559048349446  0.8851131734632689
  0.9886199028587075  0.1571242901073628  0.9543564777444730
  0.8663986559646814  0.0219891768295099  0.9458515151801374
  0.8709924675484599 -0.0372560870222111  0.9663641707284351
  0.2357252491505832  0.4188441007087905  1.0001668841640923
  0.9452671298576122  0.4698450337073227  0.5143021670123188
  0.8813533798943420  0.3900469764068523  0.7157548526723829
  0.3763618950433636  0.2744447156517588  0.1101760091345996
  0.9495191079639340  0.2475132639664434  0.8702374035954780
  0.7788367218177078  0.0934077200226313  0.8990274114063672
  0.7407580049451373  0.0420006874257382  0.8964712087378591
  0.8115775427581035  0.0234240974665296  0.9809364210895524
  0.5318817218337559  0.2429270334658641  0.1717242891062306
  0.9782507004345991  0.6712721814267197  0.5246908967766531
  0.4382185785814214  0.3519942344046504  0.1584966371559636
  0.9752580529420016  0.5640818179130206  0.6331970478422920
  0.3319399694091801  0.3850799261714091  0.2272296355922511
  0.9886898618672063  0.5113376583218636  0.5895654660844039
  0.3010423578739002  0.5858437475479088  0.6534436893130273
  0.7901786473041017  0.2336055666142292  0.4341617130091756
  0.7702595686700235  0.3877987524101212  0.7365202311733926
  0.7900080007164065  0.1869870610413263  0.3927079236681911
  0.7236164828827015  0.3553557475378105  0.6707672741651658
  0.6584699986777386  0.3639217873747945  0.6472473583181449
  0.7154226091219856  0.3746137058503953  0.6001400312438523
  0.6731829685535147  0.3196928123165445  0.5950804665644774
  0.0600827600653050  0.6424467109587009  0.9848387010765177
  0.9101167864844866  0.0119210127744014  0.4013506529888038
  0.9883032195963408  0.5660324051460000  0.8666643374752732
  0.3169700034897618  0.8518145196513669  0.4764372708051928
  0.8549412493218796  0.4754459619222157  0.8127157478716622
  0.2676270051091558  0.8177123994564618  0.4758651024422100
  0.3097193054146511  0.7012472074826390  0.3982996263561582
  0.8667747477783594  0.4325929336663795  0.7667810099458048
  0.6676276398793919  0.1958863835487188  0.6729732581683350
  0.2594432379053614  0.7507706111380376  0.3114992080380917
  0.7489082652869030  0.1306870801919669  0.7130475315018198
  0.6790858021962319  0.1502214351328682  0.6292447946269908
  0.2037299371032688  0.7665960769927007  0.3501021627833522
  0.6950484111317687  0.9127069992010404  0.4680788715964735
  0.1951348980932452  0.5527462106184290  0.5698996832512437
  0.6919578058962478  0.3451367772663810  0.4302949405418302
  0.9351283053055764  0.5627247089924025  0.9104387631394059
  0.2686421263462239  0.8867792063340730  0.4529246915828443
  0.9339883227999179  0.6799427651734714  0.5956362124620862
  0.2264599334530698  0.9120612347204993  0.4937804661347626
  0.2150306705617063  0.8612891683050417  0.4417101078849973
  0.8185727451166835  0.6797890114339541  0.4922277504704368
  0.7757430366312112  0.5135274257176025  0.6692525236075213
  0.8851289908999392  0.5386684932539296  0.7623869674078885
  0.9508967664747870  0.8366750958989312  0.5272781400194178
  0.8212595244505870  0.5467299279464652  0.7371807002798438
  0.8403206251182347  0.2010249021194868  0.4642276993611063
  0.7320325970208175  0.3395500178030294  0.7317638620812872
  0.6948496268221495  0.2895414608112363  0.7244489107582043
  0.6326310519175581  0.2974947681729098  0.7027157504164051
  0.8219731496983151  0.1178958281198384  0.4671517457241549
  0.5827987499751804  0.2605763259327777  0.6398647590421899
  0.8577245133325202  0.0711360274688827  0.4781325032816775
  0.6320163657732879  0.2704016273153682  0.5938557882521699
  0.5367729242542871  0.2198029393802759  0.5768227124829177
  0.5566088658238981  0.4854145860466190  0.5989038761724881
  0.8838197153275901  0.5594263807180216  0.9599464619661590
  0.6567944307787210  0.4625207380383263  0.4774959293152463
  0.8536748755867438  0.5108511641540914  0.9167783221794661
  0.5882310958242382  0.9839308877597753  0.4107295603447171
  0.3865943834518699  0.8853071833026429  0.9956259058762517
  0.9126797019477264  0.3525712497546145  0.8965265707658749
  0.3402222361764610  1.0042236240545306  0.9915866834789219
  0.6993764374364458 -0.0066538287720054  0.8907580078236310
  0.4067255075489659  0.6008548222942772  0.4068833307934435
  0.4517759193892938  0.5384933070970113  0.3271130255915855
  0.6711380357611106  0.0945583426024541  0.9178421195166119
  0.6715816563418602  0.0623248910190709  0.8104095515014618
  0.6611963386255378  0.0748037038157641  0.7480896077050766
  0.4956137842863424  0.4475939888191581  0.3715399069363014
  0.6236874709577148  0.0259235582103609  0.7448758981480448
  0.7829474300079239  0.2452491164415418  0.9268866963397806
  0.7850181426290326  0.8317468186822765  0.1813207908016843
  0.7355668853742828  0.7797631129257638  0.4587716751485446
  0.7601541140826826  0.1500574597611352  0.8802469064541275
  0.6897015719278400  0.1699466436183140  0.7969033633784115
  0.7100545106537348  0.1127900192055620  0.8147567971423523
  0.6300007065748074  0.1779860779540824  0.7762456667553308
  0.6507333956617775  0.0868030857269868  0.6872950748764146
  0.6833088153302997  0.1525281354228593  0.2509042274076068
  0.5365172974139141 -0.0108879316560839  0.6840137690193777
  0.4897599693220265  0.0526435513335524  0.6372545738748551
  0.5360726239827031 -0.0434817810842061  0.5742892247628248
  0.7837458052641632  0.7218705733715222  0.3784518409715035
  0.4934092834609183  0.9164516555901870  0.0715315988457554
  0.1611299787325401  0.8470073920081417  0.3700073484568002
  0.3242062515234192  0.8610792052528877  0.8673617999394673
  0.8014148543925165  0.9293867953140335  0.4440892699482456
  0.4467938208732762  0.9561132883421800  0.0484028028419548
  0.3801215387525704  0.9966958865300759  0.9513817630597196
  0.3406393432570483  0.9670295527877650  0.8512289289583908
  0.9746646369971562  0.4730568710106634  0.0764059314521610
  0.3024972519916884  0.9174915323080455  0.8488020967809977
  0.1324155863973822  0.4373848021428718  0.6202235168263039
  0.6255795575029118  0.6620553646545015  0.0032338088516248
  0.5128250981917483  0.7086216621984855  0.0116319067253796
  0.5164128060214402  0.7553882088879760  0.0562819409236136
  0.4681672875083732  0.8322541153511330  0.0736700897132828
  0.2254348207860323  0.5168819713393747  0.7504115777089401
  0.2922214357759860  0.9295321611165659  0.7859047613709625
  0.3217618092166856  0.5607037285923426  0.7763892788083739
  0.4338117926186971  0.8787329454286325  0.0582448760930617
  0.2725491181990309  0.5548495950061895  0.8149363527199103
  0.4338670894023988  0.9230260161656563  0.0980005887533680
  0.0820615120264034  0.6718112669580640  0.5039072977288620
  0.0975631376146940  0.6619899089973749  0.5721645996742538
  0.8423973267119123  0.7306905114171343  0.4515889560069681
  0.4889226420097804  0.8736849673341245  1.0299035314599918
  0.1373292469503726  0.5215596947963266  0.5046627998832769
  0.5075266639258372  0.8403127986328034  0.9278790296870149
  0.7827946822573627  0.0337301207974710  0.3223005868385117
  0.4229216480600494  0.8784834349605751  0.2178640770341020
  0.3765299139126735  0.9383533889606694  0.3001623931586886
  0.8328096374764676  0.7077478234435166  0.0057933496107588
  0.2266403382939996  0.2330800221605048  0.8516423579011337
  0.2646514252616788  0.2835556790533186  0.8574787528783551
  0.0601528862852980  0.8625605730941074  0.6138275626940568
  0.2621995803382979  0.3150082272641935  0.9621850743212784
  0.3166482616005080  0.3094292523581483  0.9896733302774273
  0.0166505528357330  0.8087524267803450  0.6110900016615133
  0.0057320148449665  0.8670168805017723  0.5933028564991147
  0.0656723804864187  0.8206741424780616  0.5717344970115789
  0.0043573704493852  0.0400693179828948  0.5532707324950163
  0.0762847063809737  0.0333240724485054  0.8433649923544108
  0.1134617499316088  0.0836654936502632  0.8476723277110002
  0.7195787425454074  0.6015429894705241  0.2837265625776292
  0.0687987860101198  0.1632018797116033  0.7026421821854609
  0.4871323202737025  0.9834497177842253  0.7255910306025466
  0.9795365629640057  0.7468831856162464  0.6718990208003419
  1.0017492368481129  0.4441102705591746  0.9821655665030743
  0.3038324706327164  0.6594802441781431  0.3510648749502763
  0.7110191814167640 -0.0211490701446380  0.9573211492258047
  0.5882772958224994  0.3071785690369743  0.2853884576839413
  0.1558029422659862  0.2515855131649377  0.7690951412557627
  0.7382787779093817  0.2079505641761152  0.8623410623433989
  0.6636780131138277  0.9745972402250541  0.9964999191751388
  0.2116921658118237  0.8325583862515386  0.3337907765285546
  0.8500627225392373  0.3573950877383887  0.8810708326223498
  0.3538871679329670  0.6477658420464609  0.3184570680947048
  0.9017848766134122  0.3628573779706720  0.8395334179028887
  0.4022157938591402  0.5660524048026536  0.2991694974209575
  0.8033736334592934  0.3201438367736152  0.8164253906372989
  0.3474510192148205  0.5831346958003184  0.3370454737890952
  0.8541707514628171  0.3259176115399814  0.7740867179378575
  0.8244308666831210  0.2333691648531009  0.7243316704933759
  0.4452634980018370  0.4439898851677432  0.2434594644503805
  0.6890872544572328  0.2607127047063209  0.6131894126484253
  0.7171439608933896  0.2010756075335242  0.6328611427435774
  0.6549212413567400  0.2087079343773757  0.6124299228304737
  0.6459581982876846  0.2287091109800526  0.5563383456460601
  0.6649437982766429  0.1626499320768230  0.5710743858582898
  0.4422954305075728  0.4298858760925983  0.3048566781348525
  0.5390849249291041  0.3371906443345526  0.2580830163356171
  0.0474325199617162  0.4426764893039065  0.9487422696311884
  0.9269230195743253  0.4572664421348808  0.8988923153118671
  0.9765162523570584  0.4621112912825873  0.8628425318414041
  0.4854128920810303  0.3069227759819069  0.2484128505679283
  0.7277632799642888  0.1890534762733671  0.6942564143405187
  0.4106059636849470  0.6605476791196666  0.3907520719369829
  0.2168518716753224  0.2453748086213265  0.7925101660021782
  0.6970662416348935  0.2327529533852232  0.5146422094212215
  0.9706486920520762  0.5081756167061976  0.4730037324649423
  0.7807348519055962  0.7238025520462357  0.1506485051535284
  0.0901666412864789  0.6918059250264560  0.6980118191538441
  0.9763898302501882  0.5665514719697350  0.4506934686483028
  0.3265014834148163  0.6618507881701967  0.7944257415982573
  0.3376428693387485  0.6503758031726126  0.8563479708387908
  0.8671350332456852  0.6093004656256815  0.4604336138102353
  0.1858957481580712  0.7341877330208393  0.7292455456272200
  0.8813205927143569  0.6325840330990443  0.1033510735663914
  0.3774645622251810  0.7007402639482452  0.8594751215999149
  0.9315783996808054  0.6024836054563312  0.1299594222068424
  0.0800319634657442  0.7074880158616238  0.6320240108350399
  0.0817845853993454  0.7124152664174018  0.5507971513870573
  0.7892080821718088  0.8055270188726740  0.4715887148463075
  0.3877811384119465  0.6546629859681736  0.8174031617817776
  0.7286148971526231  0.7091210418712078  0.3090600748552321
  0.9441443876496544  0.1674593750523505  0.1638871125507277
  0.1432599099438376  0.8492007752319048  0.6936963335812772
  0.8340484694037549  0.7349006388348255  0.0540996478705004
  0.1662196027102726  0.2064026976917840  0.7277768872317336
  0.4785750311138554  0.8918049885381927  0.2883562976665647
  0.1172037788611881  0.2022685152474742  0.7658223969244654
  0.2528638171734078  0.5802477024690510  0.6919298320625046
  0.5821744341667111  0.0223013200999753  0.5686744024934063
  0.7441313194395870  0.3143914898521218  0.4569467231975261
  0.8855578020592961  0.6747684783114215  0.6350861226177839
  0.7303458392819923  0.1535078881619245  0.5898470295325527
  0.4819747737821769  0.3775262560166847  0.4643900816421473
  0.7851572451868005  0.4969926519121746  0.7285449881463161
  0.7521794705166681  0.4202960834866480  0.6150523136850405
  0.6890800960883531  0.4294366687001978  0.5911585468723335
  0.6925142835638673  0.4469974888341701  0.5201159513746798
  0.7393815833129908  0.4335057316018359  0.5594681147276828
  0.5988176269125991  0.3399420103387957  0.5161519504429118
  0.9741553079873418  0.7614620297169751  0.9202423931211181
  0.9460356866888779  0.6688097528325170  0.8885415343808513
  0.4601734457329660  0.6306024072995265  0.4158209606150475
  0.5104781187978449  0.5998472974477612  0.4422311502592855
  0.5053526199521113  0.5550945026539188  0.3964761471463677
  0.5068436727312589  0.5416346708734298  0.4575273221793390
  0.8510958670110914  0.6113382865957659  0.6915846201114216
  0.8129095981269401  0.5623185585410282  0.6792834964970409
  0.6018742446894593  0.4496523286820390  0.4065312810222321
  0.5910690083944046  0.3871233045542581  0.4319669779112782
  0.6380262121372663  0.2646454304524270  0.3754461599665020
  0.9340622180800863  0.6946743016815244  0.7679193773586206
  0.6876233489343336  0.1868449276726271  0.3560411505956353
  0.9029679474931118  0.6173062117178144  0.6532420812116536
  0.0655266159088209  0.5115667750697083  0.8047899801923860
  0.6962859632058190  0.7073750482733423  0.7331254835658796
  0.8940515081839854  0.8178431251095626  0.2802514447209106
  0.3932370026356078  0.5411836256394602  0.8574391629914691
  0.2269083325241615  0.8470943185022513  0.9488241869334442
  0.4550902083171612  0.5351074922455725  0.8801663892413083
  0.8890882140640171  0.1082942721861747  0.0463751073354194
  0.8510476422084173  0.0701575899602464 -0.0164542206839760
  0.3077139008197394  0.4460166933119472  0.4846875453179301
  0.7788581971239819  0.9697794579981317  0.0541938623518549
  0.9452541058793694  0.1828237332776306  0.1024978506354586
  0.4152663285474970  0.8029975329012359  0.0650620933897510
  0.1033153916595108  0.8621531502052151  0.9023971282802273
  0.4151911420428244  0.7868918678155582  0.1260598547647324
  0.9483239710361879  0.8789790291673619  0.1641262205049427
  0.8440892347102469  0.2311284529043684  0.1110301638082590
  0.3649618109198399  0.4783210752813216  0.9171227530806335
  0.9916646890587009  0.6448656902353386  0.0656483007205320
  0.9344752009462872  0.6633737126106015  0.1105324509802576
  0.0715115668329324  0.8513901865920613  1.0088086369486218
  0.1035847024592412  0.8299983258506471  0.7954771973448396
  0.3281465052061285  0.9879290620330359  0.2147375330639251
  0.8357867181314860  0.8176692044862025  0.1479330494039461
  0.8589888887920706  0.8785560373992356  0.0427032493565425
  0.3822463630981888  0.5535090163056172  0.7991279584151105
  0.9425751482991891  0.7925693199133734  0.0742342133796940
  0.1918646291915835  0.9178395462477085  0.8705359045454089
  0.8917178570529655  0.7573646769409508  0.0665325049624177
  0.0787972139678426  0.1179972198183678  0.6618659692025134
  0.8455787988235298  0.9094354561288215  0.2378659173535436
  0.1563447341768386  0.7285946269935129  1.0009603621900696
  0.0947143344196934  0.7441423947723359  0.9726296699580823
  0.1605901496303024  0.3464863275023933  0.5280962696874271
  0.4340097097023132  0.5263276755663129  0.6570081060385945
  0.5187491949296623  0.7393280097984026  0.1170051767710014
  0.8224921507417509  0.9713303892214857  0.0057864983223657
  0.8357904670404744  0.1261399454026662  0.0266165889384637
  0.9843628768877805  0.0162429565115855  0.9866027088814405
 -0.0116655063895209  0.0415315111887015  0.9251063394593249
  0.1337174680177962  0.3424226750212728  0.8600176426437161
  0.2727719431753685  0.9379436148564919  1.0002473930843288
  0.8429316763915249  0.9348305725670614  0.0884027526553152
  0.3203111562205278  0.4079467743901207  0.7474829370021717
  0.2483286858609575  0.9546082142677164  0.9345923873590046
  0.2712216231911783  0.9137619195066399  0.1605470038100266
  0.8860326391050539  0.7401102481097583  0.1272730619997897
  0.2668572798679519  0.8989377602734966  0.9526556883638160
  0.9936667132912754  0.1533319193226902  0.1279828685319617
  0.3633096157894913  0.5467668842475740  0.5749812961588840
  0.8886218992616612  0.1521182394527135  0.0914148115471760
  0.3516481364560772  0.5915152497791694  0.6145708341452796
  0.2126455430172190  0.3754124339587331  0.6566974607232462
  0.4228768543856151  0.5804692186148969  0.9473349264326537
  0.4705884171606706  0.8001516391723420  0.1971415353721175
  0.8101279506692441  0.5005051324556505  0.0127593997739720
  0.8683964041685753  0.4600151851485427  0.0975895580973705
  0.1443505583323828  0.2976922971257452  0.8140086198522731
  0.7936862127913913  0.6558569686427602  0.0067859087552783
  0.9540882050897557  0.3042519407742819  0.0699886179224077
  0.4031032302225573  0.0153965453337531  0.5787331767485910
  0.0105076768092245  0.1752167855355116  0.6828665136263501
  0.9035250023232878  0.3201302233167956  0.1058079518305625
  0.9004724923265987  0.2752489702630153  0.0549936666145706
  0.6255383598238330  0.8205566084669109  0.0678127018572609
  0.6750688176359636  0.7962469248782407  0.0396695586171414
  0.9970925759108702  0.1730336000844384  0.0643122494481406
  0.0842512591551529  0.3390318611251973  0.8945229764606949
  0.6541253432784554  0.8082034715676694 -0.0214842835706305
  0.4323337169847039  0.9581217714227773  0.1448146834419311
  0.1443071382164129  0.4829079414590868  0.9487180166140492
  0.1565075413090036  0.4378775536214976  0.9091401129569866
  0.0987404451065945  0.4416263265203127  0.8874481907246473
  0.8221089823340256  0.5373420667438459  0.1124367427924529
  0.1226909985915485  0.0688314645507030  0.9135051327004434
  0.4318040665649090  0.5898865254637149  0.8700845904369093
  0.8915983700842415  0.9421322036750673  0.2347751729548889
  0.2016684291302396  0.3214549295788519  0.9448772862389013
  0.0914789310662181  0.5644618690604779  0.4810845209423311
  0.4917682037037951  0.0102361167923787  0.4918200999844972
  0.9802264361181654  0.0041290403554337  0.0559091964686860
  0.0551483009484088  0.3128831031332048  0.5015032141224824
  0.5364125723506573  0.7047493246603999  0.7967631657803225
  0.8361725642160028  0.8376638421616454  0.0871150290160470
  0.4971203389321183  0.6551583288119194  0.7963977583208203
  0.8779399147986237  0.8149250812956246  0.0527462257264753
  0.0758613291026015  0.7686746421777695  0.8487097146663586
  0.0670921648792154  0.7809864281778198  0.7880363653464615
  0.4358460148779875  0.6616589973515467  0.7780679060042437
  0.1121269942630622  0.2931759120136160  0.5238750191812764
  0.2335498996158723  0.3188454900985311  0.6742681634162806