Cr N  Ni
 1.0000000000000000
    38.8588641550299201    0.0000000000000000    0.0000000000000000
     0.0000000000000000   38.8588641550299201    0.0000000000000000
     0.0000000000000000    0.0000000000000000   38.8588641550299201
 Cr  N   Ni 
 1596 106 3725
Direct
  1.0010374726380269  0.7261121117806564  1.0038163713699007
  0.6586731129800364  0.0565671881216821  0.4871347263732729
  0.3868236427342876  0.3834726803034154  0.1314579652426776
  0.6373760643519770  0.0093390780214721  0.5333530710389539
  0.9493364237777561  0.3988430943834538  0.9238854253060714
  0.3305315565782497  0.3528970190785865  0.1239421891208056
  0.0399922953929338  0.3029755585456388  0.8241462907727107
  0.7823849047616109  0.0603804135000101  0.7921604524366309
  0.7442426363967658  0.0426956980047835  0.8949689698817218
  0.3726001878528739  0.2917361507601108  0.0482239395729473
  0.5933402312059447  0.1566533081633735  0.8759642572042690
  0.8616392229545734 -0.0043618890342697  0.8331013023307053
  0.7839526727497248  0.3479165078472329  0.6851564767681920
  0.6320627235453739  0.1837173383318947  0.2224630606222740
  0.5866130465151891  0.1862118689508930  0.3220371347308604
  0.7407341315625843  0.2708117930847421  0.5722585185617093
  0.7268479581302951  0.0349982386042205  0.1883137172626551
  0.6578320402210432  0.4438974547808832  0.0872368964002303
  0.0726067649642701  0.0456836371612319  0.4525162890648281
  0.9340862310481371  0.5417101413373989  0.7280629041273267
  0.9152992586398038  0.4328239068452727  0.7394773201154557
  0.5713664249027484  0.2141547312213900  0.8578379324488121
  0.8052215328343115  0.4227499725661886  0.5670392385985525
  0.8638842782192071  0.4149198543242710  0.5823069633252530
  0.4643536048090958  0.0541675537945939  0.9106378389969593
  0.8611413980549280  0.9238800596770663  0.5261339697804486
  0.8937103110041850  0.9834442642493447  0.5282368223141261
  0.7577473950406949  0.9288932728944621  0.5443989940398639
  0.3668225194654897  0.7980264443759991  0.3934683135123350
  0.5604935956093442  0.5703475752680185  0.4747581501359653
  0.3635609391438123  0.7530284356667358  0.3465168275202037
  0.5092615213976679  0.1888135113175614  0.7305362269943469
  0.3633006664728599  0.7706348044778013  0.2861802909414261
  0.3095289397985949  0.7555890936232655  0.2155315420426090
  0.6038709122403136  0.3689078998929137  0.6243212731342989
  0.5051280081767396  0.3258439169269963  0.5953022849860503
  0.2674964403362385  0.8602048995870031  0.3466562564429320
  0.6737135326616869  0.3467291502161355  0.7067441110698232
  0.5393522895040007  0.4037460335924062  0.7100026883972779
  0.2223874592394649  0.9405763446666774  0.3630828661599569
  0.2726310603223395  0.9226733115012927  0.3291826923216357
  0.6710920551621100  0.3750906585885106  0.8146730162065673
  0.6584401974798735  0.4190496353231725  0.8622662980387370
  0.8312835819835591  0.0342596788563014  0.2212948288939888
  0.7054506596855410  0.4605167358414861  0.9290127508472881
  0.6474969534489701  0.3883697336123644  0.3335433486283447
  0.1085913148454529  0.8774702286592038  0.3451695623117591
  0.8745406086142915  0.4022797651594572  0.6454465651364747
  0.8191623879476242  0.9075137589325643  0.5683904774010958
  0.7800185805342800  0.6796388352430047  0.1069661471283543
  0.6860360909461832  0.8640840805575333  0.2510594405571405
  0.0137658219746911  0.4411095231180697  0.6600370602153492
  0.6386686364017707  0.9387790552812916  0.2680689506962634
  0.7512246200829649  0.9616293254983169  0.4165317761241356
  0.3216864724445095  0.8258388259419449  0.7627334458806471
  0.2774738741305277  0.6561182376853771  0.8372348150824176
  0.2027555311285514  0.7129606337144447  0.8593743716350831
  0.9730345161663011  0.5750132624302089  0.3926162449396998
  0.3430274170601491  0.6787822857579687  0.9610443735886406
  0.9798617716545709  0.6376063879121774  0.3716183950266232
  0.2429935045922184  0.6354938971440098  1.0038192940082029
  0.2606727443054757  0.8012984845442500  0.6336598935043671
  0.3481927337292125  0.7264108164125396  1.0065189972620423
  0.6811394124589616  0.8167726857294517  0.2045947246213697
  0.9086185340616576  0.3733359857445595  0.1463663100414468
  0.1094362988383281  0.5536977629721292  0.8790396738215565
  0.2235422318431857  0.7489920010055999  0.6339887781291853
  0.5849059663815747  0.9247415892055610  0.1972858158824422
  0.1827181720528555  0.6997354921172126  0.6293134948161636
  0.8860892352696815  0.3424728482639242 -0.0115684824573518
  0.0844992789275385  0.3998578018320952  0.5430013951828193
  0.0249142560793608  0.4293160749049043  0.7204581948527290
  0.7822895676553673  0.3161410268686153  0.5802131329672194
  0.2606071812155619  0.8156250415066721  0.2985142024311467
  0.3872387739779726  0.9033710566982960  0.5960393327958636
  0.1923200369891901  0.6170973230871126  0.2763760675238970
  0.8752226011569947  0.5183529380244675  0.6003329452588572
  0.3019013588346245  0.6475094792516937  0.1881624298704890
  0.8552785193237240  0.4253001891363711  0.5174478616488601
  0.9628367544523001  0.6047989045418528  0.6757918559797809
  0.5706139930362070  0.9509775371760208  0.8724530901802523
  0.8983257697924515  0.2326899738124870  0.2429502121089188
  0.6137416249570684  1.0055037178251982  0.0280663463692272
  0.9555067352363745  0.2781284818498518  0.1921289044179129
  0.0646166070369094  1.0243121906577874  0.5778829150250340
  0.7183477805364131  0.7861628100210852  0.0020987760686693
  0.1031883811536348  0.0963524690983594  0.7828685621300087
  0.8526686357989798  0.3260509129383478  0.2000113457888321
  0.5480128342963593  0.9736687088050829  0.7465960537891407
  0.1035255858599226  0.4928932211266670  0.6192344982122502
  0.7896244530492773  0.8288374608206261  0.4095391803380343
  0.7312550747255925  0.0792759081667771  0.2310679781523498
  0.4880470506644318  0.0164923490416542  0.2500738053844111
  0.4256785921251307  0.9885736892077224  0.7027561826635090
  0.7927803833983763  0.8702129129766782  0.4599414738563493
  0.3659728442234583  0.9952317496202864  0.6820492728983427
  0.9570652324594007  0.2926629083734093  0.1292422412321945
  0.5581750675114621  0.8879044623821354  0.6004214620125059
  0.6634343341423925  0.5325308076101060  0.4662702157845540
  0.5735289336097482  0.5592088007714690  0.5399633245399285
  0.9960146993097021  0.9500042082881918  0.7406381092366678
  0.8877482629865601  0.9565064704435716  0.7541561283360866
  0.4699074527543766  0.7368093288376084  0.4413161363342558
  0.7577829185343832  0.7052076253495343  0.5320038245828115
  0.7947171324267757  0.7989708720786158  0.5826952059984735
  0.4736994455976594  0.7974829447799465  0.4235650117228668
  0.7741244417168338  0.8626059733742362  0.5510435598967492
  0.3790964082036358  0.9071571013080445  0.4222577785014290
  0.8394338753736548  0.8784886513490725  0.6942151820001725
  0.3269681682291055  0.9255123151377048  0.4633227343610292
  0.8593953747865178  0.8935458029893769  0.8139240813437868
  0.3324324136549108  0.9831823698119688  0.4456310934043962
  0.9414416378895077  0.9808968860105639  0.9066807913930937
  0.9305763737207423  0.0153341588935848  0.3186327833198225
  0.9524255514948415  0.9709137591458868  0.9605514876798825
  0.3523993826510393  0.0674343366819285  0.0396852203677956
  0.4648271467289572  0.6754083949711406  1.0025446295706710
  0.6402342442660856  0.9707901892683165  0.1441005155658045
  0.4065469522808397  0.0434225528783412 -0.0118733924859601
  0.8597186364041338  0.2370643350715628 -0.0385387825526149
  0.0649672000585499  0.3280961160089460  0.6616272872886300
  0.6348260468655383  0.9101300998104371  0.1609573650244569
  0.6290473241379878  0.8648674700199003  0.1139157409872389
  0.6755308518826191  0.7084052877661859  0.4042594470097132
  0.1608049855747974  0.0538429962965594  0.6992690554680407
  1.0014359677183784  0.1978158545794544  0.3993610360227278
  0.1846021003259412  0.0105334786541573  0.6198936634638009
  0.3857816762445938  0.2716002015552789  0.8921868273354668
  0.8951780340290939  0.1807249264836093  0.4239098356293777
  0.5255249307865953  0.8088532899176998  0.4933194480783460
  0.5786926807573134  0.7981972326071990  0.4566603580159980
  0.3012522628732266  0.1824230867575256  0.8253626362340961
  0.2410568748966987  0.1885908855478456  0.8056575022110671
  0.5786045612909906  0.8148621034406105  0.3966099032638140
  0.6695058468862838  0.9602342970411842  0.7902941167341067
  0.7341499643766398  0.7889058665294637  0.8416466518530906
  0.6801004030787817  0.9155597884815531  0.7465869300183711
  0.3919544041864567  0.4721903687906670  0.6590297907397388
  0.4778693029454036  0.5607692671074831  0.7262445769288599
  0.6026782797192298  0.9404042058391855  0.6018871381083296
  0.9652965174493875  0.4535541880521478  0.4277439667854598
  0.9597118224880891  0.3899109782859322  0.4521942371311490
  0.9651846636799218  0.3320108288401586  0.4651032322447811
  0.5346266720583053  0.9322781321259093  0.4619935323561481
  0.5739032026921720  0.8359199392001879  0.5593481321357529
  0.5050927151309187  0.8501992492516982  0.5312047564063069
  0.7277373265038378  0.7201709251881681  0.4748122085281272
  0.7317340582299265  0.8168017536145773  0.1084314292302205
  0.6534256368929477  0.9464661210393386  0.5627303723284878
  0.6110955253671453  0.8837635068556037  0.5573810015185466
  0.5579149460437950  0.5701213035084012  0.2387307609456046
  0.6095013668877791  0.5543839360010203  0.2050045858350080
  0.7061645467196614  0.4484106949741811  0.2205882615007995
  0.4472947307730794  0.5988967726281806  0.5399189361361088
  0.5246016629171857  0.5540830055751521  0.5793865591972766
  0.6042202551689806  0.4941415733826551  0.2240459956107548
  0.3664088836207799  0.4883934201825330  0.5337096798516167
  0.8224118515769746  0.8676782968579386  0.9909202740326846
  0.7027074819419089  0.4006589441434999  0.1773291507724007
  0.4231351680085625  0.8296189089646928  0.3995128536723385
  0.7873772033265535  0.1870792008892866  0.1630611142053590
  0.7461383919316709  0.3097179899407990  0.2248322050266307
  0.2176279770307110  0.9560331441450766  0.5471266184375695
  0.4470476691711897  0.4112509957038615  0.9600172091011445
  0.7633839328984277  0.5631164508985146  0.3749651100673370
  0.3750879874685411  0.3210671816330846  0.9369319813606549
  0.8111171850421963  0.4844795436646668  0.3592358723603395
  0.7581221769995666  0.4530549672066933  0.3511242475452830
  0.8025213458683402  0.3743656864472248  0.3393531529291604
  0.9039249166792309  0.3243230111399819  0.3327881344330591
  0.8551074030186306  0.3922951840529105  0.4117893221677016
  0.2348586480023045  0.0718568334260556  0.8868194920253696
  0.2191566337298504  0.2125462309027303  0.6816896778830869
  0.7149405366050228  0.5570356930210701  0.2421006545907260
  0.5978603182184521  0.9532412997709181  0.5361775718585621
  0.7039283103978585  0.6317791604839184  0.4719084285423262
  0.8157086964702122  0.5821029882115710  0.4565590156398032
  0.2443126267766956  0.0620009842432242  0.9517201865781344
  0.1651719878421919  0.1273635165061019  0.9068701987523154
  0.9078611472978000  0.3400157607987220  0.2709908639499973
  0.8962555154204159  0.2172794541991574  0.3033532152962942
  0.6968407747672285  0.7399218339960759  0.8374403305154979
  0.5152011528998367  0.5250641528424608  0.9065536993500688
  1.0353972512223264  0.0027880942449133  0.1866789140532746
  0.8253848135612766  0.6418337104311168  0.5050466565386018
  0.8197911610803306  0.3081606545894164  0.8668510779017966
  0.4172895313171062  0.8013917604224400  0.2944916135879028
  0.5213728246027438  0.7542993856838529  0.2826851538692330
  0.7146820770294739  0.7170450745732403  0.9614662717495502
  0.5164039674419477  0.6935419121074619  0.2994389859667736
  0.6670884210477961  0.6784482425938735  0.8952219752546575
  0.5697176579477493  0.6347738220034431  0.8742663837119435
  0.5974871276819699  0.6972314434168321  0.8144016672687999
  0.6570701223658669  0.6897845853479864  0.8345755874377788
  0.6209307453288389  0.6377354964411636  0.8327207906142488
  0.5979985911990923  0.6662100370637152  0.7070948466754368
  0.5722756405064857  0.6020485359018790  0.7660203089979754
  0.2616515471348396  0.8330774425448562  0.2355939674809785
  0.2588079214751923  0.7593095829387786  0.0862883048300956
  0.4408632514258074  0.5106995469243056  0.7201010425962924
  0.0222682326742150 -0.0214612800578565  0.5764924044530969
  0.7461114839322056  0.9830074583100429  0.1125767676657418
  0.6321771178441353  0.4355150779912112  0.5718711807494392
  0.7122089813330238  0.5210706802138955  0.6493528851411029
  0.7361197353120830  0.4632389692009639  0.6646332017900126
  0.6263980241226881  0.1554176734652189  0.1150948058715248
  0.7552113558795592  0.5787598363571811  0.8338527922820400
  0.8141886772964355  0.5719764743822764  0.8577874460864329
  0.6917840865966970  0.2928957695250539  0.1543972595850252
  0.9206625810146849  0.7560104982481972  0.9743265871802254
  0.4922010058563905  0.4014134180756796  0.3308331413305664
  0.5954060993340987  0.3855092263732876  0.2024368136687032
  0.5327098094027330  0.3950100079088818  0.5373510901750264
  0.4980721158467194  0.4773909755523453  0.2500871881881576
  0.3953172963915422  0.5221920863266256  0.2587723209997416
  0.6499148583148823  0.4049724176606551  0.6914382193113644
  0.6860176015019612  0.4544195000421826  0.6994913066364056
  0.3982882133796692  0.5375229523194610  0.1967162729880847
  0.6373857826224264  0.4459302766057744  0.7363735996773264
  0.4071826148004694  0.6315956634505034  0.2827719375506250
  0.7215451920066249  0.5321877195581497  0.8148287996809267
  0.9907370092140232  0.0639213186234998  0.6921644996009353
  0.9467156452692834  0.0291159679934316  0.6270754480690947
  0.8910553618178578  0.7919773220387440  0.7860449663319307
  0.3032378457819588  0.6778854845365597  0.2938786375243430
  0.7610915452804164  0.5678464673231669  0.9001848032941343
  0.8057677181908101  0.6069890739358171  0.9638040363438940
  0.8156769781305080  0.7250157740792262  0.8807037748024965
  0.1547250807441598  0.7900967783688040  0.1566928265615580
  0.2074875413383418  0.8029184664317199  0.2258729638221011
  0.8441289489528014  0.6347632442243234  0.7975269052305139
  0.1575949801189837  0.8527772765625048  0.1403728670488082
  0.8605329793205224  0.7423532466371018  0.5574718539648367
  0.7514002066772985  0.7514375111933643  0.5787212542634698
  0.1605957639521479  0.8805561555799771  0.2468542380680102
  0.1266036959021928  0.9078276468428716  0.1316273654759799
  0.0850380763450192  0.9873028400869572  0.1510645619930840
  0.9062899589890200  0.8241107596870147  0.6718468138255507
  0.9735794310119649  0.8427699813854460  0.7568489411471507
  0.7193561053964156  0.0008936587550606  0.0666806220343321
  0.6729888053727103  0.1003606384445990  0.0334065745697305
  0.9197237353208524  0.8881080222397850  0.8384981241864576
  0.7606817114943952  0.6526355817435668  0.4843696532517957
  0.6033398672925913  0.6677178619476275  0.5444077869856587
  0.5868020956810779  0.2927978298604029  0.1178746503923975
  0.5435186484691837  0.3692748693095044  0.1314132535997434
  0.8324693983736308  0.5515485846502519  0.0512316548482374
  0.1527628122113779  0.0993193126559795  0.7417381860741755
  0.9021680741646432  0.3096428931393825  0.3955500220293665
  0.4631096590082268  0.4845665419197596  0.8411531774358437
  0.1847304246266908  0.0322491972848188  0.8245590325103304
  0.9807470103145295  0.8804416279294917  0.8601005472367457
  0.6183140929167523  0.5473816080229889  0.5025271394706317
  0.4457739566041354  0.4598830339776167  0.1816672774652610
  0.7438776788178688  0.5867378432633636  0.5949758947040945
  0.3510404800442463  0.5833990694731660  0.1073671045661657
  0.3520587061610997  0.6159174005454173  0.2133159638845529
  0.7833267753308107  0.6605814678275709  0.7143214998427408
  0.3542901563681063  0.6765514392492885  0.1974301449346655
  0.2546852564956836  0.7249863368179515  0.2070054384739007
  0.3325620875418432  0.2694989896274427  0.9361724511917043
  0.2592104713679531  0.1669352848984759  0.9291122842374319
  0.3624548007647496  0.3892200709183503  0.5279332288861764
  0.4782792775492223  0.4102819210670929  0.6903094988866268
  0.8944176539073142  0.1866841452638820  0.1968560809946643
  0.3459478219436321  0.2818948083414448  0.5504044036016719
  0.3370723682257461  0.3295434487223047  0.5867201210977223
  0.3034662066069139  0.4158590273245692  0.6994516707456003
  0.3844883058667342  0.3673283702327490  0.6521237063281233
  0.7974597508184578  0.3138530719354570  0.3583778028588899
  0.4031412730615397  0.4596216735471172  0.7169448517629933
  0.2729731378395830  0.1210039969301784  0.8870394953373963
  0.2143148213892372  0.1290734509054366  0.8657034048395402
  0.9560177467671710  0.8207232349581078  0.9125594035278251
  0.8862556163064454  0.8481731100141071  0.5511992688640749
  0.4672972856133058  0.4238816714980586  0.6289112004552750
  0.6463398084325848  0.7026261299728168  0.7736299945898735
  0.5509272474930653  0.7843597052213217  0.6748765507452168
  0.6882412696574853  0.8745842721503695  0.4178651750264006
  0.1416142640674043  0.1104476107022894  0.6783912692478383
  0.4450369121707408  0.1130654047819014  0.8899152722239170
  0.2080828861255672  0.8202967736657546  0.1652672252330506
  0.2459579337710747  0.5389037832329306  0.0368323867913464
  0.3025982194491473  0.6163342389658510  0.0860150243620733
  0.9557975350617054  0.0157302484336582  0.6886383056078834
  0.5689290777082935  0.1509861897413266  0.6484845573599727
  0.3035707325229609  0.5673402420423885  0.0454286048675190
  0.5228891944360330  0.1124711286376833  0.5728552246864254
  0.4927976900821965  0.2093603277483104  0.4469643821891310
  0.5359107744879331  0.0690842868987476  0.5251106618471533
  0.4592897588160119  0.2541540555086381 -0.0253358448390035
  0.5221825915310855  0.2408161426971318  0.0015638448967860
  0.7795315865423700  0.2941462763049433  0.9696997454553596
  0.9296180581118928  0.9228468822078433  0.6171500234086221
  0.5150637329798781  0.0073150597829241  0.5488999825496604
  0.8960832738708984  0.8373389326219530  0.6094238629978811
  0.7888393201387420  0.8040408939100548  0.5246303317646507
  0.3117363687728261  0.1368874801295440  0.7835777032939507
  0.2185134854704596  0.9284989472581934  0.1942248119347856
  0.1579614026230504  0.7640821446819287  0.0540285417440995
  0.7079386554617978  0.2762614427434145  0.7824109970873671
  0.5591885713132607  0.1952228313440721  0.6918275789440239
  0.6700356985381294  0.2243200164270659  0.7774417475275688
  0.7047933002244243  0.4551856784459602  0.4414428986948770
  0.7106472407114265  0.7314525478211181  0.6784963787507763
  0.5366211502354071  0.0022375060368225  0.8884500516212583
  0.7947634490554116  0.7487401742366592  0.7580804209474499
  0.5261245381258928  0.0155568836592485  0.8248443797176017
  0.3502561232313794  0.5357587546941197  0.0696167528300526
  0.6046310493273319  0.1848715895803099  0.9869041158355413
  0.6529722416486429  0.1499831675809260  0.8983572079140271
  0.4447226540218308  0.4282922573830231  0.0748398567690325
  0.3921452593773662  0.4119284137695213  0.0081234271964912
  0.4428805899662061  0.3837589047372487  0.0270439183969321
  0.5644770471302336  0.0624718699026344  0.8295667535741351
  0.4756434484898745  0.3571260870876520  0.9763989677667475
  0.5526796336495029  0.0747338313770693  0.7670080220599625
  0.4369643222384306  0.3221285652675219  0.0546013828452398
  0.4876878220015754  0.2995801497317488  0.0042676777268448
  0.4396518193877635  0.0431135200911530  0.6771197071750277
  0.4146069186870050 -0.0007666256549343  0.6401451230767389
  0.3231319141101215  0.5801817529724747  0.9537488133067072
  0.3982171489642856  0.2400959667906213  0.5154532164008457
  0.5122764189417504  0.2576603407137595  0.4930813030738854
  0.3566736002824665  0.3403084730246241  0.8113273325923267
  0.7781139368240555  0.7094820215917916  0.9827570370174263
  0.5027051557122195  0.5928547365611208  0.5192550092729105
  0.7468781466401579  0.3315623212858926  0.3936975004959921
  0.8324072861752428  0.8312290285332413  0.8744014105547079
  0.7761788926592715  0.6771102920203510  0.6530064208054182
  0.7129989009055523  0.8132796954479311  0.7187577492829746
  0.4096774016443314  0.6930347282532279  0.2654649193998550
  0.4398523442694012  0.4000663723139068  0.2004152762620562
  0.5814770195570464  0.5907887074903975  0.8325711207322423
  0.7591702432454696  0.4655364083402012  0.2896974584053498
  0.8700264164218802  0.3486667165261995  0.9294019875172611
  0.8740169167211684  0.5663891297735856  0.8813281279948254
  0.9205660046890592  0.8137319102291062  0.9537658058428561
  0.5506235410175677  0.4945303589283929  0.3201379437974634
  0.6007299473095788  0.5637361799254662  0.9680847286140434
  0.5877269514527003  0.5780854957121759  0.9042493936305468
  0.5065730566366923  0.5855814054639686  0.2741385520122582
  0.6216572832508344  0.6456290301685141  0.0618794345319715
  0.6630045275226405  0.6031557420626318  0.3807945593229183
  0.5203787165760086  0.7384453232311559  0.3428197875304859
  0.3446092324139807  0.3169500577151366  0.6470906834951274
  0.4767209063955338  0.8584633007884961  0.4077803454316213
  0.2028112016704712  0.6800011576795385  0.0341450479802267
  0.4319744584706878  0.9373297890713037  0.4308489039386611
  0.9447071337594347  0.8983886963807934  0.5133993265754605
  1.0138057220829289  0.9977011800765584  0.5092474866315970
  0.5052124918907580  0.9852120152228343  0.0496567850773796
  0.5476175233244031  0.2073545510854137  0.6311174817069523
  0.5746765645798955  0.0497298829121528  0.8924906178574710
  0.5976274519908321  0.2458406331136564  0.6971050010760810
  0.4880746447752061  0.2285912546473253  0.5428866106702931
  0.6819354731746748  0.2446785333621136  0.9429008339429108
  0.7314032617080144  0.2524638067914450  0.9027632041516236
  0.5746870989913097  0.2083282945628805  0.0225568240058040
  0.5213070464310622  0.1757701806130264  0.7914367737336344
  0.7417295349770731  0.0755520161741457  0.0021436800051709
  0.6177177057992793  0.1082445885531686  0.0653027000786457
  0.5807127329527809  0.1378043764243901  0.7084938896778042
  0.5416089030278435  0.0872383334466984  0.7036884668035901
  0.4793296853634320  0.0937870637138871  0.6818101187336711
  0.4676934195689079  0.1066333411157784  0.6189134848421990
  0.0286563376768399  0.9732887117828554  0.0797826266528765
  0.1333209501608286  0.9721206613426154  0.1169295661149402
  0.5437204751095358  0.0528137051836460  0.5927933062179940
  0.1560033740260743  0.8077713715564643  0.0959693808220061
  0.8828976117832674  0.4451646492049505  1.0012379377766862
  0.9511582783069171  0.9658660604908156  0.4971199002341373
  0.4247871160958350  0.4346363544830074  0.8380710569743649
  0.4360986079416859  0.4240295074508799  0.9002307777158266
  0.4042792509079899  0.7491118663983968  0.0248194307873476
  0.9896240503479342  0.0788448263837691  0.2055791352335422
  0.5491964270569428  0.4568280596808055  0.9855187126935320
  0.9484135116981199  0.1851523687442998  0.3304594025760901
  0.1911835339152344  0.1506330510874674  0.5164523020617103
  0.2164761656444541  0.1745753397369817  0.5765851766039667
  0.5763397829172647  0.6240643937762521  0.9388017581202054
  0.0035070112415554  0.2300676348948429  0.2794987691163552
  0.9411181869512357  0.0945857063129400  0.2396580064296002
  0.6563194755278708  0.5105639318620403  0.2955651203394226
  0.7042716317570958  0.4339957201582830  0.2807625325959764
  0.7454469804984004  0.4742511663589642  0.8307462160919701
  0.9253709986790776  0.7245220516520212  0.8663481873110852
  0.1175901327596984  0.9579144848785831  0.2672406520121537
  0.2012018624149503  0.1052841339445048  0.6997014368194645
  0.1392188403211877  0.0756078456289691  0.5755432331524104
  0.7293225891027740  0.9528787454612135  0.8118231537560201
  0.5543428037525967  0.5049982010476767  0.0329122347157539
  0.4267411168682059  0.7525394531191211  0.5355648874573744
  0.5054736362197346  0.7626137230997971 -0.0028932724333127
  0.4781418486149994  0.7919099436734079  0.5966802942839392
  0.5898511905072037  0.8276533602072297  0.6808946885832035
  0.3572077510046084  0.7781354298008740  0.0512889160307210
  0.8615761179161590  0.7749494402948649  0.6638489442264794
  0.3566051968446769  0.6201326185106609  0.9821882632247951
  0.9682856004563275  0.4221577883999509  0.5006424349865797
  0.4977532819649200  0.3821006578284351  0.8117392980868406
  0.2343428854925867  0.9396876872514631  0.0444262754892203
  0.6198836950724159  0.4012332053999551  0.9627516946686652
  0.5494674662859970  0.4229963537561682  0.8820306495833223
  0.1289725387907292  0.9258930569918041  0.0730160409400061
  0.2328562354591417  0.9267008795167673  0.1050506090412738
  0.2786578106522037  0.1351131230666311  0.5507813650056348
  0.7299742621315012  0.1870819083254215  0.0285172558803349
  0.2385476098970890  0.0211098603763218  0.5749211362054539
  0.3284286495078592  0.2100858268510498  0.6630986520359304
  0.3776393313446991  0.2472489751630046  0.7282414128188032
  0.3887969709421573  0.2367346739182072  0.7883348945982158
  0.6831340842178285  0.2848230036794239 -0.0136983229367399
  0.4987455208250043  0.2645501577417439  0.8802374462321786
  0.5552116711681849  0.4429233485086412  0.0460994797625123
  0.5093301140229380  0.3685904287100617  0.8805659615787985
  0.5006925663408041  0.4598521596712105  0.0851017823891413
  0.1804976025923314  0.0425860166331924  0.4880642315089823
  0.6054264597769390  0.3630108923146613  0.0268966927582855
  0.2487038729981304  0.9675767346855948  0.6013145624167783
  0.2653067266601815  0.8681961916532688  0.1137079373483686
  0.2096342042141371  0.8375396012990118  0.1057509366087952
  0.4138497008254612  0.4472426378839987  0.7782360631414634
  0.5581458118416039  0.5382374085565922  0.1357426411911476
  0.4563849054423543  0.5839911254739053  0.1430943848462860
  0.4540401780226182  0.5378752915116073  0.1025345834400615
  0.3570780275459131  0.2712169609353142  0.6089527531421486
  0.5146447937194726  0.6297127087826133  0.0884550995769999
  0.3081502059898350  0.7433585543813487  0.0466223349237983
  0.6606710305917325  0.5599070723693251  0.9845910436158424
  0.5655455338904316  0.4692451976957402  0.6571274436042740
  0.4806752465978343  0.1696780385156574  0.3464495523177730
  0.5423440452462510  0.5331487521353645  0.6411647807068349
  0.5143463627318438  0.4592809495085428  0.6955504211372845
  0.6244121196151599  0.4882141030195266  0.7822782834236499
  0.4483388332807723  0.4451151124931205  0.0137900292195727
  0.3477980861211937  0.5693714242588624  0.3995374191075943
  0.6113588874489603  0.5306400136252151  0.8237345093902343
  0.7020291971887215  0.5731044818936003  0.8761540839489507
  0.6444060635591594  0.5825016219416473  0.8535692117071570
  0.2156696033107386  0.7419679481922580  0.0217665783318855
  0.7335489335448571  0.5220265117533736  0.8719401410925570
  0.6886760868187705  0.6190103233867580  0.9148934565906049
  0.7320166803348435  0.6672467439622350  0.9795249099784793
  0.1754448667877571  0.8446288295926092  0.0505664594811270
  0.1269807102446355  0.8781546445981367  0.0245309647832291
  0.4477630092888631  0.3303345251032739  0.5711545997273832
  0.7999918241521998  0.9001475704889124  0.7906719616790912
  0.5646167724488041  0.4957561017707696  0.7637742171783606
  0.3607013425258166  0.1756484831505146  0.8469332211263346
  0.2569755522442802  0.7098326689780310  0.0439228316782551
  0.5373477077376567  0.4355048465191477  0.8161735180795443
  0.5740110554126916  0.4827043553607206  0.8236626280079777
  0.4096024778644682  0.5806116639818886  0.0121276788966770
  0.6840856033647237  0.5171976399736997  0.9096262215159040
  0.6230811280061477  0.5223077490523448  0.8880932232720795
  0.3581438176124499  0.6015445877078640  0.0463380293800572
  0.7759968700449638  0.4074718332548822  0.9136628815271101
  0.3569162707370487  0.6470998489518651  0.0872662344527313
  0.2946731496927009  0.2781255021085690  0.5837336518376880
  0.6232364242891582  0.7594124999668072  0.7567651370974235
  0.4091626764836601  0.6608526999303215  0.1596854544901550
  0.3729476879325198  0.1304032693232839  0.8057139441158252
  0.6425706322328072  0.7598860545434609  0.5991981815112191
  0.6984188676931563  0.3556615852121449  0.1359994225842273
  0.7255959527595539  0.8580169701663117  0.6030214894862429
  0.6723409930508688  0.8561724688739480  0.6441989405749703
  0.7517495800448142  0.7828665089279278  0.6822668468812105
  0.6023523128962716  0.4467777082094164  0.1812722486737206
  0.6914801683405620  0.8693471728803015  0.7009587781046438
  0.7783885015498829  0.8902789824558999  0.6687549812607874
  0.3037163438646595  0.6299016655751091  0.0268443836376746
  0.5553770866344757  0.5229361024566735  0.1957422404775545
  0.7884585697736033  0.9455831134401824  0.8347311915051591
  0.1787044126567071  0.5962951896956017  0.6138309596682813
  0.2074765249007362  0.5971495823446432  0.9015355705050859
  0.5667750102258629  0.6473814151747206  0.1593263536111520
  0.4145163209180503  0.7095146432190202  0.2074796777811087
  0.4702289281258422  0.7859993389221483  0.2565311808089064
  0.3675812792598699  0.8317691305449143  0.2698125830512240
  0.6935309502959953  0.7933493684270073  0.6638958973481300
  0.6624879720108954  0.8090633355285833  0.7608144650742235
  0.3238371988843165  0.9243044317385922  0.2264229274400978
  0.7621845586961122  0.8515059452626326  0.7851212013430596
  0.7113053304553012  0.8780084603231267  0.9316326447372193
  0.3277175538906639  0.9411176084520666  0.1684172862132284
  0.7989133161190657  0.9334535320529594  0.8967449630453648