Cr N  Ni
 1.0000000000000000
    38.8588641550299201    0.0000000000000000    0.0000000000000000
     0.0000000000000000   38.8588641550299201    0.0000000000000000
     0.0000000000000000    0.0000000000000000   38.8588641550299201
 Cr  N   Ni 
 1596 106 3725
Direct
  1.0037180157197396  0.7272979191998488  1.0048728892181298
  0.6665634238194187  0.5533421669903196  0.1109674576294046
  0.1924047670957372  0.4016436353101390  0.5217663451460506
  0.0445881451284985  0.9537349542246294  0.7025021962627498
  0.9432526139672137  0.6790272574057612  0.0526652160128808
  0.2158007055027476  0.3597259400512776  0.4807954392608500
  0.0632507406058859  0.9640817774530712  0.5344667492476872
  0.9584531954003080  0.9107979945795732  0.2775934813227466
  0.4720640763282750  0.5909337748805523  0.8459850587694756
  0.5111351741995322  0.6409767209064444  0.8530405947777240
  0.3515570109436585  0.7243394228933762  0.7406904233556989
  0.6490472834091942  0.3376956219899435  0.0630050658243971
  0.8692149638923261  0.9644067243246057  0.2944993955032120
  0.5982394963297102  0.7319320570793475  0.9193572351833837
  0.5379548694415511  0.7380940850818266  0.8984852191586670
  0.2761308238454434  0.3357214063895569  0.5639713846699642
  0.3678297736699368  0.5314910987008211  0.6393577995246689
  0.7254492043050927  0.5969985908177581  0.0573619527868557
  0.9449147430444709  0.8183570424601154  0.1857388112696077
  0.2916556703676284  0.4280893548686914  0.6407709388256588
  0.9616361080216235  0.0318673649753156  0.4736735583167526
  0.2663173597913489  0.6517519500611926  0.5759520060941837
  0.2457154834629879  0.5441975903982584  0.5963798728543647
  0.8505210202405288  0.2417475721581870  0.0353394041818375
  0.4656613987139875  0.7572360538437201  0.8201768366066057
  0.5318878530620099  0.9015175953081646  0.8681403232566343
  0.2554623949698541  0.7483082714476984  0.9245369984685399
  0.5034686344078720  0.8061912553983537  0.8213609359490079
  0.2968164364273971  0.8011177872913422  0.9255809434346067
  0.4316046986810804  0.8254489374529839  0.7409998688566665
  0.4908205957240791  0.8189441618584652  0.7607928889394027
  0.7890794035951669  0.8192084475433965  0.2391927868606926
  0.3220994976143035  0.7806182112217025  0.9914787584862778
  0.3299154112324137  0.7467460709291462  0.6155862520721185
  0.3186814937282721  0.8214013427244575  0.0341975471654091
  0.9743069419041784  0.5271620426842432  0.5200077066669513
  0.4364379171349571  0.7427926373708420  0.5960006641945254
  0.3368829154650815  0.7008097585562193  0.5733425965916671
  0.1295347404742855  0.6268411433695462  0.7588620319858798
  0.0611867669125332  0.6457477905917961  0.6765106956855187
  0.0915917255597869  0.5772752108079345  0.7581825118687423
  0.1851060945707072  0.7681872552776756  0.8397107077480636
  0.1361339902656072  0.7297349815831834  0.7736014445553022
  0.9945538528476059  0.7420533279488405  0.3952524682451561
  0.6020160294269680  0.8793892368719837  0.9485729628278347
  0.3702266794922089  0.9474296333011690  0.9743926606180962
  0.1159871431093021  0.6561340691061941  0.8958512102627049
  0.1924409219988065  0.4185359252427459  0.7200850640422513
  0.0071609335913587  0.8960308792656416  0.2439925088516056
  0.2740267369703625  0.9082070655206772  0.3901222554104744
  0.8855426273600213  0.0467150183316447  0.2929806367293585
  0.4308396271399406  0.0889857278695672  0.7217630516524510
  0.5034057791454257  0.0709475126062416  0.8072279705483875
  0.4829700549211459  0.1291304275306169  0.7884773590592986
  0.4714159612869731  0.1730170542480479  0.8331243257717377
  0.4843005819438571  0.1601781092292286  0.8958257255135935
  0.8390836597555401  0.1397814086324320  0.2490911880939985
  0.5233254617281069  0.2087993837618475  0.8975466955096252
  0.5369440470677801  0.1968803487464886  0.9605826926571956
  0.7348710915146923  0.1098808423410584  0.3370099466097895
  0.7916157369099014  0.2172410594922946  0.2685438171916148
  0.4147683484467297  0.0179508338118212  0.8438120896029329
  0.3933877363209669  0.0735985957679629  0.8261874935779796
  0.3479712285972495  0.1362154244320544  0.5158724302377177
  0.7373160991995988  0.2010726813415356  0.1972155550666135
  0.6932531198674390  0.3101794731560365  0.3205010711931928
  0.4404271875332399  0.1774824868722464  0.5407190694976159
  0.6551146451956890  0.4962588412582346  0.3564899974302323
  0.4261766079526837  0.2210890014294604  0.5836490620094846
  0.5708444951397136  0.6918331437387262  0.4283663993653381
  0.5254511189030102  0.7671771403371084  0.4496427980725459
  0.2645143548822956  0.9393431979896582  0.4997146585397848
  0.5153990548046792  0.6614997470397483  0.1934902950081066
  0.3405325419717254  0.4671542042683104  0.6983109196022066
  0.6338889683013920  0.3269768296681387  0.8096104385848384
  0.0955746902412869  0.9936023692692846  0.7667170359494236
  0.0562859810648529  0.6635526664929502  0.8687860641512266
  0.2176482711463333  0.4455203131366167  0.5573814703280686
  0.2806391168787314  0.4743302684272044  0.6789436283380641
 -0.0027058339936470  0.6721048670105760  0.8435860325694055
  0.2619500003532425  0.4516175647939288  0.5164588805921158
  0.6253524952510258  0.7107705289026119  0.0415953067563489
  0.0164662946577405  0.6293979536003816  0.7767111347547693
  0.8881038367148290  0.1778698049465040  0.0258385137069264
  0.8035906826371011  0.9796334925153517  0.4884711401071934
  0.4327484450956905  0.8581075483213852  0.8466544228283366
  0.2152845894792257  0.8883095770779559  0.5504606970347606
  0.2078711433659740  0.5983222792700584  0.9011877921479773
  0.1121566667767821  0.4815082963789066  0.6779726013567428
  0.1775627546922967  0.5962451537053652  0.6140364080576936
  0.9703949945690123  0.4490534834425409  0.1996062661336381
  0.9735640312210370  0.4965461800998877  0.2420857005437839
  0.4820447111998907  0.8977817188725731  0.9073004998078851
  0.6018170548311632  0.0652286164745937  0.5260324020939809
  0.3178566345248004  0.8471785247387214  0.3079379048081426
  0.3214926302459135  0.8757562819940209  0.4143895661809253
  0.5481857381099008  0.3023032227860217  0.9548454101306042
  0.1891154110179609  0.5490443245146155  0.5772490264022937
  0.2972532227306038  0.5828907419135376  0.6586467784546099
  0.8879464105965058  0.7272802436213893  0.1886666598203250
  0.0528029147964389  0.0562400589973438  0.7179390233488834
  0.9376899799788910  0.5713414989855129  0.0271413950702328
  0.0244050755211860  0.0266573243051307  0.8825209365244784
  0.8545313848797007  0.9634188000481928  0.4577998764562529
  0.9060883905824534  0.9503139453530477  0.4185705942092218
  0.9221627111641212  0.9361682323675281  0.5551567388290541
  0.1216572766347663  0.0128615853378633  0.4774365393250494
  0.1812625394296342  0.2313400385884708  0.8887566382971178
  0.8101161226341762  0.4171524523641224  0.1552027531710312
  0.8105765449250064  0.4491847219151363  0.2579109636502736
  0.1152769198821584  0.9522301530917044  0.4969216290616764
  0.9114308095112430  0.3581677253323106  0.2096550585199569
  0.1408175961924054  0.1447861360079767  0.7819352561737694
  0.1617856184566253  0.9677928909919474  0.5684323083801290
  0.8574127172561319  0.3748600012834619  0.2457931320704250
  0.5895907021030241  0.5631014975528776  0.7083912176922113
  0.9001720310081754  0.2064487871589563  0.4792811484255318
  0.6637949277034371  0.5138308342725101  0.6839308056027461
  0.9390790763361306  0.1481607789059522  0.4550626639476440
  0.0416774170125273  0.0734406801690433  0.3388187165412804
  0.3849885338908036  0.8762455771725607  0.4914383018338787
  0.4254940278998458  0.8150874127991501  0.4580942324263420
  0.8399724430097855  0.7308499186738395  0.0573574781393847
  0.8576982875073269  0.3596725366225026  0.8679990901830108
  0.6084804201046329  0.2074210388316313  0.4960903370465916
  0.4084330981230128  0.6609437163058645  0.3888825584325906
  0.2124080383261484  0.8320331030209328  0.3330050370141145
  0.7299516341081309  0.1876903797244199  0.6934169244223263
  0.4859657476026086  0.3083288754163498  0.2441709951853087
  0.9771613710047785  0.4586122367551387  0.8652287365669468
  0.9281457886942496  0.4548594823072292  0.9044203334995101
  0.0507078202595231  0.4406544679238002  0.9452647569404168
  0.5393737894227334  0.3385140200699877  0.2560774094165915
  0.3856973932576623  0.3993647211233005  0.2958171834036922
  0.6608153586964196  0.1618870645454372  0.5642944386392839
  0.7016848379541863  0.2048829355827536  0.5677198574249989
  0.7160888020146287  0.1984508017367966  0.6326243236153317
  0.7556753279498142  0.2536592536445392  0.6362183195541478
  0.6918491636672949  0.2607654458778205  0.6149790405496172
  0.4439579088758508  0.4460521557638206  0.2410563679854353
  0.8277935139977468  0.2324107953900386  0.7189509679005113
  0.8565765760572160  0.3267657120184034  0.7637345714152222
  0.3461252584340094  0.5836639578372165  0.3353320815074102
  0.7451138268788643  0.3260484685634328  0.7874631551312256
  0.4004800075848115  0.5480914924624926  0.3655637174094721
  0.9077779005214740  0.3629566217115076  0.8272678214014563
  0.3503547751268071  0.5999047685449223  0.2762845534515339
  0.8664406445007402  0.7839481410227223  0.9450954866514854
  0.6658496163443686  0.9739882756621184  0.9925864104275611
  0.6816786969410810  0.2135485218900814  0.8382433789200454
  0.0992167713105433  0.2610318606134337  0.7411536585748928
  0.4787402436712024  0.8926556498740116  0.2863716554662976
  0.1106524157437054  0.2149837293115529  0.7006400973354856
  0.8219344061239037  0.7589709701799919  0.9822945014358688
  0.1424566717573333  0.8495067959182199  0.6966528112262765
  0.9447527659722469  0.1698311487486044  0.1611051408278078
  0.7284985593335863  0.7101888189742781  0.3091259515860147
  0.3871884003039077  0.6543225436287315  0.8172982005023385
  0.7887856093581538  0.8073820794261373  0.4665032710223478
  0.1259463260206877  0.7556228467559674  0.5555714349630612
  0.0759873858173752  0.7047781895488741  0.6423129317599604
  0.8784755617367078  0.5730895882410653  0.1229172931643592
  0.3765417829569273  0.7015590091713597  0.8590805383765383
  0.8840349201520050  0.6336129059501729  0.1015942307253617
  0.1839733030392155  0.7339494893862601  0.7345241463806752
  0.8709869557879714  0.6271680030920527  0.4017898946826817
  0.3368214584399306  0.6511571641495283  0.8556547077250062
  0.3242403897343772  0.6629149194249034  0.7970219876092975
  0.9199534271129326  0.5244163592255300  0.4996659069106800
  0.0865729296769411  0.6916568137621986  0.7069349330250435
  0.8343485111936282  0.7116630124036115  0.1152809895939548
  0.2484123897357516  0.5781079800558780  0.6980732503706866
  0.9751091800815311  0.4865062735294974  0.4742065010522715
  0.4246240341106424  0.8795272010619770  0.2164914881315613
  0.5898634222015569  0.3087887942944027  0.2838384343004865
  0.7615612897253384  0.9207738872701475  0.0045475728078281
  0.3016974536462084  0.6614314069483891  0.3552551592275382
  1.0202750803859122  0.4205172661643093  0.9965903009383165
  0.9780643350901513  0.7448557388060382  0.6774566508377957
  0.5023533184083749  0.0391459057974791  0.6989523300090120
  0.0199825817862254  0.1615827992970693  0.7376434025657251
  0.7181805374702345  0.6020795556920385  0.2831140110137389
  0.1142245777551194  0.0855075129369052  0.8436592306092302
  0.0745066744313131  0.0352729142461457  0.8417515746505854
  0.0056615244761276  0.0387750025392783  0.5570438707883981
  0.0634110128046173  0.8170900359182788  0.5750071810020762
  0.0020802010697775  0.8665379764684472  0.5968476531225964
  0.0155409034448688  0.8103330784493236  0.6167140847703070
  0.3350911662263814  0.3164121112768424  1.0042157164447096
  0.2854079085132230  0.3775483696760273  0.9240845271678121
  0.1099834137569895  0.8658019865538983  0.5751267914163025
  0.2681206975652982  0.2867270186632189  0.8476818090978883
  0.2513122175555492  0.1792442661615211  0.8660797451073446
  0.8433082488524359  0.6869502705780907  0.0122562602933077
  0.3774561771085909  0.9387163278801638  0.2981195642684370
  0.1581354192297393  0.2535185854560961  0.7631682608629268
  0.2175810158944677  0.2473102806663540  0.7850479540714242
  0.9388941230984739  0.6287528762476455  0.5413643261092742
  0.3323373379623191  0.3837386276033146  0.2275363911941021
  0.9809856296335812  0.5103277258975154  0.5820801385553734
  0.2440559978266562  0.4813446627842785 -0.0053845908069793
  0.7979103725616886  0.2378266184245801  0.4366010966294273
  0.7730698310952256  0.3908341278433237  0.7272690036647975
  0.7928127580035388  0.1864406906518232  0.3922653934938435
  0.7565727074186392  0.2832252892979146  0.7422229109760867
  0.6633080167062949  0.3616584879967557  0.6461269523172372
  0.6535923023206900  0.3762903080729084  0.5841307038223399
  0.6732807123307001  0.3189036564531928  0.5989899318584840
  0.0988165120781324  0.6668034962490254  0.0599707329465750
  0.9113726651427514  0.0128424751439629  0.3992251310616752
  0.9726445251999920  0.6104339638075870  0.9078849310581235
  0.3168472429753355  0.8603665683223372  0.4767858823146862
  0.8547909803252228  0.4725981826849178  0.8178101237649996
  0.3658383926196523  0.7801526874858544  0.4510778965317565
  0.3076128414397096  0.7035322314709802  0.3982822766413242
  0.8460797295161587  0.3706496371540159  0.8074911992039796
  0.6691687965300234  0.1946209119474880  0.6715587760288653
  0.2581434246035048  0.7555244211416928  0.3135980435404042
  0.7503343567279761  0.1303765120680708  0.7120183011268509
  0.6793206952771428  0.1507023141534619  0.6245083448905624
  0.2073218278180326  0.7705799970523302  0.3487476650359450
  0.8613090190377453  0.1301849141284210  0.6948266164570782
  0.8216566276776672  0.0834813203668265  0.6908718635647081
  0.6930791298407327  0.3478414729803856  0.4276818219462191
  0.8553893915096812  0.5109595559857686  0.9178445277239086
  0.9266593613060591  0.5717621482738502  0.8398229234056971
  0.9344917549125998  0.6768581659256919  0.5943884969805031
  0.2212948425619297  0.9246501580871094  0.4283994203657088
  0.1614304476098642  0.8907925129807684  0.4169263290297200
  0.8197956886542745  0.6849512146281850  0.4900244304541089
  0.7745078753931607  0.5116156917881896  0.6745444772798368
  0.8843395394083834  0.5360957148540220  0.7636349761922017
  0.9462929613060735  0.8314415354958438  0.5284012987021969
  0.8218691355367956  0.5435778767846529  0.7397298841919193
  0.8373455330659669  0.1958484290465612  0.4613166083430599
  0.7226403061977715  0.3551195796210287  0.6649008487892464
  0.6968409478470490  0.2891219910730650  0.7223447684460997
  0.6354712784041749  0.2968839500325720  0.7016237101863567
  0.8169229874119668  0.1097585828792738  0.4599978440411464
  0.5850908208349778  0.2602121182740288  0.6368962790305761
  0.8616103677684667  0.0751561119715455  0.4813849388318548
  0.5936560678172879  0.2182209569942151  0.5960149259829780
  0.5734163612088800  0.2371816335615788  0.5261663794586996
  0.5583014137289091  0.4858546086163067  0.6028590471177344
  0.8810570421256535  0.5571559244438975  0.9451723934767614
  0.6581792370429311  0.5035331391626784  0.5211426046986147
  0.2667564832186095  0.8919430268476874  0.4505666789519852
  0.7448840274389283  0.2688820515302158  0.4096602907610745
  0.7290233475837893  0.1514028931443569  0.5856780499843794
  0.9219347194648599  0.3544972675463639  0.8871101120063081
  0.7483072662760990  0.3691455496134957  0.5016006164167254
  0.7043023967191571 -0.0071435846455362  0.8913876760520906
  0.4043855587004582  0.5988322126544372  0.4118331350565013
  0.3943506617222773  0.5074040119147061  0.3199063746683578
  0.6733970159703984  0.0941666521668831  0.9173349412078525
  0.6623273042938369  0.1074567201781751  0.8554634447574846
  0.6634239612186897  0.0735372538301567  0.7476742429790132
  0.4976978380491273  0.4327695184850356  0.4321120232303827
  0.6258990419933299  0.0251931624505042  0.7456906329886409
  0.8396164044736638  0.2497883172867278  0.8845996489525114
  0.6912122258003205  0.4289114896541952  0.5887565297270735
  0.7841680833630966  0.4658973889657778  0.6331286059362453
  0.7519324692678596  0.1959910533019566  0.9218815897988082
  0.6920839068361359  0.1692961509821192  0.7952754474996896
  0.7124112285609083  0.1119995149716327  0.8144363408587096
  0.6321715033284848  0.1769481419930005  0.7747867732862771
  0.6518445228238970  0.0858823520891277  0.6858970085174463
  0.6835432539406642  0.1545086912480903  0.2483682004028230
  0.5273788302406236  0.0008859990589447  0.6200713496622943
  0.4910592907285217  0.0503700799706853  0.6348530938548664
  0.5412458106886859 -0.0499929145858583  0.5784613582120520
  0.7844834797683307  0.4960000569118357  0.7340226707487554
  0.4829606442122313  0.3797576620957797  0.4604881508987881
  0.2208258181997811  0.8752279746919968  0.3796986846568853
  0.9698144191595636  0.1570957925952367  0.7796857483484416
  0.7681912787615490  0.4792098660275499  0.5138763007023637
  0.6039605172188538  0.3422394872295772  0.5148155082445945
  0.9726958176729658  0.7646704204306450  0.9295006491367312
  0.9332870730604251  0.7128490821753507  0.9296664502518844
  0.4653980438776300  0.6742994162700362  0.4578107923900669
  0.5078765791214347  0.6003798395408140  0.4425155951335495
  0.5048381278181261  0.5550935188084818  0.3987160228396212
  0.5581760148571339  0.5204636735423120  0.4882856441129684
  0.8391659041790823  0.6512986171029850  0.7342488859930975
  0.8122042497052229  0.5601452855776937  0.6812610976543010
  0.6020341148360971  0.4516208908228243  0.4067701254196757
  0.5912562876018805  0.3878636967127578  0.4331165625880161
  0.6390930794045355  0.2645958789094677  0.3745995815257844
  0.9339182451820497  0.6920146104463006  0.7623324123789337
  0.6895129151553651  0.1871399117249186  0.3562915038576870
  0.8442785575403015  0.6233793892949526  0.6275458147201741
  0.9025736004554255  0.6137450689656648  0.6487946138151143
  0.8693685516777379  0.0534782529240665  0.3816472259762075
  0.8373130531951709  0.1069975911234757  0.3715216966868320
  0.0661178640798867  0.7777648145044245  0.0240493587114202
  0.0698344901298400  0.2003566461736863  0.8034037759799261
  0.9310044740957665  0.1084580336021444  0.7765370143508130
  0.5879214076468132  0.0067468186576991  0.5763020692211700
  0.7802039430399409  0.0325520982618885  0.3173769255933022
  0.9518624963004886  0.2478695662314102  0.8656924582934712
  0.9286620340081766  0.4705386286876500  0.5168745210859019
  0.2868364914987975  0.3982197637157401  0.0340400168275576
  0.8830489662765234 -0.0311102241543097  0.9622243718808638
  0.8542068368239514  0.0759467061191672 -0.0144351014797395
  0.9914705665394016  0.1644900813343068  0.9489532575106613
  0.9119978834215556  0.1990667984118241  0.8651670775203136
  0.9879171540208973  0.1272106375369574  0.9022746167338546
  0.3668726478325076  0.2531587652679401  0.0011581669331633
  0.9398599131317540  0.0972435797091617  0.8397137363163905
  0.8921604112267403  0.0589913613887638  0.7743625549975709
  0.3074848461032233  0.1411502179152490  0.0666918350513568
  0.4089216688259551  0.1099597935429243 -0.0051217281001178
  0.4564413142276700  0.0833579139748725  0.0162756119937994
  0.0633427322100329  0.8377735991204838  0.0849951761382110
  0.7666437840866382  0.2042284624025615  0.5901081930646854
  0.5146139772095509  0.0771192832551187  0.1491965783643850
  0.9261452865989416  0.4213572704224914  0.7999332376921481
  0.5643086146858231  0.0844551528749059  0.0209401765857710
  0.5658806595455882  0.0649565616082651  0.1129400860485139
  0.7422396647150638  0.0926497777590906  0.5485689338787757
  0.9968370617749396  0.4028054844475605  0.8829166319788500
  0.8846857634541888  0.3895825018638224  0.7047154986243627
  0.9854635885227588  0.4132672164186305  0.8211961574305779
  0.9462263043681939  0.3811160302018068  0.7243664569642128
  0.8343639877371631  0.7104467833162702  0.3443959851356541
  0.9795208422258982  0.3103457944077826  0.8045263101037330
  0.9070443678121948  0.3319829737747197  0.7229155453787924
  0.5621575366065332  0.0260161541943546  0.0585684283878372
  0.9152912578160192  0.2864628390244605  0.6811167869328721
  0.8456791545612724  0.3395375294525723  0.7030762461824874
  0.8433699764254240  0.3055109850080955  0.5984227205406540
 -0.0056353732261386  0.7571380903620991  0.1081081320329881
  0.7555231179085898  0.1795956793010549  0.5364480935635991
  0.8344196012729378  0.2357382492751845  0.5035297424619853
  0.9654540489929854  0.4713244178008855  0.8032149649266295
  0.0478065864281561  0.7255201099221457  0.1353934301934164
  0.9346493167864072  0.3931218609531837  0.6651229081040740
  0.2012795398064305  0.6652276224748239  0.0952159673028131
  0.9303035695696721  0.3572126764232315  0.5608693782289202
  0.8243721439262822  0.2942500831076533  0.5407640826737866
  0.8551366653678004  0.2610134876346089  0.4469005190346526
  0.5765675427163512  0.1681140610351657  0.1513103776809794
  0.5072125980279059  0.8398572304731886  0.9260167082646413
  0.5956391483565587  0.9828289505510643  0.4121652088916756
  0.3444968255148174  0.8449103925673817 -0.0090293312428338
  0.4921617337011999  0.9200823456840450  0.0743942229340986
  0.7296636551808139  0.8286257779200825  0.5076328084526337
  0.3742165571428210  0.2763268979712931  0.1082803768743419
  0.7845476434786097  0.7875757815084684  0.1333085200781680
  0.7574441888282700  0.0346836701516817  0.5685495990174027
  0.2852783249365203  0.3552039544607283  0.9922389627840352
  0.9985750456666097  0.2203552797446709  0.7171478057163883
  0.6712792420661106  0.1387280132800270  0.4733357884169345
  0.7313405073339012  0.1309375723409839  0.4411192710982500
  0.8516262534895400  0.1431168338294301  0.6334580042562302
  0.8662082863176782  0.1863677764021349  0.5222989127910447
  0.1877074256063853  0.4938875460437109  0.0853636054911747
  0.1420397290837238  0.5715760889231246  0.1048952973749585
  0.4743489010276942  0.2509587032566529  0.0370580712862021
  0.9410626537515260  0.4612229767356213  0.5787492752256120
  0.8893123246507962  0.2233437992809653  0.7397349263049803
  0.4751708718871360  0.2303291572700696  0.0988282395570709
  0.8994878053934370  0.1790431068795392  0.6978815727113826
  0.5195976185839815  0.1580069258964233  0.0789269332072984
  0.8410937835200439  0.0232446169025454  0.7075147181441584
  0.4305173672571712  0.2913686358070069  0.1781160397803046
  0.9768994588331923  0.6703921444641778  0.4721184478422606
  0.5331423209353933  0.2611917426505083  0.1089464552759536
  0.8035797533293342  0.0361945009061429  0.9183802852344968
  0.7114193793559819  0.1434718226171642  0.9199280422329603
  0.7825431263877529  0.0925045675098176  0.8993142806609947
  0.1819320242194083  0.4322072942981772  0.1055216704920627
  0.3385852676741695  1.0064157032168892  0.9903138389237172
  0.8528035651175733  0.9202305015646333  0.4091599662771183
  0.1405640399307769  0.5132694598746729  0.5163197823286965
  0.4477208503322727  0.9589276288300572  0.0455606214803560
  0.3788517207903241  1.0010730465812514  0.9469078778723603
  0.3393767146348667  0.9683209359687710  0.8483000408388813
  0.9763868395103055  0.4795326364386880  0.0776497083883453
  0.2026980281771430  0.8748993261747008  0.8253403874917805
  0.1702362256369415  0.4390735295726079  0.5962069917882370
  0.6259841673487303  0.6625352956148947  0.0030035694546170
  0.5187882638847492  0.7056594658671063  0.0103232397373168
  0.5194111278603338  0.7531221517612782  0.0569220483547148
  0.4595541328705816  0.8450063640259747  0.0670947748360433
  0.3407563211184428  0.5020418162905651  0.8008518853156278
  0.2896058008804483  0.9292600627826541  0.7855337463882641
  0.3568393958061682  0.6107250483583544  0.7863216431848484
  0.4425799369159573  0.8946168879576026  0.0323561319468252
  0.2686368030802787  0.5552210216582268  0.8211396172611931
  0.4289744355706380  0.9085661522269295  0.0879744888301132
  0.0878310664058419  0.6674222033946658  0.5097712561215940
  0.1003314108836943  0.6556567737118109  0.5740755695834867
  0.8391795646108999  0.7313904205158767  0.4502108293785624
  0.4989384335227925  0.8691036859276340  1.0273702220593246
  0.3229948458487116  0.8624395486125307  0.8674225107895450
  0.7065786439506972  0.8842760204925324  0.5370513241640522
  0.0644412037538104  0.5131476552824030  0.8204705434698799
  0.9032969491032935  0.2452963885740691  0.4100286888004586
  0.8942505551806353  0.8202046162385513  0.2793999631680750
  0.9379895916309176  0.6647532723717648  0.1136081843621146
  0.0755763580791471  0.8461296608944340  1.0162519992205596
  0.1043979528019983  0.8324499931963752  0.7988246843242084
  0.2955258779328062  0.9984257370380100  0.1578422214139444
  0.8370763597034244  0.7790010305908952  0.0914674663796718
  0.8765918937887541  0.0125086732299350  0.0089045777609267
  0.9449430306105424  0.7941979959274743  0.0770451153460834
  0.3777741093790374  0.5526531001320975  0.8031865972955877
  0.3014967858209125  0.4862336040406755  0.9004497392162293
  0.2336069678672764  0.8368227558113142  1.0146560716535469
  0.4513176040413899  0.5315776898902878  0.8831614686382980
  0.8874469694203134  0.1034779478858333  0.0409070369011035
  0.8096427246641302  0.0706830681645094  0.0271247055503474
  0.3027634734529016  0.4535188173792116  0.4737077690569856
  0.7737470825064696  0.0315387734572073  0.0844165319549288
  0.9461330284219457  0.1878492848085228  0.1002058575670789
  0.4156531267835495  0.7395078191511025  0.0829424804572437
  0.1040593773867788  0.8654792633456825  0.9047150686636182
  0.4164447524705803  0.7877439381779414  0.1257658334598731
  0.8958235612354853  0.9067256861483580  0.1279788953907774
  0.8446404020024926  0.2944266251284121  0.0872984208573230
  0.9917921836664461  0.6488704482637928  0.0811970498526417
  0.4266373546019823  0.4752455354234729  0.9422155830419335
  0.1922682226051589  0.9199675995389098  0.8687053928168598
  0.9243206043582676  0.8613437965893859  0.0288324136695593
  0.0821303050444731  0.1183625951285530  0.6587567688179364
  0.8488044641962481  0.9113429619574405  0.2338175991002926
  0.1512954778061338  0.7374522217416642  1.0047590905909938
  0.0510580983293788  0.7413630280916091  0.0759620015943175
  0.1653491214901670  0.3359136036500167  0.5831175436437025
  0.4765104103819456  0.5348925872752671  0.6213750127240821
  0.5193892164956047  0.7396164747253043  0.1166486231699164
  0.8309577180168957  0.9703045039397504 -0.0003419743966436
  0.8334842642894591  0.1258227787282532  0.0214181540112291
  0.9788674466849142  0.0191461500076263  0.9933279409752578
  0.7689217434004856  0.5098578174809254  0.1078075958653581
  0.4256628046284933  0.5866609736936693  0.8797385733729040
  0.2684388197615019  0.9441683401763953  0.9988252259918476
  0.8740831771949331  0.9714047794567039  0.1387158198608679
  0.3152830800117511  0.4043601474203534  0.7598692425623852
  0.2463493370202829  0.9590258740237583  0.9335471782548636
  0.2721044490131804  0.9164008440751380  0.1608898610641198
  0.8877284893583842  0.7405136817922542  0.1278302324569221
  0.2655444189854780  0.9023440906853413  0.9528717431570661
  0.9411470117342708  0.1264999095368308  0.1160350831542648
  0.3550589640655799  0.5408428964152797  0.5788820032755042
  0.8934213257330150  0.1570569963863526  0.0929251334758315
  0.1551870548801112  0.4028991249748867  0.8209695676464707
 -0.0214090700270715  0.0309918043234781  0.9287075976860331
  0.4163889019074761  0.6407297120960550  0.9981247206528175
  0.2149734490760490  0.3761881592262479  0.6444471402775377
  0.8133358217952944  0.5054323910279055  0.0144427642433703
  0.8699383339636410  0.4624420729918037  0.0998315804250054
  0.1489511755790700  0.2999614117160763  0.8057967847673095
  0.7820810832015346  0.6955993590884185  0.0472254805007547
  0.9637886162033539  0.3580048191328896  0.1106060752516011
  0.4022719525246622  0.0110946836365549  0.5756051574137213
  0.0119892911176313  0.1750522504332711  0.6771633094959477
  0.9022419934607766  0.3153678221883007  0.0995830030863223
  0.8994700048717886  0.2865581921423567  0.0288195265312380
  0.6779270591603394  0.7833771907664639  0.0992203974812205
  0.6739636316642311  0.7955217379337484  0.0391806493288791
  0.9979918589941810  0.1750785686102911  0.0631329591652243
  0.0897197083259706  0.3428520682711114  0.8863903939157765
  0.6538352355491914  0.8070722666127100 -0.0206084052558470
  0.4991911213456259  0.9684193047725131  0.1159630327551905
  0.1397439724146550  0.4917221757992623  0.9611136259477390
  0.1588370620789232  0.4381002123401145  0.9253867089719335
  0.0987094163102143  0.4443692428544416  0.9061156114745453
  0.8244857743729237  0.5404369758092076  0.1148570358254522
  0.1271152408184638  0.0732911421594138  0.9070574184805994
  0.8790362459202332  0.9579090031189129  0.2017632914556279
  0.3452196360962708  0.5868284304440369  0.6192892764920996
  0.2093551039683292  0.3261492062362614  0.9290559109119113
  0.3095765717466963  0.1361728962022045  0.2938192861126709
  0.1824453588109845  0.4619090893795940  0.2080377028423636
  0.9823767845042738  0.0071241489790701  0.0533548083180789
  0.0514110451294217  0.3096813257674892  0.4955740003092258
  0.5369938622622407  0.7043973349520986  0.7939981070039350
  0.8336493529219073  0.8408448966772668  0.0805392170677653
  0.4989651076643262  0.6539876446865182  0.7928564417937460
  0.9726531333756071  0.9185748494471442  0.1290796937606968
  0.0756423946246560  0.7715629682855194  0.8554594746257190
  0.0547936288197913  0.8273816273873758  0.8374608106319273
  0.4363309015942996  0.6610542109528792  0.7752747038115340
  0.1136239660070120  0.2924592314349647  0.5190371303715076
  0.2359619172836259  0.3192660985813365  0.6643284887566234