Cr N  Ni
 1.0000000000000000
    38.8588641550299201    0.0000000000000000    0.0000000000000000
     0.0000000000000000   38.8588641550299201    0.0000000000000000
     0.0000000000000000    0.0000000000000000   38.8588641550299201
 Cr  N   Ni 
 1596 106 3725
Direct
  1.0042806311521972  0.7260104001342734  1.0052762069224161
  0.7139747139158633  0.0406403101621321  0.1889849026087056
  0.6579620442290351  0.4439690774333712  0.0873560498018097
  0.0746052367607417  0.0437903878682451  0.4528540140842470
  0.9348025777506378  0.5419826808849115  0.7272074538583950
  0.8552719482059140  0.4400170803048090  0.7162703912685882
  0.1112687793168697  0.8781719094670714  0.3448750134823393
  0.8745587111328098  0.4015164334373530  0.6442789280905308
  0.8059581340590080  0.4241664437269267  0.5632429020115478
  0.8635673350341935  0.4143964706126538  0.5815299643124496
  0.3518092370219558  0.7234107724580816  0.7417909220502436
  0.7813529944208926  0.3151302575659841  0.5768865983231662
  0.2628335344307376  0.8169854879220743  0.2982457645832204
  0.1936855265384489  0.6170002602566355  0.2771714664874884
  0.8155064762538077  0.5290400961510021  0.5786712031881204
  0.3036397942637473  0.6483510927773797  0.1885624207648538
  0.8557600162734359  0.4284702518954790  0.5191939501031940
  0.0002655064417001  0.6478355257408995  0.6543422907970975
  0.5701504374710914  0.9507406235963104  0.8722735136611826
  0.8982546029632115  0.2318252505015968  0.2423312697134819
  0.6135777765496021  1.0049229666288928  0.0271331573618995
  0.2675112710054843  0.6517837380336947  0.5756085727917986
  0.7196409612934213  0.7798335404624069  0.0037709440129688
  0.1026658955127893  0.0965468332678306  0.7825019871809660
  0.4655221979055822  0.7565170284396753  0.8210712108139803
  0.5323977102539565  0.9013490011396852  0.8678111593812226
  0.2554082690193728  0.7482932278262515  0.9253638856313841
  0.5033653674177345  0.8054952263252319  0.8220985582270984
  0.2927743019957526  0.7951031952552512  0.9289354185146567
  0.4316990412860264  0.8246393983539619  0.7419387302152149
  0.4910195441512423  0.8181204205772438  0.7617106144897369
  0.7896462227846256  0.8167998637436028  0.2390412349324484
  0.3258507795291654  0.7795541412052506  0.9951466756743977
  0.3307652191387637  0.7459588239621077  0.6162364712122078
  0.3245184403624593  0.8200530813846346  0.0393794280221446
  0.9744068158196074  0.5266010236716375  0.5196507889409836
  0.4390703449382489  0.6984050581692640  0.5525401859947663
  0.3373209216181278  0.6994290546492263  0.5742680325527770
  0.1290124059622880  0.6263231947916804  0.7585942149348227
  0.0609127444441272  0.6452420222173160  0.6764692555085277
  0.1011355545434335  0.5645901341568720  0.8184634209131327
  0.1845302461430992  0.7675504500266118  0.8403186845783043
  0.1356700204206724  0.7288382388574954  0.7738728884402021
  0.9952394000516191  0.7413689222542368  0.3954389540717012
  0.6018974486593321  0.8792971063754390  0.9484498106555301
  0.3684042108208456  0.9462180260310510  0.9746728662710761
  0.9530243471026737  0.2754691064815813  0.1930160795387429
  0.0737079040938664  0.0293502420628705  0.5144749551622609
  0.0061581883114929  0.8941752064124664  0.2428134753986813
  0.3480145716778220  0.7233087836550430  1.0077967524902540
  0.9082327333116959  0.3741491570715760  0.1476747423104934
  0.1089570821127389  0.5538253028844474  0.8774806250353177
  0.2323846138671972  0.7366086331236000  0.6963773927903757
  0.5883425429152239  0.9258100741421148  0.1962797606949483
  0.1832604818238334  0.6990767274341234  0.6294230443628451
  0.9010725582662592  0.3478509904057632  0.0456254208547466
  0.0831180806342878  0.4001893629078848  0.5428159256403772
  0.7324511486246204  0.8148919682186929  0.1078634222787352
  0.6306902119907658  0.8657268776147865  0.1132687941688145
  0.6373354546071399  0.8931318235976221  0.2209732076571415
  0.0645815376774597  0.3272513739692260  0.6616963254591495
  0.8548118101494392  0.2370320016402271 -0.0440862764694683
  0.4105812260771973  0.0526145528517263 -0.0342343549111978
  0.6477176060510479  0.9710649672210239  0.1402565750442903
  0.4641450091747005  0.6746244288173157  1.0016893235171702
  0.3607858093529516  0.0595311979025945  0.0184280096317336
  0.3614981278521260  0.6172759137092881  0.9795466387574404
  0.2871977121743917  0.6468637606681260  0.8983946940082412
  0.0658097490799060  0.7709193316167852  0.5325937454211288
  0.3266443331556561  0.9780713004264980  0.7883410980861865
  0.5625885539417801  1.0029951889135775  0.1277383701149867
  0.6824150452808819  0.8165402280759939  0.2038654940104330
  0.8521388268749173  0.3249262445074078  0.1973747588216233
  0.5488950699106557  0.9736734487954775  0.7468629073197262
  0.2456374230504813  0.6327348120677979  1.0023593905350201
  0.1020325547230449  0.4928176825583405  0.6196457644704955
  0.7359292293852202  0.7995235351420440  0.3981792263323318
  0.7241639486674558  0.0675703733232641  0.2936509997732282
  0.4940133946199713  0.0171033829849740  0.2498483920863777
  0.4254270019703200  0.9876718400156458  0.7037732727251991
  0.7961881025144601  0.8740048666439109  0.4555325088906089
  0.3651057167332926  0.9944102682663736  0.6829827523555487
  0.3868360047952597  0.9020710621195634  0.5964571486250904
  0.9017989681118412  0.3075823380985252  0.1643021883720666
  0.7805580586900295  0.6785590174964079  0.1072107907236193
  0.0246233000113061  0.4290227688674381  0.7207653622560346
  0.6864033010680447  0.8629981744579238  0.2499930899905463
  0.9931787222823497  0.4980366386093028  0.6422754460468277
  0.6448067165180563  0.9364695071559845  0.2656321759594664
  0.7519898121502009  0.9676613979697329  0.4112779876990857
  0.3216754432534685  0.8257464276383307  0.7630080492552167
  0.2746065712964658  0.6578799784318106  0.8377028161922424
  0.2054731371564422  0.7106837192927684  0.8587155181900106
  0.9726652036982186  0.5738231853302752  0.3923537475057276
  0.3432420821571832  0.6801653235027461  0.9620796541955282
  0.9808842195527566  0.6368986499164622  0.3719092979901881
  0.2622462352629613  0.7997476997709981  0.6349789603347809
  0.8571416810228832  0.3266487033956867  0.7638765483279876
  0.8275332697116179  0.2324349764687009  0.7188032215676398
  0.8882256898955717  0.7261257868323802  0.1881927757879409
  0.0528970126644596  0.0561311554002479  0.7180494519998434
  0.9369487584765634  0.5707169737632632  0.0275380165491613
  0.0170451818380221  0.0078428081170079  0.8651172667799001
  0.8548826048455550  0.9639336022875592  0.4547294954120221
  0.9058317039715362  0.9503338443135785  0.4173687304785991
  0.9222496343292576  0.9361929745089631  0.5523822096283706
  0.0705455253403111  1.0001040673374606  0.4080039488461241
  0.1815924062415869  0.2312621827733836  0.8885181816445507
  0.8095864482172346  0.4178257695630206  0.1549398598986298
  0.8102098882416218  0.4498184831179931  0.2579150933861824
  0.1163675366315067  0.9514156107455704  0.4976177447328926
  0.9103529147145952  0.3581299854069076  0.2095260972165325
  0.1414318836435831  0.1455611295621459  0.7822512760284520
  0.1800933469565240  0.9657521722752945  0.5746698188394246
  0.8612572593448063  0.4198354947926970  0.2872307195951824
  0.5304894768588371  0.8793434152365495  0.2497241169241477
  0.6830478356478165  0.8317438702822741  0.1436929305461827
  0.9135187919849783  0.3917781113846966  0.0864277092276182
  0.0119306571785698  0.3627130214152063  0.0148658000111799
  0.9661253761272853  0.2336142405024308  0.9281379329737133
  0.5768608968172809  0.8341530340582893  0.1079939169459245
  0.5531459185640996  0.9534278930080972  0.0824237566589490
  0.0788962325530811  0.3184817108576102  0.7221529719026140
  0.2437212854230795  0.4820566200397625 -0.0057423758783045
  0.7818495442185338  0.0925216502341526  0.8975919895213483
  0.7116041491766351  0.1440676122241992  0.9185062147755679
  0.8034565559524612  0.0359366456870790  0.9163971114694486
  0.5312718046674447  0.2630381922161230  0.1070834975723428
  0.9757608395227066  0.6708469069740781  0.4715188221181223
  0.4297817283493978  0.2925752363269327  0.1759040541534055
  0.8435893232168467  0.0254270721259575  0.7086340738721000
  0.5191408348018401  0.1595071876396248  0.0773030129269255
  0.9002061785251246  0.1785235631537934  0.6970674277559730
  0.3627160392146764  0.1726705931770197  0.0744835721269654
  0.8392457175259215  0.2192424277719934  0.7797971664095211
  0.9421668924765558  0.4608446485534151  0.5792946507604363
  0.4737449988208610  0.2515224843024110  0.0361985718404550
  0.1419725883393380  0.5716389963765647  0.1049081413202373
  0.1871935322536421  0.4942562745457322  0.0854151308956601
  0.8675686129938200  0.1853942896062820  0.5209153531500090
  0.8518172340253615  0.1418843984526764  0.6320028312583721
  0.7629750505480449  0.0777760363778065  0.4490137140390883
  0.6774738965949230  0.1449568191709078  0.4714509074523079
  0.9987172735124069  0.2208165082915377  0.7146717554743174
  0.2824806179166387  0.3556082568796157  0.9940957129479844
  0.1811275880503569  0.4325737515872315  0.1061021565008722
  0.7021241697063061 -0.0065040917403113  0.5647783474180086
  0.3257490445484507  0.9452023615094699  0.6812243701755368
  0.8223058427383049  0.0826714018949472  0.6887848493632364
  0.8627977858930738  0.1295518890855683  0.6931063650219793
  0.6916971216317459  0.4286944267570382  0.5881509668843716
  0.7843056188305217  0.4643119762781776  0.6342508098179760
  0.7845415556351539  0.4952148660591331  0.7351366496848563
  0.4868929803032324  0.3810278458087858  0.4564510264579152
  0.7300723540450548  0.1508276537178304  0.5844755610994388
  0.7460095396259059  0.2695101525346136  0.4104781047703837
  0.5760990780430664 -0.0015917647943665  0.5773362041047578
  0.6097288743336586  0.2085909355516297  0.4953923650625207
  0.4074943217695124  0.6601088076088593  0.3882963519943803
  0.2137071866575563  0.8313803624384641  0.3331465643040550
  0.7290088548580174  0.1877425221525258  0.6918948492817313
  0.4861019003604748  0.3091188684600868  0.2431807788441077
  0.9168561599397065  0.4645071065890650  0.8421421706251684
  0.9643526601120882  0.5058378447364347  0.9053265309763097
  0.0498885249276128  0.4398259131694957  0.9452240669047756
  0.5390092886707948  0.3388770638761438  0.2554623261863145
  0.3304524200266796  0.3688907825420402  0.2856230792718705
  0.6609220072717309  0.1621722223919419  0.5621572979761690
  0.7034749184094087  0.2035542553977981  0.5666105719271179
  0.7163060101428540  0.1977817464143723  0.6312243153240897
  0.7566696635987941  0.2535108446475758  0.6351781520751887
  0.6925073227279591  0.2599609055371136  0.6136147039800801
  0.4437284369781822  0.4468885784367876  0.2409285505586836
  0.7481804036851527  0.3721273470033812  0.4998805806297592
  0.8719221259745251  0.1167757950041688  0.7543685865428313
  0.9379143585807261  0.2274384131274589  0.7000380177221387
  0.0702475862087293  0.2001342135216796  0.8030759946006931
  0.0641999041493614  0.7785666362636879  0.0235008047845726
  0.8362857764018953  0.1078875806853191  0.3712676674754271
  0.8698014298319711  0.0448880857170015  0.3724141620094268
  0.9028335435688389  0.6120782548664416  0.6520815736696205
  0.7924503010938462  0.6196618678622751  0.6689414059001689
  0.6900266463540945  0.1898778071480531  0.3560392504906645
  0.9333890713775107  0.6913507115865125  0.7636862202286234
  0.6402263157101121  0.2674427816434399  0.3731799231316114
  0.5933993323103314  0.3888709230915685  0.4313627794698273
  0.6019215534615405  0.4533605201304060  0.4063323484150920
  0.8122647278827861  0.5595152581534883  0.6823309369779329
  0.8386941947219134  0.6502690808114444  0.7358478139098867
  0.5593138662116762  0.5209434096714095  0.4847693973789072
  0.5037950896458319  0.5570510769485223  0.3973751566952855
  0.5061881903917613  0.6023455720909139  0.4392682788330930
  0.4667954131416317  0.6741653655843405  0.4573018037564616
  0.9323435277504049  0.7116761653307688  0.9293566543585964
  0.9725431153650916  0.7634595032288938  0.9322140733096422
  0.6049718570885955  0.3434211348820849  0.5142487579001680
  0.7690550866083138  0.4857244275024126  0.5142457126590563
  0.9429252656134887  0.6284701911533180  0.5484918879795493
  0.3324693683634276  0.3842301191528965  0.2270619332238663
  0.9728485008957930  0.5568131498582896  0.6254914640413834
  0.7594504600690117  0.1795060690759028  0.5361988804513727
  0.8484236932568542  0.2816793363662217  0.3837464071152923
  0.7735256119249424  0.3917324900240642  0.7270676029839350
  0.7941279285056647  0.1881301261201851  0.3919100852028714
  0.7562842233897746  0.2834735883343746  0.7409251121149490
  0.6637912764542205  0.3618584130222808  0.6446312009479259
  0.6539492685797174  0.3774580927549082  0.5835302002097931
  0.6735113723241808  0.3191391526454092  0.5977128594962029
  0.0980494916968404  0.6653484901181490  0.0597981033080699
  0.9127721721750061  0.0117571531134044  0.3998883148621739
  0.9720075920455820  0.6105494478880283  0.9093372923323472
  0.3196460155069784  0.8605134816192619  0.4779138325641654
  0.8550260927338529  0.4717671923863491  0.8186626342817013
  0.3683882486710248  0.7788796613858799  0.4524056811525188
  0.3078715326451227  0.7041635471333214  0.3980408690615405
  0.8466743393791443  0.3703900669006313  0.8060631425375081
  0.6683082756357476  0.1944560677370341  0.6699155570178295
  0.2584145193796976  0.7552829921718143  0.3129438206889567
  0.7515023130623287  0.1324387868435220  0.7081166820098902
  0.6792601948921752  0.1497078132555640  0.6229020510832739
  0.2079572461647770  0.7701331824489694  0.3483407842071384
  0.8453957014622707  0.3047225574047597  0.6000163992981074
 -0.0050245466567547  0.7566391117285640  0.1082438436191829
  0.6935872630431817  0.3503661348202824  0.4272237667395779
  0.8541577476160767  0.5101616580449323  0.9180160589271676
  0.9261364398850414  0.5707390079556866  0.8424524907018033
  0.9347265833343534  0.6759810652543394  0.5975778062869287
  0.2219629549018927  0.9243350810808248  0.4286164672810646
  0.1641162038328808  0.8910643791515602  0.4174327735721372
  0.8126296401018603  0.7015175584611556  0.4917828032445004
  0.7744518314047210  0.5100690307231077  0.6756973476060871
  0.8847073948637140  0.5353829451192242  0.7638662703625392
  0.9469293808803582  0.8302125640397937  0.5281878194718593
  0.8216568533073640  0.5426072525667254  0.7406319126957788
  0.8408186550285354  0.1956176213397450  0.4623030097057184
  0.7225842075279789  0.3547269188267549  0.6633724089154915
  0.6960584153683614  0.2891716656419790  0.7209860317752088
  0.6365419076363408  0.2968847801135228  0.6999609393056824
  0.8179144537571834  0.1095187374465942  0.4578418206237528
  0.5853327367438672  0.2592187197888539  0.6350552794227432
  0.8622991974656946  0.0748230195111797  0.4784240107613229
  0.5955556364969652  0.2187551979961280  0.5951393689982749
  0.5778562505856490  0.2390758780721069  0.5274771908961515
  0.5579635823434798  0.4856244457073207  0.6022432864407590
  0.8797584312512848  0.5566436205627260  0.9472113049655579
  0.6592547137573971  0.5013734164386094  0.5236159626092183
  0.2681585523065690  0.8915934260875756  0.4513131740857636
  0.3730649113919119  0.2775838582450422  0.1063898195971554
  0.8852822625888535  0.3883809032827900  0.7049687148897384
  0.9206368119092319  0.3526643396822837  0.8893697226600681
  0.9949525532197410  0.1572271198746591  0.9583772950767752
  0.7034956216884055 -0.0073630239498679  0.8905074812547498
  0.4016957274290286  0.5968104754718102  0.4096289373724266
  0.3947137932238642  0.5079015271330470  0.3190406962855096
  0.6734071453571646  0.0942634272576569  0.9160694299533174
  0.6617312392709911  0.1068283826524754  0.8546057916067055
  0.6612390985222765  0.0719521960923671  0.7475847263928886
  0.4977113813397715  0.4367903921792375  0.4314266906697071
  0.6240493465302939  0.0232291841944459  0.7443278033487986
  0.8401775626765713  0.2517830227942151  0.8856636701757158
  0.8536956908505348  0.0757055830047244 -0.0200899349014352
  0.8696235811909844 -0.0334361974762586  0.9675943909445539
  0.7515818416950540  0.1958278090052021  0.9207324741686655
  0.6909284803279622  0.1698738141056348  0.7951805152168847
  0.7628407342425800  0.1189821727004574  0.7747639298418685
  0.6314542192955681  0.1760310048062439  0.7737809421559788
  0.7113882944194564  0.0772703961579379  0.7040243386982011
  0.6829372531665928  0.1567136429571038  0.2471714827934491
  0.5278851356620977 -0.0030712033228821  0.6213542438506698
  0.4608503994633306  0.0045259173583241  0.6002141357469731
  0.5385722857854083 -0.0504512163509916  0.5772989843842230
  0.2848110685556001  0.3995743102503238  0.0349367373542347
  0.9286983535195236  0.4709433135427928  0.5177832460638404
  0.2124649689957638  0.8577384690767309  0.4406457634020838
  0.9156833162437876  0.2860559982809886  0.6820021113281434
  0.9109875448758118  0.1992991231122658  0.8632736806968980
  0.9899141825454557  0.0948489056320006  0.9554790018747696
  0.3650125752250417  0.2544571408722275 -0.0024577487447208
  0.9397098834547790  0.0984117850572366  0.8400671593053873
  0.8934508602471823  0.0585019792281714  0.7733642303621067
  0.3071964042778115  0.1412774816246056  0.0650714886391228
  0.4061536776263717  0.1077560940576867 -0.0068465289541700
  0.4580402432893895  0.0829396817053838  0.0168601219463329
  0.0635930086921687  0.8381459357926243  0.0846191071443084
  0.7682501420523663  0.2037908941687381  0.5892377743889858
  0.5151320396936047  0.0783233612126027  0.1486519979722260
  0.9253086268403639  0.4209967939150773  0.8008485705253560
  0.5650691364577668  0.0850930878343458  0.0204212705465893
  0.5673607698559263  0.0659807553279977  0.1121723842586996
  0.7433649412243244  0.0929282088456431  0.5451262209162149
  0.9971748999244607  0.4016251954203272  0.8826873608330380
  0.9859238823703483  0.4127806218414394  0.8224064886011968
  0.9470903505168610  0.3811855066260269  0.7251571945894820
  0.9796907731698860  0.3100354648508993  0.8057029722171977
  0.9076315081390884  0.3314588719424755  0.7235928080244535
  0.5626736172238150  0.0275936070113375  0.0584914150061028
  0.8466459147034733  0.3387213841549558  0.7031950293553886
  0.9908744884717626  0.2986818945991593  0.8645735647540687
  0.7730067486131021  0.0371999001993207  0.3192340974243745
  0.1708010838596329  0.4393147839344284  0.5973614042087497
  0.5199763546381031  0.7538121961595097  0.0564548859025981
  0.4609625881004362  0.8451646632839145  0.0678152650015644
  0.3410631834812290  0.5014694559922562  0.8010985762568944
  0.2888273889747119  0.9286771224555782  0.7861757800174179
  0.3566691724237427  0.6099408452389686  0.7862056799216393
  0.4392648794362111  0.8954537134446843  0.0360782996174109
  0.2691894171761051  0.5546391129918714  0.8212152005376713
  0.4289866245558891  0.9137478758837116  0.0896242374651470
  0.0883432598466329  0.6680918728996845  0.5102909259090459
  0.1010216462433257  0.6560800032370236  0.5741073172102686
  0.8392104966575592  0.7327810455553527  0.4490512374892587
  0.4970153155709082  0.8690421642014541  1.0274307692788460
  0.3216471387188738  0.8614052691775154  0.8675557703646705
  0.1414680381009568  0.5138509981381310  0.5178123855744401
  0.7206533916906880  0.8776421315053404  0.5465628967312699
  0.1907154422216686  0.5488588786515519  0.5777468243850090
  0.2974964750869842  0.5822448777791430  0.6585893526024544
  0.9749847534878245  0.4859803140110092  0.4750598713439379
  0.2489843012430132  0.5774819694842152  0.6978557854311359
  0.8344845674959820  0.7115783254909132  0.1149746920437327
  0.0856581718914885  0.6905605148604771  0.7072613653807325
  0.5177375762080138  0.7063105377370985  0.0085356810670959
  0.9204336443317472  0.5246834011690293  0.5003361409084710
  0.3240290100582701  0.6620533511987008  0.7974513142810702
  0.8433435919049641  0.6870629319881066  0.0127108135832407
  0.3373628642467847  0.6504917659005390  0.8560898634256859
  0.8732460590723856  0.6288552524414075  0.4028445144791635
  0.1840621542949131  0.7334422437839389  0.7345177085814457
  0.8835483069263157  0.6330301166121969  0.1018922242486985
  0.3767496405488782  0.7007381658261427  0.8592162580899099
  0.8779604188798894  0.5726803723340809  0.1228688612110729
  0.0758894297731964  0.7042388149385390  0.6429696517069265
  0.1250674903350609  0.7555172608969073  0.5566106461125037
  0.7911700740303502  0.8097806234121039  0.4648850585255708
  0.3876169567481610  0.6530386673804689  0.8170128538460764
  0.7280528035402657  0.7091543571659057  0.3091735794563094
  0.9436120305787897  0.1699284167306017  0.1605195355545001
  0.1421470181748691  0.8492795630185518  0.6984499689129634
  0.8237828639868237  0.7574021337980322  0.9833027904718580
  0.0537317217405866  0.2209174871153871  0.6784869858789752
  0.4805232613416344  0.8945575636642541  0.2861422504618714
  0.1004927665486614  0.2607481575405777  0.7424544152620588
  0.4260431308119281  0.8815042320664190  0.2161633540012509
  0.2678927913949150  0.2503705714490208  0.7453726915847640
  0.1587256521434018  0.2531019676647159  0.7634843623391061
  0.4298340232257222  0.9099352518005970  0.3231236706060621
  0.2512462835266512  0.1788015284543534  0.8658561744255195
  0.6246409320477987  0.6617873908097874  0.0025891686933678
  0.2687066669664935  0.2861629539770142  0.8487735120083505
  0.8399883604929885  0.2392542945965028  0.5018188118962023
  0.0473973461066639  0.7253471997365639  0.1363667234969052
  0.9354326799040150  0.3927129318445870  0.6655689098149500
  0.2017391589887667  0.6656150146172860  0.0951145458659938
  0.9331134925053127  0.3563681231724277  0.5611560998996444
  0.8281187383218768  0.3004722858907917  0.5441533216304927
  0.8547917724433377  0.2669152595074814  0.4399270912271087
  0.5753596495954392  0.1709478397058934  0.1486732857670333
  0.4716494363917739  0.7884422867974467  0.9264311675976209
  0.5965846471243635  0.9833453129818224  0.4105708538117747
  0.3444924403816129  0.8449795295504339 -0.0072442285979953
  0.4924803794736333  0.9213161339671302  0.0738671049251764
  0.8345219802483960  0.7098789684860183  0.3450886764998063
  0.7311507252440864  0.8274497872417302  0.5068179625579990
  0.7891408310692757  0.8310107512280850  0.1777370491350230
  0.3303510228587787  1.0014513635808380  0.9932417687117595
  0.8527485865413174  0.9206506484782314  0.4058396517071200
  0.4440797349747667  0.9609296897133331  0.0472957548711863
  0.3769342524105981  0.9990478231466402  0.9465102518059343
  0.3389187063139130  0.9676935781034520  0.8481528212553029
  0.9761696668664753  0.4799292996360635  0.0774997588729175
  0.2135218148894327  0.8296668167521210  0.7830722755169167
  0.0064890611309079  0.5236130195583025  0.8094577333653689
  0.1117699166197858  0.8626850343500252  0.5775822492106115
  0.2871618447361937  0.3768453383959920  0.9256676205371158
  0.7459297604243161  0.3267824361612162  0.7861745598362365
  0.3255713898468972  0.3115117448036830  0.9831061440231922
  0.0735715827214749  0.7997262431804881  0.6405841285789278
  0.0013318854024099  0.8663286563968887  0.5974681835977725
  1.0073235038157364  0.8156948213182399  0.5523629028907180
  0.0060202385938784  0.0378680319267788  0.5539761077884582
  0.0735237146624207  0.0364295217554218  0.8444338144585332
  0.1148623791963777  0.0852488598409912  0.8426897671368360
  0.7175335949085345  0.6028169768061482  0.2838495776647351
  0.0208288042570883  0.1624218378845400  0.7376553524699258
  0.5368161469977988 -0.0153173410941618  0.6841485509972476
  0.9776784171515649  0.7437791260997652  0.6782417614005891
  1.0191219568454073  0.4206042693330753  0.9958032104203656
  0.3020884485633147  0.6617700176176223  0.3545767529457329
  0.7654007230069965  0.9255518296173649  0.0054028806638073
  0.5900193998701704  0.3098208921044278  0.2827396606626043
  0.6807676890760915  0.2130439671004405  0.8372733315815527
  0.6536725401323915  0.9193414554450479  0.0173031283633222
  0.8204271415439208  0.3092637509768562  0.8663353679575930
  0.3505423147918578  0.6007144138210000  0.2758223175652596
  0.9085832957431057  0.3634901287677945  0.8276639133780517
  0.3987060454156978  0.5533941169947540  0.3651624262651548
  0.3487228754004822  0.5849386770057184  0.3374203228676527
  0.0643422732804502  0.5128037358002514  0.8207959134083567
  0.0449066430410438  0.1274739468813427  0.9225978220858735
  0.8957323709549557  0.8175573730523535  0.2798579592366469
  0.8878613102011921  0.1038682830778287  0.0403781647075730
  0.8137312554995091  0.0235165894276773  0.9802893899289629
  0.2993505552857160  0.4540288445931733  0.4723737891785268
  0.8779019593129501  0.0476531661883411  0.0658714992926494
  0.8976331075919602  0.2171952047750321  0.0703150873383456
  0.4163697239048708  0.7399173763352859  0.0833506620446524
  0.1033809815989880  0.8652548941051639  0.9059447818098949
  0.4173530561165470  0.7895808469016006  0.1256460458092375
  0.9093073440818631  0.9012390377440556  0.1283968128465477
  0.8468639589321335  0.2986377659404256  0.0861808960467892
  0.4272505519370369  0.4726842595139457  0.9426024415215256
  0.9913390020064082  0.6480747573916087  0.0817039287578504
  0.9380364180775611  0.6645758227612278  0.1130482569082516
  0.0743461928742704  0.8465776168360541  1.0167456883705224
  0.1038022202549054  0.8319318939224432  0.7993804260780272
  0.2948530203135646  0.9987276558894289  0.1579453811074598
  0.8373400078536042  0.7807433371848693  0.0917221612446432
  0.8724939135003500  0.0144606990815639  0.0081245624152684
  0.0021466328728187  0.8203874408416281  0.0891504587090191
  0.3786074166065728  0.5525270709522332  0.8030139652710796
  0.3024645884848345  0.4856384894809190  0.9010457919630548
  0.4519271663261921  0.5314320405571080  0.8830809486660196
  0.2315895417258604  0.8376330006395730  1.0156996771140574
  0.1911128953541280  0.9200565685239811  0.8696154188458146
  0.9244758788165259  0.8607369405802940  0.0293354451715959
  0.0828101255555082  0.1175692005128796  0.6586005569798207
  0.8519112848699611  0.9085302518062878  0.2341284599608312
  0.1514558038786711  0.7372966044990643  1.0032072347801206
  0.0487980176491238  0.7415657200402493  0.0765622758525617
  0.1651229945245192  0.3371285691101052  0.5814911140046312
  0.4770900672252085  0.5345362372662007  0.6222656596799100
  0.5202185205399503  0.7408968639908622  0.1164619655132876
  0.8184696594246295  0.9701879449384124  0.0074160514030818
  0.8131002231946309  0.0672521663126005  0.0257686242762117
  0.9802735418861549  0.0214273620312958  0.9921624894053005
 -0.0201531338190108  0.0326939029282227  0.9279362681674811
  0.1557919451316365  0.4021481908436014  0.8214470661801003
  0.2665455964797542  0.9448079148109311  0.9990890934932029
  0.8666201238364222  0.9739381732148407  0.1421267704681502
  0.3157392310208444  0.4033843094499160  0.7607273138080296
  0.2446655368222800  0.9586118638027606  0.9334586495695117
  0.2723570236770396  0.9174110148543136  0.1611166840131565
  0.8868391829736344  0.7401073247859560  0.1262389662259850
  0.2645281073730494  0.9023668662256166  0.9530874555332491
  0.9397942535251211  0.1256052693593321  0.1158330800609372
  0.3589358558334036  0.5408452617157126  0.5779674825687600
  0.8916813691073641  0.1569697649069441  0.0913399213127867
  0.3871439208009226  0.6371445540354014  0.6219644761181398
  0.2153389741092481  0.3755444213107205  0.6448462021463627
  0.4137994543482680  0.6368664453253433  0.9963726508425176
  0.4724051101536262  0.8038202083952621  0.1945510120918180
  0.8053224023915810  0.5085639397689520  0.9536721290207117
  0.8701679471921862  0.4631321873843726  0.1006071860610000
  0.1494500391746488  0.2995007247871374  0.8062514433857347
  0.7823053464500610  0.6953427644203248  0.0484368831707811
  0.9621295138397875  0.3598940280559171  0.1097497014769097
  0.3678883818186167  0.0616341894081502  0.5941524715725356
  0.0122425922912786  0.1749588678948003  0.6769282238049779
  0.9005607506097933  0.3255606496318678  0.0988642900549045
  0.8933004404633623  0.2882336445014743  0.0358005803068664
  0.6791155391503256  0.7844846508126654  0.0987264355222547
  0.6740711930998158  0.7961792921291602  0.0382845864798607
  0.9976905986282004  0.1745120908421968  0.0621323986277782
  0.0894810464376300  0.3421813849832038  0.8866347310003627
  0.6504335122302473  0.8068407127510713 -0.0211016836298240
  0.5012095451398288  0.9702796281646329  0.1182642701620022
  0.1407768525153348  0.4929045745643739  0.9618287839402058
  0.1590645696803115  0.4378248388908709  0.9258232106585784
  0.0979277222278131  0.4437279910654545  0.9053963504145131
  0.8241897786462994  0.5411255784159852  0.1150570799056956
  0.1255341497333667  0.0725598548900992  0.9101511984462034
  0.4263951851135183  0.5864424277909449  0.8801336919018954
  0.8631393063245808  0.9618428369508133  0.2088753886376934
  0.2084237606763162  0.3259277020669842  0.9294035069901756
  0.4826512671834043  0.1272028669043612  0.7878405988152193
  0.4301643707923211  0.0880450006111565  0.7216055596486880
  0.9792858027961351  0.0064004006861192  0.0551453533561017
  0.0546451091463119  0.3060613532679458  0.4993603594119924
  0.5367295011809066  0.7036795186182437  0.7952934623453446
  0.8290740021960399  0.8515833558736382  0.0700205084822566
  0.4992852914558941  0.6529712937087291  0.7934955429777177
  0.9671179657970645  0.9255004735245969  0.1378988576090315
  0.0748690079808301  0.7714971461546123  0.8559094851176101
  0.0540371451888787  0.8267173497050677  0.8383839722540234
  0.4372987923691024  0.6601660441534953  0.7760455902141653
  0.1157814124806987  0.2951605342818987  0.5197473779569564
  0.2357392387484088  0.3189167454504917  0.6642409079396985