Cr N  Ni
 1.0000000000000000
    38.8588641550299201    0.0000000000000000    0.0000000000000000
     0.0000000000000000   38.8588641550299201    0.0000000000000000
     0.0000000000000000    0.0000000000000000   38.8588641550299201
 Cr  N   Ni 
 1596 106 3725
Direct
  0.9774163897130906  0.7804093674968982  0.9872363682653342
  0.8151279968176391  0.5938990888633201  0.3902916453554796
  0.9289899470309781  0.5877649071348191  0.1940229949463912
  0.9837472147581096  0.6177825964343315  0.2038562147529207
  0.8637844542796468  0.5007812121122510  0.4313705132032044
  0.8657756969549992  0.5155753135112568  0.3711947304091875
  0.9199737199489584  0.5465597181291825  0.3806514374491094
  0.6031212629144579  0.8505743523458656  0.8429523959601318
  0.9119255670841725  0.4357375727027947  0.3560673739049317
  0.4289695815136062  0.1230007658655901  0.4099010239102043
  0.3528833357488512  0.7248547564938003  0.7378104032710793
  0.5034768066294889  0.4770002153721289  0.6352927300534336
  0.5906039401678730  0.8622824876703166  0.7830264772319553
  0.6838333073784165  0.0174665409261006  0.7651317327954489
  0.9192684392832787  0.2246407325315694  0.9810984188529224
  0.9267056073818417  0.1829740010402317  0.9309823728856733
  0.6188214133914338  0.0453780925944774  0.0784788960871882
  0.8226954504504262  0.1428286681127143  0.9017385757706684
  0.2569262787385888  0.7170219964625956  0.8169713066600243
  0.4382660156142279  0.6941150733131863  0.8791490195080145
  0.8384780527224998  0.8032050132448260  0.2056384327668444
  0.2670392329050868  0.6522796146209880  0.5756688847560599
  0.6139573746813791  0.0357993682638279  0.6832082959819175
  0.7249022628607318  0.0291048201530302  0.6619710723439415
  0.4655805806379080  0.7582757503393245  0.8198623063854653
  0.5416821782305153  0.8576333719650713  0.8240919750113922
  0.2565153713779111  0.7480912839269431  0.9242531942440568
  0.5033240172366721  0.8067355399904763  0.8215546135102892
  0.2944881539508401  0.7977739660535813  0.9286391286082920
  0.4312110862698916  0.8266995583518898  0.7413072563114920
  0.4905068167388603  0.8197645106075292  0.7605732518600862
  0.7881828895298244  0.8187935205542647  0.2403655723720104
  0.3249113939156008  0.7799899719275988  0.9911976920331396
  0.3789466866617650  0.7520360496921797  0.5743991475589298
  0.2856758614889144  0.8356294349974734  0.9724442080094660
  0.9759215290792552  0.5238727557082485  0.5200693282885237
  0.4364226565138454  0.7462482777313173  0.5949788143881913
  0.3508781636208261  0.6904417336585249  0.6343641881402909
  0.1295611799691908  0.6266972752596011  0.7574818710640620
  0.0226544497774301  0.5948283837339350  0.6770560482894391
  0.0926412620918988  0.5772782131158846  0.7575308957658879
  0.2028616619612890  0.7126088822516106  0.8586030493475757
  0.1362648678894279  0.7298813294144257  0.7728919554543169
  0.9394479943881743  0.7110910747101308  0.3850956971766763
  0.6028670557469623  0.8792740034307762  0.9470110192870718
  0.3817084655604403  0.9408052791372619  0.9786413006236598
  0.7426531905241452  0.0104156445816928  0.7892338140910892
  0.0553028974826580  0.8818144435003563  0.2092780350646838
  0.0110865104851983  0.9403291582018946  0.2904512126384209
  0.6315098150857785  0.1827838163504187  0.2227992934924935
  0.7411404747285194  0.2716758820909569  0.5736591837093159
  0.7255655430826946  0.0330242889043792  0.1878477885470913
  0.6583642926458604  0.4440301581447991  0.0859250054516609
  0.0719199982017367  0.0454968802212734  0.4522032150478793
  0.9348618965093466  0.5437066860548985  0.7259504586754069
  0.9146931900869808  0.4350101569277434  0.7353059628659285
  0.1101902699656891  0.8771167651824113  0.3446388162153937
  0.8725095396753143  0.4046116769989862  0.6477911126011354
  0.8116744389800052  0.4119984831076041  0.6331113861051118
  0.8636456021134686  0.4168685961509520  0.5862841939008198
  0.7824770327936260  0.3174281910856627  0.5819285806314316
  0.2616857105858219  0.8151288127595143  0.3001159091110145
  0.1987578008002101  0.6773504100565836  0.2594246967512209
  0.8758114264773303  0.5207880771171443  0.5971570698502833
  0.3023188744389194  0.6465529995925576  0.1883925556451868
  0.8509788339396119  0.4254378180328846  0.5207480495098796
  0.9636517552725461  0.6057385719174060  0.6718828631416720
  0.5710330400579576  0.9519749216391388  0.8726910405184500
  0.8969319460925660  0.2308953486718053  0.2429270655594793
  0.6110096241620286  1.0007993286056904  0.0286478519542337
  0.9528999390682852  0.2760458932164849  0.1928795087524510
  0.5849014772716773  0.2020432121207772  0.2542281549720190
  0.7086716391980836 -0.0640397611980025  0.5873289151526195
  0.0491774842933526  0.7718959750775576  0.1830983201265269
  0.8621364271211691 -0.0033288319197476  0.8337644609234761
  0.2008502744218829  0.6933907146504517  0.1994693957201189
  0.9077325863562332  0.2456037496304163  0.9249547200306417
  0.8520306854380046  0.2067300163985023  0.8456687307359552
  0.8790653169897098  0.2700373365432744  0.7881586286437777
  0.8006592163412860  0.1693831130360862  0.7792510461957789
  0.2445484359321187  0.5694509783559567  0.1371140566601921
  0.8494691372732075  0.1762774941288002  0.7388061266262955
  0.2427135192031979  0.5537072873214495  0.1980109529334705
  0.8005111918466158  0.1385258560468678  0.6734813674700009
  0.3419328436128941  0.4579727922065657  0.1456210709828988
  0.7545086656454496  0.0973627063359767  0.6045351506779494
  0.3394981186770010  0.4101259429953135  0.1016593737434530
  0.6544669016373647  0.1057801398324539  0.5288636143372124
  0.3873824235474157  0.3801028514263355  0.1282340193696992
  0.6298178960251366  0.0254565705785887  0.5339703711844425
  0.9805583080756960  0.3467241960080239  0.9088309333557890
  0.3323598223495002  0.3516533205936803  0.1203233671727839
  0.0396670973974294  0.3038918164708661  0.8263134832307613
  0.7829502955295211  0.0612617831729343  0.7933426419988872
  0.7546378847817351 -0.0025109377035547  0.8504133724850540
  0.3591999522351617  0.3059466534330778  0.0295860373095334
  0.7829061562177051  0.3469721083547324  0.6890014129392680
  0.6011982740226889  0.4514634941792757  0.4056962283574585
  0.5916442111420722  0.3865594922352940  0.4323910309202239
  0.8877797947110226  0.7257959808376832  0.1889080976717939
  0.0528762578375682  0.0566958802138185  0.7187146933529898
  0.9452010999202228  0.5649008289551596  0.0302739259919815
  0.0257536767738713  0.0271991252107049  0.8830329209429626
  0.8544847504913921  0.9619267377060752  0.4583683817544709
  0.9064740418683683  0.9502942940508493  0.4202112531866534
  0.9220831827179131  0.9376107531093705  0.5515692536738559
  0.1200819787888075  0.0128361928545613  0.4778595009445918
  0.1811191890636652  0.2310049725974160  0.8890752337010808
  0.8090013110520631  0.4166470482131103  0.1514246564796209
  0.8094065482527998  0.4490492438506370  0.2562334071740143
  0.1140113326807519  0.9512239255801440  0.4969033933273835
  0.9056160741108347  0.3530395967954805  0.2103024553903574
  0.1410765146228555  0.1452799901552504  0.7834171915231810
  0.1639893965875614  0.9685715442794169  0.5682000724221355
  0.8546887340953960  0.3713419525089542  0.2399576331104814
  0.4872971056368021  0.0138438157869540  0.2543284189328677
  0.7302338299653599  0.0791707869789538  0.2316021879353307
  0.7902570461441889  0.8279473641429956  0.4090496727764479
  0.1047878583485132  0.4932158068763479  0.6189796734404531
  0.5475787572641998  0.9751964661580481  0.7467623761677021
  0.8512906739920117  0.3242660183025112  0.1981261236544369
  0.1038238148169793  0.0968062340669625  0.7831559970742165
  0.7168437269986864  0.7849060985642227  0.0015683937533351
  0.8920978051445106  0.0601765868886459  0.7746945412515382
  0.9775213555598454  0.4266731769778700  0.7602947869091751
  0.7840320284553722  0.2753377028956632  0.4751434672934480
  0.7629012054139436  0.1768613143734874  0.5423277906457156
 -0.0067128669084039  0.7576680406898110  0.1077208844724191
  0.8454964176848077  0.3091568539967869  0.6057399047614304
  0.8547725293215028  0.2958376699448448  0.6655586170907950
  0.9160504302040955  0.2873779877724731  0.6860395977481906
  0.5635173259788945  0.0251144496562504  0.0588762663735288
  0.9064112634114807  0.3335031544057150  0.7282215733152122
  0.9675701616047938  0.3242153571339404  0.7463467920943766
  0.9452815355446584  0.3830309330812849  0.7293722191152793
  0.9880385918925045  0.4144429313922129  0.8221678816372262
  0.9969488863398990  0.4041839802043797  0.8821971595821091
  0.7441802632860477  0.0956927357954643  0.5480531665200553
  0.5661535741563872  0.0648508463072850  0.1145287389543435
  0.5625079194059037  0.0854711565966471  0.0233638674919581
  0.9303426518323478  0.4237505466353095  0.7954192521970914
  0.5139526963201941  0.0763833845973329  0.1499349242136877
  0.7687053113071572  0.2080880285091622  0.5911171601310484
 -0.0026082339281580  0.8192405189267179  0.0911606642937170
  0.4561219393379926  0.0817109330668929  0.0163381975607104
  0.4088192215472237  0.1079491454683223 -0.0049777668648511
  0.3635096026903377  0.1733118038191217  0.0761827755709781
  0.0691219748980315  1.0256131077218813  0.5744520654950801
  0.9390173121554316  0.0982398745007627  0.8396467327633491
  0.3622220336085720  0.2496371268246671 -0.0004110242637467
  0.1869035142356588  0.4916995618142304  0.0846314254466836
  0.8058479490631496  0.0841967889691520  0.5120326425541641
  0.8510981023790952  0.1446548779762125  0.6322751847310852
  0.7318705837732665  0.1373959934958452  0.4429361574336648
  0.6777911947289174  0.1492335186243991  0.4752446753698378
  0.9981965544404411  0.2216905635727026  0.7217001990782319
  0.2257693940071104  0.3689205151723499  0.0263265753408917
  0.1864993802278062  0.4464649926948586  0.0457116584721481
  0.7566527156302263  0.0411640639203869  0.5636869339810606
  0.2563040968626065  0.4837261984558314 -0.0042230939650203
  0.8214680128968410  0.0836841818903487  0.6912321713853138
  0.8605850925095346  0.1309924490211926  0.6945307692542896
  0.9291237193745153  0.1094790344008531  0.7769198213587183
  0.9701594233780673  0.1573976930480747  0.7813357839056830
  0.0704127183149627  0.2007231748765881  0.8051019298327107
  0.0516458904850474  0.7633916238476018  0.0115604984424140
  0.8375819600409513  0.1100206821578340  0.3725881453121377
  0.8703106943472263  0.0555185321677820  0.3826725029729565
  0.9035848237699449  0.6144361620584872  0.6481071886314705
  0.8448069700816888  0.6240660964799706  0.6279451852390466
  0.6885467773411940  0.1884463683772731  0.3557537283362596
  0.9343743487095985  0.6927499858097220  0.7617579851496434
  0.6396473271820879  0.2658029900435681  0.3746472039322851
  0.1408671228722358  0.5690770718815094  0.1029255864819106
  0.9873944725251382  0.1305680116682491  0.9067192138754853
  0.9308392310538185  0.1400429194952128  0.8827364024929112
  0.9911096863123099  0.1572004211757245  0.9562491040697951
  0.8581006045979206  0.0703555990323272 -0.0090703421381594
  0.8674880820548810 -0.0360058461038167  0.9675835824360134
  0.2847284721998945  0.3944771235821776  0.0286492101152734
  0.9322559586747639  0.4685385255852198  0.5165260053938765
  0.8821005921513110  0.3901582244512883  0.7101697589828544
  0.3737410595391298  0.2769436843671194  0.1068546767149875
  0.9535765246976319  0.2502488256929134  0.8670369070617958
  0.7848817427717326  0.0928689185667308  0.8997427061408325
  0.7352751252858968  0.0865310192316117  0.9413542417861190
  0.8137245019923778  0.0215817092164457  0.9824303342381225
  0.5319974426624835  0.2608998774427330  0.1093480387738097
  0.9780374708128228  0.6698999839307798  0.4719281678320008
  0.4299273405856475  0.2908551966938527  0.1785293388534189
  0.8410505578423434  0.0234329672876346  0.7064318089038052
  0.5188250336992531  0.1567271839388107  0.0799505360621116
  0.8986248990718428  0.1793291564963970  0.6996186898857668
  0.4746924553247143  0.2312037598466700  0.0995342512637682
  0.8887398400391501  0.2249493693010105  0.7435327770351285
  0.9434636952983753  0.4613033341203778  0.5777823335483933
  0.4738434184096265  0.2511539806705663  0.0380565958478261
  0.9381687613378992  0.6283573083108309  0.5410055625600881
  0.3328225799371283  0.3824010126185693  0.2262467237435621
  0.9836163325127734  0.5095959334767214  0.5810692216576527
  0.1004705489554575  0.6582753787347310  0.5731409853892998
  0.7899455727107230  0.2318812141722971  0.4353210773215662
  0.7705027793278411  0.3880842761223113  0.7348058903430729
  0.7905091324852708  0.1879979319942370  0.3921733713420471
  0.7240461656740443  0.3545171844039895  0.6686888206035176
  0.6632966164376206  0.3619632531444983  0.6464239262717822
  0.6535442053397806  0.3762140098782676  0.5840164634803161
  0.6738198300681956  0.3209310815209512  0.6003569498131376
  0.1017813890074594  0.6198958608883751  1.0234647136936816
  0.9105020068128541  0.0130945155072480  0.3992818222249663
  0.9877466114182597  0.5687234787369564  0.8634748925491438
  0.3132350436064795  0.8616731448797782  0.4791312590082167
  0.8557048238584255  0.4745514258878816  0.8129085827876800
  0.3058744165906959  0.7766648367392944  0.4894273216454360
  0.3081845460674238  0.7011507224491037  0.3986548881537373
  0.8659762516400034  0.4321229964809665  0.7693455550879885
  0.6689987774364289  0.1948172665233412  0.6734307843764197
  0.2575079922821990  0.7536692784903560  0.3143105647338437
  0.7505798990880509  0.1303473687186200  0.7124552124177514
  0.6798421470905307  0.1508253616692956  0.6260309180888211
  0.2072277164432498  0.7692059859285703  0.3495276864633908
  0.4306718685742755  0.9169483091333175  0.0941179673526614
  0.0892767332269973  0.6660888681933042  0.5083751680253112
  0.6928078391225789  0.3487126713517062  0.4289434104501098
  0.8535063866237512  0.5097227238985222  0.9160802240301907
  0.9352864262875326  0.5615714157010180  0.9023193946915429
  0.9354228618070638  0.6764503662580033  0.5944191795430073
  0.2156023694727934  0.9069976743393123  0.4855441027004508
  0.1634722708577331  0.8916320370276888  0.4157348495979310
  0.8166916988884713  0.6882925402989885  0.4910155845121956
  0.7741243443729544  0.5132942800620101  0.6710742110049087
  0.8849601746332860  0.5378749171251003  0.7624824192822609
  0.9485695172114125  0.8330041909028334  0.5287834678540531
  0.8210517932224013  0.5468833400904858  0.7378360487194984
  0.8376940342586988  0.2025240803050476  0.4644084852719498
  0.7325033016252742  0.3398019190414944  0.7305271022853113
  0.6963230701130468  0.2890845572931894  0.7248011590986199
  0.6343635279241331  0.2964428233478956  0.7028333222607654
  0.8189496381226886  0.1163054416924655  0.4634185354038354
  0.5851338014358949  0.2606728825437102  0.6373768873243373
  0.8580878747598450  0.0746187074915181  0.4767832712873146
  0.5965409971951865  0.2192996010214031  0.5959326115107498
  0.5405111245658533  0.2217977108536834  0.5766835724543400
  0.5575238575415451  0.4855247558688780  0.6010905747187498
  0.8798197734357012  0.5600520337213879  0.9536885240886160
  0.6578310851846543  0.4626332825113991  0.4742093239100874
  0.2669203484358849  0.8893991066175362  0.4522734796736794
  0.9343959610180654  0.3951925337865823  0.6681691311029718
  0.1480510582309104  0.6784721368006842  0.1282000769259141
  0.9180382792080586  0.3539954193656994  0.8907315004328953
  0.5085452035126636  0.8393804905659717  0.9257891759846317
  0.7030714695254924 -0.0073399178528267  0.8903294677973387
  0.4025447438157058  0.5973869126364262  0.4096626213150270
  0.3943421436223098  0.5065570411897929  0.3190743024227035
  0.6748127939378571  0.0925735960326408  0.9177721545360634
  0.6738813376045816  0.0610961025943662  0.8099430393076307
  0.6633385147503721  0.0741498144032806  0.7477979498230787
  0.4948482015693688  0.4372511226789939  0.4346609629322408
  0.6251672185016164  0.0250911046023470  0.7450431623573003
  0.8405746374969488  0.2520158203199969  0.8910818110599956
  0.5794031347807310  0.2139161806242300  0.1960785984761186
  0.8467625576904370  0.2662217301085077  0.4451528955984054
  0.7519897015294515  0.1945001414641210  0.9224133885758417
  0.6924437136687968  0.1690023743739558  0.7965948844903513
  0.7123491250691589  0.1123122452006892  0.8146531509500785
  0.6320363394015256  0.1771942931984402  0.7758049408593849
  0.6520632053196673  0.0858389379160699  0.6850981715218150
  0.6834630941569766  0.1535002534847590  0.2494427432609046
  0.5873399497978921  0.9911376276492022  0.6430496479209248
  0.4894984857471845  0.0514252551108048  0.6354966344579875
  0.5416413496167908 -0.0446722828912484  0.5794933677172370
  0.8326566879297381  0.3137691865370071  0.5497322083882269
  0.9338218586322595  0.3580750938143367  0.5645572309444192
  0.1607321200439224  0.8445917297262583  0.3713956654687381
  0.4277359255586838  0.8729678320585227  0.0514881781584685
  0.5916355431640573  0.9808609844680725  0.4148145769840669
  0.3420720673021606  0.8431497205177368 -0.0097328954817467
  0.4866314210473866  0.9115709371092787  0.0693962710259559
  0.7829247968794834  0.7224499985995512  0.3778007230906821
  0.7340888191147091  0.7814436732410073  0.4586083009578722
  0.7857017092659776  0.7872326737100169  0.1332507294003709
  0.3405784841470213  1.0071328412459004  0.9906450795462614
  0.8029027719024517  0.9503001137814767  0.3819004942618420
  0.4474357368758322  0.9584253411408071  0.0468506444788529
  0.3787846654314570  0.9971285850225629  0.9489068163838714
  0.3409975660427951  0.9682063449882053  0.8491890302804130
  0.9740804107513048  0.4769480200682778  0.0783314834360829
  0.2423432220452043  0.9248109266397058  0.8274186911633783
  0.1242334468749064  0.4346487405361286  0.6386419226300989
  0.6273543519146969  0.6611380587801869  0.0009652230266610
  0.5163908180214960  0.7063134129249867  0.0102797417349315
  0.5193403368313836  0.7547845732583999  0.0559770516626424
  0.4697907883977598  0.8361449952235629  0.0726852429671113
  0.2824614848182838  0.5088272882255895  0.7790980485357510
  0.2915600576549827  0.9295317003647832  0.7862060543516282
  0.3583305472911612  0.6112452675866598  0.7840432287376636
  0.2704146320384074  0.5547998631660754  0.8198096510139909
  0.0474096077118340  0.7236562514912451  0.1364512180987072
  0.7800329190279125  0.0329436186478837  0.3205097009184740
  0.7281879503686713  0.7102835320347178  0.3081234060538888
  0.8245436392193028  0.8122545021398626  0.0251869883593914
  0.1696409070338400  0.2081601826004718  0.7242356706008947
  0.4789616165473988  0.8916923002539484  0.2862637121322241
  0.0998082988988759  0.2620856324552375  0.7443189131445738
  0.4244721521646272  0.8784301058739835  0.2167053678619225
  0.2179532571279693  0.2479854665711057  0.7865364098122762
  0.1587079133053254  0.2541055472221780  0.7652718852104969
  0.3773007069260048  0.9382748563256803  0.2971839522272833
  0.8406565688328235  0.6873505971666588  0.0099901912219067
  0.2510187319337175  0.1784289391982804  0.8680547817716073
  0.2679905732334733  0.2863305046025114  0.8499938653941119
  0.1091380931648595  0.8466187034809901  0.6378010791922983
  0.2730172491118841  0.3241831478128485  0.9498931730915947
  0.3064873472417128  0.3211908914881523  1.0069304569220558
  0.0140861317397663  0.8099275377209412  0.6160700067455078
 -0.0002672008098190  0.8672861715127560  0.5941137678687393
  0.0653845788512216  0.8149104347518638  0.5809159743024083
  0.0025731176100214  0.0399249843805954  0.5468282542601818
  0.0754477046311220  0.0348814689117735  0.8414372355655979
  0.1155684786728294  0.0856981035814275  0.8446134361575736
  0.7185054270065757  0.6013669505662248  0.2829832526907132
  0.1420762123914429  0.8470109517691541  0.6981545692786797
  0.0722125793701916  0.1642834223698260  0.7000192472634198
  0.5021851646445856  0.0400906809557931  0.6990332292392926
  0.4332901224179963  0.3733493275104015  0.3253446182324524
  0.9778342849017528  0.7443485108430004  0.6768341826068585
  1.0025097260449489  0.4408439098279505  0.9852144853322047
  0.3015936377333746  0.6590369970918747  0.3545676049666703
  0.7046931119304104  0.9158335437761768  0.9746769780408361
  0.5886483567222428  0.3092662466480348  0.2842340249628226
  0.6810959350572315  0.2132885583325078  0.8395630191060642
  0.6659818776764387  0.9747881553853284  0.9945298198440278
  0.8533313034274786  0.3575685750887178  0.8790910345300028
  0.3526091731315279  0.6463272846801876  0.3203359922725034
  0.9057210279196579  0.3630685814320428  0.8330747452220821
  0.4013582650884430  0.5643546685913877  0.3009159433064947
  0.7446761177718356  0.3262837585348233  0.7904315552177165
  0.3460452489839845  0.5813478738439498  0.3388046150983494
  0.8560241752852531  0.3259088239921162  0.7715380361617831
  0.8282974755445678  0.2321793132264243  0.7224552459539257
  0.4440045176496842  0.4454819643857155  0.2413424308348361
  0.6923634559081875  0.2618344629332650  0.6174672434343268
  0.7563143169428879  0.2541513638875229  0.6392301659151919
  0.7167955643136891  0.1987126710602030  0.6356258345555662
  0.7036562180050329  0.2015496968761176  0.5726000472923475
  0.6576734139789877  0.1604827578162402  0.5644436358973270
  0.5392559893225802  0.3385371331825093  0.2564464740172453
  0.9443441558440097  0.1689837042245838  0.1621384359911216
  0.0476579161046872  0.4438724099607542  0.9481606534500665
  0.8380871971765436  0.7319352417394612  0.4477811592619764
  0.3243966840695813  0.8620029637782195  0.8667293380916949
  0.1423207927666839  0.5102683958911262  0.5163799182543105
  0.6977507996350578  0.8953868507871373  0.5331955811484451
  0.1924236421454408  0.5485296544335031  0.5762735362800707
  0.2981790869574423  0.5833600074448866  0.6571640860596999
  0.9764192009642858  0.4825568009740364  0.4757162091446099
  0.2498270744466149  0.5785302334312735  0.6969076280119362
  0.7823395218531153  0.7239676677031753  0.1502942480246101
  0.0876351302196989  0.6921639744190782  0.7066723692549420
  0.9709578879567985  0.5565269106374050  0.4611792645877131
  0.3250957364792890  0.6627700337865318  0.7957077440410875
  0.3373533907624303  0.6504916725596247  0.8572370343165260
  0.8703076733450846  0.6272045859137624  0.4012227230134499
  0.1848324707425787  0.7338867740431556  0.7341023783791449
  0.8849654939572059  0.6324645713680317  0.1041931539124969
  0.3767189838934192  0.7018726891093195  0.8585383033609507
  0.8793262391656654  0.5698778875806639  0.1239739826786509
  0.0760065302333220  0.7041048862007743  0.6424498735355220
  0.0840102153168020  0.7092129009210448  0.5554195800231557
  0.7893033083414388  0.8092100361458243  0.4661246734178282
  0.3868552508286057  0.6552359223948218  0.8177367257873343
  0.4913245571441086  0.8701860910877701  1.0273312640096037
  0.9275325678656553  0.4550293601417295  0.9010910066885683
  0.9768847978179294  0.4609221705596887  0.8623153409987805
  0.8514228139025021  0.6092970495526453  0.6889834790058167
  0.4849819886763506  0.3075930952808583  0.2453441389077080
  0.7297999047545769  0.1879032139353712  0.6948882463588943
  0.2122581154700967  0.8292640483462076  0.3341919389746849
  0.4094976105355450  0.6590602596808378  0.3905197744983228
  0.6779931874700442  0.1954893063808434  0.5152791679280810
  0.5782829366182038  0.0048447044137002  0.5764584309044948
  0.7444431328896579  0.2686001336356870  0.4106019388124232
  0.7310835143228623  0.1520079888535190  0.5882292781764115
  0.4826082319178641  0.3770283483666048  0.4656808766586297
  0.7846810546499364  0.4969129372751295  0.7297352034395080
  0.7861891493707576  0.4688138512384010  0.6260845591877496
  0.6904808894262894  0.4284377663648584  0.5908389361373184
  0.7472672517212837  0.3724536174466176  0.4979079469348467
  0.7396554606450383  0.4346079664963647  0.5524014622678604
  0.6039934458886400  0.3415174216952876  0.5160898048921195
  0.9726515199172447  0.7679205018294506  0.9274287772045269
  0.9314330470244485  0.7127688248067776  0.9275824331658220
  0.4572093808830790  0.6300056524871142  0.4143300548303701
  0.5078546528233210  0.6008340034848536  0.4417752268815686
  0.5039650482972233  0.5560967143239489  0.3977725652417538
  0.5058226652800871  0.5428246293792605  0.4591569991239586
  0.8128384669646612  0.5620760888996644  0.6790533274731400
  0.0660351722781117  0.5150603877422364  0.8199951959950172
  0.4260185432615108  0.9901261852646303  0.7026444165750373
  0.8932599611636390  0.8186786035281496  0.2802609093220850
  0.0749668432870801  0.8491702409491791  1.0125610202036253
  0.1046055042765118  0.8326384014383719  0.7985313968484263
  0.2970022530889020  1.0029690593030078  0.1575359136140831
  0.8372996973816386  0.8180720305095190  0.1430963064907322
  0.8693251666624040  0.9431903753677432  0.0264916735883256
  0.9447048851260397  0.7949359055846827  0.0776700397706685
  0.3789683638398271  0.5536804746390832  0.8010491113703105
  0.3408539157027193  0.5364362792007036  0.8999627677382718
  0.2272099761425811  0.8495672755130357  0.9500093133673447
  0.4538029101545790  0.5330271843220973  0.8810833712029582
  0.8894966968155762  0.1081222808812637  0.0439103066827974
  0.8143885484412628  0.0691683607550550  0.0263388369875054
  0.3014288116669317  0.4506281022627929  0.4725796699503170
  0.7729951408727281  0.0284682757091375  0.0869507746051950
  0.9451739719345637  0.1850933870816701  0.1012769992286584
  0.4152234379181047  0.7415470599686016  0.0816970544809010
  0.1045407179805682  0.8661797714533209  0.9037411544722411
  0.4164191268150834  0.7882637315615777  0.1248004697843628
  0.8985168390265801  0.9113772285683680  0.1454787996967739
  0.8432594560476486  0.2306836984522483  0.1083553871612361
  0.4268109139491611  0.4750275737011808  0.9414783303130937
  0.9370410326044161  0.6638378189631836  0.1137173315692335
  0.9913120511021792  0.6484610440559301  0.0817870929904237
  0.1939834206528324  0.9197360112870225  0.8686805565921687
  0.9233670682211182  0.8601653577076249  0.0244245519923746
  0.0802492544469976  0.1180569940076953  0.6594956653458894
  0.8462997314805771  0.9128369634686637  0.2370238579440407
  0.1515666911221064  0.7387816040930926  1.0037019042152913
  0.1056831751559191  0.7300565745228558  0.0425515402765967
  0.1659687930651531  0.3363804677816880  0.5834027945492436
  0.4304262326426255  0.5252949415221504  0.6593828674690803
  0.5197363363574903  0.7397300583169215  0.1160649859690892
  0.8176307025759760  0.9665860915667783  0.0120122266874539
  0.8458045472735374  0.1315446017753884  0.0234971508043377
  0.9719397463145368  0.0205373521869587  0.9904380218526952
  0.2161662559705328  0.3762218572267876  0.6456204739676457
  0.3483076623946150  0.5879347736969243  0.6179498898021170
  0.2737163076457891  0.9406274055075328  0.9991091819494060
  0.8467833783586617  0.9352330827609987  0.1014856814300940
  0.3172698309957589  0.4052257470501546  0.7564105444355150
  0.2510160745704496  0.9572851042230803  0.9338719643327487
  0.2719984184565622  0.9121040278339176  0.1589624382682765
  0.8882087042594063  0.7408110249047953  0.1285814678842608
  0.2681185641470881  0.9006124765707361  0.9529085935034872
  0.9939585332619596  0.1558378794184798  0.1270705264603370
  0.3593925500359160  0.5431810410670582  0.5777991278849903
  0.8869789600894112  0.1534604720855217  0.0884489649971504
  0.8820270837022848  0.9549257894905967  0.2099957665470744
  0.4717432785803297  0.8011191129925452  0.1954555701073263
  0.4251898167365189  0.5814909055555030  0.9473668044959146
  0.8180655573511081  0.4914352890047067  0.0734347095672622
  0.8099524406681337  0.5006205266486682  0.0126663180148795
  0.8682251274187150  0.4616450552424681  0.0985169273933890
  0.1489313214464530  0.3017442392262550  0.8084730144480040
  0.7929671294558498  0.6507377139565473  0.0039608804472065
  0.9571536598133160  0.3084815191458322  0.0676506090515283
  0.4034407902235096  0.0143734113488300  0.5739128324507158
  0.0080170102959941  0.1801870870293001  0.6741693512078571
  0.9047994271793397  0.3206292505744822  0.1040593319512813
  0.9019507537098644  0.2764827752964392  0.0533273443122914
  0.6781628553677117  0.7842451663528839  0.0990679293960933
  0.6747312065129931  0.7965998951165049  0.0393584091368257
  0.9970566624235095  0.1754479205539938  0.0635587150484930
  0.0901608892718274  0.3437234522591824  0.8901127598473869
  0.6556035765222301  0.8070943613447935 -0.0215764992908469
  0.4324109188780178  0.9585926753355275  0.1399833592982755
  0.1432949137309721  0.4897235265776904  0.9589008429362565
  0.1578384549901400  0.4393537658497865  0.9274379496615528
  0.0984475488516769  0.4451630003127692  0.9059031127466229
  0.8230483700554451  0.5379928911499798  0.1128653632111133
  0.1285619999825137  0.0731967594287325  0.9076193349600630
  0.1394224772860720  0.3466477058921972  0.8504701647939582
  0.4267118943871012  0.5875997246958939  0.8757853279222848
  0.2114310660225990  0.3271630947511172  0.9359473431497798
  0.0447077138216171  0.9536615594385018  0.7026750331435417
  0.6662303895307581  0.5533854079561085  0.1104366914622564
  0.9799945544960130  0.0077960905394063  0.0484037655565016
  0.0536528359559266  0.3103809986192841  0.4987796548619258
  0.5369972563191197  0.7046070558465658  0.7937144963242260
  0.8282012169478233  0.8508088216158965  0.0749404203574619
  0.4990819541693226  0.6543804884043231  0.7933426277340154
  0.9629997195935360  0.8726608542315303  0.0811497470899033
  0.0756215287531716  0.7720739185733414  0.8542815282237346
  0.0550218241975713  0.8283055458630160  0.8360135715855994
  0.4364651102178457  0.6615908384119824  0.7755948474174484
  0.1144529589030629  0.2945380606830075  0.5197394015755539
  0.2358772579180293  0.3192020256482384  0.6660393899857736