Cr N  Ni
 1.0000000000000000
    38.8588641550299201    0.0000000000000000    0.0000000000000000
     0.0000000000000000   38.8588641550299201    0.0000000000000000
     0.0000000000000000    0.0000000000000000   38.8588641550299201
 Cr  N   Ni 
 1596 106 3725
Direct
 -0.0243841707354765  0.8437158459061439  0.9616232614455462
  0.0086758900804792  0.2735026440368672  0.0973766895889086
  0.0059713377339066  0.2246585700722608  0.0473737330627148
  0.2888498523248904  0.4589690508198836  0.2379145935945192
  0.0991193391590649  0.1224356203705291  0.0583863019029897
  0.1888154674043314  0.5544638761203813  0.2876096613039082
  0.0337759075142559  0.0470366040390129  0.0026681892689509
  0.1864724856244313  0.5071054194372536  0.2445052187657944
  0.1572530402774236  0.1945484022148580  0.3449785649272120
  0.2030203236094164  0.1187819130167109  0.3239799167986939
  0.3575560038912392  0.7250431394389171  0.7337581099052992
  0.0416210167460350  0.0441959366066282  0.2340438091112781
  0.0823215284754955  0.1536855022787155  0.4875372531687007
  0.3473760910106189  0.5566378299368417  0.4518808370345189
  0.3273531329800455  0.3396548434897241  0.4136985097589069
  0.0155585157274420 -0.0313055600210064  0.4008010296790125
  0.3315650811729960  0.0766736499476063  0.3053567961065154
  0.0413700520874426  0.5683957574668004  0.0670954971650388
  0.2763304370022022  0.3526605117736070  0.2167625136908670
  0.3806128083795992  0.0422192683495520  0.3302766378391713
  0.3801228406127016 -0.0035258200182698  0.2845742495923245
  0.2295021704647485  0.6380244796834518  0.5069939847244234
  0.9078048581255981  0.3423256360078010  0.9775690577346197
  0.6418082279671268  0.9973685464843558  0.2527360540693382
  0.4662701467454407  0.7573041697709902  0.8223249585512922
  0.5418212149087021  0.8577948147924813  0.8263134070094146
  0.2517637796401596  0.7440487783061115  0.9223158828707185
  0.5042633312536344  0.8072111844203267  0.8232353879813411
  0.2913503157565923  0.7926924264895986  0.9277172689447779
  0.4334535445177126  0.8278198577815348  0.7432473650473241
  0.4918554373844747  0.8215403658392147  0.7640096156605218
  0.7891979433468113  0.8168151346403322  0.2408428706840850
  0.3222501654128669  0.7737045385957152  0.9910194288075854
  0.3399613877870717  0.7550448012512178  0.6114973367042379
  0.2857762969374848  0.8256520267441519  0.9741729617978065
  0.0346779481795538  0.5510479159825100  0.6233107358278416
  0.4016546287735559  0.7469163765216891  0.6330283173116146
  0.3648779952412212  0.6959387136159504  0.6251853060230433
  0.0825864430876121  0.5868109527219115  0.6862173738181682
  0.0303104004707634  0.5812120894934614  0.7264555000496913
  0.0908956899206418  0.5740342732901684  0.7455779963869753
  0.2440560510098883  0.7589667861826552  0.8588784399024094
  0.1394452453631296  0.7287421039019347  0.7640150544369878
  0.8305479810757777  0.6915897542381836  0.4047730226886071
  0.6032168131056448  0.8826365674137755  0.9497834304594922
  0.3881200751668960  0.9395170539615321  0.9828060973634474
  0.3312093615704501  0.3374177237041485  0.1809535028663704
  0.0261304601079875  0.5116780657869916  0.3082421906571515
  0.0104543419933354  0.9374013061113958  0.2898088772018709
  0.6707704102143496  0.0330815333511778  0.7011670673969470
  0.7045307049011356 -0.0572536372714074  0.5907847354766357
  0.0978335631471246  0.7406137886116745  0.2019102621579497
  0.2004003498179323  0.6927969522236461  0.1927740847829816
  0.9485891877561683  0.2394655325979445  0.9550550505015794
  0.8438670780217059  0.2063147915263976  0.8516252081030190
  0.8350369719445238  0.2204035004029025  0.7893297015640270
  0.7979274438098160  0.1710861401894094  0.7838258886158027
  0.2452511810859715  0.5673213783929002  0.1334775865895211
  0.8471854367835725  0.1740874239876319  0.7458008582867386
  0.2427613692315813  0.5525322237324246  0.1919443091466571
  0.7997896503328006  0.1421722231417306  0.6730871614234728
  0.3426916719608394  0.4570728113879138  0.1419368515583882
  0.7525969551961691  0.1018779511257006  0.6037625858198986
  0.2886817447611232  0.4266612051610480  0.1339402664668461
  0.6695861285633264  0.1177767797368474  0.5246900938367289
  0.3899455485260475  0.3792537722350838  0.1261896894499772
  0.6460387142859696  0.0234351963965016  0.5339894082073241
  0.9590491205851088  0.3484064686165617  0.9372998661796711
  0.3348878665355528  0.3500044397222191  0.1171089185556622
  0.9763570459765445  0.3048755335739763  0.8935524043265892
  0.7805276276549624  0.0624053450810336  0.7919884058659661
  0.7173813746936626  0.0401424400025495  0.6643458557596527
  0.7853131132114025  0.7011590728841561  0.4411045098235691
  0.7764184296527281  0.6603204743803792  0.3956109576443271
  0.7418730194428190  0.0127689710043865  0.7884655647394457
  0.3726517592906806  0.6811821518917324  0.6888708017728293
  0.0717772382287814  0.6023281126899768  0.6271249215788597
  0.8205768386117204  0.5931208180169432  0.3909054693002344
  0.9287166131556465  0.5860551607393134  0.1918214443805550
  0.9832305377711348  0.6174367812938677  0.1991016896248589
  0.8703896332935472  0.5616733906300266  0.4141873052370059
  0.8671666313451196  0.5123487976792461  0.3708406801234979
  0.9183063066494375  0.4970710468024130  0.3377801592126271
  0.5865227004209584  0.9388548207138964  0.9336302461235843
  0.9135824759013799  0.4327974473131315  0.3601940907085587
  0.4296566419586376  0.1839736720138937  0.3817470506142154
  0.5074607094793793  0.4818479669382831  0.6361782435770043
  0.5911568252624886  0.8635461569173660  0.7838070792133600
  0.6816854043176709  0.0193351553835272  0.7648501726261259
  0.9060713414231046  0.2138615801223474  0.9987252342004437
  0.9095253973006634  0.1830440895944144  0.9467823050686593
  0.6145041927058837  0.0457621392495372  0.0813614604603163
  0.8151114932457099  0.1418801525258893  0.9063582762315880
  0.3678368351798025  0.7104865184437111  0.7955038042445177
  0.4280643333854076  0.7052786421589220  0.8174791875405905
  0.8399893846627503  0.8004155325775741  0.2071326597589552
  0.1048586668414228  0.8495798214556396  0.2307064220499516
  0.5158142013603643  0.0930972560234068  0.0910123726006951
  0.7359303957897898  0.1165294599281102  0.5448221376737306
  0.8362354855643431  0.7389107266674807  0.2227432664898636
  0.0224017391480952  0.0113456257961262  0.6890072337016617
  0.9429770787314157  0.5644414094013936  0.0333964433983988
  0.0641603287360459  0.0471240553041538  0.7874421530713989
  0.8549474911208379  0.9615935416073808  0.4569947117332677
  0.9068972579091836  0.9530780032846918  0.4206676935783594
  0.9531791222264436  0.8580069167186043  0.4601352386094791
  0.1743732613174260  0.9817405440396577  0.5127485252464229
  0.1690790442520962  0.2274594205911339  0.8882926130214206
  0.8138991339897231  0.4610086892437134  0.1972359520611091
  0.8638780376249634  0.4299698627967648  0.2231453780283227
  0.1195359221316111  0.9513565558870692  0.5023087348866493
  0.9094660793162053  0.3526453607002346  0.2092223041324599
  0.0848545503139482  0.1422515995635386  0.8196713748097375
  0.1260639374955119  0.9324447460425743  0.5647919671075241
  0.8585102101325479  0.3682078319449874  0.2416503294402075
  1.0060413080810811  0.5555804082767235  0.9262008089574104
  0.7295977043501343  0.0271319863194690  0.1886638091738941
  0.7441581011003894  0.2711219086185702  0.5772765048953139
  0.6276999011095002  0.1176576146525698  0.2405304093752501
  0.6287883821635658  0.1784331259575842  0.2272823000497063
  0.7821492538963183  0.3485334840111007  0.6934034424489738
  0.8113177569402357 -0.0069603149262003  0.8731328273239165
  0.3892784377076476  0.3284279648015061  0.0794260027299065
  0.3238795885486212  0.8599678794362640  0.8671890818818252
  0.1480731879258390  0.8543393212245664  0.6930724074569593
  0.9459416508901707  0.1664737084156450  0.1645437837447408
  0.7279810172708495  0.7080085478476091  0.3099872205260144
  0.3894753589427916  0.6539429297812022  0.8125468175633674
  0.7934995096493299  0.8076596711404909  0.4787989028434059
  0.0723480100320140  0.7291836178377791  0.5627019075311542
  0.0834132193131072  0.7107856341657114  0.6274883018859915
  0.9327442382054296  0.6005003591666205  0.1314730307091118
  0.3773629861184188  0.6992623240570640  0.8574959880236250
  0.8849397789935065  0.6320392138917739  0.1051678955641539
  0.1889923074555817  0.7341442971408302  0.7281234020690804
  0.8683687449519686  0.6074327472121940  0.4521335745459721
  0.3382420292845014  0.6495881272618904  0.8538990619196599
  0.3279143605249829  0.6613590112463258  0.7925724171261971
  0.9742853333578976  0.5673302026348001  0.4557539461662218
  0.0674227322436276  0.6311313595215780  0.7324041689313211
  0.7808703362029252  0.7220178366847877  0.1510782584396039
  0.2522166175833246  0.5803583907558107  0.6899176181439141
  0.9688099739123222  0.5033520968497434  0.4752578317324244
  0.3012064793387654  0.5861771617248578  0.6524665076021563
  0.1960418402048847  0.5572328391228588  0.5636814652759661
  0.6927164003705770  0.9137137238718489  0.4713490188928230
  0.1592517838932898  0.5361302188370978  0.5035260265647414
  0.7511535239152400 -0.0002402034778504  0.8509068353589655
  0.4886831530704691  0.8721508122129566  1.0296227441898336
  0.8444347993691161  0.7276580602438107  0.4590958756273775
  0.4451524234867530  0.9135900370133971  0.0080919050393450
  0.5950858607595841  0.9846158362844508  0.4186016724239315
  0.5110724744858813  0.8393633270096903  0.9317068097367380
  0.5785069525699518  0.2113145519869694  0.1976824779816187
  0.8490969251096305  0.2617874862810533  0.5055900942063347
  0.8438858278467964  0.3177160995499277  0.5507179071695500
  0.9359411615166499  0.3684765260395838  0.5766224706195313
  0.1473810046540671  0.6782421066707299  0.1222037903777551
  0.9436454014448201  0.3557148530639163  0.6376574019178618
  0.0443980768658766  0.7261324397273755  0.1310685730308147
  0.9788007256427723  0.4233080133400788  0.7703958480119508
  0.7511441441269486  0.2320149855819427  0.5366040600092632
  0.8171979878696183  0.2126175403319353  0.5603589705295733
 -0.0044603816830538  0.7967980597804066  0.1484055517963453
  0.8479292563993094  0.3107863081804183  0.6107610886141961
  0.8546756195627320  0.2981172026936679  0.6725314082671289
  0.9162403201679734  0.2906276996443261  0.6968531826781111
  0.5605872633649984  0.0171936598618073  0.0686947178362439
  0.9019511611559441  0.3344527762263936  0.7406213042328182
  0.9600895314859988  0.3307750537220853  0.7654862924153760
  0.9378997527236302  0.3860773715300003  0.7446377924840182
  0.9891909837761420  0.4138893944073558  0.8304449494613413
  0.9969294047729389  0.4026410270408957  0.8860621637225251
  0.4912578778911021  0.9160994799916026  0.0718660310120887
  0.0960677856927366  0.6719992669843764  0.5732861490656607
  0.0870251369109532  0.6874424019280286  0.5131355456233482
  0.4332076235529541  0.9194328284574188  0.0989439152385072
  0.2701239465302536  0.5539428076321244  0.8135804021168862
  0.4303877225785678  0.8796995499327918  0.0560439716376422
  0.3196761561721024  0.5595921138169082  0.7759746004794461
  0.2943176907949114  0.9302942490229383  0.7869942815206463
  0.2236222459231864  0.5168581045393580  0.7474634200026430
  0.4681148811513500  0.8312664802141548  0.0715865238498292
  0.5178174347125154  0.7536890521130004  0.0543540509706789
  0.5142785186751859  0.7059837979737176  0.0065944122608181
  0.6230742090148523  0.6577757072103162  0.0009638067248529
  0.1323732559914519  0.4394261875440418  0.6145712869459338
  0.3028186612924353  0.9158815683982271  0.8499768001149669
  0.9764921476616731  0.4709365645726355  0.0795071715230497
  0.3423855072655838  0.9671847825190842  0.8551795495600121
  0.3551373854273603  0.9527225132178672  0.9214770538698972
  0.3901793077679121  0.9298264313792212  0.0453619045085038
  0.8010777179598385  0.9285122699398789  0.4452966178053369
  0.3865324572809473  0.9951174879815509  0.9608252230437364
  0.7857152251705096  0.8298281413245135  0.1811792533746802
  0.7378711090193307  0.7798629287374221  0.4599179922560433
  0.7825129063899178  0.7229913224411624  0.3794089705537908
  0.9759733316895023  0.5644392464685133  0.6340564556776451
  0.3901478698625809  0.4124926233297028  0.2336352275113983
  0.9666882435095222  0.5842463164356707  0.5697677978079467
  0.4030720023256231  0.5644010939921560  0.2983602708007602
  0.7932053694621339  0.2348663336654175  0.4365665349090495
  0.7687441267860416  0.3895695471914170  0.7398604930967907
  0.7913133096403863  0.1876745857977872  0.3934194113854329
  0.7233873401901973  0.3569465542853174  0.6728598256395405
  0.6624981635279004  0.3649934129236561  0.6467351975856940
  0.7123595082278865  0.3738008269389063  0.6056833414287076
  0.6719811983253411  0.3224266222166040  0.5995768466770927
  0.9901509899263564  0.6048029369142510  0.9748995011782945
  0.9181547667545878  0.0191242413957929  0.4088768474151551
  0.9325579382114209  0.5660215186316070  0.8957656292680795
  0.3188302934694615  0.8518451147002667  0.4766679910380595
  0.8888925879068306  0.5288448414563393  0.8218162934464132
  0.2671726022412226  0.8160859674029675  0.4660860095504407
  0.3594684538775728  0.6920458223047578  0.3589295980333189
  0.8742256331892988  0.4216589689773578  0.8316304506912426
  0.6674817539355460  0.1994588588216253  0.6748441734067235
  0.2632970317214778  0.7992949482574161  0.3569642461635241
  0.6289494602536663  0.1484634528868062  0.6711744978115679
  0.6166651010503981  0.1629921608346440  0.6114036359263759
  0.2076063393192260  0.7709559374387432  0.3445250704409328
  0.3478741405516577  0.5984981071123181  0.2690491882219357
  0.8946402871754041  0.3654270957713415  0.8486592779773310
  0.6917184657477085  0.3489179806172088  0.4329114429114930
  0.8532359698729721  0.5119515826268272  0.9204032559965505
  0.9113324796567439  0.5074511884413750  0.9399288206558497
  0.9318432381678246  0.6859345382827362  0.6039484836071877
  0.2239051678766006  0.9125182740456375  0.4886200968312310
  0.2160234451805830  0.8599851530944060  0.4389511824034745
  0.8094251742212423  0.6868901382426480  0.4959970010680654
  0.7752313920431931  0.5155637773846801  0.6719514789060065
  0.8810681256906653  0.5417348714433532  0.7649271720714620
  0.9417473525916253  0.8123793221491943  0.5061435611133109
  0.8197709365952025  0.5496722015287623  0.7402983286319822
  0.8441592395434137  0.2054539489757760  0.4606599174955543
  0.7312607365128161  0.3411396260913996  0.7340077616233472
  0.6942364844265931  0.2911799052909786  0.7281301636183759
  0.6303554353137554  0.2981604909906000  0.7072284390354884
  0.8249116435974257  0.1190351428421833  0.4694495011378506
  0.5817862449316532  0.2633062094327795  0.6393368287091112
  0.8590151147344893  0.0710058915469778  0.4801209743136880
  0.6342163382439659  0.2721702224082889  0.5977642439445934
  0.5359271990711524  0.2286134993732385  0.5714686645630308
  0.5472458095180240  0.5054261623618065  0.4802654401256433
  0.8855233871509229  0.5628166973098943  0.9363221351858442
  0.6556821091255096  0.4617145751220830  0.4786584734017249
  0.2686231340010276  0.8865577681177663  0.4559312296520612
  0.1659054582185384  0.2077317768075724  0.7223732912364382
  0.5304861344475430  0.8749912994581796  0.2515199866782268
  0.9021748812932883  0.3519603327119429  0.9117759571433730
  0.4281882426157743  0.9211218830999893  0.2635427889905240
  0.6940702392786128 -0.0045005404164915  0.8919772960791410
  0.4018590515064723  0.5975538796597019  0.4050829637435087
  0.4516046030974871  0.5367783474523753  0.3263887061888647
  0.6684691657172851  0.0925353508781951  0.9154034025398936
  0.6821779474098102  0.0479462718894777  0.8721089154542101
  0.6114588254879914  0.0702936627025869  0.7878805309767865
  0.4959893594243276  0.4462780917247194  0.3711621489208330
  0.6229319229046782  0.0274136883922280  0.7433147304490653
  0.7783160046756750  0.2431575765243301  0.9298495775632534
  0.1524332448644384  0.2536319406853196  0.7635958347029608
  0.2134902617862750  0.2464046327196414  0.7890353229057390
  0.7579290412526819  0.1484958478904233  0.8836602976725535
  0.6873609849327128  0.1704363111232145  0.7987949183919014
  0.7083247713551007  0.1146202763069217  0.8148443967047962
  0.6392341562868135  0.1349281846841423  0.7299658845464435
  0.6504919485020436  0.0905888526520962  0.6856512011302327
  0.6837189952897212  0.1507877833351966  0.2533516671304711
  0.5373816179849453 -0.0061894945568086  0.6838404029483306
  0.4887167289744282  0.0563871164563589  0.6403321796279801
  0.5381277284352526 -0.0343084620209008  0.5766515346191754
  0.4788690196176140  0.9064333690932376  0.2265243886230758
  0.1153830373138804  0.2054842022653262  0.7582766443894690
  0.1614956327147909  0.8461358271954301  0.3681259403903951
  0.6549086757565701  0.0311971183930342  0.9852336740330196
  0.8527231160175824  0.6790332877511118  0.0149582977457564
  0.2214917088563273  0.2331901061432494  0.8481901103172700
  0.2593580252031752  0.2835554213261268  0.8559206317143951
  0.0986855129766798  0.8224096192870699  0.6180912738801491
  0.2428649182204369  0.3176464161895161  0.9715737358135779
  0.3017006267639749  0.3155038829838720  0.9932257819260297
  0.0099751290506520  0.8096869320103709  0.6122017108737553
  0.0535382246349796  0.8636618481864746  0.6099950023028056
  0.0550184620815661  0.8254283017312752  0.5676190677572053
  0.0129124760125173  0.0461860087685191  0.5555246925971370
  0.0787855716678124  0.0323301257206227  0.8517270386239052
  0.1191579289386073  0.0814381969967089  0.8545487473305818
  0.7190570136335296  0.6015415456086057  0.2857423619305656
  0.0696256221229533  0.1623884551417839  0.6981838838837132
  0.4870259708046780  0.9858543138385290  0.7272178103431164
  0.9227431527961366  0.7282856296813767  0.6443047574973112
  0.9929045132246502  0.4464292932754416  0.9834646687062351
  0.3021260210235878  0.6613452797459355  0.3497830733031042
  0.7119610244732456 -0.0257368911369643  0.9622946753314705
  0.5895038384415271  0.3053189369535752  0.2856020118176994
  0.7329571390885039  0.2078017203867421  0.8646364343544199
  0.8444786468528198  0.3580620868756587  0.8861672720872638
  0.8354354327064890  0.7272871237939329  0.0513686407529033
  0.7857143023081987  0.0325188876403504  0.3287605526787276
  0.4808057096234678  0.3698366667692156  0.4649026916857584
  0.6888401949339726  0.4312938554803302  0.5939519142933293
  0.6833500346745784  0.4495862241019091  0.5288215559487277
  0.7384995386863756  0.4343342793760363  0.5604863672250864
  0.6389827210721756  0.4040687435627676  0.5197777061923146
  0.9678830513619047  0.7598170782122076  0.9191836250287569
  0.9452837861670280  0.6678804281013109  0.8937064805331020
  0.4555323079706504  0.6288800313792410  0.4105134339185919
  0.5040718160208251  0.6019262882413930  0.4406724224130235
  0.5036218053401184  0.5537814753723264  0.3982973630690793
  0.5036851576362968  0.5400942806071086  0.4600969919302835
  0.8502762967866605  0.6132162423276417  0.6885433252506562
  0.8119032158569204  0.5645094533893150  0.6795053918328112
  0.6010571820306584  0.4473668904834179  0.4068637860039399
  0.5906185673507213  0.3855951127796855  0.4323821006724404
  0.6391095088673941  0.2634838907631749  0.3757055981884986
  0.9334040738550817  0.6967066440497109  0.7699251720209880
  0.6876623796082160  0.1855884261139255  0.3572367296763505
  0.8826939552057309  0.6762119145963946  0.6361083139943059
  0.9017022146524145  0.6181793802201059  0.6526966064833907
  0.8361454548594930  0.0641256794943195  0.3325009293731352
  0.7843942438513563  0.0793064873691754  0.3691809569884963
  0.7501727084531412  0.4227752427574216  0.6170868343781843
  0.0474362784770825  0.7410273897007638  0.0680961276094536
  0.9535086296614083  0.2097906911726730  0.8395626028640846
  0.8379647450412595  0.0276108641418876  0.7019235660140465
  0.9664806796272786  0.1583312738949245  0.7914248395297241
  0.9205235106939573  0.1095562817669623  0.7820358863076229
  0.8599587795034477  0.1296918002129962  0.6978277890718477
  0.8190611485606211  0.0852368640314978  0.6910367837852623
  0.1910692637927334  0.5067602151093528  0.0167740072929733
  0.7547796779312570  0.0416724995438244  0.5631885716892346
  0.1887994264657804  0.4403655816496636  0.0350511928208223
  0.2451271185262703  0.3595068620995825  0.0171937977420876
  0.9363677080164728  0.2338235883082603  0.7148145396312849
  0.6899255319523345  0.1521947378558775  0.4768789272371446
  0.7373558431240216  0.1404000217303846  0.4447527787092989
  0.8532990602555222  0.1462328913367893  0.6356279518146692
  0.8020241137862963  0.0826295707227282  0.5153183452420376
  0.1892705374763484  0.4879359269162673  0.0770890263840028
  0.1410301419545682  0.5671365897501286  0.0955949632297961
  0.4771023085408528  0.2267958638604483  0.0991296233387108
  0.9547422178463768  0.4605270409916757  0.5910431092395593
  0.8856436886894994  0.2274416655425139  0.7533694638027935
  0.4710175243142876  0.1856275841797078  0.0530328297134522
  0.8378678289645765  0.1887386888670597  0.6794479143083735
  0.5213683566621278  0.1539041293784404  0.0779256710852943
  0.4394962619968052  0.3505649399622591  0.1565691945671954
  0.7856041151104803  0.5005262184673406  0.7318593202513690
  0.9787014625552940  0.6784945347311681  0.5155188384032011
  0.7989122251823323  0.3204532748251270  0.8188401611341868
  0.8510052309446293  0.3272998785145431  0.7793508442790532
  0.8038633676013549  0.2917133480540275  0.7103918931379727
  0.3928033284538869  0.4591089512285621  0.2744454676195671
  0.6936957573025723  0.2632707292017993  0.6172984215867048
  0.7173311835090488  0.2051712504726649  0.6348117141667583
  0.6556013488816902  0.2125730067657606  0.6154911662997203
  0.6458924958781790  0.2279015521590799  0.5567142376643075
  0.6638333300306029  0.1666520368461315  0.5720291236789996
  0.4433739962750943  0.4285265398786031  0.3042515605367412
  0.5430627868647030  0.3360871924889990  0.2594630255053162
  0.9825718542062711  0.4519231113909015  0.9233536000566078
  0.9211426549744380  0.4615726767806542  0.8985730690840773
  0.9736751631264545  0.4645890669247957  0.8674298296923741
  0.4831872897597838  0.3028669791704213  0.2497519213245752
  0.7260116612131989  0.1921050548445121  0.6948079761730973
  0.2109992805930386  0.8316907830162537  0.3314818048143692
  0.4095241779809035  0.6604390546987009  0.3855356201554636
  0.6879022097101667  0.2773775769131856  0.4592961617166131
  0.5779337134601347  0.0244554436183993  0.5688112802792553
  0.7448406446446199  0.2640740194427907  0.4106586899002447
  0.7293364929313646  0.1594294528872946  0.5900651937798775
  0.3472018577692444  0.5831726148227118  0.3350054591318182
  0.5323313046813420  0.2414460933686906  0.1709682669220595
  0.7998467113395946  0.0333831363955708  0.9193300667135645
  0.9255948097523746  0.4289795001374792  0.7935982610096896
  0.7406867548557177  0.0439265444424829  0.8950348763957405
  0.7787648846952577  0.0922551529102465  0.9009720374402315
  0.9177690813047684  0.3081200943450491  0.8687244514330629
  0.3786403263052920  0.2724199685400537  0.1074109360268258
  0.8788663849668696  0.3921401367719782  0.7235153449654002
  0.9501847793050064  0.4741647805844523  0.5304053743623768
  0.2417076788595960  0.4698653945213414  0.0453820208874695
  0.8742361652098726 -0.0391696441936625  0.9740685148292825
  0.8612569653343047  0.0241175265617314  0.9382260785161297
  0.9917265038940816  0.1281679879483000  0.9660699082575952
  0.9243266903845262  0.1419350345426009  0.8897440201860750
  0.9834049719284975  0.1342395750679730  0.9105638826244680
  0.3566089595251679  0.2455129572468610  0.0012080406204208
  0.9413959444167121  0.1000883909971906  0.8462356325967938
  0.8911675269181162  0.0574934776469968  0.7778382630202001
  0.4141921173920933  0.1571581524244789  0.0358549324602455
  0.4071336117402691  0.1044086364332928 -0.0110936037279256
  0.4581241876522483  0.0776427376279371  0.0179364482565531
  0.0016680528339238  0.8213845765058538  0.0850509084610795
  0.7669211564666367  0.2136616842519403  0.5958573273561105
  0.4713155005997141  0.1683085984059579  0.1126984479933625
  0.5658074082688621  0.0782068917662706  0.0528836405291688
  0.0626115072496514  0.5099104032602306  0.8021395845145425
  0.0650647933948998  0.9576347931297069  0.3642903499557932
  0.8945073500764936  0.8160214215718297  0.2804150189902551
  0.9462775262076578  0.1815267678366310  0.1036235034301549
  0.4142682558280597  0.8028917740099790  0.0620675043871120
  0.1009172159268795  0.8582555975334809  0.9021933661846169
  0.4161085327631677  0.7866109011378494  0.1237716449478965
  0.9441944712559104  0.8313245794012394  0.1254281748559331
  0.8452544251408440  0.2279195255245187  0.1087433198630672
  0.3610805609508222  0.4768446703575701  0.9180198140520377
  0.9910913045756845  0.6491775726571398  0.0768394423850945
  0.9366619839393580  0.6643934627318000  0.1072079389998588
  0.0776237829538495  0.8519017147270650  0.9966141888287828
  0.1052143728424332  0.8299564819843285  0.7927119839876330
  0.3307296381335112  0.9884738600550546  0.2152591911953343
  0.8378564295263847  0.8147641574262257  0.1483138147675888
  0.8504392717152032  0.8816989814863436  0.0530964993712395
  0.9467727998848937  0.7968777066085703  0.0752870644100119
  0.3803440634928236  0.5523211072938010  0.7996134946437170
  0.3887412119247048  0.5391905812589988  0.8576685945691367
  0.2259560288611844  0.8453285844695398  0.9492662073469891
  0.4518719858927571  0.5315416983954515  0.8833803123735269
  0.8864070733784936  0.1062651112244471  0.0487550320349284
  0.8751423988912665  0.0655330077547120 -0.0014835457394663
  0.8086555110861331  0.9620667274699237  0.0776099184621979
  0.3053846142139251  0.5082019710093187  0.5086757321615342
  0.1916180724013093  0.9146465944759887  0.8705884381087272
  0.8931620343516088  0.7577065135632722  0.0687385848034799
  0.0818136909600948  0.1158618261554885  0.6645521805592398
  0.8431584614580099  0.9074093162186109  0.2345879621142682
  0.1576163543462040  0.7134911201215069  1.0030314765393540
  0.0912010236203583  0.7369595037368482  0.9677102388735579
  0.1630342460755761  0.3450334962170729  0.5287580671489698
  0.3833659238404185  0.5229532429618078  0.6950780656365133
  0.5198210205343736  0.7393951239111098  0.1153887873075103
  0.8164509390753553  0.9738047420092506  0.0027334380001405
  0.8369600864833999  0.1309061002803084  0.0267010805065120
  0.9847649842243920  0.0627351305462169  0.0332598834740377
  0.4714167818326401  0.7993583190766862  0.1959713804482678
  0.8885224915584867  0.9363584116729199  0.2585736875504386
  0.2447723603760418  0.9642855658561985  0.9868992158428889
  0.8552755905274736  0.9329489524602034  0.1016464650914881
  0.2797575174298947  0.3577241582553883  0.7395989186636475
  0.2371374482937628  0.9445155894821343  0.9362055166478404
  0.3227880508187769  0.8976427238417912  0.1247840696101087
  0.8363344278742075  0.7721733523529407  0.0964992005290487
  0.2772551329790445  0.8866914587384479  0.9577715821717474
  0.9954842443571974  0.1506489874301570  0.1296579052562051
  0.3675562365109845  0.5493994936183416  0.5753803537917351
  0.8888379420701156  0.1517669315412628  0.0926317417644052
  0.4262030246474099  0.5844340258792902  0.8783522418067542
  0.8205277603702531  0.4904139119027758  0.0760039613831812
  0.4180180744482996  0.5816054762483088  0.9473560485051464
 -0.0261691956129935  0.0240641474866262  0.9227723455455107
  0.8187174259363319  0.5055258435929253  0.0168954704884476
  0.8697670774861846  0.4589232740213430  0.1031464136755374
  0.1389865127017919  0.2992167847153526  0.8078337654974205
  0.7935792069451910  0.6541337642690926  0.0045068295490081
  0.9578138728799750  0.3045953060927615  0.0692441589038890
  0.4239059058384054  0.9652701271149225  0.5857036360030672
  0.0212639235205834  0.1287270329313608  0.6467068097390694
  0.9080637209053576  0.3194444128619058  0.1038344746393190
  0.9056286771880835  0.2732719581449844  0.0556175512696448
  0.6264075663152815  0.8175554946523218  0.0674364500024507
  0.6761025572182497  0.7959855921183233  0.0400509789740975
  0.9984219215041502  0.1670308029168640  0.0690182227813509
  0.0752377134731446  0.3410568195454576  0.8860807178367550
  0.6588080288195411  0.8072774511719595 -0.0218209381137390
  0.4343318654379372  0.9584030534724146  0.1442933745426393
  0.1909261439267950  0.4873202498756888  0.9076875200742228
  0.1531440254331990  0.4366189825200296  0.9046058134892192
  0.0956579051283171  0.4408411619022534  0.8823203489877128
  0.8224283538186146  0.5358039603239467  0.1168485854242497
  0.1255052117307499  0.0669749037899576  0.9153864655090796
  0.3530155334240955  0.5927753450077388  0.6161881288986627
  0.1274149133726298  0.3422693344674038  0.8536732559372612
  0.1951957156691752  0.3214074291443613  0.9357095521111625
  0.0758239400245166  0.4479727970062211  0.5940389395772212
  0.8754527619436114  0.5873328030516280  0.2883979895664558
  0.9788147720506859  0.0010114262050256  0.0507617977259895
  0.0604606331467427  0.3052624218655446  0.5010987101971005
  0.5385714246082085  0.7060840310266305  0.7976295839599962
  0.8370952926357902  0.8326469457351330  0.0885563086242506
  0.5018615945594044  0.6560060289786737  0.7921775680825583
  0.8812770383758082  0.8148242775286186  0.0544071643486616
  0.0753490270215207  0.7680901912629113  0.8447571286926914
  0.0676854902882517  0.7801378366229512  0.7835948355978229
  0.4401595376761058  0.6623521741566232  0.7723217462191775
  0.1220293951067416  0.2946907225403272  0.5220740194600311
  0.2340385254362411  0.3189806753788887  0.6725884784938199