 B Cr Ni 
 1.0000000000000000
    21.1200000000000010    0.0000000000000000    0.0000000000000000
     0.0000000000000000   21.1200000000000010    0.0000000000000000
     0.0000000000000000    0.0000000000000000   21.1200000000000010
 B   Cr  Ni 
 173 259 605
Direct
  0.0165185320690829  0.2192498075389946  0.9254045871860151
  0.4343100846026052  0.8573652524352043  0.5273511992492292
  0.2698565321387832  0.3622539539114295  0.9591323393241148
  0.8765492085866754  0.1788632155917211  0.6880996690684300
  0.8843778727607302  0.2334937870910531  0.8382964081428537
  0.1711686284258343  0.0570187939150360  0.8072286474719633
  0.1965442153532675  0.8012953536434443  0.5209410574660513
  0.2518479460211692  0.9836403531875243  0.3421254194377306
  0.8922059439540811  0.3065945962286923  0.2170468917706409
  0.5755443584127643  0.9803701998223059  0.3284208265077386
  0.0101564547777945  0.7399742549910097  0.5206648478558916
  0.7961562223647911  0.0063226008765297  0.6128636905963806
  0.8901544725008880  0.2303317814470303  0.0775205120414147
  0.0093806016481507  0.5326425649854147  0.1319148239552582
  0.6258867733030186  0.3329360879819109  0.8719077931134295
  0.1002906698348561  0.6097053588440013  0.6018439252954569
  0.3867673723555039  0.2900318403223597  0.5662655354332086
  0.4352014650786716  0.8085945496840513  0.1515034195424781
  0.4393731519843213  0.8438856887208224  0.3443357346931746
  0.2449943524784686  0.4917149853529518  0.8756582491623039
  0.9882631916236264  0.0864651226383195  0.8327003538154680
  0.9209738404944078  0.5087862447687651  0.2435053110393397
  0.8508553862151412  0.6313983208190644  0.0503113757524767
  0.4218041539948657  0.9385740478627610  0.2311570125517495
  0.9254123092304706  0.5218766726638219  0.8676978719738907
  0.0194479059551248  0.3768758749412463  0.4475583435548565
  0.4491792886778458  0.3993686284034797  0.6966543610767612
  0.9112946200073204  0.5267062493158959  0.3912245018582386
  0.6824314179431694  0.4981787575564801  0.5810788619503208
  0.5936571204944908  0.7703282473324538  0.0828443714106745
  0.1674213077611475  0.5378063726284261  0.4227097263607644
  0.0729569911252802  0.0827185868840504  0.2010640985010789
  0.5212880277936421  0.5708555302741189  0.8484097877895130
  0.2024654080593994  0.1044226633988630  0.5832003264388966
  0.5331895511561520  0.7539058589686883  0.9170430891818234
  0.2068989598978592  0.9255224549202432  0.3967111614594599
  0.1375765590526081  0.5894029831726351  0.3634832650271531
  0.2559487829127477  0.1859767662070297  0.4938442074526165
  0.5868285690100351  0.1744813977331499  0.7678233095910475
  0.9186316649024058  0.7237881429739793  0.8831305577593489
  0.8066601360929081  0.7991841037169085  0.7429088708448747
  0.1877377095202174  0.2284631132227075  0.8768543860058428
  0.9458618508899305  0.9933023465066206  0.3894129131872181
  0.0131438990726013  0.9875444243079936  0.2935610655595807
  0.8145442589472934  0.3250969713661076  0.9018694135716188
  0.7568551717251614  0.8767659894467219  0.6237303858072641
  0.3179390917535604  0.9310415901365688  0.5529713818402183
  0.9416343885102005  0.3112497707038665  0.9826465108480225
  0.7016163273577637  0.3834839329791538  0.7454325858775491
  0.1240141269471695  0.1032646635593066  0.9554092646574776
  0.6722083492932559  0.7284468487786718  0.8449083622270755
  0.0179550176158976  0.1023776777838901  0.7566650653473664
  0.5568052645092820  0.9671343486752563  0.7671929092185841
  0.2744905233220668  0.2719750081186562  0.5942254085647779
  0.4593663062210468  0.3319492863957191  0.9418680031607248
  0.6847837870689556  0.3672343018158782  0.3212716163913180
  0.4575652127246903  0.2533174226453737  0.6822814552521329
  0.2499027101355707  0.6882405834543027  0.4705878559241334
  0.1980685588741559  0.1901941281748353  0.7476086438663114
  0.8906477660828703  0.6699675474685476  0.4973942841126823
  0.4540788234749544  0.6716304255890186  0.2553289616526441
  0.4007432959355145  0.7898489838608870  0.3950737066669722
  0.6138976008458989  0.6736277172143584  0.2050364334497679
  0.3476942143705408  0.0781684295248986  0.1682025223148362
  0.7192843346826832  0.9908938024237829  0.0101722018316126
  0.9931506732857907  0.9711177708770888  0.5539322524990012
  0.0937408340042687  0.5687998554796391  0.8910017046317541
  0.0940150384311734  0.0490813486860487  0.5692360322702783
  0.4579101892712941  0.0753132240445410  0.4095145474092665
  0.1332220408015652  0.2030599584008812  0.0797434806567553
  0.6959108793095454  0.8686162604176749  0.0673373898422157
  0.7576720622859323  0.3797584857246133  0.5488541691885780
  0.4468101289888645  0.4803353645785607  0.6971803438180523
  0.9776939731102238  0.7863119574786746  0.7723156163055552
  0.6790535233441158  0.9955297605482830  0.6177482586366951
  0.7576232002450994  0.9093438024092516  0.4742929448570751
  0.9710411029494267  0.9741571842019739  0.1447283502258213
  0.6769584288709644  0.6642383983570332  0.0611847996556639
  0.4975977405058037  0.0785633791374900  0.1789929195540936
  0.2238475355309464  0.1944258722471682  0.3473662137956214
  0.3311691929727967  0.2158611655127795  0.0759828404444842
  0.5307467083188389  0.4491204931923500  0.1928654278759566
  0.2653572505890565  0.2492866178842284  0.1188967694548273
  0.6465945625474466  0.1395996601480013  0.5354023078201160
  0.6341023879075073  0.7218803243478036  0.0298289296317455
  0.5916106089027472  0.8804437449478946  0.5483238004766738
  0.0691388305201880  0.4097932095748561  0.5811042196335133
  0.8624127681763493  0.4697399381042060  0.9048489713042557
  0.4072415922812517  0.9754345035019132  0.6548612996613394
  0.1572428691132441  0.8655648683650570  0.5579403459203042
  0.6602135687086165  0.8310249736908389  0.4078922629512658
  0.7090342103312687  0.5246887465180918  0.9986870711292081
  0.8213241169968735  0.5437460087500221  0.6045348800412566
  0.5345320867326112  0.8979988902145850  0.9018453217287646
  0.7522620587569139  0.5857176801111594  0.4364866577355472
  0.5732449987691254  0.4955469796564467  0.9252882426730682
  0.7280883451055956  0.1103989031918288  0.9448355631513776
  0.4399861374279712  0.1675363492519222  0.5146014799996710
  0.7805409053137325  0.2509141929371352  0.3082629883020507
  0.8422844088243457  0.9051178593933412  0.8230431806660662
  0.7762320857329811  0.9714859667337079  0.9476358339280834
  0.5584709102981155  0.3442292980921001  0.3462654782031417
  0.7412557195538231  0.1061035381670826  0.2544280217373092
  0.8413318417519291  0.7034838794085991  0.6330845582344472
  0.5005928591750985  0.2658063395089679  0.8998716011332246
  0.8094182772777455  0.4489570384096772  0.6648987240385809
  0.5951749106114906  0.6316584518862182  0.7014479932594880
  0.4823920386255886  0.0751226080645129  0.8460724743737782
  0.2524501501085464  0.4949552913526962  0.9613612355612116
  0.7916956345621643  0.7610444788092190  0.9466737504718583
  0.1885461139153757  0.8297469287009728  0.9056493305163433
  0.9927227425425795  0.2531054059075311  0.5402461615428433
  0.5033270306881510  0.6638866335701151  0.0361193986819244
  0.9011821862185423  0.9353684833617048  0.4290891035042803
  0.0916575342884885  0.8303043646270840  0.3029200494371506
  0.2858409891740331  0.1612053700538255  0.6750972968096163
  0.0868185132660648  0.8556822338162420  0.9861826038004718
  0.5386839810399773  0.8238163297997856  0.0526812227296182
  0.8880937469047459  0.9081363154602131  0.1964301881795142
  0.4035326274094733  0.7604429929107749  0.0930628074052018
  0.1024812254477995  0.3193123592349462  0.7984530258744581
  0.5669102203890478  0.2156662588724712  0.9150715823926262
  0.0749241704634576  0.4549787481436194  0.7817171796329737
  0.0614755714986339  0.1664096839911583  0.3139162543006483
  0.1188263365843672  0.9960611599342323  0.0743740433976198
  0.7432569814029111  0.2343290855975845  0.7569272948570764
  0.0528981009812510  0.5850171231111557  0.0848131111193288
  0.9291952414675732  0.5365534975937690  0.1635706148408578
  0.7877768737254376  0.5558073025146734  0.7511500851130957
  0.7254593210685923  0.9078259610479883  0.2352411992721633
  0.4893592614710205  0.2676033501471687  0.9859675516267872
  0.4609365794827675  0.2583816475101319  0.3955459372171124
  0.3269925875688485  0.8676144393919364  0.8434313353258565
  0.3970392596139838  0.5415507304710846  0.9429370422918212
  0.5267254144389970  0.5860611211162129  0.9982718159056342
  0.8552609588997550  0.4125170803145129  0.3429177958437236
  0.1261968822776859  0.1621835977651324  0.4383971742886383
  0.1259873514913410  0.4213980866511132  0.0165690345748460
  0.2648172881409089  0.9285058271533719  0.0502681900844918
  0.4787998432408830  0.9454864839389013  0.4415970134634787
  0.3203454288477532  0.2786305465118080  0.7286279678682034
  0.0988128206555556  0.7124219812627287  0.8423432988124750
  0.7062851560049136  0.6266996626309039  0.6506749845138342
  0.3971224327321796  0.5255675528317035  0.7437793734934344
  0.7275436177512886  0.2341443477695409  0.6148969542613307
  0.4275585014760918  0.6153677119400665  0.3537138778613149
  0.6045579282667245  0.0417014987407901  0.8972817775666588
  0.5978687932775659  0.1731104123133472  0.2441663306421519
  0.1157335985987637  0.3898808831567099  0.3372340063672422
  0.6107230092160107  0.4251216725520194  0.1782486273125600
  0.6786838830361646  0.8816371370302098  0.8609554244903832
  0.2192454448515915  0.5356181129275202  0.7248985527389390
  0.2571583997138557  0.6868947598444746  0.6556505581774780
  0.3506839487143932  0.0898186141269255  0.9755300171117773
  0.3322458000689772  0.3247403409213582  0.4339719987295145
  0.7659343433770358  0.9925529010961979  0.3457738326278799
  0.5982018669317921  0.3653892782251811  0.4982775536926544
  0.7642882307807135  0.9416474219751114  0.7685732046024562
  0.6656659718848265  0.4827053926041023  0.0602180212073528
  0.1763880977355596  0.3920590022927777  0.6864653188888540
  0.0975507472539399  0.9105375842925459  0.6963417214704068
  0.6638893446330262  0.7128501686907359  0.5408091993403579
  0.3141007140999307  0.1495072355880177  0.4488366338602667
  0.2337284099525094  0.1090609900582028  0.0958839489240513
  0.1421504578129866  0.8711595188694919  0.8508875555493672
  0.5752330313811718  0.7105865396376173  0.7271445536351782
  0.6362018571033708  0.0212828851340966  0.1975978946818802
  0.6502506180101878  0.4962315552555294  0.3912156501796498
  0.3071674794083760  0.5871026123895355  0.5582583666098586
  0.9397281623831542  0.2885457979724471  0.3444833516895964
  0.9473201537364810  0.7548858305838386  0.2466558259188480
  0.8436056673934152  0.8549195625132694  0.0629949796116002
  0.6734608754840392  0.1374552062445941  0.3783332717861462
  0.9406022804134140  0.1657875078661218  0.8827104330227719
  0.7687345219352703  0.5919819335139277  0.8913115497336579
  0.7721923102293383  0.1216122307006127  0.0875562012537291
  0.6571337936017116  0.8920607023559715  0.6235946595507710
  0.5068218167245535  0.1839847692381769  0.1883132270721506
  0.7464374789822487  0.6818601199600968  0.5796139423335600
  0.4082431780333060  0.1652715466540036  0.0222031709797311
  0.5859443579067034  0.1190556194386243  0.0389502619532028
  0.7779959389156497  0.7507225652808391  0.3112237247393517
  0.8123776957332528  0.5346112667898012  0.4982113817331858
  0.5782019019619818  0.8640676845422217  0.4510663432539371
  0.6357407415955184  0.7902021327526203  0.6867073239533191
  0.5382400756564346  0.0667198741937867  0.7494870224715363
  0.9947322815079745  0.8220460714593223  0.3139026826609269
  0.0692661733965119  0.9271507392354328  0.1320639969121303
  0.0710398199653000  0.8599446633365465  0.2131828367872227
  0.0482599313019684  0.8935777600324173  0.8933617390893418
  0.0753891783329426  0.8350381242835508  0.0790219822593925
  0.0605390721699147  0.8364362386667934  0.4119926402044474
  0.0906482825659319  0.7924644866782216  0.9091391174547848
  0.0838384225935239  0.7459487265421965  0.0086999711675827
  0.9373451492674301  0.5221211298730219  0.7679236163243762
  0.0224765151145788  0.5008521030168811  0.8505988458798522
  0.0025368307226549  0.5745038727329405  0.9266841721294322
  0.0871372792411992  0.4816052224420775  0.9407261379284065
  0.8419795374596185  0.1007502153148590  0.7421039959863189
  0.1495392870329582  0.0650639919888343  0.1420284087267207
  0.1463138781951177  0.4985650295642163  0.8384429636350169
  0.6013929345632633  0.3902027225879848  0.7957708941147409
  0.1781083295097764  0.7303098045331720  0.9131803836273586
  0.2308536718445355  0.5072094846172300  0.2651836005330747
  0.1036871648857424  0.5751109914644008  0.9946536206149889
  0.0099392542501242  0.7409435806482805  0.0808880217126646
  0.4131539453519736  0.1376291253829766  0.2173166548439515
  0.1929571296743352  0.9091227867371524  0.7610678010893072
  0.6955617693814391  0.7658243088023602  0.0956809005455120
  0.3135537881517704  0.0238862823353979  0.8999883174891673
  0.5124496680239825  0.3414823940093208  0.4485473800220510
  0.3695364932668104  0.1328470706888581  0.5966239409753595
  0.9600562468918851  0.0456567075604817  0.9289187983956563
  0.1865124363626467  0.4252646220024651  0.9174530896572474
  0.0524317919426176  0.1755491666685987  0.0135527248864699
  0.2500768155315245  0.4592981495145222  0.6619596874503885
  0.1571243477150840  0.2480712663007006  0.6006883571831427
  0.0843435523761730  0.6098756640022072  0.5019289614295297
  0.2659152262998348  0.3628035534670866  0.7283080491043000
  0.9485349384770665  0.0936088928164611  0.4166500677182112
  0.0396349888713623  0.3283613725965531  0.1797952764436459
  0.0363871664831594  0.3237626024490332  0.3521515577861922
  0.9414901857872748  0.0180596098510372  0.4800539396312894
  0.2386328885953030  0.1936492154225121  0.0451609091913340
  0.9230697467668969  0.2120637924884052  0.2638410532891898
  0.2518276866474555  0.5877899703983955  0.6427726671538342
  0.4227433544453529  0.0125677784989013  0.9078002705539148
  0.4048083512325484  0.1725628604162292  0.4225447992555030
  0.7398622316351808  0.5269223286340591  0.6669016922588237
  0.9231162660404145  0.3276503400779055  0.5954751773391124
  0.7202850727212708  0.3535146972359349  0.9052614306852499
  0.3792629113692422  0.5431576194326221  0.2958230699535438
  0.6904273332658887  0.5196811273833960  0.4810707627276981
  0.8702609644304321  0.4219815622645727  0.7465627001851602
  0.3276489249479244  0.5979867937941784  0.1054577634697604
  0.3514687398693868  0.5232628093599889  0.6209085778594912
  0.5177269278529005  0.3605243983190982  0.8519363660284999
  0.8211947556205709  0.8013814447137884  0.6454442038990508
  0.8543506610114621  0.4678413273109792  0.1760508977835064
  0.6849274916764856  0.8148057556944048  0.3026206444425541
  0.5151914561807817  0.9205373735614004  0.2608826173965977
  0.7217430608157215  0.8371716877304011  0.7059442076899433
  0.5053278477055159  0.4911419458956854  0.0403987218608912
  0.9222044164786268  0.3376960509703222  0.7220073944184784
  0.9121801739742296  0.4348147796982121  0.6488536276024325
  0.5820541209009378  0.8966687264389677  0.9930245799240691
  0.5000381527906208  0.1643959902666940  0.3717780656668301
  0.4247739328898559  0.4413060540014376  0.6083641069028823
  0.9276212926714508  0.4301913697926981  0.8385838189772641
  0.3289846978094713  0.3409502052946211  0.6454352961097888
  0.8549760231219454  0.5757666909042176  0.2201045180577134
  0.1373503198883178  0.4913463221601298  0.3348124197997273
  0.8917097867696978  0.3763846095742380  0.9268896541496352
  0.0005175563421210  0.3576719758279384  0.6527568301439916
  0.1713822562405381  0.0636068417283486  0.2410792258879068
  0.9256980624224250  0.7363402199477578  0.1460516065650160
  0.6591580352835917  0.3898966872929029  0.0935994577155636
  0.8496552453754439  0.9162842600956845  0.6099278301505214
  0.7303317729673986  0.0068563208612003  0.2517814676424069
  0.1776568625898562  0.9208107895293067  0.6422398173515936
  0.8009352544176207  0.3938495929347420  0.9753720159262634
  0.7834184882093277  0.2266782132813927  0.0753085582045731
  0.9210259678991652  0.7658049761028759  0.6800561591977916
  0.8486922680439759  0.7442980729139520  0.2305650745360154
  0.1787406353215136  0.7827755735415700  0.6174450674981087
  0.8355032506312159  0.9681873062788107  0.5004751392185117
  0.1731175420775461  0.9628342620603610  0.1592075320618117
  0.1607672651473502  0.4468437995723063  0.6009182500703137
  0.8624254677954352  0.9769202493076172  0.8990994296248663
  0.1400540042485319  0.9985814604518094  0.7311082282854037
  0.2651532930258610  0.8580399827508097  0.9752230857861086
  0.1105922269600014  0.3321895905154569  0.4277861343753149
  0.2480568634897964  0.0867503600755308  0.7479984170718575
  0.2559200474043917  0.0022130409724817  0.8060414917405828
  0.1206298609135400  0.1170898295110085  0.7465431541431077
  0.1481094331802022  0.9123897443927269  0.9397345240498133
  0.9209202629401019  0.8695210922522616  0.6787866502970428
  0.9793130971926640  0.4927873332904347  0.3246749290111924
  0.9983245258734492  0.3826834735776777  0.9181801249506020
  0.1853066550536133  0.5575836822833474  0.9225406481356780
  0.9314053129925174  0.9163510441115931  0.3331967105719195
  0.9360342680497962  0.8385259689311257  0.4010077324461155
  0.2228282193903947  0.0123937343894178  0.0721888878916903
  0.6239445986586049  0.1343621626027118  0.9397257928700403
  0.5388080540185776  0.4413634062148046  0.7329984563032879
  0.9824069570375680  0.8196844654012271  0.1689001908521382
  0.8309529803502274  0.9380522438397918  0.2784770256828512
  0.9932209166471829  0.5787393432831791  0.2257436249371396
  0.7018028750164769  0.1904181638102655  0.2919488306539243
  0.7353361608986435  0.0721038144186463  0.6708319077010592
  0.1573921872396607  0.8966129283543753  0.2532668362910893
  0.5412622435987644  0.0664235610578280  0.6477373740823693
  0.9074597343330608  0.6276603983248750  0.6615754517634949
  0.6287004082887448  0.9984185952318292  0.6994084619574773
  0.3890904061328636  0.0851812436345881  0.4933060231357648
  0.7547896405544677  0.2745591681043664  0.9655216731276741
  0.0428136533509568  0.7588361421482664  0.2500206907250048
  0.6451541820298843  0.0872175381707649  0.2793061465938781
  0.5133669609346675  0.3297104535966398  0.7388706785444827
  0.2953754938856838  0.1190703036984325  0.8881224660313080
  0.2555575482570976  0.0811982445855525  0.9975340451982951
  0.7658399173052183  0.4780594122576028  0.0727709986311654
  0.2689939861216941  0.6696389776276589  0.3727283300496963
  0.9399643639724808  0.2075999673496091  0.9885853741429562
  0.4660010551677036  0.8307800897555104  0.7011246293548411
  0.9533629259503708  0.4762444257796818  0.9496959390984877
  0.2997866424140791  0.1669634286318900  0.1595613553072024
  0.2921737259803409  0.3018433975931223  0.0391128598825559
  0.8228816997368696  0.7529735745619515  0.0549834131044929
  0.9269688673710994  0.5868165199705412  0.3112083725805373
  0.6125059567125781  0.7908100948048993  0.5803191377204310
  0.5253728843730829  0.8184088689075647  0.2989664510610070
  0.3225114096128060  0.4280882966472941  0.5800699942864003
  0.4283810321975173  0.4606057187035937  0.4600357817728031
  0.5696809979122860  0.7192973682943605  0.8361971050595959
  0.3357648878055832  0.8153425852195745  0.1527881613321287
  0.9490682986556558  0.3872394083821735  0.3690584885036216
  0.4229333861170139  0.7539263413041506  0.3073750418665962
  0.5232251722281025  0.8014226516576033  0.5108552711269877
  0.5791421288360873  0.4919523495791239  0.1117333237476018
  0.6025593189904881  0.5021695801409246  0.2410251903422561
  0.5136954454130708  0.6987639906982622  0.3295882342431055
  0.4388588113984104  0.5724045967461309  0.6562333323994236
  0.4199813416067045  0.5544182949968169  0.8388785795682496
  0.8931857329809589  0.0173759542840937  0.5784116978222481
  0.1875834521301607  0.7535311105139502  0.4257476673791377
  0.9937105564597448  0.2842850724112987  0.4392787995074356
  0.1608957011750040  0.4299323920957314  0.4256235612729783
  0.1690675685626561  0.4234513309577744  0.2587171419016008
  0.1833737279892143  0.4224396960226628  0.1043647342956477
  0.2686110268802485  0.3526384093203021  0.1277784511586721
  0.0625452978010720  0.0244671083953649  0.7967439607164802
  0.1215767860818893  0.2163203080521381  0.6863176345519932
  0.3549463521575403  0.0752415956630163  0.8120315045409653
  0.3193539460782075  0.1659801460614204  0.3457547595391826
  0.3560948676464794  0.2318003473259786  0.6426049565129572
  0.3443639901086491  0.2845926885721968  0.1583939292523298
  0.2511784092229469  0.4871981113252939  0.4478647869505790
  0.9897272801800479  0.6790793270014044  0.3147710714721855
  0.0630682062655342  0.9017394088167914  0.5172453773554588
  0.6433189732737830  0.0964922549279966  0.7435338575569218
  0.9788069851031735  0.5286585508685090  0.6633890231197526
  0.8047713194492725  0.8739340061638956  0.9209732103473550
  0.2745991739458289  0.7872457557073747  0.8934893899811519
  0.6409559002387538  0.3287371435670083  0.1741990311604617
  0.2386788508519587  0.6377589746605878  0.7368114946217856
  0.6384636201208336  0.0926461123970066  0.6281856482932495
  0.0033861235098849  0.9222312653122312  0.4305509731517631
  0.5286206653993278  0.0267011700998209  0.0776809885984723
  0.3220811833885892  0.0990820434073667  0.2585401419638296
  0.2524507542628553  0.8258778743503300  0.0764429194993689
  0.4892537907774059  0.5479496167620480  0.7573121742788737
  0.4018432552948566  0.7245899274001674  0.1886203041039954
  0.3371581874945551  0.5038850050233327  0.8246521134734440
  0.0882309489602289  0.5875712042554344  0.1759780415650161
  0.4631878630529670  0.6704650238183264  0.6102679561675597
  0.3319350676867100  0.5294037305014397  0.0172401850587563
  0.8136135830121369  0.1711491402336823  0.5211996620186239
  0.6066710385131273  0.5774286612348770  0.4475489593166466
  0.4127365151051334  0.4686237214661723  0.0136859467818893
  0.2949405179191886  0.1831906350631518  0.7730181321911582
  0.4152353737837981  0.1165178583447620  0.9119743385323568
  0.3194479974045406  0.1895103408411490  0.9756603896865995
  0.6031592214230984  0.8232870515419259  0.9072651844402091
  0.3375323421410786  0.2183924310699566  0.2506701030910706
  0.2825010685575574  0.0914054718386469  0.5208848468696403
  0.7704939267144635  0.4887187569059582  0.2259419839014413
  0.3477640473748457  0.2035593632206638  0.5262234877613068
  0.7399808032970540  0.7197574132631970  0.6840210688328069
  0.6355153579706642  0.6915883439118782  0.6376345110704104
  0.5795669724481209  0.9680874695998651  0.6102957294232670
  0.7804300090699360  0.7485308724651550  0.1520568240637815
  0.8770320401009071  0.1089581810972323  0.9441651058821722
  0.5210625718312181  0.4712514260528778  0.8440773918912687
  0.3489246579847917  0.7992218599116163  0.0114103173520995
  0.7713927561118684  0.1821733935027249  0.3847344160503348
  0.7384510623971096  0.5800159172196563  0.5598183173327663
  0.6073315433246740  0.5132665400360814  0.8203870210298728
  0.3453165450540740  0.6374854019912040  0.6505659901727280
  0.8095616784960206  0.0812734236086324  0.1793026947096529
  0.7659195487510625  0.5688065451532484  0.1536253743940078
  0.4487553700998924  0.5166950845022251  0.3656625964059922
  0.8840997118774889  0.7861035917898848  0.9554509005404823
  0.5024972328041752  0.9660845947340115  0.9724219125669094
  0.8544656062922746  0.0189297777808821  0.3883163220661140
  0.3653218881751376  0.7292911287743328  0.8258198636642605
  0.5707105435328759  0.2661349877932959  0.8290243457244508
  0.8302786404183572  0.0935454482810613  0.4452587223727959
  0.7235072136015985  0.1281047664509803  0.4654239860062702
  0.9380231540975194  0.1045798718026471  0.6585345951164046
  0.7978740267933259  0.9568059672751422  0.1791756696059736
  0.6411719661720482  0.0644969305599932  0.4478238454760505
  0.5610880481644869  0.3223559501496758  0.9480974413892859
  0.7052301291161496  0.7448015261668118  0.2263606477362970
  0.6023652155786445  0.1637180801837820  0.4520959406607037
  0.5162814188770287  0.1215804627612336  0.2737693016286183
  0.3688355950655084  0.3736665480050690  0.0796829670017463
  0.8581431021474505  0.4779824264097334  0.0073482306216663
  0.4983217680637624  0.7413694859749342  0.1108326333449869
  0.7965865678495777  0.6196793805550266  0.6735667819376465
  0.4249513167936731  0.6596346927900115  0.1051907424582719
  0.3396906448636788  0.8385591568224843  0.3360540598080834
  0.9397411779809710  0.0842666769083478  0.1301725805438590
  0.0917834955690987  0.9817144357141641  0.2258431573463570
  0.2324636102874584  0.6887007510430920  0.2572774043626831
  0.9510488853544656  0.9851394739767851  0.6489733764851654
  0.4339924966601252  0.0369356974479938  0.2463959529805752
  0.8366272745759844  0.7768824670441938  0.8601885412537056
  0.1596280036480037  0.5818028793091266  0.0922683297096673
  0.9703305829065781  0.4698830393536447  0.4453097443621289
  0.0259942603705713  0.1218626230577696  0.9267164909560862
  0.3315005747059888  0.1098955364265637  0.0721872813306431
  0.1684185501113921  0.9096528811535982  0.0529054213242315
  0.9297260144488935  0.1512737739255766  0.7674173294765078
  0.1565448787411594  0.7709121957414029  0.2508113847881214
  0.6266056244554897  0.7105402995345559  0.9267093268673076
  0.3082739403679979  0.5617067338427791  0.9139948714823657
  0.4239792697961439  0.8382473274782701  0.2440683741395839
  0.2344868113978863  0.6606717082181588  0.0934299893396380
  0.3319790733851369  0.8912577232113228  0.2433350803456112
  0.8814124047252537  0.0021018254291113  0.9920594601099130
  0.6792169183099559  0.8515847075469106  0.5116155281720600
  0.7162067866075273  0.7848915836098977  0.5980952386677921
  0.5617984759273544  0.3686071902994049  0.2480935135528440
  0.4642976188387973  0.3761094338057214  0.2217347690915186
  0.5113027911529133  0.3151301324137699  0.5447380336837291
  0.6457537824922761  0.8112906823133123  0.0017944018826601
  0.4516252265078379  0.4377445758455384  0.1211360385006743
  0.6965036853016046  0.7394545596137504  0.3799831488926261
  0.7637891961452227  0.8278061799469846  0.0096398612044675
  0.7018141831662139  0.9031383237195616  0.9618434728559209
  0.5882997489621049  0.5175438317294907  0.5415306800364698
  0.6070519780212711  0.5292410253275589  0.0041082046154178
  0.5067260886706711  0.5385332430611178  0.1867393026178820
  0.4870473551537325  0.5879044581736657  0.2850796062492313
  0.6898923489668616  0.5746264978005458  0.2330386426397199
  0.6078258254171737  0.5845076705057476  0.1649521132392054
  0.6226854106225311  0.3605064592324155  0.6937746889988458
  0.6307424902247623  0.0374579628957809  0.1053382733097825
  0.5738168006081219  0.5286675520968658  0.3485828763021436
  0.5052038068084058  0.4715421063645392  0.2795497497014566
  0.4889241603206537  0.5387656047637542  0.9314703829116961
  0.0591487697494089  0.6131294079407469  0.8186448365381914
  0.5020353740812108  0.6554970213977588  0.7142407199706704
  0.5190462848620064  0.4979888155764363  0.6330930453793996
  0.6136297823781977  0.6658118080594008  0.3749253942003327
  0.6537699092253976  0.9480246164398057  0.0560901870762052
  0.5462189985233847  0.6062676537577761  0.6211811281619012
  0.4369604771435044  0.0570411683452719  0.6781524319972145
  0.5184829441920291  0.5133021847031504  0.4520031489808971
  0.5821362467346628  0.5401397262389958  0.7109569160137660
  0.5863654821441054  0.8917267238217492  0.8204920014009873
  0.6814194485853285  0.4917612642968679  0.1558617183307489
  0.5094691216821606  0.6606163248162850  0.9387136545295467
  0.5251691192136513  0.3872602343673475  0.6378497423411478
  0.9881426638497455  0.7367689007200732  0.9648277992645371
  0.9968888723866701  0.8410410670411343  0.9811344220472838
  0.0219229062538601  0.6808390169093762  0.1777640397540156
  0.0876156052507825  0.6648946139373224  0.2652932519282171
  0.9831552996896640  0.5835931111562729  0.4040116604477075
  0.9953636630992391  0.7424127592397683  0.4045845527839196
  0.0687304266807341  0.6485281208133015  0.3905698609774677
  0.0928244991653076  0.7508273015617850  0.3510462308182667
  0.9873290019121393  0.6593009130476586  0.4870029071331022
  0.0729809366829189  0.6948249245972858  0.5759056739646705
  0.6703677225616204  0.2307817072619082  0.4086111557225078
  0.2441770530592268  0.9857712585762382  0.6922041919628277
  0.9626226879011932  0.1021636261904546  0.0215973359785381
  0.0801626153649329  0.2292504701566095  0.3823682897347204
  0.4805427352440589  0.3608218943105789  0.0317823553019794
  0.5863105145458056  0.4174024177456940  0.0179736643643140
  0.4462931733309253  0.3202893615785756  0.1283259478158407
  0.5437003347681305  0.3862824993126596  0.1275851125032917
  0.4725105281434894  0.3208956698988846  0.3225382875802013
  0.6259996998168776  0.3390765506745199  0.4101317320283304
  0.6092125226326349  0.4230955550670010  0.3316805220371733
  0.5468106138308371  0.7424163908050044  0.0063615673864077
  0.5171325455434945  0.6506027807290377  0.1890787378499556
  0.5031339042565872  0.7514824976880637  0.2230913290124088
  0.6878506168799282  0.0814355536597722  0.0243806218830508
  0.5065740189983329  0.1705362892453654  0.9763785044633864
  0.5099272132238707  0.4239628491620477  0.3790706242696159
  0.5922444639276685  0.6152555251971298  0.2763584014994234
  0.4455874052426210  0.9080808162468733  0.8798786707952859
  0.6842080460079556  0.3109688571758915  0.8006383946940809
  0.4949149503577922  0.1777195697770736  0.8625134354509086
  0.0362695289419183  0.4094817867549115  0.2778799751283336