Cr H  Ni
 1.0000000000000000
    38.5747309319308442    0.0000000000000000    0.0000000000000000
     0.0000000000000000   38.5747309319308442    0.0000000000000000
     0.0000000000000000    0.0000000000000000   38.5747309319308442
 Cr  H   Ni 
 1596  50 3725
Direct
  0.9803241142537770  0.7723352550502843  0.9418322034409775
  0.6439552458244279  0.3227574010525573  0.1277021822725423
  0.5902537423689814  0.3320252931316977  0.8540329373035604
  0.5797316170537451  0.3442383945520684  0.7918749030446137
  0.6857566452061963  0.3007652202190889  1.0030886629174207
  0.6752597188522064  0.4185661570130405  0.9231524483128634
  0.3614544018753462  0.0831003141496684  0.5349558972004476
  0.4168666159916328  0.1219383084363817  0.6037204814072975
  0.3677686679174703  0.1188183386974970  0.6427332156723310
  0.4429882654457444  0.2182121108833942  0.6539903776990713
  0.5383908060281830  0.1754632865116842  0.8601813627961302
  0.5114128129536138  0.5683369058042348  0.3400430660774774
  0.4649360722222686  0.6603045977226129  0.2969068823987268
  0.5278315592851764  0.1868210886169010  0.7996634685524988
  0.4507018895227760  0.2813273021105910  0.5371584878201986
  0.8599032461262242  0.8940736701098461  0.5911487950088300
  0.7994699863134045  0.8907743570927219  0.6301155289126488
  0.6075533098523056  0.6453796261621229  0.6172555453192392
  0.7760942306196356  0.6329903032387338  0.6186249669878886
  0.6678065626805333  0.5695094662631544  0.5044136302625957
  0.6547017227896913  0.6816782726893147  0.6797425648300338
  0.5645798276508791  0.2371110198766836  0.8037304338153278
  0.5506299534358752  0.0483787236756471  0.9485085571643125
  0.5989309768705123  0.0069017241691131  0.9210279632482414
  0.4938120166353693  0.0093791314759181  0.9417343257781976
  0.9150071441156703  0.8534181541481276  0.5627044753546436
  0.8564522548558173  0.9483424700220090  0.5275633359387298
  0.7793314382566545  0.0457241114847267  0.6310729122555202
  0.3638316039190697  0.6754020248975870  0.4267352485750107
  0.5652071355487959  0.5843262716343578  0.4117471451312085
  0.3678862281034929  0.7533335905969620  0.3505974131729815
  0.5152820548613202  0.1993628174175615  0.7387134693919833
  0.3681482099842384  0.7695441010007151  0.2911571924266708
  0.3176602827960542  0.8019077432479316  0.2658908021465605
  0.5691940400923906  0.3248597751122348  0.6228154465150717
  0.5097246752733258  0.3325577731963810  0.6010060462026460
  0.2764598806493229  0.9061066029691230  0.3960277694659486
  0.6083360622965595  0.3746902653718648  0.6272038670720227
  0.5694724784073251  0.3562229599923416  0.7308052223286797
  0.2213058000577752  0.9107603799766719  0.2606996931640483
  0.2757943257545904  0.9240157341835283  0.3335610847649685
  0.6872046382171184  0.3743984073221581  0.8808609526751187
  0.7159934394402797  0.4382131893949758  0.8233929908910127
  0.7717450605536950  0.0338911111765555  0.0933134683814050
  0.7516008576902825  0.5201608117485190  0.9294229965702498
  0.6510571760054501  0.3845848457538477  0.3354778178664743
  0.6033851275368824  0.6752452931642018  0.7206000705287476
  0.2055291552645458  0.7103312523324145  0.1404411122007483
  0.7434768220883893  0.8292917407196627  0.5190519268245826
  0.7013899322370687  0.9636572902440136  0.5805209843387511
  0.3657595423182416  0.0633890288070284  0.9400038454603232
  0.7832071696685667  0.1395726717910273  0.1191615404637412
  0.8323818935103713  0.1103317920773882  0.1453520548924061
  0.2633071588751154  0.0245480080302732  0.9115813331396856
  0.2522146343238490  0.0350472976411491  0.8483310141581119
  0.7796502392001280  0.1069000984955110  0.0080277784540496
  0.2316791182590255  0.0180275941745797  0.2901333596974028
  0.4619303275239334  0.0758876209002892  0.8524380077914685
  0.5693349936662376  0.1278872913301084  0.3471672396072125
  0.2219404965166266  0.9266969953461368  0.2008473786367307
  0.3255923141348083  0.8993115568033837  0.1282661211073054
  0.2725476003573573  0.8956729728541436  0.2258020053422022
  0.2681977409519598  0.8509925103416079  0.1819995693497784
  0.1950125665404562  0.1259237136577895  0.6422084703011316
  0.3508189717303904  0.0455762074288596  0.7666529899931780
  0.3693919329814682  0.8023825827805658  0.1681024167373206
  0.5302522628939856  0.3658122047776909  0.0038829192605743
  0.4137573992436245  0.1393853431457679  0.1066661017398638
  0.4416596672953784  0.1646860696428659  0.9457794653331892
  0.5296473012202916  0.2312897653275355  0.2347826534050546
  0.7367648325980196  0.2310357645016526  0.0751888060150458
  0.6601143624509335  0.0563670488555936  0.4622508809405017
  0.7628563318211175  0.7090943935362348  0.7658747920658605
  0.4567454132938593  0.9761731070834166  0.8357954221175654
  0.8038401932829298  0.9705213643094807  0.5569722596591453
  0.4058122363870610  0.5511834047015465  0.1373852167744223
  0.4102895654179281  0.3213915606467764  0.6827066725890540
  0.0824998186562337  0.1068714908044593  0.4414403635176841
  0.8766468717395923  0.0190049800686844  0.1929009138579430
  0.4041699609995647  0.0328351972214855  0.0747019062956887
  0.0474789236364380  0.2130426709552753  0.0208890816499610
  0.8819027487500199  0.3074441135630411  0.8950722169973834
  0.2630630047973369  0.8242839447741371  0.0777682938374921
  0.5605352057149003  0.5217160789995376  0.1991117859426242
  0.4298080738985300  0.1764911692003660  0.8800060866656678
  0.5725956234731140  0.2535143854087851  0.9657896380095538
  0.5601144291011981  0.3227169140408551  0.0147913353386764
  0.2183849349265472  0.9500817435601683  0.5412085234775350
  0.2678185334777275  0.0738292751679968  0.6197833792890849
  0.0547799322833308  0.3635100727534074  0.5533988632357931
  0.0222112830090761  0.4182769453163447  0.4459880847709485
  0.9250232121762716  0.4786904707074332  0.3933161763462985
  0.0556243262752534  0.3888928605697758  0.4848427444112811
  0.7224416827645924  0.9418171974269577  0.6485282521003194
  0.1092559538339288  0.1969785536638884  0.4448429056714906
  0.5660728891419707  0.0977793043974039  0.2392439167613819
  0.7379120744983435  0.2153359451489639  0.1380428876893654
  0.7103437814007479  0.9557675916396875  0.0415483984801541
  0.6167918520029372  0.1895969501542141  0.9915324815326687
  0.5847941541031804  0.5637956905561164  0.5327670789277208
  0.9700478854603982  0.9142479225779531  0.7336584732714322
  0.0205230387486653  0.9237223611321663  0.6041156715590315
  0.4717644413934325  0.6915824712709037  0.4028383669033887
  0.6972612961652451  0.7882210589450532  0.5630602562951943
  0.7955754228990602  0.7437782291811726  0.6006886063036352
  0.4793451388908674  0.7968577015966947  0.4340384180031912
  0.7529871626009895  0.8104727366716326  0.5782806163118759
  0.3801853943956621  0.8883311653120890  0.4887402140692905
  0.8077125482871294  0.8787177092032968  0.6934591533309540
  0.3307657739624954  0.9192623431928304  0.4630112296997664
  0.8688474127039665  0.9041710308997761  0.8193638186971409
  0.3858664275320506  0.9504496696027553  0.4741333519265066
  0.9364299903816832  0.9977813480799405  0.8573500033216357
  0.8773269537666855  0.0312420429200511  0.3611066432008358
  0.9408888090878915  0.9877631309297096  0.9209988585613612
  0.8362792561779196  0.1238226140119477  0.3157249257809555
  0.7596720588454415  0.0128330341599082  0.4633464549031510
  0.6449013856863824  0.7412675376371224  0.5662477581750832
  0.8927294884672715  0.1543215234728499  0.3247161489187642
  0.8490490345358503  0.2784118217008883  0.3839566951819845
  0.5315970620695988  0.0248093992415803  0.8323585202886460
  0.8343249778521223  0.9371403888076865  0.6273835508665930
  0.0565620681407137  0.2287546002101187  0.1862445405773981
  0.9383909331116549  0.8864575563755105  0.9051839288003434
  0.7533928310406101  0.7221995545387621  0.7057455853051944
  0.8384248279877911  0.8421393626603759  0.8800448255728449
  0.8114986161341974  0.4164502564709615  0.3785888041887757
  0.5162396569121491  0.5837070339287452  0.5078813942163997
  0.7837786196333908  0.7118384231665568  0.9912712113580708
  0.5113446995135404  0.2925586555229983  0.5564345083905448
  0.3958586575913842  0.2496529829831677  0.5229043194251570
  0.3134872350457508  0.0130734560592295  0.6660498299973426
  0.3891247834791270  0.0612714049339992  0.6624728616654190
  0.4399312784926424  0.3181964428822286  0.9762220980602473
  0.4753531059953865  0.2557658619919811  0.0409267854057975
  0.5596046476473474  0.0849771032809480  0.7709337023879954
  0.3957748220467429  0.3930184919703492  0.0652870155554950
  0.5112078710238208  0.0808417824826827  0.8130214927964012
  0.4989544344773699  0.3491925013680187  0.0569877639095771
  0.3512069355930046  0.4239728320031135  0.0408899400006602
  0.3981384809140002  0.4411090346926977  0.1117595621529337
  0.6119712529377244  0.1461569397485513  0.9456645099704717
  0.6778993222102581  0.2133774644007925  0.0066808599044109
  0.0733364016319513  0.0317017935689870  0.5194023613913212
  0.3520530198125782  0.5549249058488023  0.4600745549301054
  0.0549777687116139  0.8026313225766045  0.2906445028789328
  0.4663219122797603  0.2269202618392021  0.8812349467733142
  0.4422119719625375  0.2846470779444950  0.8650386617526643
  0.7533354656763624  0.4871248783290110  0.8254406741728688
  0.7106188990004090  0.4309211018184687  0.2813229039142304
  0.9064478960892193  0.3994363212048269  0.9505333221872614
  0.7616911032089777  0.4154033949976095  0.2475870952100612
  0.5859857127817824  0.5989799174813898  0.8413977312385907
  0.4483771733608886  0.4117054499674349  0.1382173268873655
  0.4147989467734086  0.6921741461630904  0.2696803800502339
  0.8016565956210325  0.7594576442728630  0.7675188054011902
  0.7257004105482870  0.6600199631666752  0.7620561724826332
  0.7100356754965585  0.4469253354988540  0.4463324960780922
  0.6740399043175612  0.2339114504288443  0.7861392819276465
  0.5524017494118132  0.2168428979659789  0.6388308321494158
  0.7735514195199100  0.2774231724553272  0.8113146784868821
  0.2651099113942607  0.5898315631261892  0.0189266193676412
  0.1995721145107743  0.5557694189816301  0.0656502290238893
  0.0986346926212555  0.6642067762634682  0.0576811269339622
  0.8718841110472987  0.4302363863213767  0.9893214084694871
  0.1588595384599679  0.8059755003929910  0.1012193795320112
  0.4918294165097596  0.0653194687472643  0.5831747036117465
  0.0654070994588315  0.9040623960035068  0.0016931430826340
  0.0279178133946770  0.9540420757319403  0.1458507036795215
  0.4996682299036392  0.0578454833256859  0.6423390202147312
  0.5004797357631258  0.0926792449278795  0.7488849062863756
  0.5500278155132383  0.0967829031787502  0.7081768965425469
  0.5882078571166114  0.1462554159391032  0.7133199041069362
  0.8395915593261293  0.8089873125391325  0.7735580086189157
  0.6651145394492542  0.5078379284058301  0.2966507406025589
  0.8895010627654220  0.1398414186033378  0.1552108389056613
  0.9510439540055335  0.2140832329117388  0.4411878641814951
  0.5827291188993853  0.6321574277302361  0.9450499978054855
  0.1587065064297391  0.1929622694847855  0.5621219854396373
  0.1977467630834324  0.2146600189529475  0.5093423994229342
  0.9492189309359874  0.1987041845728270  0.2719984655090117
  0.5535801942593804  0.4670419303413996  0.9828350203328917
  0.9936225593009662  0.1056510234526738  0.3166924352853171
  0.3935504021378634  0.4326930866902459  0.9399228781131583
  0.4442961804006841  0.4375685456007273  0.8985681734380816
  0.3824300568618798  0.9214669930098240  0.3651686084347209
  0.4369244928247098  0.9352928600555657  0.4383626621594620
  0.2993548975511677  0.3561278285265156  0.8075106076394454
  0.3005552272058157  0.3224990416749820  0.7004643201861869
  0.6311526211061113  0.7371709566899401  0.3898744717711391
  0.6231010145755700  0.6452535703078740  0.2973534247812978
  0.5774295777205729  0.6261525268959378  0.0009770573332335
  0.6163159813944735  0.5685334608304619  0.3764823382812128
  0.5477270764453954  0.5802334709844753  0.9477953452898470
  0.6073228957027681  0.5733922251054788  0.9677311363575648
  0.6675115767944090  0.5533715164243118  0.3405989527245555
  0.9577728506302715  0.8288238117495453  0.9252939426812895
  0.2661147561956794  0.8342440604608425  0.2409069357979337
  0.2598034393601941  0.7564451195618740  0.0869995094818434
  0.4617678732147106  0.5117672196030140  0.7785299931031888
  0.7127177476249511  0.4454051075970294  0.2191009267220825
  0.7701845050547129  0.0187660476472143  0.1575965943048648
  0.6197055485384414  0.4993946052935069  0.5643516196544821
  0.7207577877653218  0.5246622871635639  0.6429677136337887
  0.7128190283095200  0.5478784468477009  0.5267477560935649
  0.6251617906825817  0.1696428655511567  0.0552645841410844
  0.7585103976974816  0.5900333814022453  0.8435888981462715
  0.8074259850587694  0.6261991641247452  0.9073576951571589
  0.6878337555653696  0.2314032744119662  0.1729698808214978
  0.9484211485347339  0.7089849247926333  0.0023398517523799
  0.5495499082534631  0.3993616210668011  0.2401734151290167
  0.5381107507827142  0.3080305395670200  0.1549440115658982
  0.5403865182771166  0.3990430987002687  0.5378378486893943
  0.5522779023558568  0.4146109206771254  0.1756362949998547
  0.5128883478892451  0.5831160604880459  0.2795273026703529
  0.6568556379903673  0.4111161335491131  0.6950322943396640
  0.6933958670458691  0.4607945609728760  0.7002731056624337
  0.4596499440834381  0.5667459944105937  0.2075292012721519
  0.6670628127278613  0.3993316397864856  0.7556022874164031
  0.4106942019445332  0.6301989589541686  0.2867536377192432
  0.6818573572905571  0.5079599992501049  0.7419349229518648
  0.4988912471792269  0.5019120649938504  0.5761142181148047
  0.2927292235186399  0.6216748904985193  0.5335892041806484
  0.9111935029631270  0.7900700184270428  0.8578706422397766
  0.7742969903306527  0.5613021122435797  0.9699235791796704
  0.8353823852794552  0.5587493267502539  0.9904721119341140
  0.8489560410599292  0.6669327692920050  0.9694661110545044
  0.9218816424757589  0.7782336673417173  0.9182169929594889
  0.1571281625714894  0.7887951526051588  0.1605278240265534
  0.1596936705423469  0.8341405841153398  0.2061502837261753
  0.9827345136235860  0.7376805285928478  0.8359498226595296
  0.1063405693001803  0.8215177937267025  0.1325720310467751
  0.8550072501007396  0.8211758406949193  0.5519882535953967
  0.8066733297783552  0.7060598524500752  0.5645020579009563
  0.1642969510181103  0.8793776207549714  0.2513120851760408
  0.1298212818642747  0.9098005422647957  0.1362810036138325
  0.1342334177428768  0.9533710652755238  0.1816085189624135
  0.8801505055866108  0.8258292386479110  0.6726089024706543
  0.9117663523502798  0.7569802400099113  0.7524121864001811
  0.7631874454011858  0.9382826530401795  0.0072276505470384
  0.7238800069869944  0.0783940816795459  0.0055715655384320
  0.9167614346276788  0.9440406680139127  0.8836959870271666
  0.6764915531860306  0.6455536036349224  0.4312384177489696
  0.7025934227266271  0.6615103786692829  0.5369182664839137
  0.6042644264508618  0.3627219552540694  0.0289417748867050
  0.4973962044516738  0.4148850493943815  0.2734699754731148
  0.2544141291175891  0.6624587503131144  0.2259820353111951
  0.2078848459558224  0.1146492409080087  0.7038709149424593
  0.1289585551842060  0.0468092623063233  0.5338564978142071
  0.5226547905500157  0.5036589489139192  0.8010283156851917
  0.5118643475504805  0.7638838702367650  0.6208625964899245
  0.0393688937889223  0.9294442259475701  0.9285782628648073
  0.6171454023420502  0.5317421025855678  0.5016083376512180
  0.4518006316368919  0.4588871270465485  0.1828714393496615
  0.6395617836493915  0.5939461724811622  0.6015753805632729
  0.3582491392440922  0.6296475800407064  0.1529858490519557
  0.3571443822187949  0.6144149125204901  0.2160678174397337
  0.9333439106916214  0.6994433735756135  0.7699382331267284
  0.4156003761822378  0.7078769190522366  0.2096371869859461
  0.2590468221447927  0.7246659798685066  0.2107124960858891
  0.5091310828237214  0.7627456666659989  0.0039878280192273
  0.4288055672531832  0.7936757011106161  0.5324634076998138
  0.4332204735420913  0.3932724242330135  0.5593476036469103
  0.5368449032153438  0.4275762401113279  0.6530977026816546
  0.8944233562250716  0.1854208018557610  0.2007466699454453
  0.2225109090090550  0.3512025517904352  0.5536789301957032
  0.3420576014173155  0.3379041124502860  0.5987361853731640
  0.2679469550400347  0.4252388067759471  0.7268572078072733
  0.4364012279013800  0.4163201080926700  0.7327146165653914
  0.7590396263336678  0.4002550100464667  0.3101325510430227
  0.4517258253157111  0.5242711314062096  0.7176825813142869
  0.6630652151910008  0.4425339367203931  0.0861716448188793
  0.7369608530186527  0.9621618818659083  0.8204719191949480
  0.0080466874252730  0.8335120972815383  0.8824785603997752
  0.3693871987899706  0.5270676964014777  0.5280671131391242
  0.5575822035078288  0.7916997777070980  0.6812861806040185
  0.4096781384809092  0.7483518955417863  0.0288465415565762
  0.3788653649203520  0.8459532059130610  0.0521199305909675
  0.5552325709167021  0.8891716004331079  0.6665013086648055
  0.7226760355558067  0.5694469699015865  0.4102139052660811
  0.2237737013457816  0.2211385840677731  0.6895014126937509
  0.2417572036835835  0.0783931051730747  0.8913241198473473
  0.8595350369064795  0.3874323097247325  0.4050867945715240
  0.9131731771617345  0.3686797140968707  0.3724096730266794
  0.7997487073427647  0.3094657441098948  0.3584502261015084
  0.7633780735583264  0.4463673023382438  0.3514080082492509
  0.8183093666606213  0.4767277307731709  0.3591371960378696
  0.4061828070809906  0.3875213964924724  0.8968219730547009
  0.7729254662306762  0.5538210815008432  0.3765703614585979
  0.4519075869579222  0.4242931646176851  0.9592748933501144
  0.1806551869816299  0.0316425337266686  0.5620215414725512
  0.7481457046894834  0.3082777467998936  0.2257345406061484
  0.7882105802425271  0.1850662821057627  0.1649730831268895
  0.4276578268416272  0.8446712632096439  0.3454978961118488
  0.6486129343286503  0.3531487576323076  0.2316099073329946
  0.8200189521573382  0.8609577778663058  0.9869112709287916
  0.6609206325614075  0.4609860293581062  0.2541691386362646
  0.1186216296898367  0.9561284074416403  0.2703586813281211
  0.1398725474373790  0.9978474556557348  0.2275759051903264
  0.8286988337410002  0.5697620744272902  0.4483950101582676
  0.6492497961926247  0.9282095215234112  0.5696845597962797
  0.6523438830711206  0.9983432665822844  0.4858977176914929
  0.6898860098096352  0.7962580551687006  0.5050091246856947
  0.7403990071281393  0.7247110585138378  0.4810186323500919
  0.4327807888693887  0.8541015167767277  0.5177909583004973
  0.6008734859032137  0.9463290980411395  0.6047369576482552
  0.5422791871348044  0.9333624523801815  0.4716003349794882
  0.9555956056211432  0.3286737829649923  0.4657032371529747
  0.9673696077477039  0.3852587721777184  0.4382755247894025
  0.8834364948703720  0.4159716896989584  0.5068398873297444
  0.6354899164942583  0.8874435336860637  0.6875313640357318
  0.4896882412690473  0.5750163529635571  0.7223874110132039
  0.4187391940801442  0.4414867845625141  0.6109457229367268
  0.6862950172616592  0.9251465870762406  0.7543718426355407
  0.6064801350515434  0.8260545339803202  0.7451121865169650
  0.6139983576830381  0.9772675620605340  0.7752109568102976
  0.5290790491604327  0.7827233049511859  0.3983750069452035
  0.2584493452215584  0.1530951809485591  0.7694342050147095
  0.3308796448536976  0.1352901531080381  0.8552044614872286
  0.4830719255162460  0.8574462553329584  0.4185269676677108
  0.6396238627743395  0.8436341850019233  0.4179548821628460
  0.5924741082904403  0.7234497992223470  0.5417759059952322
  0.9933968240923041  0.0888944739822235  0.3781307791496193
  0.3690035750530670  0.3372314082271288  0.8932363103486751
  0.5989491297565279  0.1006525464261423  0.6650354789932332
  0.2044868121657597  0.0134460589065294  0.6870114795465777
  0.0019249558554569  0.1974227785786891  0.4066508555571073
  0.1591634217796162  0.0758054678080622  0.6391563986090771
  0.2806842750055595  0.0981627562220775  0.7884052905722504
  0.1592425572271673  0.1102910277263889  0.7444157513988341
  0.9052395217571030  0.3075755106881009  0.3933554264829134
  0.2201501143823208  0.1358165221986610  0.8721981119921373
  0.2930872342349495  0.1178701120559835  0.9566925429738740
  0.1975424969819771  0.2253016829111551  0.9565972572598976
  0.3641344063546501  0.2174948084598152  0.9573912763671806
  0.1914255053676680  0.0415456218168298  0.8263983030245142
  0.4758072385378627  0.4339880462513723  0.6306222644459750
  0.6742348127788638  0.6546944326514623  0.8036365137615321
  0.5325089161781833  0.6968798245705098  0.6376296033040774
  0.8086588556813579  0.3596618128054436  0.9247237453226431
  0.1094098619515415  0.0689266426384061  0.6805542554006004
  0.4593364569918046  0.0821084914713689  0.0218453162025181
  0.2602630156599654  0.7406799663482060  0.1494397076503438
  0.2512319724622525  0.5343542699825805  0.0358276134980113
  0.4102293384501323  0.6131161887854534  0.1208889385887666
  0.8981977985691935  0.9321309301887674  0.6524251642788269
  0.2383965541207427  0.4264233307434913  0.0008515148813615
  0.7446703370330253  0.6635304245444236  0.4970403681313795
  0.5263729608189172  0.1198992275145421  0.5847885486180127
  0.6042716132008530  0.4298474845850652  0.2460900176082396
  0.6664417710984530  0.5221572578156821  0.2357983355209532
  0.6604161454354593  0.5649616000606773  0.7235877131684495
  0.5649404853030822  0.6560152437923683  0.8212969291201653
  0.6250989623987701  0.6488412777505073  0.8441956519793893
  0.7006245843230106  0.7521704186728911  0.8463233310382234
  0.6418821192151344  0.7586625407186703  0.8257655045624255
  0.6136612756629143  0.6937470005527603  0.8852902851054230
  0.6715049498009498  0.6880354002942390  0.9054137036800479
  0.5185371716527749  0.6763623504442569  0.3688373931435073
  0.7194574733482916  0.7248742592151955  0.9699472583428105
  0.5764727789119229  0.7220383362650402  0.3171805036940807
  0.4740652241132046  0.7686118619335046  0.3249517860685326
  0.9241097271389744  0.4008585490874348  0.4676305800264812
  0.7862575981202732  0.6418488025923201  0.4661623006841580
  0.9896090913296258  0.0764500838352296  0.2102694138089169
  0.5712296698702485  0.5424319255851926  0.8654405182881901
  0.6905810282166119  0.7626251179186795  0.7872325232429190
  0.8537628326598082  0.3076069900641873  0.2611701081975970
  0.8515313904809447  0.2920419472440445  0.3234568561807997
  0.3051502599474969  0.2246465812806677  0.9376227840321367
  0.1771639908429977  0.9577698634214764  0.0241540002431985
  0.6158682305306620  0.5374167842953699  0.2702532419096392
  0.5496069120218086  0.1578922558889657  0.5341909080933077
  0.5451066695025085  0.0268614653787003  0.5557289350040758
  0.5817725746286371  0.2463645846468387  0.0794626777902167
  0.3647117960660356  0.1928692701624155  0.0227164982920585
  0.5238981354350597  0.2460258038511580  0.0057887752989099
  0.7768455918293182  0.2866246968278559  0.9683610396108590
  0.9611161618949108  0.9263156386919236  0.6742317767006782
  0.5336732680884860  0.0077822872544296  0.6218391871414053
  0.1470082736041180  0.8915887731683005  0.8038240203557658
  0.0099147591227068  0.7666308123698612  0.6693430258925401
  0.8494195621319197  0.7777492436430229  0.5061599706240857
  0.9696057880353077  0.0273429041722794  0.6099491922532413
  0.9069615570965492  0.9824104807166920  0.5308799399724340
  0.0255913562290011  0.0264552538718720  0.6231193202194993
  0.9548965462712974  0.9412209223769211  0.6131694272016244
  0.0296004459792317  0.1244873872740214  0.4807919470333441
  0.0156601291549356  0.9969589362384252  0.5117351877254854
  0.4860782964151723  0.9504936027391099  0.9638450262117496
  0.5764527503634320  0.1569499325717856  0.6538060777937191
  0.5834865930395495  0.0615634853711434  0.9011690784231861
  0.5420555887571453  0.2618607643365817  0.6807771127395068
  0.4828337244858366  0.2327202590503057  0.5552442361573520
  0.6502895157336915  0.2084982687992556  0.9457741455903206
  0.6750271595262278  0.2660451707027512  0.8937145313276202
  0.6106646223035679  0.1221407111034102  0.8383386055049981
  0.7909381307678072  0.7712892318598348  0.7074328652061863
  0.3269712302340378  0.3393353945441981  0.4188307234753486
  0.5856836383258498  0.7985103013675302  0.4710807209553383
  0.6570906991133829  0.9929733814784650  0.2524906154959466
  0.3450953737307886  0.4746579593483392  0.3125750291228448
  0.3896514812998549  0.3770405601448112  0.6657168739374816
  0.2127311979920310  0.8373500705717642  0.1108193194318815
  0.5071586969696324  0.3962443816195667  0.8149864101201684
  0.2352802096859664  0.8793966177312714  0.0654008918873501
  0.6160310216336403  0.4251541495396897  0.9043013301573394
  0.5429265481520845  0.4796251641061232  0.9245104741673785
  0.1343878789758911  0.9704472920780880  0.1197661970347040
  0.2373588912523181  0.9242660239548720  0.1109291807726132
  0.2951562044520019  0.1395211466617164  0.5607167554500067
  0.7282590029930608  0.1231559438578254  0.0474231974060165
  0.2820345511869674  0.1813726216258735  0.6030097323009260
  0.3331382263878674  0.2198785968644481  0.6715598426532169
  0.4050522270087157  0.2014601124949427  0.7545086606922875
  0.3942775855600715  0.2468618426306796  0.7991085664378984
  0.6386937412736161  0.2974062990853002  0.0261530664944628
  0.5259617302184796  0.3723361021314055  0.9380182802238008
  0.5577058243235840  0.4469143534456867  0.0502417355546059
  0.5171288732365398  0.3849696856030383  0.8765584919699247
  0.4554717667681099  0.4443564911065644  0.0134495180815054
  0.1049172094187480  0.1812577868880697  0.2756222082112507
  0.9236935234288001  0.3456405700424511  0.9756805995298401
  0.5604050140907350  0.4895879465112122  0.0939816162443714
  0.4084948661855191  0.2870440140554726  0.5761822097466769
  0.4567624409566899  0.5207428900114125  0.1637883488589334
  0.3601858756413218  0.2826565703493095  0.6160375722846489
  0.5153762525755839  0.5834280337176098  0.0504741668302306
  0.3049134388695821  0.7441479762542004  0.0510154886313609
  0.6701544996668931  0.5692423304989259  0.9896306229879512
  0.5733976403554329  0.4771465731620705  0.6577830326972254
  0.5277645144839384  0.2179937860386632  0.2967899269687184
  0.5829725759912455  0.4640963944433698  0.7173366720373697
  0.5397447489336962  0.5809692227014024  0.6806508486431155
  0.6324511428026827  0.5022783254313752  0.7822179295007667
  0.3094480751689129  0.6332146695944054  0.0257323132269503
  0.2540893577969966  0.7035495459945121  0.0428692118235444
  0.6821624037675734  0.5409077579972201  0.8475022412779101
  0.7083836990055992  0.5852215427157210  0.8849090180640311
  0.6478892006572515  0.5913481693227692  0.8635337351769150
  0.2196415656155939  0.7448528600791946  0.0239578509284921
  0.7189429269008518  0.5713950867912190  0.9471552268903614
  0.6966792032289717  0.6272371881870554  0.9324722663249235
  0.7341790503575281  0.6705424641458743  0.9850943385739145
  0.1855290289094212  0.8448730323029807  0.0546593462484020
  0.1279119168709174  0.8642113967990858  0.0896143338682530
  0.5082324833791614  0.5056397644243463  0.1288341491251037
  0.0077518202104181  0.2746814708125632  0.3257493522030442
  0.1618251933767520  0.2278216482856926  0.2227874057986192
  0.7971981042539181  0.9221880265933435  0.7353168866927842
  0.5056647010251546  0.4905750581972369  0.1893774942990440
  0.5236343393034251  0.4723419268820653  0.6961387867868986
  0.7036664018062422  0.4823738864313535  0.8650873571021453
  0.4129685318284645  0.5819380320263209  0.0158240409787634
  0.6916980877450373  0.5283331724104976  0.9085279193863592
  0.6314904814588810  0.5354535502896931  0.8864562021245690
  0.3096177120950871  0.5687992521436727  0.0475983061741734
  0.7181924448727206  0.4549750558909822  0.9869201794448836
  0.4675044550387099  0.6772590689835017  0.0091247379960610
  0.3091874563881008  0.2435872898182700  0.5467332269523592
  0.5919836944286073  0.7201495666778333  0.7619889211769975
  0.3605702605193256  0.6470404330876077  0.0943741925025309
  0.3184883193083682  0.1465327172546166  0.7908972173667081
  0.6962949354005580  0.8495906649879544  0.5491996765719445
  0.7509669082592079  0.3383332812699753  0.1015035030765500
  0.6467198136781920  0.9390987032757562  0.5059957237927464
  0.6414899705468990  0.8138819338089599  0.5432987834935110
  0.6495219106335787  0.8693611559375066  0.5878901227189575
  0.6035605153813725  0.3996955457598510  0.1404928859936064
  0.7217352001240145  0.7901520454966401  0.6263428940587792
  0.8177624211796488  0.8664798800913155  0.7544661611825179
  0.3670583776197630  0.1836922697242779  0.8565623043210225
  0.6054450503467491  0.4387490669612346  0.8412453970325497
  0.8627140806969423  0.0482458949710285  0.8826600353260565
  0.4161742483433819  0.7228462035485432  0.1493234111973707
  0.3531201078160812  0.5694888092857966  0.3999551825526786
  0.5695835302431311  0.6291986975408702  0.2265450003446746
  0.4637941941378834  0.6289989627614633  0.1912349714625095
  0.4747992464242299  0.7845015791551166  0.2635303071567123
  0.4237927420311629  0.8172723169714627  0.2379531248461829
  0.7177790283465527  0.8241169390129142  0.7299603506535529
  0.6181158658535907  0.7829484923690726  0.7021734775959313
  0.3791481064077967  0.8938526147138409  0.2584023672991306
  0.7575621563279640  0.9069816172637720  0.8388253582454305
  0.7355374358019562  0.8339184132263849  0.9657301222150825
  0.3336094702666162  0.9714438450052999  0.2796641251036946
  0.8068915102741357  0.9429943892066374  0.9053841951870324