Cr Ni
 1.0000000000000000
    38.5483780612784415    0.0000000000000000    0.0000000000000000
     0.0000000000000000   38.5483780612784415    0.0000000000000000
     0.0000000000000000    0.0000000000000000   38.5483780612784415
 Cr  Ni 
 1596 3725
Direct
  0.0773349909494842  0.0392302993517055  0.8428649153089234
  0.6658804305636868  0.5092714629005066  0.2968476797662609
  0.6964799646652984  0.1767122631207504  0.8004293773955337
  0.0042852450424026  0.9563650435793792  0.7365612274522918
  0.6889688670917559  0.7852055718008608  0.3390762356394102
  0.1978929399944523  0.4974382653886446  0.9130865465770408
  0.4273806109659580  0.2368496914881404  0.4273274481364747
  0.8674071284181664  0.5855057889112829  0.6124153908631930
  0.8154318279233492  0.9409114456459601  0.1388286589392151
  0.1935356449091684  0.5032275554133825  0.4778156921727386
  0.6603970972457813  0.4641397275292124  0.9674749912132251
  0.9823138879406547  0.5063313175056779  0.1815214930629092
  0.6161144299177002  0.0480848615537061  0.0917873739775263
  0.5872983107658477  0.2636079811684010  0.2436945796265683
  0.1691252251029048  0.8322478536790785  0.4347685481450855
  0.9996286841323390  0.9880357858119129  0.8463479449132389
  0.4526498840884813  0.8399897975801084  0.9745354412549198
  0.0960076510439576  0.0951175305385367  0.1860732635409721
  0.0260763149129016  0.3808281231800494  0.1219093077545057
  0.4358061481182531  0.3248250205397964  0.2836312278288217
  0.3808669277416135  0.8483661359444375  0.4421567880796222
  0.2033987086969408  0.0963687922475122  0.2218289497371790
  0.4295389843690920  0.7459935638443286  0.9293695758799517
  0.5708819377968039  0.2712559655962660  1.0011623906337248
  0.8339415232664986  0.8464986494301650  0.8856999807209751
  0.9109832489749428  0.9374564256421314  0.8704493844987532
  0.4358579320729135  0.8792401382322499  0.4536385196184508
  0.0903282449389591  0.2800353168074142  0.6921962752044954
  0.7986937837880558  0.7389538903784000  0.6662699941375856
  0.5738353975216158  0.1290904799198352  0.3462318703443972
  0.9789304714430661  0.0084991744078339  0.3024586766556103
  0.8454705784226059  0.2297396856451236  0.1145034416640352
  0.6252261441129546  0.5850585346700466  0.5445887904398755
  0.1575661390525464  0.7968994656487082  0.0949876308785865
  0.0294099022895102  0.3200414374447885  0.7740467502488518
  0.6426847537836337  0.2955468778478803  0.2522018337478709
  0.2123101138626894  0.7555417631746523  0.4146856637465420
  0.8524409267730304  0.7065496372983102  0.5823778331612544
  0.5245865957572516  0.7258603530906781  0.1836708465719147
  0.5009364921396630  0.3978082474301128  0.1036069036443659
  0.6158554547618564  0.7235987197441732  0.9935476765901734
  0.2136004159039233  0.1530876933987728  0.4371109685497416
  0.9569446269759867  0.8612633705533745  0.2352384266837197
  0.0906661507097070  0.5545528691071913  0.2618975720699528
  0.3763058636384362  0.2471438171940285  0.2327315970080837
  0.4755130623677609  0.5995241768310853  0.8622533381485161
  0.5611988675464800  0.3988415594883659  0.0064451932538742
  0.1984528587827586  0.0271449023662746  0.8931461544701131
  0.8668850415336773  0.1644499060563728  0.8001035701706612
  0.4012818003938597  0.6510353730546502  0.8821703359682295
  0.4808735620050064  0.8170930768221228  0.3708636228811894
  0.8009693490010172  0.2937800056053352  0.1922716701400295
  0.3316659391554473  0.3238284339153124  0.2489924835616250
  0.1251555566092892  0.6315481838626754  0.7766184201943926
  0.1228680680964301  0.4934710456705818  0.6686936357880545
  0.4213673105604682  0.1698838327064767  0.2147162622949261
  0.0218387755702075  0.4833085447567476  0.7472991030763805
  0.5443863006517710  0.3727055292742507  0.3649814573367762
  0.6385858642909220  0.8323102059878621  0.2484566312415606
  0.4725169513771806  0.5463668011877501  0.5598653929634950
  0.5990752345105833  0.9306956563321915  0.0073867065851691
  0.2349079902852925  0.2970629085825178  0.5701742427969367
  0.7086541463525741  0.9844616403098911  0.6943442195664337
  0.6804611756445877  0.5081427743042235  0.7426269746765215
  0.4085757799774354  0.6401518836085237  0.9427199774785685
  0.0017520972185497  0.8375376461513034  0.0323910692105162
  0.2441903768295343  0.4593972180923723  0.1123340877661066
  0.5515487212555733  0.7370724684938524  0.9701259800461809
  0.2402566902795149  0.5131839657780424  0.8139140170156194
  0.8758298782444960  0.5099260251579355  0.3723345930929933
  0.8237254339922239  0.4491995787626365  0.9712544534011076
  0.7049056242791116  0.5825915746445433  0.8842452500555036
  0.1071367685463695  0.7237517148592972  0.5080159382349340
  0.2602504646358277  0.6947525989823312  0.3335850130195248
  0.8128867346662052  0.9697508050745609  0.5541211244323099
  0.6525791961867337  0.9666523409803980  0.6187381454340622
  0.0944701007045659  0.4795132507722326  0.5081916895331571
  0.4700144992443063  0.1610079703655143  0.4165667234096506
  0.1090741140935079  0.4130116930352780  0.5428282418167278
  0.1537473500450563  0.4093245178342811  0.5759518851746345
  0.0312397520070483  0.0350807914196618  0.6099093866318520
  0.7367149215269130  0.6566087862228949  0.5159208869341598
  0.0215136241522669  0.6170685640029180  0.8398460976911885
  0.4761285771793273  0.8043440029699790  0.2025462448993471
  0.0825892612105496  0.0418899554792616  0.4506872986653180
  0.7036553030225111  0.6972563424921622  0.6408198967191703
  0.1638091150530902  0.2305619691967178  0.2234063824917101
  0.4148259847889108  0.4710743714282267  0.7154523608457511
  0.8928059912845482  0.7106233295752988  0.0356335038067018
  0.0372757432765018  0.0977393014351218  0.5914659981557860
  0.2341121525054296  0.3943308913531032  0.8912302651291022
  0.4186897969840716  0.6937989953953946  0.4975302687974551
  0.7165550189600572  0.4047087603676557  0.7149452330969991
  0.9456272535808372  0.0640325255068998  0.7381083183022352
  0.1687051521481178  0.6468101248304442  0.6785785667112011
  0.6814932469822057  0.6314767021794992  0.0371342797044866
  0.3149380711006259  0.7577714274787056  0.2200146713164246
  0.8951272720623094  0.8326257051860614  0.9124994912822576
  0.2409244347000339  0.9653159815983751  0.9360261214519050
  0.6810659980577743  0.1526248640001315  0.0240617547639270
  0.4346204423248288  0.8682839612711591  0.8532158988174080
  0.5874487967967638  0.7825380359561880  0.5298219316275019
  0.9170539316635518  0.3546706544319671  0.8977490589592785
  0.4068524388555709  0.5543943496864500  0.3646396092739556
  0.6900701045639972  0.2504363256222820  0.3425361301027681
  0.8393226293470510  0.3182073704477356  0.9823201169421193
  0.0145884398492736  0.3204082274031648  0.1433443763950906
  0.9163164566281622  0.9012830909731746  0.7569033009554443
  0.0133793230901219  0.3065758480787368  0.2051484502494265
  0.2274175801656289  0.2461859880331541  0.5258223934959938
  0.5516475224533989  0.5361237887624191  0.6395933651435891
  0.0565912752087244  0.7940519223469135  0.5935785052056235
  0.7391799359773020  0.7836675594742368  0.2429318660403883
  0.2888683909142897  0.3323769139500352  0.6374220318244108
  0.8320708060268394  0.0811701889101379  0.2758067789128324
  0.7388246149010300  0.3482014241736704  0.7310784456552285
  0.7442959890913033  0.2489313158141295  0.2453785186584445
  0.8614330605798963  0.3532621674326519  0.0802456009678569
  0.1332689239160718  0.1222841813024420  0.5202169776869170
  0.1518728727618485  0.0964489758384046  0.3209426750287393
  0.9773135752159868  0.4460058176027599  0.1977598678019602
  0.8741533043082710  0.8915759339812097  0.9101090368116942
  0.7227872091802426  0.5545797599647396  0.2456583750133463
  0.3212728166985891  0.5497867743380532  0.6171486455249123
  0.2962347780994526  0.3548263799967356  0.8061528676875643
  0.5567283435564272  0.4621506454085657  0.2177931228875528
  0.1755212111065023  0.3563087304404357  0.4169554409900577
  0.0510212131404984  0.2270201191738074  0.6883550997432752
  0.5932803186798106  0.9040163589546160  0.8995478124925831
  0.1504927824323759  0.6621719915691859  0.1925576698470386
  0.6523298757225279  0.9670250062067582  0.3848674139035694
  0.1335317594466497  0.1639831886484684  0.7258340232393830
  0.2408821414016204  0.9591615418932135  0.2178020703105399
  0.7715677280953560  0.0721892276511095  0.4417596202081807
  0.7085399707767063  0.4299389656973586  0.5075888860756864
  0.6668234856221082  0.0465534609093240  0.6502503530331464
  0.9858413713717556  0.7159373680436233  0.8721079943237667
  0.4344455097421411  0.9423988562406803  0.2055870769138820
  0.6974134698970182  0.8608121603200857  0.4929678245416974
  0.2425437699650808  0.4114559178421655  0.0649791842929208
  0.5459882777021868  0.9049601153777467  0.5994869910532715
  0.5367386569008233  0.8462866122327259  0.3813695070736929
  0.6125490107152476  0.0625554823111879  0.5694327109092017
  0.5278950999916789  0.0682540424725209  0.5981432555216497
  0.5209361055569318  0.6372502682051019  0.9218137414647080
  0.9656418393117413  0.3560043913696561  0.3425278031515979
  0.5831385920500304  0.2224544161076119  0.4303829270102181
  0.8733032410827203  0.5713188873117736  0.8890587801480361
  0.4765647485617560  0.7556203683443961  0.3856969965356151
  0.9843004292369758  0.5407317100774708  0.2865593825078028
  0.8806153616793841  0.9732953654369781  0.6843506630722606
  0.2079253084568689  0.1405146842643158  0.2683197762041102
  0.2442435234745350  0.1959847505114140  0.8127786832474260
  0.0324443106711036  0.9231086651361859  0.5904282929375326
  0.1919747239969443  0.0237513655712876  0.6207843255160181
  0.0061019935519465  0.8181464300308985  0.5617939674197736
  0.3042679335833041  0.1893468279163898  0.8345697529536226
  0.9195896821035093  0.4195203610588268  0.4190926360680192
  0.7323191662037865  0.1274668082682625  0.2840480099693126
  0.8906314078000314  0.9572503173627470  0.7440081939690278
  0.6520240716111421  0.9721390166788572  0.1516523465664806
  0.7274324961881521  0.6306144968602605  0.1682797793234967
  0.4304456182937274  0.8334531736217622  0.4063845354759324
  0.8288868852882825  0.1027542000027124  0.4489998186998970
  0.9019379596838712  0.6366240015321786  0.8285553835828808
  0.3091916139855824  0.1439678134242434  0.0702495156409886
  0.3651346395867488  0.1240144985146682  0.2651293158836198
  0.3280526721942447  0.2933427694159257  0.1458582963842837
  0.3299051536071634  0.3900000961979320  0.4571476585071713
  0.8008137849203101  0.3327497594833259  0.5269454532411937
  0.5028473994622851  0.0152776621627288  0.4928593004897318
  0.2643315461074541  0.9703050293549605  0.6002688467811103
  0.1194561446056470  0.3067958059413225  0.2404703316236415
  0.4655791778707069  0.6153411492243474  0.4785887543732285
  0.9493106385389033  0.7541727974920782  0.2061682636934337
  0.0836177840100616  0.5966223111267698  0.6920343726200112
  0.2263013386000479  0.0885081266042313  0.8299475995796628
  0.4417682466241516  0.8745625657225160  0.0198098795188433
  0.5771897964078856  0.6756943964095814  0.5003008545489198
  0.7953829653972683  0.7955495008385169  0.8788992476201762
  0.4340534669086474  0.0633597689976940  0.6255312773524762
  0.2437645262566126  0.5090498136131679  0.3816676936024043
  0.1538294179602366  0.6801548805615264  0.3622728638815688
  0.0327173222088383  0.8882098604235462  0.8152534864228177
  0.8471558395243344  0.8163870397700154  0.1567205314973894
  0.1898475592144638  0.0054992054661368  0.1300759130280316
  0.0507971918776483  0.7416782109267772  0.3085133246670100
  0.0114398634384592  0.2783186062377426  0.3280812153370841
  0.9095536355821425  0.3256930024783462  0.3345185058772311
  0.7397746691920783  0.7372074281251140  0.4286261817343807
  0.5643510599272070  0.5550663653254618  0.3040530556464944
  0.8297853936972057  0.5701382200456796  0.2220579123043338
  0.8097362494305491  0.2934068418619930  0.7072868057939500
  0.8413179015270424  0.7216498154626463  0.2961601585927616
  0.5784776816425965  0.1759109186677194  0.3872534901175446
  0.4715721984096121  0.7251817385396748  0.2792018246174890
  0.2454641181799461  0.6231374730543153  0.5748315152899216
  0.3176645236480373  0.4825439058981406  0.9602103160160841
  0.2508424645623037  0.2997724451567407  0.0210478791025921
  0.3029417839356505  0.6067416275896402  0.6001123746227899
  0.8552349835494910  0.3303840746121413  0.4319365229292803
  0.6827146138464913  0.7236558805820030  0.1257846151499966
  0.4478253170487513  0.9426579273138691  0.1202299440681921
  0.5568203822355060  0.4000834470698998  0.7761014798029616
  0.7821346033261014  0.4133148556083793  0.9008931732489591
  0.2636455574369047  0.2202474061549377  0.0905673958152674
  0.9362258011862646  0.6000116395194832  0.1367692495050895
  0.9621528822954555  0.9730019197594728  0.9470680531881057
  0.2757221252655615  0.4109193130756508  0.7886272553263325
  0.1319511922992034  0.4818228633763984  0.7284451401303053
  0.1987174638371797  0.5854008157657432  0.4018539854776059
  0.1288995740446127  0.4002333500706385  0.3250804005095079
  0.8248240606570983  0.4893501766243940  0.0732639043452428
  0.5055024595938115  0.8326014905512168  0.9946749611010102
  0.6760600584840478  0.5753537661003563  0.5081429415176122
  0.3095993264973146  0.5928390618499172  0.6586371650879379
  0.5184663105726705  0.1312996986440145  0.4461097774697276
  0.8851350550976316  0.0788754664647521  0.1763549660821766
  0.4674730954850704  0.1389082629687918  0.0114454925731124
  0.6447134907260772  0.4094110501106483  0.5132687709800376
  0.4164402114409991  0.9576791898962997  0.9404414996095396
  0.1060328403391240  0.1569338445867914  0.4009782251785539
  0.5995387254954050  0.7380252078337274  0.9310754103734430
  0.7237544677139094  0.5533256124657968  0.0143468989329472
  0.8532024391411476  0.3635731556744013  0.5376752721732190
  0.8909845551144483  0.1381635920782765  0.1572177448987995
  0.6941439915692097  0.3238157139522684  0.0306794184443268
  0.0979417048293516  0.6105078674250976  0.0123060904833872
  0.6930788109932942  0.6166249507868431  0.9846656556453524
  0.4067578966748741  0.5551666620671386  0.1394301492891707
  0.5959229285900483  0.5117176742042958  0.9914270576671392
  0.8180683033941974  0.9555454208114640  0.0776546950973506
  0.2045229624750804  0.6793290531041316  0.2632594474178272
  0.8690450654236578  0.9620869584641880  0.2203748304007122
  0.5036031645393294  0.7681652689044763  0.0053056059597491
  0.9192162285559033  0.4531321889889500  0.5388829764873023
  0.0880397894598993  0.4722925906312552  0.1128624490408305
  0.8648186265911315  0.7752895658130996  0.9616225164073486
  0.8507117318915676  0.8441935210290042  0.2622875318282726
  0.1670601114893327  0.3802315979436136  0.7008081371703336
  0.7981329326744033  0.0207927178884765  0.7566696071167546
  0.8697747651906006  0.4327915329686340  0.2239475827136857
  0.9343596609512038  0.5021155950450660  0.0513038838292286
  0.0526802318655121  0.6398676666643925  0.9903633483792648
  0.7851796149140379  0.6772634126237778  0.1167807980343191
  0.9128512440561040  0.9188740300930028  0.3158065993042934
  0.5771706785340764  0.6797640765154325  0.0439778284359741
  0.3591830288944449  0.6337647503445002  0.1562119907144423
  0.4394734936001277  0.3445329028864259  0.5171414435116135
  0.0339802059098891  0.4110167790393752  0.5931430830443026
  0.1526582554253760  0.6886989714031230  0.0709882400993267
  0.0687089019146027  0.8902298745690048  0.3816975740151133
  0.1422342239898004  0.7563617487852355  0.9958833820683617
  0.5851039679452266  0.2505744277610246  0.3040010402117406
  0.2065881007991427  0.6754029268258753  0.4923164511066108
  0.0308099345073585  0.5894873902916897  0.7312626269981192
  0.6189524876257291  0.4084278204286968  0.9638211287438796
  0.7079531827912986  0.9704770861624211  0.9810489089817184
  0.3335780084439668  0.9084400581766163  0.5247278496342450
  0.4803387970541501  0.5847494316532469  0.6627571125506637
  0.2906708707828110  0.1149625583830640  0.9569372192764364
  0.1373222766263197  0.4759482892489015  0.4662630207703177
  0.6694881315542549  0.6864500455603709  0.9055409906227685
  0.0680038929534873  0.9062043017762684  0.0789600809721040
  0.8235505459033672  0.4756417361299680  0.1315270578274546
  0.3641833010005389  0.6009191895897363  0.8800711179435750
  0.3029625438232230  0.0192268103761052  0.6009298791183387
  0.6833383723891903  0.2087841422013405  0.5336610732903428
  0.1352432228265491  0.9013936697861340  0.7420350635557347
  0.8543767373815579  0.2393174146458250  0.5701942317800163
  0.0407464607844686  0.5653703497477458  0.0691434863504373
  0.3585190766182634  0.6173794010849274  0.2170764411591985
  0.2170674573168076  0.1333485067203848  0.8722894861315932
  0.7687100903213130  0.5643202022946932  0.7041967870206443
  0.3486922983384160  0.0754397745100587  0.8739232020160312
  0.1613062509505408  0.7540635366875914  0.5156934202940578
  0.7449952990943522  0.1455007743831055  0.6495290245842349
  0.2214606456224243  0.3085493063296224  0.5090233654745996
  0.8520845675607278  0.3105374709194291  0.0374641720651127
  0.8086189769784202  0.2047510980365368  0.8863994158380530
  0.8189077915984572  0.4280680212603612  0.0870448096151540
  0.7518005112801486  0.3242622459192143  0.1637984504093910
  0.9624764987553509  0.3414260618098253  0.4054735592186413
  0.7135172683536340  0.4469399530800434  0.2201711873682037
  0.8726773890054510  0.8870647967834480  0.9770341352336734
  0.9528647761673658  0.1819301422373087  0.6546796775512767
  0.8912011417710836  0.6771209459459027  0.3846712180312247
  0.1669404422485281  0.1281639262228189  0.9144912651529292
  0.4974340114306500  0.1247744203722246  0.8577289298238930
  0.1211904273070725  0.2368773536777954  0.5496900102604448
  0.4109914346654568  0.5869210725735461  0.4707214496557460
  0.4586216970937526  0.0749872081487564  0.8546792521362471
  0.0859919250788721  0.0063411621336278  0.3344453462138628
  0.5164133233037663  0.8025299040012737  0.8917806359431251
  0.9419582377994246  0.1260567232486492  0.3559423604667881
  0.9790501859437996  0.0772546703364970  0.5160430821030896
  0.7201312320395082  0.0532425813247605  0.3704993982881594
  0.5318126794349467  0.7690300590037987  0.4591454157843443
  0.2535968912179626  0.0965780701672422  0.1221419184988382
  0.5683577460473209  0.5706781555163537  0.4721522053397452
  0.2040903729820054  0.6253441822886979  0.9874742246554277
  0.7265804959718896  0.5338501721501774  0.5355865652807794
  0.6321552141309302  0.9216959432435301  0.7978880276392272
  0.8883529549495716  0.1096475730743928  0.2848028969555210
  0.3829743516946906  0.4408107878226752  0.8792009704769598
  0.5180361075743709  0.3500961054729346  0.7729546015237221
  0.5726229559723476  0.6421680242492536  0.8830970869755045
  0.6618883325217859  0.0446876310661967  0.9908897028368199
  0.2911416501552936  0.5176701734112139  0.7764171398362146
  0.0914857973941683  0.0635817818960691  0.0749718270095908
  0.3604454615343396  0.0615448381227984  0.2807011496321264
  0.2560103476720638  0.4352302750547207  0.6605192817659505
  0.2703101347663036  0.6617417971221553  0.6138704481368294
  0.2371224164929076  0.0167345670882317  0.5193312990093544
  0.8041257207518050  0.5952216900165410  0.8046672414278928
  0.3324245327448447  0.3547202222936039  0.3543049144575705
  0.6643807793763769  0.4796670462747771  0.4197709613795799
  0.9469652110269734  0.7386440292014376  0.2699805308002408
  0.8759274144553200  0.4925167425398139  0.2063287664068075
  0.2708146162553168  0.2260507792187304  0.6471344859780583
  0.7557851220414070  0.9351599253003924  0.3142617623796297
  0.3190733330135556  0.7725880555068340  0.3857433791784907
  0.5736909181165288  0.0943107540917504  0.2361189295594875
  0.3915119823422368  0.9108082446749648  0.1101117718425455
  0.3922255419357540  0.9808616908216040  0.8135915562005668
  0.2737990365637797  0.8816442299207392  0.2821152560614512
  0.5243003290621489  0.8028913021099063  0.1106366644933408
  0.9905720993269973  0.0764309345604402  0.2119739869698378
  0.4113477306546873  0.2217904571060071  0.9187485778596598
  0.6856636628787779  0.1900099347250868  0.3622117830032486
  0.8339136802654944  0.1159016172124357  0.3844065957849776
  0.7600808521893335  0.7125383861974139  0.7674069329035139
  0.1031987236285370  0.7265884570401595  0.2730470150561480
  0.0754712444460346  0.3846214397835017  0.2553635317412159
  0.7263305131083579  0.6801950175835056  0.9274664181568678
  0.0789989722439369  0.9627769393576775  0.2925529596026673
  0.9638242306011600  0.7692232675960576  0.9750832804328524
  0.0406288027842709  0.4595682595339521  0.8691629789253399
  0.7709401401028533  0.4139898871193584  0.0153152363789556
  0.9486151026050516  0.4935511710348092  0.5697620944527352
  0.8670991489973311  0.7407207953354668  0.8552293117763889
  0.9017231128278156  0.7707790905320689  0.6988796356146634
  0.3695537645457574  0.8044037692476247  0.1696422775718804
  0.4624663162709676  0.9291858655267915  0.7942064847746056
  0.1525252308858002  0.6620621949252787  0.4230935895221090
  0.1303490908489318  0.3816840856986692  0.1576285320997612
  0.1197581603547720  0.4691387061416634  0.5617772033750010
  0.4116193607622271  0.6155905379378317  0.5787541558850092
  0.3486060858838005  0.0171036229130467  0.5597189592624841
  0.3269926331809636  0.9044472847418048  0.9779839152996604
  0.6001756578732009  0.7066551391341271  0.8255435461270432
  0.8354909433301048  0.1229190280959663  0.0857914173755196
  0.6611883342968458  0.1662637026360329  0.9025298581289377
  0.0644214372471083  0.8763342216663204  0.2067197967557231
  0.4877149145166694  0.3755134418610314  0.4667640052213461
  0.9930091711282913  0.1284124822590484  0.6216853677131237
  0.8360975811223114  0.2678342285373156  0.8280998389491236
  0.4128410733866461  0.5034986031999943  0.8214853649666520
  0.7255542171265540  0.0756194828373323  0.7761113567712136
  0.8352939048024230  0.1568669259506827  0.9600343918260473
  0.3927009098986535  0.9272291404710690  0.0492760323427012
  0.7269491012145703  0.4062390360463294  0.9444002325281859
  0.0856234588078210  0.9704221483528944  0.5974335572795202
  0.4319601693059000  0.9963417392578220  0.7112202524702237
  0.0951565681047227  0.8576948215334934  0.9829806870108845
  0.7436664132315834  0.6118558147438758  0.0054645797916594
  0.2478915344279497  0.0197357735715797  0.2009179208396191
  0.5639200909744237  0.1082282348681734  0.4825077055919497
  0.1280096501813412  0.0452081744483128  0.8054006778233600
  0.6492618023234195  0.9195442463013789  0.1052859741368911
  0.6985645967915235  0.8435876298973271  0.5544194048686933
  0.5466982449327676  0.4135937557848469  0.7145598087738630
  0.0283072337583292  0.4477266060889421  0.3314965089204153
  0.1667698671928551  0.2300980647329154  0.4553760364526447
  0.4178816175511698  0.7110692699725734  0.2090455672740034
  0.8014447116470740  0.8911641029734032  0.6352152785091209
  0.9120642636121857  0.4101989022551868  0.4888993547703761
  0.1364078979577320  0.0587816869494129  0.5263691681092528
  0.5449925727779588  0.2294366073142909  0.5794351857866574
  0.3808744881271279  0.8321369179587529  0.5018513896437864
  0.5891679014896630  0.8919487664942887  0.0972071668564685
  0.3926598511729725  0.4291447142332455  0.9407783700057334
  0.6770470830747356  0.0705501623590782  0.8170883244497883
  0.2413849940814752  0.4771248854862113  0.2785875285899260
  0.9840235678090964  0.4712032965301309  0.0748516472408942
  0.5182107983428875  0.1195640850864385  0.5813133808962453
  0.3446755113850453  0.0313705155869444  0.4938332209003197
  0.4717461023444215  0.8520147549575043  0.6433372879466883
  0.8907093233809941  0.8183275537067305  0.7440496601587097
  0.4967468538574982  0.9556819734954841  0.5099253775174259
  0.6476457707790000  0.3413053335582698  0.2951288297165462
  0.0510668583354501  0.6802452206422229  0.7923779962741616
  0.1171754117724828  0.0570786102648273  0.7410949968120566
  0.7820784541747797  0.6472325173962071  0.2407274290617632
  0.6393379145298519  0.2616611533771249  0.1467574543353187
  0.4446591543833003  0.4591383153777500  0.0104134771341357
  0.3861698048527866  0.8925774237071875  0.0007556344027744
  0.4129418184773379  0.0222056780912911  0.5754575002152672
  0.5193956630961251  0.6327202359559092  0.0940089863712091
  0.1402313016488534  0.3175322841659843  0.7570935377082408
  0.4920776723382064  0.4726100308460637  0.9635787527045284
  0.0936698638985521  0.3141053366953511  0.0261332766194810
  0.1569522657055204  0.7252989613982527  0.4061419823621542
  0.7336509360358026  0.6755522541504588  0.4474190602706935
  0.7485196616857809  0.8609768077486084  0.3943839233652352
  0.6442042755115941  0.3088187212745237  0.1891374640865864
  0.3262796234969425  0.1323687684577563  0.8534772508563473
  0.0410356526825102  0.1167629985627434  0.4580216846674817
  0.6484372249178147  0.3218343226473652  0.8764185564478152
  0.6128095404056154  0.2739435399000805  0.8692784875626461
  0.5247573338686625  0.3690363191471097  0.9437187126531524
  0.6885868077906628  0.7641839811382749  0.7886153487836957
  0.9043632775269597  0.6292874514353400  0.6428772838455183
  0.8887642155278811  0.5805850155931426  0.5339934377670650
  0.8319338650007685  0.5549875369955173  0.5120447965606366
  0.5525105076244223  0.9826123989592835  0.5199459209628913
  0.6836575624887797  0.6931546547595014  0.4781572637817835
  0.8654838404997179  0.4021276778440799  0.3477743410192522
  0.9119457279227940  0.8611365849316286  0.6376540689541069
  0.0293203486191568  0.5701300709321212  0.6174904979075111
  0.2464153190831543  0.5245289784407854  0.3219026045405198
  0.4992667286597616  0.0152419826321393  0.2561640192943443
  0.9315952075840125  0.2753781155876068  0.7487806414825522
  0.4966645298605014  0.9835477495424140  0.3838919574126978
  0.5300003481072987  0.3050455374071571  0.7285112238742032
  0.4022827570119569  0.5082156156500940  0.3211492097177541
  0.2359894557251849  0.9095939981846183  0.6627511754314004
  0.6826243367852297  0.1539580179230914  0.6285392975936251
  0.3087850465991504  0.6332346896963917  0.4783099615292736
 -0.0082772626899923  0.1859109452392480  0.6085531211659216
  0.6082461981441799  0.4631545121205721  0.3498238253554851
  0.8497087988850925  0.8144746467290682  0.3869633423153928
  0.5654042956176368  0.5539628786834792  0.0752530405462693
  0.2850115418174226  0.6966927620468766  0.9437515041478971
  0.7818148766871978  0.1810295458214682  0.9365325998797479
  0.0035360162872300  0.2224108438744922  0.7244479024400762
  0.5204921787445813  0.5333484943379438  0.9081128743720276
  0.7199536798106496  0.5240042172208460  0.3691215359361972
  0.9827887557431315  0.5252794162204731  0.3471625887844346
  0.0504787416559732  0.7979529097389398  0.0578560651946448
  0.5752124312676378  0.1572219458767327  0.6498589280788291
  0.8360920709004007  0.6171340237548634  0.0347176357914373
  0.6377239191106118  0.7994832764281116  0.3738247714136647
  0.5991956859202062  0.3815872309815848  0.5613251592947673
  0.7864612924713659  0.6283520973763335  0.5351660082257738
  0.0624659538224583  0.3513564136056872  0.6137973736908918
  0.6752863509073551  0.6274951063818911  0.6988068550190325
  0.8812665502861159  0.5207431371358231  0.0806638146066603
  0.0853338210784086  0.4585639565011934  0.1724609621825029
  0.9588023898737928  0.6114072088391166  0.6870195208267618
  0.4061189636071351  0.1045285047087134  0.5465816341656533
  0.9862763853367511  0.5353349784043745  0.0594080628096361
  0.2452127274476462  0.8991077125616881  0.7259275668717632
  0.8005215867255744  0.8743345468159067  0.2357224536322716
  0.6379931478934658  0.8776954519068673  0.0531187558078446
  0.1601589494686657  0.2271066933103097  0.6654489277090084
  0.5658437578192210  0.8088184555031851  0.8522501783511010
  0.1973595796959279  0.5521999336428856  0.0709934794145244
  0.0291218243644674  0.9905882142243846  0.0205876180030233
  0.5207737907779947  0.1392017517306013  0.1449624277473904
  0.6038698491645988  0.8598092697888040  0.8566209513298999
  0.6926781020242637  0.8151964688417170  0.4463465386014447
  0.4523884296984774  0.4783721006079844  0.3488980795489801
  0.9533652957144826  0.7834488046906759  0.5543245999875206
  0.9006448263421406  0.2325559473710333  0.2482810638772340
  0.1741509869219436  0.3230585271471536  0.3116137933348254
  0.7981287273981308  0.7989267648748074  0.5473363453035386
  0.7743999756299902  0.5388440900872394  0.2112899341821072
  0.9049266583365065  0.8297642136976883  0.4598504583518119
  0.5590592842171088  0.0340912873683977  0.0142781016521343
  0.0770322098490167  0.9843065352076745  0.4697039492555216
  0.2305915263537477  0.6611076780808191  0.8748202717952092
  0.6452615622215124  0.1398493752345294  0.7345541287649578
  0.6518675029813540  0.2915428285273650  0.7693385404056228
  0.7296053843011696  0.1100951483328527  0.1128427890876205
  0.3530673159796795  0.5392325925913595  0.2966755744255644
  0.3790603067460056  0.8972913079302665  0.2574328391334189
  0.3663678463637404  0.3352313900059092  0.8926316277662758
  0.8187557168894593  0.8920242244731559  0.9331322734899898
  0.8809836151873045  0.5542072844098086  0.1874467376619156
  0.3558773615114910  0.5572177892372768  0.4606196192150501
  0.3038193727286717  0.4723286866425910  0.7325861420524844
  0.0968097251471134  0.4021923582384889  0.6108706323800083
  0.4206131860665273  0.7567546495097918  0.2539934686318362
  0.8368544106074776  0.6631877626029615  0.3128693312824503
  0.7797463581601415  0.6443286065387781  0.6268267000446950
  0.9541628394582683  0.3635101432979733  0.5716183954825060