Cr Ni
 1.0000000000000000
    39.5150795804427020    0.0000000000000000    0.0000000000000000
     0.0000000000000000   39.5150795804427020    0.0000000000000000
     0.0000000000000000    0.0000000000000000   39.5150795804427020
 Cr  Ni 
 1596 3725
Direct
 -0.0163271736392279  0.8314027961819361  0.9595266314892057
  0.5590613657518864  0.2060234748101058  0.8480714254478321
  0.3083158053871022  0.8167567186338645  0.3583974361677460
  0.3054126111741818  0.8603831639646752  0.4043078387550624
  0.5793566034068033  0.2984799663947698  0.9048725439773393
  0.6187639993571410  0.3298761034887701  0.9682331533757363
  0.2592724610802362  0.8927410836669898  0.3761724016509585
  0.2588850550070377  0.9401303453388964  0.4234257157325547
  0.8697336816797638  0.0313045269421741  0.2907321663264731
  0.4244898502214863  0.0879920604050657  0.7111583575616172
  0.4356582242769841  0.0751420106706286  0.7754641138869507
  0.4763505112911545  0.1240209722032404  0.7829554855099412
  0.5226975308562958  0.1588665313101110  0.8443389060510167
  0.4633121132886592  0.1660744045512321  0.8324931234980896
  0.4715151177498995  0.1513810902366863  0.8947848371072317
  0.8285316439666597  0.1294676400418844  0.2436088201482013
  0.5057533195078724  0.1992012067200979  0.8864524776322689
  0.5052411042940081  0.1802071328200260  0.9459314876067109
  0.7792545341608298  0.1910698014580960  0.3224057885404340
  0.8298696381840014  0.1738105608181886  0.2868819781426389
  0.4057953508710920  0.0095662496428710  0.8371906385742270
  0.3864503969995796  0.0688397884349112  0.8189117014541555
  0.6811474291792508  0.2986063413985955  0.3142796035172211
  0.4625371936533354  0.0015966331762713  0.8595051009038948
  0.4338525425589576  0.1065590852031097  0.8827664408862996
  0.6367068679687873  0.3762369019361618  0.3276896778472537
  0.6427944076961465  0.4352625536498833  0.3087948216581598
  0.8336993453656258  0.9134467397032818  0.5073462941657595
  0.8776398925870592  0.9542397427907888  0.5102353861458938
  0.8239636135809104  0.9636198154853804  0.5368345891317416
  0.3599321027820995  0.7867744533463605  0.3813348279505599
  0.5436981946818829  0.5771812581322968  0.4010887907765326
  0.3581422843450943  0.7419628508173158  0.3349279557180349
  0.5013473105072572  0.1857394374361682  0.7249287376314157
  0.3586120332697409  0.7577672786828163  0.2733113748579412
  0.3081293478515318  0.7867969695768183  0.2480235840514576
  0.5563699677850431  0.3203590503558796  0.6116724379254013
  0.4999496008070900  0.3273191858464083  0.5878828748203250
  0.2594393614716474  0.8477780005938914  0.3319796257576146
  0.6048172553264902  0.3524692392447953  0.6797987192073008
  0.5445070166878271  0.3612645052003231  0.6579839241738645
  0.2081212479731269  0.8784916003165623  0.3064325198437651
  0.2625083000034316  0.9075803211121352  0.3157855189488590
  0.6612951214873946  0.3706359041337095  0.8106405904546576
  0.6985809324716644  0.4195134107890567  0.8168658925196233
  0.8177497200078587  0.0380601200230345  0.1524845754151208
  0.6923276058994277  0.4458805963936238  0.9243708529148383
  0.3608716285121537  0.2048106924975197  0.5102388568762999
  0.4401959400084205  0.1650153731718566  0.5956700295072562
  0.7270986277302888  0.1916169808576667  0.1889011182187452
  0.4211942407907253  0.2267291147324551  0.5792126947127976
  0.4657872476384965  0.2604001487627838  0.6466776795632144
  0.6802719316847837  0.2664160755310834  0.2090405100171151
  0.5842716881710321  0.2724575258680546  0.7970335125525446
  0.5626144365794465  0.3286213118794057  0.7834471878861038
  0.6733897915967331  0.3383071016780100  0.9415117087479332
  0.6526503512764639  0.3969660643068447  0.9193892250793412
  0.3549828140948267  0.0818037869919635  0.5192325993823711
  0.4059552718869069  0.1161346707764310  0.5914876207711801
  0.4136291498380210  0.1019562269502237  0.6509788395201322
  0.4498531411864039  0.1482902621262476  0.6550246100338517
  0.5017091885638447  0.6221224660717154  0.3070360240589974
  0.4529873661236877  0.6513316648584674  0.2813260316597769
  0.5120836717468115  0.1723263593745284  0.7860492403425714
  0.4519376063895911  0.2885787003303492  0.5263030026068720
  0.8585672164331972  0.9245469787868293  0.5761067269165316
  0.8055995890634140  0.8992871665198799  0.6229799643598488
  0.6279759598682106  0.5865043279740944  0.6071284609557307
  0.6651316853833628  0.6336338816142950  0.6179566183522431
  0.5999320027449845  0.5951011731208383  0.4753856809250575
  0.6534736787859153  0.6760024815813021  0.6633373555957061
  0.6587627659482880  0.6594738555524425  0.7223980329879131
  0.6960335745411966  0.7091948819731501  0.7259140018615550
  0.5478010461258253  0.6233321847467873  0.4488567948122530
  0.7656196770908843  0.6878978163206283  0.8105177124879800
  0.7432364886966301  0.7460622350606856  0.7952542367050900
  0.5665776211097608  0.6797460304277344  0.4203190992661365
  0.5208095196505633  0.7583607435143873  0.4433966685179997
  0.7965884275886536  0.7682071324996480  0.9167630307828373
  0.8464489091923535  0.7617474124043055  0.9476561474360128
  0.4783913012100570  0.7757721553303081  0.4808481401841392
  0.4130879894822326  0.9050702583844544  0.4904508397195211
  0.9842088069817799  0.0856090945542455  0.3701292831694885
  0.9877795869518117  0.1308750979017385  0.4115769377155947
  0.5964371199770286  0.5189587891473090  0.6622724629774295
  0.8840937033910478  0.1736929236035709  0.4192822879469499
  0.5857331429098936  0.5607540408101384  0.7088941923012271
  0.8863914352093840  0.2354552131499590  0.4069711291041878
  0.6222413776360346  0.6101827639463755  0.7187158731814631
  0.6296199630889081  0.5950998304462537  0.7781672234236763
  0.7298202827554158  0.6357745011449034  0.8042493368851792
  0.8374792730037968  0.3087652287202067  0.4869523816871120
  0.8876257204778808  0.2838327929553545  0.4530244114537728
  0.7880340400018632  0.3381612144824665  0.4609124075415768
  0.7176150352652628  0.6684423353208395  0.9113336911241522
  0.8059655153027653  0.4417112406777756  0.4796201925358022
  0.5594524078413915  0.6057664471457255  0.5163042781605108
  0.7990382471393878  0.9136987426893600  0.5651523932922742
  0.5760839536537889  0.5537705669868365  0.5415644384273687
  0.6926282683898979  0.4400706805458019  0.4449869766159804
  0.9092278147099264  0.9393159613250990  0.6519765164145674
  0.8482954769928109  0.9507041584206938  0.6400497274723970
  0.9687088071868609  0.9531628167026291  0.7405469542143032
  0.8832358165709664  0.9576524295919655  0.7674099689257328
  0.4708223957603809  0.7236194123906309  0.4408636444992334
  0.6671465152244084  0.7593262862792609  0.5492153164008819
  0.7689596974338386  0.8013566828564862  0.5730888976140422
  0.4668077683229014  0.7843853987934943  0.4200780797925688
  0.7598131598020126  0.8450504153109627  0.6164252877862766
  0.3590795452411876  0.8974546716165285  0.4669484916829828
  0.8137977211705945  0.8797822917904560  0.6824535285820582
  0.3063947851553691  0.9097587193122477  0.4427185191630515
  0.8605638227538226  0.9028131158469632  0.8163494899760879
  0.3192944057226969  0.9680394021162381  0.4490205820251522
  0.9360748860642127  0.9710721524383467  0.8720333460655665
  0.9194316264562034  0.0115755004110064  0.3225969551343565
  0.9651048890830273  0.9652523184418553  0.9285791949127578
  0.9237291922190530  0.0519957001263641  0.3623022554411418
  0.8750530389399431  0.0774273132176941  0.3304704529321468
  0.6329397123723491  0.7068973302611845  0.5465813722343795
  0.8803879010443054  0.1429784361505074  0.3112372218557285
  0.8322686600225705  0.2060800521853085  0.3949262495521966
  0.6905085399222667  0.7255653728085878  0.6682516965656863
  0.7487115957054564  0.7180601680361915  0.6890993570809709
  0.7868078378859185  0.7669750811921990  0.6961345492255022
  0.7333486581623304  0.7582303840729079  0.7340129514370640
  0.7716245323471174  0.8058055651191772  0.7402164146251232
  0.8223878238703065  0.8277908761602749  0.8713888669348149
  0.7419970218697189  0.3772956713248626  0.3662190050044676
  0.5202868440333130  0.5545614385071579  0.5150177986840194
  0.7678844328848559  0.6884940768481665  0.9802386655854534
  0.5088960302761018  0.2871981152743125  0.5405444441778632
  0.4120729667128797  0.2420403479400026  0.5193176687871160
  0.4054139884264468  0.0019642896364843  0.6265971970903701
  0.4325482622273906  0.0424710418682370  0.6684676201723764
  0.4634327365745544  0.2938915684843176  0.0016865017670373
  0.4253958667851364  0.3136178810043632  0.0480041830199691
  0.5465838407710774  0.0710649995004866  0.7556310935824526
  0.4320075282486920  0.3568096275690215  0.0873684540780895
  0.4972720702329470  0.0659159619599121  0.7980406694597465
  0.4857840718081844  0.3347037272824038  0.0481142648975490
  0.3862368215054117  0.3757556384131958  0.0525280464566181
  0.3868536465573631  0.4270567172808188  0.0962282744408110
  0.6416263331324110  0.1340136108543473  0.8911415490301793
  0.6508642240311924  0.1240590944769188  0.9494828552209595
  0.3908489938121803  0.4882744448895878  0.0846052160565654
  0.5136605187243057  0.0100680288923980  0.8217676106990243
  0.5721251636796520  0.0061491175326849  0.8531077446179940
  0.5173780837409435 -0.0011822843674685  0.8854086959886267
  0.5184063752186733  0.0221568833967541  0.9411888732720236
  0.5536570955677786  0.0571530240307411  0.9093551399772150
  0.3432968500507055  0.5748412163162762  0.0990641875162978
  0.4924504128256743 -0.0093639861284252  0.9890378577849854
  0.9987299536996568  0.9787087047999601  0.4884359207393648
  0.9489790603524695  0.9440583517375967  0.4947423239138696
  0.9580654562180339  0.9071932496154804  0.5555296473883254
  0.9879135998204797  0.9611751159048320  0.5502466603274129
  0.9217146822914486  0.9540355603265626  0.5518626841390338
  0.9574173518682753  0.9506540597967020  0.6024011485664854
  0.8353185486029404  0.7606309513506241  0.4939415553952037
  0.9245282154076047  0.8498130366690015  0.5547328818466138
  0.8724823967071869  0.8491651371956451  0.5963403141698800
  0.4690125642404911 -0.0058370094629676  0.6486127089959343
  0.9133452332404173  0.9026814724915146  0.5987097715349181
  0.7601394759464533  0.2761418319261948  0.9657552509515487
  0.5057772914088002  0.2229771775859359 -0.0086300936195906
  0.4486313328205952  0.2415263790977925 -0.0287455524783241
  0.5005519929094630  0.0535078067747065  0.5034418919273067
  0.4994780088084015  0.1164411956068143  0.5029104711042496
  0.5101026303743339  0.1135464761809164  0.5690190698202213
  0.2859710129319792  0.4924138509927035  0.0476935847415706
  0.5641045584136662  0.1506007769231040  0.6360130319333583
  0.5417348846143607  0.2088146417280299  0.6223794482764382
  0.5508631919830954  0.1939625746067184  0.6816401770714764
  0.2368553039534005  0.5190573664665520  0.0234364993022820
  0.5861228472945740  0.2442395741103934  0.6876437402167890
  0.6607424823229496  0.2205523092628948  0.7729092622447794
  0.6961302420888682  0.2697071539254376  0.7769808573772321
  0.2519692180270998  0.5718439033113420 -0.0017763459753973
  0.1912568069686950  0.5995275603824217  0.0246399637304106
  0.1441509459238303  0.7505119604121363  0.0277842355600100
  0.8646131127494074  0.4153209530290862  0.9881955119948677
  0.1471288188219603  0.7904925022436299  0.0769426303263495
  0.4784722822787556  0.0611099588484888  0.5563695993261809
  0.0562994415300198  0.8937058490943289  0.0669390585636112
  0.0092223305437412  0.9550489452606979  0.1466742778042004
  0.4628943908274634  0.1084787906305876  0.6082138148225473
  0.4706956656306608  0.0929867514620584  0.6714104586673586
  0.5346135600349476  0.0825258600521469  0.6913391362145230
  0.5725380197293041  0.1347747769362624  0.6968689733469962
  0.6045092898681884  0.0578522081229631  0.0175545157082358
  0.7022512861868104  0.0065106674460394  0.0108858539819582
  0.5717484747442336  0.1644490747067242  0.8070160482095519
  0.5686243196588427  0.1948863633364005  0.0229384434376283
  0.7131334065053316  0.2387032122195695  0.8970017631766982
  0.6598708014350793  0.2311851704381444  0.9368015931992812
  0.4715544818400811  0.2334375779917051  0.5422440950500305
  0.2504543112737352  0.7238625994691819  0.1302481520768684
  0.1978024997779299  0.8029059072546538  0.1514072461686551
  0.2558001815399746  0.8172014495192617  0.2217930574612751
  0.1594323943041419  0.9245332474128457  0.2116281147385022
  0.1100408145654023  0.9420015087297011  0.2486422403565841
  0.7610203962727111  0.0105685750712468  0.1448561943209321
  0.5992101163072385  0.4998304408874982  0.5558131724669390
  0.6720590409115764  0.4692437832376197  0.6370096665814969
  0.7078766815554883  0.5179426545988031  0.6448002998190691
  0.6737308183239233  0.1783936202005170  0.1184780532503733
  0.7493545937484654  0.5782106728255880  0.8230297187900723
  0.8060260444288658  0.5700898380035738  0.8435746247408897
  0.6779372627788437  0.2211215669988189  0.1639758050216225
  0.9428332481197448  0.6960939132634653  0.9867552577955111
  0.5358800995597148  0.3890079945261004  0.2279160399686768
  0.5853032307276465  0.3747707381747997  0.1953090960977622
  0.5255413657429974  0.3964743703288802  0.5362005844029768
  0.5418431349194066  0.4487520063580643  0.2088712099821328
  0.4420814741445592  0.5427406601680634  0.2585076836189163
  0.6432513255605121  0.4020012953524851  0.6864246289668857
  0.6775542063936640  0.4518605072671424  0.6960957570153973
  0.4468295837767843  0.5566501081886117  0.1956820797061389
  0.6290549659756344  0.4445452785514368  0.7345931200455770
  0.3958684851583100  0.6198802981147227  0.2737870497281965
  0.6764417825691528  0.4776010059959501  0.8039709195861618
  0.7341148735342887  0.4684076286720000  0.8238037278077893
  0.3484359037203953  0.6491315250983731  0.2445508195420329
  0.4028163341531401  0.6812073522500528  0.2525674319907580
  0.7550925908063341  0.5629536968783602  0.8855841909937344
  0.8315244575737081  0.5432331844511792  0.9709068456083220
  0.8044946516479768  0.5983103584354641  0.9524564910924996
  0.8628931253427228  0.7148975647093849  0.9020271736017398
  0.1469169955753256  0.7738547811953869  0.1376197172007626
  0.2015859182346610  0.7872019044798495  0.2109546363845666
  0.8749336988928600  0.6859591610176219  0.7961946501157127
  0.1490121249443807  0.8327475160591887  0.1239574811869218
  0.8423109854772448  0.7490838653644801  0.5537030129714409
  0.7853555261381941  0.7609457893362074  0.5333283706386548
  0.1526327989957455  0.8811458840818879  0.1691426486277064
  0.1076926666068807  0.9082617874646102  0.1391937064161314
  0.1159246608289012  0.9510278829321831  0.1807337471955837
  0.8774750085927390  0.8293522254572095  0.6642691846951576
  0.8864103030492769  0.8105268962702522  0.7272780949361459
  0.7042833377717906 -0.0057610693351241  0.0726329592094040
  0.6610305652198837  0.0870123700246512  0.0177352009780430
  0.9618831202398989  0.9169074750942084  0.8812786390109314
  0.7207828412465359  0.6040856564150406  0.5281086703702368
  0.6970543592168288  0.6614660998303898  0.5132596421594900
  0.5709660255193622  0.2442409218186159  0.0647244735081781
  0.4806355995257102  0.3716279532331134  0.1557151324025143
  0.9489065421087234  0.7884143479018655  0.8167575808768081
  0.8918846896509192  0.7961671039113076  0.7885775707097943
  0.4347405409702870  0.4001174066359573  0.1284335759646142
  0.9575754749391967  0.7667613911735718  0.8785448744650665
  0.9425547231852883  0.8048462990006193  0.9228212592875781
  0.9766715107307412  0.8520992379196101  0.9001023888278261
  0.5944929278775136  0.5344857225588386  0.4934698460715741
  0.4432398868611496  0.5117233701913340  0.1535888436672617
  0.6777419799486408  0.5932873030753697  0.5680057545375562
  0.3389902980799836  0.5579932449639878  0.1600524202608307
  0.3421715110685076  0.6030238989730510  0.2047539865058390
  0.8298500873052267  0.6517736533515858  0.7281685366421207
  0.3520245795199180  0.6664819311775599  0.1851643115366892
  0.2479408307153498  0.7078260804537984  0.1900423017058986
  0.8175232475474095  0.6929101570068807  0.7739058357254599
  0.8238473655526625  0.3883804581249029  0.9287949795238697
  0.4193105993138743  0.3938765274240228  0.5540101605142237
  0.5229258961909157  0.4199288729200570  0.6454507422875793
  0.8859641797515933  0.1727193013641007  0.1920276271271465
  0.2708829407948137  0.3393881061181230  0.5643136806250557
  0.3273236014417534  0.3344321688622543  0.5884179479920839
  0.3147917211462701  0.3731395409996802  0.6315799432830527
  0.4118157598347907  0.4190658805176521  0.6631653918045518
  0.7438507675079753  0.3914949993681192  0.3058288518696903
  0.3982775555796719  0.4604800425338035  0.7075131705029932
  0.7442262529955775  0.4058973791616858  0.2439298210966730
  0.6935541366566123  0.4216407814754661  0.2771189234403312
  0.5060367555066024  0.4853927316442634  0.7974157570213797
  0.6468649055901061  0.4953544867662118  0.2898611647173723
  0.6488021506169009  0.5424705264549295  0.3308506219050272
  0.5952161732068638  0.5538399475260567  0.9503708899324267
  0.5364049079684821  0.5627173704489917  0.9237793403004027
  0.6031229935419655  0.5719844880319023  0.3024756879546465
  0.5707777619933069  0.5999817019013419  0.9882718592406244
  0.6581260351925641  0.6029797581792299  0.3115497895908931
  0.5643567647972122  0.6951169333006474  0.3618214345702631
  0.3388862651649255  0.3167382163160730  0.6471806439213511
  0.3323939678654058  0.3450644121672793  0.7565351171949006
  0.4176824104550265  0.8826425820348459  0.3785461769580446
  0.4197347605423239  0.9415232766547040  0.3669368024164300
  0.4158921619207814  0.4279916276465756  0.8290731535021367
  0.4235982452712551  0.4162714575568143  0.8899003403811007
  0.9871948774367728  0.0947062677867584  0.3095400059566724
  0.5383302120342041  0.4425221962401274  0.9806965464174934
  0.9354129893049472  0.1748202439556344  0.3234313013488914
  0.1571351918151875  0.1851142871368981  0.5498625104625636
  0.1684125273324347  0.1701272709878885  0.6048372404984904
  0.5650940441504817  0.6134737047982606  0.9290300670497826
  0.9402782217876746  0.2374230047190186  0.3086787678780301
  0.9291724980151782  0.0956277777344553  0.1731968795739776
  0.5808668731932073  0.5879622797766878  0.8181515076024379
  0.7819773144190544  0.2360842766860709  0.1410154489172421
  0.6669907712797627  0.7979422090787089  0.8172297197275096
  0.7883084203849456  0.2831950832185764  0.1861745719785515
  0.6943754685230766  0.3885299747945106  0.1714666363790936
  0.7991440795642513  0.8576113185390233  0.9867764690033989
  0.3670452827725471  0.5049360796920391  0.5277366235110508
  0.6457108896907318  0.4531290175523376  0.2474266744115767
  0.4697497792729874  0.5537488967800636  0.5542891132146044
  0.4077124455756391  0.5563107754305838  0.5321688845193153
  0.6974392263254280  0.4360698127021835  0.2136948249653084
  0.5964623278387562  0.4814853455819834  0.2187065310860568
  0.6014934433402919  0.5253612434254249  0.2604402552702775
  0.6525688866315545  0.5098598212715310  0.2274753293739153
  0.5731013357609280  0.6021030724137729  0.7572087917916653
  0.6090584038611265  0.6524607554198792  0.7642943909589592
  0.6169194794312465  0.6381671148982025  0.8224239047350945
  0.6509190187709207  0.6881302739847147  0.8258875263485357
  0.5939149475350262  0.6960177103900657  0.8052567539372459
  0.6034734101629095  0.6823475874841908  0.8663300780436408
  0.6606727077684236  0.6749487532274571  0.8855845181649654
  0.5089034727074113  0.6808011049284833  0.2900497207503135
  0.7089517371313243  0.7131743597981127  0.9553466236131126
  0.5150143269231553  0.7413185371298786  0.2748817978211980
  0.4117739084666935  0.7896092258662309  0.2855948306688461
  0.4164903282970799  0.8356434810365775  0.3313094059865073
  0.3899987071351059  0.4759934761883544  0.6493642258163528
  0.4343149962522000  0.5101483561580287  0.7144231223364327
  0.4731956264008959  0.5585435723166818  0.7233271257402346
  1.0182760544119116 -0.0007358968160895  0.1837226937294824
  0.5253020365084226  0.5786474464210136  0.8622864718312431
  0.6830877528658800  0.7540191994996096  0.7723662266675638
  0.8910989119381688  0.2688508564981945  0.2838914084849032
  0.8379259685116280  0.2848558356495295  0.3173662399362885
  0.2100721105013119  0.0984608483278148  0.9200619084446802
  0.2228487127424606  0.0395277395670702  0.9415519053226480
  0.8006041028228241  0.5652479071537769  0.4458472957034869
  0.6888455601788104  0.6135628696567806  0.4701993010792059
  0.5733447855967038  0.8755380612687430  0.4838226546976711
  0.6165808928400573  0.9358341140658106  0.5667071462877086
  0.6416085240767933  0.9683267327239624  0.5213900114094450
  0.6719955603781614  0.6767635138492628  0.4596488175437549
  0.7253581429934576  0.7048605573476228  0.4666852998266774
  0.4809792125065571  0.8188073263554344  0.5249211909776466
  0.5866070603879454  0.8685715976925046  0.5476191607835458
  0.5522980662937597  0.9264014214019300  0.4603684381720547
  0.9411661533156310  0.3119712345169197  0.4663571133614662
  0.9504939572079393  0.3734421521611271  0.4529742425291450
  0.8909367181714455  0.4136956644046485  0.4846166490680958
  0.5763745726161411  0.9001997036619743  0.6578775897685433
  0.9498471461253705  0.4299754169989697  0.4665349864538124
  0.7970510371009788  0.6118472485020681  0.4942217468549191
  0.6681564328843462  0.9157856738040907  0.7365683740005786
  0.6592200487803590  0.9574678583185484  0.7810133266262583
  0.7210760953806928  0.9519772676005707  0.8072389336624561
  0.5440879154107681  0.4935811354903971  0.0242504353231969
  0.4376508012919168  0.7723690369893936  0.5224013001147489
  0.4967861552810443  0.7453853591269333 -0.0090878696603104
  0.5105923789990366  0.7496975799205123  0.6067719711417169
  0.5479066667501038  0.8026963665921399  0.6099520105369395
  0.3752826668755692  0.7298028084245478  0.0046197307053279
  0.3577746260980402  0.7720849652833766  0.0363301973374214
  0.5369110833397592  0.8481884577025797  0.6505930069904405
  0.7506550566454405  0.5317478168873683  0.4353674290765679
  0.2107638520848076  0.2050641419023485  0.6738212790178379
  0.2202456777126313  0.0579842707776356  0.8772304000452681
  0.9035802293916541  0.4071279284436009  0.4194756618949642
  0.8410479823285222  0.3296422174461133  0.3617800846933396
  0.7924280061534560  0.3606596591266440  0.3344571832688593
  0.7479984295140024  0.4376193100254790  0.3478736786985094
  0.8013552530777469  0.4709005915346727  0.3565342982040489
  0.3891216959729634  0.3681693608314953  0.8811994462862804
  0.7541460175586647  0.5509923319354605  0.3765352448727278
  0.4326286022125357  0.4012462086429772  0.9474340046471252
  0.1384658482492609  0.0197556625591073  0.5601976714920588
  0.1003211778838079  0.0531837391600942  0.5151939127233974
  0.1375601949808639  0.1021014234917499  0.6553597685247760
  0.1970774658340798  0.0958167309062850  0.6822330763100242
  0.5732559590894997  0.7896459428114571  0.4508682511283794
  0.5723322159466955  0.8043189640396040  0.3910634521833679
  0.2324546823552420  0.1817646191931081  0.7992015063480656
  0.2907412943107909  0.1736637574430265  0.8202976949336915
  0.5135920536374285  0.8839415843254202  0.4632624916451789
  0.5757035902746374  0.8494961710190864  0.4335213499329206
  0.9886679241268118  0.1440862984377554  0.3510867679614147
  0.3539167339709708  0.3027337121639086  0.9572490158675231
  0.1557082724645385  0.0012933411383726  0.6248672121352469
  0.9909191287122263  0.1904235261426585  0.3965391112908130
  0.1595140691784893  0.0464253218525299  0.6722623923685462
  0.2073315321114778  0.0864269529944113  0.7482092235698139
  0.1514143268858687  0.0873791745062052  0.7179150796617473
  0.8907650034174383  0.2978318099101697  0.3922630340253573
  0.2018517011682837  0.1150243628186812  0.8592329829294092
  0.2580954350797041  0.1081465144554103  0.8827677668953106
  0.2428917844686556  0.1497863417306001  0.9218319118057862
  0.3405776279450151  0.1976179037761990  0.9503814147019636
  0.1890665168442920  0.0203218422245954  0.8227490197984814
  0.4626130120228026  0.4274146471276897  0.6255071124148741
  0.6446027007108120  0.7021080668002316  0.7676035344111328
  0.5751666600838803  0.7256866500620620  0.6866182647739383
  0.2526217657784115  0.7428113327106466  0.0703766016608899
  0.3964802267331658  0.3087925038541222  0.6696206043266563
  0.4064133919249644  0.2959759965517740  0.7311551339501476
  0.4645946820770442  0.2878806196508273  0.7524957218487801
  0.2495900188479989  0.8068163301159937  0.0552014018697315
  0.4439514678925855  0.3435002935545590  0.7377581345218973
  0.1982023320965030  0.8214098849513941  0.0906813103406431
  0.4903308335353080  0.3782445987564279  0.8058414174069217
  0.2052551564729923  0.8840660386121352  0.0660350143328716
  0.5958568815830227  0.4057520607794436  0.8929429356169147
  0.5382530953976707  0.4137814885677497  0.8744812681802980
  0.1648898806613621  0.9376957670641731  0.1477148799354300
  0.2170073048648613  0.9201548313646160  0.1132176240959932
  0.2924483548671222  0.1289452686670227  0.5487112137709748
  0.7154754341173184  0.1180371375082648  0.0354033105931365
  0.2961121504110653  0.1144924423096868  0.6085134694644896
  0.3212720465146635  0.2082025159016414  0.6590259740886922
  0.3897693891374163  0.1879509554485068  0.7432274307831166
  0.3777460685135580  0.2308586949387682  0.7872641703714786
  0.6520088024004507  0.2732544925991436 -0.0201454568911750
  0.4836598657018943  0.2576654020917465  0.8727495220932032
  0.5473682546213452  0.4337864730634129  0.0403157686690392
  0.5042148279348416  0.3505441233482358  0.9300475860557268
  0.4953996906038694  0.4489679492226745  0.0761542023373197
  0.1549986007110394  0.0419449263022460  0.4985667788390906
  0.2523752420036363  0.0075487097949017  0.6176357043324574
  0.5478467534300235  0.4773923841378934  0.0833780663694508
  0.4452295800636666  0.5238261825537924  0.0928239695201481
  0.4497409913444072  0.5704396900603153  0.1336559967662229
  0.3499797642019977  0.2750318089400274  0.6048023697328362
  0.4558844709866915  0.5872216577246936  0.0736003499476136
  0.3072360684135093  0.7347994196231654  0.0352333847801056
  0.6578322920158886  0.5448422976746304  0.9702485333496694
  0.5593967848079164  0.4707304633697509  0.6539364111537741
  0.4639656841103059  0.1598412158583619  0.3342249865371928
  0.6057088565028967  0.5014036197912529  0.7206717155604812
  0.5477407324650372  0.5124325991091656  0.6982936602767137
  0.6163143527127019  0.4852060624757125  0.7813175995225250
  0.3038761855654623  0.6154990262877421  0.0037776029351738
  0.2562777447420853  0.7019867349265415  0.0247137623469610
  0.6610653128405706  0.5199969877201360  0.8524228814456242
  0.6972305119423378  0.5680819223339987  0.8665396402322944
  0.6391244082151497  0.5768431567791938  0.8422465663189418
  0.2030759009521369  0.7267513642426725  0.0017385560580271
  0.7072572728176180  0.5545823377412594  0.9298502650285599
  0.6859545150270924  0.6159650529583955  0.9055581884483699
  0.7224896177955470  0.6528501551611747  0.9681094555956110
  0.1486568423703166  0.8500950873680804  0.0628550982614336
  0.0978713462377877  0.8772306333432904  0.0213839472839432
  0.3823590736655951  0.3479914730542504  0.5417214834778828
  0.5633959862405280  0.2496818853836964  0.0091228299348554
  0.5551554675108308  0.3149816066138092  0.0210707537290493
  0.4424305296510903  0.4759933356228858  0.0526427738651086
  0.5782675986187321  0.4385256892384208  0.7724746351957734
  0.5182926056604996  0.4435991098232090  0.7548302574833160
  0.5629635956593380  0.4780920259633861  0.8184560565108252
  0.4050906656990846  0.5697517464645639  0.0006571669629982
  0.6728371879327740  0.5081794344988577  0.9115685295463671
  0.6121164144765114  0.5171615659721956  0.8906079088506075
  0.3517129443495679  0.5906907400162866  0.0377003779115072
  0.7025041589260241  0.4285180814716597  0.9840387384837328
  0.3509060075739719  0.6363323092557180  0.0788129090855659
  0.3639513085652037  0.2357724483992950  0.5603483171687721
  0.5853666535795928  0.7104716147321435  0.7470880612391856
  0.4052568867898385  0.6688712118265360  0.0880306406904358
  0.3620956575218274  0.1241149216988122  0.8005386670066216
  0.6485408826827871  0.8120821172871256  0.5305427501278932
  0.6894201198827559  0.3445072199997334  0.1283741515454198
  0.7007938298204933  0.8566145496791716  0.5973450924069048
  0.6527627744354007  0.8477033489053721  0.6370564888331927
  0.7095946148869041  0.8396560502384629  0.6571872132159069
  0.5909918130450222  0.4344065082657333  0.1765880717824251
  0.6876701410866444  0.8684298904859812  0.7037722850766135
  0.7867667687516282  0.9117212682800859  0.7267276510055194
  0.5482545476104194  0.5093305195007959  0.1903541882270549
  0.7954061070735792  0.9036697476902658  0.7931998208222326
  0.7779531563003294  0.9479950726152256  0.8346463630432626
  0.4979147927514977  0.5407062652322596  0.1614813535898303
  0.5297228252429224  0.6567524469536228  0.5200035827012481
  0.5520561221456914  0.5709061105841597  0.1702096825273182
  0.4044963497220718  0.6967031806563396  0.1923190853386316
  0.4085367192392356  0.7435127910876842  0.2385202391675495
  0.3629584233695977  0.8176527247588327  0.2597250496769139
  0.7116850102327216  0.8154524949642616  0.7198890030895142
  0.6598055440614805  0.8101394332819279  0.7568074823323377
  0.3164482945913600  0.9083007893355306  0.2160371643031031
  0.7420705975747316  0.8978863036617423  0.8298612522990919
  0.7461175813034766  0.8847406439106905  0.8911431726890734
  0.3221959294178720  0.9508478403629765  0.2573987789837415
  0.7837217069350854  0.9322037784163871  0.8971666265214464