Cr H  Ni
 1.0000000000000000
    21.2577523694834056    0.0000000000000000    0.0000000000000000
     0.0000000000000000   21.2577523694834056    0.0000000000000000
     0.0000000000000000    0.0000000000000000   21.2577523694834056
 Cr  H   Ni 
 259 173 605
Direct
 -0.0066648007861679  0.1668484038614197 -0.0068554557734595
  0.8289720023925593  0.6603778467104711  0.3286180634520003
  0.4931367058047516  0.5789256726799274  0.0801934698182234
  0.6580107907484294  0.4958311713678750  0.8299721962045907
  0.6556698050370066  0.5812415961166765  0.2430982180988197
  0.7376706254392191  0.3320930574163975  0.0799682409855271
  0.4896375965985147 -0.0056227004643449 -0.0028172159584504
  0.6628470086677887  0.7492597713355046  0.7440838467233257
  0.7459196605866508 -0.0016053512270124  0.7488287484017522
  0.5770613903817540  0.4153255301197236  0.3292500169425983
  0.6599154920611199  0.1648266337517891  0.3313492692697139
  0.7470533519891884  0.6625180251756320  0.7477576376309164
  0.6585851059132212  0.5735952277099662  0.5822294009151731
  0.8274393849117245  0.4928031024488123  0.6644766746027294
  0.6619980208997037  0.7496785916547115  0.5855266823957177
  0.6541554326486402  0.6673121067634084 -0.0026014925133788
  0.5772207567476588  0.5784775368349981  0.1651900677085164
  0.5797831049987051  0.0848877940347717 -0.0048550743483154
  0.9064977761868832  0.3290491949447698  0.9141776550700581
  0.6592027690381527  0.1667479445995697  0.6667629947740071
  0.6590882801088299  0.3264670080585984  0.6630963370579200
  0.7419717135162105  0.3277130965845652  0.9124081508731604
  0.5770731037950867  0.9174180220899519  0.4938649768656892
  0.7449148011935988  0.4118922321426842  0.4985623664346356
  0.7410365738815056  0.1669372189106418  0.4131552565647769
  0.9134126834605184  0.3281314096298212  0.0792625754159880
  0.5766967001647259  0.7481491889932383  0.8303848748040725
  0.6590081249604620  0.2520262397375338  0.9139155525396099
  0.6617342383713097  0.8302160032508619  0.6638093490323898
  0.5751288448075155  0.4094966467471727  0.6639957034398793
  0.5793628378015955  0.7466686826640455 -0.0049265005839735
  0.4910601878071340  0.5794466758514810  0.5796624526613743
 -0.0072787451130398  0.7456261254961981  0.9119507226728359
  0.8247363772536018  0.5809464135049894  0.4113874436086882
 -0.0066527932947974  0.0840280104481252  0.2487388684992118
  0.5761020920893003  0.4128345908841995 -0.0046175643503079
  0.2466300775810011  0.2493156103689983  0.8290651966044505
  0.5725077279295916 -0.0037589253702581  0.7476284805149563
 -0.0062489209829916  0.7468340517438419  0.0795938265079696
  0.8221691176544613 -0.0006722236123506  0.1626054600678128
  0.2403774220395050  0.1657730786846785  0.2459747806667305
  0.6587353780012286  0.0792831918761151  0.9109489087232874
  0.2423597610548841  0.6615371759842698  0.2464213560135662
  0.4923909235107385  0.8287136932262412  0.6634588654554606
  0.5728741283404777  0.7455145989532062  0.1630428102845176
  0.5764577787369820  0.9147366833810154  0.1613056393080088
  0.7489853245823109  0.7420971210225445  0.1639878260231244
  0.6632738380535161  0.8263510093359757  0.3293411854138329
  0.7426786329188944  0.9177529950966179  0.1649745163075216
  0.5735553429549921  0.6606171885147174  0.7440462608011783
  0.9130714536072179  0.6603332676677011  0.5774007574422653
  0.6628393971192226  0.6657093507185720  0.3287385649431367
 -0.0038478981537448  0.5773842523862966  0.2462810420309689
  0.4917827655053670  0.7520278689504716  0.4117833941820865
  0.8277248662886616  0.5774787554300308  0.7512803323267686
  0.8311055641379066  0.5802608043140207  0.2468513637228182
  0.2410885571805008  0.3310560657805612  0.0792372327608737
  0.6617166188148813  0.4990720277041987  0.6626110003634131
  0.8295318642202925 -0.0003829123721447  0.4978869314244971
  0.8303022626360856  0.5001011284184358  0.3272128418731141
  0.6599445460397221  0.0018457213291016  0.3306458815219767
  0.8256835746418197  0.4983748697357306 -0.0049827787396747
  0.8297619318064363 -0.0003969399970212 -0.0039859445980084
 -0.0049434330523704 -0.0011945902745588  0.3301785682915200
  0.4903606611736305  0.9104248159851687  0.9125845182464732
  0.0735539884653714  0.8261133689981851  0.9108108086302692
 -0.0053469052586005  0.4974931630036959  0.6650752673079425
  0.2444943757051266  0.9142430140778646  0.4987233165842373
 -0.0057735676801814  0.7443174850290771  0.4108850398275759
  0.0760456216851527  0.2444739726186254  0.1653463491815578
  0.0759428913579354  0.7485352951901681  0.1617592043868339
  0.8299794059382344  0.8292753554801147  0.6622453454384087
  0.2430804877286994  0.5788733268715107  0.6637488114460858
 -0.0021575845474131  0.5765174820832982  0.4149373595462144
  0.0759230063165379  0.4964819664641433  0.2465984875102440
  0.2428765588520447  0.4967323650708058  0.5814774180722881
 -0.0037181983543237  0.2451053828401291  0.2422591369844840
  0.1586738524832974  0.0829828839119105  0.4184946905406446
  0.0761770662309793  0.5775566044338161  0.6649748539624469
  0.6609570486502366  0.0774766941046028  0.5784869039772164
 -0.0095286393039944  0.0827236612788446  0.5821688585113387
  0.2430680799119436  0.2442372755144473  0.6657113956354168
  0.1577825570220399  0.6630116729381038  0.3322451061873083
  0.0760660088930767  0.4963461630884704  0.0781951147428803
  0.1580987037885639  0.5789545266178731  0.9118182991487825
  0.8285167015357110  0.7433420443912248  0.4122954281420775
 -0.0063251729128742  0.6616390820169109 -0.0036804492930654
  0.9110643456070624  0.4126325854281894  0.4983051889750362
  0.8308318056991294  0.6619856482342126 -0.0024644226970975
 -0.0133693526626698  0.8276806608824863  0.6640693616444602
  0.0760971165362659  0.7448376727879747  0.3303653981950996
  0.2411640315286083  0.4962050904483626  0.4160231750092466
  0.0767303069864070  0.5000908463546717  0.9128008892534428
 -0.0097674791176109  0.0006477637378777  0.4981916997489724
 -0.0084554721377001  0.1649944044029402  0.8289474910398530
  0.1583032233703413  0.6595565801591891 -0.0057250522645841
  0.2396017629623290 -0.0024304127255383  0.0753737498587212
 -0.0044497916398252  0.3288866941600376  0.6654510867714036
  0.9081939267134883  0.0814751224191714 -0.0035505934738783
  0.0747834685146013  0.2469809736118909 -0.0038707252651898
  0.7420086035510721  0.3297532663676014  0.7465190586126034
  0.0754186796256608 -0.0019460676599595  0.7484887036119859
  0.9076804073085675 -0.0013102922560875  0.4153798618667522
 -0.0109087035959826  0.2475285686027315  0.7462660167912765
  0.9031528999230767 -0.0000195971918280  0.5793102507641343
 -0.0056196365441833  0.9128878791329808  0.0824852260540746
  0.1606549984593189  0.1627403857765649  0.4960487604464086
  0.0793684083018115  0.2469347643362177  0.3298725032793398
  0.3261966587824936 -0.0044229519901134  0.8292978547264697
  0.2423494655046340  0.1658205421862678  0.4125083907003165
  0.1572786606663177  0.7439642684819907  0.9090013738136007
  0.0753768369565546  0.9135560676071852  0.1582828551616364
  0.0730799513603164  0.9148248588336511  0.8252690302116895
  0.8250115624592391  0.2482274607359245  0.4137284353017589
  0.2452824026570214  0.9166678946444713  0.3295269490594555
  0.2464252415217140  0.1658376268551164  0.0776143334331046
  0.0719945974145454  0.2471755647105086  0.8306460477130385
  0.0764674237918219 -0.0038758002779498  0.0803024201702864
  0.2404897017021232 -0.0031245055985264  0.5810114002286866
  0.9097535953332555  0.4146134934644931  0.1662908447651628
  0.1609889577017715  0.4117671795076998  0.0789522680651095
  0.0773050386820165 -0.0001898325993523  0.5800144941871994
  0.8292888611127154  0.5826720860878176  0.0790050746810819
  0.9083654528153001  0.1662364440351509  0.4106912010514954
 -0.0077844600681013  0.0830458118676154  0.4131099100096930
  0.1573069722733834  0.2467889904744573  0.5797377205791038
 -0.0072995738495750  0.3263817460285579  0.8258903211629499
  0.0759478647073702  0.1621242021344214  0.7480412140796600
  0.8294456682553276  0.8281104378120897  0.3264601497024330
  0.6551970842605628  0.4905215938604893  0.3301355783673353
  0.9116383037386409  0.8274276553382831  0.2472961935790823
  0.4102138608581768 -0.0009723054383913  0.7481241869287847
  0.4102751724450741 -0.0034986665904004  0.4168254262018452
  0.5767662095685603  0.4108829498811088  0.4989514635757759
  0.4121918748139098  0.3277969906323338  0.9164417958646682
  0.5744173343004814  0.4125108874569170  0.1624813720785801
  0.6617054758518275  0.3315241724873935  0.3311826911073188
  0.5728076746565104  0.4946664393704376  0.2452743529991375
  0.4069087680432441  0.6635302213223616  0.7457343628881100
  0.6593568996900347  0.3334097592019636  0.1611387875725304
  0.3257956816473698  0.5775231815220464  0.9116669879405862
  0.4938198304368306  0.2489125485120315  0.9138411250296447
  0.3204780528632736  0.4981927075465851  0.6637506891767451
  0.4113889718003031  0.4163287372198304  0.8270047315130544
  0.3281846076696807  0.3304271191401498  0.6659395952104201
  0.4939332500711466  0.2474964957163881  0.5792884889510170
  0.0746267885647646  0.7466086648288025  0.8307461967202479
  0.4887806112067878  0.3307974129152251  0.3315044923988621
 -0.0050788144389342  0.4942676137249835  0.4965525250044985
  0.4953400261070921  0.2483088039984146  0.2463950652040491
  0.3280002045379715  0.5791561629033332  0.0768670630470390
  0.7439465314917116 -0.0011175309801900  0.5823678078154432
  0.4099420552375551  0.2455541890646879  0.1606798911494375
  0.4112578591788292  0.1650076318712433  0.4138427856850003
  0.5775975365615065  0.1654927824153027  0.4133268641011086
  0.5760629813922327  0.2461076159212915  0.4963745618586555
  0.5781260646772669  0.0819641809751626  0.1609703742827703
  0.4121526405041785  0.1658973431918570  0.7433409761196673
  0.5761295938841919  0.0834206851734975  0.8314103469403286
  0.3257088063951744  0.7425389103159729  0.7468247903296954
  0.4949970180861187  0.0834666636254192  0.5834429663994910
  0.1597672227680863  0.4141164867106176  0.7471044978603151
  0.2440417926473415  0.2497112240310967 -0.0036738357450157
  0.4946611972917563  0.3297834765169667  0.1624165155571310
  0.3242490143294160  0.7469064513387477  0.5814377460781183
  0.4063822467969340  0.7435831323680877  0.1628900229986496
  0.4040175063836801  0.7448767758554488 -0.0080218081047353
  0.3250129262487770  0.5010179256721152  0.8300568932321033
  0.3224733501428482  0.6612411493744623  0.3319129695545308
  0.4105679108577419  0.3306681835593773  0.7432252323827676
  0.3247078163323406  0.8313528866000511  0.5017326887668562
  0.2419630521768204  0.4987168303801691  0.2482422019859764
  0.4920255436998923  0.7478742129772417  0.5844909349882385
  0.3247890462993333  0.7463722366072761  0.9134204657042952
  0.8255215387980318  0.2479135186954839  0.7473213998948777
  0.4922732403865663  0.6596539698389783  0.5033243629999081
  0.3227312643892316  0.7435004835863334  0.0786694705937278
  0.4037117223663096  0.5775443267434431  0.3324822768658183
  0.0759202793022996  0.4116784401233216  0.4949989183873977
  0.4100179293651267  0.8307348553414007  0.0772430826819333
  0.3242615900462325  0.2497605276452637  0.0790904361001352
  0.3291456769478142  0.2456298572913726  0.5812589897237722
  0.2456989239022832 -0.0045669031216486  0.7490375428866412
  0.2423646658220283  0.3293329182744378  0.4144169361295784
  0.6560077879097258  0.8264413380764510 -0.0027351339371071
  0.4077819445204175  0.4156816233215200  0.1595582459286512
  0.4902762664922879  0.6620932315652076  0.3282629688007677
  0.0763228220953849  0.5784805291976693  0.8309220819657002
  0.4918611247655024  0.5777851936542893  0.2476597229853306
 -0.0055824726063435  0.4130763430325811  0.4169328203997367
  0.3266359928002090  0.6651399314841253  0.1589081566872570
  0.2397584828713996  0.3316751036008904  0.5790474983260314
  0.4078792664909534  0.4122419007443732  0.3346742295556713
  0.3213320427414081  0.6649935724243594  0.4995494440829991
  0.1580211129028845  0.7494592831632778  0.5850195274703789
  0.1597526559056313  0.4130458941897642  0.9133776588631332
  0.8264133615328085  0.4979776283171374  0.8291883494276401
  0.7448302372557138  0.9152965826610853  0.8317613846918293
  0.7431973637478024  0.6648775565336584  0.5816055153640795
  0.9086814690707983  0.9139443167556717  0.8285123016440873
  0.8269105812745153  0.0778005669100219  0.9121728285277720
  0.9086027545996175  0.5777291772218927  0.8303892013696710
  0.9068579358115814  0.0841856197815973  0.1629795929165095
  0.8244268386824714  0.2517801488084075  0.9137680050172821
  0.6585069456512395  0.8317567955031604  0.8289837200446142
 -0.0063618819101658  0.3297112976811264 -0.0007332890011331
  0.6587841662593894  0.1631760665476415  0.8285757244053149
  0.8227252000797528  0.2468520003335543  0.5806616909429796
  0.5769253719910994  0.8295274582391410  0.4131045749551397
 -0.0060947211238077  0.1654513593155230  0.1664277391151265
  0.1583460015674134  0.4146557435659381  0.2468877680616667
  0.8213201827255965  0.2503695877570090  0.2484921193465862
  0.9087039397887824  0.8291923176866843  0.4102044048139928
  0.8245605885704292  0.0807281744169914  0.5818632890658164
  0.8312168387279696  0.8260912923637722 -0.0059987355961856
  0.7425964345307258 -0.0036433485818348  0.2445719791226601
  0.9089481177679829  0.8286370151732327  0.5824566826981378
  0.1584197653423505  0.6607669213457237  0.4951159771449583
  0.7467799763954976  0.7457828193073756  0.4971263635846117
  0.2424759376585801  0.3282747622290382  0.2466106265955077
  0.9089838150899437  0.1653097555157889  0.7478550788566308
  0.5731178976454753  0.9108077445734983 -0.0023254727733434
  0.9095115700678861  0.3303303192578760  0.4141227706566917
  0.9079149711775696  0.1612417387562173  0.5847783193408393
  0.9078624358265244 -0.0027837578639670  0.7502822583434656
  0.7410076228525607  0.1640623699766872  0.0793700709931378
  0.7381831661248925  0.1650501778739517  0.2474512320646911
 -0.0088564816795513  0.4159918536396059  0.9152358815031362
  0.9100189414417447  0.7450348790710533  0.8305151358538382
  0.4933657400201572  0.5786255546901334  0.9116600287363423
  0.4896603959715645  0.8324762160867244  0.3323009693176482
 -0.0062235388431929  0.6593234869728081  0.4958521615061767
  0.3290567425986982  0.0795701355576585  0.2441679407758226
  0.4066169783310988 -0.0029559875376908  0.9135308097344470
  0.4107384184983138  0.1674522679861579  0.9177810898713551
  0.1579243267625799  0.0811530657195852  0.2435006750939682
  0.4917937757236280  0.0818577829578836  0.2484163879619623
  0.4072148937075223  0.4129605619575313  0.4943073303185981
  0.1603129038137490  0.4941760059289672  0.4963916999568161
 -0.0071036714592373  0.3304634159235723  0.4966177060381695
  0.3276823494902891 -0.0026771147255376 -0.0061113106495814
  0.4082361749297650  0.4094139070438163  0.6683039577095273
  0.3280502625165635  0.0823362694482058  0.5787806999196680
  0.1589536111065513  0.8316737077587909 -0.0016166258342066
  0.3272815658479154  0.8342393631829835  0.3265467639434215
  0.4119313167300245 -0.0062564558276440  0.0785029600004775
  0.1592697953176051  0.0770585144457405  0.9129740311067719
  0.2417247390958317  0.4138045072918556 -0.0013927761511925
  0.5782980463512492  0.4135164056338357  0.8303088062821185
  0.3246083905504711  0.1653611400774685 -0.0030652584004423
  0.1611307140258674  0.9131635217354042  0.2434243906271466
  0.4056242349407762  0.7491229433612089  0.3309939737912351
  0.3240768435071976  0.9128358697231552  0.2484838657291411
  0.1551658248414909  0.7459466413046917  0.4100714705020509
  0.1609133358591190  0.8269192319197188  0.6660053624967837
  0.3251537513918991  0.8275618036274385  0.6601411766104255
  0.1581149522672056  0.7467602838626619  0.7466649847128862
  0.2471847621076322  0.9153966942825061  0.8261533127892342
  0.4922081282058321  0.9167682632550105  0.2453864209237116
  0.3219746383109482  0.8317954347081707  0.0787820730479659
  0.0762592580735358  0.2488187527833580  0.7447047878767866
  0.4070945435501520  0.6627311920411152  0.3305418476960413
  0.6594595675475857  0.1652110597354519  0.9147891708868495
 -0.0917852951370526  0.1661127486298678  0.4981391231229533
  0.4924381435595402  0.5786470706039510 -0.0039077031542071
  0.7413816869733144  0.4180418726005092  0.9131805419913083
  0.9041252696062588  0.4176638256228594  0.9123711387940767
  0.9935122890640000 -0.0032859420013053  0.4142790411266434
  0.0760435296652513  0.9159874179639623  0.9147571957354200
  0.5762502027292962  0.9975611488037025 -0.0037220618344148
  0.3289986464544106  0.1671344573368839  0.2469747726758509
  0.6594540448654221  0.0786277321711356  0.6663580808325308
  0.2463012895667708  0.0773341967377886  0.4153526511314091
  0.7438243307125996  0.9103603798677224  0.7437813087370699
  0.6600375389444112  0.6614108729698194  0.7470809355072581
  0.8280764506045142  0.8276927961350925  0.0838657042809101
  0.5792920482716971  0.9149836194198961  0.2492838625490086
  0.6613761137634296  0.9149428363247202 -0.0029875675545087
  0.4103914360379925  0.9135227568350811  0.5806337259559133
  0.1587761805939640  0.7483941106052688  0.4975130332584581
  0.4934838783660680 -0.0027575316483925  0.9111426030533033
  0.4908783127046842  0.0841545379142387 -0.0040046351397174
  0.7437725346661018  0.8347243943929422  0.4984583651936703
  0.3287185213335910  0.9950066918220966  0.5815208235502609
  0.4916568376302290  0.7475047551374138  0.4978364316893781
  0.2436275997967748  0.0795461628771857  0.2465334637875100
 -0.0888799564515275  0.5780499768089007  0.4137295246928888
  0.8240063704185296  0.8304106946605367  0.4138913211332677
  0.5786890022263785  0.9143879370756202  0.5845662830111890
  0.4905478409750558  0.0815919810579244  0.1606200769704582
  0.7471786164378927  0.8267094970918734  0.8304153585067817
  0.5749538960289375  0.7481794849254424  0.7446523233030710
  0.6591361850825476  0.5760665635148410 -0.0049668027886264
  0.6593696362083137 -0.0040576780795362  0.7469058767029130
  0.4100466783773236  0.4142832312024774  0.5817168061722938
  0.5803887157061659  0.6615624914539106  0.4978715275486145
  0.4091378564724585  0.7454354594143108  0.0775702828476148
 -0.0892505536544677 -0.0050131656004719  0.1627767110947654
  0.5771273425875929  0.5790763498549538  0.4163775824219245
  0.9933869650765254  0.3344095235094310  0.2466845247127234
  0.3238892313664362  0.4116619657465015  0.8305184367111990
  0.4102125395831480  0.3301316441601770  0.8299758748612032
  0.9908466658311906  0.2466602018649195  0.3316602818790272
  0.2388591652593813  0.8290963811401872  0.3294260807129362
  0.0742791082587697  0.8310213742716019  0.6637869258628266
  0.0728670987973121 -0.0877991533830389  0.2484935039767353
  0.9901990471636718 -0.0031403427528558  0.5831876145614554
  0.2432245692442751  0.2462170348097178  0.5801269131230261
  0.0774741927821402  0.4124437292681656  0.5842015529655479
  0.4940948062076755  0.0804222811748903  0.4928593157048274
  0.4073699058709802  0.4132465123243682  0.2472635933379783
  0.2430814508013028  0.1598289309539237  0.8297931536083751
  0.1592689002387215  0.1671171158703181  0.9131682876630151
  0.3279697253116796  0.0825033796413999  0.3346733557641321
  0.6615506251101875  0.4120816878636054  0.6630864172871416
  0.3258922704739709  0.0811057391077248  0.6675681752500422
  0.4919381817229140  0.5796579743231380  0.8224159918176515
  0.6579217864963441  0.2442527187923397  0.1627111088874024
  0.9930378132678901  0.9130035017183855 -0.0070516790209892
  0.2437298963663519 -0.0041371527389354  0.1646567702618037
  0.7438887780690647  0.6578711249635009  0.4934499888401063
  0.5754084174098117  0.3286549885523484  0.3314617002622957
  0.5761437808394526  0.6635686321157476  0.3299738010261394
  0.4076280379925030  0.2478700783876226  0.2496897912124599
  0.1570465294996551  0.1638187017328804  0.0791437444357336
  0.4930124204680646  0.8286849339204827  0.2440803438256552
  0.9125669965492593  0.2494714307459325  0.5800582234695546
  0.2443149929750582  0.4136183005383808  0.2469923835986804
  0.7436604549673053  0.8292553343307214 -0.0031776780386527
  0.2436580583939841  0.9137172780677252  0.9166706554926510
  0.4106349348739493  0.9091976826204975  0.7465976070277173
  0.9923825363169706 -0.0031276807976378  0.9119621018454339
  0.8270406157302388  0.4926970734359109  0.4163819900525520
  0.4074451078734326  0.8326798035879732  0.1640047723200856
  0.8251333323309873  0.2474976000817955  0.1592206643871742
  0.2405341538597384  0.3312335566208423  0.6657696019888645
  0.3267709561033773  0.0844815261922774  0.8304443313437534
  0.1593854267311894  0.2470004761021767  0.8290748638769356
  0.6603028134249141  0.5779956280679572  0.3308032312519006
  0.3250482270278933  0.8315738304349387  0.4140156183478724
  0.6583082760385480  0.6616767139290740  0.5813426064595615
  0.1588010011276687  0.5795035707327936  0.1626240316461437
 -0.0013525427857695  0.6618147112929372  0.5850793323261710
  0.1549157804763003  0.6636374155265576  0.2440756503481847
  0.7438300185538163  0.9149861591181989  0.4130240879677338
 -0.0084058996433484  0.4159909689233164  0.8273185342017079
  0.2481340887451761  0.1619509508444761  0.4998655522866243
  0.9920520176717584  0.1632167043292275  0.0797271311850892
  0.2386728782418174  0.5790363084425942  0.0784630770809482
  0.0751961186295094  0.4132960973909435  0.9119136109214915
  0.4918159465958341  0.5764293310555039  0.3337471915834623
  0.7433695599319716  0.4947089161540206  0.3302443202614808
  0.9089171961948492  0.2485964694774146  0.2468714049682327
  0.4870521019164263  0.7464375345062561  0.8288448301692505
  0.6592428830854120  0.7469586146297306  0.4950161916859244
  0.9965898790966153  0.8316011333817445  0.4129943523855686
  0.7403021944529219 -0.0017258776099425 -0.0041547170207992
 -0.0892737203403671  0.4161340088061693  0.0781493952066138
  0.2408601261232148  0.7490695104746242  0.2441983109914593
  0.5796093574307377  0.0814926990719841  0.2495861756142243
  0.3260344618329644  0.8308556709333023  0.7493010557949761
  0.8252673139428786  0.1645794391049149  0.9134018450851357
  0.4920574474414774  0.6634855902777627  0.4151349360012284
  0.6603657407792605  0.4941892207499792  0.2436895645181790
  0.7467101887325626  0.5758015877813395  0.5789920233173722
  0.8277732266162340  0.6616019129692993  0.5807231818548764
  0.7431703795523006  0.8299240224171988  0.1634813209525626
  0.3257861149165420 -0.0030824987793707  0.0809645954709674
  0.6613135543529808  0.7470562966919111  0.1630881741008220
  0.2465044717490991  0.4139781959077806  0.9111220094362190
  0.0719259010485363  0.1656505762732146  0.4986938551403094
  0.0774895903883900  0.3342691422860893  0.1633278344434566
  0.8257252638390240  0.3314532182360440  0.0805186595176063
  0.8271916677758129  0.1629371635973749  0.2462149961495884
  0.6586902648995033  0.4972704521542279  0.0779214992089683
  0.7393494303126672  0.5798633174868034  0.0800661002206083
 -0.0074615490953579  0.9112884845549143  0.4979942760927761
  0.9050138849315055  0.3315266693510206  0.6640363807295894
  0.8272823632194446  0.4098716967472585  0.3289146217996696
 -0.0049955567431442  0.0791125098796306  0.1617281368073587
  0.4922590480828921  0.4956058974826710  0.7463021055997647
  0.1599338419781707  0.9142457456556106  0.8302290407419489
  0.5774030191798486  0.8301820868524067  0.5012753028943397
  0.6605678236428871  0.9138813822513023  0.3301754646478690
  0.8258525465044539  0.4948349922291997  0.0842423691867062
  0.4938403169968151 -0.0060263221409382  0.5799292562711793
  0.6608006643539560  0.4961218319798958  0.4197384906888756
  0.4088209666033017  0.0836816727489166  0.0795163380256702
  0.9921304623868632  0.3309176390985427  0.9125012947578972
  0.8247217438625056  0.0803089103793863  0.3303319920157693
  0.7401958578284631 -0.0007508466556433  0.4942738535961512
  0.1603194430369700  0.8306303280068221  0.9110638441023762
  0.4904446091648977  0.4949897812376645  0.4168976364591669
  0.3269698521429997  0.3313186732143089  0.5787381856669632
  0.4109390442378403  0.1651166696635071  0.8309521244017519
  0.9934342231273096  0.7473894203549452  0.4993044758651908
  0.2447064556935640  0.7459107724736818  0.4147412853148624
 -0.0925651856423254 -0.0032993957005898  0.3267909771075027
  0.3267342015813191  0.6620310223406412  0.2459632839157450
  0.1591145942724924  0.6602590736036067  0.5846118328014762
 -0.0087727324302731  0.9172654974097001  0.6644428821387568
  0.7438047266562731  0.5791932792722249  0.2447733101606570
  0.8304072564397991  0.9109280123207599  0.1647236156014810
  0.8284686039347263  0.5808665417587029  0.6629731559184144
  0.6600382406837506  0.1662852807802844  0.5783730889482103
  0.1596066196634914  0.0807264491502388  0.3309764989827678
  0.4112148262533465  0.4166222268883734  0.9162474900708628
  0.3251167667717267  0.5764745639563491  0.1650913005867203
  0.9942635186779636  0.4133397547668812  0.3271411129951955
  0.4906315589323627  0.5792083141060651  0.1641038562797818
  0.4117283768268939 -0.0015649681207531  0.3258889642040959
  0.5765219034436653  0.6604162182854397  0.8322650393989401
  0.5783784583940748  0.9131355544746695  0.9097753826543432
  0.4074844524433352  0.3301881638785192  0.1633359751507571
  0.4914535483439157  0.7454305092305981 -0.0041141039459222
  0.4097239668009403  0.5006385257676362  0.6616499591406194
  0.1554265973923064  0.9143148086780808  0.4970126492460273
  0.7427966717956607  0.6628851374108696 -0.0044188614929290
 -0.0080076975418625 -0.0045255850009083  0.2431592417281767
  0.8215084631288904  0.0853987504845155 -0.0012881638587910
  0.8269550665339064  0.9126539191745195 -0.0036344249130701
  0.5739683426177363  0.4982354448407955  0.6628556095012534
  0.5760079769310671  0.8312549471036719  0.3272862386758823
  0.4924168065859326  0.7472850579760207  0.3266167797388098
  0.9975072371989623  0.0781581564686120 -0.0048920158545815
  0.6636032904599698  0.7442543158015544  0.8310223169628455
  0.1564282170297603  0.9140237753266788  0.3325069576473677
  0.1591962661870962  0.9183610264615412  0.6629201694042098
  0.1593746380888316  0.7459417831459052 -0.0040967737443547
  0.9121675588628956  0.6618475436050961  0.6683095625791937
  0.0754073014582467  0.6590347060038859  0.1618370138200730
  0.4070634640386717  0.6623135442124700  0.4978343481556205
  0.4111223998647954 -0.0002336997062938  0.5804651985106719
  0.4932431633777569  0.9122596463501488  0.0793837535920990
  0.2412043828775753  0.5791682124274359  0.3319369607709621
  0.4938475844250132 -0.0020391877663468  0.3301279340323673
  0.1587456573648847  0.9139839899492886  0.0796814443304710
  0.2398130665986342  0.8292136222741202  0.0792459523655983
  0.2423928052711838  0.9134849204366583 -0.0021340212067751
  0.6593263331384526  0.9144876860289378  0.4134561378816709
  0.0758377811248296  0.8292900602029415  0.0792639922747522
  0.2426116363349423 -0.0043382274292639  0.2469179372280965
  0.1582018403360293  0.8306617743800729  0.1614970762279556
  0.4093440343152875  0.9156778012716730  0.1632116768961620
  0.0770893301073675 -0.0012647034911581  0.9116530685318613
  0.5771545700998534  0.8287474482470959  0.2438191025155531
  0.4096558736673064  0.9134027591463257  0.4966136591873220
  0.0760779277158288  0.6607661591186782  0.4142628782694260
  0.0775091289279001  0.5786190438263139  0.3309395799897051
  0.1587489812341625  0.6622041737025970  0.8295977029812370
  0.3242526560699863  0.8308422355747640  0.1635919407781209
  0.5770709023794759 -0.0015503813345589  0.9111536737548773
  0.2418502110755219  0.8316978745331848  0.4147552398372208
  0.1602640807263817  0.5794736562497323  0.4143507566214730
  0.0746912157482730  0.8291680736064250  0.5815161624419912
  0.1603967347797013  0.4116355734863222  0.4136591760151078
 -0.0053235106875351  0.5759603591657574  0.5803708259089464
  0.2419531216573204  0.6626997481640107  0.4145260165727754
  0.1602864888054056  0.1648065766158228 -0.0039266907260590
  0.0750218274751288  0.7456341819456480  0.6652398939771625
  0.2440256357937329 -0.0026008728358949  0.9132589062161791
  0.4921507371559343  0.6628089884943483 -0.0048116350461727
  0.2423461128043015  0.6622129590593450  0.9122554543374396
  0.1592086403376625  0.9145515205031660  0.4147089045349918
  0.9117688633089382  0.4948467085486701  0.4133195470471397
  0.2420769938418105  0.9130800878442153  0.1622740798876660
  0.4913173890006704  0.6636704300403397  0.1626346147901319
  0.1596702685402673 -0.0018420108624471  0.8283086483620326
  0.7434531415966587  0.6645939333988625  0.0808805750221249
  0.5768828341952460  0.8297548989535702  0.5838543449081218
  0.5752076007224306  0.9128373816566152  0.8271444611424328
 -0.0072022438687532  0.4987516320473276  0.8298622520231004
  0.6591308002811954  0.0813641684725572  0.0801930262363247
  0.5776624454057202  0.5776701097191141  0.8293699745870453
  0.8236091999108330  0.0804611944184221  0.2450536253638076
  0.4940779394522570  0.9120007988719337  0.5813899421484728
  0.0768705211307468  0.3297940051964923  0.0785016362072504
  0.4091304557670543  0.8259416039136074  0.7459055621499965
  0.7399691694807718  0.0824533346273388 -0.0042565542185264
  0.5762336713772140  0.8311515466282129  0.7454627246844412
  0.4933914948540091  0.8307592537974462  0.1611849872170903
 -0.0062042465095477  0.5794028062504339  0.0790005354386196
  0.6593035457973407 -0.0023034726483662  0.1625267746627936
  0.4916407143351996  0.8299716430339131  0.8295299577342583
  0.9122249951703969  0.5798308413664719  0.1632242359839418
  0.8265610396830129  0.4122487384817570  0.5810124608280554
 -0.0051537785244692  0.4974056439510108  0.3302524484708323