Cr H  Ni
 1.0000000000000000
    21.2515204001037681    0.0000000000000000    0.0000000000000000
     0.0000000000000000   21.2515204001037681    0.0000000000000000
     0.0000000000000000    0.0000000000000000   21.2515204001037681
 Cr  H   Ni 
 259 173 605
Direct
 -0.0079390116869006  0.0008555374627713 -0.0072084879769879
  0.6594787070610026  0.4104988132960559  0.7488277365509508
  0.5771540556168410  0.3295712293223769  0.9127180379935712
  0.8268164051775841  0.3320373691185943  0.6706758979732609
  0.4880793921378436  0.2459408089148518  0.5807443463000375
  0.5772200967300590  0.4935200420299935  0.0773148598142020
  0.6604859962063029  0.1662205002801735 -0.0031512571625667
  0.4946485042178120  0.0799729534181281  0.0783967709357038
  0.3281579952939931  0.4121747355021826  0.7504105558281562
  0.6630594163245190  0.9169367168065572  0.5774963934139515
  0.6594379752780510  0.5823039712207794  0.5823600166476758
  0.5793721717878070  0.9170377090240741  0.8313204695650989
  0.5747122679180584  0.4159958700752354  0.4975751739936461
  0.6577513595962680  0.8308564108757712  0.6669414514320137
  0.4097150313964325  0.4115643553459788  0.1622244391370276
  0.8267311589402362  0.3310293508209421  0.8274889489703001
  0.5727528855527980  0.7470492083876995  0.1616308435389324
  0.5800159098539317  0.9148373080381094  0.6666626063107859
  0.4155972845507668  0.8347001732632808  0.2435427030711327
  0.8271606155087318  0.9165349890727384  0.7489117601818783
  0.4935825694527188  0.0017734972439527  0.4970797716293260
  0.7446714737584353  0.0811683570807876 -0.0040283344135248
  0.2448896732235831  0.3344393028352773  0.2456350431036065
  0.3291491669216082  0.4115821045726600  0.9156129318852561
  0.4096430189745894  0.4150130451242258 -0.0061708874215597
  0.8231846263091264  0.0826809260694616  0.0772628142858248
  0.9119666669118194  0.2493188929003086  0.3265706604531496
  0.4932265981318906  0.8282906406810941  0.6650002070724529
  0.6617166847527933 -0.0018073024234571  0.3307784158821894
  0.3270316050595499  0.4945830175905755  0.4987830148814165
  0.5760323702930258  0.3313634857207434  0.2448040736107719
  0.7433597470802670  0.4125573526012937  0.1638627048168860
  0.7447521431932209  0.4981926474415174  0.5864536343410472
  0.9101099361600761  0.1623669489641757  0.4172636551691510
  0.4914510338858324  0.0776517100678206  0.9143374899994657
  0.6582329703676950  0.2471592173935044  0.4115591999740109
  0.4099892300496296  0.9182979091133443  0.3296324607205238
  0.4112452031083113  0.2461114845030975  0.4991950981832727
  0.1609694540537780  0.9132115380574231  0.2459753896302790
 -0.0075561984499857  0.3316963559661772  0.1602865333205178
  0.4950185301909785  0.2451808850637741  0.0783675519347646
  0.4097061989223084  0.0012013697170585  0.7477695360700888
  0.4910515186875586  0.0835566808602159  0.2441401221545188
  0.6596689330372215  0.9150048539547664  0.7519307965944348
  0.3280514007713065  0.0801632802338352  0.4182073411643439
  0.2447476684850281  0.8298890774583625  0.4172962965890913
  0.6606478878068430  0.0823072001246288  0.7493474180823810
  0.4087741336088919 -0.0030592920424940  0.2457133280940452
  0.1611587370993253  0.4145750564219734  0.9149460699711028
  0.6599588099865246  0.2480658370686694  0.0781865939437872
  0.4916840656921884  0.6620065208685838 -0.0076911356447046
  0.5731218187585299  0.1666156971099733  0.2453955993640416
  0.7417003836127137  0.2466901282047334 -0.0016446719569457
  0.4931909302430098  0.0017557225333414  0.6629911149997111
  0.7424699036663464  0.0805058053376688  0.3326254973585261
  0.3286883485625670  0.5788880078258053  0.9137601191326267
  0.4086046753413203  0.4126989569917429  0.3309521914072113
  0.4937701757737651  0.6611212284405956  0.4960603359903256
  0.0780618490998281  0.2507027581671569  0.4977224977657139
  0.2446369836840699  0.2513529890094676  0.6638924128237350
  0.4128578112848719  0.2485874329834181  0.8288833464406649
  0.5762311127213743  0.4951328005423827  0.9132745966233050
  0.5780765917316173  0.1606737152959005  0.5810847042071599
  0.4115838028454709  0.0797250321645288  0.6644812337820870
  0.7413668895168908  0.0838191346523821  0.4986690631781101
  0.0808471882665236  0.4946172468425829  0.5834353234491084
 -0.0019048597422419  0.3312789733385895  0.4950795351954726
  0.1622345638648295  0.8323031524997805 -0.0069538860901636
  0.0789596673661650  0.7455048399613016  0.8297401001389978
  0.9111825175447987  0.5769050283393287  0.6634671768320519
 -0.0076380126890102  0.8257405614140142  0.1616760324325395
  0.2466126773859963  0.8299890843138749  0.2446167266296783
  0.0763649849542014  0.8293332262708747  0.2462701485559782
 -0.0039172312644269  0.5790642249836057  0.4119628750667095
 -0.0074270465816020  0.7424530668210448  0.4178167952956549
  0.2447775099978731  0.5778631582435797  0.4975820497112435
 -0.0044154474747129  0.2463597955988897  0.7459039588394004
  0.1593359563941221  0.7423892117753949  0.5828493931209552
  0.0740073610401184  0.7411936762850819  0.1619338852861144
  0.7429285246802644 -0.0006926389161527  0.0776802519445941
  0.1596408649828924  0.0015151425499903  0.1592560145956267
  0.0779106895642152  0.1651495741872031  0.9125906092286734
 -0.0076434597980654  0.5823461623371921  0.0799407260966098
  0.0761071053360427 -0.0007745562098549  0.5823060563956074
  0.9125606196889285  0.1652369916575718  0.2473427993315235
 -0.0067853977189997  0.0822617002922943  0.4182175367257782
  0.0814704379193070  0.3317151026117018  0.2474028748765073
  0.9092824533096132  0.1688781109815973  0.5827975141034650
  0.1616704244766271  0.9157177920363817  0.4157625508229165
  0.0776822348281820  0.9150379427632912  0.3299311230123084
  0.0771085392479042  0.9106074068875106  0.8304842600588175
  0.1599789455863662  0.4104404784333947  0.0778920158360153
  0.0757850343713550  0.0815731252424703  0.6604063733733045
  0.1648115742534937  0.8282605899271571  0.6660781683340168
  0.0782141261261994  0.1667015966998719  0.7466082765330913
  0.4903590627369466  0.7435894420809104  0.5809759214118376
  0.2441411886771886 -0.0003732161239546  0.5809047357432340
  0.9093918510437097  0.8321962597171418  0.9111646174808757
  0.0795703005485202  0.4975896387750036  0.7482898460499012
  0.9138994514189791  0.4166780501009579  0.4975568670280506
  0.8240580326555663  0.3303944842976753  0.1645966485979854
  0.2434029334838828  0.1646488825532299  0.7507524228299766
  0.0776639030369720  0.4138580166385046  0.3290210704810507
 -0.0087871493414907  0.7413798783503172  0.0793221437846224
  0.7396606545039190  0.1593378129626242  0.5792996158934310
  0.9111334140216207  0.4956238766862009  0.2446759775985747
  0.9073645407147224  0.5784708430359727  0.8304363075821526
  0.2444565383141980  0.4913337608372892  0.2456124479652548
 -0.0047130228664590  0.7421121102254723  0.5835410127795728
  0.3281245336848312  0.4920265200378361  0.3317936746542616
  0.0780659939413569  0.0868536205223264  0.8339626281791587
  0.0757705513558046  0.5805765081318580  0.1606200735566636
  0.1619541055270489  0.4130993737653658  0.5806160962344533
  0.1605121133641365  0.4945616468003337  0.3334582919985090
  0.9082350817376046  0.6607733559172914  0.2465765985125754
  0.3279108762357187  0.8307228219518810  0.3298369334451727
  0.7417992457682129  0.6612049604348368  0.5839104200545492
  0.2450172940289214  0.5791401423713802  0.1601341784399510
  0.4909664613266836  0.2461496852253194  0.7481402073019721
  0.4107626704974020  0.9157261948833409  0.8339400506715813
  0.1613356570486790  0.4133955911648579  0.4131902764525666
  0.2426781258661404  0.0833523542925875  0.8307392987803306
  0.0773794854362238  0.6644104019059769  0.2444194192886293
  0.1608820292660542  0.3324034990350140 -0.0020519269148630
  0.9058222504414322  0.4948528723235814  0.0791220003958685
  0.1615116931859447 -0.0033908204346202 -0.0033598467269705
  0.0789816136351007  0.1623231464208874  0.0773313479349395
  0.1608145275687035  0.0821026526661316  0.4156768106563596
  0.6589045264856792  0.0823340267819604  0.5810288280335297
  0.3282558711422902  0.4088859655970811  0.2441294050919227
  0.6588387270919285  0.1657791223265993  0.3327848386855548
  0.4108584651886159  0.8287733442972910  0.7474861028621165
 -0.0103934833796910  0.8306958101859779  0.6668407369632799
  0.6607509623831218  0.9168233016912121  0.2477507270360949
  0.9109436866109377 -0.0013149984736183  0.9120038406615250
  0.3271039698755946  0.2461471760136497  0.0783817043346106
  0.4944717196404324  0.9118563133113246  0.2427610292737525
 -0.0077416073867891  0.7446435973154418  0.9136855890183658
  0.3283644503538926  0.3320844384421896  0.1599922390502436
  0.6601411507267516  0.7450003534628544  0.9149083481064089
  0.5714139042077184 -0.0012200000483241  0.0773161367130747
  0.2434068377598658  0.9163128689706413  0.8330751621238688
  0.3259180734090807  0.3300664232134361 -0.0045653102070010
 -0.0069336556351293  0.3312190450674863 -0.0007786903735679
  0.5810103096601631  0.8301428280882357  0.4175952707465005
  0.1608187822063272  0.1627984597951252  0.8301046712528167
  0.4103848719954724  0.1635748274977640  0.7459114151097908
 -0.0113377330265569  0.5824525897828740  0.9145541833473341
  0.2446849911657695  0.0784442831448400  0.6618959448761624
  0.8200716022525333  0.0012176172560447  0.3311011216234024
  0.9106050094589276 -0.0000433686908055  0.4207819049978371
  0.1607846076557483  0.8259418539077783  0.3311786136125151
  0.9067755600488362  0.8282865929139988  0.0764868696132543
 -0.0080036123336608  0.0842504040123934  0.7455721294559838
  0.7440629935847580  0.4114700450418388 -0.0015810514288014
  0.2467222033988930  0.6631439115560039  0.2484062182631107
  0.1615947585912086  0.9173022187120161  0.0743423372584743
  0.3288443545985817 -0.0007708494185444 -0.0046779184456129
  0.9066986777824322  0.9128003993394493  0.1586164563846665
  0.1628509793480344  0.6591128275717052 -0.0039402928325670
  0.7377879240287792  0.9159684494351780  0.3292339546132318
  0.1623801287222928  0.6602002965672651  0.8297654424415855
  0.3309512594114811  0.1679508577831481  0.3291569345821647
  0.9068666682863820  0.8320422939961155  0.5820282592514361
  0.7422712865075529  0.9162622983586058  0.4983046955019087
  0.2459569720559917  0.9157911275375111  0.5014497134491892
  0.3277751340170201  0.1652480951266925  0.1606768961588932
 -0.0073780517609835 -0.0015913314076123  0.4975938423773956
  0.9129564099561382 -0.0068967351519689  0.5782489087720918
  0.6605586799851391  0.1628480870049185  0.8296300377266813
  0.9082308503211300  0.1656508113075515  0.9117685213110711
  0.4081301553368045  0.9163397540289402  0.4972760761508891
  0.6561470294917460  0.3305493733580848  0.4932773523714568
  0.8272688299087084  0.3316104445758895  0.4959449160349936
  0.8263385062429290  0.4130576715829634  0.7468460788792657
  0.8243779265687035  0.3308573397619394 -0.0033173784482764
  0.5775290542073162  0.1660976618319016  0.4119164553725252
  0.9089134928300852  0.9124652335696294  0.5018385044036254
  0.7426258006281863  0.5794705376438863  0.8305838236449504
 -0.0043491236573907  0.4141562577177936  0.4119358519176012
  0.8279036648016158  0.4169062018550276  0.4129421704101122
  0.8274123582741287  0.0805908244284734  0.7479955862440151
  0.2448764152563143  0.0839781574328703  0.1608913923239447
  0.4111182979024360  0.9146843926556205 -0.0026767026944117
  0.9087528017352005  0.1686620212437173  0.0792018459481212
  0.3299910473225853  0.7447607792376124  0.7456035482481970
  0.6610839267648874  0.6635028222825904 -0.0094018262680315
 -0.0039178188691871  0.0002488784959338  0.1589449064227831
  0.4112577893522432  0.1659378721748345  0.5805448357498495
  0.7445477982704776  0.9165877314806326  0.1615501723778870
  0.4104971270118454  0.2475122541611212  0.3321294590692229
  0.7415313261250774  0.7416641150770836  0.6664559067515338
  0.7422903090935344  0.3315116589821496  0.2429830700463332
  0.7432250424111577  0.6599914302851306  0.9136550276094492
  0.3273106608094729  0.6573920946566256  0.4985869917865623
 -0.0047809460919060 -0.0013302824608152  0.3359308372998437
  0.6591068730257528  0.7393878391362639  0.5777909129117949
  0.4922565168340907  0.4137546229303758  0.7485807642551009
  0.4114540035186096  0.7462374894959183  0.6654479858020903
  0.2454362633003727  0.5805445003239811  0.6653237591666774
  0.5752213585016299  0.2480067033112474  0.8298976909288082
  0.4102810939616857  0.5795576938681545 -0.0093390374251616
  0.6597089751455888  0.8316129928578322 -0.0045973662088435
  0.5765871440787563  0.5821787071670206  0.1662622775936817
  0.1608479382860033  0.4106383820015275  0.2463420927380433
  0.4909090854119362  0.3309053109021475  0.3311758827251950
  0.0743679826337782  0.2454117913789623  0.8296342406631305
  0.7420097956175952  0.5793434251633359  0.6638116300915664
  0.3286921625944974  0.7470343575735280  0.0773888333910728
  0.4924717175388428  0.8325559197642812 -0.0041863057203185
  0.4076111814559428  0.5778637842897919  0.6656899973748468
  0.4942079554485636  0.6613017068980043  0.3343153345166512
  0.5769180112829428  0.4091921325021851  0.1635751270838618
  0.3284292708707949  0.7440668813979588  0.9118763294407300
  0.4945153403288668 -0.0025787582161038  0.3327962628177891
  0.0782649768519340  0.4966164509732063  0.4118953337738981
  0.8249776233633717  0.2440242429507604  0.4130042459670353
  0.3285462276153044  0.8324090358939091  0.1598622598085268
  0.7436033081815687  0.5792291571061646  0.1635917217318615
  0.4921777872679102  0.6605777699456469  0.8299090448558247
  0.4922198091301962  0.4933691691282580  0.3290422930975764
  0.8256814120758590  0.4960255434189298 -0.0030880542382538
  0.5756218374144604  0.3307286002638459  0.4119751834358107
  0.6595545632342151  0.4951206400938499  0.3253644586045784
  0.4082877480813052  0.4142188008103201  0.4985248893123413
  0.4091780406425344  0.4956332202026548  0.5803491680531665
  0.5739182675679481  0.6615134709610269  0.4119023433296537
  0.5780700667582520  0.6602031254538735  0.2465236097759853
  0.4098797162386475  0.5786116051403729  0.1654533258637546
  0.8254861412854361  0.7486310976524592  0.4131854438062911
  0.2510218722185210  0.8294112227689473  0.0804946510417430
  0.3262507033007538  0.6623767998541688  0.3294920283498507
  0.3282329699294601  0.1646787160503973 -0.0026350900097828
  0.2476074130789820  0.2452490570865455  0.8302319853789827
  0.0806853368731100  0.5816143014650296  0.4976227922973848
  0.6601464841595172  0.7448006034512008  0.7521452867679184
  0.9124660063225229  0.8303725068488900  0.7466645607286384
  0.8299163795105257  0.5749620685705278  0.4152436024691443
  0.0765343890877799  0.6576285362418495  0.4157269553924805
  0.7421846282134563  0.6621715936052697  0.7476394166379747
  0.0763927945246515  0.2468578816659472  0.6656707135512890
  0.9107382863838164  0.4967544468878799  0.5830355168137195
  0.2452659322463888  0.5804057918172869 -0.0053023820892362
  0.3329449083533678  0.7458854751685771  0.5848730879113926
  0.4096885138315542  0.9153515587189783  0.6624458939237845
  0.5719152324645003  0.4944221081851908  0.5788123671613616
  0.0758945391257481  0.1685081368318382  0.2462067164898855
 -0.0077593543217017  0.4133444427216563  0.7502438874114991
  0.0829213457047695  0.6597493320696800  0.7480181001636850
  0.2474227487112971 -0.0003894170225158  0.2475864751548013
  0.8267865892115652  0.4964890673761465  0.8296936643222242
 -0.0082212158642615  0.4096742083000610  0.0798623362219153
  0.9100335703158419  0.6609522541325150  0.0782531520563160
  0.1639785031295133  0.0817608242886090  0.2446413215166119
  0.9097608151685693  0.6572695959244262  0.9128137362995676
  0.7426692569575453  0.6603945145167892  0.2458695409414625
  0.1638173228709247  0.7465627771017900  0.9115469911876917
  0.1586977845168325  0.7392455094215526  0.4142671996923770
  0.6563238529543266  0.6641595050142886  0.4968535844599019
  0.8266432831362651  0.3308084417766314  0.4103142368333505
  0.9119798457696497  0.3300824377122005  0.4995251180678750
  0.2459717449139769  0.7452534025368101  0.5820037553765540
  0.2405627376070585  0.1657614760075581  0.3332861403305462
  0.9958571772823299  0.3306990253638843  0.5843785312456858
  0.0810076223412547  0.5767891741378164  0.9141005774901584
  0.1624333748099851  0.9154910829372485  0.1609198191753090
  0.4134971787252335  0.7431604729177860  0.2462500845163677
 -0.0034182977082647  0.4143404885022928  0.6617091922920607
  0.8232824120348639 -0.0016333621822002  0.5829451186132506
  0.7459191063748617  0.6626388325297484  0.4946960515089681
 -0.0936189254260925  0.8269104840651951  0.3321033920354609
  0.1618815413036180  0.7458985481483963 -0.0024467379906881
  0.9100536220133313  0.1658746835570732 -0.0040206883404067
 -0.0091824700717141  0.9105653900622419  0.3323294993711267
  0.6604587688071379  0.7440830948334275  0.3305438863160252
  0.7416995498742502  0.4138932484891488  0.9096087162440896
  0.1582698206417180  0.4969255429317441  0.2452111991293552
  0.1652329169272979  0.7482743817286031  0.8257784798574402
  0.0742200512470068  0.9128526654988655  0.4179099343595297
  0.8248858547737260  0.9112967772350862  0.3314251600415663
  0.9089641915528094  0.1654834644624044  0.8231343397381037
 -0.0067994709830046  0.5793049548815048  0.5010993431976934
  0.7428497182034519  0.0817405080922330  0.2425019032060839
  0.2445974086178961  0.4961068184687505  0.8312525431549803
  0.4101166852630381  0.5790910087650807  0.0775209261254542
  0.2441613769138405  0.4904178762333573  0.6654233014024804
  0.0754548495061314  0.8262039201274664  0.3340336851972290
  0.4135858922985274  0.3268159133610478 -0.0058575879616461
  0.8253434824252763  0.7434812751152453  0.1633124911729209
  0.3312179470152899  0.8303068596391100  0.4182751257205652
  0.4944855880114727  0.1679406977824342  0.9149385821430426
  0.2491662352955797  0.8324058357529034 -0.0071498587389818
  0.9921595722456547 -0.0011972172101480  0.2475300220375026
  0.8252054108850482  0.9126020279059849 -0.0067712902631095
  0.6567968760385753  0.7448164284242952  0.6655425867469458
 -0.0068445571145790  0.9126330071182971  0.1612482338442945
  0.8262204758820144  0.4165625985711317  0.5006075363439281
  0.0758258323764792  0.8256455506654002  0.4987228293109643
  0.6568937980252489  0.4943482363745066  0.4156942684886912
  0.6600220622011387  0.8266838361749075  0.2457984740248617
  0.5815796376975376  0.0806384692054759  0.9137444815506824
  0.9927078213773404 -0.0052438522318210  0.7469875679088823
  0.4911696465632255  0.6626894658940178  0.2452575414648727
  0.4912289597053852  0.8277057800338500  0.4143574803844625
  0.2435853657322557  0.9148461559963500  0.7427311266504920
  0.7419341452316065  0.8259459574324888  0.1616046984622496
  0.2456317048786281  0.7422199389377504  0.4153381016278286
  0.5785611308709129  0.0789911186368662  0.2449067348075237
  0.5763016831871997  0.4955818009005333  0.1639166942694583
  0.0790508638536532  0.4956210767723646  0.4973315251587528
  0.0774301625089779  0.0800957928516908  0.7473709228268736
  0.6601866236397919  0.8288565605953460  0.5799077689442862
  0.1577855784253949  0.9156976360556603  0.5022290240544784
  0.9936682500382500  0.8294003519549126  0.0766259831063463
  0.9124789200847140  0.2489492135720335  0.4138519279259427
  0.4927102069885277  0.0853166662081344  0.3318647007030556
  0.3293820967115533  0.8352267830598957  0.9126284678459818
  0.7453188288388861  0.8320757963899442  0.6645360497904756
  0.2462171372529261 -0.0025676538077833  0.1599723348018756
  0.6606951806679162  0.6622765656266476  0.0814689936452559
  0.9071662926851178  0.7420144363987168  0.5806751449672189
  0.7422604140380165  0.3307991924152509  0.4989675194348256
 -0.0097119404192026  0.7470223267238332  0.8263633669554306
  0.1636920908691300  0.1686504151551327  0.2463170579055849
  0.4946358832798489  0.9147270499927809  0.6649204910284737
  0.4102509768967357  0.1606409016612204  0.8340636589140041
  0.8307319545999166  0.7454236570950070  0.6645545215911075
  0.8271832765152545  0.6617214645992264  0.4129526981894718
  0.3244853863164941  0.8325555633590156  0.7467423630599327
  0.0786522610313643  0.7452031922209879  0.9145949907801643
  0.3285778323085687  0.7468893864001137  0.4967287491649965
  0.6584554767559401  0.4949094353234090  0.5823581898065058
  0.0757420290625838  0.5770051586784603  0.2484459489254053
  0.1650418590308119  0.7430119320245967  0.1621647288699889
 -0.0086977218928557  0.6613841006054865  0.7450186847164877
  0.6642774495640714  0.9166537400425743  0.6645946046763368
  0.9082254525201156  0.9111823865607502  0.4146325397965405
  0.5736116799177453  0.6614706136230204  0.6663894982681176
  0.0784671118130847  0.7477377655204455  0.7435549686289289
  0.9071077425625784  0.0015647278243391  0.1639385876361264
  0.2449797990066869  0.2458724519380919  0.2457155100432445
  0.9966018820711472  0.5769005645884587  0.8276309411989703
  0.0733530239036431  0.8304356192928042 -0.0052173686394013
 -0.0075755397579071  0.3303703608303982  0.9094723991964913
  0.5780775493555091  0.8291775676884111  0.3261331602951834
  0.4969660166967627  0.9130400409553908  0.4970434596614355
  0.1591825284862997  0.8283499186938124  0.4162716051434058
  0.9063970543657023  0.9134868323287260  0.2485196544213444
  0.7438344499553999  0.8262648395162167  0.4960115757613064
  0.7390760546129085  0.5793275492962928  0.4103622274655821
  0.9083446380148734 -0.0007450017108319  0.3321257316300331
  0.3273184523125686  0.4110262872181839  0.6605677851291257
  0.4970374449231653  0.8253968294050987  0.7523051970116340
  0.1612867489440472  0.5002193302112028  0.0784161184280117
  0.5759163557991874  0.9164446396425850  0.5784367571571840
  0.6625339025215041  0.7455848050509351  0.1622247865451173
  0.4945396403592705 -0.0019782645931805  0.2465380721400548
  0.8234334188857728  0.2477446977486335  0.3256722098269259
  0.8260882762812397  0.4134491274435108  0.3238984684220877
  0.6563298672293513  0.9133527903370423  0.1586955783096914
  0.9920438963530447  0.7422517934124091  0.3278888536083548
 -0.0900399254745675  0.1638535010467149  0.3324265596685044
  0.0779165349430233  0.8288322705228790  0.1604231188363206
  0.4965240126149180  0.9117341149573170  0.3303503713371646
  0.3299053882758957  0.4955622099407270  0.2442910263788601
  0.3272854153798374  0.1686884378906208  0.4186043291064365
  0.1620435619466043  0.8317387502614537  0.5794300656713148
  0.7436435986622089  0.2470238722973167  0.9086178540246198
  0.1629863458128575  0.9168644089882636  0.3307655940961250
  0.3273279299796772  0.0793826563887957  0.3285810764290852
 -0.0910102501899929  0.0805636667515580  0.5827542510916723
  0.9939243363705799  0.4927886805642509  0.9136004823439768
  0.7470568061948616  0.7497605997515602  0.9135336162397224
  0.9922721715496141  0.3313277671594085  0.2489274618785769
  0.4934363067217171  0.8312214415280922  0.5780996118087268
  0.8230621299303743  0.1644451813575370  0.2453748946968809
  0.6610238903024404  0.1655420942778564  0.2429977906887746
  0.7420127769431111  0.2502539471757991  0.5852926324202276
  0.2474361821351682  0.9172800716002480  0.4135751974244172
  0.6583941376178415  0.3313954695944236  0.5851291371926360
  0.5770639179649719  0.2485690723050143  0.5825516330347700
  0.4955512105734950  0.5783026945310180  0.6654728839796864
  0.4925953382966491  0.6650533777058708  0.0821335950065358
  0.2442709232146895  0.5769231763744670  0.2476072796766008
  0.8299163297826694 -0.0053334482015136  0.0760658104579835
  0.6579946484978949  0.5769701993145169  0.4945328032658341
  0.8264942984051022  0.3309858405009655  0.5832114204024247
  0.1626321668387533  0.8284554481428088  0.0784712358021757
  0.5779870253551644  0.8265884407211982  0.8327237828413474
  0.4139344098653009  0.8290058443809015  0.3303441981858370
  0.3299762712503348  0.7436164861404229  0.1641602832288347
  0.7429310195940421  0.7461096382795227  0.0783260325147979
  0.2445379772092083  0.1649744178299284  0.6630134439234597
  0.5704384752346350  0.7464580730541546  0.9140819790999436
  0.9927661423260079  0.9113499314615500 -0.0065292250520574
  0.0785775371927186  0.2515367542132245  0.0791827838236132
  0.5742305878022084  0.4949772751091391  0.6698310059975388
  0.9934826580326075  0.4961516615742684  0.0791644464899461
  0.1611338885985426  0.8265778893747469  0.2465875565043394
  0.9931910881457690  0.8302272110093940  0.5801302063882984
  0.0771477147140628  0.9986557823955826  0.8303414399109564
  0.0765439289325980  0.0807561727895570  0.2457489820080909
  0.9129489555939235  0.0804269657728614  0.0767779831503945
 -0.0051360619256023  0.0852125272420886  0.3295997805392277
  0.8263787953425200  0.5794902081538442  0.3249318160922766
  0.9072088011808421  0.7447309453274740  0.9120559661733105
  0.4954259001583746  0.3348757224667146  0.0788330517628112
  0.0788064764373201  0.1613232794175760  0.4976031953785571
  0.7438910211037174  0.1653053646152787  0.6688922872565998
  0.0815711121098997  0.4098710894544988  0.7490857224818874
  0.4113993144977279  0.2472968986583310  0.2424629914998439
  0.1610958869996252  0.2492603676569836  0.8309866781530063
  0.5745185958114778  0.3291837453032071  0.6657154526016207
  0.9882004937616526  0.8266015387762895  0.2490059858476342
  0.2441318793847748  0.8274778591416798  0.3313051621736125
  0.7436813258831368  0.4962770080434238  0.4944070008126515
  0.1600627660129986  0.9187763103658324  0.6652326613775617
  0.1602607265936897  0.3273604235928936  0.9103116464926172
  0.5706827318017490  0.3283823481397567  0.4988977599982854
  0.6574811789444363 -0.0012715549521385  0.0776490680446424
  0.3308500616252749  0.8289888044829941  0.2452857854541671
  0.1614519206707350 -0.0024258792274453  0.2456194188075886
  0.9098470452637135  0.1654222066989176  0.1630620813421333
  0.4102401596210480  0.9151247479400331  0.7475863109896036
  0.5773024121695373  0.5815062258308870  0.0758311738711725
  0.4973507236730676  0.0011130888910885  0.7503247759306926
  0.2426721998982749  0.2484424170661883  0.4168619640399809
  0.8240277565567452  0.8272180631815534  0.7491824801494190
  0.0773143575814965  0.8315877400030363  0.6648412255892500
  0.8265808029370444  0.2441721625761474  0.5013278581006102
 -0.0938947405095751  0.8257438638569781  0.1641113915570785
  0.6585052231105091  0.5003964338775641  0.7495807243009226
  0.4933947290434110 -0.0012343308220251  0.1613823221089579
  0.4103217889590819  0.0816163915937638  0.3304491175733878
  0.6599580615371706  0.0804240776128508  0.2469575280509396
  0.5765100214733216  0.0815875188976616 -0.0026366579032328
  0.4940224883762240  0.0819698815719418  0.4154293434568990
  0.4939222612415182  0.0824814166127655  0.5804057119149642
  0.3280685192863895  0.9175579915155364  0.9129847382598291
  0.5781764265054010 -0.0012872854534900  0.4143032877354891
  0.5774900467284103  0.0821292244323720  0.4966633799566715
  0.3266272107605260 -0.0007342663230145  0.8308929459205644
  0.6599080830487422 -0.0013781746684166 -0.0051460526261180
  0.2434044018163804  0.8296891789960422  0.7478249772500881
  0.5787758769963278  0.1654195032951153  0.9129086583244453
  0.5775131176858466  0.0003803113444020  0.5806344274209564
  0.4094379623429874  0.8309350897576500  0.5812765867847284
  0.4933432392920827  0.3312719456749927  0.8303224507115247
  0.4964592984546459  0.3309785889213003 -0.0050804535581001
  0.3277651650270027 -0.0010566119802595  0.4991721722490918
  0.4945586188282834  0.1637930224706716 -0.0019900163008142
  0.7431815456605073  0.1636102207214145  0.9127988923303194
  0.4108597871536638  0.7430791013771202  0.3316679905851038
  0.5761991438102873  0.1646886841739357  0.0787069567026248
  0.3282930316810693  0.9157627830177356  0.2451267885741919
  0.4937411452696943  0.1644502970099627  0.1606049027999558
  0.4949577458957947  0.2486360979457908  0.2457001182101567
  0.2448791149109581  0.0814962631128650 -0.0034783668892817
  0.4930398856135370  0.1676999371583619  0.3304359132552636
  0.3279764384156807  0.3301693497798215  0.4986587209145938
  0.5770043606584518  0.0816487394628585  0.6649860300794794
  0.5783484413433904  0.3304646849317825  0.0791140061618177
  0.4940413024235764  0.0836488881755443  0.7484419860046694
  0.2467007349123990  0.9159137871868637  0.3284402451886157
  0.4935885671593622  0.3307131595610371  0.1626861493963205
  0.3298703788531108  0.9166744233417758  0.4152547617404760
  0.4921643570423374  0.4126344199598534  0.2459377729682203
  0.8249578773987422  0.2489556124740100  0.0795620564014577
  0.5735460727122701  0.3316258524471313  0.5810777320628061
  0.3282774904076186  0.8321749113106077  0.5010335718987049
  0.5761595757788741  0.4122641123257315  0.8313298840968062
  0.6586658274284876  0.4132421286112667  0.5817913423330415
  0.6601367189610184  0.4950579490208353 -0.0035453112399219
  0.4906243000433064  0.4132102460133672  0.5800638078143654
  0.5752816493129584  0.2444671701945973  0.6664322988311167
  0.5745383470755845  0.3300069645414860  0.7495703769939055
  0.6607261763512550  0.0003444237253570  0.6653310967640724
 -0.0070347659167697  0.6623697226846730  0.4991918412063358
  0.3287340840523881  0.9152347112544116  0.0786009343007538
  0.5740949992164990  0.4129823620325746  0.6661801408056085
  0.4933698035270905  0.1632643111916300  0.6641206615664522
  0.4946159676782614  0.2492497140740129  0.9126546546870912
  0.3308575918135671  0.8305127512540116 -0.0034349092840007
  0.4104370146346301  0.4956722121364809  0.9126137951470833
  0.4948829459411910  0.1638279389898260  0.8306260644825727
  0.4107866986281016  0.0823150235613363  0.1609185204961141
  0.3280012740201255 -0.0025638388849784  0.3308354126526258