Cr H  Ni
 1.0000000000000000
    21.2472121444479711    0.0000000000000000    0.0000000000000000
     0.0000000000000000   21.2472121444479711    0.0000000000000000
     0.0000000000000000    0.0000000000000000   21.2472121444479711
 Cr  H   Ni 
 259 173 605
Direct
  0.7452688832483387  0.4133378045388264  0.6671945130924580
  0.3286745187593993  0.9110824853332073  0.7498807408170211
  0.3283513983297545  0.6583738995171672  0.4986866724553033
  0.6625934255444244  0.4141770512730199  0.5831757734351631
  0.6610716392919879  0.5809894485407056  0.4147941589697535
  0.1597353645890623  0.4149163646640494  0.0771562421382537
  0.7454434267058737  0.1666344868330799  0.7481795906004665
  0.8290838749030102  0.2472950377956525  0.7467202803429926
  0.6578316401786269  0.5797578657833075  0.0803135633468679
  0.4944529388710376  0.6636418097598036  0.8313846693514770
  0.7438441822387767  0.5788169397576735  0.6668611365214814
  0.6615444720889961  0.4180576441689847  0.4094542827517781
  0.4154148879734101  0.4969364853822736  0.7503638453568919
  0.5775729158237343  0.9109950444314590 -0.0028648681258752
  0.4108103210801119  0.2499786742834899  0.6652104013521845
  0.4102778885312429  0.6622434188329178  0.0796389961117129
  0.5728411875642958  0.9099209096612317  0.3286690631649861
  0.5752469416562446  0.1628979784945702  0.2458747474426508
  0.4960027650007229  0.8285794688961766  0.3293144237832104
  0.1599652346372932  0.4973071660307745 -0.0029850416360172
  0.5760174923540872  0.7437187525036867  0.8313579330657076
  0.5784129601290927  0.7489387232173296 -0.0008672743828213
  0.4962612311992673  0.1630777624934354  0.3258480166177938
  0.6609772718525944  0.8308604747918120 -0.0035877314010413
  0.4951188051278609  0.4978420908714740  0.1630210970783664
  0.5745306476225509  0.7436392881724003  0.3258197574217142
  0.4092259487786952  0.3321018524201638  0.9139476261775162
  0.4951698307703112  0.0775175143012555  0.4155504924360808
  0.3326622312466512  0.4128748076072621  0.7495885659473397
  0.5804717700609546  0.0810872172751009  0.6634994264348296
  0.7439823964231024  0.4131120491998366  0.8331157232314752
  0.2458054691615571 -0.0067068678620676  0.5840133567009896
  0.5763233009586095  0.9127651693703192  0.8310925265775216
  0.6598739975541673  0.2473291529856287  0.9134268285682220
  0.5774906667791263  0.3375501666862267  0.2452589474566267
  0.3264747929767191  0.4158988737585941  0.5811149356101292
  0.2434982840140378  0.3322174209701674  0.2443103069270692
  0.1589786920509544  0.4196795553332273  0.7496376601955359
  0.3265168801529283  0.4167989062408420  0.2452841970581923
  0.6598699201424701  0.2513472165596473  0.5801506553003888
  0.3300783056746033 -0.0065988461491735  0.4974286121157468
  0.4935478570586248  0.4187100202712899  0.4117747824364176
  0.6621086842265577  0.0771394801363975  0.2423375612332392
 -0.0075982961772084  0.1632190084383090  0.6639382249599604
  0.3269722707114531  0.1677591366662043  0.4972020945382323
  0.4988737012598835  0.3287408191412058  0.0011060357511907
  0.5770470089695701  0.1617631285564695  0.0784345435145337
  0.7469012011856972  0.4978116745932056  0.2463524909479157
  0.4108757565069921  0.1613758992502316  0.2460509180779838
  0.6641417141055276  0.8290904276161112  0.1630169780193605
  0.4938516828857541  0.2470936492258515  0.0803844195254558
  0.6622217724019296 -0.0037929985665535  0.1630942235461317
  0.4081542824626868  0.3311945527390531  0.5843648626850514
  0.4934077635688925  0.0778901026376360  0.5775603585155674
  0.3293902539067706 -0.0058026450218475  0.8310386656934033
  0.4091764240438114  0.0811036141646973  0.3264598438236204
  0.2474493913696949  0.5782601760796054  0.4983389315840626
  0.4081813711788430  0.3359586786498707  0.4120605962939519
  0.4942529548487172  0.4135031355048618  0.7473109435104882
  0.4899209996511700  0.8287053530360688  0.1618420700252349
  0.4094991645470636  0.4967532222049937  0.5819308319234668
  0.5777450358239797  0.1613777619711073  0.7474004111939655
  0.2438716555903228  0.3335048031570556  0.5802830102457464
  0.6604193210124980  0.0833277276046483  0.9173876364655015
  0.6610245449438505  0.1686011137493621  0.4951341819199237
  0.1589111010257048  0.1615233533648679 -0.0005651147702175
  0.2431535564763446  0.5033205213134473  0.4124657416120445
 -0.0078704782188835 -0.0036657770325484  0.1596405004407261
  0.8279960395132765  0.2490982309439879  0.4141548219276272
  0.0739538603138493  0.4153564171390213  0.6605416131487857
  0.0801542876549782  0.8314749341360463  0.9148112139656539
  0.1639963506198105  0.3306270892289625  0.1616263617221792
 -0.0056505255427358  0.8297757192928527  0.4993560036529994
  0.2434335807946547 -0.0053264569076514  0.2453115805678345
  0.0768397958282202 -0.0054508905947551  0.9138778017871956
  0.1619488827191750  0.5824831722595687  0.2427421273454664
  0.8247580285031739  0.0760839523076942  0.4158788308556453
  0.1615355758927116  0.1653064073113243  0.4956705787989538
  0.3247722557847668  0.3313291136776936 -0.0059269791120410
  0.1613979152417949  0.4940427611632203  0.8322469292208746
  0.9111708083978253  0.6631494594811250  0.9151207507423775
  0.8264675456811292  0.7472037049669554  0.0785962103792939
  0.9137879431898261  0.1674290030210951  0.0758397884079725
  0.0734797440796842 -0.0070002585474771  0.5811383886291560
  0.0764689047859713  0.3311637161846329  0.9164749415652915
  0.4110657651968929  0.0801556609745814  0.8327868768099703
  0.2430864465997424  0.2468979578833952  0.8356110850118436
 -0.0068113447850826  0.6628616208787020  0.6676344123075029
  0.1601572653990864  0.5813975011072340  0.9165943673387291
  0.0771989512923142  0.6630047772025087  0.9126141419491605
 -0.0094564442818889  0.3281572586572716  0.1622505936937963
  0.1576985372537476  0.0742236565488488  0.7455942234332115
  0.8321017966900695  0.5798755274877746  0.0804850086793975
  0.0777577304051604  0.0801525844409416  0.3325995108387004
  0.8261078507788601  0.9101147927199891  0.4114833992753277
 -0.0066568374439593  0.0823320412311830  0.2490841552593135
 -0.0087704865426760  0.4971743356369368  0.6641779017771070
 -0.0070063093621233  0.4952239632684663 -0.0029478985570676
  0.9075135530868815 -0.0054240626887200  0.5842924232335553
  0.4963834502076361 -0.0051397083058120 -0.0029943238861228
  0.2467854962817965  0.4978889686316189  0.2456810773257478
  0.0761573164987530  0.8303277015880824  0.0785469620661582
 -0.0063472482138109  0.1670919569753792  0.8298369777575773
  0.9070118452607012  0.9124632772381542  0.1612715696827228
  0.1569242338652458  0.2471157691278288  0.7464619087703604
  0.0781984264860996  0.2481191791310858  0.3284312875101231
  0.9129896603885186  0.7443065336666295  0.6640994958543489
  0.5783008298453205  0.9116023327189026  0.4984195368883418
 -0.0031095449199899  0.3256504766129528  0.3266367947563221
  0.9090689439149151  0.4999002843120848  0.4161677331684279
  0.9087791577904791  0.4126743854397182  0.1611482874750850
  0.9113703084908087  0.2451926342353894  0.8311690278300640
  0.4115086330617791  0.5801217532245379  0.4981998994452847
  0.0001599598152614  0.0770691702952051  0.4099748159171088
  0.0766658546580969  0.3317128554765832  0.5842284521826896
  0.2471652496006281  0.3302690302391303  0.4132212963541191
  0.1609859914330161 -0.0048538013890174  0.1633917993270078
 -0.0113267629910859  0.3287279496805234  0.8319012020184078
 -0.0047218272483804  0.5011567842989303  0.3322712112704071
  0.0795020999642900  0.2444153782986821  0.1619353641449563
  0.9122392092838346  0.3314416129251913  0.9096343964495731
  0.3251311792453268  0.4183285530029890  0.0798173768349055
  0.1588510638825389  0.2484425689771133  0.0834428807171443
  0.0727081011796402  0.9115201889475055  0.3307526053637026
 -0.0062904769871506  0.6631452211031810  0.3261087999082498
  0.2449347820468576  0.1661480491109612  0.9136960829375188
  0.1624719894450584  0.5752243413493515  0.4140071833683373
  0.8269652186970681  0.4969259144102378 -0.0031175713836128
  0.5764409838992022 -0.0058317169592560  0.0782272030455759
  0.4912634570591891  0.3316141031354715  0.6666206467097193
  0.3286605346486420  0.0783943555517311  0.7542442586791854
  0.5812131169662370  0.7416114842290547  0.6664138411836148
 -0.0090341470962463  0.3303826224962936  0.5019421768048431
  0.2387328086127456  0.1675481635561234  0.4143351461614931
  0.9099357360677912  0.7444218301697308  0.8309977836683710
  0.8263166974748486  0.5791033818234458  0.7469301870598133
  0.2469320282959176  0.8289837793124573  0.4165235472909495
  0.2463787273504640  0.5792804151599761  0.3277559336324412
  0.8243367004584656  0.0769090647850994  0.0783523922611683
  0.7439190808465487  0.7459962091636203  0.8314290923309574
  0.8277623364329599  0.9137766811663847  0.5838936437637375
  0.7429294534466423 -0.0038057872324143  0.0803477477047560
  0.1586384987246778 -0.0056868355855705 -0.0038702708414297
  0.4983533705100563  0.8295657198196437  0.4993225641598750
  0.3267645500832587  0.6647869490850680  0.0012832375969731
  0.7380362872180701  0.7459707428603825  0.6644151089204832
  0.3261065838642435  0.2473415149065556  0.0787705317828608
  0.4959323838278434  0.9098416982621041  0.7543271621705704
  0.7478453090812998  0.6632106148035842  0.2444920681390574
  0.0748717872557516 -0.0034120726486152  0.4123383224020733
  0.7429475724848634  0.8265971881020109  0.4134657793760137
  0.7472535722846529  0.7463247254327555 -0.0015978633961300
  0.6606507400055525  0.9130478917783169  0.5801691298198329
  0.7455983381293846  0.4158263912183535  0.4937717135889439
  0.7454674064251826  0.0806085768931846  0.6664273316836580
  0.1607318901783845  0.7460351382708044  0.4151546157725869
  0.6564793838081733  0.9085564624559628  0.9147016309782865
  0.9090997109349708 -0.0019790693910706  0.9124163446098463
  0.8254985374993146 -0.0018219314188355  0.4978155513691075
 -0.0032954728449301  0.8286783625625160  0.3254706146585140
  0.2465526820432858  0.9125428451851633  0.8298137914352158
  0.4951948885516805  0.6621552219314740  0.3291492408808347
  0.6587832139757362 -0.0091016619352385  0.5013678898113526
  0.6596007616316188  0.9125289693644333  0.7508907679628098
  0.8267724177865485 -0.0022443215781234  0.8308892930746276
  0.7470153058663278  0.9093548730070659  0.3260826606486616
  0.9097609201499598  0.1674140004674926  0.4158844648754355
  0.4958587953544614  0.9097498940554731  0.5760261316273954
  0.4092790422434125  0.2464504964972161  0.5004123448596842
  0.8291686630913929  0.0783319851869558  0.9127235285871383
  0.7401272420932435  0.3317475607798605  0.0785648226271751
  0.7417770956077526  0.1631843205743082  0.0795931201144017
  0.2429824678062499  0.1633629583151763  0.2447366340993426
  0.9092388374747171  0.9135813283097406  0.3272541731722348
  0.3277146165691690  0.9130814348547134  0.0793663914916840
  0.2458999153492717  0.9144676378943495  0.3283897617057032
  0.9106281873988674  0.1636917803599684  0.5816356857338717
  0.8252089555934339  0.2486891852591144  0.2453948839477726
  0.0767409502487704  0.8305696336798443  0.7484411631496304
 -0.0046181980393690  0.9162083324995489  0.7486056780039033
  0.6605500827131521  0.3284276560671446  0.4983271388290001
  0.9138007809180537  0.3315073378229618  0.0834106818197299
  0.8257649155970804  0.8259175985247748 -0.0029529735124496
  0.2440362067411283  0.9132032557797028  0.6652733996597262
  0.9094628599932049  0.6648024672306222  0.5841261512822252
  0.4108650989263877  0.0766103672395397  0.1645283059776921
  0.9110419656021886  0.2441873813893254 -0.0042138703877564
  0.2455885751821515  0.6635687615925806  0.0783722374904103
  0.9099776170935833  0.4136396337120575  0.8321727430776139
  0.0813052654326776  0.6612424045214076  0.5822145614814089
  0.8267024447335266  0.0800700917056779  0.2448060569631535
  0.4117945739394510  0.5808946638946483  0.3282707955714333
  0.4116345401581252  0.1640142441834694  0.7493120356310224
  0.0776260644753024 -0.0038658688203143  0.7473560368250773
  0.8265857403033675  0.9138491800550168  0.7479278141282183
  0.1585228272653539  0.7467959101655977  0.2449365278676417
  0.4132721145552758  0.5001806103869351  0.0787768157023108
  0.4970781967850290  0.1652179113338683  0.0005019699118823
  0.4143521692468419  0.7422739300635577  0.3292308889674664
  0.4097399458337457  0.6659490040703649  0.7490801785766174
  0.5759553919045665  0.4965214022961311  0.2439178367232461
  0.3286294088244302  0.6683117804265365  0.8282960474069067
  0.5799097224669475  0.5003667995199562  0.5828505134279186
  0.4119537314713805  0.2439636616143342  0.8283240484453722
  0.6607129371349240  0.5796949785098100  0.9129743982581433
  0.3295138754685128  0.4158562403080863  0.4131019416435887
  0.4077260133278483  0.2496220499471087  0.3271421733551341
  0.6632790884391142  0.4140012017065028  0.0774816676504420
  0.4912406867561447  0.1627586115556617  0.8310996878557771
  0.0795124305060689  0.6650371821398240  0.4138451127717461
  0.3284439073755425  0.0746239381836909  0.0833306914313018
  0.6631955545858013  0.4133986224481861  0.9135338030340560
  0.0795597876640586  0.6635769569515678  0.0776688193692158
  0.4940051238293949 -0.0025387001596151  0.8344940923474827
  0.0745691224974140  0.6659021465537918  0.7466688748142852
  0.4952876767923160  0.4989947000942703  0.8320063822301189
  0.3308202339526276  0.7446077115774489  0.2425826270784320
  0.4098110710291132  0.6612537577865206  0.5806932688006526
  0.6616231322052890  0.7469241312676611  0.0829780585663267
  0.4115722583918143  0.7445235501656097  0.8299013501242180
  0.4917174681152920  0.6597834094870995  0.4983705407727971
  0.3290002411812263  0.4090813277030310  0.9163691217241983
  0.5754466811104325  0.4151207277745503  0.1633190401507512
  0.5740443303042433  0.4953197198802706  0.7506139791021804
  0.3267431897978676  0.8291538372574766  0.8304413640598439
  0.3293376549130159  0.0796016399210623  0.5798296919711650
  0.4953085898087054  0.4972713107538377 -0.0023946973132546
  0.7447464855886521  0.8281572296306363  0.2457140430229783
  0.7454968702981608  0.4152488078485060  0.3301520770325228
  0.2436515193640356  0.7462307055558621  0.6628854643778165
  0.4123514484150346  0.9093560496415232  0.3319921096459707
  0.5725335722443096  0.6634128437113943  0.2453844553779919
  0.2443180400434558  0.8300338386347299  0.2419552819452060
  0.4121661467877042  0.8288201284052011  0.4132694994119734
  0.3278579958785980  0.5821111522755432  0.9168605949912005
  0.4125687684602639 -0.0050865592030215  0.9130294197515393
 -0.0084897945349599  0.4956527725352199  0.8318313709413989
  0.2416018401345738  0.2480223033766268  0.6630290621068521
  0.5777339638851432  0.3360339105251832  0.7504031795975139
  0.2443354356769034  0.5799272726813284  0.6656547839693704
  0.2416892540571977 -0.0077703495541211  0.4087118567266325
  0.6630753028248748  0.7448765258922074  0.4098851111703746
  0.3245485520639369  0.8321959652356191  0.4946584510474129
  0.8253946929546113  0.8247715883719360  0.4978288306269222
  0.9078264534175542  0.4148529518173835  0.3277363274980686
  0.1645756349886049  0.7470062139830236  0.5823016093334731
  0.2447324483780716  0.7477034673170383  0.1594739232628902
  0.8294101455078760  0.0826751050959510  0.7477432165178413
  0.6629452706556903  0.7436368569702547  0.5859589837000155
  0.8270725207788692  0.5001226221718565  0.4969728859274121
  0.9114645028946610  0.9143705184869554 -0.0038123782790728
  0.8227925236064791  0.4975128817851502  0.3273772174700150
  0.9096810894302069  0.7458564273922469  0.1618376913336171
  0.9063605634179571  0.5791050792511530  0.4968320643713079
  0.9091452979006289  0.5808886915282699  0.1611638337187528
  0.2475028859797090  0.7455624560542105  0.0000060924212324
  0.8229291149497587  0.7507130883639004  0.4145876768105615
  0.0763307742189531  0.9112631221576031 -0.0035791448310609
  0.9123344343055463  0.4144525473256941  0.6644085079548739
  0.5770531406113174  0.1687318864623190  0.6603351991224916
  0.9911322738774522  0.6634352174289375  0.4151322785370046
  0.9086569745722717  0.8256830864044504  0.3270496428875662
  0.6620762368705928  0.7446163416620108 -0.0038456340193499
  0.9942301169214451  0.8306868665525053  0.5875894944424154
  0.4115291054886982  0.8281440395586741  0.4994944849465819
  0.1595479704999906  0.5802965245351758  0.3284621102351482
  0.3300884228094899 -0.0032446471432587  0.4092357952328510
  0.5803893330440666  0.2499358926810065  0.2446695752033833
  0.7489536367928689  0.3278786228769648  0.4959376626489144
  0.2492767883477463 -0.0066380211056952 -0.0027880820334314
  0.4096538952317063  0.8294941784302863 -0.0034545382162401
  0.2421095811228213  0.4162950533981910  0.4131051179630164
  0.4981070167729565  0.3298051940369520  0.9128021234401611
  0.4952643695002977 -0.0024048449642242  0.7471674315140527
  0.5760894712388974  0.4985809314105073  0.4921359026302256
  0.2418206649087633  0.0815489781729373  0.5816717671586963
  0.8222384183783032  0.6609029038049720  0.9129170984610560
  0.2427192124475650  0.0804193478690405  0.4111704329886252
  0.2458417344924471  0.4144316168610221  0.7505515207006673
  0.3262566621725843  0.1603315242061167  0.0800832174280700
  0.1589900040995739  0.4947603861581934  0.2448237010502650
  0.5781601700988402  0.8306411242800616  0.6659748666207833
  0.6605017681758306  0.4151392217485414  0.4970233342005056
  0.9099553105562429  0.4118090643726947  0.4166810936553856
  0.0775764024662917  0.3295560312987646  0.8286907993637250
  0.0727372311330677 -0.0014512457014987  0.0002602352060426
  0.0718698008033388  0.4134057512526074  0.7490828004660431
  0.7501557383672238  0.2467475280190253  0.5815189098674542
  0.6640935778853496  0.1668962676209487  0.2465183608804447
  0.1579621781628198  0.7476952236027756 -0.0046611293236453
  0.5760276634549250  0.6593622270235390 -0.0022969369107554
  0.2441098450290673  0.2470524909438775  0.7490725548791723
  0.6602125295660980  0.0801238996201752  0.4970084571121594
  0.1601141930482117  0.9123700698580740  0.3281865837463545
  0.6634696396591948  0.4143658140521332  0.1654331090716027
  0.4150405393946241  0.0787796781252783  0.0768966546999581
  0.4957968611391269  0.0765272293510983  0.3287237155404286
  0.4956056019185885  0.3309472671604415  0.5784347638749944
  0.3268154339273568  0.3328560621481617  0.0807594234983807
  0.5797828079299073  0.2469584014193310  0.4128932685433481
  0.6614306151725656  0.3294443844943993  0.4082492789282397
  0.0766877241212797  0.6639156058748336  0.1672675495230271
  0.4889295082763079  0.7441882171057004 -0.0018159390601618
 -0.0041718727365262  0.0845788346150303  0.1599910782700199
 -0.0071998317834782  0.5851046921179978 -0.0037330191665317
  0.2441149038240938  0.3349969681274128  0.6675299338600315
  0.8264044934689986  0.6609323609400812  0.4131272951103429
  0.6609086876190766  0.0800563038361404  0.8278443202283481
  0.3283141844145877  0.8281416823951414  0.5850685007151212
  0.9951747511026365  0.4140526853078175  0.3306875173515959
  0.7463185882762350  0.0797492346426139  0.5768944818539240
  0.3265940634372676  0.1674061777886044  0.5846095346109786
  0.4956687928464101  0.4114114334371042  0.8345052651825573
 -0.0056536028292343  0.8289276750132554  0.4115484200268101
  0.1586425122534006  0.2500326455605703 -0.0056671409174378
  0.3316610263843570 -0.0067097614077798  0.5845039536247714
  0.3272610766314672  0.7459202843962524  0.4981896508629837
  0.4902912145505953  0.7464452309840017  0.6643115590234728
  0.5797087729427848  0.1649093395491875  0.8355796140264066
  0.4927099673077656  0.0804136655712949  0.6654898151977282
  0.9897516587963674  0.8291396162988456  0.9149797456645393
  0.4101702445282778  0.1651973446706953  0.3313660438275711
  0.5754135686826820  0.7445391810767699  0.4145392092780962
 -0.0065262774634843  0.0767819026849896  0.8306965771787566
  0.0775708246839523  0.3308892836304358  0.1618698076646694
  0.2376851344958788  0.0800581735828660  0.0801632023284623
  0.1588987616975763  0.0784376070217094  0.8342662652900026
  0.5742979449708669  0.7442906663344218  0.5791461635284517
  0.3274478975079333  0.0792186697951616  0.6668385141632186
  0.1598503691719297 -0.0038867733294832  0.5803604645092518
  0.4113437008986768  0.3303229602298284 -0.0010559064295163
  0.9964021452803360  0.4159422044828989  0.1609099338491312
  0.2428160951210760  0.8277796271333043  0.3289308986641796
  0.0775236707493339  0.4989485735843106  0.1613544577329646
  0.4092147471655578  0.2491024120342380  0.4135235421463274
  0.2429341525102516 -0.0037529403947094  0.4967539408663141
  0.1581743548318365  0.1611899352882392  0.7476819515586151
  0.8275131087901734  0.9113871853424828  0.4975046854267047
  0.3266508139485577  0.5004296398902898  0.7482543531882867
  0.9086887257756212  0.6572006654739538  0.8276355651710272
  0.5812362250946849  0.2499790656211541  0.0800324800864424
  0.8278320303383075  0.1641583150882171  0.0798975440131492
  0.0769131240981402  0.7493286750105650  0.5822679176209832
  0.4961345887955901  0.1656665344160224  0.4153918603062007
  0.2413308057975976  0.1583548780795884  0.6662568460996904
  0.6598140454163390  0.6634797696287270  0.2448858986224732
  0.5792025004325061  0.2486214457879755  0.7486384967949694
  0.4104987180629872  0.3376759782163200  0.3235762454176985
  0.9965344446638679  0.5790972487475858  0.4979937913766699
  0.4115274141136464  0.9123520493312304  0.2415405994238452
  0.3271110416464038  0.1639234456890437  0.4097323198934930
  0.1579094426130372  0.8330393366418845  0.4162478617743061
  0.9928035756406269  0.4990728304985083  0.2420686938684171
  0.1595290203201045  0.3330487989368989  0.7487794680065316
  0.5809765421284935  0.3319265929670761  0.6620776839938386
  0.4097660455859967  0.8260975819497807  0.3274307709326794
  0.1656646183744783  0.8297443713209538  0.7478253488967105
  0.4120072722587981  0.1654469649307606  0.1594317712560597
  0.6609519978717476  0.0816225913415846  0.3331908159641082
 -0.0011982924291102  0.1664887498002931  0.4153377279301049
  0.7492165950413223  0.2466858055767705  0.9140309439470506
  0.8210640236504653  0.6622019784955889  0.5808318462467416
  0.1653655839268745  0.6606824177611380  0.4138355818695704
  0.1651049227904674  0.6622010030604845  0.7478803653463773
  0.8245042779497563  0.1625842457628931  0.4134299108943235
  0.0781914588359689  0.4139598026058516  0.2471951002071438
  0.1592558191114500  0.5786638146205040  0.5025776869415245
  0.7452006513942293  0.5793953440094801  0.0802570202869417
  0.0774691358982751  0.9112469096707353  0.2410938655942158
  0.9097129718622426  0.1637589933688915  0.1661780887002854
  0.0771606595785411  0.0848375296006451  0.5814041694620645
  0.4936443976108090  0.1677079941762953  0.5800072058124985
  0.4107329482488721  0.3334256965694755  0.4978271387056710
  0.9115164549614109  0.0805162092012029  0.4135563036067153
  0.2448612025311693  0.7441212394606761  0.2459329086975088
  0.9127235673366273  0.7439034729721983  0.4142506758420536
 -0.0110616653908423  0.8280785739282424  0.7479400443925817
  0.9127346382139673 -0.0045160441187374  0.4964777794497010
  0.9135960028966107  0.0775806082870229  0.0782704195969965
  0.1614913360259247  0.5829221978743057  0.8284125001130719
  0.5774237104144672  0.8286822416912769  0.1628832246166451
  0.9131723366305278  0.9125232881121522  0.4154143193848092
  0.7484698598168287  0.4148803179498609  0.5802402398873236
  0.4093967504640926  0.2508662077449177  0.2409454154826146
  0.5783670246219675 -0.0076395469070752  0.6645317229672525
  0.4961378939945031  0.3310023012216142  0.4129896563455309
  0.9081900169389452  0.8349983306491499  0.8311868913271941
  0.7405024203764918 -0.0869824263527682  0.4135420427114432
  0.3285738500177319  0.0794989187823085 -0.0063438222127787
  0.6647155820916502  0.4979244005369602  0.7490824200239662
  0.3261536967355196  0.7431376072210004  0.3313372427078253
  0.4928272642905625  0.9122255149297067  0.6652349221390632
  0.0760749890497074  0.5771723489396184  0.7477384969718236
  0.1578248585988175  0.3330843267735674  0.4124457925243923
 -0.0057612889990668  0.3306814376973278  0.4137434880815648
  0.5748725899555446  0.4134622951272126  0.5795793660599774
  0.4951805921830346  0.5804044766009305  0.6650154543723343
  0.6596414084733176  0.5800653513784317  0.3246566085484071
  0.8239447610024926  0.9152247536628849 -0.0029967717047386
  0.9949013518200691  0.6638427257622951  0.5809700710450059
  0.0768657024967395  0.4962159879226353  0.4971622837600440
  0.6584221958075018  0.9962224874805359  0.4105761274165460
  0.9071107062561868  0.3266945809489187  0.3298841042705767
  0.1567214065537962  0.1634346819574977  0.9115088743688172
  0.7435338145682554  0.0779817811958324  0.7519779646938559
  0.5760704063885073  0.0744557777210028  0.2453772195293223
  0.9112050965940257  0.1632397124430122  0.3269483411440798
  0.0793605737025562  0.3312614616302665  0.4959112039898018
  0.4106084193424432  0.2447479979063686  0.9164370765229622
  0.7433605504219593 -0.0001012063751197  0.3278634479625189
  0.3283615102282587  0.0800950536089596  0.4944287459588625
  0.3270705186311212  0.5800467236921740  0.8292917435039595
  0.9952207694323248  0.0810211388196627  0.5006512641239641
  0.0807207105274305  0.0813060595796064  0.2435812634037434
  0.6617850023314275  0.1619180490987235  0.5833205752133324
  0.6597531721099720  0.7443970518652923  0.4973143683057011
  0.2425891656312166  0.0750563489355892  0.9138516954384197
  0.9097615199908072  0.3319549712107806 -0.0033374428224086
  0.6610336275864948  0.9954544249485585  0.9145030164720509
  0.4135288022076064  0.4130346282479586  0.0811030281635655
  0.9093916847782914  0.4999326213600772  0.3285598299758352
  0.7461638777756423  0.9127308923974899  0.9123967291944204
  0.6605098978655211  0.9110892230116611  0.3277339922083721
  0.8257915566510222  0.7475917562248935  0.6657674507721599
  0.3283252569411393  0.6670051085154566  0.9147553660632923
  0.9896689225171837  0.6650242540367143  0.0804340398103468
  0.3278010206920018  0.4956836862201114  0.9142982142691775
  0.4961756192623392  0.2524125651002422  0.3276446982957729
  0.8274364759540980  0.3308792096186787  0.0789327481742501
  0.4121428000004082 -0.0045154166460400  0.3281776538644956
 -0.0088834422925042 -0.0060899961822392  0.2473123754202315
  0.9953507980253747  0.9083919097658132  0.1614708695051384
  0.5803417550007358  0.8291073031091339  0.5817402575350644
  0.4112532981416381  0.8285601883086201  0.7491625165606042
  0.4128802173396637  0.8291783622817468  0.5821840715338071
  0.5781205590080868  0.0799495718327456 -0.0020407125474758
  0.4935922752057903  0.0778455334948935  0.2434839288476861
  0.5778798606507665  0.0791159274490260  0.1598901729791406
  0.4955888571805155 -0.0071613346191295  0.3295739668239718
  0.4123133801985134  0.0796482127697156  0.4967951641460631
  0.4959172890775131  0.9112719286716535  0.4145834340257384
  0.5792327963313110  0.9122917826745477  0.6649632590505734
  0.2436857699288166  0.9123990402317734  0.4962225699473151
  0.5762039746661674  0.0787101185775624  0.4978761767676273
  0.4118835590965378  0.9128743618369218  0.4967655403325348
  0.4949111457545604  0.9114006830341493  0.2445320251475006
  0.3288927121914647  0.7441773105380561  0.4145730100288912
  0.6635039409443559  0.2474256220463789  0.0803181463414035
  0.2441990202436383  0.5803922949106026 -0.0028426492672594
  0.6620239041196756  0.8298280284791275  0.6666794852900543
  0.5796622134252564  0.2482196849224892  0.3278997169990927
  0.6631110130839164  0.1650319585998880  0.6661603227492657
  0.5789227011622311  0.1624568075557206  0.4140553676005594
  0.3265039895128833 -0.0044364233945654  0.3267182779778109
  0.4941707225450069 -0.0041559937801205  0.6631963295820900
  0.5767560229132442 -0.0042412526367195  0.5801279041917089
  0.4957053841608657  0.0806277285902814  0.9161469972411995
  0.5760135780002845 -0.0038538768056872  0.9153174896669822
  0.5761727731179829  0.0795632155421761  0.8328456584085719
  0.5776112702712882  0.1639458057319276  0.9172491186170757
  0.4947409538308190  0.3324577659003931  0.1623313486095243
  0.4105440291319024  0.9129446509348721  0.1597027689810259
  0.3262362065971675  0.9120655031450238  0.2454633957050374
  0.5803322781060530  0.3339125579413291  0.0803551323918912
  0.3288447282947489  0.0800056258635006  0.9117296898676930
  0.4121913350643091  0.9134644173116605 -0.0032398005578830
  0.2450529422063902  0.8297854592170045  0.9141097197307073
  0.9090966844845367 -0.0035567232978088  0.7479820193571447
  0.4950429968471827  0.3359688841051605  0.3272224519917080
  0.4937597594018400  0.3341086684258839  0.4961281745490450
  0.4124468497200168  0.7434676569696652  0.4978649721068705
  0.6620761429129379  0.3331899642948595  0.3264621802013292
  0.4104404247027257  0.4146310912762889  0.6657855033871313
  0.4937586486695870  0.2487550082167037  0.5808189037018882
  0.4952106652729398  0.4149265813147567  0.9172525994774871
  0.4107896377037298  0.3296483646900450  0.7490810430659884
  0.4096656050234423  0.4175208527378445  0.4980836009934019
  0.5776803513514575  0.4163124202959261  0.6654594162185553
  0.4929169744395918  0.7440727385326152  0.4137408986211876
  0.4090051448043569  0.7455702005922510  0.6647084198859263
  0.3286833694412602  0.6604240474459954  0.3287719700839256
  0.5779769821643762  0.2481774073847227  0.8322624646990708
  0.5775383545835253  0.2482377445315504  0.4974702793735111
  0.3269693036944801  0.7438265197641811  0.5823757090587111
  0.6642040317329432  0.3317665915825231  0.6658216418900843
  0.0773188308111635 -0.0045902502311200  0.0815576942803642
 -0.0051243783192411  0.1660259809891797  0.1628699555497506