Cr H  Ni
 1.0000000000000000
    21.1200000000000010    0.0000000000000000    0.0000000000000000
     0.0000000000000000   21.1200000000000010    0.0000000000000000
     0.0000000000000000    0.0000000000000000   21.1200000000000010
 Cr  H   Ni 
 259 173 605
Direct
  0.4893147817632512  0.1669245032048290 -0.0011566049973444
 -0.0068710353574295  0.3345622661719341  0.3353203125532021
  0.4141100766373095  0.7467278150256051  0.4981954704655471
  0.1614790080999347  0.1666380709942434  0.0014281235283333
  0.4103081486875594  0.6670682458487769  0.4164952021224853
  0.8280360913726125  0.1682307718137617  0.8331218924270455
  0.1574214648861149  0.1701887958002516  0.8337405779266031
  0.4121821583096739 -0.0018209228052781  0.7484585650789192
  0.5749109471172872  0.8309359728600114  0.9188391513083672
  0.4941351330932555  0.5852882967550316  0.7493828717144579
  0.4110154982853561  0.7481893393514933  0.8360314251876879
  0.6625791072371873 -0.0028075139532530 -0.0009240302257999
  0.9084482146363421  0.1632117104994739  0.2471388287813395
 -0.0066649273352848  0.5837202366254077  0.4158656356316359
  0.7424569641305044  0.1671488847797572  0.4164119920675602
  0.3295717989291188  0.7480677999099625  0.4153820212215654
  0.1638454018087343  0.4157178724795194  0.4157798765443165
  0.2402332804298615  0.2511775987348066  0.6651596383582062
  0.4956185011943257  0.7484561310537629  0.0821956484126936
  0.2457173300922486  0.4160129810346520  0.0018563909564847
  0.3299423589587143  0.7522171282163899  0.9141452099686415
  0.8267534807317439  0.4184133428240582  0.2499351521905167
  0.4919424435129537  0.0023267926721194  0.0013725956189279
  0.3277296833587511  0.2512995947344680  0.2500558108275158
  0.7429845256728072  0.0006242654356990  0.7530236660441820
  0.8288750764548073  0.1663055337591193  0.0016639370873828
 -0.0040490654818031  0.0847977210116475  0.0827099655895891
  0.4148435267665239  0.7512779777921376  0.0019804446455347
  0.7456428657022312  0.0027311788025224  0.9177958387799257
  0.9066768790394559  0.4171246928994753  0.8360047006282864
  0.0773413527273743  0.4150996147357558  0.5022254384345913
  0.0000778075762799  0.0001374855994936  0.3303407343803520
  0.7428352019919352  0.9192720986274832  0.4980326419147836
 -0.0074621333580873 -0.0038768143296464  0.4997275552159477
  0.6609280965536214  0.0802617563605866  0.0838249110241524
  0.8286710780221117  0.3340366623721677  0.8372293080102554
 -0.0068496071568258  0.1690781942750637  0.8347273942200133
  0.1632858353542992  0.0845329249445129  0.5833388822169381
  0.1599208861164260 -0.0037260461092381  0.8327614030138470
  0.4127610291974744  0.8334315341876283  0.2490288551384444
  0.2424567397524197  0.8324023800017449  0.7546915613796851
  0.3291331503378692  0.9136930250981435  0.9158159965503532
 -0.0047485630673871  0.0001755399645147  0.8349269484954579
  0.8304433237902535  0.9130276253973364  0.5846160767917236
  0.3275273517798919  0.9132283387500663  0.4156755575412652
  0.1627261577572637  0.6662127096117807  0.6676043375168353
  0.4106423876832324  0.7514463717364235  0.1664340395188996
  0.3293998769685797  0.0841990738436652  0.5868989323323063
  0.2418039151149809  0.9185322437058925  0.6697924770465075
  0.4928085559354138  0.0003120477313351  0.3314341942740978
  0.2441085539462070  0.9126958974075887  0.4964849128245922
  0.1591395335411656  0.9141513155043431  0.7529370132857856
  0.6598789027275260  0.2545791615798398  0.5889614550251153
  0.8290451498211521  0.0845899771769227  0.0803997467497977
  0.3294610433888697  0.4158148315766464  0.0843393203571587
  0.4103186470387041  0.0031863710253067  0.0836456732175172
  0.4132734639463486  0.5838764175317831  0.6674335491315143
  0.2423548506401170  0.9167872370497748 -0.0026160731025724
  0.9115523884954184  0.2497367327445312  0.1612829134279590
  0.4950681949097230  0.7436658302525090  0.7509495956899725
  0.2486253318062346  0.5854464919710013  0.1685272372983932
  0.2445278779835291  0.0837661202551202  0.3339730688594453
  0.9101600950041883  0.2524646534463364  0.6708051573465796
  0.0736458554993215  0.0004402590108645  0.9162642922434865
  0.2456441627866953 -0.0005722799723438  0.7506643087174641
  0.3304890057590967  0.1701433915284246  0.4978654848916580
  0.8275384796164517  0.4984635279724184  0.8364475877341335
  0.0806587100348074  0.5026549008999350  0.0811992459972877
  0.6633356362410054  0.8298284108885077  0.6733152141731606
  0.3252977861542157  0.0876516103475628  0.9185981202234494
  0.3270857341663851  0.8299790764208994  0.6705186347814514
  0.2427342524837589  0.4174780203549229  0.4988394026779970
  0.9067372198071433  0.8333944071331912  0.2527354958583144
  0.2420146472888725  0.5823156569750558  0.8338675906892762
  0.7452155467999091  0.7478092630760186  0.3357858059566450
 -0.0070389671362983  0.7481959128878444  0.5794940260024600
  0.3282595573480326  0.4985855875772616  0.6697562489459544
  0.1626508948361799  0.5846521801721726  0.2534758084843206
  0.2446992364941901  0.9174042981760163  0.1700163704195397
  0.3278297095979369  0.6634231503179819  0.0026957051219289
  0.4969976569595826  0.6631158473719674  0.1665953337581213
  0.3288240216915445  0.6694681647341136  0.6679040142310771
  0.0773848095034283  0.7485067003299836  0.3361013891220920
  0.0726995828060876  0.7524061344507503  0.0003720414489091
  0.4137899514402992  0.9199347823962017  0.6717143610396145
  0.8287988040050870  0.9213562839143035  0.0834642865042100
  0.2437376476879664  0.5838103328413060  0.3324756878775521
  0.2450154131243465  0.8333234175848759  0.2477751671999340
  0.9105481865403057  0.9179228139950326  0.6676434845208535
  0.0762316213864768  0.7525153919112316  0.1629625733940903
  0.2447130403668980  0.8329870232993083  0.4167172350105781
  0.7447715045501520  0.0019891757185253  0.5834976738703442
  0.0803682268677810  0.8347243150657340  0.2461824190643054
 -0.0066997605509865  0.7488095673836677  0.7573891753556504
  0.0757258358426087  0.6664793460867288  0.0842581357036126
  0.4080230481290222  0.0844378079737280  0.6633236468746335
  0.3247848156780613  0.6650920901181671  0.1678424284133555
  0.8271137616310774  0.3344543080783268  0.0002858168516425
  0.8258022553761679  0.7449819403688854  0.4138134375939547
  0.4111317754612401  0.1650716963733506  0.4159195329239463
  0.1626003459115352  0.0837992023900248  0.4135234922864896
  0.2465237497855501  0.2509446705931223  0.1706208974237778
  0.3283445220283928  0.3322422021512331  0.1691878137461374
  0.4076599826135173  0.1674945867642997  0.0840590811611558
  0.3280082855152407  0.3346514817658125  0.8349540740444862
  0.2444732444580434  0.3379353098519691  0.7525716836110133
 -0.0059267246834400  0.6684480879559678  0.3312981645584217
  0.4087830325678203  0.5008498404528525  0.4135287327511120
  0.2449076932120858  0.4185574192097971  0.8331307742394379
  0.4945242664165460  0.4213355780156807  0.5835152347463997
  0.3275600185912900  0.2507406387472826  0.9189264965965427
  0.4937429716581317  0.3350102790360733  0.1680531046937219
  0.4077696101984382  0.9137584588334968  0.4962059239247208
  0.2429596538646379  0.4170547073479676  0.3357226415137790
  0.3260384185489352  0.0861884824617113  0.2504817915843389
  0.7420043520619252  0.5817167308927766  0.3334744460943065
  0.6595654260142791  0.4988636953601274  0.8355912907024098
  0.1585655748685182  0.4148568642604585  0.2503895238455866
  0.4128240631702194  0.3350785561933420  0.7485053366918737
  0.2495366445468763  0.5805090198293108 -0.0009162279628038
  0.0797988405543245  0.4998176186148642  0.9179777580284317
  0.4946939863911499  0.3393710382492515  0.4972493622642071
  0.4096528485900406  0.9155143436801415  0.8339033708399374
  0.2455059601066175  0.2505536609915218  0.3310948676084572
  0.1613868669094578  0.5848751432876114  0.4155912126442440
  0.2450701131773867  0.2498739873120716 -0.0023158518250874
  0.9102389989528137  0.4993934699249435  0.5882605802354899
  0.1602200264486495  0.6654168356787414  0.8346372100750313
  0.8278071980931899  0.0003260581585928  0.8381279529490911
  0.7466074970619537  0.1687416027007183  0.7530602525545537
  0.4920421909954904  0.9179390753899027  0.9198795703376885
  0.7428180087762527  0.5827542079387787  0.0002821130526401
  0.9092361016898186  0.5826982678723515 -0.0007562746184492
  0.5785115664658750  0.5826660200421709  0.3321636092230456
  0.5742894906517162  0.7488296758946374  0.5007927600957082
 -0.0047803629164945  0.1667608962598576  0.0024561725321972
  0.7400965374373126  0.5829936697674668  0.6667147164544470
  0.6567139125153684  0.7486136113744499  0.0825364238765672
  0.1585785989044698  0.5027778804036509  0.6629590515068812
  0.4950098480072105  0.8272697627379001  0.4970657302521628
  0.6615108737131757  0.0859511874804918  0.2456788364810285
  0.1625118521771221  0.3328871059708061  0.1671341397951953
  0.6631423444485138  0.9160855577836949  0.4161127469646088
 -0.0050598668804822  0.2501700382459066  0.0829445264904783
  0.4921625147785863  0.8322480908025861  0.3322507818774108
  0.8265217583190889  0.4178114195220403  0.4154577822805103
  0.8264826711655315  0.0018506427998678  0.4986264354147563
 -0.0042164237590963  0.4194163941643786  0.7499272799069251
 -0.0092877272417365  0.0838368434111770  0.5829990580714833
  0.7440938649999654  0.3337635483398361  0.0812899132836097
  0.0730021014150506  0.0001172798219236  0.7539304344321283
  0.4106623423390428  0.4988096293961763  0.0845073547641462
  0.0740001719009012  0.3327022114324539  0.9190709108737523
  0.6607451584839670  0.0843275981549867  0.5827476261231996
  0.9104984886313238  0.3377363114654660  0.4132510763271184
  0.5790539421789324  0.8328820468351611  0.0812829669455790
  0.4105437328443865  0.6648217249599903  0.9140403725313090
  0.6591901684842731  0.8317865582185727  0.0049541476995937
  0.7452862249176205  0.5822045641031994  0.5011569038250061
  0.3275494922572932  0.9166354502171831  0.5808098903579995
  0.9110552350389424  0.5013769702139729  0.2443421259173888
  0.4916402483657981  0.0009813777004879  0.1651576754895556
  0.7484432717712121  0.9179465800815513  0.1637626451958560
  0.5812325819453861  0.0889932843192379  0.6666685910084011
  0.7413893286300282  0.3350923493655663  0.7516068314505073
  0.2411379573948250  0.8292249186233780  0.5806842447794154
  0.5810892750877896  0.0849964342198599  0.8352359199591476
  0.0821814984073927  0.1676438780766953  0.2472385530894642
  0.8256303439833972  0.1649538602178691  0.5002531792865273
  0.8272988921162738  0.0830476038640705  0.5839872342160620
  0.7465328628641118  0.2526426999998181  0.1627451964040262
  0.0780583871691996  0.0013690848908870  0.0823192163771686
  0.5774735586365806  0.8265412174070148  0.5832126388817400
  0.5731205913223727  0.2544323179922971  0.1697610617190056
  0.6640042289512977  0.1708347023954024 -0.0044726631964385
  0.6621458947579694  0.2471184506418091  0.9173245052289296
  0.6620803757983892  0.1711232279060370  0.6712735905073021
  0.6615261846709186  0.0037421648628778  0.1622803818306117
 -0.0040264365024051  0.1700648877218358  0.4997561116423107
  0.4931220485278962  0.1679952245065019  0.4988606014302223
  0.9091433058198680  0.4158001077637868  0.0001190316286204
  0.4967804791804067  0.0035410571337144  0.4997451948783316
  0.7433071653418668  0.3370322273278517  0.4163985859694777
  0.7432277133223002  0.1636469852867860  0.2498422363775834
  0.5817066543559136  0.9171050226771560  0.8328923885148116
  0.2404032643002898  0.1652700172215269  0.7510191716969908
  0.7432673177740546  0.9179088475462814  0.3327248800282672
  0.2449598377149685  0.0831948654700550  0.1674512785172806
  0.9110363318363467  0.5833133089066196  0.1666751664288203
  0.2414810818872257  0.3337729279557761  0.5781064724355646
  0.5764646134018127  0.4999636417216407  0.0832885383337848
  0.8309831395903451  0.4190090363131054  0.5851950087014187
  0.5768445422330669  0.9191616250311208  0.3321014715676572
  0.0760353604824022  0.2481205149447177  0.4962092384252785
  0.6613427673711175  0.5002238237720837  0.3326306130736061
  0.4109585467024180  0.7427428331637639  0.6694528418203917
  0.6602051318421680  0.0820339479033836  0.4196471536836450
  0.4914944660252644  0.0816185822697921  0.2498439245326852
  0.1635978740123450  0.9139248817789113  0.4183797590442576
  0.8227177391991211 -0.0003435609791143  0.3318306765652961
  0.9103086704981328  0.6676522076923702  0.5831843301910673
  0.0778320490764076  0.0012126636775501  0.2495918971311498
  0.5776209532966706  0.8305944117247209  0.2485364349062732
  0.2453979726060241  0.7530653046059785 -0.0006932027121027
  0.6576624708568464  0.4181795065927131  0.5852517212564352
  0.4151226858186326  0.3399543788306906  0.4155640441703283
  0.1609005822957757  0.8344681952215565  0.8336044749443896
 -0.0061139319095710  0.3278508052552754  0.1610080628490946
  0.4942189775303843  0.9199475678513285  0.7487863914836175
  0.8308444372977681  0.9195780478934108  0.9151453822492125
  0.1577432113053917  0.9181639492753056  0.0831437636930064
  0.0762171133639633  0.8307662040799815  0.5797276391617491
 -0.0066689122061785  0.8311671796531669  0.8313754187469814
  0.4941343541951340  0.3351563896228193 -0.0002452540575020
  0.6617916914366995  0.7484013091871514  0.7484825877065459
  0.5796899688877097  0.2511113333413979  0.6672114197844319
  0.8291906622482813  0.7469460793659548  0.5824408434577008
  0.8274492918807562  0.8326761162622044  0.8312193493135850
  0.6576261590469460  0.2530415283378774  0.2509736157600209
  0.4128546027262015  0.4155292579584857  0.4989235239396157
  0.5795693083678282  0.4199373124206137  0.3321507008435068
 -0.0075468555083810  0.6697854314213810  0.5031748504587935
  0.9108904601944271  0.2494148357112944  0.8357700119955505
  0.7441004024834870  0.8309516140308056  0.7515920160788637
 -0.0032065348220355  0.9195335118516850  0.0828871081054801
  0.5784783552472151  0.4181670527157920  0.8350529041722650
  0.6608606538487194  0.4208517138965133  0.9159403060548339
 -0.0081804833617939  0.6661380063855487  0.1651458237816093
  0.4921483593928488  0.0800522578762650  0.0833299303058206
  0.0783674543341456  0.3336302858997966  0.7541539764303039
  0.4941126502649228  0.4999732464743171  0.5021208403395591
  0.9132143285037670  0.8337814062415050  0.4143954038579599
  0.4110617480311435  0.4142290547861857  0.8334486631948281
  0.4941645671706001  0.5023351467024981  0.6648041623859955
  0.4153345561264840  0.2522300959915785  0.6715481958071786
  0.0787221882193491  0.5021704583380322  0.5865228690598657
  0.6598335006920856  0.8340819332255338  0.8314482411515418
  0.5774744067953359  0.5812335608895671  0.0017463670034132
  0.4927447788333034  0.6637345162869291  0.6688973011581535
  0.3259397779208996  0.5796317472521831  0.9170219532030850
  0.3263066521846805  0.5816660230347053  0.7526877571307283
  0.8272471951710594  0.6646426354691722  0.8375469335212682
  0.6607721303146988  0.9188111715836030  0.9176795993311481
  0.5761302246026694  0.4169782691620765  0.0003678562236310
  0.0762155977141217  0.5830385177921513  0.1661639735836380
  0.9064098229715185  0.4990199558063720  0.4157951223147838
  0.2415342001655780  0.5856487365474153  0.4946793578626470
  0.5788468247674057  0.6657559454301852  0.5831198533588077
  0.5778408816660333  0.7464860224363280  0.3318719958224660
  0.4108874728790435  0.5005649110501957  0.2500456025952446
  0.8314783026516993  0.7483168501185475  0.0791488691401095
  0.6600555890374060  0.4986017580921330  0.1645344481062699
  0.5768860003801159  0.4181402221146447  0.1647884923036665
  0.6599465744715903  0.6608479353985165  0.8346916725135267
 -0.0035534912206869  0.5828190330763169  0.7526283622874925
  0.5784027197461792  0.3351481287242770  0.7521615057675559
  0.6641021106002004  0.2560893265317963  0.4134322823904419
  0.0770333394452846  0.2517361588533885  0.3329885768978856
  0.6602947188909106  0.6654333816968809  0.1652716954740921
  0.9891857065391056  0.5017993941728900  0.9174155550677011
  0.4957641197674543  0.3330329170552188  0.5863915594253514
 -0.0902309848568726  0.5003197633672583  0.5018323541350829
  0.3262982615135167  0.0000110675968306  0.9184597525215848
  0.1618495968876068  0.9170933083830269  0.3286458695729823
  0.4953130055533313  0.8320590584671566  0.7520617883193624
  0.7437202028428629  0.7487081081560766  0.0832854462771110
  0.0794246402774929  0.5030869844866668  0.4974007729803870
  0.1589190864743485  0.7511206681607446 -0.0000122274960412
  0.3248251480283384  0.3346883951358979  0.4147216507842841
  0.1620576217000982  0.0005224570387278  0.9204392034359726
  0.1558893598361290  0.9184338550984504  0.6633280581699206
  0.4112803245556206  0.0864562010054191  0.7523942295628173
  0.4945445914795544  0.0852187223649261  0.6663419353648393
  0.5740534287846553  0.2531901246308463  0.4161413092379285
  0.2415182422860875  0.3320626078989395  0.8382836262090801
  0.9955043453710530  0.5806646487811786  0.3290141182426559
  0.1601409682455906  0.5008000075098220  0.7543334236268345
  0.9957792809742829  0.3336865775655206  0.2481045404942430
  0.9901674905704380  0.4985327083708380  0.0822546963582142
  0.9932789293360352  0.7483936777918496  0.6680473313010934
  0.7459247572764898  0.9168192131402089  0.9187282047380998
  0.5746073699160688  0.1684749680738269  0.3331147540824212
  0.3294582894811646  0.7497601635080340  0.0011166143150020
  0.1638717793814790  0.3329570526535237  0.9193853637295335
  0.8234258361512167  0.9123540838705977  0.6721702688718179
  0.9941091715713463  0.8319819981156260  0.9210010078396667
  0.5751974226425837  0.9164748513680687  0.4188792880949552
  0.4998051795945049  0.6633799530714949  0.9181291690336196
  0.3274699433933126  0.9152560411265289  0.6672605586653484
  0.9945083627760022  0.0832185674140023  0.6732881406130828
  0.8272846421429230  0.2497199993506879  0.3324950614269057
  0.9068974733042634  0.5828239309751004  0.7526851162727213
  0.6581487464975145 -0.0031271705551053  0.5837019851761959
 -0.0888366010995604  0.1618372166820112  0.6684066166217629
 -0.0881456572441757  0.0823150472728891  0.4146308745234269
  0.0733101509516946  0.6661121516484555  0.6673441680110397
  0.9114996766223368  0.2474447089445614  0.4160633960442466
  0.6615434890296987  0.7476892324834237  0.8352663376436519
  0.7445938350221923  0.8277229100573583  0.5000499198534137
  0.4132169825158584  0.9173368477083542  0.5830648723190069
 -0.0052234868354227  0.3345283090670655  0.5826499653244355
  0.6645472178200212  0.7462657136145653  0.4997727731517800
  0.7442820291211791  0.4182024857096668  0.5846584299909448
  0.7467163505895933  0.1642441128855367  0.1625689479236021
  0.0769519768617537  0.8319549963900794  0.6712256535199175
  0.8224565916053439  0.5054570220493751  0.2469739710952790
  0.8273328307340655  0.8350892870317751  0.0838639357882700
  0.8267406436494237  0.7486780684127893  0.1692161881090093
  0.3271758148211650  0.2513333545766747  0.6653283378193765
  0.2437892911384725  0.0023119321175335  0.4987443313834233
  0.9958214529214829  0.0827594666772557  0.4968442028045170
  0.7452623486856385  0.7460135932101931  0.9180025500577922
  0.2435046990862749  0.1633669647104243  0.6626506801033811
  0.1601930830434575  0.0829847783928186  0.8346937915532682
  0.4114081251026703  0.6639797803134941  0.1674397546801274
  0.8303218594868136  0.9147194297659021  0.4972058816670790
  0.4122398536549982  0.8314031205217188  0.6677542759133068
  0.6598486926565348  0.9142718135323393  0.1651734574181076
  0.1594596859430355  0.0008745801241714  0.7479142859893444
  0.4140691418867449  0.6637041464610162  0.0008888941734287
  0.0792064338888880  0.4119612415568475  0.0823732778108165
  0.9953769634714064  0.4964593792008156  0.4154900874833675
 -0.0051491410926588  0.5818640525247355  0.5047414671685577
  0.8307517616508181  0.5828323121451607  0.6670080518354731
  0.2448824934118264  0.2496513716212401  0.0844634372146965
  0.7432429038235775  0.7490184347143403  0.2463860829861906
  0.3262808990170711  0.5839158879506914  0.6663824762069055
  0.9950928547629875  0.1657896792696716  0.2489910188715228
  0.8269523081916661  0.6594471441479319  0.0833135917916497
  0.9937966448227894  0.8345999236863254  0.2485458518574834
  0.2475502823571483  0.4167149246210146  0.2479472426047880
  0.9925708905093713  0.4186607774086580  0.1655432060254722
  0.0761998738616761  0.3327078425285085  0.6642216797122328
  0.4977040823515602  0.5029537107369220  0.4138545371958611
  0.0758773584169220  0.4161008420713125  0.4131980012344817
  0.2460945165399313  0.4959272480620029  0.1666755057283512
  0.9112178094343795  0.2515680665636809  0.2501368476335963
  0.8289275392380722  0.8302836389409868  0.9196035018446987
  0.3309592227539932  0.9182556375780255  0.0050401877233079
  0.8256663352410216  0.2550496037055888  0.5019150384407853
  0.2427839132398117  0.5852670169501960  0.5856712980309013
  0.7435454458523212 -0.0857734118259228  0.5859123477243220
  0.0816912665540477 -0.0017782636811211  0.4993485350442486
  0.6592249766555669  0.0838620687600242  0.3326753256001245
  0.2450585572319725  0.9181445490910647  0.0837337839204751
  0.3272716003559786  0.8305153794527816  0.5837571183411142
  0.0788601043810632  0.6674384560779243  0.1694062272835232
  0.6649249544109989  0.8295184879847963  0.5832867860310916
  0.9114321580956151  0.0005320494573588  0.3314498282626376
  0.0780504278458799  0.2491744137061331  0.5870925194233305
  0.0775652002460803  0.8363127546392876  0.3359410855110920
 -0.0892144396834567  0.9228761847366722  0.2475006348528179
  0.5758271407611435  0.2529780260176566  0.0792788503869500
  0.6613275069056822  0.1696401758528718  0.0835246750083865
  0.6660843942491128  0.0829871733253977  0.6700886872989599
  0.8262518545042780  0.4183244502354846  0.1611958435579427
  0.6619996093024691  0.0833940648932912 -0.0036403140991829
  0.5834100438759930  0.5020396958752106  0.4999315848250905
  0.8302043276368702  0.1666116252595032  0.4126029066318661
  0.2404521207223198  0.1682962107698981  0.4981775073346217
  0.8303614929276418 -0.0024302450348667  0.5848904710010790
  0.5762704149231430  0.9169406332596980  0.9184226703236626
  0.3261172347232877  0.5011015643456012  0.5793394023439776
  0.2425848859055961  0.2512975215743556  0.7518475108381282
  0.1598102231929014  0.4146247272181405  0.6670342620020282
  0.4124153464853936  0.1683262890038398  0.8348182810759677
  0.3304849411349781  0.3354183726032385  0.5823332559038916
  0.6566704090350013  0.1690446293226472  0.4160558593155924
  0.8259497553250437  0.1712625683935113  0.5879527049298222
  0.5780807756012543  0.9174632186097650  0.5852441549107342
  0.4105759940871581  0.2524094103880061  0.4143239681022838
  0.5784714223472547 -0.0019489271330932  0.6686780794358826
  0.4146671292402674  0.3291050127217262  0.8365596368815333
  0.9110107737432681  0.5007053921117312  0.3303041050815285
  0.0790119170108766  0.7488562961272470  0.2496579256455489
  0.6609734652899142  0.3343294590620460  0.9169996725636028
  0.6610219236470298  0.8320843474551107  0.9182526036341209
 -0.0060135342508802  0.6694585739408804  0.4167453666431862
  0.4913903097963365  0.0867896906304692  0.8358042850785647
  0.6609691443693340  0.1696920303506177  0.5843943662553628
  0.8263216243372730  0.3299918065049494  0.2464116334465624
  0.5751694701682954  0.1638734222491304  0.1677004699743788
  0.4965063076554337  0.4971951989224891  0.7532356642738094
  0.7444070517347282  0.2516715799724744  0.2498623180413569
  0.8293459057749241  0.3345472901594380  0.7489941495735351
  0.2443795160838821  0.3371648634630928  0.6650742317836874
  0.8251551722794142  0.8332692370347851  0.4149191520783847
  0.9115465607492628  0.8345164606070847  0.1621660852414190
  0.4113574913682271  0.5036008520748441  0.8361928956208070
  0.8256755335201332  0.4990277656369908  0.7474809193327501
  0.0765159477942435  0.0828927311518588  0.5852821532619580
  0.4919883560375655  0.8304832435429279  0.5845459633247513
  0.1586188073449218  0.5818515069874125  0.0000092711380699
  0.2404256745326583  0.7503360612144983  0.9125109700785862
  0.0782040275564744  0.4952065804549720  0.1699837696744962
  0.0786509443615827  0.1634550947300227  0.3351111213889567
  0.3259931240383510  0.6663265972727246  0.9175114658869142
  0.8318354861588597  0.0018720248023147  0.7504441286902126
  0.6597086186163935  0.2531185508824602  0.5005451799238531
  0.4946181596068314  0.9154521885987912  0.4990037559921651
  0.4111313596596743  0.2509750329646869  0.5800414566158044
  0.3306846134805951  0.1678943189159648  0.7504825822814016
  0.0749210430326791  0.6641798102189835 -0.0045227841278440
  0.3266473035849389  0.7482413235926774  0.3274308312995947
  0.9110760372795342  0.2511172181225018  0.5805461238451388
  0.4933028246240152  0.1684862851587061  0.0854029793008626
  0.4090280782978318  0.0014946727842911  0.4981720554789223
  0.2442073198630426  0.7510843112941005  0.0882655084255366
  0.9103290084357177  0.3341413171960628  0.5035336619645401
  0.2415320261941615  0.9162318235878286  0.5831045853406548
  0.1622649795079162  0.5837515485659479  0.1657435147955420
  0.9908897321580284  0.3312430033334317  0.7511326224789167
  0.2457382045168995  0.1662356470255510  0.8383054528278601
  0.5770419655209034  0.1671774290168337 -0.0019526559657329
  0.3280294714505646  0.0828223135080684  0.4967096966717185
  0.9979676233632639  0.9166223897901664  0.6661704682476658
  0.4968097541027817  0.7502804657181573  0.1686318361959746
  0.4957092146782405  0.9169718760262661  0.8346540545273671
  0.5788529912466157  0.8332151856276613  0.3334743023740436
  0.9110456988861563  0.7437569636539162  0.2493211873512282
  0.3274542725276032 -0.0036847178403071  0.2500918342760817
  0.2419158753315728  0.8321568004182879  0.6677803418970495
  0.4108092897538350  0.0028803490207612  0.8368676750421525
  0.6621924993588044 -0.0020358583073190  0.2504997372752759
  0.8266987849010868  0.6662304040169247  0.7472969866941989
  0.3249519263065847  0.7459358942272490  0.5019241367040431
  0.5765947922920627  0.9188503620809393  0.2450153402040381
  0.4082696383968192  0.5029008582919549  0.5003520203113839
  0.9099317062575695  0.8289086111573327  0.6676304715225932
  0.2418259459750325  0.6671728395502576  0.0008648619977124
  0.9962903517454484  0.4169091781867816  0.8378524237826878
  0.6602758915291876  0.2524495991891513  0.1645524731732083
  0.7450402814682571  0.0843958395748112  0.8348966966450910
  0.7435321241864088  0.4169504904987668 -0.0003725955011368
  0.6608312761176698  0.5004325521781242  0.6671389372496619
  0.6588205848203137  0.3361457948907266  0.1654914418014795
  0.8264309193440466  0.5820226646373950  0.9174610344219413
  0.7416185156028013  0.5827429242331339  0.1654169898566366
  0.6607304146884695  0.5826693791802530  0.7508958080326519
  0.7418569245717167  0.6648333020669074  0.7516556678030183
  0.4940983952192296  0.4996895235596661  0.1667076576849615
  0.7414145603378630  0.5000432396593170  0.7518610125638617
  0.7433622240403323  0.6637201675915355  0.4158693698623314
  0.6596106356685320  0.4182741212880832  0.2484271981392132
  0.6600354873292974  0.4168491469242770  0.0814227102284913
  0.6605280752530212  0.3345401110146226 -0.0001229691593135
  0.6643084964259531  0.5008926116847261  0.5004466978109988
  0.6606500058313045  0.4179413132307966  0.7518634015685731
  0.3283826753476227  0.7503680866541651  0.2472184969355322
  0.8256456296692618  0.1681428165841331  0.6710547436522375
  0.7446542893185777  0.6649046539900546  0.5833311164161582
  0.4942872231173120  0.5840011907416579  0.5830665081548834
  0.5767443198414610  0.5002909361657998  0.9190055649679360
  0.7424608143666042  0.5000651311265145  0.0815613690163895
  0.8258031958656530  0.3379401826335837  0.5001850476252053
  0.6618840388364789  0.4181036794407125  0.4162079818125046
  0.5787455863824688  0.5016898340950608  0.5848369158056190
  0.5790315520784435  0.3358070502938419  0.5847805975772842
  0.9118790532989780  0.0835769226294853  0.1647725362346892
  0.7439078885469503  0.5004339928282815  0.4168574553412992
  0.5792921345920803  0.1687912963081924  0.7514958075182636
  0.4108281657841637  0.2510291828349435  0.1676018122510884
  0.5806632113679396  0.5014804918103309  0.4150665819604072
  0.7431409831796573  0.5824324720676223  0.8347342279282195
  0.4124829641242074  0.7487874744592946  0.3311388747646078
  0.6603996324047660  0.0007354583364095  0.4982751664418044
  0.1585258902082566  0.9146852369523156  0.5799880391625744
  0.8243871692901976  0.5826771685145011  0.7524695160278405
  0.5778580369400569  0.5833814646235324  0.6668654494149782
  0.7404411124796660  0.5006552097797362  0.2486807901858793
  0.8274868608583459  0.6637122432288679  0.1663577715874671
  0.8258337861487484  0.8336158134918282  0.3323413735218513
  0.6613874405712424  0.5834011582918843  0.4160606379002040
  0.7427048962375511  0.4175073425012422  0.6688301216281901
  0.0781815966501711  0.4159738478948393 -0.0014978142228369
  0.6608663295805784  0.5805878621356679  0.9182240457750538
  0.8268311566809362  0.5805696995210290  0.0820096575847300
  0.9099250115623275  0.3359419737836465  0.5864757316950606
  0.8263916431823036  0.4169648996322198  0.9183634652279060
  0.7454479750264748  0.2511632430268237  0.8347373176488044
  0.8282661562888594  0.2500547788189413  0.9173527883106638
  0.7461167843628199  0.3337068796272755  0.9176593489671370
  0.9114978192637324  0.7487329313564767  0.1649703921856527
  0.6596836642803581  0.7481381211678158  0.2497654902714035
  0.7437275540821490  0.5015281200334558  0.5842923729423720
  0.9132320131758148  0.5834282473274058  0.6666451027775270
  0.9100480298054978  0.5824517045629409  0.8359625360914655