Cr  H Ni 
 1.0000000000000000
    21.1200000000000010    0.0000000000000000    0.0000000000000000
     0.0000000000000000   21.1200000000000010    0.0000000000000000
     0.0000000000000000    0.0000000000000000   21.1200000000000010
 Cr  H   Ni 
 259  17 605
Direct
  0.5782226256874472  0.6668781139676611  0.4150676803254045
  0.1620627568087509  0.1663798097085555  0.8325130683309102
  0.2441326802098979  0.4155928279189632  0.3291314847754994
  0.6605173341692643  0.2492137613487639  0.2486720320239486
  0.9104412784045038  0.2522018766662198  0.3300408933456123
  0.2466809587267808  0.4157928629900652  0.9991704150403582
  0.4960773451135494  0.3344855543191632  0.5000956110309313
  0.0816224320451391  0.1671277228591022  0.4169519446690411
  0.9948782367553690  0.1650245713955992  0.8337120217922166
  0.8302933025288340  0.2493652474217045  0.9190612320566652
  0.8288250095946724  0.2495451700118594  0.7504672575139714
  0.5776788869769377  0.8312569492561745  0.2501239145385786
  0.7481726469984185  0.3321030610245886  0.7513196811632031
  0.4957565684541448  0.1657905631524871  0.8333300052330616
  0.1607444017934812  0.2496827760230392  0.7511273060374861
  0.2485053064292128  0.4160366007905004  0.5046606288119425
  0.2458369270214838  0.9175480474783044  0.6648356197856119
  0.9127796707391582  0.2490904029549986  0.0024273737086247
  0.3287249260234186  0.2495970442671544  0.4161694559073513
  0.4111693209190740  0.0009068129830125  0.9180566542263615
  0.7446958458376630  0.5817031979882634  0.5004552773578945
  0.8292404743535062  0.0830803712095758  0.4151282250139900
  0.7463510158468625  0.9993235101037287  0.0856373888145442
  0.1613536169174537  0.0832372578452230  0.5828935173963176
  0.6626767508058855  0.5802278775464560  0.7508504257201755
  0.5806296175111599  0.4182580064216685  0.1674647977157894
  0.8258305132829981  0.3329891394412587  0.1657603262714443
  0.9953818058652327  0.0847676289828540  0.2499757116063627
  0.9125361283243414  0.9997776665305809  0.5816889205910442
  0.1605844207752475  0.2500834662221866  0.5849519123205722
  0.4094537187672537  0.8323267603933517  0.2507270452082458
  0.2466132632519316  0.4150916703284349  0.8330716857712998
  0.0781088323399268  0.0005765250540320  0.4157693325572511
  0.6602574177543035  0.4182840542245431  0.4162172672197131
  0.0787758473333309  0.3345451845713243  0.4174469708420575
  0.9111707075604991  0.4155190443905205  0.4997752248545298
  0.6619092273448443  0.2499111185531647  0.5823821994938098
  0.3287631655559519  0.5838667995364154  0.9165259173748219
  0.8279697730043311  0.6677314309774666  0.9971354443929208
  0.9127206569172323  0.9180531995630848  0.8322358027820999
  0.9110115123565521  0.4161992009339074  0.3314541236097371
  0.9130294144830393  0.1680910922910462  0.5818247908508428
  0.3307166555387100  0.2495163583016383  0.5852983796858925
  0.4954985663918337  0.3323370436019347  0.3326191165907654
  0.1626685325438419  0.8327637585001612  0.1675419530539996
  0.8277746011902852  0.3338445153938964  0.3337315513920014
  0.2464545123353727  0.6686384824570197  0.4177297764256475
  0.1609181708139190  0.0000820632514067  0.3361312457595281
  0.2463741245418598  0.4162502468441233  0.1648501586906997
  0.5801097484866586  0.5011386030654206  0.7530061811510630
  0.6607362166489017  0.4182855469375015  0.2487807555962553
  0.5789712780091054  0.4155442118993444  0.8344965352207393
  0.3306388836071230  0.0822505878447437  0.2521015521326604
  0.3301913314383267  0.9195504022191832  0.5833139861376515
  0.2448108212845146  0.0823438993917845  0.1665670839669302
  0.9129139276952117  0.4154500685609638  0.8352955506399249
  0.1637087564307118  0.2495231763165921  0.0826076594564611
  0.5787380356529626  0.2492148282470676  0.0002223135430795
  0.5752248457069890  0.7501290799999201  0.6654604171898018
  0.8277850978888757  0.3332636582277510  0.6665748847872003
  0.7458115030413680  0.4165492368570017  0.8343752017863461
  0.3293496640067601  0.1668748492651048  0.6653908066682619
  0.1637640830676899  0.0008095541865382  0.5008508861024841
  0.7457808715317282  0.4157598629374184  0.6676541034092950
  0.2453133121498997  0.0842294091974981  0.8328190713906013
  0.7459591967553760  0.0832633091125180  0.3345762445802835
  0.6632115327267633  0.0842723616492200  0.7505024277050255
  0.0777984334056565  0.0841600383556077  0.6655243358469359
  0.0794057918383171  0.5829350599396861  0.5005945601517117
  0.0774156415024366  0.4150770688928604  0.6674115209173341
  0.7473987005661658  0.9159496576333150  0.6669892389880074
  0.7452552538751196  0.7479588252778321  0.3334662327203091
  0.9958539438516022  0.4978418022724426  0.6669317651340407
  0.0807632228330094  0.9188432754921650  0.3338611736001740
  0.9922299928809732  0.8325801494824795  0.4992178710025987
  0.7493343379657921  0.7502179816464926  0.6677098744060047
  0.2500923384475202  0.8322018887396767  0.4166189968924865
  0.1632930959018695  0.0007629176595252  0.1672342384138409
  0.5798697587512947  0.8339666480301584  0.7500926209820973
  0.0792234928681620  0.7515640518025201  0.0010538799611948
  0.9952632343055392  0.7511152872212441  0.9152253123232038
  0.1619665146965606  0.5827774878637970  0.9145759438063132
  0.7481930768424382  0.6682960739801717  0.7510118159719614
  0.1626569102045283  0.0000782707425519  0.9999684605698362
  0.7476949461150547  0.6665134069497218  0.4166094899368378
  0.7462676470824108  0.9997124846264394  0.2506665518238710
  0.3289698918223303  0.9162166563285061  0.0828815583768928
  0.2433633721709054  0.7485870487226478  0.6655194644714449
  0.6619697966917111  0.7471482941646302  0.0829867413823342
  0.6611474129693362  0.0006135362205229  0.1677227259189422
  0.1652406141678896  0.4989360009135262  0.3314171526168722
  0.1614709968844292  0.7492829093451436  0.5838262248828772
  0.2448881335203996  0.7511501323276855  0.8322469879500090
  0.4967212582757148  0.3347028693572874  0.8349871509266609
  0.9964628527939909  0.9174114800337364  0.9168032648165275
  0.7461068981646169  0.9160872281753876  0.3327430534561850
  0.2479377520299091  0.1685016705466094  0.4164797737998959
  0.7463860402496773  0.5011261623542205  0.5820740360360852
  0.8272596479717741  0.1666956131726828  0.1664640934608456
  0.9914681369495441  0.4990890836831224  0.3316240024160172
  0.0803506818798057  0.5002137644349065  0.2471811787409291
  0.8285290555329327  0.5000756029176819  0.3327542275797808
  0.4107890240446963  0.8326312436552790  0.7505497859700050
  0.7473195477778243  0.9185800665947234  0.8334971148487891
  0.2438005611940006  0.9173626842462045  0.8319717317634313
  0.9108245568755734  0.0819388805127884  0.8334452415729924
  0.5797676387410976  0.8335883150565244  0.9179098226104386
  0.8295501374096123  0.5811493642575248  0.7512629180331543
  0.4110358742197851  0.8320957095765276  0.9167015934137370
  0.5790958705128856  0.8321095034340446  0.5833504707133825
  0.5800772525884833  0.5002763885269860  0.5843273250608846
  0.8290671474689497  0.8341934249834569  0.6678866674271486
  0.5810379061756409  0.0023012285689696  0.9179749033404202
  0.4120468269556692  0.0841097654898087  0.5009130653052604
  0.2466497626347077  0.4988447492088008  0.0810041534207091
  0.2450833911588244  0.7498058572548623  0.0008026339713560
  0.2471359469633982  0.2490778364395676  0.3340498359964268
  0.3306419313465738  0.0841937458694613  0.5842314259709815
  0.9955705230877544  0.1665205913852387  0.1660816290730946
  0.5785824548290035  0.0815331381210249  0.1685811552634411
  0.4119215881626568  0.5004732372476941  0.2487985266739254
  0.7461558227799453  0.5003182483554447  0.0818509707158682
  0.9954273484586307  0.3350762524724394  0.6677081648870842
  0.6632641898045790  0.2477355988265188  0.7503355431004851
  0.9957395064978664  0.9175277130124641  0.0842953501160791
  0.6622254989797007  0.5826315898837791  0.2493369784780990
  0.8295837116301790  0.9156046773869184  0.4153699155149583
  0.4125706692097461  0.4990233451991642  0.0816560202211358
  0.0787290007230348  0.7484184434656019  0.3314324919067879
  0.0790212447284010  0.4997682575455270  0.0842999680939016
  0.9140041871864892  0.7488182497169527  0.3307402357251704
  0.6627824331858150  0.9201322867707575  0.0851645473094196
  0.3299521142517002  0.2491299897433775  0.0826160561394738
  0.8295665727922247  0.0832004989920606  0.7481849108446236
  0.9951509676703539  0.1670592517035579  0.5025565792217367
  0.5784001121785508  0.3322378125105752  0.5838564705113585
  0.6635720958155757  0.1672144906614332  0.8341931882110798
  0.9953140262351887  0.0836789010954926  0.0853631521553665
  0.8296677181983009  0.8328792833183210  0.1682005585293389
  0.4117331139751237  0.0004842423494094  0.7497194512516717
  0.9962072083574665  0.7485763705147503  0.2501864015780705
  0.9962091225929961  0.3343853679279138  0.1671745699816194
  0.3277672349784623  0.1656682040239673  0.8335801944089715
  0.6630991333699565  0.5841171540510052  0.0821691477130360
  0.3299366636561433  0.2481487549419049  0.9153971592403165
  0.8284975148382840  0.4997683697263521  0.9985699513907677
  0.9958225469275991  0.2512165134660671  0.2487535999079656
  0.5799909417964824  0.9993944707790920  0.5818284300364520
  0.5795535943928488  0.0008217493948680  0.2495024084022227
  0.9963193323920735  0.3313015863024454  0.0016934135857348
  0.0799440816515849  0.4155600386572892  0.5003816003962557
  0.1600694412955022  0.5820233767060683  0.7516926502618559
  0.4954773413389721  0.7506035736295924  0.9166097736420514
  0.3285845593205718  0.3329973556226460  0.6668386328468405
  0.8307483348362951  0.9174191026128313  0.7501627878204067
  0.5789094014913522  0.0823441671065217  0.9988312323936254
  0.0788973327919006  0.3326175847112159  0.2479658950627859
  0.0785538551759773  0.4990102732798934  0.4213683418258057
  0.4103335363773756  0.0010930700714016  0.2512807069142424
  0.7450733522037867  0.1665783747494739  0.7504426445162546
  0.5794201837085969  0.4999659451126449  0.2493407262000343
  0.1631610862343865  0.9174503418649423  0.5837969457986234
  0.8279936405540606  0.3355590348513627  0.5000351188597487
  0.7438496938101511  0.1682775737142554  0.5807845770963941
  0.4967432393262741  0.4166514896282790  0.9162821161061488
  0.5787546180852949  0.1681727417733583  0.5820274336732356
  0.6630336997279556  0.5831725563851778  0.5834160876391110
  0.6619321175536345  0.4999208578104788  0.8347428422523131
  0.5789525096231483  0.6664026265296636  0.2486737079892054
  0.5790614889042066  0.4995333382676259  0.4161054894716896
  0.4116815196891246  0.1662424141613795  0.0828009361983722
  0.5782986915432045  0.7487267208955545  0.3332946104871822
  0.1618265180748387  0.8332277705345709  0.9998902763879749
  0.4949809502175298  0.6663017825210052  0.1657807287123854
  0.4955777642441709  0.3327956364915522  0.1659791040934642
  0.1640017521464730  0.3324075362138810  0.0000287450745186
  0.4143452130548257  0.4151795846874432  0.9982180291907532
  0.4959007698349653  0.6658326025212401  0.6674684295216344
  0.0789599962636285  0.0010670192174194  0.7490834047684890
  0.8273851057658099  0.2515744044030818  0.4152285417528275
  0.4961273578804705  0.6659882295652385  0.9995101479768307
  0.9956316943067355  0.2492864561565806  0.0830003873125260
  0.3300002571887632  0.4161216263688034  0.4207485626724009
  0.4956455886552359  0.1658007338063692  0.3333781411865903
  0.9961684753441773  0.8337584762850599  0.6670700422196908
  0.6610895373890807  0.7507057562079695  0.5792965633523453
  0.3302109847786421  0.5829085342707608  0.2489039481757348
  0.4129199565537097  0.7481375355278203  0.5007259183661767
  0.1627004391162373  0.5809039734659064  0.2501981049148626
  0.4975996421542109  0.7503276439845801  0.5842807270047369
  0.9109597489344529  0.0843476933524491  0.3325438988719703
  0.2444159101019066  0.0829652731427127  0.9996429523639863
  0.8281522520506607  0.6674193253881757  0.1659880438250295
  0.9126492048263857  0.9168992580766889  0.3326124520958771
  0.5784795797343237  0.0838589093515143  0.3337250331719593
  0.9106915776376466  0.4976173512804337  0.0811965233308252
  0.7448165429773498  0.4987155635634264  0.9165356556577205
  0.0796982765934116  0.7468844549174960  0.5021281584638758
  0.7458930798036041  0.1658279496365119  0.0841832295489083
  0.2451831191733169  0.8334772637332818  0.2496147058523070
  0.8295641925774008  0.8345560233284312  0.0010323722081020
  0.9968451749187043  0.5834348439176019  0.9164669690316645
  0.9155355667997820  0.7513171753912459  0.8358043955498697
  0.8282209890977813  0.9990445587280465  0.0005911628560234
  0.5785131129467763  0.8319993501394374  0.4162918583445277
  0.1641632454160658  0.1669388737661787  0.1668083001848979
  0.7450850604602964  0.3321915973897874  0.0841988034813626
  0.4946616495261777  0.5846883468417803  0.9173992382109188
  0.4122577910809790  0.0814621276660508  0.9983816386283714
  0.4133774003233177  0.4170648369310250  0.5032231263837782
  0.6615576533798477  0.2505476428225888  0.4174078512610801
  0.9970836803743489  0.6661634614304907  0.1668841222424066
  0.9132984963988977  0.4164009837920538  0.6679896534319345
  0.9951738379175206  0.4172107151665894  0.2480764254462657
  0.4942733348884684  0.8332406846742778  0.1672783409927993
  0.5767813320731079  0.4157223258489585  0.9993308319196555
  0.9953876291542364  0.0006513580257988  0.4991497036986901
  0.1611229959023994  0.5824140232381065  0.5840887262269244
  0.5803716055208916  0.0010745104975887  0.7503953979502725
  0.1629484932470403  0.8333444631724102  0.8323133940573615
  0.9965395544440125  0.6658300434660617  0.3329882619460544
  0.8301405437159450  0.0009288016506004  0.8335149742138863
  0.3302593691588074  0.4988581041861647  0.5019379973813010
  0.4957807101885182  0.3329623439141611  0.0000799179727867
  0.4107927317007807  0.6682077842852535  0.7520490895481827
  0.6629825687751446  0.1660110244071727  0.5002213065853301
  0.4975717851117190  0.3339837916204852  0.6668754661558265
  0.7455043204022134  0.3333383619498463  0.9167853847611929
  0.3272959955022605  0.6666959871133692  0.8322756171473598
  0.3305424383708992  0.8323581755848141  0.3330456951008962
  0.7467972055663972  0.9170389648789425  0.0011748222404973
  0.4114489640380862  0.7488537855575407  0.3324375819363388
  0.8280644303508831  0.6673932302034422  0.6656862155900585
  0.9134618085959048  0.8328465632117751  0.2499199138799895
  0.0785031712827610  0.0000982112357691  0.9163947662874010
  0.5789004500590780  0.2498080114915658  0.1676564444436912
  0.0776992331494896  0.7479978083178708  0.1672620076622449
  0.4120799248225347  0.9173475453961571  0.5008305392538627
  0.9144669296223350  0.7508839249655346  0.5007722250418775
  0.5791363691486902  0.9995419092704585  0.4171478221843812
  0.6624047359312881  0.9992036919200887  0.4993791370074885
  0.9951460107255460  0.5822427628454715  0.2487072627365813
  0.2456589291691322  0.6675360203955452  0.0787282254652164
  0.6620846910906490  0.8326727303510355  0.4985830736519924
  0.3298294953954205  0.0004522241165109  0.3335642695219282
  0.3296391388525804  0.5815204693911092  0.5845358316127532
  0.2449402658771007  0.4978126551924617  0.7507052738654292
  0.4123005973025812  0.7511221760410913  0.9994618781796678
  0.7472985212155281  0.6678414088401671  0.9171874649683925
  0.9113423002091833  0.5836130477879830  0.5007582749565729
  0.4973993139155077  0.1649256038173261  0.6659369544936988
  0.4122216268998243  0.4997823976253721  0.7511456216258580
  0.3304689611067457  0.4170602395298561  0.5845105629977124
  0.6611828965542378  0.0823883259928292  0.9175026646234026
  0.9961675408818934  0.6650025785431471  0.6684742807755607
  0.7467548665850083  0.9987422163598175  0.5811543944766899
  0.9944282051947332  0.3324697973483225  0.8351081550370834
  0.4106889715788529  0.0004122605301465  0.0828213938048482
  0.0794692534491013  0.5829253554769718  0.8332730231082615
  0.3334833987494726  0.4170969710095215  0.3301428082601059
  0.2470855300608215  0.5796557327558312  0.4169889671269938
  0.2434023651711954  0.4157123400406513  0.4165960179687753
  0.9149006135563338  0.2527202275153564  0.4192191207618159
  0.9134598513900559  0.5880923046545613  0.0819075287793231
  0.8344455707594942  0.6689152598655207  0.7530300436856591
  0.2463185063658201  0.6671920352271191  0.1699947931985434
  0.0780087057196860  0.4989251572176068  0.9945916066678162
  0.6588510631368915  0.6691532232992199  0.7528950929282823
  0.6623075484089391  0.7506812517127278  0.6669728016575561
  0.4173518447208676  0.4184122785352661  0.4144429601947246
  0.3295849857988407  0.8289797882062444  0.5836610364377142
  0.1597502551262458  0.8328328837225791  0.4160676481464501
  0.6618429744476222  0.8337731736033001  0.0839431755397587
  0.0780182902639142  0.4988969152237063  0.3336311532625288
  0.9933526305892689  0.1674361819958875  0.4136077968170398
  0.0812619957952151  0.8355508387267501  0.5007886589367045
  0.6621705422631097  0.1662422413727161  0.0002119545373317
  0.6619860399998981  0.9995753089017679  0.3329166725776583
  0.7467053994890422  0.8317531096591274  0.4155710367303211
  0.9126181696311373  0.9165890300673232  0.1671289340399462
  0.8300250735042912  0.7500576630084212  0.5831566130156719
  0.8295746616200917  0.9161471982382809  0.0851399433699178
  0.9940721226826357  0.5824677618748016  0.4174253514636646
  0.4953854252300294  0.9993388139650722  0.9996479559395527
  0.9954732672557137  0.6664091354335570  0.4998365035779357
  0.7454358999622832  0.1671945802947248  0.2507579864670247
  0.6628484655806148  0.0843060134221694  0.2511993468503209
  0.8301424204014440  0.9174135404948929  0.9164355391868855
  0.0801598006900314  0.6638664970582587  0.2498636178473025
  0.9123983037328136  0.6665606908717124  0.4170261955609912
  0.9967452708705353  0.9166025822073403  0.2506946222805683
  0.4957572979583866  0.8346540875906926  0.8336056840248035
  0.7469413112044033  0.8333383447374537  0.0841590365903401
  0.3295120962906292  0.4992708443545448  0.9990328333450897
  0.6627904488398035  0.7516602570181501  0.9167974076301407
  0.9125767104223670  0.9166902555982580  0.6661482712821768
  0.9109416088964555  0.1675928669817921  0.2492359005683582
  0.5781114243775155  0.7487714386542718  0.1670110165356768
  0.5786118934575826  0.2487617553219057  0.8331349753579432
  0.4941813824368466  0.8325054136350132  0.3328296932718585
  0.8296301048458841  0.5829971500659472  0.5836805398858176
  0.7462646590311088  0.5830010629554236  0.8344845901197757
  0.4950653771304317  0.6673297970908479  0.8335709787981459
  0.7457683136036010  0.5826669462148241  0.6669803709009733
  0.4959039748869631  0.9171130556336827  0.7509022057221879
  0.7463415521321877  0.6664087871667583  0.5827388164392581
  0.6619813551017418  0.0828625878401688  0.5827582225554151
  0.3284305658537487  0.7488498369946625  0.2492302261770205
  0.9137626112013856  0.8336267125174347  0.7502616950780812
  0.4131422232308590  0.4165826942210151  0.8331645900677748
  0.0785493438280449  0.9178626927499490  0.6656526725303813
  0.5783655598993268  0.6671206543531853  0.9176265186829970
  0.9129746215752632  0.8330512275815359  0.0841472441657286
  0.0796358983264488  0.6676649363003789  0.9156155446603349
  0.8290566853619371  0.4992292627605934  0.6676300416032727
  0.9132678694007739  0.7498397831934900  0.6671067758119262
  0.9949933463155093  0.4164322928282911  0.5832516728374365
  0.8299903297239950  0.6670701032197520  0.8365903304331809
  0.4959908459148549  0.5002665168820796  0.8337827795341126
  0.7459906362759142  0.9991402106486963  0.4152881898403963
  0.9948938374969392  0.9163676699882530  0.4155957204625104
  0.8285120487568216  0.0832844014609014  0.2510430385244031
  0.8303269380255296  0.8321078714784454  0.4985020774749995
  0.7457928484330930  0.0824602362939905  0.0011063192712537
  0.6623898706991480  0.8348817227476854  0.8340039902971396
  0.5789998654115368  0.0832340547726732  0.8332169292047374
  0.4942768546833001  0.9173621201201969  0.0836195735576283
  0.8290051714426058  0.0003707468293591  0.6658388240404279
  0.9119797922927853  0.4995154192533158  0.5836760904106950
  0.4953649453697658  0.8339535960298347  0.9993611042400431
  0.4955997852265227  0.5834453052770053  0.2489379793215803
  0.8289605121647589  0.7505172576065278  0.0831433575372392
  0.8289676066980353  0.4989526733995340  0.8352026912159305
  0.8301059241245657  0.7517892593294863  0.9168957811279198
  0.7463469938166185  0.8320926897027759  0.2502881613495961
  0.0792378536437379  0.6670333944153873  0.0823607646138524
  0.7465638518550054  0.0827218092576060  0.8341030163709984
  0.8292703393396621  0.0835512961105863  0.5821457796632837
  0.7463553554677942  0.4991959568328722  0.7509195718912293
  0.9951949007202662  0.4154190168499632  0.7512944346671938
  0.6631529157463444  0.9173250746559513  0.7502512080509683
  0.6627279497824166  0.9995485998263158  0.6653859907779002
  0.9128139357342321  0.5829594045382509  0.6675780752260672
  0.9129049274800082  0.4991079790609839  0.9169669964364001
  0.9136222309661797  0.4991737982659987  0.7515027394664791
  0.6631478189202780  0.0004373075674377  0.8330987976014160
  0.7461170223391695  0.0831854832290774  0.4993190418491377
  0.4138894556722876  0.8325848550488679  0.5830274514255601
  0.6611551191072113  0.4148382487176557  0.9179839201004919
  0.4953878290642526  0.5834119105559474  0.0825636276362172
  0.9157251291138856  0.6667038342327612  0.7508682968713697
  0.4953654207331438  0.9161555246082214  0.4162042389988879
  0.5797717086873601  0.4170252199658566  0.6679489878615790
  0.9124273003083236  0.9172061788210085  0.0016623832657419
  0.5786661041021929  0.4167087241538919  0.5005252516765332
  0.3297525926449965  0.7487045230660290  0.4170167670044336
  0.4969245690175637  0.5005153354802721  0.5006994207667724
  0.6618397740115618  0.9161608752403406  0.2506030050504052
  0.4115093471519640  0.8322960631378130  0.4171955854437733
  0.4950939063099597  0.5832827840042595  0.7514291985457130
  0.7462673063596523  0.7507185866031220  0.0001334652442589
  0.5776400587842586  0.7488384855921777  0.4984885100761044
  0.8284561511178179  0.0828548591879337  0.0846772282898987
  0.4967219537200493  0.5829985082087522  0.5843413955471932
  0.8284705952449019  0.9996616074656322  0.1682830177728006
  0.5784438624344779  0.6666785901602663  0.0833813586798883
  0.6621417325556521  0.5834049113991838  0.4165582752917893
  0.9136249784997866  0.6674288013504646  0.9170074190680212
  0.4118087756067366  0.8335592724628252  0.0831335907962320
  0.2456866095902515  0.0837861506319137  0.3342137248449934
  0.4115761672119934  0.0825804870271749  0.1662142668063731
  0.4946779670540274  0.7494475761974176  0.2498618630458360
  0.5794168903806972  0.9173396190265437  0.8337829854117521
  0.2449162537147465  0.8332573997060787  0.5835790551677893
  0.3289089246818990  0.6668711700794296  0.9985595762595495
  0.1640431366560453  0.9175714732331046  0.4174062699953595
  0.5784869865278175  0.9158244705198686  0.3331823162167655
  0.4126024401613461  0.1665442321627740  0.2499161365979656
  0.8304816201591246  0.8352292790293829  0.8339401907131406
  0.4127300470792925  0.3315905425410903  0.9156582834636018
  0.6622423490169628  0.6664214879711201  0.4988188101496209
  0.3296344312589972  0.9166332977477301  0.4169609827612066
  0.4956087440256878  0.8329016166427234  0.4994319788951305
  0.4959097736400966  0.0825804389019902  0.9161939284341251
  0.4961772063242292  0.9164745507485342  0.5830485274721271
  0.4126622706787428  0.2495554029919495  0.3333670299846256
  0.3281029682974754  0.0829894011371279  0.9158770310499982
  0.9121450873219942  0.6657683148832376  0.2486230581508757
  0.9954648346393017  0.1676916474380754  0.3304928047953523
  0.7462272876994298  0.0011283956714273  0.7490226842976727
  0.7457521621222570  0.9163155194236487  0.1681018984982525
  0.6625619669607782  0.4155553002366886  0.7508948917544929
  0.9127825506893186  0.0001439591199898  0.2507860345579576
  0.9119690728475097  0.1668006090513481  0.7501941031585938
  0.8293019405793985  0.9999281714351748  0.4991062385626182
  0.8289645003070139  0.1654993647097858  0.8339606912276336
  0.6632882008795881  0.5834983478604325  0.9171115481272454
  0.8281250716264539  0.1674231999367487  0.3325340939161248
  0.8297817256679983  0.9157886740435172  0.5824894768528449
  0.5786370809551921  0.7499754624529049  0.0001070703544732
  0.6628667602440979  0.4997752911719560  0.6675775622909912
  0.8290352113005572  0.5829936165560314  0.9169737165156419
  0.6624451450359541  0.6666751429980944  0.8354391998796900
  0.9116947030436064  0.0838597618050574  0.4998703149229254
  0.9133205703567562  0.0005432856402970  0.7484236356434871
  0.8291953380761682  0.4148034036850638  0.9177877281239899
  0.5786108918562045  0.5838459021048342  0.8349445253994386
  0.9959350529264763  0.9174439507244386  0.7494836394860193
  0.6608822834611958  0.4996970764208105  0.4998033179851932
  0.5787862252650600  0.5835375818271253  0.3325545870004718
  0.8280756515799175  0.2496890196122555  0.0837290933759634
  0.5773695263595202  0.9168241472541100  0.1678224474857446
  0.9112925782192265  0.1660588041244096  0.0847924557122276
  0.5797899929006836  0.5829286659168282  0.5000694075835922
  0.6622937743329242  0.6659814361275055  0.1667030297691190
  0.4947521665131775  0.9998220845182325  0.1670601045849914
  0.8275865182707941  0.5841290279230192  0.0812898657116047
  0.7453773164287288  0.5834141737324892  0.3337029762791776
  0.7460008292308696  0.6673747531445855  0.0822623717372307
  0.4958109933356513  0.6662274245963424  0.5004154226961813
  0.7463696691089928  0.7502937606562865  0.8348965334340333
  0.6621948758669631  0.5007815875964912  0.3333369593463151
  0.9963816865093028  0.8340573179105361  0.9999452378364511
  0.7449199266734862  0.4175631098598585  0.3325975454002500
  0.2449534912751451  0.6651349765686211  0.5842521671091891
  0.5794488800207680  0.2489481355901293  0.6672900600832581
  0.4139886412974700  0.1672162655756495  0.5841140656783471
  0.2462031054664689  0.3322556632223751  0.2487245179412705
  0.3301076776491068  0.4165212166087432  0.2468716608620576
  0.7457924527671018  0.4997101047779425  0.4168575187292416
  0.3291194240980713  0.3317391118059160  0.3328428142361611
  0.4120961591074918  0.6660648461694665  0.4178833296745407
  0.3287611941149506  0.6658918846201703  0.6682045578665708
  0.4133495419049529  0.5003715111845809  0.5855597867204141
  0.3288949694901894  0.4995013763225644  0.6675787952737789
  0.4954755008896750  0.7517180090586060  0.7507732011812474
  0.3297677278834362  0.4161175400922348  0.7503148933811572
  0.4124131835942272  0.5835171175971460  0.9992521985784071
  0.3293516086684056  0.3325261221858457  0.8333855161774690
  0.3303421619332081  0.1661202550375375  0.3331930149014502
  0.7453893724472382  0.0836785527182883  0.6644492567333340
  0.7473580518483791  0.8349269362785235  0.9173876203772182
  0.8294437456014557  0.0827753775785249  0.9178447979367514
  0.0778549512247960  0.3325454037040552  0.7511207693228685
  0.7451085438871010  0.2493722907495638  0.6659718188381361
  0.8281490725835510  0.1669669585419064  0.6657036221808273
  0.8281689584147260  0.3325503301063629  0.0007722838710086
  0.7441985668989424  0.4170566194240278  0.5001569680952680
  0.8294007230137411  0.8323677293688460  0.3324610056494119
  0.4961200901541283  0.1661656890653025  0.5001575397996157
  0.6630252683138863  0.4996639027773330  0.9997782213274052
  0.9120711057823955  0.5838011219495571  0.9984249244351432
  0.7456271091142451  0.5838113067931997  0.1651167811686108
  0.8282238661568850  0.5837396110622926  0.2490751769813913
  0.9110941046894230  0.5833356431654436  0.1659711414729786
  0.8280458514470118  0.1673280878139711  0.4997868938375415
  0.5788322487568652  0.2501044735878634  0.3333673711953105
  0.8297500953548940  0.5831148183612229  0.4171434829004300
  0.6619124794427796  0.1670837988403294  0.3340441582743654
  0.7445281090243184  0.2497388208992710  0.1667073415899402
  0.6624037840430979  0.7488993391207377  0.4162158897260886
  0.9125937393496532  0.3314884031266836  0.9179029398249089
  0.9115603466405356  0.4996308319049849  0.4166079113098969
  0.3288980578300573  0.5824742048816810  0.7507917040797680
  0.7460601563262685  0.7491024217836006  0.4991945148837055
  0.5793889133147738  0.5827259200138429  0.6673343037480517
  0.5794446230178358  0.6664008321669117  0.5825724937142392
  0.4957352853921871  0.6657972512856486  0.3327982022491954
  0.6628422408977537  0.3332097360299172  0.6672689145579888
  0.0791621053484875  0.2490537706179823  0.0004464204391515
  0.1635757067411357  0.4156558884052795  0.0826690340058520
  0.1636914041100680  0.3320156027455042  0.1654382623625150
  0.3305937135129324  0.5829356190588960  0.4176610839215625
  0.9949009893550927  0.4993942624651900  0.5006465682384507
  0.1616603069767901  0.4159263238316115  0.5839761968131845
  0.0781389264521455  0.6655825760739501  0.5846261820159950
  0.1616584109836104  0.6652015844042156  0.6664724304387234
  0.0786447852995529  0.4980695288126102  0.7513235438346535
  0.2453099612229170  0.5825103617609487  0.6682492437769519
  0.9956795610103444  0.4991248487693006  0.8341507851112067
  0.1626225604711817  0.6669819629753005  0.8333813004150658
  0.1631670939454450  0.4147777821094145  0.9167619653864978
  0.6628053022861055  0.2493802669028037  0.9173929173262514
  0.9113647316493214  0.3332321026220983  0.0843896183432986
  0.5791127388517632  0.0828344675323965  0.4999938117047451
  0.7452679401102594  0.4159846094388250  0.9999095296032845
  0.7453142891120060  0.3343320693304102  0.5834079548165613