Cr  N Ni 
 1.0000000000000000
    21.1263713165068658    0.0000000000000000    0.0000000000000000
     0.0000000000000000   21.1263713165068658    0.0000000000000000
     0.0000000000000000    0.0000000000000000   21.1263713165068658
 Cr  N   Ni 
 259  86 605
Direct
  0.5757156458804034  0.2525571469214150  0.6739714560303627
  0.0762837559432735  0.7494529748626303  0.6645605710778832
  0.4972015410039954  0.3367915050117894  0.3257587430856256
  0.4115569130031798  0.3384422501984869  0.2488795638908234
  0.4959752746168277  0.2427673614133355  0.4158235640480801
  0.9161969671333435  0.9944678329338532  0.2521173518947241
  0.7507516557638754  0.9091371121524158  0.8346022014732716
  0.9977649958411200  0.5839977382169437  0.9218678136916566
  0.0818190965071411  0.4180689505219050  0.6651889271255055
  0.1647745803775083  0.8347476980973851  0.4916459304349882
  0.0804301437314738  0.6632038119285403  0.2432911900021956
  0.0013519313706048  0.8296311268962222  0.4982578064648390
  0.9182355381428787  0.9134640302557026  0.8368863641813873
  0.9197133227824995  0.7475997426380617  0.8336537624110844
  0.4977223621356285  0.4120481196319933  0.0828576804091818
  0.9173489387696038  0.0066765430222431  0.0875561760766998
  0.8317757661150892  0.9161170985260828  0.4154811941837965
  0.2472977219238656  0.7458972783933432  0.8368324736885239
  0.0885748217255928  0.7488725528850610  0.0051020462046360
  0.9137070738058209  0.8374343317763669  0.2544372892386573
  0.0001004708013022  0.8365610120393805  0.0013125076933477
  0.0833780464941772  0.7477513781555772  0.8340215365542520
  0.9153786349462067  0.9197109820975830  0.1717355943052017
  0.8324146872092860  0.9183372245553235  0.2507582126012236
  0.8344386854416800  0.7455024256094821  0.7474019390562928
  0.9146793877492576  0.8304368258268104  0.0815844633460504
  0.0001096272233118  0.4975635984738665  0.3331340496395067
  0.9177823538197261  0.6724844774275529  0.7484742391932570
  0.3296146322271534  0.7505278721177066  0.0857434903017305
  0.8314346651131957  0.7500709899632191  0.9236614654197567
  0.6676139375371007  0.4151542369690980  0.2520281106741679
  0.4938552556035993  0.1717040423050340  0.8345432048052910
  0.5776246547108684  0.1648786464408438  0.5815698710444599
  0.3247137878806443  0.0791690251497548  0.0852698410978436
  0.3319433406393271  0.9223913339449376  0.5807422366274264
  0.4985961223232534  0.2506992992291498  0.2418780215445123
  0.4951367557828372  0.1673666654816552  0.9897623239084804
  0.2499781776853656  0.9988464437740833  0.4137676350936987
  0.5897505674830207  0.1676986287449387  0.0865017053901537
  0.1657810491625321  0.9149745693868518  0.2506084210249313
  0.4143257318770724  0.9882110494248976  0.0884046774223541
  0.4939501751143935  0.5874568091335777  0.0842474067181874
  0.5830931062304893  0.1750562731741915  0.4179231019615903
  0.2490260101440834  0.9112907125016144  0.0067896717794715
  0.3298999092853336  0.8312588274763295  0.4886455777002287
  0.5820420112982788  0.5807934610533755  0.8378667731325167
  0.4980579117269942  0.2552293836801921  0.0863761566230979
  0.3297963997623012  0.8313465199501945  0.1693270084658867
  0.3261355479481677  0.0813239214676707  0.2500783915856003
  0.4912836770557947  0.5829256547396263  0.5798798686668634
  0.4958666427072147  0.9927096973563109  0.8303595811106970
  0.5809853714429227  0.6694121338713912  0.5829016655137079
  0.0828766918252771  0.3242856809426416  0.9189789793817231
  0.5781232955822760  0.3363799655071960  0.7458650201193999
  0.0874712285213329  0.9201156687273586  0.4944172930925374
  0.9151024575816344  0.1676964587943062  0.0867313607482268
  0.6626723351242362  0.3361382676402189  0.8377966452254628
  0.4038635405960005  0.9977058811925884  0.4150637243061545
  0.5799068662477761  0.7510242028061112  0.3320880719398778
  0.4985541814961102  0.5009565342695164  0.3314524400972266
  0.4126103021095421  0.1654418008013011  0.0824204785782245
  0.4994751065533792  0.7568877317345170  0.5791121288660174
  0.4968495196823887  0.4989958259854988  0.6637756898076722
  0.5816194694663408  0.3326436844017351  0.4149684743056461
  0.4963602644991386  0.6563679947002218  0.0003123046394744
  0.9169136031363470  0.9945791678542706  0.7479052207979781
  0.9152531483225275  0.2517278478255571  0.3327057858163597
  0.9991989204760152  0.9150038108686918  0.5862900209990052
  0.8334225133400684  0.9999662965477790  0.4925025605618968
  0.0852665100118993  0.9177274847576925  0.3317252200401360
  0.2493698027939071  0.0029195120575473  0.9165147925373829
  0.0763016849520450  0.8314998873754166  0.5827570816233612
  0.9160724110134022  0.2498589783290160  0.1664292604393490
  0.9972145590357163  0.6624703025334423  0.0047371831996918
  0.4122554190979699  0.2506586789896046  0.6695827995375414
  0.3227522184619897  0.2542142686491881  0.0836299714151617
  0.8248022715386729  0.5822907565119684  0.7493163970266530
  0.8350082181980411  0.3326476089205118  0.3312495945054097
  0.0827626214972249  0.4173426030329710  0.8282087567195052
  0.9228517911340481  0.3341475048168032  0.9183502740583113
  0.2466255713274692  0.9984809977436048  0.0922879420462201
  0.2531596811050420  0.1616550409039274  0.4151686544238627
  0.9174656458170499  0.5818141264495903  0.6597158397578263
  0.8420368914264021  0.5802639488040716  0.5808980099094889
  0.2522569928321037  0.0826830104966980  0.8341942628130294
  0.9191930037816404  0.4979537303479624  0.4142225200525727
  0.1569465769073881  0.9148915621836756  0.7525742957864420
  0.9179597914253186  0.4991644768261683  0.0839970578763054
  0.8352167733732565  0.4947476778926341  0.1643226042925257
  0.9140294218666551  0.0861553499336939  0.3386843456128174
  0.1658370263712580  0.0752827564357912  0.5803987755254835
  0.8397325009647906  0.4971436154014490  0.0031846063995472
  0.8354746666385278  0.7493827953180526  0.4244127613886234
  0.8365550108704800  0.5815560560695799  0.2557664284042902
  0.9171147701664741  0.7494283307068593  0.4979436638149052
  0.0897036555648333  0.0005342191923428  0.7500180829313758
  0.9992683738314493  0.2550459253301964  0.9186462713033399
  0.0840062395508908  0.0003182833326080  0.9141315528836531
  0.9979445584754776  0.1686121594734208  0.4904367618174897
  0.9169942852633798  0.1706887126969891  0.7444509239485442
  0.2493819478773365  0.0818208872214778  0.6653717167656364
  0.9988391254552218  0.4148049902018412  0.2519223670948162
  0.8395917843177638  0.3365264283267238  0.8312940749334499
  0.9179189178101815  0.9146981634411192  0.9957786308494243
  0.9191553283611720  0.5034396227217741  0.5800726106299998
  0.8291826114374389  0.4153347807283371  0.5811032189113280
  0.0849031996114625  0.0875692867303504  0.0057985353468707
  0.9978936266967433  0.2547598879586082  0.4130718759291809
  0.9166128362666007  0.7473838756077917  0.6659217000964235
  0.0871589324262471  0.7546322934554578  0.3333200673532303
  0.8363511339050214  0.7488045509947533  0.2493428520472910
  0.0046131361330982  0.0850094082116003  0.2488169670660272
  0.9075661675445479  0.1715751364967810  0.5796612905734017
  0.0751299931220922  0.2546177312487203  0.6666889935191707
  0.2467502229540355  0.3356046991396533  0.2490085406441874
  0.8350347312633040  0.1693792001334241  0.4974406390611743
  0.0814786831696015  0.4992317029157671  0.2505848571081897
  0.0835836196853771  0.3270194861208174  0.0853296783325663
  0.3305825368101763  0.9205652108366866  0.7453419620912505
  0.0812488760367460  0.2578445463080151  0.8318768698742033
  0.0002097343933022  0.4153670177933306  0.4138202841994337
  0.9984389047699064  0.0059800458625849  0.4951257421360487
  0.9980620054951400  0.3340856656967375  0.3314262503160927
  0.0002235744212793  0.0771762831298967  0.5802318782926671
  0.8264477720693190  0.1693177650646424  0.8362236427702792
  0.0005145830049919  0.4943073615501404  0.8295397986792856
  0.0837537638171948  0.9111283965545974  0.0036326506863006
  0.9119191157352489  0.1681930307741972  0.9228491736591763
  0.5004253489461197  0.4213952012120510  0.4140292440726340
  0.5785732348150211  0.3396867547356557  0.5823946105433434
  0.6571445487267304  0.0849468956164432  0.7429701431852799
  0.7546262872829312  0.6668734346035863  0.5791487487122752
  0.7496700367696171  0.9164828860937808  0.3320203812268759
  0.1614373788136140  0.2541778080644171  0.5787339143057766
  0.5838068379242974  0.8331279788104858  0.9096817278270497
  0.6648009269468005  0.8344665363706188  0.1699885171878046
  0.6689172747969820  0.0881959187553237  0.4186664856106638
  0.7481050065245073  0.0000901323610780  0.0950001456577692
  0.7516090820715782  0.1694773763274340  0.5699842537721316
  0.6601603187898469  0.7502692196688110  0.2492635373088741
  0.7547459442664909  0.0881276349746447  0.8373906512286732
  0.6712631888984671  0.7503875282020103  0.0851395744123503
  0.4989246239444923  0.6611808648830603  0.8347974573837158
  0.1623382496433211  0.1632799088044138  0.4944999851158445
  0.6650078908837334  0.4208752834117941  0.4127338815434960
  0.1610458410141324  0.2539220208396404  0.4146504746420351
  0.1738379984851780  0.1659254062543301  0.8335609910438275
  0.5787481324562179  0.9951912639253209  0.4152927871639184
  0.7500709373236233  0.8390022895860083  0.5789652892029410
  0.2500399268839723  0.2523592561936059  0.8343210368646645
  0.7491704312923664  0.7472836325023833  0.0005785343168181
  0.7497895886032526  0.6650617535580290  0.7495599854833770
  0.2451021963751138  0.3348126667312857  0.0838763339875972
  0.6659018759029480  0.9123050288222226  0.4147285316702778
  0.2560840626434877  0.1587431480576427  0.5829627995072992
  0.5820492266350435  0.5815473454993865  0.4865211743356417
  0.7480555978971613  0.0814783370102392  0.6555600865949989
  0.0811852850564808  0.3339915886313576  0.2513120310208435
  0.3393272639723786  0.2508929010586818  0.5843775252901522
  0.4980210565634025  0.9172869697552847  0.7473405306236093
  0.7436751783947868  0.7505388104445769  0.3388425304956034
  0.1690605668816657  0.1612287119975762  0.6704368541369710
  0.5002087793027039  0.8375541352177230  0.8329943837083197
  0.3323318571905073  0.5028877406513081  0.6614520765539136
  0.4973373225267057  0.0836638265075769  0.9230173776538240
  0.2477511564779905  0.5842012440453567  0.4963143656617253
  0.0813277787849296  0.4178139253916872  0.4965698206420380
  0.5806766969320417  0.0837961235052266  0.3229945087774541
  0.7564972949857843  0.0859594428361891  0.3315021047757456
  0.6686708547549280  0.2448144028879306  0.4174710983030950
  0.6682296297813081  0.3343709170704047  0.3259261938940418
  0.9949772195349492  0.6620577829203224  0.3331917446318825
  0.7487654686372999  0.2569059174745223  0.6592438011333397
  0.6653896930358996  0.1695151897412645  0.4995445101164656
  0.7485455292525717  0.2486042154201635  0.8364253213512214
  0.6630556812826900  0.1785215136991798  0.8366541090225686
  0.5823574559257395  0.3430843273424094  0.0849974638033713
  0.1696591761167342  0.4166528936670383  0.0821882305320581
  0.8333454458970904  0.3321001056161745  0.0083088318014936
  0.7516379287034676  0.9992119373018945  0.9218198514109460
  0.7510742185410535  0.4948562036289489  0.0918395309681584
  0.6621960434602606  0.9994009447104623  0.8333722628107636
  0.6629842574375275  0.9992505544243687  0.0088191153510112
  0.5874320145356614  0.7461891834576388  0.8340601017240197
  0.7514841820950786  0.9947811457406854  0.7455354810439254
  0.1659445597400423  0.7474313783969352  0.5747759733408402
  0.4938357058135249  0.8333443629551541  0.0043630258536051
  0.5800133257571315  0.9225310510591237  0.0046343965419148
  0.5863064950300990  0.7468506566379558  0.9984846289312305
  0.1701905084335623  0.6653469371975606  0.3359176456826478
  0.5796771002985914  0.7509397369374915  0.1745973295652956
  0.4967093667574526  0.8329495825552820  0.1705710472241205
  0.5801919891773396  0.9147620210857937  0.3326270504231720
  0.1599904044081027  0.4986345938534896  0.8318833740242959
  0.6685121710756045  0.1676724427476348  0.1696973063395927
  0.6650911071282413  0.0904266638564177  0.9229283594048816
  0.5800723314352720  0.4919994260779674  0.5819529901436710
  0.4121187404751032  0.4995556836798495  0.9195877245915361
  0.2464566596096933  0.4195243711295659  0.4951499603030672
  0.4946334102287351  0.7492614011654782  0.0934151410949218
  0.2548267301714660  0.6675225812999257  0.2485314524939600
  0.3326850048020092  0.3354903710735048  0.5014716362008792
  0.3312670129641699  0.5887742293081675  0.2510934435055411
  0.5800556000026189  0.5776636778280567  0.6652228796055826
  0.2418121402819848  0.5013204453215200  0.7474301986786258
  0.4936315782173514  0.4987452021448657  0.8380310009276090
  0.6644735125524985  0.3376010475505068  0.5037792227209359
  0.4953054210752276  0.0843915689645511  0.7442819244168336
  0.3342983197608670  0.4192732744992953  0.5847730416861038
  0.7476149721652771  0.4270187733696247  0.8338889911057824
  0.3303396560191814  0.5838435492388102  0.0851123679274596
  0.5009532024607435  0.0760274650667018  0.0844320903756331
  0.2493591330774859  0.3340318936302018  0.5815342744715229
  0.5764898639264656  0.9991883344163611  0.5813617399368036
  0.3334383832396976  0.4996849177946678  0.8377093696566917
  0.9941744994811358  0.4153480211886939  0.0863070773490633
  0.4916656074527428  0.0866415545630370  0.4187748966251075
  0.4145417057807381  0.4178170175601071  0.3278251922552911
  0.7482835921351975  0.5809522798847481  0.1634033036179969
  0.4067815877219922  0.3325426828814717  0.4157077617957630
  0.3297470595355945  0.8310672536261945  0.0056323301978699
  0.7498667100164311  0.4910587887029558  0.5802985314729694
  0.4106682014807082  0.4183608966772269  0.5038672756686452
  0.4964818425780577  0.9977466636714434  0.5068466498275238
  0.7473560157014473  0.3429153009029381  0.7456498010086303
  0.4032206876717664  0.0812930932784083  0.8345534789273192
  0.3350134816158208  0.2499994990454285  0.4175606190951174
  0.4133791209480335  0.6664407362629077  0.4142205602946677
  0.3252576126230507  0.8290123016111925  0.8370491553924732
  0.1636271521687850  0.0817821391383689  0.2507587078441477
  0.6608416002992811  0.5832334513389625  0.2552620172910516
  0.5866416211379658  0.4968296318253285  0.0839007445970159
  0.7494139586818291  0.5789450724508753  0.4876874239740215
  0.3281489344980887  0.4142101508399638  0.2515008977979811
  0.6654612314017284  0.4985191262208293  0.8348213737158194
  0.0826655669704284  0.2517881311447126  0.1683223631915608
  0.4972810428329645  0.9157500347633628  0.5796804568582806
  0.3306970789790298  0.8322615340902932  0.3332520456020251
  0.6667743480092423  0.5820488703498856  0.5804508765415336
  0.3311763464207042  0.0828945694280845  0.9157047185621390
  0.3286473792476086  0.4998630924497762  0.1602367985134781
  0.7488219094341493  0.5872069814018259  0.0004419823252057
  0.4950973283817994  0.4996775345763669  0.9935632391215803
  0.2474694241114742  0.8259597491209104  0.9192409746493244
  0.3329461444831756  0.2513500239019463  0.7515103465097427
  0.0805462154785632  0.3354419692093735  0.4147776531530450
  0.6682520588201938  0.0824268992665959  0.2405273354426495
  0.6641558716387379  0.5818548799173483  0.9160112652241218
  0.4104053185038101  0.7432462650136723  0.8359140694337175
  0.6627309583339382  0.9086981550078636  0.7479842560966973
  0.4116319628813230  0.3348777267305247  0.9169784760318975
  0.5807773732311989  0.8346930057377540  0.4125637050845039
  0.4123866748180718  0.2547287146437704  0.1750781574321544
  0.3323358847721383  0.8303912467910158  0.6627175190697250
  0.3291440960073418  0.2535884695471604  0.2476291429830506
  0.1645707071356540  0.6589607489323251  0.6642761256253454
  0.5825507008806453  0.6705860365641726  0.7500140362840622
  0.3228432048806969  0.6649098064202912  0.6639750882191849
  0.4140779224054042  0.6648624930030361  0.7554501607733709
  0.1611820301387991  0.2502546139229918  0.6690337965412955
  0.7536667670127279  0.9994033970845565  0.0102887537282619
  0.8356766081345789  0.3351093116589304  0.9216270684586844
  0.4918814608534183  0.0823554432441687  0.8335302793585517
  0.8317850476665504  0.9969230724556589  0.5783394890468145
  0.5789432967967654  0.0874424815584975  0.4131813869112181
  0.6697737004811654  0.0865432467174999  0.3275666849622726
  0.4950222489949527  0.3314236165066423  0.4184707403353950
  0.6675976281634165  0.6711654369147894  0.5792073423514247
  0.6593424492669920  0.5814057404431245  0.1673228478156984
  0.9994060316703868  0.1677185872358543  0.9239229746613628
  0.7551827149555447  0.5770876628420575  0.5773835532240149
  0.9126003174973324  0.1687218805529446  0.8334538626151986
  0.0878161230197779  0.1709596451087311  0.8318862504806813
  0.5879749150133275  0.2564107080356741  0.0823182664017587
  0.7521316331627544  0.9058859640565461  0.7449979107611276
  0.4890247804656697  0.9968742204940695  0.4168185536025004
  0.7557751829480752  0.9973346095400027  0.8341746295414509
  0.2523110542552778  0.0029061917245044  0.0058730472119243
  0.6635317895295523  0.0917358515799988  0.8332170142273732
  0.9188112300292902  0.8284167746083658  0.1694168427903503
  0.3293061174536024  0.5018745606676782  0.2488274776456453
  0.1686521896854341  0.6665013236229071  0.2457660629354897
  0.9161526209511489  0.4161986738575332  0.5825378430604532
  0.4103646035092497  0.4227057372398116  0.4157788693494928
  0.4081665062726423  0.6678864204410625  0.6688181611447857
  0.7493079784238373  0.2564423587001092  0.7471274085318573
  0.8313405407898820  0.7489695005950506  0.8358858273646262
  0.4097398639449549  0.2569223522803309  0.0849031098828522
  0.4123904302333598  0.0741360142293293  0.0808553750863917
  0.5785716932197541  0.5789152957248033  0.5741099108791542
  0.5755747756144907  0.3351251585369685  0.8335567594239377
  0.4946092733192178  0.7438131977082196  0.0044692247176419
  0.2425263344864539  0.9187317049596375  0.7457339823422148
  0.2524247498931771  0.2465525881488183  0.5855262605346592
  0.5772310001996890  0.2524829971815372  0.5866585814690091
  0.1656412700801495  0.1627649043958637  0.5822426660661914
  0.9994114479074964  0.5798653341698239  0.8335045937070923
  0.0851358713637305  0.5842333430644081  0.9215273216684978
  0.0042177454733032  0.9946803895645562  0.7505636478748713
  0.6593628611625427  0.9955489600879336  0.7421191086988133
  0.0008406384464273  0.7516694208828983  0.3308889702069222
  0.0004604914377828  0.7491344578554607  0.0027879282463625
  0.2482988203786645  0.9132952434512422  0.9180150184494981
  0.6708685796167565  0.3332874043175867  0.4153740017595911
  0.0791925065903954  0.9995191845340601  0.0027435025189216
  0.7480566911582800  0.7507604545382907  0.2495873329831710
  0.0826284244355689  0.6643478364941154  0.3339892896424606
  0.6607469533390090  0.0000116327529266  0.9225203460640347
  0.9937048777951756  0.1658208290620117  0.5785947395317579
  0.8382624063927910  0.5825986055598841  0.1682148219401327
  0.3291901490937586  0.8318051881767586  0.7492273681516878
  0.1639947576422615  0.1635404956570756  0.4073001199147115
  0.7516204696352391  0.5002007441059160  0.0045530024334090
  0.7508714573375299  0.3395536969735005  0.8361824596749799
  0.1616645004644723  0.8374350361021051  0.5780564174873697
  0.7484414853775503  0.5777699835566119  0.2561461955173279
  0.5027461195745845  0.1645385847728338  0.0789509386368759
  0.9173463778486638  0.0829348347033454  0.2523207949637806
  0.2462700919866098  0.4216864429039158  0.5827236383642997
  0.0830223088860661  0.4109382791672760  0.9139619018333907
  0.2493294803579312  0.2528198918878370  0.4117932909389735
  0.0819757000467283  0.4159990986749538  0.0858482731770904
  0.7469773196244164  0.0838589795998332  0.7441812790886325
  0.4916641515592250  0.6714166734457926  0.5772594371075174
  0.5833898749220814  0.8366364446403327  0.9976452370930657
  0.8314999802075486  0.7469273161016979  0.3376215184911660
  0.4984552339958351  0.4998543529009907  0.0829574229453922
  0.3328118569478900  0.8344184639396047  0.5742315861076437
  0.4128029946484896  0.0796363424856926  0.2529985735848067
  0.9994030707010496  0.9182921257876090  0.4981276743914020
  0.9145211519949438  0.9196908212745292  0.0820565701473366
  0.6671789566633816  0.9982692466082712  0.4211084285059434
  0.1624933643037882  0.7454549503073876  0.6650732494416738
  0.4127669550605447  0.8329074738505019  0.8377428461476440
  0.3310865589598876  0.4994235877149011  0.7481791915904688
  0.5002031122363158  0.7484348042536383  0.8314297025246342
  0.7522156230671976  0.7549438684440560  0.5799235438745205
  0.9181950569191589  0.0828437060962429  0.7462633499085350
  0.9118258569312329  0.5845654111035983  0.7472320741661663
  0.4972690617226089  0.2468818655372383  0.3277532218908040
  0.2455572793280273  0.4995230498118121  0.8388908119740440
  0.7464507839535773  0.1692781843244360  0.6559151399287912
  0.5849209943451256  0.5828342235781310  0.7514641769060412
  0.5844245169872200  0.7445943159432222  0.0882648135413280
  0.3218616845408190  0.1664847237150035  0.0813672487335715
  0.4113622754543395  0.3421080148550036  0.0847500716124216
  0.1638455687582064  0.5010590016048245  0.6644293283857639
  0.4132571929225088  0.3357167298990801  0.5856449085669380
  0.3277746923130202  0.4172447903171342  0.0828194816422832
  0.3286463827204127  0.3338509238963797  0.9997999516103344
  0.3319788049608627  0.3334809028006363  0.8338686690048380
  0.4144853830493249  0.2529841074635651  0.9964631388513345
  0.3305932708066869  0.2523085472574366  0.9160977726094510
  0.3322061255634375  0.3340769457268587  0.6667293136454046
  0.4127777337303752  0.3340642446095219  0.7500717208847352
  0.3269722477364833  0.3373736655140299  0.1667918875821968
  0.4138792969412398  0.4185778153325141  0.6666058974398638
  0.4117386694472870  0.4161526536987440  0.9994191596391448
  0.3308506799696904  0.4157968005345650  0.9173412724391713
  0.4123340906270080  0.2511136367101909  0.8340011278743119
  0.4131567334922883  0.8317149859691007  0.2508623664709059
  0.3298073289772540  0.1686784726130520  0.8336233022414166
  0.3300084399474345  0.5837470923393425  0.9182543942410950
  0.3297945410811207  0.5880878854137935  0.7517892738286104
  0.3300743067969030  0.1689382364245181  0.9942754976984288
  0.4128519438772956  0.9134109741586088  0.1702214249894329
  0.4134541416001963  0.8304324904325967  0.9251634225148232
  0.3313982888409463  0.7502769247844652  0.2514867006560277
  0.3303605469813193  0.9125411045534947  0.0876043586134876
  0.3298893366279788  0.9146134387816145  0.4145357878343769
  0.4137162143941991  0.8330938934076649  0.0881837742435922
  0.3336045047902261  0.1642053842038386  0.6685041623375423
  0.4151707340697104  0.9136118166661064  0.0035702512051412
  0.3304540061973813  0.5001300267384722  0.0020978851897955
  0.4135207352881831  0.5831083207690040  0.8360999418903452
  0.4118079935896586  0.7494763063872415  0.1689155323519979
  0.4136460269649452  0.5022460834206062  0.5811167380037646
  0.3291105941953558  0.6656323367734865  0.0031766723416515
  0.3301266950906217  0.9132191844534318  0.2510488394408741
  0.2496457127682358  0.7500026825897160  0.1679185974931242
  0.3288803082091672  0.1672530752958974  0.1707969264052348
  0.2466836226807260  0.8341938700254788  0.5782911677864039
  0.6653396395242178  0.2509350779820309  0.9212569433849616
  0.4963756523833698  0.3354571331902020  0.0002497467306055
  0.5794122849819521  0.2517114962325270  0.9957710264053841
  0.4982543114026698  0.3376641899066883  0.1690805302685445
  0.2409211084520901  0.8268959298642049  0.7509509273618801
  0.0822220915484149  0.9175105217061612  0.6646056485662180
  0.2486984243117868  0.9161361788114329  0.3317552741924849
  0.4941132871199044  0.3349725244636307  0.5056646966334088
  0.1626479378070381  0.8289265829269359  0.8352267392837418
  0.4122095185690128  0.0803035324853805  0.1676194601568408
  0.3280176894911921  0.7438995054535896  0.7512381864673844
  0.2381719885958409  0.1667012415306153  0.0875739541296826
  0.4165775312525268  0.7538858863336274  0.6635588738657262
  0.3290572820307210  0.6657867483863747  0.8360542107789949
  0.3360280524803956  0.9139439771491847  0.9193124543624354
  0.4120294361363047  0.6642720994227409  0.9186076461735783
  0.4118254630840388  0.1668649171518439  0.7511019712396206
  0.4129560899444897  0.1689562919321022  0.2486417737981799
  0.4050818112910786  0.6673142824881184  0.5777452401715513
  0.3300569962689028  0.6663985353963854  0.3336301466003231
  0.4127897762490172  0.5839735279588365  0.1670882255344685
  0.3294699120823752  0.5846913273284070  0.4150124967914099
  0.4140936068309364  0.5858525203978119  0.3322930346354549
  0.3296138611563645  0.5834672589377493  0.5798437255966826
  0.2475768610932048  0.4170546326340874  0.6700708527307986
  0.4147365473436391  0.5797080609699653  0.6662260402040822
  0.4126113946369692  0.6654575767574907  0.0858274130500521
  0.4179183583890542  0.5017459929989737  0.2495408195986364
  0.3292525810890795  0.5021631356116026  0.3362043787784708
  0.4139367926702405  0.5080635419668460  0.4143491829149266
  0.3301517927694641  0.5021261335231236  0.4981766076921327
  0.4131570409491659  0.5848779372178097  0.4964557499207905
  0.4179988240168846  0.5004092699379862  0.7513536398856094
  0.4125413144548476  0.1648990270432781  0.5848879312099540
  0.4948050458610461  0.4180904092585033  0.5832727969812754
  0.4130400454550487  0.8314993007264936  0.4139713239587147
  0.4110677738175874  0.5831814811237538  0.0006539329740125
  0.6651301339097510  0.4184511771627062  0.9185935969856848
  0.4119807918379709  0.9195654881152022  0.8314293883566435
  0.4143031313027108  0.9973621749927921  0.9171638034890273
  0.4129550548506605  0.9987603599951198  0.7470909205776780
  0.4145041768049954  0.0817575490391162  0.6662144088381893
  0.5820693861027346  0.0828473033697965  0.0027212561321937
  0.4963807550091188  0.9978221000365582  0.0016948963432116
  0.5780175584838100  0.0859199392484656  0.8338502233485354
  0.3317021274542284  0.0825956830357078  0.7494827676525331
  0.5000707324160260  0.0812564637114871  0.2467305309019414
  0.4983798557940001  0.9964613235552954  0.1689287997266954
  0.3303981978019734  0.0813461957260702  0.4156184139918558
  0.4110634700985510  0.1691725947944320  0.9149105897986396
  0.4126171299410642  0.9153872335458264  0.4976059695180568
  0.3273909162340224  0.7462231254217579  0.5781236178914960
  0.2476797883005170  0.0055199620614094  0.7498490409245361
  0.4189046824429503  0.8342921430930913  0.7446330864362857
  0.3311234225926571  0.9979424926038256  0.8326767254790768
  0.4196243706794810  0.8338817115073203  0.5811081264913904
  0.2462614761733471  0.5881530779641347  0.8347265593005702
  0.3320824404032389  0.0001710547918616  0.6648915916627682
  0.6668039680907981  0.7469697418041620  0.9175233111513244
  0.4983780635798822  0.9994449889648342  0.3290821572154911
  0.2470258182383551  0.6641432465167817  0.5784189243328546
  0.4145993138683305  0.9985998943464440  0.5827525041540481
  0.5796277490593312  0.6667725806270739  0.2527304219337947
  0.2505883434611603  0.0813194177569540  0.4980609131381024
  0.4968311069310250  0.6670147961271037  0.3331776493499494
  0.5804646235540549  0.1689781479924417  0.9186330796620977
  0.6623397692463564  0.7515112924955525  0.4147270954959271
  0.4962192473607894  0.9987526505851140  0.6636471693455730
  0.1642812463833796  0.7488101298768489  0.9192810015322495
  0.4112699044396984  0.1666995664209842  0.4156955863175141
  0.2502006551988587  0.7480702846983296  0.6642208246006924
  0.6678383428659926  0.1735171543394319  0.3304089485626181
  0.1638201993546290  0.7464005459896287  0.7533494563570582
  0.2482149496307408  0.7477985870163231  0.4948460325959429
  0.3287351802764025  0.9979250323877812  0.3316875264266270
  0.4133353703010272  0.2487201028311719  0.5001448844838445
  0.2467848792541651  0.3394430269839481  0.4157845813128951
  0.1643233703041114  0.0835125882346233  0.0871157137224965
  0.6652617339921333  0.4973853321361035  0.4961785259110579
  0.5867239284388590  0.2506437756300016  0.3293736620181509
  0.7506324007413848  0.5802576113605830  0.3415947063701288
  0.4889886170889557  0.2500936748521069  0.5851514626871325
  0.6657128920300203  0.4983482698644889  0.6650937127475333
  0.5793212413794395  0.2518893287684353  0.4983793538412779
  0.6641907424108782  0.5807681145646507  0.4134642956410024
  0.4933921489535096  0.2507442496108474  0.7499311894511629
  0.7493167187440881  0.4981025860985714  0.7483917248350390
  0.6650145232014016  0.3345815534638979  0.0031998082304337
  0.6725741769812975  0.5808865747157981  0.7504660481648999
  0.4965512455283923  0.1604870983492934  0.3294469555092191
  0.8328770537049448  0.0015841661423307  0.1686685233604345
  0.5848672767365563  0.2538840323693660  0.1713595461903696
  0.1631407965597851  0.4180452537518073  0.4157254712902967
  0.2462311541070807  0.2522876551004629  0.1690671940743634
  0.3299613675800531  0.6657703313390565  0.4949120237270493
  0.5818211498994850  0.4167404260187130  0.9994120015997093
  0.4132765519269925  0.6670576073430377  0.2505062969692536
  0.4984057845249656  0.4189031202240698  0.2492453745309649
  0.3327839849263533  0.0806148295304812  0.5829267081467874
  0.5827975513059680  0.4170266108630667  0.1693674407018925
  0.2543009550364432  0.2492529875809182  0.6745371983067252
  0.0813174047896132  0.7493348926987908  0.4988265532522060
  0.3313718602989009  0.6659284747967541  0.1659036377214044
  0.5817113742190659  0.4170602647865048  0.3303207022983704
  0.3336940325232676  0.1647626672133095  0.4994550298520273