Cr  N Ni 
 1.0000000000000000
    21.1263713165068658    0.0000000000000000    0.0000000000000000
     0.0000000000000000   21.1263713165068658    0.0000000000000000
     0.0000000000000000    0.0000000000000000   21.1263713165068658
 Cr  N   Ni 
 259  86 605
Direct
  0.5770770070146495  0.2515158647250626  0.6752152985790035
  0.5807338783978421  0.7513703323578018  0.8394600656232198
  0.0799253123373442  0.5821931117020730  0.4969801863603408
  0.2464561989517757  0.6674428626882568  0.5780512227307005
  0.5816620634132545  0.0830283447582592  0.3306052707318816
  0.6672729183650393  0.1667443607086961  0.0020025164344283
  0.6724782575534572  0.2452462044688390  0.4171833756241421
  0.1691380435398661  0.6655778946419511  0.3345924519940355
  0.9931456715544150  0.6643246396361820  0.3341446448847353
  0.5814432028392000  0.9218039022108907  0.1691938095948665
  0.5830053414699899  0.2493891003915824  0.5026614582818982
  0.1643861535694820  0.5024430033409724  0.8355720983793075
  0.6658034133953973  0.1759679856571739  0.8332247768744413
  0.3329029080849271  0.4941421533071394  0.6674086847853696
  0.1717072533232774  0.4172773139970756  0.0819838145775642
  0.4973274600043391  0.0833247442568477  0.9223999732805938
  0.1591864240956440  0.4190183287014460  0.4147654517443057
  0.7500334951084626  0.5005748479555541  0.0850684986836895
  0.7558958914830147  0.0846893230828838  0.3342799847574767
  0.6657147315119535  0.0003509234957455  0.0089434711068814
  0.7597537409342188  0.3289177477353847  0.4149537167731527
  0.7492617394608434  0.9908554566629167  0.7416435640650308
  0.7528447244052239  0.2571371790607266  0.6610985642726168
  0.4930811848562365  0.8344694529808065  0.0035776380272107
  0.7487190440145810  0.2483410807092091  0.8376661042575529
  0.6693594975920553  0.8312132615888520  0.0028175837628490
  0.5869340964590885  0.3411564556538236  0.0854726454773420
  0.5762770134193212  0.7447779000369988  0.1701566056859090
  0.8337863074009623  0.3372395782333217  0.0078575344139772
  0.5793025567368131  0.9173787008677214  0.3275671848252186
  0.6615862852193091  0.9954068798210123  0.8319805506106305
  0.7524226231721670  0.9994825089636115  0.9207454753382021
  0.4970870155334864  0.8394955010368322  0.8338700656262813
  0.1635426292174171  0.1737457953201640  0.8303559293339017
  0.0755545219694475  0.1664228169790402  0.4145605836975062
  0.8327234974970762  0.6623090524100381  0.6609525539448967
  0.1593133126064424  0.2561596141528636  0.4158575820235118
  0.7467613259426209  0.6663456004649776  0.7516368399796174
  0.5821937982370915  0.0078633977004690  0.4176905362375979
  0.2536900541154072  0.1591348248063007  0.5857492670079495
  0.1624719508335812  0.2523601285100655  0.7490741035477636
  0.0813342825830953  0.3353476961659372  0.2499755236587661
  0.2435844366007232  0.3352573851359923  0.0809584786608253
  0.7497561569001892  0.7491654923539448  0.3416516117588214
  0.8246866458054307  0.9178471390002412  0.0876338161677318
  0.7466106945586671  0.8407843947992200  0.2532714154743260
  0.7531677692103496  0.7439715627898807  0.1651720798052921
  0.5839686292573025  0.7426584368752486  0.0001662161446641
  0.6660168870981145  0.6585411398969950  0.1680972148891871
  0.6666485706244552  0.0838394653332371  0.4212561276822581
  0.8315602118783261  0.7460871031403534  0.9285864810766600
  0.7535028998439742  0.1671361008719393  0.5724940711147798
  0.6688501530760199  0.9166762689004837  0.4188327075518173
  0.3365511758404227  0.2466464578329378  0.5886811646313838
  0.7491108941698976  0.1693948600702859  0.7489518670307274
  0.7501832952590558  0.0811177766425847  0.6561043583400467
  0.1622285942410994  0.1688645918005161  0.6753186537864942
  0.4985027187322782  0.6623361671117016  0.8351178694818662
  0.4962069167960095  0.9162074458479234  0.7474436295461739
  0.7454236867322380  0.6680855520720388  0.5768882907481460
  0.6653737927534371  0.4216943856901446  0.4133905239841775
  0.6766284341991911  0.2507900581998475  0.0839052605865201
  0.1575800138431191  0.2524788690326338  0.5856533300880398
  0.6662882737000634  0.0900261568225181  0.9230619760149404
  0.6681813311197847  0.8351086069261836  0.1703645478019622
  0.0843513668885452  0.2527225670028548  0.1670708183887887
  0.3282339757639069  0.4990302183989689  0.1627516704364916
  0.3298326682941294  0.9115031176569212  0.9170732893961104
  0.2437711084336782  0.8248966731034251  0.9164809230226878
  0.4928589324228251  0.9135725478040954  0.4145524085968690
  0.5848040963058253  0.1636561134419749  0.2458941093366512
  0.3254291080923250  0.2447453152936544  0.4136136051339886
  0.4958893242041228  0.0835260217991559  0.7447220453582802
  0.1621957426672634  0.0800017095065950  0.2513242402679559
  0.2455995377010573  0.5076431383423232  0.5773403021801216
  0.4958853705539216  0.5960746598830758  0.0851062642096837
  0.4137532779761782  0.6671736061328503  0.4139851896906951
  0.3344321272563249  0.3334535180655639  0.5003653501786787
  0.4899160055663635  0.8331720757061037  0.1708609440329454
  0.3292085342027569  0.5021020158981114  0.3397572491580389
  0.2447404830847537  0.5811314835790040  0.6604117877740261
  0.3301625022890177  0.5919069826656624  0.2537047347304880
  0.6642385576717114  0.5801468167099992  0.9204234982319758
  0.0785063071575151  0.3343748254015508  0.4151043128798906
  0.4117515908166133  0.6625352155138852  0.7502809285415172
  0.4116313261261869  0.6687119240398661  0.5753449091570060
  0.0741485119216369  0.5819055492639623  0.6635106099027809
  0.3234456377524973  0.6696569097262656  0.6633920302723799
  0.3296819440193293  0.8335901719430334  0.6635800469264611
  0.3215118099544316  0.2559205318119117  0.0802594739024988
  0.6654903384735620  0.8338221116760745  0.4980995671092815
  0.4978407166396568  0.4990319815062211  0.8365563052464779
  0.6643796203896047  0.8376660350012938  0.8329469816719161
  0.3250859155092495  0.2445975167045356  0.2499220697426173
  0.4066970430886769  0.7532978275161816  0.8343225708333089
  0.5801148061772052  0.3359308835177294  0.7467260168092885
  0.3287361444860791  0.8304970488404808  0.8374994872948299
  0.2464254278127129  0.4178194428647390  0.6709851222200164
  0.3333804051121747  0.4232215981519198  0.5812100470330861
  0.5778814842035924  0.5788412300161346  0.6707502127389494
  0.6672958628472222  0.5806006779767661  0.5788312033002920
  0.3290784748849967  0.9985270901589582  0.8278268024742800
  0.6654066568452098  0.3330457321694614  0.5023180530203267
  0.7509074427061461  0.7506218618749732  0.8339031538981172
  0.3278059724430455  0.5861713444276949  0.7547286812310224
  0.7486901008780703  0.4258495075103473  0.8387391554740601
  0.6617375402358139  0.5862046371773553  0.2513455668577593
  0.3282254811466287  0.4997305005718902  0.9991023922056327
  0.2440480397514858  0.3350516020940821  0.5850319303778019
  0.7519012969545683  0.5830305713450752  0.3397416178147159
  0.0834131638767169  0.6631489709855400  0.0853068859880621
  0.0815117150330240  0.4179517309193064  0.9959579601707520
  0.6596640099413664  0.5777951583839571  0.7505355893293819
  0.7516690248956760  0.6676933628011575  0.2527466484868101
  0.3275974069384174  0.4181768278621432  0.2503320158859118
  0.4983668014592558  0.9169427675951909  0.5821888464997070
  0.7505457811103776  0.4914227103581795  0.5821372333638841
  0.5015371783375210  0.0728649512244579  0.0851917542167879
  0.3257393439932188  0.0873107034245883  0.9154533120133425
  0.7508728569526135  0.3455373915045298  0.7463491621008673
  0.8276836314598089  0.7489103079371859  0.5747095267194942
  0.4971019037388369  0.5008244099523177  0.9954628463569175
  0.5819618253682654  0.4885466400907305  0.5827643780145686
  0.4937547926077183  0.0888885487077633  0.4172886640035242
  0.4145590609669783  0.3337495218227995  0.7523672816934459
  0.5879261802896858  0.5014378433738271  0.0858104543744352
  0.4113251360713589  0.3383837532926958  0.4144926743780891
  0.2465577840329158  0.7497939161260152  0.3339385152820414
  0.6597775411688820  0.0852896922049911  0.7443350352246914
  0.6646535225012296  0.6677609698575192  0.4945212587463995
  0.4993771039831216  0.4253625919510390  0.4140030836257537
  0.3308455199975041  0.8337701328554656  0.4902185920768815
  0.4936794322114256  0.5796432569939103  0.5788505181653238
  0.5000860884323846  0.2495134398804448  0.0851334838474988
  0.5892513480078877  0.6673359677639419  0.5763750744089025
  0.4119225717448716  0.9979977613010238  0.2513632712397501
  0.0003432820937255  0.9168108320778389  0.4092233901437893
  0.4942602980570915  0.9934120784884302  0.8311142720762215
  0.4059171017228035  0.9989771819592823  0.4155173884608636
  0.0816033864820278  0.5067539260571722  0.0833954784694246
  0.4133693810341499  0.1638508064135350  0.0804761658460772
  0.8347016346091086  0.1677170429996565  0.0031641418905724
  0.3273195574100554  0.0789896702266793  0.0851437191704807
  0.4112440331124119  0.9873087108591324  0.0866170488009952
  0.5013770124284578  0.2467397440023639  0.2433942061536742
  0.5809099030776225  0.1534748825556660  0.4178280435535215
  0.2487906986877251  0.9990234104457569  0.4142341682174225
  0.4976073536713844  0.4199896626823211  0.5828484919254067
  0.1724015512807640  0.8316935771907291  0.1690610386054577
  0.5835901317960396  0.3354670390189311  0.9212198677334741
  0.5787537966450976  0.7489997193552401  0.3358066718946655
  0.4985960408138234  0.5017864507615361  0.1718096233865241
  0.7481156274771806  0.3375309039946122  0.9254652454912127
  0.4997281458276629  0.7571660767485430  0.5790104595645971
  0.1541862015842099  0.9140887106131136  0.9157857340421014
  0.4988114653943870  0.5010440264230992  0.3328520858827482
  0.5830283797617368  0.3321676075236925  0.4139219017450785
  0.5020648217728494  0.6642907979733975  0.6681367159828805
  0.5798805911658561  0.4182576702209246  0.6684370018992449
  0.2484460519951047  0.8330877222632092  0.5815983191087842
  0.3288551673650635  0.8305231848496454  0.1700860348335689
  0.4968411867652949  0.6601230136668479  0.0000173521434138
  0.5788303089129656  0.1613797653442313  0.5831347716587321
  0.8301554542920517  0.9178780799709807  0.4159576503694985
  0.0853073463077077  0.7442747523240044  0.0027315179501044
  0.4970932042229836  0.4223886757996562  0.0822004342636316
  0.9142837079602347  0.8280258351231177  0.0858611555730422
  0.4984254728885620  0.3363804517504850  0.3252642457308846
  0.9145241343379497  0.9165268710560046  0.1758859691549460
  0.4945211758519459  0.2448845020524527  0.4184725365564089
  0.8318765275207279  0.7539547313208372  0.7500541128708551
  0.7490235399946399  0.9049084787679159  0.8334376192846757
  0.9974196873482346  0.4988610956755916  0.3328510947800468
  0.0791562086041715  0.4156984011853935  0.6664321537201938
  0.3278502505948598  0.7518160203631229  0.0853152929669732
  0.0819175219067081  0.6645462602310499  0.2453473019534856
  0.4953189513292001  0.1712183065646921  0.8344169842386912
  0.9223825556613494  0.9152710565300690  0.8253396336217611
  0.6671505139691081  0.4177240308620200  0.2498635984470406
  0.0044953815540229  0.7501083959041269  0.5792925488324607
  0.8317423515742661  0.6596007809699892  0.8423566607465206
  0.4163844772079476  0.3378020876093217  0.2502311864005640
  0.3219397983561613  0.6660478447761734  0.8347751352882331
  0.9146625374619888  0.9936661342672873  0.2533789349958438
  0.0010994062704527  0.8319520939432210  0.1681072105064347
  0.9993232201349618  0.5820648992472511  0.0843296197423015
  0.0035900249980806  0.6675801289237511  0.8350771997168358
  0.1667954651722721  0.8344852241351020  0.4937338132839283
  0.8300568653202758  0.9189353838792449  0.2520456406792671
  0.9997780003947685  0.8301125614561025  0.4944254880639413
  0.0016493945004884  0.9155286748089039  0.0897143119940396
  0.9272516281003819  0.7455617727916780  0.8364076935072349
  0.9242411418687964  0.6622533017806332  0.7458794840301188
  0.9158425182369329  0.0847666207509105  0.1636535091008494
  0.4957602611665018  0.1665488453669957  0.9885590079497313
  0.5911868425092360  0.1644375474643743  0.0858382481194552
  0.4093212096257909  0.3419107527461843  0.0816546788545829
  0.9186364605830779  0.7386735678982678  0.0004543985729960
  0.9997140336890467  0.4951538935848860  0.8343888315305916
  0.0011929719121993  0.1662049480348099  0.0079371963330646
  0.8364879598341588  0.5739173150709884  0.7482813096477759
  0.1628004832730982  0.5000812779918836  0.3351064705118026
  0.0846836586592603  0.7564108113639469  0.3347171698389468
  0.9234209557731309  0.3361104999907196  0.9182688763154325
  0.9242812315536441  0.9984042426194529  0.7486751235807720
  0.9079133798222141  0.1675587464974395  0.5799147209691249
  0.9989630446596858  0.9183698036142388  0.5852985799553564
  0.3305854887841290  0.9993727018989942  0.6671210364343948
  0.9994499980602460  0.2541216307183343  0.5841155695578133
  0.9987523128145971  0.8332169859323796  0.3363395053375686
  0.9175202919103304  0.9131992922935444  0.9989372317795625
  0.3292234517550421  0.9212540801397370  0.7479878835221263
  0.1663993292024895  0.9241912187400050  0.5810855993047794
  0.9979199499724332  0.0065606165668626  0.4970303448386987
  0.2414538251436266  0.0009583410967951  0.9171549460627967
  0.3319086052329173  0.2510429185653046  0.7519854047633435
  0.7545013865907374  0.0848394334960513  0.8373511825705096
  0.0805007972437423  0.2521794166163517  0.6689102343793361
  0.8354039860319998  0.4168328469476887  0.2474089167402641
  0.9135338127739654  0.1680056961378452  0.9209451494740960
  0.1624855033701845  0.4187812019197472  0.2484438426749750
  0.2444681158763535  0.9919479186272768  0.0868625266999373
  0.8349341926591904  0.2491974613059779  0.4158000639291863
  0.2373572356845985  0.1672916311878338  0.0851447051837697
  0.9091436178302801  0.2512597311161631  0.1655733547311332
  0.8313627173139363  0.9175916781967095  0.5795532863519158
  0.9984893094929178  0.2513280402046646  0.2535555710240348
  0.0046265645457936  0.0837872412627085  0.2514762126230499
  0.0038208570174806  0.1681897226788199  0.8323186173316058
  0.9194521842123855  0.7500154835769749  0.6626097385585583
  0.9982094717930901  0.4180580146140194  0.4157915922703119
  0.1645112046555177  0.3289648964021586  0.8340411201491753
  0.9977840623861068  0.0772164107169670  0.5813562687970754
  0.2501746383820349  0.1619807595810348  0.4139106753143464
  0.0928184629110125  0.9141563896879240  0.0027096603572755
  0.0809399934803422  0.9990393151031685  0.7461547392364808
  0.9985841751672154  0.1659264160241876  0.4910829116708394
  0.9164576448156899  0.7402667549854579  0.1662214818449262
  0.0073773481652484  0.9160771811809285  0.9118406358255977
  0.0810002534175499  0.4180240752232741  0.1737857778321531
  0.9181639508627870  0.1693440654537233  0.7441876109464621
  0.0835386533396504  0.3298349955392020  0.0832565173975981
  0.9179597109141582  0.4170507544259451  0.6640644452657223
  0.9970014009609830  0.3366308522852863  0.8329547311514334
  0.9997743943055111  0.2513043820651575  0.4155300422037092
  0.9150147536130629  0.7514097872583883  0.4883602791145345
  0.7511579835805946  0.4161970856428177  0.6629444832081735
  0.9182279012864027  0.5820279644336150  0.6643826520651890
  0.8416630986464156  0.5813905865572917  0.5822765078373620
  0.9133260562531219  0.0835281057540429  0.3387575803647557
  0.8404029666880807  0.4161910371713275  0.4164278699291019
  0.1615160676727138  0.8326397701881382  0.6692742762258038
  0.2526406463380449  0.0834633716914976  0.8303599625663661
  0.7497855451506463  0.5819874157714365  0.1628734477762912
  0.8314383759893846  0.7487688962110758  0.4154438155277936
  0.1648794550781829  0.0743876243507519  0.5821937059000011
  0.7488060805398470  0.4198908634839745  0.0041649118288405
  0.8387239823037428  0.5828910052695618  0.2506369825492241
  0.9166684792532611  0.5024104649146788  0.0853611801976522
  0.3358134464149755  0.3357372512758153  0.5894886046631826
  0.7501386953571297  0.5785535327977354  0.2517992210926329
  0.2419377644271654  0.4230507037484174  0.5821647158714058
  0.1613539853360006  0.8352926791419573  0.5814474453891902
  0.5822520731564146  0.8337022095863285  0.9982878155230969
  0.1652361110400093  0.4159029220531462  0.8344535551169586
  0.9159163650458992  0.0833161572824133  0.2511592243741633
  0.5039124232148221  0.1597705086689828  0.0773046904599195
  0.7510926894252045  0.3394670476216627  0.8360749298610330
  0.0807342970109634  0.6679832161592549  0.3332582753434627
  0.1635022866310597  0.1675408819986628  0.4139426811332377
  0.3277616496532303  0.8330419968927854  0.7511585742707942
  0.0876136881084017  0.8323697787758042  0.1695797917352228
  0.4928941333410535  0.7466021371587402  0.0053572332296169
  0.7539622823281856  0.7552719848324305  0.2541470293663781
  0.5003589757755176  0.6698632044494305  0.5761353821740604
  0.4997555367791090  0.2477480561718022  0.3297735682697607
  0.3331780735801620  0.2434525446322320  0.5002290355101526
  0.6604400628023721  0.0002606786789330  0.9229540749587288
  0.7517676043887417  0.0808710940951585  0.7453928536341153
  0.7474343615302440  0.1696965995539846  0.6582277141650095
  0.4975879079821793  0.5104743631106937  0.0833469116588043
  0.9122250161346656  0.8237344106202871  0.9983616873041102
  0.6723833262158153  0.3335399093843331  0.4127532519712879
  0.5822581612886681  0.9168747313844869  0.4155111705410238
  0.3238137895079690  0.1680036117349843  0.0825478282030870
  0.3227002074897624  0.3362070132542219  0.4151940472384553
  0.6606576685100760  0.6660260352436264  0.7484336151767168
  0.8277565919656097  0.7535730409638842  0.6615126124258267
  0.7476041418894563  0.5755423131686438  0.7539919379176211
  0.9989079352622557  0.9180884263779951  0.4977764523378469
  0.9158879560180997  0.9204416256064181  0.9100953876545822
  0.8369746503292254  0.6622210235877248  0.7522342534598253
  0.3327027812994591  0.4977680026347446  0.7566060285648321
  0.0003088387488905  0.5810311048430539  0.8360962326656481
  0.4089042333315364  0.6631951746847931  0.8393966574749195
  0.3355427443530071  0.8360236409107217  0.5754170631707346
  0.9119287721584095  0.9213251840856552  0.0877976704355611
  0.4124850998356037  0.2460303021853605  0.2484156992419203
  0.3325900961885714  0.5818222672859954  0.6639475753366860
  0.4937034753582989  0.7519653085297479  0.8295852270812001
  0.2410763002514850  0.9119588162738959  0.9181310571378146
  0.0818247719821278  0.4179392502115006  0.0847679865792345
  0.9962639863289861  0.2497635053253605  0.1663932929559435
  0.4986511515329807  0.3372242164313663  0.0827421170559645
  0.7538881312747451  0.9922736834526481  0.8321096643506090
  0.9124714941639620  0.8259777950738958  0.1768015587358034
  0.4926902546666788  0.0021027467738214  0.4183193532162103
  0.9255867369506403  0.7527870684367217  0.7498384556885563
  0.6662406154346046  0.7493484427823845  0.8344459580881979
  0.9156617478829171  0.1668239437554416  0.8308632143893417
  0.7555615259145150  0.5798888995893708  0.5787991454048892
  0.0026965339566927  0.1672494343268334  0.9213841626278798
  0.5905835821273480  0.2530820348776752  0.0842423946542171
  0.9170717287702058  0.7502233935230838  0.5738646926584039
  0.6694405512153825  0.0828981924982597  0.3321669768691879
  0.5846040910639249  0.2405761865970808  0.4134627324584797
  0.4926410011150303  0.0826962844410349  0.8332790868269569
  0.7538714782757618  0.9989495851502517  0.0093771926276253
  0.8399878667700256  0.9968970431104506  0.7449974609568123
  0.4965739624764704  0.3373332902457576  0.4174950331001560
  0.9942393925949042  0.1658458730825101  0.5806373715544979
  0.8370372193692402  0.3360853749974607  0.9199430813232399
  0.0069950385215944  0.9184217277212972  0.0006300423919868
  0.7524540691484521  0.2580284151255707  0.7490017055463490
  0.6644727534458218  0.0884687695492019  0.8340288806995134
  0.1645565387314086  0.1614689979402598  0.5876271106209281
  0.3301197992969764  0.5052157155891092  0.2523957229790414
  0.2381997976735689  0.0779891075533712  0.0857111883894815
  0.3288334593486037  0.5874889852036215  0.1646349423472996
  0.5810152514233755  0.2499358611795302  0.5897705597417791
  0.2465680092590123  0.2466599816435257  0.5860951593301651
  0.1661272788128032  0.0861168371105036  0.8344426029879256
  0.6648267998155112  0.7462464807265573  0.1661988719122494
  0.5778651212645087  0.3357402165710164  0.8349078227365514
  0.4146104301752974  0.0728854752153717  0.0835926310127039
  0.6587874346575644  0.9953936581087675  0.7417258616624696
  0.4097682791932706  0.2543023967850224  0.0766828574975829
  0.8399165615873495  0.7499153560833249  0.8427388064140434
  0.4128682575151217  0.6693084948814564  0.6632629383357010
  0.7547612528083302  0.4194880985440629  0.4150640742513956
  0.3253945357538778  0.3310661611794999  0.2458599112193864
  0.5805505018426839  0.5767085983862855  0.5807581128372787
  0.5776089890904802  0.8342635251823277  0.1708144952879148
  0.1581479809361498  0.5846249690680666  0.6664492400172300
  0.3313965014707957  0.0005667334003668  0.9173098817053033
  0.8332389734963741  0.1672423297289446  0.1669966789982494
  0.8341654924584135  0.2509813846896722  0.2488219415696220
  0.2471083137951013  0.0807648674465900  0.3312368513379789
  0.1670342223398992  0.9171262413964170  0.4148344125039163
  0.2390062219749251  0.3353717784236673  0.2505967097062901
  0.9151895976829186  0.1678755819988888  0.0844665791540192
  0.8318342152725093  0.2507380661327956  0.0828108740389359
  0.8333238577199982  0.1686831217575147  0.3338193206886554
  0.9164239232810536  0.1674869184989244  0.4147391360899497
  0.8362315297799929  0.3330611786498052  0.3313641489559890
  0.9159125199407590  0.2512564654186323  0.0023705162236023
  0.8347706779144943  0.1676131988813574  0.4965476457680000
  0.1663119347687119  0.0002386461480473  0.4965252574120785
  0.2482690687200182  0.0004982123927387  0.5833561118086611
  0.9146657050296391  0.1712776880577476  0.2512528017627129
  0.9172094054567151  0.0826175199604301  0.6633296537401520
  0.8409987604695561  0.0881448821892079  0.7485994968902420
  0.8351921721210485  0.0853342973284691  0.9193345811507420
  0.9150992072833439  0.9996813679366865  0.5794228942923639
  0.6660061490940197  0.9149916621268986  0.0867930388803402
  0.9176550224434259  0.2524207390099313  0.6645913050822135
  0.7478681248838388  0.9112144432194039  0.0025907188813471
  0.9207497500171845  0.0794145923571530  0.8329719856810064
  0.6646226369516653  0.9179889754909867  0.2517921617418950
  0.8340022371477420  0.2479734563368177  0.9198074143174715
  0.6653176972299495  0.8350496994393064  0.3355184236926438
  0.1652754571631491  0.9993173756652634  0.3327913657612649
  0.2448925216781845  0.0836600558221707  0.9969011964229786
  0.8418658487168671  0.9986630282156732  0.8370010957802658
  0.2446735147310976  0.0807916437054202  0.1736781302727346
  0.9162531977387185  0.4160126513943512  0.3325470212812852
  0.1644184734855864  0.0002957481756090  0.6663282248362118
  0.7509159163013982  0.3364054476695079  0.0844110220324813
  0.9168356822092486  0.4996390184300677  0.4156402234329303
  0.8330157444243524  0.5006884364783053  0.0038921215231136
  0.9167388179105114  0.2512447792007377  0.4970822112026951
  0.8328816746358024  0.9993860840364223  0.6577615285559592
  0.1634251079843320  0.0830876129755276  0.7460318841096047
  0.0016147799618173  0.0843102729427953  0.0858621563995997
  0.2453759946051280  0.4188894410626962  0.1661132230088760
  0.8301468924563900  0.9993804458470177  0.3353599662499317
  0.9138843783838967  0.0002340134937071  0.4150110512791357
  0.1631075921755265  0.0844722013740622  0.9210318493079049
  0.9147282090186729  0.0829215097839208  0.4960772686371308
  0.1622161646177919  0.9982473229956377  0.8308282910101585
  0.1654906503846407  0.0787253982976043  0.4141845815313640
  0.9169912950028162  0.0863073995624741  0.0034602742874197
  0.5813971623999287  0.6668705161861942  0.4143377385156770
  0.2491875757555722  0.1679880964824366  0.7498778414616155
  0.6620426116696679  0.7551319883524497  0.7433432565348033
  0.2407563627393416  0.2513098357619395  0.4952611449510836
  0.4947021779460669  0.9147814210531334  0.9173047363688906
  0.7477343471231684  0.7460032863047493  0.0028285455165487
  0.8365657648993604  0.3333876228975032  0.4993524494450030
  0.9177077225899771  0.4157693729540895  0.4979645499564427
  0.8363907956161040  0.3363463814868556  0.6642232765117658
  0.8377515223954565  0.4182260253389006  0.7477049735014788
  0.2443718709115694  0.1649507264941266  0.2504701007702408
  0.1633837542816639  0.9982189898015016  0.1702688861403703
  0.3284949609247210  0.9964446547739946  0.1691810311206431
  0.8335689331788716  0.4234844452169392  0.9207751840527315
  0.1626538323937050  0.0000805379961625  0.0023213773625161
  0.9185451301374497  0.4198075652954390  0.8342838600418132
  0.0836703755929436  0.9158859045516590  0.8297147852117565
  0.8337136513012122  0.5815955049075371  0.0845482892384086
  0.0827454231035458  0.8281863138530563  0.9167690924151951
  0.0007620699947332  0.5821215484892707  0.9231069297446978
  0.8286568462404743  0.0831062701356165  0.2500857181364010
  0.9177566714811304  0.0071437236155146  0.0863338734295989
  0.8315436685070211  0.0839348796243863  0.4163211062580040
  0.1636163786285730  0.2523382477147634  0.9155670386208126
  0.8343902609813617  0.0825485860839971  0.5790358769856435
  0.9172228715906551  0.3333048766273326  0.4153124568862784
  0.9151136191523215  0.3350527229538765  0.0846153945452830
  0.4130188654490686  0.4195215103271339  0.1670118173869780
  0.6604479358763417  0.7481568780442499  0.2581010275037965
  0.6661258898322624  0.6618712067469225  0.0006467595265762
  0.0796250084377037  0.2533382150250015  0.8326851244926836
  0.7498289949496225  0.6628527908429684  0.0834062024211262
  0.7484131850600217  0.9174628941210582  0.3359357019716808
  0.1644900005690949  0.3334144485732731  0.9990082127187074
  0.7483403533611813  0.5783860302501753  0.6661886109152917
  0.7514987730549507  0.4931554743134072  0.2492613460439385
  0.8333040802256437  0.0848918698603977  0.0857615002110009
  0.6650627692028760  0.6658094485132693  0.3357498381471228
  0.9941372187341672  0.4187912308121204  0.0844298033632720
  0.7494760162651453  0.6660440519459503  0.4159333010668973
  0.7494701866686706  0.5786974363678929  0.8413556808693795
  0.2474676457203560  0.4172887102270619  0.9982507257408757
  0.6653567399740485  0.7461816142025003  0.0792935738889256
  0.7487420186275034  0.5004121010294006  0.9216522601955354
  0.2450530099509574  0.1687745799941840  0.9146682646745686
  0.5808770247471535  0.6625969862126330  0.9183510644376041
  0.8319763513337922  0.0006202323776378  0.1695093213567820
  0.6659419316102985  0.5014172886072820  0.1679937122253844
  0.0788345720590154  0.4996756945063868  0.4153494921509382
  0.8343539034029838  0.5002478376851844  0.1668768219516801
  0.2369944748539088  0.3356126306170519  0.4145965776198587
  0.6663920193080074  0.4997965987187812  0.3312334369203338
  0.6658890903794201  0.4971989361909979  0.4981909730930144
  0.7513813421356769  0.5048282443051807  0.4149216568859935
  0.7484912969374073  0.5824550993865193  0.4918326572310688
  0.3269232578774588  0.3340731309733589  0.3318703197386353
  0.6647098475905338  0.4962350933745672  0.6661947477025959
  0.0808673725007284  0.5009220444759498  0.2515740240003083
  0.6649973940414063  0.5830324553487600  0.4141616177618547
  0.1647296258515956  0.3338723472101192  0.1661998412236814
  0.7501927047108365  0.4897307559264271  0.7483917162064151
  0.8341685083063710  0.4193460197800857  0.0852232000733498
  0.6637861653278055  0.4988978065202411  0.8358683760665685
  0.2437007938092809  0.2502990046600997  0.1668672139552149
  0.0829918833457120  0.0007238262460130  0.9168806199383090
  0.9165860105006199  0.4197297740865162  0.0028016484822936
  0.5799082774016175  0.0000391569955304  0.5833571682548189
  0.7475562834823524  0.7505179644550457  0.4953204013758574
  0.7489083042853235  0.9169284027114736  0.4988820405141565
  0.6640552991169143  0.8339762911840999  0.6608717715937998
  0.1622115208633763  0.1669131127178573  0.1703702102587845
  0.7481198303593896  0.8333362247365800  0.7453720340662373
  0.7477160528265759  0.9147658885812893  0.6590680593295841
  0.2451635053978962  0.2516581996678588  0.9975724196468249
  0.6654286067911205  0.9122898424745717  0.9178202801687021
  0.7484564519217395  0.8308498364615736  0.9203784633618559
  0.6637368642360156  0.9094609722625649  0.7458303890907884
  0.9197601107933771  0.0059608359393724  0.9199287237358573
  0.6641597398159191  0.7508550601467818  0.5784721354292162
  0.7484316706407648  0.8342582812918415  0.4170321680052768
  0.6666781378840043  0.7466547942506819  0.9229184641295910
  0.5818795094954511  0.7518676643055537  0.4963358938765353
  0.1618706115942971  0.2510058099383731  0.2497242454484419
  0.1638273819278893  0.7465707407934747  0.5783346562943297
  0.8354199143291166  0.2532581346885201  0.5814688181990532
  0.2474147368898905  0.2507256284543236  0.8327499414098806
  0.8337658680203358  0.3357194214426071  0.1659226180480605
  0.6650899504438970  0.6590849405951106  0.8402611083771512
  0.9162901143539377  0.2513007784745818  0.3340404355384085
  0.7486254938419020  0.5803162050612350  0.0028234424639247
  0.9155066373383042  0.3338587557333502  0.2499305979519741
  0.5801085899864648  0.8354636967285269  0.9109476683919360
  0.9160469060373660  0.4184334971027217  0.1674491453499187
  0.7473489882160298  0.8313578893035372  0.0866121024618264
  0.2458941746782813  0.9976594576472712  0.2513164148177410