Cr  N Ni 
 1.0000000000000000
    21.1263713165068658    0.0000000000000000    0.0000000000000000
     0.0000000000000000   21.1263713165068658    0.0000000000000000
     0.0000000000000000    0.0000000000000000   21.1263713165068658
 Cr  N   Ni 
 259  86 605
Direct
  0.5762204798858989  0.2526997634420283  0.6742151657939692
  0.1658663411725687  0.8352919470609615  0.4912218128499515
  0.0794190163691670  0.4167863064589395  0.6651360220280853
  0.0027171727102300  0.8313779090497151  0.5000030961196796
  0.0831452399634638  0.6644197523150689  0.2438320076599611
  0.9192690287168439  0.7479587895175654  0.8341036360090485
  0.9167945433768618  0.9146337139498483  0.8260425579113293
  0.9170479859938560  0.0876690126089733  0.1641896635513929
  0.4965361173656241  0.4210607217920650  0.0841191971404957
  0.8292823553504381  0.9159557662931398  0.4178510208355383
  0.4993908243649537  0.3350796615913059  0.3251198217114315
  0.0849971776463915  0.7430299615658020  0.0044587800679261
  0.4964116789323659  0.2423373618810400  0.4160597137062323
  0.9949640146930944  0.8333736463692407  0.0031636755772384
  0.7477154068729990  0.9074352928706738  0.8301811798159172
  0.9150559348696174  0.9190253990006598  0.1726979689527555
  0.8290133816896784  0.7529848997123914  0.7462535194601121
  0.8299218330317222  0.9185265230160459  0.2517191058413284
  0.9977119205027483  0.4989080523479835  0.3330514396042529
  0.9142794101871550  0.8305046090301889  0.0816998595058922
  0.3298335375380759  0.7498855840806020  0.0780719409796748
  0.9205612983590781  0.6622100992606385  0.7456697228158686
  0.4948275878577383  0.1719242744349870  0.8342858632232527
  0.8304750998851799  0.7483701835954429  0.9241249244159571
  0.6680505203528135  0.4182684575153352  0.2509642893219633
  0.2388455886009369  0.7453975411658674  0.8364683157645075
  0.0749182513754230  0.7502010597566120  0.6637411741001956
  0.9102082962511949  0.8378154797049373  0.2570924747115702
  0.4164448667659532  0.3365777345764336  0.2476251728532033
  0.9979492036249649  0.6691243440024472  0.8343167843691693
  0.9988894483835030  0.5823631167960804  0.9227730262643021
  0.9138630004512438  0.9922898662289273  0.2538142225147793
  0.5780252658431398  0.1635596184411229  0.5829247742289325
  0.4128431519826596  0.1631766558300077  0.0811928033356564
  0.4959979708476709  0.7551342933947612  0.5789536156618613
  0.3244736887238914  0.0778671549108734  0.0837813015768746
  0.5820621052926253  0.3325587222661980  0.4155870877958109
  0.5003685234807951  0.2479236685618747  0.2423042551502815
  0.2472395819523089  0.8361850739601302  0.5794510697059549
  0.2496164134028798  0.9993645541746692  0.4130260185848233
  0.4960318352936581  0.1669184983245322  0.9885262004637229
  0.1643462436186992  0.8337789822186616  0.1687951457550165
  0.5910019076328915  0.1654895461715222  0.0870839896619130
  0.4976212942092800  0.5941818173379223  0.0834084508743251
  0.5790405542693190  0.4173861086003687  0.6663373534736956
  0.2487326653171714  0.9127260561452610  0.0064467202430188
  0.4993324752330490  0.6652843563143100  0.0007726296280959
  0.5827187658117665  0.5799951278224630  0.8394148701414000
  0.3307953917983071  0.8335807037312284  0.4889895182881925
  0.3303228941841894  0.8393012665087670  0.1717335872749527
  0.5002892682542295  0.2490894335215713  0.0867978625918773
  0.4927415462780290  0.5792245548028818  0.5806120952922869
  0.3259024130967100  0.0799547057423539  0.2496756140427084
  0.5829617043501123  0.1749208653697308  0.4166065789960300
  0.5843167632794865  0.6666248370998675  0.5795728689859043
  0.4968780892726318  0.9934867179677096  0.8305254261592094
  0.5791265232725895  0.3402291579702403  0.5820982276713240
  0.0005372551638177  0.9172448212472086  0.4101094455916885
  0.0789795649512118  0.3277029464268132  0.9190599229180372
  0.5795685317054141  0.2466754972081167  0.8328660563334203
  0.4071574062389033  0.9979862945776690  0.4160623908154373
  0.8328193400347622  0.1687984943804379  0.0035385918394400
  0.6637049334420976  0.3373861365087555  0.8370430239816213
  0.5816877336890751  0.7515712491130436  0.3339602812668057
  0.5002436430212206  0.5019142982118453  0.3315620322845261
  0.9155670867900952  0.1685512135176074  0.7434294099159845
  0.9140992359641227  0.9969150859003797  0.7467362496141058
  0.8353053238614530  0.1689862265093174  0.4977080307840210
  0.2494590619476194  0.0838524518674070  0.6665835325336270
  0.3302485636799828  0.9237918484027078  0.7452159535508838
  0.9178541113540154  0.9154165157390448  0.9992743732436057
  0.9989097454475130  0.0073738253048126  0.4966590518876554
  0.8319382915518314  0.0003451161728550  0.4923267988730698
  0.9997716460902351  0.1686136233507244  0.0086242969733791
  0.8289416996408618  0.1695543475976502  0.8352003988976112
  0.2480051830201179  0.0042496956077418  0.9163032465189067
  0.0871814793375491  0.7547931400919313  0.3342319803876695
  0.9120293564827585  0.1685664415608202  0.9220954378496360
  0.9108133898094414  0.7465647209353627  0.0033697036700546
  0.9082044712292269  0.1705499856393942  0.5794204513357096
  0.9156094446784038  0.2521330850420482  0.3326276807943606
  0.8379649583582769  0.5762534603549478  0.7462678154088441
  0.9176717564563799  0.5804853067210098  0.6632923403841405
  0.8426711351416062  0.5805169247090695  0.5807201079660995
  0.9172214742858968  0.5013757843413478  0.0865965430099159
  0.9190288168286644  0.4983163606335790  0.4149004221649026
  0.1561766501532367  0.9171524323449139  0.7521943470503567
  0.8384618882342147  0.5817933207442096  0.2505715102343022
  0.7503280219151932  0.4907826809265463  0.2502872242801586
  0.2502313771271765  0.0852917190879457  0.8350054375241246
  0.1648311218355031  0.0751160561153045  0.5803897980882955
  0.7487866883107357  0.4122998115729731  0.0050265446016890
  0.9127283866222725  0.0835340812856757  0.3383097224503378
  0.8256015502384280  0.7496719024362438  0.4177109106105379
  0.9167239826388074  0.7509586233400987  0.5049979692197227
  0.9233196050953308  0.3346849311423978  0.9186767687995744
  0.0039208141678004  0.1677204064320757  0.8328441923916791
  0.9993845586476529  0.9168484075389663  0.5855383693804236
  0.2458685382599806  0.9986319808760372  0.0922370962445899
  0.0871194689115510  0.0028196883488407  0.7503564097217446
  0.8405830332103184  0.3382088365869535  0.8312312517681831
  0.9154984025099567  0.2496127692547689  0.1686719666004622
  0.0825644819898971  0.0022707736288520  0.9149113811234191
  0.7511854085055554  0.4170633159304911  0.6627032720771305
  0.3238471276993153  0.2526571151107857  0.0835733589803813
  0.0822396026031849  0.3279091674883761  0.0860996928400090
  0.9180538464321178  0.7496531403828477  0.6567662603746647
  0.1680519960847815  0.4142745975705952  0.9211715695252656
  0.9984928125289102  0.4159426908167714  0.4146243769282422
  0.0033799673781993  0.0856267814161935  0.2488047104812083
  0.2501864514886142  0.1615001078980158  0.4140988482843042
  0.9986721816188666  0.0782753613441845  0.5814544012381448
  0.0737789829537935  0.2534803374367184  0.6683965783314451
  0.0831606749797010  0.9172481147745809  0.0047548470299152
  0.9147991745441366  0.7413170697557361  0.1673259397816006
  0.0813545848682405  0.5004911727454374  0.2507890374372845
  0.9981762048265722  0.1679447682208134  0.4908609802273038
  0.9977342703415540  0.8386276200320292  0.3312696498452233
  0.1648744012452384  0.1706868214483290  0.0001676257850647
  0.0808938629665477  0.4178240647299133  0.1770571139285519
  0.0749275137522268  0.8330638996634109  0.5826589436097803
  0.9964570305472341  0.2489609605433820  0.2490953158477724
  0.9169182617432911  0.4176834451387678  0.6631946724354616
  0.3325613338054301  0.2514514500722564  0.7518712336314610
  0.9982152710972095  0.4964419962143085  0.8305715595128929
  0.9978507868615099  0.2535201690935763  0.4141554196755183
  0.8345565112611885  0.3337466904433155  0.3317555643627784
  0.2401991310161336  0.5001391702904189  0.2516212927993884
  0.5009100440982223  0.4211936886917836  0.4135608788907917
  0.4153565490496575  0.9863946753545143  0.0874888183202456
  0.6597581225151805  0.0843954079228879  0.7439360458675838
  0.3380050923018414  0.2503850660395687  0.5838900926695725
  0.7488984035813290  0.7484445076587293  0.3418246834651230
  0.1667792589336271  0.1608111147772287  0.6717946353913329
  0.7476965721738700  0.8387432851461543  0.2522611016482083
  0.7486121438039026  0.6709533904926379  0.5798126401305449
  0.5841574978132795  0.8335549735358815  0.9105375628439372
  0.1602040357665302  0.2539267241467054  0.5797891059982189
  0.6696836889720025  0.0864189588806173  0.4203651541030459
  0.6664673060202922  0.8371887927147224  0.1688572827264950
  0.7518451900750684  0.1691276920208680  0.5717235386216802
  0.7498086883779931  0.0015742865796142  0.0943076138848419
  0.7507329742381206  0.1683597951692622  0.7493735519404709
  0.6690755638649269  0.1664551795895508  0.1697476945944770
  0.4984795058903715  0.6602957423739613  0.8344705092540031
  0.6659378729891737  0.0900348837260327  0.9219034253501625
  0.6664390594806003  0.4206287581750505  0.4142526796317569
  0.0745809254443645  0.1670071477905403  0.4131312247726975
  0.1652227798533018  0.1681957449019673  0.8333779304540041
  0.1597360742487132  0.2549349015640986  0.4148956585670865
  0.6593606044037180  0.7483075261633039  0.2554524185354539
  0.7470289942262025  0.7498105811511939  0.6627289758440733
  0.5842616122784253  0.9957305003321372  0.4151021233307625
  0.6675706830802234  0.7467653951562486  0.0791088919292347
  0.7437290046466353  0.6694154230307430  0.7476576826941079
  0.2481598989009536  0.2511185024372074  0.8359703134218819
  0.7488541554773271  0.7467679537581020  0.0018095015261074
  0.2544147969002250  0.1577558966513618  0.5836165678554655
  0.3279009192546420  0.4197606763834091  0.0826442355875238
  0.6642960561282347  0.9927957900309504  0.3330147258980406
  0.0807578789805273  0.3338149737280708  0.2491110473012269
  0.5832196650156409  0.5828080612030955  0.4884026436657886
  0.5015734161177121  0.8368511878791215  0.8326939589840238
  0.6683980269152769  0.3343620026879959  0.3263327426833774
  0.7491814482424339  0.2565008991712141  0.6570147348381881
  0.9960462849988276  0.6628086747127497  0.3321817069267947
  0.7499543654054566  0.2478936069654513  0.8351435254354321
  0.6688095187457307  0.2563132145236663  0.5788902626918873
  0.5880149394200607  0.3395536665988925  0.0859224661607081
  0.6655833625048571  0.1757670720026074  0.8325340049029397
  0.8324556485208159  0.3356142512886469  0.0082714369099159
  0.1671761135052812  0.4173017331735919  0.0833132786407374
  0.7522072062703864  0.0001513607904005  0.9209958404503521
  0.2465770292398509  0.5840605726645650  0.4972782593320170
  0.6623364846919078  0.9990105898959942  0.8330340666930464
  0.5822183820375855  0.0823998598266820  0.3253970291284852
  0.5891136081968449  0.7484124747216150  0.8365906266325861
  0.6686117220493309  0.2443831225853731  0.4175374786712372
  0.2475826279306082  0.6646135636196270  0.5734996240264595
  0.6664405727996506  0.9980588952439744  0.1658174369346558
  0.4946378381890089  0.8298521527693400  0.0055332207671322
  0.1717030574110419  0.6655981917472484  0.3345575646717937
  0.5835353570012682  0.7445702954706426  0.0041139315963765
  0.5004001431938847  0.8315754792633019  0.1684472627126783
  0.5722479321698022  0.7484337946848050  0.1674124785249448
  0.1600196071190315  0.5033518006594322  0.8330188745443654
  0.5821787177223920  0.9167381900553249  0.3331087675455102
  0.3329336438522231  0.5013238592608213  0.6612222471323206
  0.7507996388594904  0.4991848677573439  0.0938261278781006
  0.4978522204409024  0.0832532165830818  0.9222818111577832
  0.6637441977439831  0.9991463766128663  0.0081266371094045
  0.0796724923620823  0.4167937285547357  0.4962809403259055
  0.7506502467593306  0.9927471262265224  0.7444231001790398
  0.7563498717039433  0.0840395101098462  0.3340575061727423
  0.7495437004695442  0.0809977318723700  0.6569221599425724
  0.4978675926204621  0.9187976448982337  0.7464724832129778
  0.3340024518889261  0.4996540165329178  0.8373732460869087
  0.4985541913539292  0.7465298825150770  0.0837155285851490
  0.4120447831233757  0.3322693281206532  0.7505757787729502
  0.1630316252764346  0.0806202020148107  0.2496267913565123
  0.3301350270154980  0.5920834305393293  0.2526893744893324
  0.3320908518028181  0.8332619084314485  0.3336500436424651
  0.4149007394210147  0.6674506896488758  0.4135272539306220
  0.5783240949604448  0.4935336125307541  0.7493513471818342
  0.3282488561149051  0.4959677068548963  0.1625112936741151
  0.3290260820173112  0.5027640014253557  0.3395546946970870
  0.3335093715960193  0.4179570454916062  0.5846107575709932
  0.2456264250937744  0.8274284118905575  0.9187580059359115
  0.3308426981901239  0.8323605046796565  0.0046874571518155
  0.5012637477404713  0.0721824796714960  0.0845736649673508
  0.5858718080642773  0.1649128478616306  0.2457766085494207
  0.4978571206342687  0.9111762428547340  0.4138118143321092
  0.7480538828141220  0.8330080551650008  0.5799652864171621
  0.3354159701791771  0.2491879798192528  0.4182728774570901
  0.3294664185034714  0.5843201338397793  0.0758263261990233
  0.4929831267183289  0.0866879511387023  0.4185920924749604
  0.2454314994767412  0.4188611356632788  0.4948812658054429
  0.6642889899286438  0.4963000574008569  0.8363537575344098
  0.4069679443430809  0.3325591556290953  0.4157626693536869
  0.3326472185214177  0.3334835101424676  0.5021027709752793
  0.4981557520330461  0.9179588699039802  0.5804742103234545
  0.4100544489665052  0.4169368844076507  0.5051101543733836
  0.2426135810443836  0.5014164675995563  0.7464667480096658
  0.3309710452229315  0.0827601189565001  0.9155555854940884
  0.4032664432110678  0.0820805962089907  0.8341862297950251
  0.4961729187590285  0.0848874125697035  0.7435714356832227
  0.4974166198196970  0.4991967364708609  0.9957887783815885
  0.7515966909536012  0.5810255365222600  0.3401309445180435
  0.3274558998265422  0.8328910316054319  0.8362131731379355
  0.6604577339793910  0.5830039451096271  0.2527264619908761
  0.2476346632567093  0.3332225184023057  0.5813311204677081
  0.3300013935483051  0.4995012992610219  0.0020087115303388
  0.9910495850782229  0.4172474895620605  0.0871326338348977
  0.2435309004749390  0.6674074167871243  0.2528449944756318
  0.7489614450256603  0.5816257124059712  0.1623384582205876
  0.5821857719331028  0.5789388326848975  0.6656266229719108
  0.7514048284169373  0.4934438942564766  0.5799993636361459
  0.3279154494445361  0.4169763837518817  0.2517328956863554
  0.6662062816762210  0.3367572140977669  0.5044724800944915
  0.7503585605110809  0.3437635947958341  0.7431079054568244
  0.9996618051579805  0.1676788647509539  0.1672542727475209
  0.7484024105305329  0.4256680178448729  0.8355038519972868
  0.5812603302366082  0.4882808521522755  0.5831159653887207
  0.6682408651389071  0.5818840553958392  0.5808728799563926
  0.5877952396124704  0.5000567874228157  0.0851333961464190
  0.0790250530081909  0.3352686637307549  0.4143474468763247
  0.7485951219292137  0.5857147386526809  0.0026362781220643
  0.6639068177926151  0.5815991707195138  0.9168471472822478
  0.4134091398511174  0.7451629676694017  0.8355104944307493
  0.4138575070520745  0.2504275446536725  0.1747087544666289
  0.4111841673751626  0.3349659996121491  0.9175907814103459
  0.6651292528842956  0.8335276484528393  0.4979001644406947
  0.4151455038116869  0.6640074420743503  0.7554255235891923
  0.3345487105081152  0.8343253366374180  0.6621310949056346
  0.6650086941615179  0.9076088143418880  0.7478727085322333
  0.1564470107595578  0.6611202170013385  0.6629060353597765
  0.4072573201895520  0.6663843462995210  0.5783205392022859
  0.3297395814775925  0.2446366655886514  0.2470531136051813
  0.3292216438483306  0.6654403155908067  0.6648812555484744
  0.1598597048148287  0.2498456823980292  0.6700430213879850
  0.5811837893182525  0.0868287514137212  0.4172367802562184
  0.6639780896066773  0.0894489069440617  0.8331228785775955
  0.6706998829151614  0.0815710097154727  0.3307181647840966
  0.9973037834924902  0.7437462541890799  0.0025282444984134
  0.4951815820344598  0.3312500407922843  0.4175732679079923
  0.7530716620024637  0.9982519977707599  0.0091576842136866
  0.4916438082156783  0.0828756565456169  0.8327397742154076
  0.9120246101885516  0.7470816438787885  0.4199680669116312
  0.4104390519400672  0.2534187903339655  0.0855998151321449
  0.0014496125579968  0.1659236330503646  0.9220211888350136
  0.7561724554613553  0.5824687164076259  0.5779846974130388
  0.9157932596140932  0.1672829075748861  0.8309103836908256
  0.0844190029357728  0.8302671371398124  0.0008254879934662
  0.8299729591330820  0.7496391052933655  0.8375210670197309
  0.4165380788315721  0.6675919770502877  0.6685214003835156
  0.3272761160240219  0.3298709017964953  0.2503375385285289
  0.7534714881570904  0.9940794859602039  0.8330538220832875
  0.4120915084643776  0.0719585404151579  0.0802329385703325
  0.8369000564757956  0.3364497653102500  0.9212660729399850
  0.0800598701843615  0.4145956155089198  0.9179131653995825
  0.3305448993498376  0.5043613167268970  0.2526150517595966
  0.5769722106525648  0.3344002146132760  0.8332989073382850
  0.6607667229039036  0.7498417933572997  0.1662107860411906
  0.4997507925086955  0.3365553884298118  0.0815024510566454
  0.2419718934412838  0.9206128774381611  0.7457755104433020
  0.2520319372026533  0.0045523542288563  0.0058571012622417
  0.2512394891089020  0.2455597277339420  0.5853833998413321
  0.5792718719008764  0.2518690893636661  0.5867065626713728
  0.1648393709146710  0.1621497992646432  0.5829656998296672
  0.5914205390481247  0.2524723238922244  0.0810320071409493
  0.9980115991816559  0.5824805164274706  0.8332976098587119
  0.5808506403114699  0.5753782280923323  0.5755904133202138
  0.4118810403986243  0.4220653282508444  0.4181064889966637
  0.7497277627822181  0.2569870912387441  0.7456701452421486
  0.9174253320417409  0.8282402487296586  0.1712866878981674
  0.4939943549956079  0.9980885516065977  0.4167629769535580
  0.9195834788758885  0.7524850457045447  0.7439187847449993
  0.3316816909005015  0.5845896511040725  0.1625181153769696
  0.0000870971172566  0.9992717748706209  0.7502632479744346
  0.6598937520861613  0.9934687784008005  0.7414264789116428
  0.9983137538284005  0.7516175972077063  0.3314671114729653
  0.8303618658981285  0.9976925676669998  0.5778918516670515
  0.2478287196877318  0.9144317729161364  0.9178609406389835
  0.8325717407929604  0.6639063118881920  0.7506068525330053
  0.0782089656116778  0.0056063812357914  0.0025250499233515
  0.5785133728609938  0.5831524597049705  0.7525180667541365
  0.2474001523376342  0.5033274193738753  0.8368236163778092
  0.7502971994721493  0.5801924117222897  0.7520851175909975
  0.9942696013427353  0.1672465316055014  0.5798777202700731
  0.3244802386233243  0.7436258840241209  0.8383459652567702
  0.3279606844477670  0.8355141064427027  0.7480007250824132
  0.1617675535020513  0.1646493878894476  0.4110576592170130
  0.9144911251413023  0.9183288750332921  0.9110657721240440
  0.7520358784264055  0.3387275996407856  0.8343162564097590
  0.9147039561391002  0.0807001850211660  0.2511921868783752
  0.1645437650840887  0.4160197048377858  0.8327819376492259
  0.1602732030686433  0.8387867371159829  0.5778694552678947
  0.7492119380008525  0.5796960322718331  0.2512250299608495
  0.7505712389463117  0.0802299456014052  0.7460038386489763
  0.5038252866835431  0.1590229194448469  0.0770074448131223
  0.2490425167763797  0.2517447260893564  0.4108850400796272
  0.5812896456684870  0.8325822016692742  0.9973639383889993
  0.2454766677246323  0.4205972682033867  0.5824692763164780
  0.3215163180928039  0.1652086009066440  0.0805171437227761
  0.0793252278892802  0.4176646982485119  0.0895350536100537
  0.0846939608826476  0.6645753245303408  0.3328455241993588
  0.5000661060731572  0.5091268658438701  0.0845337636011475
  0.3349791048059829  0.8367884131263439  0.5738728927275122
  0.4126944335702079  0.0777467693071795  0.2527082940341892
  0.7493468259546772  0.7523663777946169  0.2547157530399985
  0.4949574375085520  0.6674367057980731  0.5784564689609267
  0.4981416118184034  0.2460375066355168  0.3280854610706386
  0.7484433022833037  0.1686146943953580  0.6581317266260804
  0.3320903051107463  0.7548458883500885  0.1664386068913114
  0.5829700077452457  0.7546807591573412  0.5804800405195080
  0.5032354285262953  0.7472131071423079  0.8325446072431416
  0.9985549031447164  0.9192738573704532  0.4981734479962839
  0.9132716337304382  0.9211865930359121  0.0852583719124623
  0.2428522017540150  0.6637124314338759  0.6626956852963609
  0.6713754087537529  0.3324199650605821  0.4152821251923635
  0.1593020582025391  0.7494750845742797  0.6678620178001593
  0.7503986971546981  0.4993257402468102  0.0057471471089326
  0.4150135808932916  0.8359687112394304  0.8379966888301196
  0.6606533562194615  0.9988453087792387  0.9221445994708007
  0.3320959146265874  0.4981169966516916  0.7481232747072550
  0.4135356274181541  0.3338158981820633  0.5852936774407774
  0.3283908646351397  0.3339330348738931  0.0001412797667556
  0.2450065637763280  0.3344834793855766  0.0832776156840657
  0.3318252696844882  0.3324395911385553  0.8346668711452628
  0.4146084635205541  0.2519238015970580  0.9966747333172586
  0.3265170957022518  0.3358844603766027  0.1622503029415880
  0.4127142939146703  0.4183321569302453  0.9993082046631057
  0.4131581066483131  0.2499144248881031  0.6687715752394779
  0.4133802341542053  0.4166725747050014  0.6661437433089897
  0.3312692813858440  0.4171763152691931  0.9182697512540264
  0.4082155826344903  0.3416650446188149  0.0833814657758356
  0.4125682775011222  0.2509546540334648  0.8345471987181254
  0.1621121645955045  0.4993183112126292  0.6637700487934434
  0.3304095119517983  0.2518871950566282  0.9163820901862172
  0.3321252834154257  0.3325523006216969  0.6662489250385822
  0.6663342054961851  0.2505884366383254  0.9192870708688710
  0.4134351156954807  0.5011254749117556  0.5800647184781913
  0.3305171462330627  0.5825508981208622  0.9199782610934732
  0.4133530809279183  0.5007694704184485  0.9195128008457585
  0.4150372398906805  0.5074227329158743  0.4139090398292065
  0.4965174879449435  0.3358943949437498  0.9947977975826009
  0.3300030825379714  0.5015787950358196  0.4975622092925293
  0.5808060249353602  0.2503250734093532  0.9948417760374666
  0.4135136347193818  0.5841144990953626  0.4962706445968990
  0.4990262084538638  0.3365567434003126  0.1708230723507009
  0.4177958818325552  0.4987759446037022  0.7515468921894342
  0.2393778550164886  0.8278978084228997  0.7522791010384804
  0.4129170069464659  0.1653647760461442  0.5844014797145467
  0.3304853318979348  0.5868070853476820  0.7510931146019995
  0.0826528173324996  0.9199075153806628  0.6638387699597518
  0.4939134622140440  0.4176065557926380  0.5830204276092775
  0.3297631878873817  0.1689224217874436  0.8339970386965723
  0.2482660857577182  0.9167276148167472  0.3324768855985360
  0.3310931463123183  0.9236468316875267  0.5805707288800133
  0.4947087851670020  0.3349326530962072  0.5050321556400135
  0.3281837319149126  0.1642274282389782  0.1696748612932058
  0.3325589095054873  0.1641753467948230  0.4990507568704604
  0.3301560573902216  0.7494948688728948  0.4144939384456695
  0.4088530687216387  0.2480884708094332  0.3298430400625324
  0.4137858349292565  0.7498137101919160  0.3339565382813878
  0.3316941427705652  0.6667220229579724  0.4956879399293487
  0.4141663174520372  0.1663935024435579  0.2482146633620283
  0.5045558390442944  0.6652722565072497  0.6710169991755891
  0.3288584130348671  0.6676016888595115  0.3343083611028280
  0.4198991388481167  0.5843311866529869  0.1683380835211760
  0.3296097865479996  0.5857273545713715  0.4154197142826512
  0.4144053734726496  0.5861205180166714  0.3328239580863668
  0.3306937712578207  0.5826944340836585  0.5782281308500681
  0.2476416379109338  0.4154309407404830  0.6700921174930505
  0.4140591716379939  0.5787966232184391  0.6648125085514235
  0.4139169296827825  0.6667623021057647  0.0828771836206850
  0.4187825108574817  0.5012769227914755  0.2511126345478787
  0.4152628001449933  0.4188593282521870  0.3298106801340079
  0.4118067041884045  0.1673100716113299  0.7512343401298727
  0.4151909369370634  0.8325900468848518  0.0862034027661944
  0.4165177941445141  0.9139298750407625  0.0024686750145087
  0.4205316997069818  0.7495077839452330  0.1686930671395142
  0.3303794373024062  0.9146578282003714  0.2526438283930202
  0.4156235496300055  0.8327907293081080  0.2519128328316396
  0.4152620764686126  0.9128488823777914  0.1697124523736326
  0.3307794111372666  0.7496937701231137  0.2549437865339231
  0.3303822579858262  0.9162181228810493  0.4142397899120129
  0.3330174114868193  0.1648545790101581  0.6683983075061842
  0.4142630691184077  0.5820427252171640  0.8375417282355421
  0.3295347282834076  0.6658822507250247  0.0012387851442356
  0.2436618000566580  0.7498891526920525  0.1687685179493054
  0.4145310259944459  0.5838176437365120  0.0001306770004796
  0.4140057722501376  0.2480103332393542  0.5003285904942757
  0.4164109745927562  0.6678765808495112  0.2528458821571229
  0.3328853010728626  0.0815966025986002  0.5826612720846457
  0.2522392830036690  0.2487054752398530  0.6743434353799336
  0.3309540955786658  0.6695078297217889  0.1659662615865214
  0.4147756432340975  0.8326222639383596  0.4139767887657049
  0.1612400858707645  0.8311190121981828  0.8355654720317049
  0.5738803808434298  0.9997658689222987  0.7467333556000216
  0.4209331965619774  0.8365264674120476  0.5807688746582280
  0.3300579527262387  0.7470907445348431  0.5776408992518109
  0.3301464714860777  0.9993078886252876  0.8329444808380885
  0.4188130262851005  0.8358034547385366  0.7451884476640130
  0.4126871287586245  0.9217757956293839  0.8310307728710714
  0.4144107170205160  0.9977038629128062  0.9165575611435725
  0.4134093262937490  0.0006538896812816  0.7469495624242943
  0.4142922827303806  0.0831629488392476  0.6664495214336178
  0.5828928101392234  0.0829492704617921  0.0015991374820422
  0.4971036471816972  0.9979088078390019  0.0003051705629977
  0.5781542423003535  0.0858074787699757  0.8330548277358468
  0.3309892240223782  0.0835836265835455  0.7501891018473463
  0.5013397118080389  0.0798962874408684  0.2464458380597423
  0.4998403098916885  0.9952313039093497  0.1684164605205355
  0.3300061412349519  0.0821106191140931  0.4153498408070303
  0.4113483888554750  0.1686509474988535  0.9149623870188813
  0.2463018900886652  0.0075755700275038  0.7507256607695884
  0.4137428350559092  0.9166904987267169  0.4970819807271791
  0.4130379849679980  0.0831293786671843  0.4998984431167812
  0.4117701223805285  0.1660673217984011  0.4161467978315961
  0.1626738538015783  0.7471894750781553  0.9194107317615954
  0.6684196234673467  0.1703200068022942  0.3308320691535885
  0.2492665511655894  0.7553604572194983  0.6626633960188930
  0.3321172786903179  0.0022588848775450  0.6648699495701840
  0.1598430107640690  0.7466987875316670  0.7546971167381682
  0.4993323578948630  0.9990577051201150  0.3283869509290653
  0.2438224349076410  0.5894691452850432  0.8363197075927554
  0.4149953272129958  0.9998453288486490  0.5827753256136469
  0.2479559667585054  0.7502543296536980  0.4957861688799676
  0.2501572257245090  0.0819552064073095  0.4973248164039077
  0.6654662476120171  0.4176498035391248  0.9201510224068244
  0.5816959360227253  0.1682976551827563  0.9172359127925019
  0.6634567388969579  0.9999569346252098  0.4992233572626010
  0.4969729127274856  0.0004250361275206  0.6635978992234491
  0.4954852162587000  0.0842373786086652  0.5839223744577844
  0.5795821025772613  0.0844063303479706  0.5050309770613487
  0.3296536141824660  0.9988579021748515  0.3328708099144572
  0.4128934102541300  0.0787607087645772  0.1671175961869579
  0.7497713928768436  0.4928619577146199  0.7476732424191757
  0.4973671640131750  0.1595967567149795  0.3297030177626612
  0.6653323198620916  0.5787465707951407  0.7507885359781801
  0.5868869018359660  0.2522529973225709  0.1713979920308343
  0.8327919226627891  0.0005136432177978  0.1684114832035441
  0.1634580468944735  0.0832732062399430  0.0874319625803974
  0.2448433056266341  0.2501984966994005  0.1679717328533632
  0.5878699815296713  0.2495229494751282  0.3291303079932182
  0.4140499495921333  0.4197520906688569  0.1674270206529233
  0.4914232278148302  0.2498583578500180  0.5846545204565294
  0.4996158392479805  0.1631687610136652  0.1678880368864326
  0.5798275147742574  0.2500754323645365  0.4976152367001442
  0.4148395714416163  0.9920639785413287  0.2505641369873821
  0.4937806163190344  0.2506296446577490  0.7505379066863884
  0.6687791691149179  0.0812708449623635  0.2438477788372424
  0.6657917433632754  0.3350165777633168  0.0031830955389313
  0.6658730086209699  0.5808943470501233  0.4145192274417229
  0.4132986813504769  0.0824128757192358  0.9931574464718121
  0.3305081846270627  0.9130780477015160  0.0868843406570985
  0.5784130600898194  0.3370543219037510  0.7453308546761723
  0.3295227694225075  0.7453840876890933  0.7463875038855692
  0.2469561769672822  0.9201178172183813  0.6596550930047991
  0.2372984474702004  0.1669060430026425  0.0862821817410188
  0.5824420536861966  0.4171920888494333  0.0008162973514474
  0.4168586237261452  0.7550520803679768  0.6637481808714828
  0.4995029144800341  0.4190072460610841  0.2501621728829341
  0.3307751347704035  0.6592285368247224  0.8361837064480362
  0.5840509645925190  0.4182357213080658  0.1691324973166114
  0.3360395247378742  0.9142076468862127  0.9188949561855264