Cr  N Ni 
 1.0000000000000000
    21.1263713165068658    0.0000000000000000    0.0000000000000000
     0.0000000000000000   21.1263713165068658    0.0000000000000000
     0.0000000000000000    0.0000000000000000   21.1263713165068658
 Cr  N   Ni 
 259  86 605
Direct
  0.5761933430426150  0.2465209881633781  0.6744177193046964
  0.8336914246819094  0.7542471671234261  0.7519118966198934
  0.4940836164214163  0.2413563414040088  0.4181120708139164
  0.9978702665432795  0.4985420416900497  0.3327460132110768
  0.7491227226273531  0.9036267722687843  0.8334641556098231
  0.3276301666402240  0.7533189685213535  0.0851258180155808
  0.0808126022665360  0.4154151357496657  0.6664497081500608
  0.4943262149103076  0.1646054603362199  0.8337145538788018
  0.0824675085470737  0.6642317942582315  0.2433001800286607
  0.6682995366593505  0.4188724596034373  0.2481365370264555
  0.9159156702331032  0.0056754978164268  0.9203542608380119
  0.0060713413063014  0.7502155906069371  0.5790724796896777
  0.4969607433523958  0.4226236582979547  0.0803196094850052
  0.4148864520297442  0.3363008723544282  0.2479437987286142
  0.5919756049471591  0.3349796995665220  0.2469731537753690
  0.9141042707429290  0.9955473519878096  0.2526528898707227
  0.0821649953910452  0.5810399455789109  0.1681557786455173
  0.0053341854446195  0.8328483893388569  0.1667842861556302
  0.1672703506055856  0.8347797098977556  0.4933368383400976
  0.0018474395324160  0.6687487964919696  0.8367066492115021
  0.0008535476748407  0.8299660209295973  0.4924778211694835
  0.9141889943202975  0.8354506356228636  0.2615033821266661
  0.9271692911206784  0.7483565323880049  0.8389763864580214
  0.0028073941638642  0.9150146580544152  0.0915667994407223
  0.8315625727458952  0.1686753967393624  0.1668138265604157
  0.9282516540403253  0.6647554175073042  0.7472820252233532
  0.8296676202606035  0.9186594499331292  0.4158248172371669
  0.8340516440173817  0.6611184317736402  0.8436328081600022
  0.0847977938514566  0.7473692760565455  0.0042664063993926
  0.3218361083809952  0.6679304508861552  0.8347705804063270
  0.9147296491690347  0.9205800611294961  0.1754279014982208
  0.9152526570961256  0.8306520048500171  0.0847287798072109
  0.5781325607830134  0.1579064887341533  0.5832586000184231
  0.1542775172811759  0.9142870030786067  0.9162486224884049
  0.4943241973204536  0.4204425098535733  0.4147760681038006
  0.5006967799540789  0.6644655182106195  0.6691390576115109
  0.5790751115573209  0.4223731417466335  0.6700134328618377
  0.4140009946272273  0.6693415705562752  0.2526735345315508
  0.4972135096099869  0.6604870347995352  0.9998316132358570
  0.4913424146706568  0.5768552865066902  0.5821220934843541
  0.3291165964650715  0.8347961699082893  0.4966659388069117
  0.5854261923206941  0.6699922727569160  0.5775265744989593
  0.5017674410812618  0.2486231414667898  0.0819781587826532
  0.0005001747381017  0.9188385906235658  0.4082749357986637
  0.5851868173784504  0.3314348698082160  0.4135975719348929
  0.4043298802308490  0.0003640369191252  0.4157109578748180
  0.2540262222084736  0.8344428335728673  0.5810396187706134
  0.4142502294676120  0.1625164055912125  0.0808795308458323
  0.4962440460203418  0.1639759821331059  0.9882150613699605
  0.3276228792248084  0.0756109243640583  0.0862725463924905
  0.5924267590609872  0.1629808097646051  0.0841200266944327
  0.5015449219940080  0.2447726568065942  0.2469994606061588
  0.4115693981559146  0.9854304952769743  0.0877105589977440
  0.4199737588978057  0.9976203568131451  0.9157122818735248
  0.2492432728047206  0.9998566865684393  0.4144886506471471
  0.5805105260663749  0.1531405881567616  0.4171926054264971
  0.0813852752081748  0.5080859634804500  0.0832560320178101
  0.1649429131600736  0.8329149475046617  0.1688291814311395
  0.4955011784891838  0.4212252965239627  0.5838380463805574
  0.8337032220890226  0.1674188256497857  0.0021858951810548
  0.4990854680245356  0.5013471775085707  0.1710907843266871
  0.5858499608944464  0.3349168413055321  0.9258308005796529
  0.5780275278110250  0.7488880812293720  0.3358985381028307
  0.6642331770949600  0.3355211061386412  0.8351148081904353
  0.4975980357843789  0.7527802120052198  0.5770412717001502
  0.3303026974352842  0.9995421768109695  0.6676183812445461
  0.8332306194544696  0.9983277048474488  0.6576421723652526
  0.0913709202874018  0.8335284931692342  0.2521749555713557
  0.2432788745498043  0.0017529711360592  0.9162656161342106
  0.1664444729043926  0.9236660843284670  0.5799829370117462
  0.9187005834032747  0.7464813974006113  0.9958164925443022
  0.3316687503086174  0.2496227295942802  0.7529658535577275
  0.4111304080558226  0.3409397392666478  0.0804112503529495
  0.8378756958392330  0.5735786609466709  0.7500476652779484
  0.8343076760029654  0.4169556188826853  0.2482004807951093
  0.1633947457969177  0.3265749881055367  0.8327554517681428
  0.9158526101469020  0.3357716977233388  0.9194474959630125
  0.1553292862326919  0.0822249226778424  0.0847317778409688
  0.1628136301817929  0.1653012642759078  0.4896375943456898
  0.0003432149806468  0.9182924997854464  0.5838927077680885
  0.9072395537379758  0.2514116233267823  0.1658085851507421
  0.0811539450701507  0.9995565536205174  0.7463620412965424
  0.9206005601223806  0.4979871438530035  0.5806719089784677
  0.8408761429711720  0.5766169473432574  0.5816779902454521
  0.9153751303101091  0.5017309624208949  0.0837154546066230
  0.8358617626392647  0.4160823077252561  0.4161550344392159
  0.1609191827244776  0.8339852815477519  0.6689357643738102
  0.8376911335222645  0.5813610414349166  0.2504888916346028
  0.7510102998130251  0.4910309511479721  0.2500712169473901
  0.1643440210527114  0.0824691116433170  0.9190992250412685
  0.1653841962386379  0.0745157116564305  0.5819575034256236
  0.7496558508367401  0.5013223883540880  0.0830441908596248
  0.9129819881406370  0.0850303013779584  0.3407083254195239
  0.8314809604883320  0.7493736802554429  0.4143546266753714
  0.9170804458789030  0.7522593909959746  0.4884352206995754
  0.0058887292411157  0.9147684093538824  0.9134756700033916
  0.0033124699391998  0.1673461554983812  0.8309935309143458
  0.0835584946056492  0.3306418913891244  0.0795946976738894
  0.0806711179307155  0.4206394042903438  0.1710022569736739
  0.9974761510214796  0.3359630310065138  0.8337275037966525
  0.9162160966551237  0.9165743211567180  0.0012461154796923
  0.9198966733381869  0.4187313387996872  0.6657936347443231
  0.7524399759166540  0.4264290826260121  0.6648354940162463
  0.9992922098764663  0.1661946674086797  0.0066867096923264
  0.9148097025193755  0.2519762241696977  0.3346719785365639
  0.9217882039700220  0.7527220574596746  0.6637017194253690
  0.9995472141296440  0.8338965891551723  0.3431942518215484
  0.9142198051054108  0.7417191514139680  0.1696944368753034
  0.0034820920072921  0.0860788726456487  0.2520795344563228
  0.9074979699983360  0.1673267834119569  0.5786123384791459
  0.9178028487175145  0.1686390532968025  0.7439729547754184
  0.0803564205521690  0.2511437930335643  0.6669586154639378
  0.0000532361499929  0.2539985078460932  0.5833428475597477
  0.1624820548832260  0.4198929098527106  0.2505380644940389
  0.9250578383168531  0.9985428233032939  0.7469986844175099
  0.3237736193911679  0.7447718753991628  0.7505678706561296
  0.2383368174166571  0.1677605005414670  0.0842026284863057
  0.0806046516351355  0.4157316407319604  0.4965178103971298
  0.9977832801151812  0.0063708185084099  0.4959845196363496
  0.0000064098223986  0.1601781347619278  0.1675377362622147
  0.9979587975303345  0.0777999135399771  0.5793043422405743
  0.7520993292711532  0.0835069717837874  0.8368105525435793
  0.0893103959114217  0.5828213329937563  0.8350921008432195
  0.0922525308734176  0.9156171614644568  0.0034354000043515
  0.9120264908168273  0.1675252459606238  0.9205270696174629
  0.2454053284404298  0.5865515902777885  0.4979191432466121
  0.0799245467153855  0.1650713074923273  0.5812181087169810
  0.8345050240367430  0.2504228597700798  0.4157340315850576
  0.4185315227676397  0.5014470133326205  0.4151082589521770
  0.4112410868418804  0.9980128325686199  0.2509907455580770
  0.6595856445915340  0.0843042690307468  0.7466254829124470
  0.7504246049668614  0.0785792604537898  0.6568209083331563
  0.4991727326047333  0.6641304277825948  0.8347113829323324
  0.4955096743205278  0.9157677363515239  0.7472999355489637
  0.6694953033236638  0.4202803136912748  0.4145660513530675
  0.6779409837898859  0.2505901889018770  0.0824694001190974
  0.1640410460586803  0.1745381192327842  0.8307867622097981
  0.6672319219418863  0.0877980375920266  0.9239193497531432
  0.8349019525386449  0.6659223107930274  0.6658457727818479
  0.0818720296527548  0.1666418832097801  0.4160323473297386
  0.7488164163287734  0.6683326973466213  0.7510508365666371
  0.1629684285455718  0.2491585283228050  0.4158448856909186
  0.2544351527150594  0.1586197911575946  0.5856010037936089
  0.7421355191978377  0.6677711767960767  0.5765487735662131
  0.0810513587077058  0.3344798778676751  0.2557314791932950
  0.1580864221668442  0.2517693499113117  0.5839450278487636
  0.7491560503633646  0.7486397287536284  0.3429261818733859
  0.6697647735746074  0.8360608119406164  0.1705574161757987
  0.7457486306057162  0.8397494896188686  0.2530134067621870
  0.8252051150779692  0.9181692068345990  0.0865227909177736
  0.5813231852073147  0.0083232473096331  0.4168733913735271
  0.5848495459695504  0.7458440908819767  0.0006490173505975
  0.7533104911976830  0.7448583717405144  0.1664135573608881
  0.1629422223938944  0.2498027761358690  0.7492565309369298
  0.6665237633261156  0.0835766108682547  0.4207098201541264
  0.6656978115523450  0.6600387316674077  0.1686419170521665
  0.2367366540022666  0.3339953559146749  0.0807610250439153
  0.7539025928311978  0.1662170616107133  0.5725241440497602
  0.8322928327951693  0.7484760975281785  0.9307858285772744
  0.5826717709167104  0.5821793784704914  0.4914733703564229
  0.7489894274740724  0.1664962447776935  0.7487520722791697
  0.6685386967056677  0.9175933318602639  0.4179118116150421
  0.4958341373058611  0.8412018233330296  0.8319397628107787
  0.1616133652506571  0.6666901202046436  0.6637905794195527
  0.6675780029076628  0.1646591777864694  0.0011042433806763
  0.5808167664906286  0.0843604699702539  0.3300028951107489
  0.1693477166147365  0.6663405574038918  0.3332447756138949
  0.6717502058680547  0.2445152659819102  0.4178166016693242
  0.5821150549119446  0.9226910630293912  0.1697487771768391
  0.9943102636266812  0.6632880368445573  0.3331862052783349
  0.1641362711598636  0.4179214980736156  0.9222100693092112
  0.5833792078376021  0.2491144764630382  0.5017564980228635
  0.3299453417717810  0.4971035241004493  0.6668426395507160
  0.6656239164426612  0.1734771364879549  0.8346070816565306
  0.4952421404396162  0.0817192540315399  0.9172104958368620
  0.1709118365501894  0.4190568433014237  0.0798397152784380
  0.1635181469889545  0.4999468861327304  0.3330109943790920
  0.0806079340799563  0.5825834725329055  0.4967971980526498
  0.7548904442023517  0.0842651805709578  0.3336494649710849
  0.7628855856244966  0.3331615296931952  0.4158509289819485
  0.6679830387291432  0.9999130891905853  0.0107162282062322
  0.7544456583579224  0.2533026120869008  0.6620131345129022
  0.7496181528242660  0.9880367523360034  0.7440340685560719
  0.7490533918452419  0.2466970787877044  0.8389389008360433
  0.4940673354197223  0.8373146749605757  0.0035792233803725
  0.5887676713149783  0.3403213261775605  0.0814720618569110
  0.6703183041125039  0.8339971266319886  0.0036672202324468
  0.7515112557897432  0.3357139243471201  0.9262795175885853
  0.5754994698179817  0.7476028598970461  0.1687737449356086
  0.7518940442989455  0.9991132955083915  0.9241624469014990
  0.5793172014692863  0.9183494391691479  0.3274314316949360
  0.6601815828320398  0.9948557908048024  0.8331588627757937
  0.6651784225164771  0.5835823662126293  0.0825929449590674
  0.5810466862268870  0.7505963184525508  0.8351447362194268
  0.3371145293422119  0.2448409926582217  0.5870091370189887
  0.1616276146125459  0.0824591850530713  0.7454154299813512
  0.5903071277682220  0.5032632026767205  0.0829915293629633
  0.1626530704157114  0.5858055095737950  0.9196747257438139
  0.2359004946933541  0.3330841893711739  0.4164113813130405
  0.3297498323768779  0.5918264311899070  0.2526617185269192
  0.5778367773142487  0.5791206190217525  0.6704907823755403
  0.2344247547360961  0.5869246375757070  0.6650516493429269
  0.5792674446419862  0.3340283658898360  0.7553613302140528
  0.6666618043832904  0.3324411020920557  0.5045592378548348
  0.4951670281248615  0.0838067229096428  0.7503533968148206
  0.3267680496796495  0.5016881922747110  0.8418667266942678
  0.7504567006655462  0.4245308617175478  0.8390016222103783
  0.4962974626607968  0.5963054168933157  0.0833541305398797
  0.5021830854367459  0.0722736951715020  0.0859835373355440
  0.2441389220301434  0.3337313643516124  0.5852792534572383
  0.4934446105857317  0.7474857512414724  0.0925726656028490
  0.8285232560054321  0.7536061744938862  0.5761292753244046
  0.0802718884930422  0.4164556698000615  0.9928160244119703
  0.4937743262328723  0.0893837889658775  0.4162513129810276
  0.3282480858723957  0.5016197215707259  0.9964752989543275
  0.7507896103201512  0.6651102928681524  0.2540203941215927
  0.4107807769785394  0.3330049425133437  0.4169715378873734
  0.3300721883399292  0.9116236820364354  0.9165282191682588
  0.7505251768057546  0.4912055879032063  0.5797759413291877
  0.3311383969951278  0.4208927503540982  0.5852135406586969
  0.4921581363376879  0.9144486128463001  0.4136718291816928
  0.7510001583290835  0.3415133665401460  0.7505496684544144
  0.3293495272580575  0.9213553333506995  0.7486220597972263
  0.3283627328551136  0.2406417327375385  0.4168001826365599
  0.5809454759280647  0.4890247320808905  0.5831787439034890
  0.3249821089655353  0.5891609315922718  0.7537861141132067
  0.1565545572280837  0.4189812653809498  0.5821329978674036
  0.3276968732149145  0.4997476834531304  0.3337817042960293
  0.3291927067308362  0.8320674144017699  0.8363419688525456
  0.4955819558928077  0.7500864310766630  0.4131771684512732
  0.8362549901048633  0.5807265903143823  0.4158539215498005
  0.3274778939562101  0.4171539328431580  0.2506906325477023
  0.6608347547028053  0.5791165649339131  0.7508669004571639
  0.0840288098663542  0.2437471709503432  0.1685947375652941
  0.4957425465842751  0.9242168994226015  0.5831663551564024
  0.6661026040731420  0.5802263756743115  0.5816434649663347
  0.3290923629939725  0.0880662874320543  0.9153690726487856
  0.3285899541089165  0.5003875251351252  0.1599302249610579
  0.7516873429614845  0.7541918103897807  0.8338476207285588
  0.4980888327185452  0.5017993635079754  0.9944640009376972
  0.2436137048940211  0.8260657107113787  0.9171695261337828
  0.6617488122167310  0.5859129290760522  0.2501267665014232
  0.4141370136316821  0.3324979895145603  0.7541483792532984
  0.5839739067727500  0.1657518793446370  0.2467406749743666
  0.2471278325261705  0.7513087672028846  0.3328139211212000
  0.0806025972215571  0.3334479175815688  0.4148271074309510
  0.2460016870012894  0.9987083724515352  0.2515687652964808
  0.6653234032650619  0.5811884041724055  0.9190270288648751
  0.4064676779157527  0.7539819551500923  0.8352869394602535
  0.3245874894679325  0.2508630515168166  0.0810624069597405
  0.4178190168597711  0.4978924177991498  0.7552352840876247
  0.6647690637717690  0.8339371921092323  0.4971990754370575
  0.4094817095671609  0.6643156608517579  0.7507668120610135
  0.3280995728086652  0.8346964831778171  0.6598202515503976
  0.6640998172348755  0.8402221467790616  0.8316703435595465
  0.0856867852792237  0.5840936200643958  0.6659134918259501
  0.4086768440239861  0.6705188464095062  0.5758930090826191
  0.3256839144418949  0.2432336617345009  0.2502001398328997
  0.3231225163895731  0.6732624004161814  0.6653627187486753
  0.9926136429131626  0.1661718382295676  0.5795946402926720
  0.5832685790070304  0.2398527486450044  0.4122667261341741
  0.0009474364970381  0.1676402200972094  0.9202473827933167
  0.6683940602123563  0.0840704841141177  0.3317031981193537
  0.8406674789478769  0.9952720045807999  0.7445149089090001
  0.4963426611457069  0.3307720260014084  0.4204063343788902
  0.8336769241894283  0.6645107637543066  0.5772713999623680
  0.3216425346854344  0.3282924320662410  0.4184467025109052
  0.9191719047217768  0.7502389129656220  0.5745657087956852
  0.4126692538571974  0.2521292989608083  0.0763535900344021
  0.5052170986920126  0.3353009113522648  0.2482834309035544
  0.7530403176559256  0.5781735027243867  0.5780321923050026
  0.9150936151894284  0.1672925426412374  0.8304941794455269
  0.6668502992449331  0.7521419466604781  0.8343574285801811
  0.8400641824920297  0.7516979945666034  0.8448014070988388
  0.4116095314345544  0.6685416627436489  0.6635839606267987
  0.3242604603102425  0.3297888503513248  0.2477585563541027
  0.7517936280535100  0.9910050461219246  0.8359561521395830
  0.4154586413921605  0.0711422897729651  0.0845295054345444
  0.6599518280343666  0.0865701368396702  0.8357601484202667
  0.5782643821480902  0.8365164668657673  0.1725764832118192
  0.3316616392133237  0.5042320164843960  0.2467464765206467
  0.5761749883549613  0.3348059818375239  0.8423596409773270
  0.6645857415695289  0.7473864505498752  0.1664662379013334
  0.5012391118997009  0.3372079730162333  0.0756062621638627
  0.1645496441706661  0.0858622428398415  0.8321189278105446
  0.3326747562228425  0.0014403252655089  0.9170695236369301
  0.2483530444413798  0.2456727470131526  0.5852995184140091
  0.5798676837649172  0.2449335265319117  0.5877616120349828
  0.1668672074359540  0.1615607739384005  0.5794947762808594
  0.5921728510070172  0.2519089326814772  0.0817586645405367
  0.5825444400315170  0.4217443029417168  0.4132052549999762
  0.5790434784247414  0.5780798411594047  0.5806990097537909
  0.3308951198315268  0.5026857745594221  0.4201802447221217
  0.7536108550882938  0.2536890424543601  0.7510345730091498
  0.9130756174945682  0.8298612707892972  0.1743104416915080
  0.4913763515479465  0.0026474063923476  0.4171609564075491
  0.9268913661029908  0.7549690201724129  0.7518987110148250
  0.3282122651625050  0.5883442098073340  0.1627992448831165
  0.2395215974023608  0.0764416453131519  0.0853708760530898
  0.6581395359294994  0.9948391228566932  0.7428759463961011
  0.9941228702688560  0.2470066628762318  0.1681516763157614
  0.0059625025686292  0.9167694932456818  0.0020768772039652
  0.2410757636979069  0.9129878428671954  0.9186669824106138
  0.8403818250302265  0.6619115425250489  0.7553986832675287
  0.0790148395553304  0.3321578285390303  0.1687403423044237
  0.6623567690286259  0.6672030523906131  0.7484542633284499
  0.8288753927236125  0.7569213627794241  0.6640817783871665
  0.7493559038103214  0.5782381843401977  0.7541098857329518
  0.4935097380196648  0.7482572385284223  0.0053808445424009
  0.9155253129367518  0.7418951684377481  0.0820866354073151
  0.3258241926861353  0.8334644143751720  0.7477675655015512
  0.0037598355621595  0.8333116230178259  0.2562497289001007
  0.9156251416584757  0.9187419239155505  0.9120107170776863
  0.7539478141169673  0.3371966997274887  0.8402122852007948
  0.9161456698962066  0.0828119486503475  0.2530279118120080
  0.1638615905973555  0.4137781181036514  0.8346760783790502
  0.1660321028994008  0.8344084490785938  0.5813509860006799
  0.7495055795683336  0.5775258392534133  0.2525767884785227
  0.2434635680022114  0.4225033421712278  0.5855869845025147
  0.5050915297817540  0.1586947407011458  0.0771970597180509
  0.3349727571256524  0.3334038560498703  0.5896257734300924
  0.0811953507477023  0.4201553866879651  0.0808382786184986
  0.7515144731119157  0.0777792130616272  0.7458563533872302
  0.3249485488292235  0.1633330978756889  0.0825682426155205
  0.5831416663216258  0.8362219946008301  0.9993777449622517
  0.0813793516040787  0.6664649498948539  0.3314948462034657
  0.4995597946011772  0.5106611354326529  0.0826442303462735
  0.3222745842515380  0.5847499059913395  0.6636046936474088
  0.4133991238393331  0.2440001487625524  0.2509802940665533
  0.7524031874738127  0.7535143614303118  0.2554871321909272
  0.4967164965542371  0.6648295863855240  0.5773346782874279
  0.3221597348056028  0.3406681888915552  0.0757961689825177
  0.7471495592702632  0.1657756937210280  0.6581534065917199
  0.5792470737643651  0.3354255322100743  0.6683650026882388
  0.5816653761103009  0.9175266532522344  0.4155627368849709
  0.4937307082412814  0.7539894216977362  0.8311228672600253
  0.9993083105579990  0.9177449120150547  0.4965630478023141
  0.9127284422231196  0.9235018579168629  0.0882903469792203
  0.4966978257227557  0.8393411678097757  0.5802883900762956
  0.6761975245652722  0.3326400328464727  0.4156632999801031
  0.4093475573158843  0.6647520713358936  0.8399213429653037
  0.7537712167040431  0.3416689301270420  0.6602657623036929
  0.0025262058786356  0.5812399109118246  0.8360922232116070
  0.6598409590158447  0.9983153500391011  0.9254699091807449
  0.3281114170831397  0.4975182949479526  0.7555233981483140
  0.3278963588460799  0.4259441790268353  0.0788282896404326
  0.3307653742046436  0.3313432812923121  0.8345755710849139
  0.4141973642489978  0.2476418113683832  0.9895526427193181
  0.3264382521391597  0.3354402726118101  0.1628870871262780
  0.4122903394259961  0.4197365364474615  0.9961856441285873
  0.4135875546640594  0.2482944979712113  0.1644655378211572
  0.1611997876079115  0.4998845970591150  0.6660101843608806
  0.3300349703109797  0.4177147341346784  0.9164141502769535
  0.4123525437809595  0.2483130240990599  0.8346372881042617
  0.3291353510395969  0.2478937513501241  0.9133831975036226
  0.4201152492964604  0.3331047745302143  0.5863996832040406
  0.3330844465848176  0.3318822076550732  0.6762652991072486
  0.3292005129545820  0.3314973844905976  0.9905160626464001
  0.4138967452520499  0.2471021745680214  0.6720476829511741
  0.4144299232325529  0.4173939141036828  0.6694061167230746
  0.3306227344036007  0.5010530520600868  0.5052119141593404
  0.3300717920284505  0.1653308585779879  0.8317679252865111
  0.3275107629712360  0.5851643885915456  0.9184295468341859
  0.3318035685768155  0.4110693838260578  0.7546173449499426
  0.4134807594748348  0.1583715007313752  0.2499098474082765
  0.4158484625648971  0.5768625815898313  0.6691932918084224
  0.5765955117923784  0.6656728875900918  0.7508788795033116
  0.4102479707560913  0.6685513681942813  0.0838811935841148
  0.3292056612246835  0.6693698881570185  0.3337150124634569
  0.4186908852318666  0.5022690991515160  0.2507161680859727
  0.3288309395011186  0.5855275001064709  0.0767975845400697
  0.4140564677415741  0.4172349357209797  0.3323822840338165
  0.3286303345664091  0.5895570401190368  0.4150433224700086
  0.4121459528669221  0.5022159929297395  0.9179508754224307
  0.4974352359832159  0.5021707200494002  0.3314019270865862
  0.4139345382821134  0.5857570305080676  0.3323579471125771
  0.4131379821460024  0.4991510101873224  0.5838715994480486
  0.3285074366114871  0.4158925707122384  0.4177138341753257
  0.3296285459938002  0.5859859815699855  0.5773431617890133
  0.4132646151742129  0.5839226557517257  0.4975973159678682
  0.3265566145698505  0.1642553271023897  0.1718802610876032
  0.3295733486902159  0.7504264280493733  0.2519815532029156
  0.3293266222535511  0.9167185333307563  0.4149170663182246
  0.3318392388498768  0.1646278628743248  0.6703166536495172
  0.4130897887570444  0.5784615009392982  0.8361570065225133
  0.3265703446377043  0.6698634476519097  0.0021762105326497
  0.2467631720405626  0.7505766108683919  0.1686491699791812
  0.4113771287052622  0.5842120122537565  0.9994256756626393
  0.4129449630728488  0.2443775913027479  0.5001498008357058
  0.4120181787199294  0.7504875016348083  0.1686672515675939
  0.3310354757175624  0.0808460025876480  0.5845190311503916
  0.2475883041436406  0.2498318511106430  0.6733920691009601
  0.3301314154299421  0.6738404970867290  0.1674892262236312
  0.3304560687320906  0.1636520403381767  0.5001738080253711
  0.3288167937707325  0.7508902744616889  0.4151856008638794
  0.4127092615349944  0.2450405577586604  0.3385784252137457
  0.4124494854893371  0.7502018381000276  0.3342364820047854
  0.3292492223923926  0.6680073151535437  0.4964991125042692
  0.4125230369111932  0.1648114533426882  0.7521974063810201
  0.4961685564197753  0.3314514177989697  0.5069174198039404
  0.1610963604579393  0.8321313927922452  0.8332882745724073
  0.4118565000127716  0.0789770527066192  0.1725234365595644
  0.4154242339585041  0.8344724695183467  0.7479323129928495
  0.1636137938720733  0.1668016849512014  0.9992587955985421
  0.4125073435690969  0.7561616510629565  0.6638964798530230
  0.2428115694171508  0.7502143187761452  0.8339079024066535
  0.3279062188083314  0.8342526113367307  0.0021161317893466
  0.4100299022707206  0.6676282060844377  0.9255481988684167
  0.3287831531377946  0.1666502921216401  0.9938124884567404
  0.4119636346726959  0.8344745522218154  0.9181430681777751
  0.3276879922124769  0.9126221353417329  0.0868698687857860
  0.4123753522006713  0.8345523968209200  0.0868886264993967
  0.4122656251114101  0.9147435554070882  0.0013906305617434
  0.4913774653252756  0.8338609746757563  0.1707391750846665
  0.3294189992547530  0.9152353717104924  0.2519367883517893
  0.4118161525497814  0.8318727196618156  0.2521765372593159
  0.4112031139156095  0.9150092930312260  0.1712891572671760
  0.4120763186668074  0.8334765294892568  0.4147021031646650
  0.4975302527271515  0.5002524351146964  0.8361746085216457
  0.5797127066331270  0.0011733035760888  0.5835996734730371
  0.4076177894634610  0.8351757253596652  0.5802451102983261
  0.4970268644175637  0.9975965429345547  0.1712233338904178
  0.4131862228441560  0.0813932107872442  0.8315799184931462
  0.4122696358655153  0.1641462793894615  0.9127855429840100
  0.4121847417947246  0.9162590248907095  0.8320985717754581
  0.3270691255571330  0.7505083697088061  0.5791347545766410
  0.4140148087820702  0.9984346734926195  0.7487637122322646
  0.3302241529282787  0.9990432902547621  0.8281304039625880
  0.5811519615188085  0.0805953020405432  0.0001782117250158
  0.4940959400561049  0.9984689549614744  0.8310067891988141
  0.5724860440688672  0.0825651684210751  0.8336377216224045
  0.4127292340716924  0.0815961389668125  0.6681806836351162
  0.4986723193801228  0.0819100493052185  0.2487552573149814
  0.4954978474180864  0.9973913619639705  0.0016344933423228
  0.3290065745251253  0.0824799405270527  0.4153448413662836
  0.3311630212257753  0.0809738797113755  0.7487992102643226
  0.2460091190558530  0.9994236073572633  0.7483305917264592
  0.4108687934459761  0.9181717389811124  0.4987354371673965
  0.7473881994186645  0.8342638082345272  0.5772666422528614
  0.5815665066353251  0.1650343617700868  0.9172332508174187
  0.3299755417900730  0.0006625240833824  0.4989393857984876
  0.4951245911340025  0.0003152544121400  0.6663353457939875
  0.4118009479195996  0.0821945761144445  0.3322153041381187
  0.4114049839277008  0.1634334260219552  0.4167546521427255
  0.5819371171192604  0.9999376170997369  0.2505364756016739
  0.6694964852672268  0.1714437699579864  0.3302013557042815
  0.5842227510538128  0.0810526589757748  0.1676153560454205
  0.2479804208208176  0.0815291668238004  0.6684211039890600
  0.4111078345680125  0.9168327340590117  0.3329000296033377
  0.4962440027303725  0.0013428464624033  0.3280886748911950
  0.2493899208568474  0.9190868182501823  0.4979062683652302
  0.4116184654006833  0.9996632824994085  0.5843331317906568
  0.2487299272509835  0.8341977231114663  0.4160316030151230
  0.2488333606882819  0.0818433593540088  0.4978907402238657
  0.3280398880332988  0.1638645831014212  0.3327371264938294
  0.1622677581054967  0.2485353772002960  0.2525217551430221
  0.3294333623372658  0.9996440786688701  0.3322187865277829
  0.4122928312259623  0.1629791632449501  0.5860035206655025
  0.2438456343336619  0.9165124798862583  0.8282453200834846
  0.4948921130548550  0.2477227141533432  0.7541019633035991
  0.4946186885785086  0.1639431947728143  0.6698709452793523
  0.6694785172113060  0.3359071785726759  0.0011553621748336
  0.5785426492068351  0.1655955610501293  0.7513358845555318
  0.4974257904923926  0.1644275170650720  0.3306959136514376
  0.2430033478206757  0.9139604729625568  0.0066563568230745
  0.5870542345248430  0.2500880451693353  0.1698622425985870
  0.9966315654895043  0.3346748636410586  0.0012076375675329
  0.2446507198054636  0.9913215194743094  0.0872678177964609
  0.9975549199964246  0.2510045798207162  0.0797004741684453
  0.5848092586127263  0.2478330610432603  0.3252445711436631
  0.0868836840054313  0.1686919543633578  0.9166044469708089
  0.4915117486569502  0.2455319197103152  0.5856890781663603
  0.0766173893017113  0.0824743945451703  0.8311773885656379
  0.6697864573045751  0.2490619775526362  0.5835907616582511
  0.4943201770563276  0.1626044180961966  0.5020988997312215
  0.9995850791676514  0.0828500147092016  0.7471215229895621
  0.2483887012740606  0.9169607105315580  0.3334691253446313
  0.5837522304386251  0.4188584637842156  0.3254769064994588
  0.5801627745992134  0.3378231904612918  0.5808710012819747
  0.4980225613595828  0.2482318243968277  0.9140657397308029
  0.3293024036600687  0.9190022264647327  0.5820138055672789
  0.5796764004146924  0.4991011878693231  0.7530971800261855
  0.6669880064446044  0.2495476416671142  0.9205570573584059
  0.2464885475797398  0.9188862759746735  0.6654177832304914
  0.4953502115774427  0.3344283578843896  0.9897032042879581
  0.5842708596358392  0.4202803417126710  0.9990294070920268
  0.5822160556054120  0.2477577551473844  0.9943387535131101