Cr H  Ni
 1.0000000000000000
    21.1200000000000010    0.0000000000000000    0.0000000000000000
     0.0000000000000000   21.1200000000000010    0.0000000000000000
     0.0000000000000000    0.0000000000000000   21.1200000000000010
 Cr  H   Ni 
 259  86 605
Direct
  0.4980120814728342  0.0812571796956499  0.7499674983261617
  0.8264849492528996  0.2503253799192157  0.7518355712462967
  0.1667297237171390  0.6664553688556892 -0.0002015518547992
  0.2424100104554578  0.4119239937458800  0.1653854169148878
  0.6640345639103317  0.0831867345833951  0.2482364967046898
  0.5808344672100385  0.5027077089286439  0.0849789208291596
  0.0808651334692531  0.5819174790744860  0.4974710127005511
  0.3315548144557203  0.5807161146626607  0.2502576881902404
  0.7461925830267231  0.1688301645154846  0.4163875066294173
  0.2498125144246796  0.6670653078236064  0.9148378040144861
  0.2456356006847026  0.7484192709670677  0.3339873205260530
  0.6669832894599687  0.0822998778630575  0.9174595653921150
  0.6654831163534739  0.2522384223402255  0.5845884922863370
  0.5817683161635699  0.8348599534709344  0.0875276671199054
  0.7485515765721712  0.2503363603892714  0.8350267644523970
  0.4965495079706955 -0.0017390347996662  0.1637184843983628
  0.4171691129202216  0.6652736068597871  0.4157466569245391
  0.5777222807895619  0.9184960509043214  0.8369590766417994
  0.4931282791494028  0.7489861097770248  0.5823189094578012
  0.3308875668999592  0.1684539248776942  0.1661988902955633
  0.5760621844596934  0.9146364677088978  0.6653621702135020
  0.1635852693973358  0.5860946239339604  0.7485115950742277
  0.7459840137452596  0.4176318224648030  0.1666594294197608
  0.7483067883868627  0.0040138930012967  0.7538776982012370
  0.6641828267487095  0.2492572885374584  0.0871498960201834
  0.1636123604416146  0.7518704465887581  0.5793123068442539
  0.4973096601453714  0.1682566771751125  0.3335471126072291
  0.5817718082701772  0.9179175532061202  0.3316372058116742
  0.6648015478462583  0.2512131498631239  0.4159359644914357
  0.4148024287745808  0.0011232239736184  0.5824544448820657
  0.7448146656692907  0.2501983032702997  0.3344603153202518
  0.3320491537607497  0.5794950166542803  0.4176311178534169
  0.4954855288253047  0.9188405663033117  0.9166071359540581
  0.7466501938276587  0.4165693773755607  0.3327219355743612
  0.7464025969918894  0.0840284572291341  0.3321749913729131
  0.6651064340832940  0.9174617771387332  0.2491613624141908
  0.8266259181985333  0.0863902278100039  0.4142463525326925
  0.1627976631458687  0.2508084673147361  0.7488368817266583
  0.6668080337225003  0.8372922120749605  0.0004189371487509
  0.2465563249728562  0.0801474799340554  0.8325930067250666
  0.6661319240632723  0.6621578383724787  0.0020257646074781
  0.1657037158125849  0.0834175066961932  0.5826201947861959
  0.6652096385093470  0.6665110317476781  0.1685446090377087
  0.9122126307672017  0.8345646100430917  0.2479874443205132
  0.0803254725237355 -0.0000884740416267  0.9180811094443160
  0.9125213981484862  0.0029421238672483  0.2507851799216746
  0.9127678580308018  0.4994573167565738  0.7489500828334587
  0.1624238136605800  0.3319199822179335  0.1675797245094244
  0.7473044580503145  0.0839661332115225  0.1664262888561504
  0.5799665722929926  0.0004156437887082  0.0843320379240787
  0.7493063702540003  0.2482074684136911 -0.0013463803690760
  0.4132048954102303  0.1669874965845051  0.4140344708695239
  0.2468467557028947  0.4995130338327682  0.9172070249362678
  0.7467307176146464  0.9189525908866012  0.3330037784466314
  0.6627923768595212 -0.0019417336417221  0.5007436603770257
  0.0793419446376337  0.6662126355126620  0.2497499360497512
  0.7470423527770479  0.9164110502527018  0.5005811294091034
  0.4970470249371819  0.0843656859369590  0.5853933580835685
  0.5801035064061091  0.4166337685669115  0.5007069536358333
  0.8317278203844252  0.8321160624906853  0.6626107789631325
  0.1664660876182736  0.7486366120723768  0.4150858378048972
  0.5813663742055047  0.1673712265069194  0.4137729426825338
  0.6648470467285301 -0.0002867374946220  0.3321079679078751
  0.1641085204051748  0.2501159585355762  0.5842904257568619
  0.2471164791722749  0.1697515868506440  0.0822370901333689
  0.4132232966464844  0.3342962856665304  0.7489819171219733
  0.1656891947406839  0.4129778629295095  0.7514868815565470
  0.6642970944947760  0.4965881855206380  0.3339206228443817
  0.3296758022639045  0.3336831985378871  0.5000575080766365
  0.2482733821284016  0.1657074108625662  0.4163555761423327
  0.6657634585523784  0.7490677721226244  0.2488818634787910
  0.5782050109674987  0.6645504449823160  0.4117843049811900
  0.4948957235855524  0.5828528737214801  0.0852199664231316
  0.6615710553740979  0.4987636636414026  0.4993973127840537
  0.6685023665208902  0.7475426482169383  0.5819018962409299
  0.2485762248942794  0.6651282964826799  0.5835172624373142
  0.8311119742287641  0.6661120280407692  0.0003682897364418
  0.6649679752628116  0.0009372791470612 -0.0007348182145384
  0.4126284975073680  0.1637580317020081  0.5854071329010936
  0.7476509908318795  0.7483392241158475  0.1670972045914663
  0.3304851937763842  0.0015684665296524  0.0025040945854831
  0.3334226638958806  0.5831335366368268  0.0841503034554097
  0.8320074106743693  0.7522231012684845  0.5812291580604962
  0.4970471859256103  0.2550457484144903  0.9166736842842014
  0.3285741791665120  0.6653952126751865  0.6646569895111180
  0.3300257187096653  0.7503592369762526  0.2483506444455669
  0.4136986839522337  0.6637800397538777  0.9154285849256262
  0.9156110864765352  0.8346136686997710  0.5828808519875209
  0.3322813733042302  0.0860110989903990  0.2472614506076861
  0.3291534785171263  0.9193158016755817  0.2513138174589216
  0.2467680760363615  0.5826186849643336  0.8317563552278133
  0.4967226511649190  0.9181747255336261  0.0856111307840483
  0.3314084621269497 -0.0004972641579605  0.6650738578334191
  0.3324516155769850  0.8335563628290561  0.6648664863220821
  0.8308672579916292  0.4991279854865231  0.0005190901551094
  0.5824372090028841  0.9167775932158375  0.4994937424792616
  0.4954100149427108  0.9156955146623784  0.7487941359909739
  0.3318579869896615  0.1671837175342424  0.6654718192590224
  0.5796106429374137  0.0824058220482053  0.8317338607675911
  0.6648974793104883  0.1673368849576575  0.1665216173527009
  0.4114087503041695  0.2512858308053649  0.6701073713895535
  0.3244089841255369  0.7489605501038132  0.9148595730678806
  0.4138418699376560  0.5804285955350292  0.1680442577704504
  0.3305275495049254  0.5813580579996223  0.5825127142272235
  0.4119659639203229  0.3342443143031135  0.4162843157082616
  0.3290249286617723  0.5003505275095143  0.6650797783633173
  0.3311096339955352  0.2513949861467907  0.4158657645378316
  0.4126890927493165  0.2510700940093689  0.1660829977163382
  0.4151361484856045  0.4994333908481109  0.7472940920025118
  0.6639697736231855  0.7525179788414380  0.7497200139701165
  0.3314190151957321  0.3335697880463164  0.8330367706537168
  0.4107924619657667  0.2528399951953822  0.8330081717651656
  0.3300754929349821  0.3324290509930288  0.6665462837643422
  0.6625414539413341  0.3308820282599819  0.6672896917447018
  0.4135010047994593  0.3360860219321014  0.5836407859884609
  0.6643134625770110  0.2505992750768134  0.9140456836838928
  0.5794102102920141  0.8282827893637565  0.7462879629448914
  0.3294054195045005  0.7483558622153692  0.0844864343674907
  0.7481773831859566  0.4179834754398075  0.8327796914446651
  0.4963183090884827  0.0808133287939472  0.9165391752170046
  0.4156231856746253  0.4985185899052437  0.9158109225106488
  0.3313842899751138  0.3352050038652742 -0.0011292683188313
  0.4127802654644490  0.6639497745891891  0.0838324259186608
  0.2476369645164289  0.5009165350631135  0.5847160210218708
  0.7492987855317900  0.5832088394334288  0.8332662935468083
  0.2493007663909862  0.3305601592288601  0.4181260954265009
  0.7524189641169693  0.9131222178611453  0.6632020462095354
  0.6646029695947412  0.8361693235739334  0.3312521263711515
  0.4978772846384147  0.1655340274851199  0.1662041652407272
  0.7482290196028412  0.9172372529976462  0.1680090103510254
  0.5810794325026157  0.5785733599617331  0.4996093747185507
  0.5819373048350397  0.2520887044080525  0.6687833552721394
  0.4965049124625169  0.6653887485495561  0.3341787242648967
  0.5811697871970658  0.2518292783857418  0.8359219691107063
  0.7481873387604828  0.6655125739486460  0.4144223489485190
  0.4957129777334729  0.0000174370748339  0.5019078889052584
  0.4950623175054283  0.7441051462201083  0.9132636320332180
  0.8343773796080868  0.9174838874558171  0.0838583902472363
  0.4963115390736443  0.4997381496831919  0.6677167283170459
  0.1632021388501128  0.4146248502126500  0.0827372811575077
  0.4945624551167089  0.2514845848826608  0.5864009090304356
  0.4950329052974690  0.7496951340196726  0.4160879719432543
  0.4974766275462749 -0.0003513521621211  0.3318831577122499
  0.4990355273039468  0.4142996282386583  0.2497757697255112
  0.6620072871232320  0.3355171222452598 -0.0005385993043683
  0.4972703867349664  0.6660375563151965  0.6650479063924774
  0.5819985164272835  0.3333146675984752  0.4158398485648905
  0.2472890017359612  0.9219183115530405  0.3329220649468653
  0.7476852686574248  0.4983462045699306  0.5869061711751951
  0.1623465642489349  0.4920902335429075  0.1639516966715514
  0.7479477724612775  0.4966348871911704  0.4126482522398267
  0.6635795998547313  0.4995319744973615  0.0002696028622335
  0.1641337572309595  0.8324297133675875  0.1689159130703613
  0.1671697105381283  0.9200089800835297  0.4141305355860250
  0.5806191421969000  0.5829201078409706  0.8324923131102450
  0.1628177794634342  0.8324872588089062  0.0002756875549358
  0.2450262413813932  0.8342028806608468  0.5796392837788724
  0.4103623943183445  0.8351478124336534  0.9153557999754428
  0.4972260646056840  0.8330090061198705  0.3324963749326756
  0.5806048597882538  0.0840636676023551  0.6678346406417126
  0.4973212300375446  0.4987745976236214  0.3325779355902702
  0.5817803154695917  0.5827662999690454  0.3327410984428750
  0.2475120117787402  0.9172088916616457  0.8327944265264113
  0.0001065208734958  0.0020972119788457  0.6667776219589066
  0.0812869385996658  0.3282116635521691  0.4172788414151363
 -0.0046795901138053  0.5791912154830865  0.7498585217392139
  0.0811465822355090  0.2498227597914535  0.6664543508692001
  0.5802424745882762  0.4188578430185596  0.8340186955709440
  0.2469702680184028  0.4165790790641691  0.8334239821518025
  0.1638140396094652  0.9173856831574574  0.7518347915446142
 -0.0047181141182486  0.4175291580766354  0.7501221287944985
  0.4140018067125087  0.0007712654978267  0.0851794900272740
  0.1627444322698803  0.6687581565827948  0.1731792940686763
  0.8301731655404797  0.9159614169937025  0.5816392332602636
  0.9140824237495273  0.4140434910440043  0.3332448623938294
 -0.0040183733762761  0.4961283980203088  0.1675066667980328
  0.8285833681716308  0.0849395860954744  0.5830671892884612
  0.2467782718748049  0.4143707374315885  0.3344656035524599
  0.0795122920885651  0.4960779854174726  0.9183341384235074
 -0.0020796404093200  0.9177092362719786  0.0845404191607436
 -0.0026830333821831  0.6667579241597740  0.8318087412529890
 -0.0056360713577640  0.5846351579135106  0.5798262579699122
  0.0791528106956718  0.5797320146065815  0.0035970594319551
 -0.0029256537588017  0.6675971942876854  0.3328803355431694
  0.0802775673234834  0.3328452261001710  0.9163456972533131
  0.4133560144804679  0.4151356966092639  0.5005723107939065
  0.0790081885976294  0.5019792053803965  0.4189204593993431
  0.6644287010279337  0.4987092614337535  0.6658257499644273
  0.0827513661327341  0.4961344827296596  0.5821485358386098
  0.5812539445745086  0.6642191574590154  0.0874043845225611
  0.0786222442986686  0.6637795676729698  0.4146454458376163
  0.2483441533794962  0.7499499729451070  0.8320273303490220
 -0.0039810034430869  0.7508129511001466  0.5801992484577002
  0.4147230597980684  0.3353030342555001  0.2487089920761645
  0.3288247810173411  0.1688925668258319  0.0024366531116464
  0.4964070976971101  0.4184720031662120  0.9157784420495807
 -0.0036807495038453  0.8380663772167648  0.6667221731429004
  0.0013136176116923  0.2495039208120136  0.7488966273462649
 -0.0006900468666707  0.0048978090805228  0.5011380690189907
 -0.0026468986487568  0.6636486262063048  0.1688424018405436
  0.0831633769872636  0.7532455874005193  0.0013376365770330
  0.1626744484756374  0.0826263192541420  0.7520775405953892
  0.4179784013864475  0.4147704827896556  0.1670339983780088
  0.1652336083264989  0.9166167491042800  0.5821957401884889
 -0.0036035506381921  0.1679505516222503  0.0018113800212339
  0.8306037216830395  0.2506335486028668  0.9152070287139380
  0.8312027490302778  0.7486442725447287  0.9173386159778975
  0.0809987581842389  0.3305206017112116  0.2502455300612892
  0.9125375636837049  0.3320414195404927  0.0842717541822119
  0.8324565222252106  0.0834108136309824  0.9168912126305362
  0.1653140518785249  0.1660733869669249  0.3353805430469820
 -0.0028644365070036  0.2486910389390984  0.5821049252965166
  0.7452305281205907  0.2491738682080810  0.1640726156592613
  0.0808538929913738  0.2507385067775230  0.1663221350627884
  0.1655778483199806  0.0888812904952624  0.4155231530094584
  0.1630680384257714  0.9173412511750827  0.2512251072110884
 -0.0035610130032828  0.1668325891727231  0.5022270211295080
  0.0805985187560662  0.0831741670204554  0.8332346234533370
  0.0816143521645269  0.8360883578895123  0.5816030850381996
 -0.0031785410868651  0.0839716357477216  0.5832475105649356
  0.0832976200697510  0.1673896877011669  0.9163717834265221
 -0.0045556288563505  0.4150707527974959  0.0837670804774918
  0.9149494578363975  0.2502087522793124  0.1674471502216202
  0.0763504004700951  0.0875026111327687  0.1660773395464556
  0.6610865050966271  0.0843800347069819  0.5882736443626050
 -0.0040488962330822  0.1678674550686726  0.1665156952720226
  0.0832970988707431  0.9172629177986241  0.3307336028772414
  0.8267523076085825  0.8383390389107247  0.3333424472824993
  0.3312239737848482  0.9195923631921217  0.4155994921568121
 -0.0049894673336239  0.1688687324955663  0.3339733853646323
  0.8303968521027036  0.6628808711893015  0.3346483754790479
  0.9182592339545715  0.8347102800244068  0.7499871142602081
  0.0758947313836447  0.7555413439786164  0.6634463050109523
 -0.0031281271196439  0.8337835336800055  0.5017286349312042
  0.8329759757495017  0.6671708974201879  0.6674909744773038
  0.8309889440721177  0.8341925743156465  0.5009418707774297
  0.8308027548482850  0.6662990734735520  0.8332624531441198
  0.0788197504294627 -0.0000402731817842  0.0820293220288213
  0.8300703651258913  0.4985030385486478  0.6650044170091582
  0.9140621329439854  0.2501383309928065  0.3338981710994754
  0.1619528383433210 -0.0005939827499197  0.0012031634774258
 -0.0035838239095975  0.4126099341491387  0.5815330013589749
  0.9144841262843729  0.2485258663866342  0.5024263793801579
  0.7450684043331044  0.6660576591908358  0.5802945400479501
  0.8314376014397202  0.4173599049606466  0.0845570998417464
  0.9134546461980046  0.9176406237162598  0.0000555812852813
  0.8305533248485255  0.3311023956283407  0.6682693260828055
  0.8330335443290862  0.9157371516677730  0.9183216546005827
 -0.0031107911479560  0.9173673370568455  0.7511289189975984
  0.7460265178533186  0.3313735017947858  0.4170095808864985
 -0.0054495308806971  0.6650026981733632  0.0049432438461883
  0.8334727225391593  0.4969570803084868  0.4994458761620357
  0.9120845162717306  0.3286595785703696  0.9165358666932998
  0.9124678232684490  0.5032656822939170  0.9173641279031182
  0.3292494320499745 -0.0010078341188644  0.8326480652013688
  0.9132569339595575  0.3323226174958169  0.2491646457801913
  0.8313902258244220  0.0842985232977500  0.0851494713075793
  0.0765660549716408  0.9200283694636405  0.1668556088986955
  0.1623649621761257  0.1681271077425833 -0.0011304410381070
  0.6630098464315276  0.6614603551967692  0.7505257988158832
  0.0819675742863324  0.5834749509195917  0.5838535551933034
  0.6630494276161522  0.0865163633324504  0.4988778245679128
  0.0772514268969309  0.7526850842313139  0.4153343285359298
  0.2496026055274767  0.5004998817148826  0.1657475548038764
  0.5867121237191205  0.7475049761272764  0.9153316577717570
  0.9119145099391797  0.5813459703635606  0.2501058268939594
  0.8309093375338795  0.7506176095652546  0.3325484186300925
  0.4976849576171720  0.7511202480917832  0.1684599592143086
  0.3306747323162916  0.4159074830350012  0.1651243899856003
  0.9960778201516588  0.6689569638399994  0.7447785571928980
 -0.0062608903093663  0.7542875222646865  0.0010907033096068
  0.2477434418984940  0.1707383345416500  0.8338329297109521
  0.5816031899855104  0.0848313877588721  0.9192795116850145
  0.3284411534950770  0.9123991958536706  0.0018880165684160
  0.0796042964721495  0.5840923936750815  0.9157818204505161
  0.2510904882273705  0.0850535737772138  0.7448236420998757
  0.5779360626744645  0.6635634228052416 -0.0021061523265875
  0.0778716283041416  0.9197517785161438  0.4187150851988211
  0.3333650836809732  0.7498779378975485  0.3366848589286995
  0.1651508607138324  0.9196209284079421  0.1641231119313400
  0.1649405949115642  0.7502470421393205  0.6685756497614148
  0.9948842655727277  0.7540453123494413  0.1681010469025979
  0.0811363833341846  0.6636210303864339  0.6658252622865691
  0.4106384652217939  0.7496835675592226  0.9157616644731290
  0.0800491019880558  0.4150568823809849  0.4172742077547038
  0.6640181130959750  0.9156336090390593  0.6664071377110022
  0.3305689168468020  0.7502068671168317  0.4995405084105143
  0.9959155972962460  0.5766424240575370  0.3339584038740472
  0.6659679162465001  0.7498253306016340  0.0011388673389015
  0.9089406873603525  0.0022193239884981  0.4981966123604507
  0.2447684412873130  0.8341314651189461  0.6681853072258442
  0.9156055683951726  0.8344884384914669  0.3366564986745472
  0.5003385739626895  0.2533264140121754  0.1654045721915582
 -0.0051718122325670  0.1676590368361360  0.9132883444329822
  0.2483033898315364  0.8352934327798723  0.3335789083296508
  0.9128897164782073  0.4160741394871935  0.9161534562158226
  0.7447232880853384  0.6656817524255546  0.6682324663192880
  0.7476070278238415  0.4981272349861077  0.4997277222457426
  0.7495302044408897  0.3360740541647330 -0.0001019002952910
  0.4965969141469666  0.8315923074193547  0.9171578390011454
  0.2459315097392553  0.0849707907882553  0.9223086862576833
  0.5807899329305355  0.4128657767683761  0.0832216383244974
  0.5801686562295589  0.2516304540898941  0.5819898682060387
 -0.0069586651583331  0.9195077037781040  0.3345042406341586
 -0.0862440644747965  0.2482540861547602  0.7496007792056701
  0.8321318252199130  0.6643691233094301  0.5796740060504545
  0.3364378216974005  0.5827386963472889  0.8319550906915761
  0.4935975428587123  0.9124272183532041  0.4989345291778073
  0.1620523739951666  0.4994742838218034  0.7494887472895750
  0.4973583760290048  0.2508438984329262  0.4967206660047917
  0.4958509589258222  0.0869178155730804  0.4970030500364844
  0.4120021472298806  0.8331330761819887  0.0064346958021190
  0.4078685410842852  0.0846838061392992  0.9165556618371082
  0.0807887257602419  0.6662458860577662  0.0011179917147356
  0.9950492560912070  0.6672567601853542  0.9188942913635100
  0.4949720108636225  0.1678774205865801  0.9181074155595104
  0.1623420820140602  0.6686813445532446  0.9129453619930722
  0.7452383913974956  0.9176316738875635  0.0795937766735312
  0.7493837252300811  0.9145047976830905  0.7528405497094320
  0.4125076961171008  0.8328421355618519  0.8263416229235077
  0.6684100856807088  0.9156564117743121  0.8353364798753198
  0.4958810152094040  0.7479286379245674  0.0043841348413720
  0.1595338408764591  0.5828015997459208  0.8358097321090536
  0.8301605484324838  0.8327488698286488  0.7523193091640955
  0.5820566459217649  0.9151945260468675  0.7509631350365862
  0.1644580287076096  0.5808632525521927  0.1666804705760946
  0.5838575751010439  0.7529518269822582  0.4155861333958020
  0.5809529694199872  0.6668343985737059  0.5006719051271658
  0.1639997687091268  0.0071470443898251  0.2493942937851913
  0.5820765859345157  0.8299265780883378  0.8339552980117756
  0.4969244273091222  0.1709118530950326  0.7512963258982990
  0.1640583968058238  0.5804421766472473  0.3336590342384039
  0.1642511503943911  0.6653208012692473  0.0862916415135851
  0.2475901428536313  0.6590499809936888  0.3338634051169413
  0.1631075117041008  0.4970687289744485  0.2546310923207624
  0.0779771857670359  0.0068025328126679  0.3336494514164536
  0.4104018146644852  0.2497631118034867  0.5829718091100290
  0.5785830728132780  0.8343581729633066 -0.0002062036167060
  0.1669704904918124  0.0870470190537451  0.1652772545575886
  0.4142494410694940  0.6688632258955650  0.1715510008014808
  0.5804858292651565  0.7486699681280656  0.5823655159110586
  0.9962370264285184  0.4989348657113595  0.5830094185592554
  0.9109531637521170  0.0024102087916093  0.6685781627846925
  0.7461233115269692  0.0030784214318150  0.6648353809984840
  0.6630094609907317  0.2491684518857498  0.0005724991885086
 -0.0028127396241320  0.2501054469528123  0.2507064322167399
  0.0816204542915005  0.0001833291290667  0.7505550833254089
  0.1639279883676104  0.0001793377497160  0.6664269166707594
  0.3311526381623550  0.3320278946498519  0.1664423233683382
  0.3314070405027434  0.0829140364738567  0.5835049967598357
  0.8299645230360391  0.2501193466251247  0.0840707100902622
  0.9129278244412929  0.1679923918192364  0.0835161129840034
  0.9124769750004762  0.1675480355764832  0.4177477009442326
  0.2476615247567853  0.0034623773247222  0.4159675624096400
  0.8300532817400949  0.2504284704970833  0.5844575957426708
  0.8321180392174968  0.3335555822955462  0.0002862284235312
  0.1636571028880747 -0.0004099150312609  0.8340126012511611
  0.8293550679544479  0.1680384704635180  0.1668735780160013
  0.9127493087364985  0.1682802836434804  0.2503290592406204
  0.8297050377479455  0.1688546267268501  0.3325454163981568
 -0.0031232784962744  0.4944133243630772  0.3340944923890709
  0.2461729037228239 -0.0014867424111551  0.9177981112777339
  0.9143553044546795  0.0836753640224838  0.8336495306438860
  0.2466851140690891  0.1688466318186127  0.9191132288273717
  0.0794965457486205  0.3331792235421863  0.0832944794850031
  0.8303976360307967  0.4132719699328267  0.4159424008729888
  0.0788108059682077  0.4156658094828228 -0.0005084777323205
  0.8305162050395848  0.1662773565971998  0.8338292295763142
  0.6624647147268333  0.9172708825901378  0.0844851288784110
  0.9150185640329316  0.2495398661437837  0.6657024625218473
  0.7497701437702327  0.9177856021375354 -0.0014695981467557
  0.0822337874159359  0.0830984206930734  0.6661256002908912
  0.4975174706886416  0.3347912340160392 -0.0008719977646651
  0.1620142927999540  0.0827181741928211  0.9172926129868426
  0.9137617259475860  0.2500435021626595  0.8335632297358968
  0.6664974047120663  0.7499255074693266  0.4145007910028509
  0.2469720803445478  0.2507853418570486  0.1663745251064213
 -0.0017783906692411  0.1668455518052237  0.8310463899474122
  0.8314874285055044  0.0010998936996824  0.1663611908138083
  0.9142817005622119  0.1658534636210847  0.7493767828188483
  0.8295089250541118  0.2499308830732711  0.4159375984987124
  0.9126350089662172  0.0858432529147218  0.3341060323376583
  0.2469842712760675  0.2515438950313265 -0.0004590818900321
  0.9125916561274457  0.0017861122504451  0.5827032440015621
  0.9124656214284880  0.1663005202977398  0.5853422736659272
  0.2471259502306504 -0.0015723839842415  0.7488291643437103
  0.3314461707625342  0.1678903420151321  0.3324018450410997
  0.0808157624819494  0.2487034008352261  0.3345787952390697
  0.1632760355449951  0.1704219287809378  0.1653921744015360
  0.8264474996792680  0.0023400275001714  0.5001398216993398
  0.9121253112510500  0.0864104698244810  0.5008613627818913
  0.9148954848818407  0.0005601795275458  0.7518281416022463
  0.2472281808242936  0.0000870392384811  0.5831033261840394
  0.9137893418772260  0.0840562220094349  0.0002446851532484
  0.5806026687593310  0.7498101242177113  0.4992974833022686
  0.1637749844405843  0.4161414048392800  0.9170464513393771
  0.5807896607840877  0.7461200935292120  0.8312219243278405
  0.2467143383377720  0.3322849208711203  0.0819727910112400
  0.8291853234393324  0.1677246306275223  0.5006852624049571
  0.9133564959774312  0.4136756061506373  0.5006045809841089
  0.9138977802924785  0.3316703296672304  0.5841896731928186
  0.2489134597579776  0.0026270611185480  0.2495305718218382
  0.1631800659255117  0.0898060860105171  0.2503758336568324
  0.8300679840382584  0.4163939701281336  0.7493712076169489
  0.9143839804182081  0.3337640568277895  0.7491152773561447
  0.5812374381310268  0.4167761443515455  0.6671326299014011
  0.8304207223768960  0.3338553427879993  0.8324141565648342
  0.8296064868328108  0.4175262396835117  0.9167082837411548
  0.2462307769849711  0.0840468796123770  0.0032612409944569
  0.9138495601899136  0.4160937189278717  0.8320055138835087
  0.2469877433913072  0.0007632502930155  0.0831762875408048
  0.1623603977811902  0.0853355633864298  0.0812697912665655
  0.9133521685348296  0.4987003655206023  0.0840019977951313
 -0.0029741577951327  0.8352445839782201  0.8339255100298485
  0.9136372454825130  0.0851040115595170  0.1663554309139948
  0.1652650951186959  0.2486011153158184  0.4169957184599404
  0.2482405874595802  0.1677715486351744  0.2489512066016134
  0.9135453497778884  0.3309761253385028  0.4165900991581600
  0.1657300461856247  0.0020903643788746  0.4993665507135467
  0.0820936622697446  0.0016544779680551  0.5829929423894838
  0.1627923988925723  0.4128818474800256  0.2513130074777705
  0.6640025522532058  0.5813525473508637  0.4156408851896859
  0.1641115571532612  0.2491730386550396  0.2511689205025727
  0.5809912488853648  0.4997601093966113  0.7495333179345969
  0.7481476696574449  0.5814240527594725  0.6662409249538556
  0.1651131448046057  0.4141705117825119  0.4173793145563421
  0.8313873318016437  0.1666813761379430 -0.0004684725058125
  0.6678495400995271  0.7481455280639858  0.9169873671367312
  0.6653576434194080  0.5816385860853297  0.9166382457159894
  0.7498720109776829  0.7486203675852956  0.0012675687284355
  0.0802570141466673  0.4133007247291858  0.3336313458518164
  0.6651175260436752  0.7490391991449581  0.0859458515369992
  0.7483993220974915  0.8325350986528168  0.0835722949006734
  0.7471149028011546  0.5828647339570786  0.1669765630985108
  0.1621382716583273  0.5815135149940014  0.2494715473710009
  0.2465113385921223  0.3326730103989358  0.2505988860185353
  0.0802420270851611  0.0841801282123511 -0.0002386444911345
  0.7482461951261085  0.6650457407151814  0.2514043284882580
  0.0800389928680271  0.2510328602270971 -0.0002741277991096
  0.8301123914186943  0.4146418028848802  0.5836875512277391
  0.4970214384220323  0.1682033197048166  0.4989662547332238
  0.6644684507857200  0.5797223607808147  0.7497898682236428
  0.3318749379154406  0.0855769043531984  0.4155940687936283
  0.6651911887976811  0.4174406908848537  0.0834405342211818
  0.3314823797139651  0.0021233944720462  0.3326238713953880
  0.7469655579198634  0.5001365407513692  0.0837916330454039
  0.4969376470920769  0.1677516942549835  0.6674623294681292
  0.7470114909798008  0.4987877775929213  0.2503771707894970
  0.4143927121465875  0.0851344034051091  0.1663077814680982
  0.1641329528887051  0.3320121233701919  0.5001462932779899
 -0.0022683270461608  0.3332007049303405  0.6668031540839567
  0.7471944015393968  0.5823036017175198  0.4988884280658693
  0.9135614612788994  0.2502495365173741  0.0002615819431954
  0.1642959179392817  0.3311676801922354  0.3345872058774876
  0.1649719406402063  0.4161789135007654  0.5825547510477134
 -0.0015457602532469  0.0824888551730423  0.7501170399716752
  0.8299331679521391  0.4970073048082825  0.1669886637431036
 -0.0040430592258192  0.3328155896790441 -0.0003794331618066
  0.4970338648862639  0.6643926134570917  0.8313449586935234
  0.8317255596283543  0.0011123692221279  0.0005177371772238
  0.6642044579899737  0.4184098034230111  0.9158479315003831
  0.7464838531641383  0.8350293118774906  0.4166575653752994
  0.7491110282221806  0.0012015676588480  0.2480400858367761
  0.3282513676616677  0.2505162904921291  0.5826038288406586
  0.0813779167403741  0.1659551669346975  0.7489659798067961
  0.6641082913502386  0.9159346812767073  0.5818462164939951
  0.4138745830882261  0.0827437481492635  0.6671639183696527
  0.7470107080316177  0.8308652905498278  0.5816400873493841
  0.7467686988474733  0.0859706587675984  0.6667484544337265
  0.1645748197511093  0.1667028457479010  0.5009344068709792
  0.5797902741102509  0.0006876227506264  0.7503363697264386
  0.4958731252704113  0.8308799583433139  0.6647482679851884
  0.3305195137262512  0.9171662122540709  0.7484896648287326
  0.7494083700574763  0.8330232376936602  0.9179638422355308
  0.5798955462085005  0.6654129074141472  0.7487942815481584
  0.5797791533216204 -0.0005022900074190  0.9177170321237409
  0.7464590857850800  0.1669433143636795  0.7513345814994943
  0.6659409844464118  0.8328702220465142  0.1675508782337753
  0.2500434326669655  0.0854130345899206  0.3318512916474081
  0.7487293411887764  0.8336761576471998  0.2486107413985293
  0.9137505608932379  0.4159819003913723  0.0010314199962902
  0.6627214183296164  0.6665257138202717  0.6650101235158683
  0.8292337581254710  0.3329744768592264  0.1670024360473475
  0.8302253043235143  0.5834671123203488  0.9174426908870734
  0.0799291161631754  0.1676736332359408  0.4182131531954922
  0.6654345851270117  0.6645841643648521  0.8337247149087440
  0.8293889997352438  0.4146893472350237  0.2500999891488137