Cr H  Ni
 1.0000000000000000
    21.1200000000000010    0.0000000000000000    0.0000000000000000
     0.0000000000000000   21.1200000000000010    0.0000000000000000
     0.0000000000000000    0.0000000000000000   21.1200000000000010
 Cr  H   Ni 
 259  86 605
Direct
  0.5809319696392935  0.1666662878911206  0.7512611716582894
  0.6664345562683012  0.2502108969666258  0.4154092583277578
  0.7466296410945953  0.1679671524817863  0.4156501727454683
  0.2492991729469534  0.4982042057079180  0.4172826732925660
  0.2511674846130908  0.5814691626898123  0.3344752158308128
  0.7456185081869476  0.2498373322064272  0.3335013523887927
  0.6643772402776211  0.2486223842861980  0.5842872230710867
  0.6639538423702679  0.1677072596648210  0.6669047819179679
  0.7480609920521866  0.2504408435985609  0.8341574665417889
  0.2478956455085334  0.4143346053184415  0.1663263365748578
  0.2479205829507239  0.5832037991108734 -0.0016546358584244
  0.7447565369546006  0.5004071725306020  0.0848155512605144
  0.6676026733595907  0.2493178317180515  0.2495278613744033
  0.2498305707299668  0.5838936839661329  0.1667497625917564
  0.1695063506200662  0.5851693036476845  0.5791625603191701
  0.1668432140349152  0.6668724020859369  0.8361271890355111
  0.6649998689246784  0.0842801181052507  0.9181800797847237
  0.7471507887172777 -0.0032057262851157  0.7514109423765098
  0.5800788845539375  0.8376566427687447  0.0839592406800332
  0.1677484540661117  0.7518406257265025  0.5838437949789617
  0.5805025696518613  0.9169251674370947  0.1671954378996893
  0.5816815306537594  0.9178375644445582  0.3325357338414777
  0.3324359643581158  0.7513531070041481  0.4165677846623049
  0.4994807359897630 -0.0017923005853424  0.6662306661841463
  0.5780564181162706  0.7500451248903791  0.6666915258780727
  0.5802533986627801  0.9177421161119702  0.8387380397713607
  0.5766763228538927  0.9175233503839535  0.6630694993332795
  0.4146524416749860  0.2493993727727086  0.1652274879230196
  0.7433169446878271  0.4181238954052692  0.1653396263857241
  0.1678510294365311  0.5827182815458926  0.7574626839555622
  0.5814401557879415  0.2493655472365947  0.3361421369647828
  0.6677669359900152  0.2505996438901322  0.9164066628175822
  0.4968818333003436  0.9187073920906508  0.9174111997944013
  0.2505842969923591  0.7536385585094181  0.4984329051162577
  0.7478517274241857  0.1669694790128231  0.0837771812620985
  0.7466993394178606  0.4176876095439386  0.3329339768736926
  0.2489190956183129  0.5026130114307076  0.9177146395512252
  0.6636619451584358  0.9170732718217638  0.2490397783573252
  0.1666056014182417  0.7530159448621424  0.2546354509559476
  0.1596216174448768  0.2483149011021170  0.7517659770627184
  0.5804452741593966  0.4160485798463421  0.5018900011868025
  0.0794999214146142  0.1659690375787576  0.7504441745381495
  0.5835053711440235  0.1679457336420378  0.4155469173952019
  0.2471740718347948  0.0802888290696415  0.6637411576440451
  0.7461563847495718  0.9176985309106966  0.1658352326208696
  0.9135256253511213 -0.0005476576541580  0.0838694544761192
  0.7416454237261524  0.9181809036788653  0.3324895034929423
  0.8250665261267844  0.9174715688023340  0.2467273886361977
  0.6646561926474973  0.8313980163463520  0.4964122460165005
  0.1666401619264991  0.2498546396430198  0.2498119970613590
  0.7472387925659388  0.8343463028084691  0.7513949510856368
  0.5812525846811368  0.0838951728600184  0.0003047566950238
  0.8301695701732604  0.0047689944115677  0.3318446904290396
  0.9145898940539429  0.0840366219939434  0.1658707979115739
  0.4144201474743270  0.1652560754767347  0.4153087222495569
  0.2478695242985929  0.2497567278870196  0.1684809064488855
  0.8298804367082119  0.0839535204914227  0.4156226554372348
  0.6644754299003389  0.0021346346131865  0.3317606840516887
  0.2536705333562667  0.1653469316672368  0.9140772023712443
  0.6641506312661959  0.8352049046230408  0.0001335119798496
  0.6631305366603054  0.0849980771298318  0.5845978164406666
  0.8286707606748186  0.6677040946185779  0.8327194278543038
  0.6625854071123742  0.7495737462710349  0.9152175153228872
  0.7477993830602141  0.0844220540069259  0.1648869809106521
  0.7474952776148140  0.8321378868231648  0.0825764562790725
  0.6640276185746011  0.4989180594821757  0.3348243644784207
  0.3313951188633085  0.0798460098702894  0.7469151945180325
  0.4159004982834476  0.7509707650555114 -0.0002096260417835
  0.4971530378683519  0.7495585400080297  0.2506362738474065
  0.4137682337319117  0.3342972646687008  0.4167905864493525
  0.4145112211550827  0.5013052261333001  0.9209509466025282
  0.4137165108448912  0.3325048306513725  0.0853157220273231
  0.3350912889446185  0.4999019757811209  0.6653951430840457
  0.3343153933440102  0.4147383072299011  0.5826829890032719
  0.3336514372309196  0.3322484473247894  0.8327397473530578
  0.4136765704557006  0.5008339081226375  0.7460069729585249
  0.6629860899740334  0.9200502063847854  0.5807393376791462
  0.5822141768849404  0.1653515689714688  0.0823594345645800
  0.4153966021759437  0.2511838662221956  0.8340254538564087
  0.4982065776226496 -0.0015794936138455  0.8366127202091107
  0.4151326790727976  0.4948557263669683  0.2484913448679169
  0.7463783608698615  0.3346340954264664  0.7500071699794856
  0.7475597306448368  0.7498951579741097  0.6659038669025072
  0.3316475018344212  0.2502686956810748  0.0850230865849540
  0.3322476995881896  0.9165011298621860  0.7496358081304771
  0.3316105793618018  0.7514423206888857  0.2534171614902116
  0.3321040931522385  0.6677846732100285  0.8345997094313966
  0.3330101901731242  0.9193405729535309  0.2490559448733168
  0.4141491846056867  0.1654160864081874  0.2486132022039826
  0.3320174834987695  0.8342522276060468  0.6671427897941815
  0.2496647236719944  0.5838514207639962  0.8321373802047368
  0.4984335522299189  0.9180758244863132  0.0838782521837437
  0.9086518343840291  0.0012342089398174  0.4138130166683017
  0.3327450905471072  0.6669810959962641  0.6653394831871695
  0.7487597066425553  0.4993908738089773  0.9153948612201447
  0.4148487822437655 -0.0045179073959133  0.7500510968811233
  0.4140635716116268  0.0004609848419474  0.9175318380040766
  0.5809553974777724  0.0834478728306183  0.8353143163110160
  0.4159023921960311  0.2489105746976717  0.6673841942882650
  0.7469413151522371  0.3326558300515083  0.9148287712796178
  0.2423247161518834  0.2519300174923447  0.3317516384793264
  0.3323310130004606  0.5858610397543316  0.5844495242345179
  0.7475277382692177  0.4177351299012678  0.8330511953595324
  0.6642888110552683  0.6667402210744316  0.3371458813426068
  0.2467540427307287  0.2503514790593926  0.4999556525230612
  0.2509079152934481  0.4155853646652265  0.0010028795631162
  0.7468926575308780  0.7489845248794597  0.4988856888216604
  0.5784975686093379  0.7511510816569049  0.8355480295584564
  0.7504102122731489  0.5833967916972700  0.8313759636162880
  0.5803844277732247  0.0000851214957226  0.0845614283824596
  0.3298825255816025  0.3341047729553598  0.6650724204493508
  0.6637694721404984  0.7493110109140703  0.4174720180242856
  0.3335091343884800  0.0832326748774590  0.9193341639123404
  0.1658072552469957  0.4163627621122948  0.7512491975936521
  0.7469135114149822  0.7486182705273979  0.3346984580715934
  0.4155824398067844  0.5854458364757399  0.0008444872299634
  0.2479064912152901  0.4171832553277827  0.4995212937135301
  0.4155990517467152  0.6658780762033781  0.0816748993123783
  0.2506143498882197  0.6683160589026470  0.5854264644395565
  0.6637512060255758  0.7527812028020038  0.2509269793781798
  0.3299932200777108  0.4164303432102924  0.4167302381745991
  0.4198178388773623  0.1718418649750014  0.5852057368438528
  0.6633127851485320  0.4998623487653739  0.4992549601069253
  0.4151731342598113  0.3317517257379186  0.5810661359082184
  0.3331868103965525  0.4989084676369898  0.1657299692432406
  0.7492113101517613  0.6659300808428446  0.0865560116918937
  0.4149231600195086  0.3340042977614238  0.7536876782497735
  0.4944603079420989 -0.0002664473644166  0.4985350504614923
  0.4147481487701928  0.0847345813962016  0.1676438329776376
  0.1657769183870650  0.2490620167810822  0.5809939933697680
  0.5799079882345343  0.5818118903026358  0.4986528544141962
  0.1659981249461119  0.8352961119727247  0.3330168514993522
  0.4968193068589910  0.5820842409716526  0.2480614682720105
  0.2496919591625029  0.7517601532388276  0.3342428799863811
  0.4147966971800935  0.6699698778016711  0.2502256820356237
  0.1666630057721709  0.8370282910504110  0.1663881379524207
  0.6642602138584431  0.5824093306068141  0.4182290510368842
  0.2482529502432315  0.8349705116764756  0.0826533730142336
  0.4982410369489741  0.7509566537303785  0.9153031139835448
  0.5799111009970640  0.8337051705900279  0.2502111980417221
  0.4994094695629743  0.5825274469613624  0.5822274334624398
  0.5837996281519360  0.5829992435178456  0.3378851948682840
  0.4998176453457208  0.2514680862805871  0.5820606043150952
  0.6639779647128214  0.6668378915047674  0.4983379354592658
  0.4989072710334249  0.0002167526669083  0.3321391675184239
  0.1644174570940137  0.9186343978419277  0.4155726874103721
  0.4981569207295190  0.3335181402455374  0.0019547226157112
  0.2472843393227691  0.8331890651615692  0.5821397369431298
  0.5835619707170824  0.3327722334104182  0.4150173823815786
  0.5806163264883466  0.1667837844784674  0.5849575476740180
  0.5002747455616684  0.1672614332767418  0.6680991161365191
  0.6624744109571442  0.4976267557907514  0.8316270427796150
  0.5002987465630838  0.1665834998483939  0.8332341672967079
  0.5808474579089945  0.2498304137911766  0.8313300340912619
  0.5767648326460754  0.5001388480700615  0.9158073877972194
  0.4948677283361806  0.4137964920385076  0.0827015872084476
  0.3310428242755590 -0.0003198797057491  0.4998683782590056
  0.5770169031385028  0.5811289127984646  0.8334722573348464
  0.4986020487770719  0.4156508614219763  0.2498397616695119
  0.9115430233628495  0.8333745526094384  0.0841525053683866
  0.4931156764275731  0.7497119173331455  0.0810948415060210
  0.4988303070660516  0.6687946752991647  0.6666085644515466
  0.2489587523347082  0.8328643302995108  0.9170208512583339
  0.4963229107760644  0.5832175147609630  0.0819041625818390
  0.1667187203517803  0.7543983171959947  0.7527169236645854
  0.3326537041076949  0.0001843711510267  0.0006461201031626
  0.4147163882530520  0.3345779748518699  0.2484723729999367
  0.7465744755361258  0.0016751451971452  0.5831774016979767
  0.8343966977837837  0.0849053865719687  0.7504880015587191
 -0.0019813403698313  0.4150527321327132  0.2498997601466126
  0.0814035385376135  0.3315114024568859  0.4124515839279005
  0.1647622229489463  0.3346581975545083  0.3337010972275209
  0.1656388599337618  0.4163052455831088  0.5805826081903864
 -0.0035221154129942  0.4176672757359300  0.7484068973693596
  0.0803499068371615  0.2532152137316018  0.8342401045866313
  0.5809775244019167  0.4194862313642397  0.8341448439514824
 -0.0026919350060955  0.4172987538676509  0.9169813109191496
  0.0821990329426944 -0.0003623826470773  0.7525155967784083
  0.1637055530904217  0.6656408021965368  0.1643805389379658
  0.9156906392872253  0.4196144482595199  0.3311535025242251
  0.0796618831580458  0.5002172098725621  0.4167329056903086
  0.9148010707816256  0.0010156823325747  0.5807416748020011
 -0.0014204347975533  0.4980962598480176  0.6665060579251632
  0.0811023383445401  0.5037128238980513  0.9157244153625581
  0.0791625425453863  0.6660524680145047  0.4159772581112385
  0.9111097063133080  0.7501955868981053  0.3360473458821914
 -0.0034763308356177  0.7486032625999018  0.5842978811222844
 -0.0023192221884578  0.6704905048774619  0.6662280378162617
 -0.0017004723531305  0.6683556331321930  0.8289337229676537
 -0.0029760008704326  0.5832530478055186  0.4167844339954539
  0.0805329977265792  0.5832775751304794 -0.0001782722881410
  0.4992892254618734  0.4165219747295576  0.5831170528616292
  0.1645743525231680  0.3298479873247782  0.0012326331329203
  0.5823537685199447  0.4989576899930366  0.5827036806872031
  0.0821139799984786  0.3312818136653521  0.0825729361462257
  0.4965683193305341  0.7525765701369656  0.4181454474904441
 -0.0024586662808197  0.0874882297225206  0.2474908309655905
 -0.0022368839515896  0.7508207877125357  0.7504246913256599
 -0.0020391012858599  0.8365368673236689 -0.0033163650121885
  0.1633409045090159 -0.0012636049336853  0.3356052307659139
  0.7491832731107809  0.6668515642277452  0.7509313767792609
  0.1632085055166800  0.9163944572536612  0.5821141428965767
  0.0846448262730364  0.8338987629494616  0.5836457692183069
  0.9164249814915048  0.5836000341190379 -0.0020441681622158
  0.8275230315629686  0.7506756045281190  0.9163879776861746
  0.9179523914071469  0.4133306012070512  0.1696488026073834
  0.9129973825792987  0.2469484782339429  0.3331526519913252
 -0.0070214939603810  0.1649049411800441  0.8347413638789491
  0.9122116182385098  0.0849935644985703  0.6680016271114286
  0.9137414384247593  0.2497287752849797  0.5009932183648196
  0.9133527482307475  0.3324351980938068  0.2482485850302387
 -0.0031979516784031  0.8327111906202557  0.6707777409630961
  0.8297327905858926  0.4142859466033535  0.0822024083242438
  0.8280865763354788  0.9184448015408102  0.7519302881355714
  0.8301912846854025  0.5842373352565756  0.2504938728710706
  0.0802732389638404 -0.0009053073078512  0.9134792813045310
 -0.0008082756946517  0.9200035909544308  0.5853393093475349
 -0.0034025534010701  0.3370329624476900 -0.0002522639051464
  0.1683911302719594 -0.0001957553186022  0.0001736844522917
  0.8302761547079148  0.9193984949327026  0.4177101123855780
 -0.0042568317810115  0.1656792386302964  0.1672001455653543
  0.8260908030028947  0.4985997268349511  0.6660271399140301
  0.9141653809255841  0.4161590006272761  0.5007637061665947
  0.0808146264773165  0.1681507205272269  0.4149221620316875
  0.8303622232126573  0.3327253332145765  0.6665982998531115
  0.8288214044209209  0.7478778685183300  0.5827959435715514
 -0.0023523044949211  0.2484072945889652  0.7507604338299172
 -0.0030196489099682  0.0801771204165692  0.5838256647350276
  0.2512952334196047  0.0808683573180014  0.5021433185120152
 -0.0041047539400343  0.1669760767804465  0.4994936678211223
 -0.0032650389589242  0.0028499193787159  0.5021880258408310
  0.0838456264646892 -0.0002577715197122  0.4132509105002762
  0.0802531282829943 -0.0023941112507244  0.5839670593505889
  0.0804834277963107  0.0794922456568644  0.8351798337732735
 -0.0029160192359474  0.1636404419959923 -0.0000537759992773
  0.0784516637966337  0.1652941305750196  0.9217429091311246
  0.0820064423338820  0.2507364055576813  0.1659610897212434
  0.9141283823685822  0.1675277842963709  0.7493863758411179
  0.0801562999127525  0.0796554257998145  0.1653813320668743
  0.0831706860783531  0.2505495770325059  0.3326180369202585
  0.8303263901840799  0.3335123821867289  0.0010059744838138
 -0.0006587395897751  0.9125307333570358  0.2479824729629037
 -0.0015920065265789  0.6667912552623069  0.1675044655180844
 -0.0053005747069275  0.2480671790166483  0.5802083172817092
  0.4154822568355530  0.4153582452230549  0.1685581623397342
  0.9113945251012200 -0.0020202182554111  0.9182865290884250
  0.0815934646685960  0.1670709120495534  0.0804148792162604
  0.8313393030079621  0.9172675233994025  0.9181415864268807
 -0.0022928787439203  0.8341991639268747  0.8324076255143681
 -0.0021340589196438  0.8345421983028410  0.1689980032235985
  0.8284248254656285  0.5865547549596954  0.0864252059034690
  0.8322440790803892  0.5814563483699683  0.4142324798627838
  0.2471134274818481  0.0824929112827482  0.8377343948686252
  0.8300082889098976  0.4987941250056669 -0.0011609392426556
  0.0824064692125709  0.2504097035238212 -0.0001098665052605
  0.9143207020620365  0.2503439145351997  0.1662843795578100
  0.8287564875433320  0.1660905326203104  0.0008557780536670
  0.9145198653172290  0.3325670750528487  0.9202872030351331
  0.8309477055435274  0.3325120125097275  0.4995630112904966
  0.9997006112565869  0.7468289319080036  0.0007580129696462
 -0.0821945977978012  0.5850975750217784  0.0866568658074758
  0.4111803888428052  0.5821767552000650  0.2508109951516152
  0.5845372135879514  0.0001647766939263  0.4980792743733581
  0.8307995685250970  0.5002826306918442  0.0845153459508704
  0.3327404520198309  0.7517967553414927  0.1620495598567407
  0.9124310714075752  0.4997536977241472  0.6658201227731479
  0.5787216001944548  0.2516890193941066  0.9204628734325293
  0.0820845467928557  0.1649913484834258  0.1668102302392094
  0.3331525425764376  0.0838423327706250  0.8329800279079650
  0.9168914775610369  0.5037349244704082  0.1682609840928092
  0.9992644626142748  0.8327115813134726  0.0826659722749260
  0.0863604079416467  0.6686464704291453  0.6658296881581977
  0.6636350200322840  0.5848233698593666  0.8334344462941332
 -0.0918676788944366  0.6673872866687396  0.6655983507897439
  0.5787655473089814  0.2494912230516274  0.2465046478247669
  0.2452944766070149  0.0824637056241412  0.7505188187429983
  0.8293552460780973  0.5856252864403807 -0.0011313097986495
  0.4146087946266571  0.5006678806019286  0.8335437063391919
  0.0770872196483459  0.5834040766919681  0.5824443779868144
  0.4139585647481929  0.5826012106103731  0.4179563599443394
  0.1650336739332963  0.7515080752857508  0.1658690446567018
  0.6594216890274317  0.6662999659409989  0.0833279975111632
  0.0786604231964634  0.1672538756623458  0.8356270389989233
  0.1614086817014992  0.0838390141972475  0.4999244464232245
  0.1659022711431625  0.5844154000084202  0.6678869668617577
  0.9959911213963998  0.9143637567087194  0.4967864942759872
  0.2501042817149904  0.4124987079069055  0.9123664623342951
  0.9973315860621906  0.8341636163923642  0.5837028738088486
  0.6656644645161776  0.9172736801860446  0.6692316839045647
  0.8302688135009010  0.8375415372905562  0.5828309771686915
 -0.0037553455001322  0.0003434702266617  0.4144461277596305
  0.1634652457411965  0.6638481430821805  0.2529011340067308
  1.0008409622988481  0.7494523655634924  0.3336889457904040
  0.1627375171392317  0.4188571551247816  0.0007548303585905
  0.5814760335054415  0.9155192609892810  0.7508738197479792
  0.9123312669799606  0.9169365208860224  0.2493810237715967
  0.1654606814154695  0.0006735769254705  0.2443884573304328
  0.2489961476869064  0.1614680689355232  0.3320475503895367
  0.9173985193717117  0.7508748662057720  0.9165368978002590
  0.0790243026932849 -0.0018953625231216  0.0022834451766376
  0.6625034087781041  0.4992383031557430  0.9181097672274743
  0.4181467076989693  0.0839352040889280  0.7495583421543659
  0.4951009808658300  0.5822092122314324  0.3359767936652767
  0.6624266947329245  0.8317358244001545  0.5851411345800481
  0.9149137990575729  0.3335142511556303  0.3349494308635439
  0.3308944266830726  0.1687045138466268  0.7491852464754023
  0.9145133381392107  0.5832020070053060  0.7503574760259576
  0.5818473734832402  0.7489417680283709  0.0823540344738581
  0.6656747782893163  0.6639910795743474  0.2481762640220671
  0.2493583003493673  0.2502920753831022  0.7490478896092368
  0.8323710366936906  0.5819093403906487  0.5041790654633871
  0.2512893139973201  0.1673421539503057  0.0049591311121084
  0.0845004488846655  0.4153070093897575  0.9139567833263065
  0.9986161680530107  0.6656129163362419  0.9199642644673166
  0.8303094986222692  0.4163663840047325  0.1688574227899586
  0.5845674295880688  0.5822766330231907  0.2482660710289399
  0.5843650583587526  0.4162312431754029  0.0829317211839894
  0.3342000859558538  0.2493834337630168  0.3328802292172012
  0.2456854061695610  0.4992175065113862  0.1663907337882566
  0.3289189951215285  0.1652650840235206  0.5821809799825056
  0.0798672391194844  0.3341657307796810  0.5033124424390746
  0.0866503960769181  0.4981271457490052  0.6672689428744124
  0.9132883511547416  0.3343076693319511  0.8292671429808965
  0.1610247541092436  0.5779946341977649  0.1654344141319216
  0.7448657095014467  0.6677234750357876 -0.0032669178261349
  0.1606868744024367  0.5805311094039693  0.3346009814751341
  0.9129981281933303  0.7488890775221539  0.2461995985999766
  0.2494236815962035  0.0824329965875275  0.4122649336299308
  0.2465240328570226  0.4989462212353919  0.6676014372027016
  0.9956763708141436  0.2505121251276291  0.0002498888817857
  0.7453586875721270  0.0863159914426323  0.7512697141555240
  0.9102020737946790  0.4204236967051692  0.9159260754540399
  0.1660724426107580  0.1660422836130677  0.9176423267891861
  0.4150839506785649  0.0799431310640374  0.5818116342141808
  0.4164201457813088  0.3347899529009560  0.6667777317304889
  0.0818889280675211  0.1652788182606215  0.6609724880946718
  0.9138915256654520 -0.0028526088558791  0.6693300365038164
  0.7474562518862775  0.5817000707134503  0.5847401779967398
  0.1668537852870890  0.6680068576550917  0.7495119028598956
  0.8289204054990483  0.9181767284631823  0.3325018781101550
  0.2493448823676502  0.6650602454653988  0.4971744154127437
  0.6593730444856256  0.6671057366363793  0.7487354219893093
  0.9975171214311613  0.0004295694731512  0.2491954715527568
  0.2507725855799632  0.6710075212335513  0.1651824085961726
  0.1621421524818253  0.7501498445343527  0.4958706342360721
  0.9115542391122510  0.2494097842839570  0.0006097930821333
  0.8308347018309071  0.1672404715786803  0.1662755203819125
  0.8296163457596980  0.2497918894827842  0.2495667336810103
  0.1624043122039581  0.0817372904280450  0.7510562996892098
  0.1643778976586864 -0.0013841366047006  0.6675311995608486
  0.3306357803983903  0.3338149222578446  0.1675784686615260
  0.3309892034093271  0.0812420173416863  0.5835243632821980
  0.9126569450557319  0.1686679891560411  0.2495028235372709
  0.8296617590823785  0.1666966024015045  0.3322271390755082
  0.9127494835783231  0.1672096340075665  0.4162640017956256
  0.8311325635701704  0.2499597679310820  0.0832071308810080
  0.2491266439601766 -0.0019402007644179  0.4160567809041824
  0.9134303097420037  0.1660017535559018  0.0832097223277745
  0.8308812036880697  0.2506555355717692  0.5833329285907870
  0.1656217016165102 -0.0010344137313383  0.8347989245042885
  0.9128677926672399  0.1657420108056994  0.5843398625742213
  0.2488357326538137  0.1660915001907503  0.0867886785191218
  0.8307843399504202  0.0827258967249591  0.9180423651795131
  0.1645263036407694  0.0808528958123607  0.9182841312328549
  0.0812829908162047  0.9168517960327521  0.8336700108465323
  0.2486339311389401 -0.0027076867279118  0.7501246218588445
  0.8305240973504467  0.0848281278988691  0.2482124897954371
  0.2481443643765720  0.1676886974391877  0.4181166835055334
  0.1653780856073348  0.2490523814470803  0.4167628354669862
  0.1637848027069021  0.1660706031461188  0.3325564066684019
  0.2480187838420191  0.1652835982865413  0.2479148128260021
  0.1659923719642175  0.1657873052970539  0.1667095076511332
  0.9142524806141435  0.0854257099663552  0.3320783943412848
  0.1645965017158373  0.1665757907858053  0.0017131789010345
  0.8300040087760314  0.0020664715675253  0.4993254995467565
  0.2492158897654356  0.2510065767759041  0.0007179581224231
  0.2498074913564850 -0.0003596275178447  0.9179231848388657
  0.9123471401412808  0.0846956608452319  0.4997517430369820
  0.8286267462670392 -0.0000151665475189  0.6674358672107167
  0.9120306923910040 -0.0004626946071759  0.7525126359028433
  0.8299383855793044  0.2496423246791200  0.4159497047702377
  0.8292277816841375  0.3329926597581952  0.3333091634326170
  0.8298222656586486  0.1674359989866935  0.6668061450263175
  0.8305772272862914  0.2503007850246888  0.7496741072252975
  0.8297211115730242  0.4153900064152443  0.5829644806874218
  0.9139617383140612  0.3336366416839273  0.5833851001880039
  0.2499006261179988 -0.0014424576346128  0.2490227314505316
  0.1637003386177934  0.0833605397025422  0.2488712835152425
  0.8297947342887736  0.4164885809383840  0.7491538068136112
  0.9141469235876545  0.3327807875705492  0.7467392882397037
  0.5808764041988863  0.4163556182186970  0.6653446163284024
  0.8287116094210238  0.3332676938933519  0.8329596481534569
  0.8287004953082889  0.4160687531900316  0.9172423889491103
  0.2494915851582881  0.0818762517216375  0.0002607096853924
  0.9141261158661840  0.4173054222731357  0.8312168838295332
  0.2492461462876217 -0.0002496227901743  0.0831144333070927
  0.1650009853993011  0.0824846875260531  0.0828833597483914
  0.9159576658005604  0.4993316950464688  0.0834410618557422
  0.8302900047372029  0.1672410460623074  0.4997590606071173
  0.6637662824774200  0.8327033862367763  0.3346565363330319
  0.8297678185123799  0.0009045055598969  0.1659341415549636
 -0.0022945818423022  0.5001421866296819  0.3334953197289265
  0.8313039658507290  0.4160303025434686  0.4162307212493435
  0.8314083852248443  0.1665467040173878  0.8339931061825833
  0.9145076843706539  0.2493335137856136  0.6658389008695824
  0.1635755599036001  0.0810707724726895  0.5839702667140713
  0.8304758229499831  0.2498774265160934  0.9175549584961160
  0.9130009828423750  0.1657560152609120  0.9179835128332001
  0.9131856172944820  0.2494551599633199  0.8340305229560295
  0.1641780709622061 -0.0017481538834797  0.4995199762452719
  0.9147652859658522  0.3335423253603462  0.0836891235043628
  0.2484562313364816  0.0792922707846513  0.3312024965694302
  0.9132762789222174  0.4181322292185179  0.0017858297736016
  0.8294393547988851  0.3319364783709161  0.1672459999288017
  0.1632854629279636  0.0829089514784611  0.4153429027126857
  0.8305757456585510  0.4162188772804407  0.2520076262028249
  0.2489670632055986  0.0815871325255347  0.1662494830203335
  0.9134412640179597  0.3329685832769990  0.4181440122616119
  0.2481143176017202 -0.0023803040583310  0.5832997708757183
  0.0814091181623351 -0.0010143797072656  0.0845522499298433
  0.6633836843013923  0.5837945661938596  0.9167175587372693
  0.1643881107542204  0.4171388830843639  0.4172143298920813
  0.0803780988903047  0.4166827608205098  0.3340473570962717
  0.6614728305984048  0.6669736022339224 -0.0015939018661048
  0.6650928577224121  0.7529512591849375  0.0828233037005949
  0.7467714141984896  0.7511991973121849 -0.0003753334382086
  0.1633730424278745  0.4970632983831615  0.1662099922017715
  0.6631325473364936  0.6673589657106649  0.1665262031130079
  0.7486188486133244  0.6657696940432689  0.2517369780351095
  0.7463862814029248  0.5831959539406284  0.1676910296139452
  0.7466791410362997  0.7502653300248596  0.1668338068699308
  0.2475881623983162  0.3343443357069981  0.2491289633076037
  0.1640095531591533  0.4161471457535567  0.2499205697373272
  0.7490774081198249  0.6651387984975894  0.4164801103341770
  0.1645936437185065  0.3331321725055879  0.1665864042343650
  0.5795310562101020  0.5000847025131085  0.7495243421371846
  0.8311459879666547  0.0837788168767004  0.0836481245588069
  0.7458396445939318  0.5829797982117921  0.6684689378222083
  0.0803003581209595  0.0839936087124172  0.3330919405819912
  0.6662719504789969  0.4159657226925865  0.0825283692957856
  0.4978092075718699  0.1666744750911618  0.1664494355891313
  0.6630946123898411  0.4999878351875382  0.1674023601312244
 -0.0020097710746306  0.3328313076684217  0.6664635059954620
  0.7470096089633527  0.4995253447849180  0.2511461607509961
 -0.0020045728318490  0.2498372936592792  0.2499735857570901
  0.1650609611326017  0.3328962745446923  0.4992285849819303
  0.0810068081696180  0.3324607722794406  0.5844063771792809
  0.7486072982284689  0.4986873736735767  0.4163154488424137
  0.0803381683475069  0.0823195230139283  0.0005116647225305
  0.2478621685023496  0.4168804010356615  0.3345815580776033
 -0.0042297439188851  0.0826939368677113  0.7507165792907016
  0.7461519225975903  0.4979366226674913  0.5827191045770148
  0.1650764606132388  0.9166839018683122  0.7517301562989557
  0.6633320903806248  0.4993292428850963  0.6665545918180247
  0.0793418268857884  0.0831128755541296  0.4984176652864529
  0.0809016681194771 -0.0008415324971264  0.2499117988385086
  0.8297736212645046  0.5011649190989799  0.1697567894169645
  0.9128315044203443  0.0819893482304361  0.0004979981914418
  0.4167505721783221  0.0823990972373166  0.6660553198876156
  0.3311319442647111  0.2511683508232790  0.5821397077439989
  0.5808972921212531  0.0853882964435113  0.4993387015571385
  0.7463743099576289  0.8335669838572134  0.5822358561671787
  0.5802799307591415  0.0003208098235049  0.7518801528819608
  0.6638584896589018  0.8322299213556206  0.6683317309139787
  0.3312670845440403 -0.0027605225349309  0.6663754437927537
  0.1641446318697614  0.1674732170733066  0.4997202867471562
  0.5816218260222706  0.0013493240135760  0.9192877257594568
  0.5798585421990406  0.8318869088369096  0.7511361602300158
  0.5809576098066179  0.0008910255623364  0.2490475110517700
  0.7460664019084158  0.8333234356993930  0.9173111428309912
  0.5810256171769110  0.0839738204195371  0.1650715784795555
  0.8301397996580875 -0.0002742145545770  0.0013267256156007
  0.4155860326283859  0.9178141570805125  0.3326737747605565
  0.7472830349508702  0.8341970795099476  0.4159774768035235
  0.3322288669247842 -0.0018352103721146  0.8341613408053816
  0.3318089571217195  0.8343964404533267  0.4995978804780297
  0.1645550583877412  0.1648554821330295  0.8342481518211724
  0.6617943902246830  0.6686519833126572  0.6658467288466666
  0.5803099019639704  0.7501356978188993  0.4993035758983391
  0.8287888427449006  0.5819610515573648  0.7490469939142800
  0.1662413083849813  0.4166880970167933  0.9162853424544286
  0.6624831968081060  0.6683189285494516  0.8335884315268374
  0.6630032275622948  0.7516160338210056  0.7505922682315924
  0.7465689499348264  0.6673187668402553  0.9136023343158429
  0.2482812131262120  0.3328239016022403  0.0842654303248990
  0.2485275815577028  0.2503459960419865  0.8341240713528049
  0.1648572571384719  0.4164595785481490  0.0838098952954321