Cr H  Ni
 1.0000000000000000
    21.1200000000000010    0.0000000000000000    0.0000000000000000
     0.0000000000000000   21.1200000000000010    0.0000000000000000
     0.0000000000000000    0.0000000000000000   21.1200000000000010
 Cr  H   Ni 
 259  86 605
Direct
  0.4978786089264504  0.0837239549347939  0.7483356429819367
  0.5805667612129446  0.6662611485551319  0.0856664366261354
  0.1637961773904416  0.9169247939188290  0.7526685528319337
  0.1623488421540853  0.7528246809583485  0.7498418659340247
  0.4151747430957172 -0.0002726855876336  0.0848879086075890
  0.4140452436278464  0.3358348237901880  0.2501470241955606
  0.8303816021873238  0.9158767542931091  0.5850476437049740
  0.0006818474024880  0.0015326482302337  0.6663314530682594
 -0.0022610319383297  0.4964656372905770  0.1670620834889159
  0.0813872249367134  0.3341096935301053  0.4171904613505942
  0.2474369637435187  0.4162632937533698  0.3347256629579910
  0.0808042293712387  0.3331899112201264  0.5830464994973024
 -0.0031570988507084  0.5802163502969212  0.7499989639148027
  0.2467653184970727  0.4161243116840030  0.8334967033663944
  0.5799350134502899  0.4182926212426098  0.8335481019958105
 -0.0037865335201276  0.4160316849742432  0.7502710442857096
  0.1622856157007382  0.6680846318688439  0.1691772002611389
  0.1640073988908962  0.3354188747080595  0.0006657496588933
  0.9145693607561433  0.4150520354960339  0.3325003205861177
  0.0805100110281261  0.4984395092180152  0.4170114891880133
  0.8285746824878188  0.0850964250526666  0.5842083675493807
  0.0814473774363707  0.5831418279969686  0.6657440892880482
  0.0823072770643170  0.4999769642471340  0.9179240954382357
  0.0829812222081371  0.6653865699947064  0.4153103338291947
 -0.0001231962543013  0.9176654976591204  0.0840708152868182
 -0.0050403422741349  0.7485180734782709  0.5823857498081246
 -0.0013902720817432  0.5811524294242505  0.5816563682706208
 -0.0020617415492028  0.6657635586330310  0.8338290516305208
 -0.0016532445519668  0.6676694105560507  0.3301494621040069
  0.0813244230273713  0.5814291130365946 -0.0007266204112246
  0.5795018930269921  0.5838923331054976  0.6655885715147413
  0.4133182226146472  0.4157178348034812  0.4988164923488558
  0.2467178496392952  0.9125136148779551  0.8325034622189554
  0.7515996517092233  0.6664826912588491  0.4156103865787404
  0.4982360791755007  0.4995640746841488 -0.0003145466816167
  0.4955952274994309  0.7499500846995584  0.9153374707158007
  0.4978317381318595  0.4134910009423091  0.2503227214201158
  0.4961791568472627  0.5000221192516067  0.6671217070471350
  0.4970027542838390  0.6647142034417695  0.6664950335715911
  0.4961151272086284  0.2514525611246096  0.5825654118869363
  0.2477755492083806  0.9172481046663535  0.3328826773193599
  0.4981614236482837  0.0033426841300795  0.3328533238155885
  0.1671903182420164  0.4920890958577118  0.1658034054133365
  0.5777398493985428  0.2510153728296222 -0.0009411390801769
  0.4958203888626234  0.0047659177066006  0.5006465831202338
  0.5813400254962405  0.3317184922877814  0.4160499386384763
  0.8322030396524427  0.9165898786657042  0.0808166160390762
  0.7477078903631631  0.4974168943806472  0.5860866791394763
  0.1648808779112438  0.4157272787490223  0.0827662806580222
  0.6626264428380041  0.4996197216692301  0.0003352368030695
  0.4932267801517942  0.7481997897048979  0.4120697302594629
  0.5801866679298679  0.5835932021617700  0.8333027020796282
  0.7481597813409057  0.4973574091712504  0.4126810851522724
  0.1604954506241690  0.8310989424820373 -0.0005897085588528
  0.4127480720307969  0.8313466494900590  0.9174880302649653
  0.1688006318125345  0.9184544883061514  0.4146735511787767
  0.5819071409098459  0.8344222750907571  0.2502899777883125
  0.4982333396271866  0.5810874169790654  0.2513079650542812
  0.2450105619050837  0.8327927153320981  0.5804918807322123
  0.5756241896410136  0.5824456440940958  0.3315240391960762
  0.4952830912012900  0.6649816018146480  0.3327481045261629
  0.5808008093653256  0.0846526422934565  0.6665528516377884
  0.5804802722468310  0.2506260966470719  0.6663946644146644
  0.3320760516502700  0.1678669721204604  0.0024020330782340
  0.5811192620303042  0.2519234282295479  0.8343171543344682
 -0.0025292830426248  0.4161092453042214  0.0841710538781466
  0.8316910742927176  0.6641225390561596  0.8330886256857168
  0.7457809862288830  0.6655120675006241  0.5821498964511079
  0.9143883500918154  0.2508566206937253  0.3339890322591869
  0.8297836175890022  0.3326785975997557  0.6665477514311862
  0.9142714239489189  0.2496954047479958  0.5013288453813768
 -0.0029569661162162  0.1692948110404643  0.3345470509850497
  0.0802702522442868  0.0902172768834221  0.1667329392351100
  0.8289537264179369  0.4191422592961174  0.0849726610329040
 -0.0069201350650971  0.0010276682351757  0.3316441719977967
 -0.0012746208151018  0.8334774291101383  0.3330525132133282
  0.0810466498092015  0.0000696997465675  0.0809464924159955
  0.0819868912317561  0.0847513165510189  0.8340434092731731
 -0.0001707895603028  0.0030780584680046  0.5021389631275658
  0.1644110805801087  0.0036464278391502  0.0003443489566962
  0.0815156672445924  0.1686237908970085  0.9139326448814119
  0.0841007455589263  0.1663007839949211  0.7508647050554448
  0.8321468161070799  0.9175431325877210  0.9157810792928980
  0.0811032336978863  0.9180067362494535  0.8340694127437954
  0.8316206265677382  0.3313241059190336  0.4991144437519738
  0.9148485192384402  0.6681060908725799  0.0833463972651057
  0.8342138799998975  0.4980128188430778  0.4985454949092625
  0.9122370815442837  0.3329430078758889  0.9192130612346354
  0.9143017445022119  0.4966065910377512  0.9140717397954145
  0.2438465305471664  0.0883231783649086  0.8329115949489416
  0.9129208237572900  0.3330700912335109  0.2499576899876784
  0.8306655800070819  0.0849733310077644  0.0860845724069783
  0.0806664712328259  0.9156000929419572  0.1678217436478290
  0.1677661948792559  0.1682433318881170  0.0001290218036736
  0.9132831114754910 -0.0015633264379714  0.9160874918126360
 -0.0060001999918713  0.1698423879087093 -0.0002190976894876
  0.3267023206801841  0.9187321256718745  0.4154520712872546
  0.0809247565169695  0.2468335357789312  0.1642026509902379
  0.9161783353633209  0.3341275091106088  0.0849509828394316
  0.9155598413210750  0.2508305211910302  0.1676597785715172
  0.6613538396382910  0.0843010670750749  0.5852840837252927
 -0.0022632798735568  0.2494861444077798  0.5812499634879351
 -0.0026655285528244  0.1678562461088457  0.1656364925636616
 -0.0015692441183144  0.8349108287783747  0.6700322382802274
  0.0820223689470320  0.1679926521333934  0.0860701839822083
  0.0817129188482934  0.1670546037608245  0.4161973296651181
  0.9132466302332863  0.9182330249062300  0.8351775638786583
 -0.0021318241193308  0.1685540541977079  0.5011760109248450
  0.0010891662823284  0.2522348331797519  0.7498226261926912
 -0.0024219162875702  0.8331858263785950  0.4977599761826261
 -0.0017453457705848  0.0839656136432161  0.5830602234672744
  0.0778165777927935  0.7489317436632114  0.0021948736573033
  0.8310746061434474  0.8329925629397537  0.4997949989016762
  0.1650697834849491  0.9172249281223362  0.5826675801152132
  0.0848023948685062  0.8370363982802645  0.5822533375661824
  0.8317119631196338  0.4950551868031353  0.6651053489943766
  0.8321578050596562  0.7497725276698683  0.9194307669503603
  0.1651513913356560  0.1678180472403897  0.3354003345600925
  0.9165781615923700  0.7523708305937351  0.6667894885340857
  0.8311387769348080  0.0831160134778146  0.9165969634521433
 -0.0018439809932607  0.6632549548967571  0.1666128080727884
  0.8281556908981446  0.5825211014555598  0.2503163095059163
  0.7453329540459670  0.2477593330018421  0.1663530453253694
  0.4144721894407346  0.4155026406520023  0.1666675154958330
  0.0792587462324106  0.7505830824239662  0.6691586638303636
  0.1628601739783986  0.9145214626033245  0.2475265017239043
  0.8302882402661084  0.2508684099234524  0.9136125546469175
  0.8298726410926712  0.6701498827750217  0.6669449473195774
  0.5803916652513762  0.5780735618374309  0.4995993148711407
  0.1642126174994125  0.8344797254503364  0.1680945345028114
  0.4951903020073196  0.1725986663648482  0.1659709576361251
  0.2485405492167719  0.1693032718402379  0.0832276001108699
  0.1647232487010805  0.2507498632870420  0.7506696048884488
  0.0815349739849064  0.0005719758920562  0.9168983938688007
  0.1647405557565209  0.0851792783285181  0.7519302741231191
  0.9143464051476429  0.4980165774989532  0.7489241899701483
  0.1652853129467821  0.0834806598618088  0.5826298123607339
  0.7477242982245885  0.0826623483112945  0.1658428323475735
  0.9145560344229726  0.8345116051464332  0.2492272974937465
  0.7473750074960225  0.1653999820866822  0.0853194917075099
  0.9143882508065566  0.0017921574454573  0.2514373284041150
  0.2461115082130630  0.4998569771770673  0.9181081720839452
  0.1683803491859613  0.3368836606150095  0.1668959124712746
  0.6633623360388332  0.8361328121012924  0.0005257676542524
  0.5797991967054409  0.0829698082379566  0.0007343295840258
  0.6660132890220738  0.6647274535753895  0.0011447119589772
  0.4136614699340291  0.1675616956339044  0.4145792958321849
  0.6636091684600293  0.7481456022321959  0.0856181081239095
  0.6627576776990596  0.0867078626768189  0.4162813960729828
  0.7455188270085755  0.9181133741057710  0.1661060878641818
  0.0816964831841433  0.6655554005821436  0.2494794912031855
  0.4962361439593710  0.0839893509982881  0.5833184803703881
  0.7454661799677296  0.9154743871023633  0.3314279683230152
  0.5794075409901657  0.4160761649991441  0.4998654212289333
  0.1642099673214893  0.7480124943144780  0.4154133987050278
  0.6673507082142848  0.8348642125111847  0.4970264605288338
  0.5823128710414883  0.1677171938532669  0.4161917281706805
  0.7468481861629089  0.4174649206284728  0.3336496561246860
  0.7476625313303875  0.8305469864888315  0.7504864446061803
  0.1652012264213727  0.2510083528965903  0.5808863813654703
  0.6657495281822131  0.9186137394250286  0.2484434476092474
  0.7470550533565224  0.0020938502918105  0.2469882356307920
  0.4958778389953154  0.9152870661086976  0.9189701623291955
  0.7449108382418106  0.4170469296763297  0.1662156954913026
  0.6628839763703392  0.1631583140397362 -0.0005662745394791
  0.6637350621755951  0.0842193189284122  0.2464042350612581
  0.5804959854030323  0.2500962416868147  0.3350933628964617
  0.0809610637492550  0.5816718794808555  0.5010038794716499
  0.6650022258921005  0.2509036201470636  0.4165802176072920
  0.7454984292673459  0.1690478705122853  0.4175035651729365
  0.3301345001812664  0.5802591837685429  0.4174638350825142
  0.2476600450766787  0.7509156412160658  0.3328527196444341
  0.7443169470020582  0.2502075758217748  0.3344092908160181
  0.6618191314186923  0.2532434337264645  0.5852541399633693
  0.7435385659407900  0.1674361312726838  0.7504134370958507
  0.7469476924448303  0.2500607520699126  0.8341842020549260
  0.2483273746976409  0.4153236394990006  0.1678075420981044
  0.2466774321468754  0.5811374484181788 -0.0027039449392942
  0.5780468498906344  0.4991036498332875  0.0832992466265170
  0.3306858590228763  0.5800113826410684  0.2483119724298491
  0.3317984090228778  0.1686212005074033  0.1674202682979689
  0.1637390464849995  0.5821903200189971  0.9167069503648624
  0.1627684125221765  0.5792645105895387  0.7509859084389285
  0.6617510263470365  0.0868931722028040  0.9190016947379137
  0.7464960848148601  0.0049431117186532  0.7501137807665513
  0.5823476487829733  0.8329411261406000  0.0834384575928291
  0.1663370485842705  0.7503704729970122  0.5822314253700432
  0.4959440381947602 -0.0041905541526353  0.1662851162760928
  0.5848797398858706  0.9166780080248640  0.3321421283845066
  0.3293669553055744  0.7484945243568401  0.4156884066113724
  0.4144131652093884  0.0009479636736557  0.5831388357852495
  0.4932476889154769  0.7497390994735684  0.5880412802192309
  0.5823250509206663  0.9129756167335598  0.8327458041383891
  0.5771375149309045  0.9166855368397877  0.6663618902210243
  0.8306751874208883  0.0852246476032807  0.2492130912078985
  0.8256721901870225  0.0871227934343114  0.4164412177595058
  0.6653041176343298  0.6690859510681022  0.3292209569255391
  0.7500507511640105  0.5841021096426191  0.8362390008340196
  0.4114846048660710  0.2564319364188647  0.8315297920836255
  0.3315619525297478  0.4151572173535559  0.4185303431528876
  0.6657604352291115  0.8328391890306581  0.3329567361766232
  0.6613288036048192  0.3313653395554236  0.6663351608289196
  0.4142158681666970  0.3310638524123289  0.5846371887555374
  0.1657095672888382  0.4151218077864573  0.7506824682341761
  0.4969890944641513  0.8312913977338998  0.6661535236560530
  0.4139233534069678  0.3337614658560470  0.7478213871736713
  0.2485859326132906  0.4157348931840933  0.4999485534972712
  0.4961714702733427  0.0802274158565545  0.9160409014486204
  0.4138056147638313  0.2508511105823897  0.6675143043955195
  0.6644990948966905  0.7527201033117089  0.2487972154145108
  0.4176654254885386  0.6615868682096200  0.0889813884323166
  0.3303362655103014  0.5823176424061342  0.5838981246670307
  0.6608378694409509  0.4992735573081610  0.4987730827480771
  0.2452701336422090  0.2499843796415570  0.4999864757691314
  0.3323615224655963  0.3347088078109027 -0.0016411722069317
  0.7464913574338881  0.6669868992910685  0.0829593072216087
  0.5773042683836210  0.7494825461645512  0.8340849321322227
  0.6631956125196438  0.1696165827049495  0.1663263071952044
  0.7457576479722684  0.7488917679125935  0.1645519214988294
  0.3304220064688658  0.3324214902864087  0.6662484559207817
  0.4145066246755030  0.5808529746427584  0.1691443476063935
  0.6651140367057480  0.4940757434493109  0.3340941339252564
  0.6626835309357729  0.2513284009856495  0.9133319139730646
  0.3293648912607697  0.5001375190969090  0.6623824607925828
  0.3297844369749904  0.1689064154796370  0.3333473549933519
  0.7476608174462182  0.4167622195694776  0.8327393750120211
  0.4171463204005076  0.4997243282739228  0.7487591323490665
  0.3320061133923504  0.3336792051633358  0.8328326445292888
  0.4166954646263665 -0.0015187282875098  0.9183597595887654
  0.4135867148738945  0.2506209840222745  0.1660072643871003
  0.4152457225930213  0.1695695648922010  0.5847427191515167
  0.6688665963351782  0.7463453985549923  0.5836678833276959
  0.3309094579838202  0.4999598882591084  0.1684110483639975
  0.6638969591901606  0.0009468800926672  0.0019153753684237
  0.5823293375685037  0.9199498350236294  0.4992619895400718
  0.3315785473705000 -0.0005100549334124  0.0034861613938363
  0.3306379826220194  0.1677651451708597  0.6678094248895118
  0.6643082259951770  0.8313742490803845  0.6704810664073179
  0.4970349570906074  0.5817534336096770  0.0845825432160153
  0.4979048162582021  0.7496825284659985  0.2521981058833213
  0.4972087778610961  0.0015479382197088  0.8327995591312235
  0.2482676910917676  0.6647496261620257  0.5842279795469847
  0.4144520885479847  0.4998737579440711  0.9161594056873582
  0.3324688087062035  0.7488874930039831  0.9159875110436997
  0.2479511933576690  0.5009932396301179  0.5845596731900283
  0.4137771395298760  0.1688422091230574  0.0840390330580517
  0.4129652909045388  0.3347192883719014  0.4176727450085216
  0.8319572336795015  0.7528309353515898  0.5834796099944188
  0.8273580796296062  0.4976511233857778  0.0006625009906711
  0.3321572936904260  0.8333502950583781  0.6661476121367800
  0.4964242557696681  0.9170096121875716  0.0841877281005954
  0.2461184880027747  0.5817324960158492  0.8344230892950333
  0.3295120167746377  0.0010378774733882  0.6658158379324637
  0.3312734773246897  0.0856831198764052  0.2494159426164908
  0.9155782301907017  0.9160953697802690  0.4988955222573585
  0.4135363719339999  0.6679318914286171  0.9129006629302159
  0.3294208549881727  0.7488936002051740  0.2493964546315942
  0.3278835545340586  0.6647657265357071  0.6659038308796650
  0.3286692142779822  0.9185413063031960  0.2536413919456464
  0.5842348936582088  0.0015128318097988  0.8319554110069396
  0.6648607830574574  0.8340213066838229  0.5837775211538045
 -0.0826711269068556  0.6636721475770010  0.6665282632526673
  0.9149088793029000  0.3330532745148125  0.8294531313527442
  0.4960961137565326  0.9143732359214644  0.3321415049359372
  0.0802112745173448  0.7495256403919027  0.9121303139437426
  0.4163521604842217  0.9174263205529293  0.4166228013908130
  0.4952757422353192  0.1720423127783270  0.9177736283178930
 -0.0866081275642760  0.5790912000980341  0.0842927543277800
  0.8327433729644654  0.1673991125816013  0.7491182589244710
  0.3283554791938808 -0.0007222095300304  0.9151894130361095
  0.3289749409680536  0.0835386311883220  0.4985015471960462
  0.3267090072693753  0.1679341978435393  0.5796331360243532
  0.1636994175458444  0.6657492818373199  0.7500494967130389
  0.2471003956785346  0.0004634269085093  0.8329117889571619
  0.4934574440837377  0.9153037441107698  0.5002343520566903
  0.4950803286214409  0.9147954240244215  0.8310414944483574
  0.9959874576338114  0.1639593726265388  0.7504736658874763
  0.6645900572546694  0.2505856475112574  0.0013483588969959
  0.8340563899372228  0.9163535029370831  0.1693059268658908
  0.8333706308369296  0.6646709791004913  0.5803636172214990
  0.5842788148914752  0.7493835597006284  0.4157386867148355
  0.9098851934306698  0.0005671224049698  0.6682930198046265
  0.5809057926893316  0.7484048764970882  0.5841112850305327
  0.3273619629897092  0.6658139026515205  0.0835686580169918
 -0.0040821512256014  0.0804238278050993 -0.0001638678597194
  0.6658364769286327  0.9198298402243217  0.6661618391543770
  0.4140489743996917  0.7533216722934605  0.0850285740511792
  0.0829031656706711  0.2521095106371736  0.2540330266125626
  0.6633369432964846  0.6653843943547197  0.4171696902792122
  0.0809556818306666  0.4941377548349289  0.6646942498768883
  0.2468353547462813  0.6608357765731968  0.3328322641284667
  0.8351234851469861  0.7491317802346323  0.1665951467681248
  0.4128299334615352  0.6655914669661577  0.0008553028570858
  0.4121753906219087  0.8318641732397596  0.8284818978360139
  0.8305220368343825  0.2492251345857399  0.0037225407276453
  0.1642773885111383  0.5803329153182780  0.1663693858600062
  0.9134866015901013  0.0831242551932242  0.7512927853285069
  0.1651132753722947  0.0062156397754120  0.2501552439814123
  0.5795576981292595  0.6673445463393478  0.4997851896950830
  0.0843876465498244  0.0022876404902725  0.3335888622906116
  0.9166695183914578  0.0857519877319234  0.4168094873341689
  0.7482281147491104  0.9176219864966725  0.7510435388406496
  0.3281933089148049  0.5001697482817030  0.7514365244175052
  0.9985641909344172  0.8345762111584482  0.5841060233276039
  0.5780534655002600  0.6659906802828763 -0.0030794232241342
  0.1655618969245783  0.9178124391162780  0.0000753895872683
  0.8319455019313807  0.5822327405476757  0.6653027807476780
  0.2513569258335673  0.8322632351970701 -0.0001546558002415
  0.6647920080753227  0.5801749790035384  0.1675153622837045
  0.0791630505658612  0.3354585336649459  0.1684060422067474
  0.1667741414838695  0.7439990967085636 -0.0009290496799349
  0.9161652524936027  0.4994377008284939  0.0027235624127407
  0.9977571140073468  0.7532031192647540  0.1663223934365171
  0.0802076225531649  0.1683585978383368  0.0001974536116756
  0.9942159945889351  0.6650532827534692  0.4186233462610875
  0.9179670708823221  0.5816865695890736  0.2502654093423979
  0.5779930044718689  0.8322457304634212  0.4996975095534682
  0.8283770799498847  0.9205684592355238  0.4974006761755539
  0.6643768753774320  0.5815998624583254  0.3324455211458225
  0.0805783106460720  0.7509528899443098  0.5825603723816687
  0.8317197746481624  0.7533734375785222  0.8311009884794205
  0.3330306837461756  0.0852950027862339  0.8324547307125092
  0.7468347800406324  0.5838805338455894  0.7464701976729162
  0.4100343592335132 -0.0007752391427446  0.8289926175255692
  0.6651860111052371 -0.0022882080777946  0.9147168195927914
  0.8267815534304034  0.3311784756021189  0.0839139336616015
  0.7468370954265284  1.0038661615622533  0.3361778265346868
  0.7451780543133224  0.3344597061837884 -0.0003411022561757
  0.7476786052765311  0.4981189698476790  0.4996836181996683
  0.9104042764097727  0.0038842389270720  0.5002150010233234
  0.4946900003739537  0.7484940323772390  0.5000352748026993
 -0.0866170815017198  0.5868207279719021  0.9173158300912571
  0.6637112035177460  0.5000385985893083  0.7487386970704747
  0.9104661476982395  0.2498816403743585  0.7494279957427521
  0.4979337282243252  0.0841577149410205  0.1676140711854296
  0.6676982815270009  0.7490463325277229  0.8329022553885490
  0.9103191045740174  0.8322812649695922  0.3363732490698410
  0.2444288848593137  0.8339152915174162  0.6689466810134403
  0.6641103879905788  0.7504007541929916 -0.0014826761807452
  0.4127106414293795  0.1657983346286574  0.8336160928397980
  0.9977284820044164  0.5768672315848131  0.3345889351418025
  0.2475220497742081  0.7489338005059675  0.0847406686902613
  0.3300895913341217  0.9164731793410509  0.1639395991457234
  0.0792161849057441  0.0025145195182400  0.1676340010513488
  0.0780349358324483  0.9175678405882032  0.4159341053751044
  0.2478307550597702  0.3333120888166094  0.7499368356851714
  0.4139322432847375  0.3346986604786574  0.9163294362240409
  0.3308450533344957  0.3336870577504712  0.3344296704755762
  0.4138227405501725  0.4154709748114710  0.3344606930646363
  0.3302733412987319  0.3321313101950675  0.5011533832232423
  0.4144465244993505  0.4176566189652683 -0.0005012993479803
  0.3311987992838846  0.4167028867272390  0.0829496432882445
  0.4138340273641247  0.4166827246218558  0.8323841502850772
  0.3319471681378169  0.4999837726079214 -0.0012151471152952
  0.2487040282236726  0.4161263505995112 -0.0007149380680572
  0.4959815522141744  0.4160898031647804  0.5831434982777810
  0.4131342441898980  0.4163176794937766  0.6655998886915452
  0.3307204036281330  0.4156688270666103  0.7495291180126389
  0.5800749999324404  0.0849250905436704  0.8333862018549983
  0.3316627339651265  0.4169753151585009  0.9161546973306512
  0.4124923897407229  0.6652255859804295  0.5839046362258871
  0.3306350524998439  0.5832103784411434  0.7492319570557056
  0.3308098854497253  0.2521122114195296  0.9179727999095303
  0.4138749631155684  0.4998363101719406  0.5831857414727761
  0.2474879087283269  0.2500115835509897  0.3341933139233791
  0.2480998069843481  0.5806192021461309  0.1671429648633389
  0.3311789981811811  0.6646139560138169  0.3333580809030947
  0.4147842120046804  0.4970499902607510  0.2517919857709320
  0.2480552930030671  0.5794820594169966  0.3335691581954909
  0.3286675448754594  0.2504954333229664  0.7492523186473452
  0.4121330187365104  0.6646291026929136  0.4158349764865533
  0.4130913399932003  0.6654969475813359  0.2505482710123486
  0.4112892681418972  0.7488578492562535  0.3325840124286141
  0.3291606656068194  0.1697385107110959  0.8329133285940972
  0.3296891433711752  0.0848038339558010  0.7472984188052256
  0.2481695972466704  0.4981256564945650  0.4174108946342963
  0.4146555621607899  0.4990957770982335  0.0837664078704025
  0.4139617077888605  0.2504110241032004  0.4992154076661473
  0.4972314988020816  0.3328045182321527  0.1663246540073647
  0.4141277795837266  0.5829757422639562  0.6663512182562084
  0.3305019496352596  0.5823486159272568  0.9155912040596267
  0.4148266729518876  0.8354270312747084  0.0851191822623400
  0.4142636924428906  0.9157664980943649  0.0011673366194322
  0.4135533206665159  0.2517585219238554  0.0004011527604276
  0.4127314790334103  0.1682729939959081  0.9180059256228841
  0.4127991072648290  0.8323313437991672  0.2516535772429039
  0.4141240299183765  0.9157521263061675  0.1687938810846771
  0.3298600026197615  0.8326539445483137  0.3331435680767988
  0.3302696827447954 -0.0002809317987714  0.5003209978017471
  0.4968615104113518  0.5002929340544980  0.8332898844016351
  0.4141403178738340  0.2507132164790618  0.3337333069511365
  0.3299877351345447  0.6644458551863306 -0.0019520350056211
  0.3314496466295501  0.7491876373268437  0.0851708160775540
  0.2465908605788389  0.7492440604645768  0.1695724074332156
  0.3309431367332394  0.2510607821733609  0.4163883190632195
  0.3305180106851131  0.6642820540236933  0.1694087302865437
  0.3306873086745090  0.8318984038028251  0.1692461417083087
  0.4132433239021115  0.5817184282292827  0.3322534480165675
  0.4101368570437260  0.7486861540446136  0.4998307688375604
  0.3306861974409442  0.0850922762535808  0.9198228163293207
  0.4142647771599899  0.0825772390121492  0.0016703675601438
  0.5801566343700932  0.3326313654111296  0.2508385777799869
  0.6639528300748246  0.5815019911669350  0.5828166557354298
  0.4965331457452226  0.3333379635123291  0.3348546317755793
  0.3311736534034785  0.0849492070681283  0.0841390850886872
  0.4967899760094642  0.3325426894342590  0.4989518160978696
  0.4137908568556263  0.1686342742108663  0.2504227398584513
  0.3309150300030970  0.2512113302011172  0.2503187514158157
  0.3300947714837011  0.7488158954692558  0.7483425135934724
  0.4134237549866198  0.6655922301045182  0.7485638386085754
  0.4116289853050100  0.7479832286510739  0.6662564340240663
  0.4137760625696487  0.3340485077568555  0.0832525796532933
  0.4999651864836288  0.7493320376064027  0.0848586605627726
  0.3296894467314093  0.6656614385372355  0.8330249628984380
  0.4135847017691854  0.7478974401948397  0.8317215350975832
  0.3336216211695579  0.8322665640629853  0.0002050974749737
  0.3312007980754907  0.9171340007132511  0.0823773111324380
  0.4110781537564698  0.8313065157711160  0.4153308029213017
  0.3312688832163276  0.5803029187451603  0.0839491233477087
  0.5805715336257001  0.0003345074844299  0.7478535978889288
  0.4142327695773020  0.0857271723503094  0.4988334905026663
  0.4148737725217215  0.0835297437822339  0.8319516705508130
  0.4969203104542735  0.0849705995791849  0.2507575747450909
  0.5811055618592617  0.9161451179058013  0.1665327749529407
  0.4971876632715004  0.1671923901178156  0.0011604347284026
  0.4117767512114019  0.8328155500292200  0.5842113330591300
  0.2453889619066661  0.0841864889534119  0.4999175928674862
  0.3289031871183298  0.7489655552342768  0.5838414153669763
  0.4135955156052098  0.0002681741999837  0.7454569978252878
  0.4136953412240861  0.8321335649895619  0.7454757904809485
  0.3305370355775021  0.2523550071235743  0.0829784494145977
  0.3288243711186729  0.8315393071030857  0.8326278209519269
  0.3304678880242585  0.9145256329867859  0.9177868866001585
  0.4149454210392486  0.7500264276671018 -0.0005001803803784
  0.4116764322504501  0.9154932089456506  0.8320299364976277
  0.4965667174214810 -0.0009262574540020  0.0007638678388367
  0.5796532503702211 -0.0006041636355689  0.0836701592975158
  0.4965643462532127  0.0839522968134355  0.0832444985000639
  0.4141460031480874  0.0846716543780042  0.6663089104457380
  0.5797961383993520  0.1678073068089286  0.5835390377463527
  0.4942966159669341  0.6646983395376892  0.4991625565569003
  0.4983286608080790  0.1681279189003378  0.8314827000573889
  0.5801145733417434  0.6639857739439541  0.5840382469683806
  0.4964184219229201  0.9166161719689129  0.5844257926267126
  0.4972287679074555  0.5830719840890374  0.7500738077791638
  0.4976142920066406  0.0848813052733316  0.4160462572659055
  0.5804462839540183  0.6656932237802259  0.7500313353208875
  0.5801701896031338  0.0850432775169268  0.3322233868726282
  0.4972561685764110  0.6656838579444826  0.8322530684241507
  0.5795000272505277  0.0006611368491325  0.5834617178584880
  0.6630594422580973  0.4177377902035601  0.9153052741779444
  0.4140504956574422  0.0009816304549458  0.2505883754422774
  0.6626088608988908  0.0023170934520774  0.3327422199631949
  0.5808434804418555  0.1681236787946722  0.7501566007793858
  0.3283599997857218 -0.0006662878368523  0.8320305847807786
  0.7455216582475216  0.0849022216426315  0.6655508054865892
  0.4970940964568041  0.2520884926475807  0.0822319545053026
  0.4142876123288578  0.1685293578328857  0.7481924952209504
  0.7488851287812756  0.4979544995049005  0.7493344286327963
  0.5804055222716722  0.2503965906222959  0.4994209012758333
  0.6636405614885211  0.5000642078372706  0.8340223416605935
  0.4976086644993254  0.2515985160931519  0.7497908979529975
  0.2478740766113656  0.3335249226265924  0.4173477636709700
  0.4974391460627545  0.3348656206021016 -0.0005819984068359
  0.2465691107232996  0.2504185442997395  0.6660762112766487
  0.4961951544011570  0.2520193671360582  0.2509466712204155
  0.3307234207728094  0.4160522249644342  0.2509439468974318
  0.5792431987012102  0.2503071542004195  0.1669118890981080
  0.4971961981100017  0.0012913041796243  0.6657523764222307
  0.4971787259488882  0.2503419304989735  0.4167938522183222
  0.2447195651173298  0.1670348710034546  0.5835916863184116
  0.6634804996992665  0.2507230196813536  0.2505720127974618
  0.6638839670378021  0.1665219112312161  0.3311006171329899
  0.4138338046883668  0.0024731301490004  0.4156699368490008
  0.6660887969597700  0.6642223660046682  0.5003741678639850
  0.4971972919469554  0.1682847683604059  0.3340432807899122
  0.5793881674293259  0.1677013821679338  0.9157049550546912
  0.4972962161408804  0.4156204349806398  0.4172193119116971
  0.3311640862965937  0.4981827043416335  0.3342490265813911
  0.2474216264515360  0.8318582653570602  0.9154391459551414
  0.4135347735146380  0.4996401757746733  0.4167981281494439
  0.4969214462356661  0.2538450905475769  0.9156683167797863
  0.3304402978164717  0.4993647461150997  0.5001003428988059
  0.3313082626915599  0.0017265424898154  0.1674470195051046
  0.4121469696082233  0.5827718288022955  0.4995573535854305
  0.5800861727953778  0.3337373671989098  0.0828944931821275
  0.3308814906925011  0.1692395199663015  0.4973855215438465