Cr H  Ni
 1.0000000000000000
    21.1200000000000010    0.0000000000000000    0.0000000000000000
     0.0000000000000000   21.1200000000000010    0.0000000000000000
     0.0000000000000000    0.0000000000000000   21.1200000000000010
 Cr  H   Ni 
 259  86 605
Direct
  0.4969723272013189  0.2503026252358397  0.5844014846100891
  0.7448084691655450  0.4176148666136840  0.1650605890133336
  0.2455205260573018  0.7489454555707388  0.3292306663489538
  0.5780802854910001  0.1665288232253850  0.2477099533585402
  0.5738016235707959  0.3345666349327244  0.5853092219736703
  0.6633468123346571 -0.0006285979319370  0.4998279599187689
  0.8266865929609098  0.1706466784654752  0.8340205797441979
  0.6636895802137414  0.1648725924545348  0.5001900413100087
  0.1636978626208715  0.6660901939187622  0.0004704603416476
  0.3285880979908429  0.6677323494345161  0.3337409894405850
  0.7443746409296207  0.1683498588947158  0.0819279197346635
  0.7429525308404032  0.4171230329661957  0.3340506109634970
  0.0787581281328567  0.5001288243687381  0.4152778209233011
  0.9141732765904367  0.0825629064327069  0.8351735236324246
  0.8297264441886077  0.0849750985859804  0.4155266914323423
  0.2472971946558541  0.4167378960940868  0.1668338195783017
  0.5776280355809432  0.3337115075456094  0.2490505278612824
  0.9104194748154817  0.3346641858185092  0.5852108554918324
  0.0784388367404252  0.4188349311624512  0.3346135582617399
  0.4959008244034038  0.9154229551623163  0.4213209951279131
  0.2445991788795181  0.7477921620902024  0.8338413088804782
  0.3303102265728466  0.8326210755118106  0.6668141345218858
  0.6611640796704917  0.1677652909796070  0.8341949043333763
  0.6595526156958499  0.0013741243391382  0.8369579730839997
  0.5794278103634419  0.8319163068710949  0.0814185487092031
  0.1645281228196958  0.2533847863692824  0.2477955191721203
  0.4946342884544623  0.9169369136638299  0.2442350194228315
  0.1630350256693230  0.5821552127853598  0.7539177529292909
  0.4139650595854961  0.6656759242249798  0.4155183734583205
  0.9097137378704147  0.0009536601519286  0.7548390290208029
  0.5797762679234836  0.8329952073829956  0.7502688536802576
  0.3275890988125091 -0.0022733064701372  0.3305984716878718
  0.4982548139976656  0.9175697468961908  0.9178627039371866
  0.1596317444749087  0.6655390902370156  0.3329472610050970
  0.6618346325668838  0.5815587454170013  0.0812596505701749
  0.6633844172133024  0.6655712631874870  0.3315926187005924
  0.7477685230650676  0.9177519309877337  0.1660535299721463
  0.6635874681187273  0.9148662888716435  0.2500223147406926
  0.7453876936083769  0.9198388774302471  0.3320163636328987
  0.2458213274930822  0.2511868378301714  0.8358451314937910
  0.7473669066669956  0.8325077838545345  0.4183370717807054
  0.2447703812344663  0.0844554698342236  0.8331824537606770
  0.9132967534774178  0.8313475601080291  0.5831933404152105
  0.1577732061392849  0.0821776498373076  0.5853335525994452
  0.2470189801534520  0.5003828674173059  0.9131987266619859
  0.8291892573096603  0.7475080683379808  0.0840204330551701
  0.0763388373467344  0.7487973551301879  0.3316643337513914
 -0.0077212097799142  0.0042645905143284  0.1672297079881097
  0.5779823654041262  0.3356451715708931  0.4158309098853217
  0.1620008611641241  0.3349816542925809  0.1675362052810474
  0.4965628502507707  0.1714139253834778  0.4993110233308921
  0.4945980497526754 -0.0007175609063672 -0.0011318880019240
  0.1602686169439292  0.3384147269928239  0.5001843404179689
  0.2420045285385147  0.1684686393947454  0.0844893959160987
  0.1591228196465071 -0.0001316225970484  0.4988650464443282
  0.8283582787761022  0.0848719405545671  0.2497531701756686
  0.2438518760786085  0.0010735545953161  0.9191469244220116
  0.5796145280258285  0.8316961992909946  0.5855965144155256
  0.8266440565450281  0.9155175687460768  0.4154956103490784
 -0.0054656303835614  0.4171197166064935  0.9179157525121695
  0.4959228816765433  0.4181156434775196  0.5857864248653545
  0.6627173132368955  0.7489615075430750  0.9165361499664387
  0.6631135685883439  0.0011207737201878  0.1635267005141007
  0.5790681282387751  0.7500320491597727  0.0011982501051782
  0.4976109366395282  0.0850871375328668  0.2513522661179229
  0.2457498262232441  0.4994768538771984  0.7531800339920524
  0.2443724158062226  0.0007330730978294  0.0813477970512828
  0.1619325255873840  0.0820623868185944  0.7515867985817241
  0.4947517219843661  0.6672578168489584 -0.0001883469076037
  0.2442697769001168  0.5825425872469490  0.8336355819504466
  0.2439697428325933  0.7452464835753881  0.5041333199649733
  0.4968996656069604  0.6640846822365565  0.8350702119144172
  0.2446481116042204  0.7485874665857118  0.1657325408763929
  0.3345897047614318 -0.0002122589015539  0.6690674194887773
  0.1625257335884898  0.4188334103971581  0.7506199757657360
  0.4968454488727326  0.2526185968254614  0.4174872177829718
  0.3291115714844433  0.5842862611308031  0.0837083442798427
 -0.0059327480372455  0.0004084611480132  0.4993479725646768
  0.3290091514268648  0.2520195011494861  0.2493747194760781
  0.4956896257516593  0.7520200255600777  0.2472829419849199
  0.5767119290201499  0.0840726958749834  0.6660562839292673
  0.3289273783838905  0.1683264615212360  0.6681660525573828
  0.8284157821080820  0.7479379710552895  0.5838054403211749
  0.4942443965206711  0.2489927769343282  0.9170434495083486
  0.4133851755796591  0.9175383071237840  0.6645121218684368
  0.4119146541428947 -0.0003817380808873  0.2471382091386716
  0.3279477038848991  0.4998420380233213  0.8346955738639238
  0.4173977303082577  0.9159684433056132  0.5009626819109868
  0.3288315089231801  0.1732240965276331  0.3318604597576388
  0.4115017036334134  0.8319965782383518  0.7537596316494222
  0.4110513924476047  0.4159947992965052  0.0012167805145529
  0.4110397244331143  0.8289057216362909  0.0818814248285610
 -0.0077895682052430  0.8313936820733081  0.4998607572517004
  0.4924449805137531  0.4994095532309181  0.1702226274199174
  0.8302446418433065  0.5022284409370189  0.0005022059757186
  0.5810574444609571  0.1669827332297952  0.0806255017344309
  0.4117539682519283  0.0035888183707520  0.7495351813227547
  0.3305533429519483  0.5838803309016866  0.2506155023238934
  0.6624410002420978  0.5831026317842625  0.9172328168055368
  0.4121289302100502  0.5000997648467361  0.7516464753096077
  0.4978522770122856  0.0851014616653477  0.4133032003299487
  0.4960849046873785  0.0835929209487809  0.9172414549490301
  0.4133435520596366  0.2496998543416693  0.8342162228061838
  0.6635239292662549  0.7478026704916647  0.2444308012584157
  0.4950514881423080  0.6670422019100385  0.1631262849822407
  0.4136283950767978  0.4995783439355025  0.4132035292935979
  0.7475953751464069  0.4215082037718275  0.5030896811009254
  0.2456665925634689  0.4989645020625988  0.4152114578124118
  0.3282138216874863  0.2524987586521577  0.4164358575269230
 -0.0046863895457423  0.7508003025372119  0.0840873224889960
  0.4148177963256123  0.4987842962921544  0.5862495105275071
  0.6638577676489036  0.6663490593879730  0.6673717941318833
  0.8284635724762683  0.5802414682389069  0.2498559516625110
  0.3317710170465273  0.3358513556807232  0.6646997238609667
  0.7470511409455165  0.7486935005483071  0.1655638922127164
  0.6643765631407260  0.6672820243284432  0.1666607683051007
  0.6612299601395814  0.1684872519374443 -0.0000267813549119
  0.2458271100900244  0.5808237386213032  0.4964972828114656
  0.0764265659575258  0.2523394388064927  0.6680999369680649
  0.6618368562480335  0.4180864998619195  0.9162210150638600
  0.4969304716027922  0.6649991482930221  0.6674775426833741
  0.7442703677187956  0.5830225391358811  0.5016701484312516
  0.3297793191242951  0.3343674526365841  0.0011984068133714
  0.4133891473136731  0.1675392341383368  0.7509311050040222
  0.6627924053073272  0.7490533555503949  0.5855296787041404
  0.7459804556364573  0.6656872035407690  0.7505241542477064
  0.6598021725743650  0.3377973959150891  0.8349613625433037
  0.6626059013448412 -0.0013154185078605  0.0003756335906458
  0.4155339015275857  0.1712161126857010  0.0820699619990082
  0.6633600758011172 -0.0034466207866356  0.3347269252248514
  0.5792526849735832  0.5840761649849429  0.5007403465889277
  0.1622079511972037  0.4167450345821967  0.0849596788274065
  0.4964886328604877  0.3331797642406991  0.1683393962298381
  0.4954656242794995  0.7456957558505188  0.4138814855177926
  0.4953527229092193  0.6667912691484971  0.3362554221300779
  0.6636051696176818  0.5846908558916344  0.2468940815357983
 -0.0067748203343282  0.8315438007074817  0.3326961127236421
  0.1605936093927606  0.9208691532176465  0.4165070025829374
  0.3254202768449564  0.9159322337954271  0.9172782182415700
  0.3284744965844208  0.6686334654440558  0.6658622512532001
  0.4954613976133670  0.4185661589084040  0.7520882985960495
  0.4971988373623041  0.0856108798652903  0.5874564054422055
  0.6589951231305522  0.1698828987667864  0.6675424621994162
  0.1659554664662813  0.9163279372972061  0.2480689557559646
  0.5764060975890896  0.0821498997492526  0.3338799401637394
  0.1623426926588536  0.0006794340922690  0.0006817693660650
  0.6608631273615303  0.3366269621610625 -0.0034603726930761
  0.3307544487633649  0.7439624909833851  0.4154077804175765
  0.6611499160283141  0.4174362579241735  0.4132757245531670
  0.4973583636652573  0.4183841935669851  0.4149623911894798
  0.2439312785610895  0.1694198788850612  0.9150043640096698
  0.8277917870221468  0.6654354913569438  0.6683428715289594
 -0.0048850416131028  0.2513593688086911  0.4157243081748169
  0.4931581058977926  0.4151243722114212  0.9175070532563797
  0.6616949414958033  0.5019955316309304 -0.0002227153303186
  0.5789246914463959  0.4173637597571946  0.8331834434062354
  0.3284010586620918  0.3341185295362658  0.1665833240161525
  0.5797611297934671  0.5842277423334292  0.8336001407521498
  0.3313827783906765  0.1728480520145478  0.4983923317916663
  0.4137764585325833  0.5847440209644903  0.5002474513661134
  0.4106426153697481  0.7485188408354213  0.8362962793059837
  0.9155076535689471  0.8324812548922066  0.0830302762190981
  0.2428789550463359  0.7480153236652043  0.0015178124576057
  0.9132168306842867  0.7493678432667376  0.3315851435449254
  0.3287914517449295  0.3360510565137648  0.4995923590260308
  0.7459622561449110  0.8322069120133250  0.7509892602828275
  0.6634131768147028  0.6653783089266665  0.4999734666379012
  0.0775484178992892  0.4992614097260523  0.0848537301440089
  0.5804973779586666  0.5843779535922435  0.0003471873227283
  0.2462529297306610  0.4180505471485342  0.3331436009800193
  0.1632940296069897  0.7478097159869576  0.7526483829105638
 -0.0068941241955834  0.5824338586964511  0.7510078972700266
  0.4969356711737657  0.2519039975640570  0.2471485169708812
  0.4085227077177401  0.5012364988069479  0.9170823544636686
  0.0785227137181719  0.0845726134212929  0.6649329639130389
  0.2442251811520809  0.9163644458116368  0.8353142493404706
  0.0772639057242011  0.4173991791694565  0.5009436164920945
  0.3260013040657233  0.0005770818546244 -0.0013905907631970
  0.0760198578969233  0.1661239209940607  0.5867213278622900
  0.1610288665403646  0.4155360251548817  0.9186063142477501
  0.0777586126629909  0.4995420039093729  0.5833294013679350
  0.8287824478691325  0.3339392229589437  0.8307290161148774
  0.0796392228998359  0.6663678036613003  0.4137747514876289
  0.1604909833552408  0.6657383469696406  0.1659487177723666
  0.8271153365911805  0.7497611476685607  0.4154469821678179
  0.9122810558335585  0.4164649972842840  0.3355166101614818
 -0.0067741165019061  0.7493628398171683  0.7504324306896256
  0.7481382790863110  0.0811519373599142  0.6662509541697171
  0.0760659806807288  0.6662268292648191  0.9144435437354203
  0.0777737437705351  0.4994092243275503  0.9179286595797991
  0.1618779532680470  0.3346870922219606  0.0000803727835937
  0.0771070570292947  0.8316750555482519  0.0837338989940310
 -0.0052661771561164  0.5780470851437576  0.4172845222965511
  0.0768023606180898  0.6664878153674541  0.5843785984420874
  0.3283763298374959  0.8313593944427931  0.3290189243044213
  0.1613356722834616  0.4975478199654529  0.1650161204225388
  0.9105784404172100  0.3346611672923566  0.4164976579918351
  0.9131625513093943  0.8312293243195591  0.7504244921519105
  0.9104272454112321  0.1668728146711370  0.5846664616137194
 -0.0046283489168955  0.2513725510124135  0.7488155868769235
 -0.0067382954683990  0.7498539196304707  0.5837165665826245
 -0.0071598478440068  0.9131921317632421  0.5815482669723903
  0.5775964667507892  0.2514610888191579  0.8342241568881013
  0.8292281995363553  0.9156939333459944  0.5835784861341545
  0.9161031693489455  0.2512982416989458  0.1636095332862193
  0.1593185668698563  0.9174775792371072  0.5811338354589236
 -0.0051269416837517  0.4178726748512124  0.7502604775795155
 -0.0055768360605979  0.0830977724080832  0.2462411490602485
  0.9116720875861668  0.5819446226563945  0.0003626951226988
  0.9117357194415074  0.4173581442751131  0.5013823868109801
  0.2502021474856995  0.1710198981319981  0.5871022375211632
  0.7431602437485039  0.1690004547802037  0.9172077707444022
 -0.0055098383594420  0.5815678437690873  0.2499927929485360
  0.7410815083314652  0.2491023320549672  0.1648615572886381
 -0.0069265011369849  0.8308317437067830  0.6680639302067699
  0.9113350647544279  0.4997998128144471  0.5836073378640869
  0.2446636558871211  0.9166799428972603  0.1655626754225280
  0.9114768431223019  0.1701551418432110  0.0825896483885274
  0.7451218172642110  0.5002481338553842  0.7510145789849860
  0.0756750175616189  0.8310990815138583  0.5818004497914466
  0.8292860718769766  0.3357800342839748 -0.0002933813647653
  0.8283664962139029  0.7529700429893010  0.9168019741103534
 -0.0046074916731546  0.3348060611209088 -0.0012337187251926
  0.0783979315481970  0.1729076605651969  0.4155873990536440
 -0.0065390318828348  0.2531415581541960  0.2479453852440424
  0.6633869924056944 -0.0035721372569151  0.6633155525391685
  0.0779761306892772  0.2513338185694872  0.1638972916889779
  0.3294907799140220  0.4157736357122446  0.0841973020991337
  0.4976610180242531  0.9162833541448586  0.5835481371054950
 -0.0059358217516371  0.7496197658144514  0.2510087104332768
  0.9093723362948571  0.1672696503542144  0.4157837022408754
  0.8309576104929285  0.5807193821524744  0.0815352019709980
  0.7495351224021075  0.7464235203416871  0.3318539999494516
  0.9094981338548440  0.0843499066305947  0.3343040069979591
  0.0790604428015005  0.0842072922835930  0.8342220581147864
  0.1631723126614512  0.2514984733782266  0.9177102136433350
  0.0818566373132668  0.1691225321850726  0.9157848001618005
  0.3287646744494384  0.4175242483642501  0.5828420780206379
  0.7450055767983071  0.5010188829604026  0.5837174357749423
  0.1625703913297919  0.0839131649314614  0.2487387592177161
  0.9079469574027882  0.1679855437645877  0.9173632491465517
  0.8319811715285613  0.3351790456807442  0.6671169207555305
  0.0791846434975265 -0.0006673037994431  0.4155663613852510
 -0.0050165220902546  0.3332295107920887  0.1678159978216674
  0.1584667398580707  0.9162449061332107  0.7543710668022547
 -0.0038013090533799 -0.0004095442273511 -0.0005895460104065
  0.1601486204327539  0.2524766598374432  0.4150124345707268
  0.8298853767526048  0.9134882229816873  0.9173427410681561
  0.0791249622569715  0.9145264335786216  0.8347959355322324
  0.0743336928670064  0.8283381672524469  0.4148887866370000
 -0.0039641309013018  0.7482531322339319  0.9173357816414929
  0.7480899272044671  0.5833047601683651  0.3326042169485783
  0.4125060293554897  0.1695295599387331  0.9153974746900178
  0.9126464919247517  0.5822123924094045  0.8327981626708303
  0.0782791586636037  0.1684796521694798  0.0834493233570751
  0.9128991007913440  0.4157433227742386  0.1661921797990864
  0.8252814703602941  0.0845454384216979  0.0818100315073453
  0.8279395331755146  0.2519615883460906  0.7515856217228440
  0.7435361714100686  0.2499045051581827  0.3339150335812815
  0.6652698011648543  0.0859110460678644  0.3342067592901627
 -0.0064205561028660  0.2505979042825069  0.5049065330307091
  0.5808726886526246  0.1700332824542793  0.3355579717638515
  0.9937322232370198  0.9132868792858961  0.1662117884217799
  0.3308140916992929  0.8336695418303940  0.4178138476857918
  0.4114591043081818  0.0051174121924847  0.5001523543121577
  0.9988560249534556  0.0009038006410862  0.7509674337876309
  0.6625743724661829  0.9115113784495216  0.8357122785492316
  0.6610049330476316  0.3348358744087165  0.0868914155311583
  0.9111474071808443  0.0017166281270269  0.6631681796344482
  0.8300071449744050  0.0033852063855218  0.9185301198105296
  0.2431837406514692  0.1668918450560573  0.4972582497423885
  0.1622296254220105  0.1722646118820145  0.7502852768817964
  0.2404831675971387  0.8307333785261027  0.6659775189480867
  0.0782701608209011  0.0857651824391924  0.4161938834630119
  0.0746925216304862  0.9141481881377572  0.4152440849165080
  0.2502592720287540  0.9192904987635246  0.4150057902836047
  0.9947507405557098  0.1682387896537781  0.9170301672757025
  0.4148909146364023  0.9179952319017548  0.7511660807214314
  0.0803321991480046  0.8316671567305821  0.6703660360803705
  0.4110859527683517  0.0805343147728532  0.0826277569767954
  0.0741689718866006  0.9161060399210066  0.2487432834676181
  0.0752555561841670  0.6654671396683113  0.0031759299308927
  0.8261485463843153  0.0818383800176861  0.8337843932594399
  0.7481909361178484  0.1699357895308471  0.6668626875404875
  0.2408507276846062  0.3361471994165355  0.6680754996259046
  0.6628028779833920  0.0833138030201030  0.6668350445668760
  0.4962509685270243  0.9147009950138149  0.3323168381558215
  0.4947795789416939  0.4999799990269436  0.0806110858785307
  0.2392517375670264  0.9131317648263958  0.9221606543324989
  0.4168861391593837  0.8301903116137704  0.6666881316629698
  0.3301083761065400  0.5785693078994395  0.6678653330050115
  0.8285513140757748  0.2512085741365045  0.1660931902930727
  0.2421922505527144  0.0000778809365296  0.6670313135917800
  0.1626149399314032  0.1691279244814316  0.5844609153781785
  0.2445546882976174  0.5815947383082150  0.5862854819613760
  0.3276280596807540  0.0851764037494214  0.3318850699739730
  0.2457757759135457  0.8356762627266424  0.5014265092889331
  0.1623471161304075  0.8318770322256569  0.4155140611550968
  0.2405708425341572  0.5823058871030125  0.2502402931732980
  0.9142702538549440  0.0812549175805169  0.0825486522734735
  0.6631931579746614  0.2541873797150893  0.4993861142200032
  0.4133189975981933  0.8262394706399239  0.5005866444359688
  0.2442607625162515  0.7482385027070271  0.4161285491775166
  0.6602802576168925  0.5799974810960603  0.3344272521703897
  0.6646618280904140  0.3352834939646335  0.5865009357693173
  0.3268172900210525  0.9171413824120516  0.5004044672339746
  0.8266239594393390  0.8368113271922594  0.0835939708345356
  0.7463344083637182  0.8330551280940474  0.3317843803481879
  0.4111119274369605  0.9190487986702248  0.0830903568937234
  0.4954802167046096  0.6654283933571451  0.2494381546794218
  0.9145245483724711  0.1710645941440920  0.8309456495510972
  0.9977999734889523  0.0828564290861954  0.3350090927056026
  0.4964453061529789  0.5030286458250013  0.9173126924909977
  0.4990552017739176  0.7528009592553805  0.8350406676056580
 -0.0088989547721660  0.6659217565140195  0.4171646211268670
  0.5829761814700061  0.4993788067822033  0.1667297241056744
  0.4970188696097135  0.0838778573421412  0.5005949098017533
  0.7484930105665112 -0.0025844743597476  0.8330789871701854
  0.1614924432618701  0.2501852400493695  0.5034525228127147
  0.2476069377973466  0.9149869573483564  0.7476456226616882
  0.7412400763869217  0.3348256896366079  0.6678486452629601
  0.7457133202150976  0.3305896823166047  0.5000882622977049
  0.4948820990286061  0.0829843233010313  0.1620066722588238
  0.2448244233835882  0.5012435839584848  0.0032558861190723
  0.4120254380986837  0.7449408904705060  0.7481966730923896
  0.4149037231982778  0.0005344238747773  0.3348567625503275
  0.6625509648146991 -0.0011160144000617  0.7498056847977167
  0.4119674261971054  0.9146619343400850  0.9170875133128001
  0.8267608214605685  0.3342814674578586  0.2506916815005820
  0.0823650082430189  0.0007042394511759  0.1652264709126667
  0.8290280207954545  0.6627581944803507  0.9154521994236106
 -0.0933956103148446  0.2502067866192163  0.2519508569646225
  0.5810204868560180  0.8312906572389017  0.4955964406153680
  0.6590537781952931  0.4188971067621834  0.5029622882580914
  0.6624454427333507  0.0016227894086016  0.2493606700339628
  0.6620793312452177  0.7515616687640069  0.3333324804373350
  0.3280702591088884  0.0818562885275083  0.4987587395078771
  0.1606862855680387  0.5825011399147849  0.6637721866767929
  0.2478053190361658  0.0820703833555462  0.5827571070154053
  0.3281648937217544  0.3340083936440461  0.7550898142495368
  0.0788433781481637  0.2506404154039585  0.2506712901582991
  0.3288459416119607  0.1677268831004999  0.0841668180873368
  0.9951000889918258  0.9186368162426130  0.6703888914062496
  0.4130944456155056  0.4982642348733811  0.4996773709406618
  0.6601935953367036  0.9139516571325214  0.1624556918845793
  0.9122525302028428  0.3347160232624320  0.0825616006021548
  0.9116172927826849  0.1657083307136406  0.2494552116997790
  0.9115708721338107  0.2505804278568238  0.3362279760897476
  0.0805688237242951  0.0002609464863806  0.7516814683454338
  0.0771095712687858 -0.0009950685115359  0.5823210590287921
  0.4126003042015626  0.3327911739562975  0.0846950812875119
  0.4120817574944593  0.1699651539376279  0.5841123672858337
  0.8278689696111203  0.1667762978960698  0.1656810837783488
  0.8275129422013162  0.1684190784122138  0.3324037613340810
 -0.0052195156932372  0.1692556358275961  0.3326747091096746
  0.8271658905092151  0.1689897665896188  0.0001209807927295
  0.4140050321529920  0.0008744414132723  0.4165215590772668
  0.8276511812892932  0.2517321222736688  0.0810441616725971
  0.7450384005483576  0.1662745546326614  0.5834242103974673
  0.1612281834354377  0.0005762605544607  0.8353057147737792
  0.1613324480169633  0.3347039056638064  0.8347244757127967
  0.2443285261685695  0.0853382925697939 -0.0005330612909491
  0.9119692161305684  0.1679486430378269  0.7498580159073791
  0.3283271097481248  0.1681526619728672 -0.0016262469736507
  0.2446872176560208  0.1693503333955430  0.2494348459878118
  0.5797545586548143  0.9160048048182793  0.6666379677391828
  0.8287349048549798 -0.0003221308674664  0.4989567302545443
  0.2451502380723532  0.3330171123423802  0.0830284099231703
 -0.0063453198369904  0.1671712744238237  0.5007929549604641
  0.0782038790313122  0.3349076684807633  0.0831977922836980
 -0.0033485259498619 -0.0001448557234137  0.8354388587539759
  0.0783188533339214  0.4169412442633846  0.0006429243688077
  0.3314067065936060  0.0851419304503223  0.5863907448682120
  0.0784385643605903  0.0003338214415286  0.0810174011750792
  0.6626426101048561  0.9162286044895250  0.0806605694599930
  0.9116588846746105  0.0845168272801948 -0.0014482025263763
  0.2448814782409348  0.2520146538705296  0.1662510839305761
  0.7462990983541915  0.9162421309901496 -0.0002481358986891
  0.5804886383458675  0.7469485739365332  0.4997628223683623
  0.8290825961003733  0.4991109939023631  0.1664519897693878
  0.8280433599814691  0.2505202962467537  0.4170984313223292
  0.8286903180515347  0.4170424743743129  0.9165270746068818
  0.1618388421589520  0.1680293574818072 -0.0000847006573456
  0.9120262799504828  0.4181572076430102  0.6671439725220265
  0.3262794287799117  0.0841210885057807  0.0821111231450727
  0.1624383690885292  0.0851620212250128  0.0824624701133910
  0.9127434434339734  0.4982313398641964  0.0839671351883663
 -0.0051602798545133  0.8313339413465139  0.8343830549885973
  0.9105880847764360  0.0850679039481928  0.1668632978977048
  0.2443701846126132  0.1701831959845483  0.4141737810081043
  0.3287363515944910  0.1688255956895932  0.1681389355517574
 -0.0061776121678292  0.0003424191936168  0.3326798707141975
  0.2451582517872155  0.2507345837571801  0.0004055529095839
 -0.0044916811905693  0.0018154286188941  0.6660788792488314
  0.9110260727691872  0.0840901674153864  0.4997008825797636
  0.2451480161325078  0.0008553727228087  0.7523114305162576
  0.2433034207032928  0.0853754018845897  0.3320185817661274
  0.0784931825720712  0.2517384644953155  0.3338897156233056
  0.8293737762416749  0.1671485015014013  0.5003440365169489
 -0.0049244313751131  0.4161698017228775  0.0827909011722561
  0.3288181862131498  0.0842976866721428  0.2483684464113148
  0.9116021823653355  0.4170194989109273 -0.0002686358881351
  0.8281926622516530  0.3354845786949291  0.1653726442668258
  0.0777639604588799  0.2517006671252487  0.5019016675536095
  0.9116410234844399  0.3366297601601719  0.2517335170741798
  0.9116941871727476  0.6662080782892125  0.0837071520593477
  0.8270765963012576  0.4173386103278088  0.4174032250308903
  0.8308798434859801  0.1680556452854119  0.6678682891070790
  0.7438963784897514  0.1683590296851681  0.7524480454431993
 -0.0057768195697006  0.4179363364437388  0.5840983605859825
  0.8294498820392483  0.4190322538894473  0.5844390031835587
  0.2456648476646124  0.0004592802358017  0.2486666034188336
  0.0795080372414939  0.0856045727252002  0.1650993716332539
  0.9120932421274042  0.4168796907603421  0.8327985047934273
 -0.0042774783228023  0.3354266191492543  0.8332395689748853
  0.5771621589419770  0.4181895615138149  0.6690551819635947
  0.8285903213882794  0.4171660412666545  0.7500747775208904
  0.8295002609851796  0.2504205768706515  0.5846062302293284
  0.5801575392230038  0.6657301419127688  0.4155293703854542
  0.2464264040709995  0.2534867787044037  0.4999923762025257
  0.6631066947676256  0.6662498927584986  0.8338670011055508
  0.7463973548304531  0.7491946223103710  0.0000627875182870
  0.1616906583653573  0.4996600031182656  0.3330623453808534
  0.6629451277466314  0.6662899107646004  0.0002817813350495
  0.8293273547181065  0.8326470986122988  0.1671907046329599
  0.7468791816299060  0.5828689953850539  0.1654712751202960
  0.1592751137173672  0.5823166874481216  0.2492553423504359
  0.2458391743832997  0.3346192917823895  0.2508389224927274
  0.7490281403069692  0.6650866288463759  0.2480727709684954
  0.6627122259213856  0.5829958327336094  0.4185231383272894
  0.2434470585063044  0.9157451312063616  0.0035853367783863
  0.5784772919629675  0.5011910842342721  0.7519132575306537
  0.1622479851088244  0.4176455957206122  0.2495492225944962
  0.1617260153978535  0.4175828351260967  0.4162804454033052
  0.1620740339908658  0.1681820776745705  0.1666274606063444
  0.6631331337492056  0.8316498707205300  0.0000028740542792
  0.8272440778192153  0.2527458944224117  0.9165014612323814
  0.6619309979450955  0.5838988857043264  0.5846855605470576
  0.3288970508694016  0.4170548300473531  0.2498238278694669
  0.7461524256182113  0.4998303070859315  0.2491332714723325
  0.5768696854232150  0.5833831819653369  0.3317227378023608
  0.1613272861509212  0.2534099308443314  0.5865331178076282
  0.7451065567266395  0.4999859052359622  0.4171590565125722
  0.7469250422625276  0.6653464092067873  0.4163197987901699
  0.6616266328155602  0.3341796357716966  0.1684117444978363
  0.1619608649416094  0.3353806560079398  0.3334445807526984
  0.7453532773694589  0.6657517076359482  0.5846589271546651
 -0.0052122636596875  0.3355794503032534  0.6676680483629298
  0.8285240841371653  0.5823364582503739  0.7500886362520094
  0.6629420483980762  0.5834637991185054  0.7506228549327323
  0.6620270643446875  0.5006245413715126  0.8341115659636066
  0.6621788843162225  0.4186348665901874  0.0821902451215811
  0.3293357368532957  0.4173953541282950  0.4160095619537458
  0.7468154156432217  0.4999382059498664  0.0826046146670983
  0.4954502512035884  0.2503049236985043  0.7513534254445833
  0.4961331639888422  0.0840047145411915  0.7503654877204542
  0.8290967060948732  0.4168842549273304  0.0826038910144841
  0.8284307114309759  0.0015473773390662  0.1659176251061482
  0.6624893216020016  0.9141502510900806  0.7497127214991208
  0.7466725571328844  0.9156853021186151  0.5004466567826652
  0.7466625057829770  0.9145353381191843  0.6662450214756945
  0.1588635698102384  0.1669955120705409  0.5001113744998410
  0.6617629792280811  0.9162544123367289  0.9194637330404288
  0.4993152132668101  0.8324022122007976  0.6676734421044915
  0.7469720040351355  0.9135989047054067  0.8349334987881007
  0.7460248729837795  0.8320420873648258  0.9179256147589226
  0.7466539005036288  0.7484045181520472  0.5010695527796034
  0.8294095638159840 -0.0003660436335439  0.0009865819387806
  0.1602768605625062  0.8323558538605312  0.6680673709484044
  0.6648739997741208  0.8315795206438169  0.5006906538955218
  0.5800417609826537  0.6664930797656130  0.9178804987699799
  0.3304333680336243  0.2532325129106591  0.5835213856011000
  0.5802609047566037  0.6662678046567403  0.2480024331511385
  0.5798049330641654 -0.0006906982778417  0.4173805911332215
  0.5796882016028044  0.8319705719797248  0.4140197942149411
  0.1606410915556063  0.8312342035411429  0.0011085507153568
  0.2452297756965963  0.0021028459879508  0.4152664320013811
  0.5817367392178135  0.7490239027241161  0.8337454233308587
 -0.0061878804025783  0.4991947186471283  0.3332688615779872
  0.7447425363451767  0.6665847713508324  0.9174413171537226
  0.6611075657686422  0.4202817041503540  0.5863774078787533
  0.1617720189037940  0.2539005777559628  0.7507182733910105
  0.7434229333200709  0.2526384239759150  0.8347508714599057
  0.0795373241860429  0.0847713039984094  0.0000236250862192
  0.9119978284435831  0.2514433630427427  0.6684563999682999
  0.6633942567583683  0.8308127986171565  0.1652020911620899
 -0.0059459534284614  0.1669823272595846  0.6677590931064568