Cr H  Ni
 1.0000000000000000
    21.1200000000000010    0.0000000000000000    0.0000000000000000
     0.0000000000000000   21.1200000000000010    0.0000000000000000
     0.0000000000000000    0.0000000000000000   21.1200000000000010
 Cr  H   Ni 
 259  86 605
Direct
  0.5808413862078881  0.1676400603522204  0.7493401638426879
  0.5804345813048376  0.9170565028702155  0.6659583351019288
  0.7464230328983976  0.1693606169109436  0.4160187104477593
  0.7439688778989207  0.4174229070897417  0.1645992813894024
  0.2480617720069863  0.6675050290152658  0.4164708690062759
  0.6638084181576426  0.1658446018167770  0.0028794263619596
  0.6633103956847290  0.2515277194798232  0.5833594663441068
  0.5815313231807959  0.2506587647670303  0.3331588175950503
  0.7482456682285060  0.2490664108654298  0.8337869726791151
  0.6667158777868338  0.2513593034310351  0.4166611031778868
  0.2481536512757667  0.5817941993060457 -0.0026352558125677
  0.2494163074984961  0.4995214763652473  0.4156494652384320
  0.6606613718549493  0.0843044280104257  0.2486640302021829
  0.7433314942578187  0.2503251231006146  0.3336622465933663
  0.1650518097132198  0.5791446228653516  0.5814055117454090
  0.8302406102067097  0.1659292249759403  0.6624154750517823
  0.2471868978956563  0.4148114470531784  0.1676714986333522
  0.7457840660050361  0.0000013283850582  0.7500347053461558
  0.7440583055107703  0.5001139324677271  0.0831537977143406
  0.1652024942692126  0.7540936078197799  0.5835127998553747
  0.3302138875951627  0.5835189507411331  0.2491395007683752
  0.5816250553086115  0.9152763348742343  0.3316343370388440
  0.1653659508570059  0.6668053182451275  0.8335856999740001
  0.4998738602709986  0.0008032776528786  0.6628532924327823
  0.6638921430856157  0.0849772157569002  0.9198423857083406
  0.5794054094680936  0.9185024420378740  0.8358635708873398
  0.5801056826463868  0.8342423931976781  0.0832852842534959
  0.3325190373329832  0.1666899218657032  0.1694405900850282
  0.5798868319287499  0.9163038296933624  0.1680047106870048
  0.1667884443589010  0.5845102680847740  0.7569459729023389
  0.5766002178927816  0.7501463973018633  0.6687978538955213
  0.3298324813813534  0.7487720624513314  0.4169607852202941
  0.4977600315409000  0.9153039224732971  0.9171965945044230
  0.9136010925592462  0.0011707920586314  0.2513458100713110
  0.9171065709388975  0.5810116822471947  0.6660504204418731
  0.1661429647827984  0.3348915505910751  0.1675591033220356
  0.7484735403299418  0.0836255457425983  0.1641737650298259
  0.5808081699546090  0.0851121357744362  0.0014025402695539
  0.7482051877151945  0.1674927167915643  0.0855077515809066
  0.4091402475383968  0.1666726429611037  0.4133828308629833
  0.2484566503514693  0.4995903741904204  0.9170843978822079
  0.5795846231173305 -0.0007551065052042  0.4105677863026835
  0.0778164360359392  0.6675588858413535  0.2466330062887531
  0.5808872790196028  0.0870868170437061  0.4982557496639101
  0.6609717424292724  0.6689491871165111 -0.0014035384786615
  0.1657342417313006  0.7505018308252722  0.4172378549855408
  0.6636835382119661  0.7489222356623163  0.0793840253786918
  0.7468681584317750  0.4176170795598442  0.3319919077675162
  0.7468275270581027  0.9195464317569082  0.1687246145997070
  0.6639238673210661  0.9171669531339061  0.2501856099832963
  0.7473011457738171  0.9170957152211495  0.3335986717405148
  0.1666354910915396  0.2540394805120252  0.7510355249185540
  0.6667395997032197  0.8304882589291871  0.4955335223921243
  0.5853290336332785  0.1687455077365370  0.4151998527157228
  0.0817246736008204  0.1677522858595760  0.7509653073261625
  0.7459578513354165  0.8333956525836330  0.7503718887924565
  0.1659230255610769  0.2505322875338756  0.5811352700742018
  0.1644712802978060  0.0816921914702036  0.5799787498126069
  0.8309955366632741  0.0018918979892239  0.3338895660646181
  0.9142759047881857  0.0841886755299365  0.1670259921618694
  0.9138780194035351 -0.0014261043230206  0.0846264739375141
  0.2480281212076774  0.2518265210500364  0.1684226165209802
  0.8309996639897230  0.0837835255940672  0.4168877681655373
  0.0797122787705842  0.0811592520116953  0.0036508436195533
  0.6639769600949148  0.8330118146457471  0.0035160381870052
  0.6645846804942920  0.4987578758244737  0.3355525897574733
  0.3319392523424502  0.1703090178823129  0.6643452938236283
  0.4157616230606640  0.7502044066681766 -0.0000461718297025
  0.4956381805841715  0.7474958007270434  0.2512298179716074
  0.4157154101968651  0.3370041879123782  0.4173049999253685
  0.4142082510472510  0.5001909489292953  0.9130564384937517
  0.4133936299885726  0.2505722688179792  0.1680869017604181
  0.3309548520901003  0.5004464256167219  0.6657807780541025
  0.2477000139152341  0.5001565075293821  0.5842707015252283
  0.3326477781304018  0.3330407846127492  0.8351968601762902
  0.4146576946340385  0.5001586331012648  0.7491040568193910
  0.6637497969677562  0.8358429638721095  0.6697861318315442
  0.5819431923486921  0.1665123592834191  0.0834488960713466
  0.4141738575492875  0.2501563477034475  0.8341769346890575
  0.4987518056867319  0.0006541937132856  0.8356159873825206
  0.4148153828058487  0.6671918832169230  0.2491984549221919
  0.6600833275066271  0.3325645667268516  0.6664062658815905
  0.7485820417514151  0.7504568582023838  0.6676617049306088
  0.4127995862682213  0.1674075957372448  0.0853590222813073
  0.3319616898149247  0.9174983395398569  0.2466384072737463
  0.3329694831951317  0.7484744027457327  0.2492109736100008
  0.3309971969491330  0.6672131125371938  0.8345720946922062
  0.3303888664698204  0.6670807632346760  0.6660609988596722
  0.4128983305524994  0.1672419540518478  0.2511634040659499
  0.3294511250680794  0.9146181465838567  0.7492471912781432
  0.2493482318629894  0.5832888540803544  0.8314396090470034
  0.4986572219746557  0.9168289335225663  0.0846519758779554
  0.3306297730988487  0.8335767650430382  0.6676146048010084
  0.9128639810170337  0.0006332026337828  0.4161075045818471
  0.7447371319293875  0.4993842817715044  0.9156929492080730
  0.4115569261847131  0.0010460289287879  0.7505619336442551
  0.4144774454555726 -0.0001630980700049  0.9167517374864608
  0.5803395368840182  0.0847013122906855  0.8338616266052293
  0.4118146410815500  0.2495321197204628  0.6682600073203497
  0.6661081743767497  0.2470694452066617  0.9178686522316211
  0.3304312740106196  0.1683386972605858  0.3319712889677637
  0.3307314783219217  0.5831399676252881  0.5844977165806184
  0.7470366884353739  0.4162409022462388  0.8331758462930439
  0.6636942689347418  0.6635383184277815  0.3328850222318528
  0.2439510769749679  0.2495975079601764  0.4997846965390970
  0.3330864809470658  0.3336649611437808 -0.0004707133253944
  0.6660403086112460  0.7478047075502180  0.5808992159772329
  0.5782200833781962  0.7500439189186472  0.8345986115311300
  0.7459164400193329  0.5842247150639104  0.8316390004548738
  0.5811180609309190 -0.0020814786454408  0.0853691977062930
  0.3326224979338888  0.3321330360390431  0.6676200725627092
  0.6647106449879702  0.7473730799581232  0.4199188800186612
  0.3321721487576448  0.0865514154558670  0.9172646971687385
  0.1659764805754655  0.4155549998010911  0.7516482293215578
  0.7500722413963554  0.7453862958707110  0.1670019713881315
  0.4130894229923073  0.5861071247925399  0.0001235123341221
  0.2490897649407124  0.4183212573268810  0.4980387145147335
  0.4174120266679974  0.6656124291266436  0.0827960503820816
  0.2518036166850652  0.6663439957158617  0.5849708321169126
  0.6640699542607923  0.7500011676698408  0.2501644707242665
  0.3300760670167048  0.4189726097416305  0.4160739445664697
  0.4142486373030704  0.1693313086079811  0.5825209084334902
  0.6626712400949968  0.4989426750412361  0.5007053610303130
  0.4150683062804206  0.3310609498428843  0.5818861500733593
  0.3310709713274567  0.5009278574187396  0.1674827737194372
  0.7463195207196508  0.6680990267651140  0.0855353603178817
  0.4952596999792054  0.3298626806306238  0.6613775981389772
  0.4935728428630524 -0.0001718769386497  0.4981394998973140
  0.4102054211320197  0.0852101916867405  0.1681431963303552
  0.5803446721069312  0.4169567529675398  0.5011843152077421
  0.5820472145787734  0.5810435759559677  0.4998086882076739
  0.4983564598968829  0.4149817209168642  0.2495987053813439
  0.5806706792122196  0.2479001627748019  0.0059712009690530
  0.4980513903938955  0.6677469644849219  0.6688752040143227
  0.5828264492200644  0.3324574649300148  0.4148749105501006
  0.1664328291942553  0.8334297426183345  0.3326764903190110
  0.6638908342477737  0.4999676343756571  0.6664278326790319
  0.1638862074075477  0.5802444736068357  0.2515934425723415
  0.6632111934621783  0.4998934930598377 -0.0005603978856239
  0.1669351486850942  0.8309402164317519  0.1672015069281178
  0.5797038880268115  0.5829567405317116  0.8327155077768195
  0.2486550215889916  0.8331866831799768  0.0837007930647382
  0.4959969933906870  0.7493209576689995  0.0808893535325277
  0.1654575935111445  0.4151722674518955  0.0821080717696475
  0.4968266782089322  0.5840592656031363  0.2520347726082280
  0.4958930355283653  0.7492893877127335  0.4161970636549400
  0.4978999062022594  0.6660807654021760  0.3339669593280818
  0.7481486995434967  0.5830546398798495  0.5005197552456619
  0.7492904882825701  0.6650631684628595  0.4168432674041974
  0.1671432189599083  0.9154616372485094  0.4131299114096773
  0.5803164235910563  0.8330918694426298  0.2497320751692661
  0.4968563778471698  0.7506074987710378  0.9143926514248515
  0.2466553268129837  0.8334643254018729  0.5835031285776544
  0.5792543617342867  0.5829019931987114  0.3328840902609487
  0.4918350131163725  0.5000555160456542  0.6680641825607486
  0.5803177825324931  0.0849218581995954  0.6657637248568610
  0.4949566682152862  0.1672216106763526  0.6667327185484340
  0.4975207344671603  0.2492857982381763  0.5802132981856947
  0.4982048525787912  0.1656998755213671  0.8336096460835268
  0.5795747242508892  0.2469938712295789  0.8306793015419056
  0.4983370937395178 -0.0008125253581829  0.3332961862928047
  0.4974066198999907  0.4151002249787807  0.0843271117594377
  0.2484971639186798  0.8323368881304762  0.9171452141970147
 -0.0027070126780754  0.6679316216073787  0.6670495690667420
 -0.0050333366853780  0.6625777287400366  0.3333830743994434
  0.3319116731785695 -0.0014829289088408  0.0037074717184338
  0.4139686680112493  0.4165546882085645  0.4979002429110178
  0.7466281720217515  0.0009406043563371  0.5828849093476278
  0.5807696180791615  0.4996835430954953  0.5800674879760460
 -0.0027516357327364  0.4977250250299195  0.1665492511053795
  0.4940162114671866  0.5833873261477261  0.0835734163888782
  0.2475890046287406  0.4190281883256919  0.3348610291250651
  0.1652000956298012  0.7491066202157358  0.7523087332435039
 -0.0027954845071139  0.4156768593655940  0.7511305040210843
  0.4148443583790529  0.3363125414257251  0.2489860852402347
  0.5791928777246239  0.4170947134799221  0.8330987798113944
  0.8271523150674198  0.0820819393546056  0.7483938560823951
  0.0817549446757429 -0.0005446656115118  0.7519467178466607
  0.0804591159242004  0.3339548959504842  0.4154403523336644
  0.1664679602777458  0.4193626445030162  0.5843738615264419
  0.0788669379778353  0.4995683807649339  0.4160787240858197
  0.1652446318719168  0.3338252590312779  0.8321882484852769
  0.1648533716081695  0.4982900939870034  0.6685881525872442
  0.0000252420232678  0.3340892875876897  0.8321673163317377
  0.0802994065965074  0.6658465792783718  0.4193507284306010
  0.1652524219237165  0.6692923625300576  0.1643936367803721
 -0.0033256821430200  0.8340263793832723  0.5016266506390369
  0.9147276467295590  0.4182574380959551  0.3331031674378953
 -0.0026720879751662  0.6650713861748725  0.8335355120171800
  0.8303653513268225  0.0848738526876180  0.5831025365278902
  0.0848409574623853  0.5788387730262194 -0.0038017457080479
  0.0824486383933952  0.4994996585361631  0.9163744883884576
  0.1653407038183565  0.3339683852148959  0.0009922103240204
 -0.0022636604693361  0.7486841119537934  0.2462936818913426
  0.4124399402560370  0.9163391477850283  0.4999990896895380
  0.9112127513930035  0.8341107729031487  0.0853154573404599
 -0.0016981269763827  0.1685896969498997  0.3342465690867294
 -0.0029041889346405  0.7515338516806783  0.7482567530916190
  0.0812495128750099  0.7541411653533451  0.0026669054218835
  0.1651056800938244  0.9170633532418521  0.2531902644616135
  0.7469355843522497  0.6659335039720030  0.7512268258742639
  0.1639725410340092  0.9172262546049159  0.5828008481617618
  0.0821134098772086  0.8346448026166635  0.5828989041012227
  0.9127632977275666  0.5826353401377733  0.0007788462029699
  0.8310122339224036  0.7551433606571357  0.9152853345956852
 -0.0006405671191774  0.4163736913473642  0.0846805718046052
  0.9176214651564185  0.2500382895427550  0.3339421682240524
  0.9105002394482652  0.0833429445850784  0.8343720161675385
  0.9096409948172832  0.0858130334819290  0.6620707605102866
  0.9152487784151732  0.2512868238606960  0.5001398191655226
  0.8321572517032070  0.2509442215487611  0.2470162032872934
 -0.0002102789718426  0.8340698582371823  0.6662078841350370
  0.8304029811199225  0.4141538155736664  0.0813868461014010
  0.9115933946050457  0.9180729317356666  0.8341881066960427
  0.8306929348554375  0.5819004321812331  0.2505892576134525
  0.0831915660235404  0.9174430574894255  0.0008067859949606
 -0.0003258678102819  0.9159141454140746  0.5833093041390937
 -0.0023193315162077  0.3335334169246596 -0.0014104251899151
  0.1649605513865910 -0.0026685612544677  0.0029352514130819
  0.8293308649266284  0.9188945232383130  0.4137955756627898
 -0.0044330826417828  0.1670270386696804  0.1676588314617652
  0.8295394934637685  0.5816375707132750  0.5821614848832120
  0.9151241975941220  0.4151910088135139  0.5002018822036005
  0.0821468738237306  0.1680416719461617  0.4153955965968720
  0.8341267323724777  0.3336266864577777  0.6651616145501990
  0.8292465556772198  0.7478429360796707  0.5837504497729269
 -0.0029526496196269  0.2538971350262620  0.7504783476824132
 -0.0005222103370738  0.0815991248248140  0.5796071862752378
  0.3310857960542388 -0.0041139975572441  0.4995028293273632
 -0.0011499774883890  0.1684085217531276  0.4992077594899551
 -0.0016140617905823  0.0003305795872901  0.5014082670500193
 -0.0047556560294231  0.0004714103841005  0.3371505487889104
  0.0817430894239271 -0.0022326577921460  0.5822495147877265
  0.0817599945664403  0.0837008763465228  0.8301352895800206
 -0.0033632445306324  0.1667135509184303  0.0019110662516351
  0.0817103261064994  0.1693436624653889  0.9131442593977416
  0.0820014638392461  0.2540465123178557  0.1675795981961468
  0.8296083895002951  0.1645627163186604  0.8353831127448756
  0.0807788915498737  0.0814114255047332  0.1676670377306814
  0.1639460567756665  0.1672986263571700  0.3344774283498280
  0.8306830591013643  0.3377499164311490  0.0008796183759006
 -0.0008689988778458  0.8341677200006640  0.3330625919187966
 -0.0025745506517210  0.6666143038348282  0.1682510743967224
 -0.0023460001746340  0.2500403402103208  0.5804418284440794
  0.4155254328560346  0.4165839876653325  0.1672758574883940
  0.9126365641747456 -0.0043706657845300  0.9175343096472696
  0.0797564275209062  0.1678998579467601  0.0843958660847124
  0.8305247604987269  0.9171951593057184  0.9173519013065319
  0.0809217689340354  0.9169043462986072  0.8310837523968535
  0.2508306269726305  0.0867186404134765  0.8338367997118732
  0.8304635203185532  0.5858878580559381  0.0859712309038122
  0.8300226405542263  0.5821810215084493  0.4169725186041510
  0.8323362691095927  0.3343577554797259  0.4985807091710471
  0.8273801345342737  0.4970326526457457 -0.0025665938308689
  0.0812432202441089  0.9160719288199671  0.1697137659531254
 -0.0023925097265135  0.2510499093068215  0.2506469976358021
  0.8286674200337989  0.1632056842809473  0.0023924627857974
  0.0807862282730986  0.2533510672273532 -0.0013650522728340
  0.9129384204490241  0.3328685167984604  0.9190371682750014
  0.6646425971101908  0.8352854173996339  0.9133246096268621
  0.5836916790611056  0.5823397394706746  0.0834691133120516
  0.1600459680892315  0.4171675228052834  0.4962563676998126
 -0.0814376114461787  0.5823335713214828  0.5782117442458913
  0.8311510336611440  0.6645195452323689  0.9145500281354185
  0.5792833508868048  0.2508956209722257  0.9185004842866287
  0.6646249282610465  0.9214425896171428  0.4984932574252560
  0.5760449359411554  0.8337066707485303  0.4987419063143694
  0.0826214723957034  0.1675079743377647  0.1697618365416757
  0.4173999401983786  0.9128771632056623  0.7493390227812400
  0.9163456920951570  0.4963133734540994 -0.0013326234751910
  1.0012217010815812  0.8339199922709488  0.0840940962078358
  0.0841029055777262  0.6682904810957306  0.6669978827384277
  0.1652001747570291 -0.0013900336528383  0.9133051480494317
  0.1679777642560891  0.0856881560593385  0.0004191001182242
  0.9959702907966609  0.7479988952725848  0.3340633154349533
  0.1659291501935877  0.6675104134274680  0.2514671228596610
  0.8271921137147824  0.5843093638183736 -0.0017503427000394
  0.9095991522904462  0.8315036792080367  0.3332740248525415
  0.6635502975948870  0.4993999439833040  0.2460366618262581
  0.0772159359482695  0.9171090022771027  0.4150847090360835
  0.1684017955365818  0.9179542526161815  0.1659151133401012
  0.5000491690774541  0.0840530340700934  0.1688204925147017
  0.8303345280227575  0.8381318669339509  0.5817696299140777
 -0.0903208094972439  0.6688541547388264  0.6666999405183799
  0.1690484937281670  0.1673704456481890  0.0846940442360738
  0.6626862755081563  0.7490063304333007  0.6672415309849365
  0.5005863092156664  0.5825351795272422 -0.0046944286257097
  0.4138090738784212  0.5833762380267898  0.4179230479412792
  0.5010495347588394  0.0025493231351300  0.9222637929708678
  0.9996732986142020  0.0827838595923804  0.6681250272348840
  0.7492859999193415  0.0847528014367155  0.2524594329009237
  0.9102461470772774  0.8344419410445709  0.6676288282784736
  0.0823267632944119  0.1667011950995498 -0.0012974548661845
  0.8303918291054646  0.2506729334981359  0.3339438453517842
  0.3290453944738727 -0.0012640536530397  0.9167393212396989
 -0.0862405651423802  0.0853518705088965  0.9222752996237270
  0.1651156590350865  0.5829314056897681  0.6685384749344310
  0.3270985524802831  0.3312193950628827  0.4151640710843230
  0.0817452214790451  0.7508507984597111  0.9128859529551659
  0.0808166636026940  0.0823532300343226  0.9175683347057869
  0.5782943728642422  0.4997220432415505  0.6675663792806837
  0.8303604644624123  0.4999275527165375  0.0832775961499538
  0.6653851243731861  0.7501982729660591  0.3349854500742548
  0.0818492748880719  0.6657797814891760  0.3328663531247659
  0.9947547709635914  0.1659318612589447  0.7495356470781604
  0.5811092149002203 -0.0006135195502817  0.4986116127665723
  0.7468035284276563  0.3330743906161083  0.6672777368543948
  0.6633212787085551  0.3363145113884232  0.9184326518855087
  0.4976867502754398  0.3340909621061376  0.7531410466412136
  0.1663283519517710  0.0829204940540913  0.6697150352197316
  0.3301615456091311  0.0871660443016261  0.4990501754766787
  0.2506307310739608  0.1680257082090312 -0.0004224719227247
  0.4146391201970412  0.4972984237685457  0.0015129453016680
  0.0819910645719621  0.6665861314927030  0.0002079905529537
  0.4977171375352368  0.1663552274112149  0.4150769843869269
  0.3274052462912177  0.3331675634419798  0.5803834594016137
  0.8325544974310389  0.4164416916488053  0.1697082317036910
  0.6632892726205002  0.8349130977934189  0.5827377542128144
  0.9113006821915844  0.3331259385824115  0.8298612425160361
  0.0815141016697393  0.5821834188863332  0.0862568074148376
  0.3313242096134907  0.0793108476542140  0.6664549631413756
  0.7486019238309339  0.6692373495016189 -0.0028528686015913
  0.9992836656383168  0.5844323922398468  0.0001023344250773
  0.5775406099487427  0.7491183890918903  0.5804921333519267
  0.4978604253965758  0.0003864235153462  0.7491598541020060
  0.2489214382683748 -0.0048307403795228  0.8315667251797704
  0.7488534642141011  0.8325173485602162  0.1662721115410818
  0.2469929831888355  0.0827776582056701  0.4159658887449995
 -0.0842720935025215  0.6733104404872546  0.0009898701383466
  0.9989957412406328 -0.0008066005708484  0.2470691491926037
  0.1641132973120518  0.6659915957399317  0.5831882658794130
  0.7534300815894711  0.5000000240645736  0.6665065276647952
  0.1701149645711580  0.1656145147753911  0.7496064817579458
  0.3274913298056931  0.6672379271688590  0.0823528550752941
  0.9140184718734290  0.5828298811455358  0.7559982295436763
 -0.0860939038134201  0.0826668521994510  0.7481900948302207
  0.6636930149839080  0.7486938782001087  0.1648682754649049
  0.1644490387363658  0.5803147848326485  0.1633915364566859
  0.8306756735929112  0.2504456625225781  0.0016782314038103
  0.9129518296135241 -0.0030174850005410  0.6659211773134061
  0.9964781898487309  0.7544871368098783  0.8371330321736667
  0.8314764718746389  0.4985070086981864  0.7498636388992515
  0.3326779244609270  0.9163302366147610  0.3363434558115567
  0.8277023379195124  0.1694543185775533  0.7494267322605112
  0.4956865606036549  0.6670110429975581  0.5784744474359226
  0.9143781759872082  0.1667222399685909  0.0842955598381767
  0.9151375762128623  0.2506870320456497  0.0006750479445476
  0.8322979550511210  0.1666920439473573  0.1668417991222706
  0.9148346916385494  0.3337063956064981  0.2504456288545934
  0.1659453229459613  0.0826482474183959  0.7524810670668570
  0.1647746022179576 -0.0014561430543658  0.6672275223165187
  0.3308246597066838  0.3346161701410266  0.1675841725380742
  0.9147430763846249  0.1676884329980526  0.4173590181514418
  0.2482141719753223 -0.0025704686120810  0.4158900915685717
  0.8315694701730717  0.2514693117528387  0.5823018334958149
  0.3319351253854451  0.0834083370546484  0.5821996129425725
  0.1644809602903663 -0.0003942243367688  0.8315146770664081
  0.8318048466664699  0.2507801301605658  0.0850376104994876
  0.9146561009257409  0.1675276931681494  0.2507475121117189
  0.8310805395115407  0.1667791517615617  0.3336670916330087
  0.8310044673455018  0.3348922569291249  0.3331557753727830
  0.2483908464843897 -0.0004641758706316  0.9181987962139480
  0.8287026744852865  0.0821116904585677  0.9188584425758137
  0.2493449752431364  0.1688611384883839  0.9151610007393534
  0.9156701372276259  0.3340325886570810  0.0831244810291637
  0.7449110447902104  0.1671435773282603  0.7491850485610317
  0.2473316065751224  0.0836693318430039  0.3322222211773070
  0.8297618990895710  0.2521026484584092  0.7488304736921906
  0.9151471903213373  0.4149737052642243 -0.0002613457153915
  0.8318461484206701  0.4157121751485923  0.5822652659868014
  0.8307177648741929  0.3329921028932771  0.1675182562166956
  0.9151148787381244  0.3335590826791631  0.5830288297930629
  0.1628576012298464  0.0834381053983838  0.4153266609176131
  0.1660796891435792  0.0843438757318054  0.9149532564882777
  0.2480503295934294 -0.0004540169767224  0.2498862329235745
  0.8304626245281792  0.4165946869996723  0.2524137747156741
  0.2512904126600086  0.1682413886685725  0.0863512679270843
  0.1640039457903462  0.0843703007197831  0.2508801005726571
  0.8293476555028069  0.5813587546599894  0.9134634672409813
  0.8304928330244948  0.4143374903788027  0.7503384384696629
  0.8310976440135177  0.2510597394163483  0.4173982724250584
  0.2492621567639581  0.3334192282713225  0.0831555862303913
  0.0811082250100354  0.3334342430929931  0.0837671511847186
  0.0817302637138948  0.4151651666116942 -0.0009986308597932
  0.6637261518175320  0.9171106568984863  0.0847113888349516
  0.7472378469862629  0.9167669356751226  0.0011323576187841
  0.1658651945793000  0.1680824523983051  0.8337818138642105
  0.6648418779865964  0.8333522305383939  0.3340222089839704
  0.8311243479797922  0.0000727091063836  0.1677949912521848
 -0.0026583667037356  0.4994258212981654  0.3335953004218096
  0.8312361815424525  0.4166266417697597  0.4161561491614197
  0.9126187209540640  0.2491703451732936  0.8338341196289857
  0.9148696434618451  0.2507046877405416  0.6646189569694982
  0.1649422055529537  0.1685682463917416  0.6644940527443577
  0.8296497367338804  0.2492477079483045  0.9169564609701479
 -0.0030541950930535  0.1669605179651442  0.8344250938828134
  0.9126346250916132  0.1692976506715237  0.7487386462970995
  0.1651286200488332 -0.0012913638772899  0.4991133093009578
  0.8307734415407307  0.1679364000250395  0.4993324401444766
  0.1637647949272866  0.2511474366490059  0.4155935969916468
  0.2476053925702715  0.1673907077657853  0.2505307729385542
  0.9154804493531673  0.0852285301359245  0.3343035757812745
  0.2495872014981332  0.2536769198378677 -0.0000609577779213
  0.8277651276131487  0.0003147108567660  0.6657120780966462
  0.9146848743057128  0.1680850075118056  0.5814569883388200
  0.2495903700200766 -0.0005096275226448  0.7492006802025194
  0.2464364815351925  0.1681031483267971  0.4157136855405917
  0.0806782313879199  0.2508340058470075  0.3338159080230709
  0.1665231450078020  0.1686779506925822  0.1687610984278378
  0.8300343140077679  0.0015898614720645  0.4985325907787577
  0.9141912774096447  0.0845477067461788  0.5001375667530841
  0.9124446658676805 -0.0014392051308497  0.7516960934210118
  0.2471556986848254 -0.0017113116669433  0.5821963506857063
  0.9137272891647518  0.0819202464058621  0.0033633171227030
  0.5798895704294075  0.7483333931259578  0.4967397417452787
  0.1654812605097227  0.4155977166145052  0.9163831114915043
  0.6623119060488912  0.7493847123651163  0.7520125387336580
  0.9146344019066378  0.3341802851829648  0.4162311163404076
  0.9136731411907233  0.3330007842333056  0.7478756356861436
  0.0819057955445986  0.0001140904320953  0.2516970376681675
  0.7475784834771707  0.5842350369911832  0.6666320463702295
  0.7481035341509557  0.7523612484035094 -0.0007811688631092
  0.8318252805493668  0.0827008863092803  0.0848178409329451
  0.6625530246948975  0.6654539958648761  0.1675375486319003
  0.6627996492133024  0.5829615120882518  0.9145421440690833
  0.7465840236460171  0.5841186274654234  0.1666722794809333
  0.0804518186788040  0.4178594748956114  0.3341758538157889
  0.2473816911276128  0.3340539145619494  0.2511780417365410
  0.7475690622327885  0.8327078372991620  0.0827128067299675
  0.6646618785463575  0.5818704485200074  0.4169692874600803
  0.1660384236712932  0.4962029966816507  0.1668424564624104
  0.5792944352970697  0.4994453247558988  0.7508546728484244
  0.7479784621950496  0.6648133420552189  0.2511154002132953
  0.1637368866687569  0.4178251333856078  0.4145553014888740
  0.8307331636651085  0.7485286563882769  0.2500119244204823
  0.6629835082464471  0.7493544899761013  0.9156638562174524
  0.1642995693234718  0.2512418204062336  0.2515224135389871
  0.1645555520597610  0.4169461978667713  0.2511459019584624
  0.0821302663053577  0.0833589913565291  0.4981580988342457
  0.7479572845650976  0.4998095164842003  0.2498410558327534
  0.5796818308502940  0.2493141630168481  0.6655299838875824
  0.1635495490131740  0.3334444725350558  0.4994094162866465
  0.4960703874567439  0.1684252522621021  0.1673707753168378
  0.7480471097394146  0.4990404161451761  0.4171045621277344
 -0.0012142864188730  0.3335600399396126  0.6667561952528451
  0.1634180110769358  0.3350805275458952  0.3336117221690517
  0.9153717096366986  0.2505530623000622  0.1674852597855032
  0.8337291985622906  0.4994451973785836  0.6650635251145876
  0.0817235809947155  0.3334194842602135  0.5836606421929511
  0.6622561855893309  0.5830220745848600  0.7502323410856162
  0.1650714192158938  0.1691701532528477 -0.0010159937324683
  0.6631033919776640  0.4157485280671231  0.0828176393742344
 -0.0015973522230152  0.0817074340990491  0.7524628123386246
  0.6630297389610292  0.4999670545122579  0.1643172146377617
  0.1651293932532664  0.9160976748544752  0.7511688093941387
  0.0806777816254985  0.0835551974800606  0.3343627246381186
  0.8304749858922457  0.5013608749977521  0.1686781996793694
  0.5790281612612217  0.4150176534752930  0.6653252042979974
  0.3323451359884675 -0.0003126492809811  0.8324500169992797
  0.7468879826881100  0.8336226516098546  0.5824521089888485
  0.4156307912566414  0.0833294776781369  0.6652471717404186
  0.1634193060195020  0.1672287253610207  0.4994026830576824
  0.6637666390509617  0.0838968040228893  0.5827394939393515
  0.5796151543560389  0.8338971758179434  0.7507154251314900
  0.5821345865605085  0.0015558179132119  0.7503357678825389
  0.7481981461448123  0.8338315278849240  0.9162183570097537
  0.3304006059176002 -0.0030289371445774  0.6666205827984967
  0.8302463139585313 -0.0012063680442758  0.0019253658363167
  0.5830954723655539  0.0015136984063670  0.9193481298829886
  0.7484665068812009  0.8310824888319152  0.4163232144634679
  0.5808481554567334 -0.0006098048280322  0.2504871144095591
  0.3295557961153384  0.2495464250690731  0.5804841127092449
  0.5822504004953170  0.0833771193925730  0.1663686917580069
  0.6636294643924984  0.9194506938576588  0.5838270130039581
  0.6640983157696659  0.0017377834303522  0.3326566701125368
  0.4154787055300718  0.9155362517047768  0.3323857176339156
  0.8332667480335307  0.0842206314713093  0.2502277252421570
  0.6625674639367812  0.6663843475405622  0.8326481871282879
  0.8277548128839178  0.3330807880124400  0.8339508693138474
  0.7452046055385813  0.6671066327295201  0.9133041070239432
  0.8295528521388451  0.4162713146508620  0.9166466239886842
  0.2495868422587713  0.2523610941815657  0.8337026378578838
  0.2518344752159081  0.0823221630473586  0.0004819571429230
  0.1653055740597320  0.2524499613762087  0.9156227272540532
  0.9143961179960179  0.4163260839406727  0.8338169764170286
  0.6632187831267242  0.8337553193529886  0.1661783462516661
  0.2485888105106197 -0.0005659325205715  0.0845643003941554