Cr H  Ni
 1.0000000000000000
    21.1200000000000010    0.0000000000000000    0.0000000000000000
     0.0000000000000000   21.1200000000000010    0.0000000000000000
     0.0000000000000000    0.0000000000000000   21.1200000000000010
 Cr  H   Ni 
 259  86 605
Direct
  0.4972211313424165  0.3343227628481166  0.6672600530161660
  0.8301176201955628  0.0812970275254577  0.5861027546649895
 -0.0040592850827944  0.5804716995339213  0.7491831417400533
  0.0798503121691214  0.4980432284002758  0.9175536551183788
  0.5782055355727079  0.4164310488960992  0.8339694191390046
 -0.0035320883085551  0.8356832615656788  0.0007088773009480
  0.2492814843493190  0.8339410683946979  0.7477076340088626
  0.0795035658884496  0.6659548258144602  0.5810272387122976
  0.4122296142248993  0.0038025673353732  0.0830091584264555
  0.9117109671789323  0.7493493859409811  0.3320979734028790
  0.7442007561959508  0.9166835604402090  0.6672433358083754
  0.3322978358254766  0.2503422318415416  0.5860488049354748
 -0.0044454381557393  0.4974359414148544  0.1665544265475703
  0.6640585129705197  0.4958986755320689  0.6665699790925855
  0.2477827204718283  0.4155054960131051  0.3334047595136245
  0.5799827028350980  0.6650785241979791  0.0816458198906494
  0.1653530425615805  0.7479316026457254  0.7505579917266318
 -0.0037931626685989  0.6616814313376964  0.8340080020663404
  0.4969046496796401  0.2513325878252090  0.2475141280526816
  0.0795710298540269  0.6636683900594929  0.9178896961013392
 -0.0030201074539357  0.0018615991599910  0.6684276153599638
  0.1635545983850671  0.3350303669337410  0.0002217619216714
  0.0794484865461743  0.3343348099266349  0.4155993540073796
  0.0795345449240303  0.4995327085986825  0.4144063115429921
 -0.0020423948983675  0.1696508663569712  0.6732351626079439
  0.0788709013522285  0.4995113947058403  0.5834677221068137
  0.1619674943184111  0.3342756695792768  0.8323079642995336
  0.0801744239752928  0.5796138794099239  0.3352003061137246
 -0.0049817368330907  0.4199872944974282  0.7504162690435523
  0.8276960235207323  0.6639297720184937  0.4959670633264455
  0.9122476511905999  0.4150523667638868  0.3325776699929446
  0.1645525070483134  0.6652273369261325  0.1669365081723472
  0.1649918521477207  0.8358172092554318 -0.0026304890559420
  0.4959654309658937  0.4983797955709320  0.6665984614671483
  0.4958476849427449 -0.0017818963807776  0.6677126937576885
  0.4964370516375133  0.1666474703088244  0.6642613271531532
  0.2456888533913148  0.1631064842333518  0.9142890722597442
  0.4966240445343589  0.0003368884513911  0.3323832321724270
  0.4967084593199735  0.4165862544002533  0.9152235486675564
  0.6604134893197593  0.3343712741638457  0.0000358683159385
  0.4163229889832582  0.4166322307310622  0.3318941844518826
  0.6645653559170727  0.3356870637581372  0.3331854594775496
  0.4114796480640017  0.6651687103843278  0.5826106238126436
  0.7460571307912190  0.5826543510678068  0.5007743719197275
  0.6625372196775414  0.0789694870350292  0.5865428239064886
  0.6624438658566586  0.4997477975225835 -0.0023839446449482
  0.5800029697419904  0.2508300013304227  0.8335798668229305
  0.5791451556336695  0.5823790991063091  0.8361965525487226
  0.5790034615498290  0.9179232377767071  0.5001628947276279
  0.4948320372324295  0.7537966289431098  0.7499084313351648
  0.8305345806648676  0.9176459625751715  0.0838831653613028
  0.4960221340363660  0.4134540238638942  0.2493562421809552
  0.1636616252748278  0.4159042832020682  0.0835723589822012
  0.1641004223292229  0.4950141104653070  0.1657247877635785
  0.4957735522316676  0.6661251185588858  0.3330427216270923
  0.4965836356826568  0.6652538469460810  0.5015292737523087
  0.0793186780545854  0.8329267671313295  0.2464383731815389
  0.8351141724414476  0.7491934916212584  0.2494294711035575
  0.6611830408531221  0.5010870139541290  0.3281652459562509
  0.2464928608445468  0.9162944440930778 -0.0000239929317652
  0.4127862150229045  0.8334858068905500  0.9167843067843103
  0.1653441669690261  0.9146046691082628  0.4128645821362944
  0.4170362125012441  0.7465272035123199  0.3342236791600496
  0.3301730601072421  0.7522013845546254  0.7486758710418521
  0.4947831665061699  0.4979562388815746  0.3345328358331982
  0.2472218756038105  0.3366914832641558  0.5844706402209855
  0.9126093089640532  0.0024006107178891  0.5873242757794602
  0.1632796337435259  0.9184089709781322  0.5876532113301965
  0.8294603688692300  0.1674422447542956  0.1654904320139401
  0.8328144671110425  0.7483042508212908  0.9172212375539707
 -0.0022525263180196  0.1690841248642826  0.1641748423582960
  0.8300582798211533  0.0850720608934984  0.9140586098792102
 -0.0042133133654578  0.4167203519424579  0.0838250386068574
  0.1611649772853938  0.0897256675016885  0.4159631445790057
  0.7465922341353725  0.2505144368861889  0.1668576581426990
  0.6628554624469488 -0.0007260927876945  0.6675710862905377
 -0.0038660537721515  0.2461617343591597  0.7500600017745154
  0.2465283940669001  0.9182993645227429  0.1639420699272649
 -0.0013527427462376  0.8337965052275562  0.6680074769656659
  0.8303884713559277  0.9177469346986737  0.7520700445947983
  0.0797296557068256  0.8323474585800328  0.5845646048446234
  0.9123227876683796  0.8334669616183530  0.7504586995661160
  0.8311234491553287  0.9168704525812053  0.9159973539191343
  0.0818911212897567  0.9179786832030513  0.8327924338783171
  0.8289516237854061  0.3348346966661911  0.8335202476575932
 -0.0024448255391516  0.6651924250112629  0.0032108102474915
  0.7490255541633436  0.4998106482580454  0.4174145869895071
  0.0790353034200927  0.1704007667528812  0.0824053583962935
  0.9185928987590406  0.5832324265399039  0.8337428958789397
  0.8304616405797519  0.3342166351990608  0.3327545705170436
  0.9146368601471146  0.4176480146851531  0.1650728655335200
  0.8300569947138554  0.0850309664051338  0.0874252736992301
  0.4133598004256637  0.0825158892774606  0.8346371866085075
 -0.0039645400663602  0.8339091624241951  0.1673700575302633
  0.0813751737094136 -0.0002104183862616  0.9169968045959621
 -0.0034919228599584  0.8287977597457690  0.4991273471050210
  0.3286969716117200  0.8335843952917457  0.5008344093075422
  0.8307155132393438  0.8317456480411758  0.5003144447473019
  0.8286406534243695  0.6627418418923831  0.6690168616566566
  0.0805341000768775  0.0014800898555157  0.2489587569997196
  0.9116071621830890  0.1688675762523470  0.9156704867395065
  0.7458694654896439  0.7498135816094246  0.8311566353855140
  0.1639464644353505  0.0826970803234245  0.9168255201957848
  0.0799633772205555  0.3323612011362114  0.2491937864914171
  0.9135758817791773  0.2508367891352695  0.3336403799870085
  0.7440679233488781  0.6657215122513006  0.5824416162838439
  0.1609575373557283  0.1670635705782650  0.3336219449404431
  0.9128599068709696  0.2544983894001742  0.5011524359923416
  0.8296457379103729  0.3339325384378392  0.6674321188497445
 -0.0033874718635165  0.6644035628479599  0.1632934993527805
  0.8298288735162398  0.4155925386727516  0.0817690669780741
 -0.0040976619060248  0.1705977373962892  0.3329063112988200
  0.4128803927609652  0.4150767439196323  0.1659401476897416
  0.8307090685041896  0.8346125376571394  0.3312024998526710
 -0.0010552496725481  0.0014297705375039  0.5036197038910081
  0.8316171628189122  0.1690995651967961 -0.0028141323335410
  0.0810607842557987  0.0833822348674638  0.8355906002432298
  0.8295171489574920  0.4985182552567660  0.6637401780028895
  0.8295024113533778  0.3355745017734790  0.0001906324298427
 -0.0033832078963694  0.1690855540644686 -0.0015420997233341
  0.9131601510888517  0.4156980500642787  0.5012758170741475
  0.0788520394274413  0.3341247976022444  0.5845398415330840
  0.0791748063913828  0.0860307437216641  0.1685314767939896
  0.9128465906888108  0.5812063255286974  0.3318491729709362
  0.0792884587896517  0.2499455791538407  0.1642399001563445
  0.0788978018094136  0.9206618694184637  0.3292930449693401
 -0.0034114742495807  0.6638783012966089  0.6643662127880007
 -0.0018620596433849  0.1738735212349833  0.4984009539905018
  0.5779116502342708  0.5822261661608390  0.5007788286015985
  0.2459045915165537  0.9182176770828965  0.3380311892838527
  0.4133371836455908  0.1674279260575200  0.0828063009749075
  0.8293729866596911  0.8352066809401130  0.6703098323862366
  0.1624307957236614  0.0850922913934971  0.5851156834615648
  0.6641465466173830  0.0038286792073833  0.3319265984578957
  0.9133742388869240  0.8328093311275411  0.2481115228845834
  0.2460863469144830  0.1704681874595142  0.0796496081245843
  0.9133884725714227 -0.0006654412975704  0.2484834895707343
  0.0816491687667668  0.0829240168758696 -0.0050113374713792
  0.1638793867824417  0.3325505679290093  0.1662091329288705
 -0.0033688345186027  0.4168829396927914  0.9174740534157599
  0.4931221344022308  0.0008212063488066  0.0008396854358912
  0.7476177205208526  0.0847153165379517  0.1640629094617875
  0.3317032473577687  0.0820174329426671  0.4184456315269381
  0.7461344359722151  0.0820219610934415  0.3300667148421127
  0.5805402758118340  0.8343034032731499  0.5826952791399340
  0.8271991216128672  0.0852603244899892  0.4147392671284287
  0.5787525771015687  0.3350942916602225  0.5854146171229023
  0.6600345724512572  0.8336278887516718  0.0037676601382708
  0.1620051461873539  0.7490981837591278  0.4152209747712702
  0.6616088169786204  0.6657839701210125  0.0012556787231017
  0.7474063697616917  0.3360109980733327  0.0818874904010696
  0.5795733360534761  0.5825980455676937  0.3319276141022030
  0.6629614767444022  0.6659360685424810  0.1660752221642356
  0.2472082382800247  0.4990624787145208  0.9167450516222201
  0.6640409671418924  0.9163257161142574  0.2466516205897452
  0.7471430728914896  0.9160047512750092  0.1647944390533625
  0.0799997559548793  0.7467699383244339  0.3336878805994400
  0.1630263141326421  0.2530033617365081  0.7521783237636052
  0.7498133732990879  0.9163532527627076  0.3282629085061802
  0.4973241152599875  0.4980447139620335  0.4998808171804532
  0.2464068315262060  0.0858957467082908  0.8339481538503192
  0.7470066411153919  0.9168621101378065  0.5038595375645606
  0.4943908448308645  0.9163464076697769  0.9172961137044500
  0.2505818812773540  0.6645400969510844  0.9174421534809241
  0.6626713728055289  0.0822494459250252  0.9160418427795041
  0.7458422134400939  0.2513206116753410  0.8332316846448320
  0.5810692512411783  0.8310540221820399  0.0779448259760674
  0.1645893799360079  0.6649707697148348  0.0016371311177802
  0.4950014715700061  0.0007720004794084  0.1655915115019701
  0.6644662986903983  0.0797587935502816  0.2477883911775907
  0.3304666089516932  0.6654912112926388  0.5008999679527272
  0.1607708081939949  0.5802462377715792  0.4158069850357271
  0.4114473308506162  0.8345761563139141  0.5806612531286843
  0.7461296505655611  0.1701352762058737  0.4172910322388435
  0.5799065722646368  0.8333117067067309  0.7503283907112518
  0.2416468411030140  0.7488809765997624  0.3349654661884618
  0.7475752140180369  0.4129358207729675  0.1649336470149210
  0.6626814546736193  0.2549221000303148  0.5858109682834567
  0.5808510164050016  0.3369638498683097  0.0813098987546616
  0.6634013165896311  0.0003442019395673  0.5013629156443195
  0.3288496289361519  0.0018515127300369  0.4990538871885017
  0.6634274595494043  0.2510319525141730  0.4190538293707980
  0.6630242032662668  0.0009868054382406  0.8352348716008510
  0.3305080275748286  0.5815463613128240  0.4203349889969105
  0.1615082443325603  0.2534755239222354  0.2490860054737340
  0.7448906281897831  0.3332629870387853  0.4167351467550506
  0.1627005062549918  0.5821081711942141  0.7498932444783964
  0.8290227739005934  0.1676798511462600  0.6707926517968594
  0.7453895238950712  0.0834883081776033  0.8338626855815835
  0.2456248461440774  0.4152138742652689  0.1654269677620886
  0.0805018582854882  0.5796660960906278  0.6666219544549458
  0.5772020534875620  0.4993969277875497  0.0824202419243807
  0.5820728594308789  0.8371173377234544  0.4185741823650582
  0.2433280653804639  0.5809522261986686  0.3361479951577337
  0.5802830059282486  0.1658946363475828  0.4191024923667697
  0.2472467865674281  0.1649597496532694  0.5847004848229086
  0.4961018390627446  0.0835588691311064  0.9167021729809005
  0.5035082680518081  0.2477042088470655  0.4175075464793250
  0.7470449552047130  0.6611214262094154  0.4209000014903990
  0.2479361619869303  0.6635931467133915  0.5844861259598150
  0.3304059488781568  0.2507898024633634  0.2494391200360863
  0.6639006154634781  0.7506368303715113  0.5830388911458247
  0.4122072415494808  0.1658679908711418  0.5854826862144337
  0.3322382165113519  0.3328538014226510  0.8303624775059996
  0.6632848058423577  0.0008752960758365 -0.0019222884675508
  0.3302774121784796  0.5819595458657207  0.0834274645040673
  0.5804620123933060  0.1634990247795438  0.0818423026899030
  0.3303831429757399  0.0006541381481269 -0.0005588388552329
  0.5812545834762504  0.8332848794896228  0.2530101143918576
  0.3314335615493551  0.5822147821028596  0.2476847340779566
  0.4955879303877710  0.6655996806691601  0.0027368959789979
  0.3298755511650116  0.1681742578480059  0.6679875374743282
  0.3275398074118482  0.5006408530175805  0.6657712076409266
  0.3295562471792330  0.7482378544316076  0.0834625148413192
  0.2459519704123095  0.7475611079493131  0.1662819499888344
  0.4922617021927127  0.6685016295362388  0.6624170461958898
  0.4134602713291173  0.5836380294058715  0.8329036968351924
  0.8309088347857168  0.7484741466419578  0.0827829767698096
  0.4124233700369253  0.1673315728755862  0.7482172220397834
  0.2480332274213554  0.4997991421654562  0.5844731227289244
  0.8321614028590764  0.5816796550432037  0.2505522374801524
  0.6623654994571201  0.2510550298115294  0.7519748221109620
  0.8311231832832738  0.0057361703050259  0.6680028983448916
  0.6623717544856625  0.5824729009949443  0.2498087591461405
  0.5793371285425030  0.7527983669708663  0.8317663386446543
  0.5796556835101072  0.0815678305732330  0.8338391377218624
  0.2460365017975401  0.2506044086613132  0.5011814855330575
  0.6630312831677422  0.4178855530554858  0.5844381673648464
  0.4953213708432728  0.9153231475998758  0.7498383988081678
  0.6588096718207275  0.7504723987867069  0.2497311892673892
  0.3296959761921467  0.5818664670540248  0.5818990126447728
  0.4966021427327519  0.6688586528624760  0.1650294793897819
  0.3293824901803655  0.2516163763436371  0.4192323159182020
  0.2463523837589636  0.4152207921293363  0.5012853889396864
  0.6611444086866843  0.7505658966740288  0.7516027231949916
  0.4976973463287649  0.4168714348287658  0.5852628533199533
  0.3304016737513398  0.3332045466926536  0.6673288903033471
  0.7435002812029752  0.5830463440250567  0.8344368007868701
  0.4129748606395040  0.3338794412200840  0.7509809506305560
  0.6619443249158548  0.1657266737300739 -0.0020369254317010
  0.7476767844613411  0.8349258183996566  0.2475446284555102
  0.3296627469636301  0.2495880521941703  0.7484191585349060
  0.7474563927538617  0.4152856769391345  0.8343488067199096
  0.1639590796240924  0.4159412317327306  0.7507855302871727
  0.3325850496218551  0.3374648169511414 -0.0013141838585158
  0.4972268472782100  0.2505137005330636  0.9156846129559937
  0.4972785290173778  0.0827917332942831  0.4185671009176586
  0.8284857443979613  0.7518157293273198  0.5810924579610875
  0.8299482200491409  0.5002130444274603 -0.0002057336589695
  0.3292111031215840  0.0002772191305805  0.6645826996246620
  0.4130874838626866  0.8288910368247927  0.0810772005869824
  0.3298279934353080  0.5817918213874880  0.9186807434429139
  0.4120589684318342  0.8330822869143143  0.2517714250935521
  0.3276631452671525  0.0825938361470709  0.2489264146633547
  0.4116813730595932  0.8342078810509752  0.7496706987113618
  0.4087271203228617  0.6635721616517160  0.9152548796562354
  0.4130951068553504  0.7472752385133330  0.1662849676565841
  0.9127990682173583  0.7521272484605592  0.4987108542382959
  0.4133931460639720  0.4155616201643998 -0.0009455253211221
  0.9929158288866026  0.9179255575587297  0.8346063900899066
  0.2450391167602197  0.2507234038488938  0.5860552965454748
  0.5785731792343349  0.1660449007253362  0.3286631548021677
  0.1648637821654063  0.6662590254166449  0.9147525002526578
  0.9941181811436348  0.0804025406742763 -0.0005883412919716
  0.8309833452290367  0.5828856053170587  0.8348835991868672
 -0.0898659939743609  0.1667549002676311  0.5008751325059552
  0.7415943625157128  0.0824708072422356  0.4184451701871614
  0.9175660720329856  0.0843929120060787  0.4142942172475491
  0.9977456911896642  0.1696053791696135  0.5854989068322004
  0.9128408682452164  0.0894621692580334  0.2489938353721830
  0.8281844389687593  0.1708921142644053  0.5828119460915395
  0.3320158585809377  0.2465852000114598 -0.0008408434555851
  0.8292711657788663  0.7487468691604595  0.6682524689477330
  0.7469119984398802  0.6653953983032345  0.3299741157296125
  0.4921935231296259  0.8342657648447056  0.4183304200373248
  0.4123788438892754  0.8345500836724027  0.1661237038370398
  0.0798595361221021  0.0820098650710165  0.0821482414888441
 -0.0062931531889685  0.6687119031736678  0.9183704868426850
  0.5781303729809938  0.2503719924388920  0.0831808710435444
  0.8299903314061688  0.6655358110063152  0.5821132516069897
  0.9966453615110563  0.0872757823973832  0.5008587014463198
  0.4117148456287910  0.9170165577525229  0.0841975287084074
  0.0785194701083219  0.8337267322772878  0.3330581023452123
  0.6627090409146589  0.8345376983944113  0.9138719533342744
  0.6641757591484967  0.5866037810012388  0.6661152865646889
  0.9949844055143577  0.0012617691523995  0.4121636759369731
  0.3258086212177256  0.8357459344842456  0.0830827793286899
  0.6622912524478717  0.1671135935509226  0.5855605652254431
 -0.0045457729088421  0.3329259982845961  0.7497909700612079
  0.7477184042179160  0.9171980387175511  0.4161229203402494
 -0.0022957809836277  0.6642712412044198  0.2533018476354526
  0.3307579042803435  0.5818421646484274  0.3339956753284503
  0.7513611328940419  0.8333429487397400  0.0002819983650147
  0.6605228131264700  0.4993706180451519  0.4175516291164142
  0.4953198488018410  0.5012603899776843  0.2466968078211796
  0.4165486635590676  0.2504159467109592  0.4163661592703941
  0.2509685565641795  0.1670883252935221  0.3330961534608650
  0.5006139637245705  0.1643994976463500  0.7526614434548677
 -0.0840173152320591  0.7477770781056292  0.5861596552190841
  0.1629880891871037  1.0016052086886800  0.4168099440251259
  0.4119777361227428  0.8365775182163540  0.3389741230252123
  0.4980220239799714  0.6662679873249865  0.9145936775098735
  0.2464065183186631  0.8336280161976997  0.8370184959750309
  0.0828111089897301  0.6665581286349068  0.6680334953015570
  0.8286251618499136  0.4983135431755750  0.7544272973083270
  0.3296395384270840  0.7487608760036708  0.3347179246146115
 -0.0031224623289746  0.6674597021749996  0.7494366299975938
  0.0806476615491566  0.7539176918364073  0.9174429749931523
  0.1604376627422490  0.8369881002048456  0.7502878839911900
  0.2429944208503673  0.6660328369823019  0.4970090657723951
  0.8312858983969849  0.9205176677114232  0.6662888977423510
  0.7438195343684614  0.7489596188118780  0.9197790445121865
  0.6640158692586171  0.2482416749018626  0.3307370179279231
  0.2465104365768174  0.0803952451324882  0.0841370813954587
  0.6624555303794800  0.9153791748709954  0.3335735232405793
  0.3291546423693359 -0.0003152443766161  0.7546110750440654
  0.7448769641275452  0.7515261730208606  0.4154895726749546
  0.2427876423847622  0.5813025480717039  0.2468089855404697
  0.8292543645235894  0.0821824056660170  0.0004330430928203
  0.3257816321818064  0.5837362263501960  0.8300293245356269
  0.9961459314061564  0.7529624130313436  0.8338927961066925
  0.1639704826278786  0.9176504483693321  0.5004972364366547
  0.4148478992374561  0.3345311352098685  0.5001304761806979
  0.5796545120926424  0.5821658216968012  0.7459964869013624
  0.2475295927938832  0.1662485700144157  0.1696517627178418
  0.4952606352649794  0.5788776617634260  0.1646807177950294
  0.7469528914490030  0.2483075253350648  0.0791402297522606
  0.2465764172865444  0.2546724941006954  0.9151597899451224
  0.4181666468322818  0.0840825385215165  0.2503805143265161
  0.2412197085677200  0.2511936836677615  0.4134608471774920
  0.9102384344819813 -0.0012103566159539  0.4975149720348885
  0.6631946136216142  0.1704899118259315  0.2476951914721456
  0.1613601383335505  0.8336734902109406  0.0872172341089363
  0.6652453880190846  0.5000387760775616  0.0860592885600654
  0.0769999760332849  0.9175462000478625  0.4184087470060333
  0.9174314294582441  0.6618047627917972  0.4987365391577211
  0.7468664801863827  0.7482559963334161  0.2483083486498328
  0.9952894494728294  0.9153962734440126  0.4999527727353725
  0.5826451769976235  0.6671397857961999  0.6660060339541062
  0.2465239575643819  0.9175710849549134  0.2510001792591531
  0.4943631197656896  0.6644209915290149  0.7517898385054652
  0.5801474289882160  0.9214786722435097  0.0833995859374430
  0.7474012683378951  0.5030226434674155  0.1666922047499701
  0.5792888644716336  0.7460310202128886  0.4180166492990759
  0.5795029642602774  0.8343629115630459  0.1661846799034390
  0.2469707445703400  0.3355504125566008  0.4164727527638301
  0.4129702788579649  0.5000538306136307  0.9161137604874224
  0.3298238827672113  0.4160502884090852  0.0829170148389507
  0.4140393438744102  0.3342152501541017  0.5857826580697613
  0.3298206603253226  0.4165157835874557  0.7494701855412488
  0.2473620797618171  0.3341344631821937  0.7503632523001119
  0.4141063716502255  0.3340165843231014  0.9145803917774223
  0.4956992399460848 -0.0008100190926587  0.8343640799802102
  0.3308334007183881  0.4168768746807793  0.9154135427263697
  0.4133756537196152  0.4173961247281505  0.8330411416386189
  0.3310865632633530  0.3330773024119968  0.3329485426451986
  0.3304764795690506  0.4989647249975613 -0.0001546033378051
  0.6633378172583325  0.4158463641493376  0.2495229700044452
  0.2472898607385459  0.4161602798497214 -0.0007163311117373
  0.4126963662945840  0.4171476841168764  0.6670415414422292
  0.3269140697678267  0.8330885678427318  0.1684808032749741
  0.4120820003867936  0.4982940300652188  0.0829476004603219
  0.3313724968586761  0.2511136021272244  0.9141249878058620
  0.3308485288853779  0.1669579597897868  0.8325229660619209
  0.4961912577933859  0.5001718821841169  0.8337251439938484
  0.4153792635741553  0.5826645989772307  0.3340967826727235
  0.4147069752996546  0.2496215833314014  0.3321567270729158
  0.2469244058130033  0.2515754527958388  0.3314338762015354
  0.3297754958628044  0.6650679875973913  0.0009200470201201
  0.3292833574431328  0.6654065854184535  0.3339780095397521
  0.3292665979891956  0.7489017845585406  0.2490661349643017
  0.2452649046299991  0.6662058545411235  0.2502606270731754
  0.1628672466869342  0.7477899878494578  0.0836194759086556
  0.4130211442011775  0.4995216691708441  0.5840216153033656
  0.4141188920007257  0.6645514508939946  0.4185806566691229
  0.1599619600534669  0.2517352479518808  0.4164743451281101
  0.3295151032215540  0.6662208075540853  0.6653883600665900
  0.4096932309553720  0.8338280532156295  0.4201463473904877
  0.3291777513467762  0.6663504226700032  0.1667367324265904
  0.2465999469485119  0.4980126144429566  0.4163315554405956
  0.2447395488901695  0.5820242377374574  0.8331452644759969
  0.2470423413819967  0.7500048504518982  0.6652270926364554
  0.4115617557506722  0.6670153479415959  0.7486978225385371
  0.4117535462697474  0.7519010584272806  0.6644520654696423
  0.4130165713781254  0.3339293754671319  0.0826765114329487
  0.4124775867805126  0.6659543795660272  0.0832129577696999
  0.3289322475076004  0.6678666840726014  0.8315744468668784
  0.4123768765330699  0.7484052178208976 -0.0005013699296577
  0.3293170272768715  0.8326109322830756 -0.0018786146628834
  0.3284032062203316  0.9181753306841580  0.0827228153038415
  0.5790512582514094  0.0030030421871405  0.0822767047942325
  0.4120382009527319  0.9164721910225346 -0.0011538650605188
  0.4151156546186084  0.2505562761727221 -0.0013674314882959
  0.4139328421940735  0.1666482970821880  0.9150166104238607
  0.3300760317016826  0.9172599482599659  0.2500162757541628
  0.4138196413225618  0.9188388856327877  0.1677368056269420
  0.3269026469539528  0.8337459932443269  0.3338759440813577
  0.4124484561982869  0.0003518318671524  0.5838564715772732
  0.4122925518850775  0.7494010086149286  0.5008546348404067
  0.3301542842150136  0.4970733163627238  0.3335100643402395
  0.4134204816591080  0.4989027359037578  0.4170810157830592
  0.3292271255170992  0.4985959087295714  0.4998517418672399
  0.4147252761743688  0.5811594870715722  0.5004722397307372
  0.3307048063691601  0.1665982593632400  0.5006380985755818
  0.3298071705585323  0.5826141925971374  0.7468722632010063
  0.2476479786105793  0.9175232160278637  0.8332206235754653
  0.3293967743978300  0.9177527974122508  0.5825109355317057
  0.5798166425656065  0.1664107568519967  0.9159441363068648
  0.3299775133698746  0.0839295752669870  0.9160190180975724
  0.4128334518845238  0.0848142116781583 -0.0007722008022518
  0.5795133336101436  0.3337883050921566  0.2493017977349142
  0.6626891377860520  0.5816259469599165  0.5820109489214673
  0.4972555937165404  0.3321578764244215  0.3323926319447401
  0.3308658605280736  0.0845077745480775  0.0829860133674370
  0.4989878295049464  0.3333178998100769  0.5005377621379209
  0.4133757152815162  0.1688749397973636  0.2502024295368823
  0.4135777880669120  0.2497288242434868  0.1662578478526652
  0.5786714755483551  0.9176927831881001  0.3336477494950204
  0.4956888944627013  0.3332419666049596  0.1656016990789713
  0.1645800296080091  0.7507237099424479  0.9178955949843808
  0.4955871798695455  0.0843335759483450  0.0822487424695804
  0.4953962589226868  0.7510310247641454  0.5822365634554616
  0.5787986607057936  0.0828937778107481 -0.0011624330997581
  0.3296659615153584  0.7495435096925955  0.5827189682116811
  0.4134756561443557  0.0834812316468393  0.5012848286536040
  0.3296237121086559  0.8340116636088815  0.6648051921450278
  0.4986539598117616  0.0820745895968296  0.2482810352538181
  0.3311835763459706  0.8328828146782093  0.8338978993477653
  0.4961624377149943  0.1674041378266104  0.1653134924069565
  0.4956715828922163  0.7508866562933243  0.9168439646434086
  0.2462871717728259  0.0852494867206564  0.5009815439013515
  0.4955169498895610  0.9166436528714875  0.0820394954438488
  0.4142895132464003 -0.0002750031946347  0.7500487140290847
  0.3296802947340263  0.0008383999174066  0.8356189830196854
  0.3305504667416748  0.2505560976346339  0.0828467759682547
  0.5788537585052593  0.9178256190106813  0.1669654706485839
  0.4129789441002656 -0.0002278496675636  0.9171989523016681
  0.3296403849012646  0.9168859461097361  0.9174891830759588
  0.5792011334011323  0.6664761818022201  0.2486639945149038
  0.4956151435940885  0.9169236305801389  0.5838760117949424
  0.6636074578944775  0.8350278991390998  0.5007657638875013
  0.4146455617714066  0.1653656233233823  0.4177487214488196
  0.6625924782344103  0.9172049322746364  0.7503962657608191
  0.4962170672154145  0.1668882591423555  0.3334870850727588
  0.7457381412032836  0.8344981337237882  0.7516780194106355
  0.5794748743445446 -0.0008988744552519  0.5843952358406688
  0.6623348817576608  0.9192894183962418  0.9179506970863898
  0.4127902733800431  0.0001915750584649  0.2502797820377041
  0.7473146560376223  0.9178664993020029  0.8339894800005410
  0.5818312818360026  0.1660674305142611  0.7510141052366649
  0.7458999347001726  0.7500611423706607  0.5006610831687752
  0.5797333408297840  0.2507982191369347  0.6676409127242473
  0.1634645489549756  0.8330077151851921  0.6654264972700570
  0.4970166119935645  0.1665354045782271  0.8346417790595967
  0.5810718182422604  0.6656946602402883  0.9172462507806725
  0.2473873846221682  0.7486128569264061  0.8328264877161358
  0.4951259672337748  0.2499604501293393  0.0820183014452175
  0.4949977676011594  0.5814893386809381  0.7494083957350052
  0.0791126174399292  0.0858028411754013  0.3316607638650120
  0.1626572078924944  0.1678865493492671  0.8332539319639186
 -0.0032071664083390  0.0007715254507253  0.1670930252314204
  0.4131443108802679  0.3325939445886021  0.2500006703922096
  0.0806372244174507  0.9164581690604118  0.0001207560857245
  0.5793173170141453  0.2508069997951862  0.1660984919787023
  0.6624445885469713  0.5839820370387460  0.0827645537850759
  0.4147107717581213  0.3341555498953432  0.4152796290184711
  0.7457066229165701  0.4999411947776523  0.9170332641783914
  0.6640900267389961  0.2534692794565130  0.2464336073341050
  0.8301225554022641  0.4986742917636624  0.4996573051339264
  0.4131846017984334  0.0011244188989006  0.4169026270732208
  0.0796064726396173  0.4158173455001807  0.5000783249716407
  0.4976885539775335  0.1666173084119992  0.5016677559314459
  0.6613319481852934  0.6648542099000195  0.3320623661513676
  0.4968913096263425  0.2508145432085550  0.5851903260481702
  0.0813799696899846  0.0861126472117243  0.5015299103089051
  0.7467990169241494  0.5810708294748034  0.3328386409706109
  0.4142373637833033  0.2494938812424516  0.8326355650918749
  0.4965295030841630  0.1667534799034352 -0.0011756207620608
  0.3298722104366498  0.4983571064751853  0.1661142513130336
  0.3297106426712659  0.0007979244193318  0.1664582121337869
  0.4109735074060933  0.4993164039501690  0.2489037673318348
  0.6627732331165799  0.2503299589616731  0.0815282911170127
  0.4153680352291580  0.2512886196499539  0.6670393633212500
  0.5788671201443832  0.4174628836874784 -0.0008502170486882
  0.4129475683879680  0.6662498669643984  0.2498818170147317
  0.5792356450133191  0.4163123173312623  0.3327649387899947
  0.3305502758686928  0.0845706084155622  0.7499589770349079