Cr H  Ni
 1.0000000000000000
    21.1200000000000010    0.0000000000000000    0.0000000000000000
     0.0000000000000000   21.1200000000000010    0.0000000000000000
     0.0000000000000000    0.0000000000000000   21.1200000000000010
 Cr  H   Ni 
 259  86 605
Direct
  0.4974352773513058  0.3346639228430828  0.6671597734089239
  0.0024955957444212  0.0063823652317836  0.6674598004090947
 -0.0052187556757407  0.5824131601636959  0.7486360898137527
  0.0797234855862249  0.3335927951724034  0.4173774274207301
  0.5779876701008297  0.4172545069921172  0.8332106253697785
  0.0805158858536654  0.0854319218403946  0.6675435964994486
  0.2469043959055724  0.9166675429864648  0.8316180416333360
  0.1643274560499661  0.3338928124503984  0.8311211836990184
  0.4116228743301946 -0.0002401009106705  0.0822467109651621
 -0.0066631036773686  0.4176478881518493  0.7481559076697694
  0.7448605396099177  0.9209058801703409  0.6703605457878427
  0.1650517349415260  0.6665037989297733  0.1676430352071497
 -0.0061518486190891  0.4982410220525872  0.1665261885866336
  0.9140775694851627  0.4166285660509033  0.3348635642314641
  0.2467412729429495  0.4171142504033038  0.3348083683937049
  0.8325618798681274  0.0822242142093235  0.5862122496516085
  0.0780945595671933  0.4980790055054097  0.9131178355663618
  0.0761969337202680  0.7484292093270455  0.8282824437955110
 -0.0024592515967700  0.8312874717061919 -0.0013733148500366
  0.0761857475549945  0.6641852976843493  0.9133318610201950
  0.0781516020398069  0.6650058376778784  0.5841987739096167
  0.1630644439146594  0.3340418651292346 -0.0005684732376806
  0.9114099672867196  0.7505156171718962  0.3329170729378214
  0.0807526034810832  0.5006631869092204  0.4165770065605708
  0.3311345632248581  0.3347332568993974  0.5001065918126741
  0.0793178739150657  0.4980214213295884  0.5844783536595193
  0.6631831339194805  0.5006127223685872  0.6669914980395144
  0.0783024820533891  0.6647475673288518  0.4156812396652879
  0.5789144550347526  0.6654242552085065  0.0782037499215719
  0.8294827995863550  0.6657434074292045  0.5013043449393995
  0.4959553275560779  0.2541378503887444  0.2471346484709250
  0.1633412044540674  0.7491917416058056  0.7473757179977050
  0.1634823274180555  0.8325216604649388 -0.0022589514100492
  0.4127459118809625  0.7493679649957468  0.8324925764246456
  0.5802706992676926  0.2507940642069258  0.8326799304241883
  0.4949805825317374  0.3330119529514534  0.1662088799581460
  0.4972231561544016  0.9194395926176896  0.4159039413776568
  0.4961917958093866  0.6656413128450474  0.3330801603540474
  0.8290324012859162  0.9142040490077088  0.0827743404511936
  0.8307361554219216  0.7502358464574227  0.2495559850249756
  0.1641639516633122  0.4131891470280498  0.0847909869689911
  0.3285134369452364  0.9148121065658302  0.9170558585584717
  0.4952871863582450  0.7460651813093295  0.4146098780359615
  0.4965649043208194  0.5004570241439598  0.6664942502141986
  0.4137874034235664  0.4177130647600812  0.3336037280150663
  0.5762008825245671  0.1673578456313404  0.5854105332995936
  0.4939994040100121  0.5800316347195791  0.5843767735574654
  0.4997193961721617 -0.0000793076295492  0.3317638925406091
  0.3287670308304613  0.8351236094525311  0.3329136665471116
  0.6618628246663923  0.3342215867417646 -0.0026757284001968
  0.1625024706871902  0.4969473838423080  0.1690115535693125
  0.6657124704517596  0.3353087008627144  0.3348983161769164
  0.1637113148879244  0.9157872108907007  0.2481064833101011
  0.1662464082559963  0.9157555858693629  0.4170379357054192
  0.9115982312120088  0.6630757305589007  0.5802673360625692
  0.2483957438808919  0.9149016842686960 -0.0000908869454262
  0.3282542793813451  0.6662119739213433  0.6658870514891562
  0.6622269082306302  0.5018387466620531 -0.0016417354994456
  0.4126038218696089  0.6626108114707345  0.4163409984639857
  0.4956411988014435 -0.0021184811575811  0.6687227302105523
  0.5791478985608305  0.5833885212710805  0.8335320182897327
  0.4958248708399060  0.4995344939383786  0.3345693675800820
  0.2454278973016431  0.1682898499477294  0.9105960621421331
  0.6593130141905661  0.0792670769995152  0.5860505302089164
  0.4968350413610121  0.4169862108772996  0.9144701503258507
  0.1631263163584833  0.0866227596687364  0.4197908760814689
 -0.0027363975434260  0.8315366125973206  0.6672851312150256
  0.9152089422128261  0.5836280645155775  0.3345700911267115
  0.9136152490384349  0.8331437621392919  0.7502640333832736
 -0.0010184187504270  0.6638406813391677  0.6660761307563039
 -0.0031282469559362  0.8323616941940749  0.5010864891156086
  0.8252567945454857  0.6625760019056508  0.6662002335846126
  0.8301998186133840  0.5022951207865447  0.1686142650738823
  0.8297104846417226  0.8333139921596324  0.5011083461136212
  0.8330764057995358  0.7454853981530457  0.9161162476132950
  0.0839350515475601 -0.0005420902298003  0.2497456833449212
  0.9131140023096386  0.4173352211196739  0.6661452271196249
  0.9136498870955974  0.2536190949446883  0.3345373166002837
  0.1603972660029664  0.0852499387137161  0.9160552008366454
  0.9119419058381931  0.4171959014232526  0.5011911518152961
  0.9136319911708269  0.2505116735595048  0.5008023055555584
  0.7459295245552918  0.5830236724058067  0.6662388089820291
  0.8312223670520416  0.9194524869873215  0.9150076737557926
  0.0777970440574522  0.9164502436122751  0.8313397040162930
  0.7470526651035607  0.2486916749630439  0.3342559774326174
  0.0793481736515592  0.7529781091325257  0.0025163818490312
  0.7456339314349544  0.4992304884048359  0.4180420663203889
  0.8284677271006359  0.3354371495900658  0.8314144208735164
  0.9128421633205329  0.5830960484784320  0.8324549084903412
  0.4133966378791654  0.0826875675056447  0.8344807173447844
  0.9183078381190276  0.4174018903206340  0.1656507813678235
  0.8301927858048531  0.0821090204534521  0.0787869508218616
 -0.0037554513172212  0.8339438272334966  0.1670670453474384
  0.0798848104544765  0.1684548483371505  0.0823136158471711
  0.0814567479350296  0.9144486413062551  0.0001333449509068
  0.8307201064735621  0.3345164138360978  0.6674826148588612
  0.4126331898551326  0.9173154937429745  0.5004249852082999
 -0.0006164998352640  0.1685019280749871  0.3349324109022506
 -0.0086029950905735  0.9136152463170598  0.4161791785179777
  0.1639777131214185  0.1701928307993333  0.3350450332966240
 -0.0043464384226249  0.2497619578760628  0.7492911928484971
  0.0822305790186948  0.0028248964470498  0.5843178510584276
 -0.0040778573033016  0.6659449190579712  0.1673362352032332
  0.7462929221291504  0.0004679325312885  0.7519243889890946
  0.2472590260628814  0.3378617438395363  0.5829806550451420
  0.4137834182687555  0.4158355856595486  0.1657459356393637
  0.1634722664513241  0.9188274189688083  0.5852734628785423
  0.9125757130381728  0.1672433871793615  0.9149957218927102
  0.8303289223937351  0.1667642627295155 -0.0057617599692433
  0.9129249698937637  0.5830590350766275 -0.0010591237007764
  0.0803777900292848  0.3354772166558423  0.2502889093954943
  0.8302860072213354  0.3307590282006346 -0.0022973798250171
  0.8302618878065748  0.0843426871068925  0.9168075869991208
  0.0787973401553760  0.3337383082730564  0.5843851699429178
  0.0012057913838915  0.1682949839458256  0.1640584856334500
  0.7457390825203278  0.2542263877084092  0.1654038816830979
  0.0797964816107391  0.2495275593771398  0.1629854819752454
  0.8276766563297433  0.8338022266612749  0.3324057502855607
  0.2463681894390918  0.9169303877864540  0.1677815605607496
  0.9125418154696896  0.0848644764681440  0.5011780372040409
  0.0802670700466983  0.0853697143104907  0.8341561184263709
  0.0798868497369393  0.8341033579270620  0.5852512192084746
  0.9105070920266415  0.9170552936791172  0.5028478693634093
 -0.0053170958682451  0.2504453114474327  0.9165539402567505
 -0.0049414600957608  0.4173100350856200  0.0841468990802569
  0.8280650709531030  0.1713767115710204  0.1674507513759508
  0.0776841413150056  0.0868249949392187  0.1645980468876459
  0.6614064408248499 -0.0010407398287436  0.6689598218118796
  0.5786508724818793  0.5824403744979575  0.4999534784665408
  0.6597659610080897  0.5009777873467598  0.3328318474012307
  0.4132549926291382  0.1674931576135375  0.0822277909102598
  0.7433075457804995  0.0825381398802665  0.3342327988876451
  0.1619806043391896  0.7481080817124455  0.4141556951783574
  0.8257368499113760 -0.0006719442643280  0.3339027746369640
  0.5809270289196274  0.5829317081531800  0.3325514002260130
  0.6617743720775859  0.8327632196269866 -0.0003866857462882
  0.6650896002910899  0.9154911959032048  0.2474654905328598
  0.6609164097370295  0.6645509702011886  0.0008475291224163
  0.1636851327827521  0.2525580349846204  0.7494120081529011
  0.6621925514820224  0.5827157372512455  0.0805192423591876
  0.2466703204129075  0.0855378365732119  0.8314498981446367
  0.7469155084237235  0.9134762896130283  0.1640607439058422
  0.1622426386811392  0.0834833608919292  0.5849186607872472
 -0.0046266623834610  0.4176321767495160  0.9164028472703292
  0.8307376887092985  0.8338473059681956  0.1657421691307066
  0.7444829780436665  0.0810297356311695  0.1609655964635706
  0.9100401723437445 -0.0027560782175057  0.2500780327773253
  0.5784798451079931  0.0850411610983485  0.1639304743493427
  0.1636264172932970  0.3314919487754223  0.1673403464806316
  0.2474915414373187  0.4991337338067913  0.9152693611936622
  0.7450662284448046  0.9166091430700473  0.3325845089631807
  0.4931638558721696  0.0014871804110825  0.0010589945572840
  0.0811564250322221  0.7489618371457221  0.3386787698232220
  0.7463934888643917  0.9164927000014860  0.5012813154918401
  0.3305638945358759  0.0839568191276544  0.4187460856866836
  0.5802020764877546  0.4156772334367281  0.5018456169640511
  0.9125119246300976  0.8372423030185959  0.5826379994230628
  0.5802428282996952  0.8330603541303028  0.5830796403868490
  0.5790968889093722  0.1663244074952424  0.4165064115075536
  0.6645942106176049  0.0002823917895000  0.3328707587574508
  0.4951097499744229  0.4196281984084999  0.5848960841883523
  0.2472616047345665  0.1635264056724306  0.5847169926559372
  0.4945566460297185  0.9154722729783205  0.9148667919476374
  0.6605878443645152  0.2485617570311972  0.4196662867942751
  0.3312988535814821  0.5819514483420921  0.4178258612137833
  0.7459268732397805  0.2511240140069800  0.8320447512100161
  0.7442589315604535  0.3320574756145048  0.4138255726211649
  0.1629226668862729  0.6694431716236797  0.0009717381908348
  0.8307043309373837  0.1675106493436142  0.6706802969302783
  0.6616378684199389  0.0820105043206813  0.2474639455398714
  0.2451282682791489  0.4136269566369007  0.1660030588203841
  0.1618869476135240  0.5801282764088157  0.4168528201559323
  0.5780138959082355  0.4134383106873376  0.1675560453253664
  0.7439869400570965  0.1702465738701867  0.4164959309945678
  0.1636918223777775  0.4992331164491406  0.3350101826527341
  0.2423573210218366  0.7479121663392186  0.3346198627011588
  0.2487045696865376  0.7490650526314984  0.8302908344961545
  0.6592248153118426  0.2522106495933067  0.5858790037574639
  0.6618124809205124  0.0824029296040626  0.9155322331902093
  0.5797149776540413  0.8322613201421560  0.0800073714116700
  0.3286217066471594  0.0012818808685607  0.5003764715600102
  0.4918716119274880 -0.0011432836588688  0.1642662044381546
  0.6630750018880127  0.0004828198250492  0.8350534556054572
  0.4129468724876919  0.5844403270589816  0.4996600358997580
  0.1649962708883164  0.2529259454959198  0.2504198853761713
  0.4147398388511468  0.8339731591731859  0.5795156818335855
  0.1627133065501524  0.5818895464863374  0.7499648285017954
  0.5795327858921632  0.8325570392805055  0.7524905322736197
  0.7455791683437040  0.0834381157483816  0.8328964277245545
  0.7437448988653812  0.4181833977243081  0.1685254845967507
  0.0787439553508753  0.4166583667475098  0.6672309215193758
  0.5763159041058128  0.2529965238222599  0.1685308252118023
  0.5823288506135473  0.8365603087355047  0.4166380763317159
  0.6619068699514995  0.0000321808276957  0.5012244849658589
  0.2470730227334140  0.1683605200414222  0.0827395327101097
  0.0792399784662880  0.0849758972036696 -0.0001342379487901
  0.7448485618516789  0.8320294696669268  0.2490952652043960
  0.4122956844072629  0.4170985468950692  0.8323688480911277
  0.5791897259311595  0.0822330068007272  0.8340736880559457
  0.5795267661938732  0.1649679418085560  0.0806781763262446
  0.3299287463659691  0.2500609948952803  0.7486726006643012
  0.2469975584529148  0.7470724519869250  0.1684083274597260
  0.3309870784068858  0.5824328764076001  0.2498474839817576
  0.3312179591571555  0.5826378719387765  0.5838533745571939
  0.4967672767744147  0.2492048870683368  0.4173857733399013
  0.3288235857101913  0.5018099435097512  0.6669335987412746
  0.3336368129811140  0.2526078201015914  0.4200088906651708
  0.3305358268473085  0.2516025588628905  0.2503535999958190
  0.4965853549395622  0.6676799366739793  0.6696969430277638
  0.6602769731285372  0.7502437388004037  0.7561467419115401
  0.3305125941320801  0.3336802309354961  0.8322475257288073
  0.4102572322381950  0.1680409997358713  0.7485831328178505
  0.3304966817067048  0.3336641542041763  0.6660997909360528
  0.6620824663020777  0.2511938630715226  0.7515263252717977
  0.4120389147753181  0.5008277094155463  0.5833743974088293
  0.6619325157681006  0.1668279027092798 -0.0020920333171282
  0.5799244652263839  0.7506419672404588  0.8332218630649262
  0.2453943361779272  0.7520649872384056  0.0002262454799205
  0.7468303982210623  0.4154568294643993  0.8332153271650248
  0.4961657348387928  0.0842517911647612  0.9163467734122516
  0.4116659948411343  0.5840510013401804  0.8333878733288395
  0.3314494030286584  0.3373625941137616 -0.0019046571727733
  0.4921224812907725  0.6671053165686817  0.1659359345437773
  0.2492085680937942  0.4998145268477255  0.5849072322817507
  0.7464720654090348  0.5826936301135103  0.8324566701972425
  0.2470332766110709  0.4152423030857423  0.5012456380798898
  0.8269914941918223  0.0008737120125191  0.6707712743943011
  0.3298548850040017  0.1674598282514819  0.6688044947823725
  0.4964377465127220  0.9161963791730027  0.7505819676893425
  0.5798767026319416  0.8333758778313223  0.2495966381021284
  0.8304251938527232  0.5849825564519074  0.2492221745245798
  0.1642660892349809  0.4165680378756134  0.7496458905089795
  0.6615639912640187  0.5821523374568786  0.2510912752321999
  0.4970156716627259  0.0817978900098773  0.4148514226820997
  0.0809304970789537  0.2514088320648552  0.6662715650691777
  0.7492811795426551  0.7504489837041843  0.1644490673059955
  0.7464466787165204  0.6659437351319563  0.4213107758435304
  0.4949754864520373  0.6655953793058029 -0.0004379642722897
  0.6622449330819379  0.4178178922769668  0.5842385635695807
  0.6619623568411085  0.7535896282911662  0.5807797210262878
  0.2479270034174927  0.6639566311409902  0.5884697676780277
  0.8298721651954124  0.7505624070932705  0.0834620101829869
  0.6623155914581298 -0.0007518554913100 -0.0023516292417814
  0.4125015947362907  0.1665148032464552  0.5863778695563229
  0.3297406923741628 -0.0015652611294046 -0.0000500616545271
  0.4967070316915419  0.2508874794954679  0.9151381652484152
  0.3310827935745561  0.5826655368054904  0.0828321841254088
  0.8272437966909808  0.7494026117110670  0.5810442919272150
  0.8318929819381234  0.5060221261524974 -0.0047711585497017
  0.4127279974663881  0.8318160793752475  0.7546845323315199
  0.3273101788834645  0.8329271383769067 -0.0003653342906781
  0.3307323956598476  0.5837046712521816  0.9157203658981675
  0.3294204854864127  0.0020130558934162  0.6675066903538608
  0.3310155296414246  0.0860130738513915  0.2489037241516221
 -0.0031655540470773  0.6645324725957749  0.5005244210806724
  0.4118073133004868  0.6661375333135233  0.9153621874235668
  0.4144113190136410  0.7486809970174214  0.1663351677242922
  0.4127630496180410  0.4157235241740764 -0.0020685569213832
  0.4122076580863270  0.8331175715476825  0.2502152112748263
  0.7497840450843283  0.2516332176577845  0.5854049469184662
  0.7475118088117554  0.0842882388174647  0.2479075527529857
  0.0794121490724444  0.7502507799954071  0.2477650840516923
  0.9107983585068568  0.1657310745808710  0.3348420027517542
  0.9151527345025866  0.9997660991381294  0.3373311793487903
  0.2453950272289320  0.2508112590240493  0.5831838717571921
  0.1645472211778302  0.6637516642653882  0.9133952905869329
  0.0775646857154804  0.4981277557252747  0.0034348370835931
  0.3241598371632732  0.8326510239477865  0.5826261852159070
  0.9932350280465942  0.9194214407171879 -0.0005993597251276
  0.9141815014622245  0.0871399791859823  0.2505889512606126
  0.8308201257366579  0.1702516199519725  0.5813261578393835
  0.3314965593323684  0.2473269020870524 -0.0019522011472350
  0.7458318237177455  0.0844783254908987  0.5833325089823258
  0.3290040907737530  0.9952627098518964  0.2490666376380742
  0.8308368199768085  0.0835165208683234  0.1663187314090620
  0.9975756461414429  0.0046603840931570  0.4168032939181763
  0.7455209029816884  0.4171032065512314  0.0784354914060507
  0.7458285969190194  0.6674496006731824  0.3300728958150332
  0.5782721667101458  0.2530191700619753  0.0797209268646389
  0.1632115467259681  0.7497971556728723  0.5051883221331261
  0.9970790590608360 -0.0001585431808208  0.2493927663754473
  0.1674213456723443  0.0830168163118903  0.1650307744319386
  0.6621680488628484  0.6625034238748941  0.5836354284479585
  0.0785945082669999  0.2491113166560828  0.2513627864652664
  0.8298341225211597  0.1690107654229940  0.0813714332945552
  0.1619823483258447  0.7499300978783959  0.8331352271262353
  0.6616844065242921  0.7479719997985630  0.6683784094849250
  0.6628852380471668  0.1658115109741811  0.5850559272402899
  0.4957563669109663  0.9128988793156435  0.0031279401384190
  0.4954589186825783  0.1634543003479590  0.2497592638073488
  0.4960629065581218  0.0832828266122465  0.5056010264893918
  0.2477193635891194  0.0815170836604291  0.9184199962846888
  0.8264162004684659  0.5823268157286400  0.3382086287660555
  0.5778898351600965  0.5031367564752173  0.1647310536937825
  0.8278142982109989  0.4966588970345473  0.2554600103702573
  1.0020856667722196  0.0872912406118739  0.5004717073201174
  0.2463799336089429  0.1674957789186414 -0.0036027600056574
  0.4998958246448779  0.1660422079403681  0.7500882685184564
 -0.0866755895805271  0.7497006598313789  0.5837595612113500
  0.4082486359991317  0.7521046839011686  0.4178391801258937
  0.4969012532869389  0.6687691341668077  0.5813354312393141
  0.2508867447121833  0.6626928811434746  0.0002032711997926
  0.9143751398771690  1.0009543118760389  0.6692609799839159
  0.0757512274736740  0.6649730695686409  0.0021259027596898
  0.8304704411960377  0.4183421763539706 -0.0014062941093320
  0.1623097479331506 -0.0035633699297728  0.9168717683298789
  0.7454785199603091  0.8309413618721679  0.6704368019049946
  0.8292011245591516  0.8325296532790117  0.9160260681136183
  0.5753854718732067  0.3343774428967419  0.3342757344595095
  0.1648869910730850  0.5017717035672887  0.0809627288024854
  0.9963535072391801  0.9185848430432246  0.6692914954878658
  0.7424946774664353  0.7491092867598843  0.9166264406972474
  0.9120868324880946  0.6655891194520085  0.6674673738435114
  0.8297098469329731  0.5003572376379690  0.0820110234795583
  0.7466044427932834  0.3348010333558332  0.5040567661557138
  0.0796812148022980  0.5815469084637446  0.2501839791812414
  0.8283915734732120  0.7517826014641309  0.6705928955963832
  0.4951613749876126  0.8331416596524603  0.4159921975297919
  0.1639280192437804  0.0816918640603343  0.3304424144658437
  0.3277290991534864  0.9122062867810419  0.6682390659548951
  0.8245492679051107  0.0848012604400535  0.4979659648848079
  0.7427091583112420  0.1674763758611350  0.1644866595220977
  0.4106901731061474 -0.0000165613243953  0.3330466262801898
  0.9162671902598835  0.0000105970265897  0.1596602170365735
  0.2485842268833855  0.1675545099549410  0.1728287016505214
  0.0778780965772625  0.7507591263271789  0.9160556638978484
  0.2460248775763777  0.6665701537074739  0.4972833574661529
  0.0752480880352613  0.3341245640628250  0.8334698288419350
  0.5777061376257939  0.4183049593784521  0.0777024433502247
  0.2464303313870872  0.0003940089277042  0.3331279072948572
  0.1623761246836867  0.8338015588444391  0.0874881357195720
  0.8307384177942386  0.4152292511751763  0.1673118581911598
  0.3309575324755861  0.7462237060689678  0.3332451390656995
  0.5811040490335507  0.6667969038217657  0.1676757111170855
  0.9980404978858552  0.9193514957770612  0.5021302046902031
  0.5805565208071606 -0.0035570867524005  0.1637856842866937
  0.0784355264003191  0.9177091171783950  0.4166866861968044
  0.4115777047120651  0.8321823876153062  0.6673065913801818
  0.2509614771910779  0.5024080051453842  0.1664143000924333
  0.5833959704760123  0.7473068415087404  0.4161662170732483
  0.6591546571186336  0.7483087608003259  0.1662666823726247
  0.1632283930454133  0.5793458734395697 -0.0010993034803158
  0.9144041959320766  0.1692673272402248  0.1645747697565101
  0.2434877571242554  0.2509083751323101  0.4172107533647826
  0.6601317665524160  0.2490539644644163  0.3320704641109906
  0.3298850615808439  0.4161051831929788  0.7493776357916815
  0.2473473322660943  0.3342517123963283  0.7490510707480204
  0.4137267912935523  0.3342776403499940  0.9144891365975477
  0.3314945397844555  0.3335299745399427  0.3345066923707869
  0.6625196269109538  0.4172255986892036  0.2504097720165096
  0.2475256602968750  0.3354752720060613  0.4171757124734028
  0.4125381436291062  0.5001764885596702  0.9149797723064277
  0.2469443318901225  0.4155542107688329 -0.0012866518786971
  0.4125294174055282  0.4169952050069411  0.6681481043487394
  0.4955507405677395 -0.0005383508846105  0.8344602593991910
  0.3303373181085913  0.4162194843571574  0.0826219907233207
  0.3302719963583550  0.4169917026282071  0.9150373790057180
  0.4134629474978925  0.3346866603002748  0.5842570535442607
  0.4136396934619486  0.3338538731721289  0.7497786943458722
  0.3308778165083127  0.4993304387503680 -0.0014618394553660
  0.4130134023947437  0.9147864868108828  0.1661576405560548
  0.4127065929667833  0.4993353838723485  0.0824288297524775
  0.3301767109092202  0.2515932026301962  0.9133936995985137
  0.3305686662584324  0.1673990955382856  0.8319952483691140
  0.4116415773665767  0.8315741772361839  0.0834493149208266
  0.2459492574719095  0.9153038791539170  0.3331839501775597
  0.3294546925022277  0.9146302510862440  0.0836188089888770
  0.4122537902401596 -0.0003665962666841  0.5841530293487875
  0.5785360787895557  0.0001268833098563  0.0801759445079916
  0.4956412639999397  0.5006092196454834  0.8327395395654439
  0.4104718687716766  0.9152143754123191 -0.0003073442568172
  0.4129762459450774  0.2499713778433879  0.3344929665605502
  0.4142674570847459  0.2506473197977113 -0.0019411188546045
  0.5788567593446829  0.3343688949942432  0.5846828687632959
  0.3315609986243988  0.6665171030213601 -0.0003977890873329
  0.4135438572260624  0.1673777427901842  0.9143125479486963
  0.3293468263282293  0.7490168670702667  0.7500979327646358
  0.3298992091537810  0.7486634918656422  0.2487282289376396
  0.3295010197576556  0.9135005903078776  0.2481929378858189
  0.1631628650357456  0.7488067617532866  0.0848676049672978
  0.2466823752242286  0.5818459122106887  0.8323194844786885
  0.5794410729908837  0.1669838401850983  0.9155628456811321
  0.3315488915907731  0.0829673263445715  0.9152897117927017
  0.4124762777321087  0.0838711375390128 -0.0009937232112740
  0.5795301431533233  0.3355644416264645  0.2499870199152414
  0.6626565033506475  0.5803786463559246  0.5830744975772093
  0.4933944453730258  0.3333941910560524  0.3336315866946541
  0.3307870436824311  0.0838009829813072  0.0829223899195047
  0.4963626458144451  0.3337797250479839  0.5014334323217758
  0.4117219311300234  0.1679032602899499  0.2506309067825759
  0.4125340667216859  0.2506518943202629  0.1663078193747588
  0.2449620771620645  0.7493012402700701  0.6666469659599761
  0.4130574385975416  0.6665010837849984  0.7508140302153894
  0.4138714865797158  0.7482463759888631  0.6672031554113065
  0.4127210733349834  0.3340837111389742  0.0824013592822202
  0.4124610021884304  0.6664765739423988  0.0825168979018261
  0.3290574016314908  0.6665885510772867  0.8315858752450196
  0.4125082055604871  0.7493970738873122 -0.0006480630037945
  0.4125129629743869  0.7491741909896247  0.5013470308563078
  0.4962304649270614  0.5838655597779069  0.7501314894743887
  0.3324839257528034  0.4992611704487284  0.1665028725404688
  0.4132989359870052  0.4994634139681884  0.2501632162451783
  0.4132703243737529  0.2519576182533244  0.6657717112636344
  0.4131267069702834  0.6652066417067233  0.2500140127902420
  0.3301738082799942  0.0833208365807053  0.7502932691455507
  0.4136149302954628  0.4166630862809916  0.5008197687863024
  0.4126837313941635  0.5844463964221154  0.6682922401197203
  0.2471367080993409  0.5843859813989108  0.1671914735253650
  0.4130548286209179  0.2509748277693207  0.8322255829656990
  0.3305890019776476  0.4990733536788013  0.3339651084844520
  0.4133660140529462  0.4998854807108732  0.4177525967448537
  0.3297602824341633  0.4987047104023006  0.5000338259525497
  0.3292739248448061  0.6660958908138845  0.5007234584382294
  0.3314036243360740  0.1665895623114026  0.5010832653328257
  0.3297646356490682  0.5835193581572883  0.7495496536919657
  0.2460257457727518  0.8330962429129961  0.7505011608296174
  0.3291470522472146  0.9183204538270728  0.5824533511671883
  0.5809889474569544  0.9166282318682795  0.3320503759197197
  0.1612137868024730  0.2519738603293063  0.4179776136655425
  0.5773557209089708 -0.0009427935181768  0.9171791738318652
  0.4117641280194634  0.0831477493826913  0.5012096923394915
  0.4970965397065636  0.7522940548628341  0.5832550117440601
  0.4969070928434204  0.0805997847242948  0.2475770315396273
  0.3293349931306427  0.7481327248655563  0.5840881275498565
  0.4955051976987871  0.1675253452910242  0.1645791351543927
  0.3284384134654769  0.8310373913684699  0.6681697432194287
  0.2469603353884592  0.0844517104579121  0.5006679446260243
  0.3285961919668239  0.8326394817490682  0.8333154239374869
  0.4125772741339539 -0.0006740094087841  0.7513060265527213
  0.4959223942077625  0.7487498690990401  0.9162289711596898
  0.3306037614541025  0.2509656216217800  0.0829226678564794
  0.4949436455840403  0.9148821514837002  0.0844742192375771
  0.4118527590173651  0.8317296074580512  0.9154686987591460
  0.3294385204669118 -0.0002454413979894  0.8335384245253962
  0.4126386039092473 -0.0010998649357987  0.9167600569232123
  0.5788814870453904  0.9134487917825977  0.1650416389560365
  0.5786758682817751  0.0828329369708110 -0.0015010866448784
  0.4947968353337144  0.0841558190137537  0.0817087427965791
  0.5789397531011805 -0.0011078817602432  0.7515272363748127
  0.4962336242418707  0.9162465776426282  0.5837555517928236
  0.4131760508058330  0.5005151343902138  0.7493160799469250
  0.4138026139183765  0.1667836556461649  0.4171113868764502
  0.5798909827612447  0.6656016480099504  0.7513147117635905
  0.4959787885066603  0.1665058729203450  0.3346163103885422
  0.4961512359570334  0.6666172188642414  0.8331300421916500
  0.5785973328414061 -0.0010274716352562  0.5848822786824044
  0.6629059095623209  0.4176607718788911  0.9142890488784743
  0.4140937779359807 -0.0002907342649364  0.2480380472162460
  0.7475560964290847 -0.0023481997352677  0.2468350484196963
  0.5810954086177050  0.1667571770481474  0.7515163459567502
  0.0799717716665810  0.1687967026292147  0.7502121245554519
  0.5789275660440800  0.2511017952286559  0.6677515545636605
  0.4123469952036184  0.0825579350059404  0.6677718281190397
  0.4964613333616481  0.1672213109387331  0.8338444259361052
  0.7457202961232213  0.0828443013554334  0.6700445599724786
  0.3297612109759352  0.9167999035525304  0.7521418788132674
  0.4942757421848006  0.2505703138328840  0.0817972944540741
  0.3303157613159353  0.6661442101883472  0.1669820086769590
  0.3304092644618369  0.4167956786596432  0.4171243005482195
  0.1614724963644038  0.1686930734976460  0.8318082008997895
  0.2461156081876474  0.1676980783060503  0.7502539039564592
  0.4122530517611826  0.3340334749831725  0.2506872798076190
  0.3307421756538815  0.4167886700366446  0.2507152123909143
  0.5787412160728348  0.3347362892521377  0.0812913241204880
  0.5780230645824808  0.0823346222239848  0.6683397652135488
  0.4143545040272503  0.3339580314683723  0.4174171098248919
  0.2476228118434422  0.2507997333460997  0.5012093079915746
  0.6624517007018214  0.2514652226428424  0.2469824108843333
  0.6608838514106499  0.1650997316756844  0.3315795584233052
  0.4125767999925244  0.0005745373582530  0.4173451035093986
  0.5764345697518588  0.2495381678559249  0.3330867221216112
  0.4961958123256104  0.1676243593533517  0.5005105642948511
  0.4129850606062469  0.0848430200586607  0.3339301500906833
  0.4955379786953272  0.2508531845538627  0.5851318095114831
  0.6625303565830916  0.5005926551642623  0.8326455820636481
  0.4952297754412063  0.0827112800253046  0.5873559382803746
  0.4950270594354909  0.4161328663500188  0.2497683558575799
  0.4958488864609295  0.1668471028100045 -0.0016898302796858
  0.3291659681372231  0.8315825353116575  0.1672646585403006
  0.3302054877824816 -0.0001598931028569  0.1646623586014980
  0.4137360679277636  0.5818447491809852  0.3334804548807334
  0.7454364772522594  0.3329912505390641  0.0815596022170775
  0.2479679859559371  0.2509929620392570  0.3335569762451400
  0.5795277918915956  0.4176005179467058 -0.0044112370294835
  0.3295304666948404  0.6628996954051757  0.3332473150178610
  0.5785148454047151  0.4191042530164004  0.3345405098990561
  0.2463865740170527  0.6648970055777607  0.2506554210248813