Cr H  Ni
 1.0000000000000000
    21.1200000000000010    0.0000000000000000    0.0000000000000000
     0.0000000000000000   21.1200000000000010    0.0000000000000000
     0.0000000000000000    0.0000000000000000   21.1200000000000010
 Cr  H   Ni 
 259  86 605
Direct
  0.4972964980119794  0.3339104007157367  0.6682011330317503
  0.1638415866963900  0.7489151029283132  0.7522519062507163
  0.2457978185476800  0.9159860586796242  0.8370324505133423
  0.4972455203495647  0.2518249161771202  0.2478098589313353
  0.3252228452733335  0.9161208887672295  0.0852142275058061
 -0.0062864615418979 -0.0010933321784568  0.6683639669325807
  0.7459435266074620  0.8337223268531515  0.7525192491307892
  0.0799404984497339  0.4176869780728091  0.5013863527944480
 -0.0087637969800238  0.5009481296867112  0.1705383180732349
  0.0741432251181396  0.0824058213999021  0.5006186305686247
  0.2511965769801405  0.4160748018331655  0.3344003580980057
  0.1635668749084939  0.4163979307597076  0.9168587240229538
 -0.0055869458980957  0.5827985146236223  0.7518130886285518
 -0.0051339730531988  0.4177381049151276  0.7477062201552356
  0.5828151160553975  0.4172822075604063  0.8315669331843281
  0.1599744586604110  0.6628080393707375  0.1628972787082245
  0.9121525152284603  0.4157897920609608  0.3342595116549215
  0.1630217452732182  0.3334399499474141 -0.0018122437537009
  0.8280249369135907  0.0832884809411262  0.5872699203413309
 -0.0041040932033306  0.5802006507508511  0.4176647722986273
  0.0795535711854495  0.4980762809370234  0.9152186431700075
  0.0803639304790755  0.4995243885571465  0.5853020728621523
  0.0797955273446815  0.8337001558420121  0.0766242990447251
  0.0799282788931692  0.6621591398694835  0.4126282592075463
  0.0782648509910944  0.6677093094658425  0.5883583302295909
  0.8292754369252914  0.6657505818702731  0.5000465870287604
  0.9125631628436178  0.7497557638886940  0.3325767430337444
 -0.0043325336031964  0.7518822278521814  0.7513524392928397
  0.3293735297145048  0.3345086629973404  0.5017153749282062
  0.0788600116823443  0.6653766610719910  0.9155341676503372
  0.5810062087750721  0.5814366624472844  0.0013798216305884
  0.7461719209071368  0.6671332588170131  0.5855967303474209
  0.1615337459286330  0.8334777279405773 -0.0019849535802025
  0.6621517859944666  0.5006553483812718  0.0001812994887246
  0.7458706036469395  0.1629930968945227  0.5815606598943782
  0.5808046721220647  0.5840737220300820  0.8321132091560380
  0.5794096527717991  0.3344204805249817  0.7495414684742464
  0.4129718273524941  0.7495520293637288  0.8315545254583775
  0.4112776653719826 -0.0009216710464023  0.4170605652879031
  0.4972139296203760  0.3333910448499887  0.1671470730073374
  0.9129908654308696  0.8294883811880505  0.0815264288063992
  0.4929419215051309  0.6675219251966796  0.3386874088175977
  0.1634245353148140  0.4151142256958724  0.0827047625779850
  0.9100783729315217  0.8328508614585699  0.2507519100164907
  0.4956948239554973  0.4191113439010148  0.9185990530047987
  0.3242827950100336  0.9159046740168835  0.9102776125730794
  0.4150293698639721  0.4160375014853400  0.3355844260046564
  0.4954824950831103  0.5003916880873072  0.6659117183871383
  0.4949866603887465  0.5827661559730086  0.5853423301109294
  0.5787295964473615  0.1671174347963631  0.5859663696106505
  0.3278041705805714  0.8314331908134126  0.3338416809006441
  0.5776291667552740  0.0843204352188359  0.3356187762337298
  0.1672994057912302  0.4945668863920371  0.1645271158702673
  0.6622450092467840  0.4999372916275377  0.3338436311021047
  0.6621354927380729  0.3350747446459884 -0.0010823469762569
  0.1638820537845804  0.9159015031021565  0.2486916609416438
  0.1647010037102300  0.9165144350582911  0.4173890388354803
  0.6620036923867677  0.3349109229188689  0.3340697082554580
  0.1617094612529816  0.0018332489089194 -0.0033492970397483
  0.3291857374063589  0.6674839181913029  0.6669219190723307
  0.9103392723755162  0.6682311813419510  0.5839606923371919
  0.3307994736438234  0.7484169400273998  0.4180400668948174
  0.4966386642482916  0.0827828413314572  0.5847776651744059
  0.4960095779640601  0.4176397266134539  0.4169515311994820
  0.2463934423758367  0.1677259322495473  0.9131511421734719
  0.8292829532872578  0.5800390527243194  0.0805488768210819
  0.1629510361700634  0.0001578738588028  0.6647202891418988
  0.3305445626712820  0.3321177400817035  0.1674398851574903
  0.3292520648504090  0.4162851701887966  0.5847884805687885
  0.9097082620721825  0.1685980287816427  0.0820938706363792
  0.9109951313658392  0.1677911092640015  0.9135558436697626
  0.8283032986060433  0.3348415230082084 -0.0015141671148811
 -0.0056883024920998  0.9136455591097011  0.5866515192099848
 -0.0046139967271928  0.3283505356142016  0.1675007076848083
  0.0791879940990977  0.2499637755104754  0.5006034300094423
  0.9117208902095761  0.1720749475720844  0.2517907631582660
  0.1621608002077897  0.2519268430855814  0.4192288250358644
  0.0790352518130986  0.2515550883046953  0.1633240863437861
 -0.0028517967580718  0.0869036518200156  0.2492645892537292
 -0.0059787374505568  0.7497811739404692  0.2540768408508930
  0.9114255337213888  0.1680793401784490  0.5840607079759489
  0.2492903053163005  0.0863099403483404  0.4993558460046977
  0.8291312105219613  0.9166344815087589  0.9127011164933663
 -0.0053827638949456 -0.0004401386865074 -0.0008310649479617
  0.0770725986009292  0.8323072240204641  0.4165786705243651
  0.8282788494413835  0.0856222220265151  0.0787335548980718
  0.9087529379966904  0.4150680180277090  0.1668562890785951
  0.4151434987737331  0.0808589736067373  0.8327882349339445
  0.9127496958449923  0.5835930821539289  0.8324936331061148
  0.0791712408139348  0.1690533865958947  0.0822662746853828
  0.7447996184166311  0.5823951871430479  0.3353807411665167
  0.0801745717278643  0.8334273750777806  0.9167858001177681
  0.8283286433096214  0.2496091464850639  0.7503608043849056
  0.7426503298199260  0.2530137983596928  0.3349470297924336
  0.0777149191328082  0.9159833694787534  0.8338651932886941
 -0.0039197174124542  0.2499731939941926  0.7481881992564609
  0.4972967663972950  0.9137714273344083  0.5845871630043674
  0.5805944316482410  0.1678071130528215  0.7525005885545873
  0.2458261446053153  0.9145177206953230  0.1644085846040541
  0.9128658700982858  0.8330849714603883  0.7512228610478157
 -0.0056891592202990  0.0013289317486687  0.3319925617056517
  0.0778353492594904  0.8320051923410869  0.5858784452570027
 -0.0056116163473383  0.7528568340587366  0.5850326379550541
  0.1629513685157352  0.2514785778172370  0.9168739316447008
 -0.0050906014864791  0.3329946692331069 -0.0024644832846712
  0.8289451344687085  0.9143668673015751  0.5843381233921638
  0.7448694445632488  0.4996908943186868  0.5836769020828815
  0.6633225607452010 -0.0022160969816831  0.6685701286125763
  0.9120067341214877  0.4167109437922444  0.6661221449570528
  0.9125975344920012  0.3343936547133867  0.5837685937093452
 -0.0043414882800935  0.8337780268676667  0.6695272194837162
  0.9105588430468645  0.4171704864102261  0.5030549458478155
 -0.0061361609166694  0.1699726860008890  0.3325410033402467
 -0.0045990157181427  0.5795271199401286  0.2498998411067113
  0.9113528991727907  0.2512528488797146  0.5027261537864837
  0.7494918323701161  0.7488111820698666  0.3346378579948455
  0.9115930295933812  0.4980716248769163  0.5847523912357186
  0.1607297247852228  0.9165209216007255  0.5854343753163254
  0.0772136092534943  0.0840777560140035  0.8339242618996010
  0.8261488563978703  0.6667522743708016  0.6661711940266828
  0.9080364938702911  0.5812371448144897 -0.0017898930324778
 -0.0048868912769849  0.2514256033419322  0.9181831144174428
  0.8279337721081144  0.7501269087447358  0.9155116700385895
  0.8321712226981428  0.0855864925335499  0.9141097031406695
  0.1602695916272151  0.0861854649391716  0.2482484611554408
 -0.0084842973043366  0.2517463657907356  0.2514955770328376
  0.7446031263126454  0.2539367322123191  0.1663503727123264
  0.0758050392364659  0.0024272363359054  0.4193214589285254
  0.5782545459674027  0.5840877530954908  0.5015514992675990
  0.4940154911382010  0.7485161749229845  0.4172053604683089
  0.4138129174840068  0.1689721839871360  0.0809766490613957
  0.2460819262772343  0.1698435555599062  0.5843773497493824
  0.5786773512515125  0.8341632327099900  0.5832464078496269
  0.8253548377987298  0.0882070348382217  0.2531315329623296
  0.4952907521741767  0.4178539766760467  0.5841487660790711
  0.8271258942190284  0.9164906781619807  0.4169422633313341
  0.1620911762579562  0.6650690835884239  0.3376410092665553
  0.6619564719607680  0.8317694695190414 -0.0005395245553125
  0.5814505413051214  0.5792780851283724  0.3330821028812318
  0.5812652129337972  0.7512956366487707 -0.0023745405678935
  0.6626081435451741  0.9155969076562611  0.2498400045469321
  0.6613757778898716  0.5781431077960903  0.0809173384811778
  0.1587704890413321  0.2506595345858748  0.7495958467370587
  0.0807230543279389  0.0869392691065976  0.0001389066287606
  0.2464175563389332  0.0855859774682052  0.8332862303678190
 -0.0051699034342881  0.4163574957455907  0.9157437399489893
  0.1621204864581755  0.0836660900509863  0.5878129343082981
  0.6661538518266481 -0.0005206846790740  0.1666572073355811
  0.8289468297604069  0.7480368021460987  0.0810563774074893
  0.4163517903898036  0.0845593737795106  0.3352032541797249
  0.7433501848018114  0.9180427916390046  0.1664150636718323
  0.9147891275422528 -0.0008014848080912  0.2486938837815866
  0.2455572574363582  0.4988666577753315  0.9153891270850155
  0.7435792385269866  0.9165276052066269  0.3323529120058256
  0.1637379962331700  0.3337553079283539  0.1671873075324984
  0.0774144626584447  0.7492052504410649  0.3314327716006435
  0.7471557264410288  0.8340131193837804  0.5833673891578839
  0.5831101688253455  0.0002110800461237  0.0781223298583232
  0.5782943378268850  0.4168536350687723  0.5016368864323351
  0.9114264769614985  0.8324116856694143  0.5841323218155290
  0.2490563941477841  0.0000238165518645  0.4178142928984020
  0.5782755412445860  0.1650005510847269  0.4130306607225834
  0.5002444624149714  0.9153911611249798  0.9157270073089188
  0.5789682464555240  0.1714110297544678  0.2500256439915237
  0.6626350657320706 -0.0020666200464804  0.5004072321430437
  0.7450372985014742  0.1688364408906209  0.0792296722312445
  0.6645248460242331  0.1648047182341210  0.5014002047243156
  0.0768280650938795  0.4993841140622235  0.4175368239880695
  0.3299172399961484  0.6679040840771184  0.3360385648243274
  0.8270502756699312  0.0824054001969863  0.4138084138990260
  0.7441418366217907  0.3350375184681622  0.4148290842727537
  0.2472430530823758  0.7493787250113236  0.3342368334021452
  0.9125283273993391  0.1665483897953551  0.7515133499657712
  0.5763912625263082  0.3367716242165495  0.5846422847582021
  0.2463006169731775  0.4147797224560227  0.1654621617885016
  0.8297963986074822  0.1675747930574243  0.8317908043979090
  0.5779129503537651  0.3345805888687570  0.2491231371404466
  0.1602451253273962  0.6646871970293398 -0.0026782365313979
  0.0754393720539700  0.4176563630568634  0.3353524987039564
  0.2453168889995785  0.7476325134812061  0.8328485355056295
  0.1654445332722062  0.2535112131308361  0.2494998808411295
  0.6599116819625631  0.1688925030134259  0.8322109084100814
  0.1633074472113991  0.5825858561434182  0.7482067962444792
  0.5812528315568147  0.8346236862563324  0.0810293096277580
  0.8303421757748430  0.0845665457960937  0.7520363174541517
  0.4976223043114300  0.9149100459269435  0.2470574045509823
  0.0792507930153952  0.4175270177039209  0.6675718255976616
  0.4137671841997269  0.6659867572412619  0.4188245958765411
  0.5791466131777898  0.9141136624402636  0.5025990050986187
  0.3292793843220063  0.8311735625220966  0.5001621104035520
  0.3308905012092881  0.9128717407705473  0.5824087901588408
  0.5800343313177944  0.8318083986527636  0.7510082157260503
  0.6617432106047257 -0.0007475820311866  0.8324157725543400
  0.7449575729143247  0.4158038286581314  0.1655003699789989
  0.6632172174063941 -0.0017170624926932  0.3328040183228066
  0.2467230110812973  0.1724825181679471  0.0812910051539892
  0.4959198887554895  0.0824041695132772  0.7510291913418561
  0.4123370394867782  0.6616414569484032  0.0825851907654497
  0.7451772694799380  0.4195881433366092  0.8326218113865166
  0.4955187010098309  0.0851574495643579  0.4165833619008653
  0.2470856027786980  0.7492409169369426  0.5022816609240816
  0.3302395615552807  0.3341610674191192 -0.0020639986549543
  0.6624341793945029  0.7508840974156914  0.2475546721997954
  0.4128384500243320  0.1696607266185834  0.5841700292024324
  0.7458396300720024  0.5841326050899289  0.8319653342020845
  0.7439341000963057  0.4174638437140354  0.5017075015314538
  0.3305707394178178  0.5856567200170016  0.0810897304517710
  0.8301850707922724  0.7499383825715920  0.2507071443689914
 -0.0046571042890664  0.6673814345679803 -0.0059609042457750
  0.5800152281025415  0.8313050964666325  0.2500271699492160
  0.2444066499427868  0.5005858147585011  0.7482557924268342
  0.8303764294659789  0.5805172717649123  0.2511508033459584
  0.2445486557665328  0.1645458198642210  0.7522315369537060
  0.6586257144552145  0.5803060198208239  0.2509320245377923
  0.2486247186599146 -0.0026431689395913  0.0801931462086896
  0.3289604875962584  0.6647222497809139  0.8330307316437991
  0.0802012856530808  0.2506058445826952  0.6679269697397754
  0.3298254452063135  0.2517368919966366  0.4189514368503591
  0.4106128703334257  0.5836644000995863  0.8320944682800547
  0.7458882481184124  0.6659215403662985  0.4129508385806221
  0.6644688379082998  0.6682530013440038  0.6616902990910883
  0.1622134712741831  0.5006299376069575  0.6664042196969645
  0.6645408225902745  0.7510672476537392  0.5844261908997462
  0.3291752288185509  0.3328078238814311  0.6669388757351837
 -0.0059790640663354  0.0005672778987697  0.5001591167999143
  0.6618974448331929 -0.0000189132893008 -0.0002819472555031
  0.6601121976285637  0.1689340150588614 -0.0002591525568993
  0.2475476699121890  0.5839744593386496  0.5027470940114338
  0.4146561792481508 -0.0008442156870470  0.7515925019667800
  0.4133831899973171  0.2546863490155820  0.8340627725153166
  0.3327450706784588  0.5861377143911282  0.2523132628772284
  0.2476338377916787  0.7505518354655208  0.1675453150817175
  0.3286484720939740  0.4991857119551516  0.6657268952326990
  0.4968099749563779  0.2503664235241773  0.4167398643769579
  0.4967370915413610  0.6667644834201012  0.6654247316610047
  0.3310723606073402  0.2522627657401283  0.2491076180709752
  0.4971554477565940  0.2525040219936148  0.7498868008865320
  0.4960897472697179  0.6653231891192291  0.1630813903352424
  0.3328601380654426  0.2530678456059613  0.7496125597837733
  0.6602897207000437  0.2502746014719217  0.7500680338092953
  0.2491061605568360  0.4161174595771865  0.5023568523522094
  0.5806199601823883  0.1682001918542541  0.0805724883204156
  0.6628387041784685  0.6654340163531441  0.8356669551244226
  0.4126038592118170  0.5001820353668146  0.5848611875996587
  0.4961970655340519  0.0833439839622024  0.9159860498177396
  0.8288453879513733  0.5012151056490124 -0.0008027057841786
  0.4095213051369175  0.4192330424398496  0.8331102024773460
  0.8285185451784615  0.7491870432466438  0.5844499355477700
  0.4949120932491718  0.2530261782929184  0.9164846592420858
  0.4983760754293342  0.4986895629665171  0.1662101841387481
  0.4136114543860350  0.9135662750092073  0.1681267366572396
  0.3303017283535817  0.5827050482242380  0.9161778837591167
 -0.0055369101450869  0.7494463021466514  0.4145578999893713
  0.2468003915931138  0.0886006463399235  0.3361796102039736
  0.4105369922628888  0.9143160352398300  0.3343776492879932
  0.4133003353054763  0.4987208104199105  0.9153731443474964
  0.4118279710284041  0.8343289700973406  0.0854568816509925
  0.3313393583345018  0.0011649615111902  0.6693067362265634
  0.4128538929067531  0.8309165376847404  0.7517403141693993
  0.7454972787925321  0.2546419592715598  0.5842617497243493
  0.0792184818346125  0.4981180924838320  0.1661879001793045
  0.0767010242982471  0.0897731433133646  0.4130136508736225
  0.0801625173986121  0.6661911750027083  0.5003399071794382
  0.5788958500750818  0.0826119771576834  0.2466050959777254
  0.2493829606008491  0.6623088898531352  0.1648293470602844
  0.7439897838558043  0.1660907698822211  0.1689982528464666
  0.0812354046205845  0.7471956233915703  0.4178169477994348
  0.8277598757813854  0.1728621225171399  0.4178613247668780
  0.9950165716694590  0.9186780493540211  0.1658614967166041
  0.9115716978108532  0.0852042560316420  0.2494959938498702
  0.1619932660933756  0.0852693212676945  0.5014998471586150
  0.4970264936244543  0.6669837261689302  0.9166021241747764
  0.3302359904541038  0.4953909636000117  0.0822883880552531
  0.8278034101082439  0.9180142388658605  0.0022287884002720
  0.4122476132445066  0.9162375829158952  0.9148799935040508
  0.8284116058433354  0.0838555205156902  0.1659469745062294
  0.3317557045628402  0.0869224490580813  0.1656957683899993
  0.1594922877691851  0.7511829485491022  0.1648353681237819
  0.0782228582730816  0.8343882696102828  0.1690037455574254
  0.0783943011944683  0.2521732055446843  0.2509787494581575
  0.4125857855029376  0.8314371002024949 -0.0047858379579132
  0.4090335796335475  0.4988352544762530  0.1672505658548974
  0.1681590957076690  0.4995791677170511  0.4181130578381709
  0.2457257567518047  0.9154596413507207  0.7473038939280601
  0.4122215909779447  0.1680005902888250  0.8341530815027526
  0.9978599863996648  0.5790777797720466 -0.0014948222613757
  0.7419875477694541  0.0843314889020094  0.9152363474122869
  0.2459360283512772  0.2523090675717624  0.7511921053960335
  0.1630853836974945  0.4161463356699259  0.3340340251334208
  0.1625431968238627  0.0030039086011028  0.4163677584082238
 -0.0050433113684389  0.7486002594521662  0.1620234620094242
  0.4964350267419467  0.4186179550498497  0.8320860561791270
  0.4122595629659289  0.7477043942878234  0.0815242410312577
  0.9117171141859135  0.3352180722003398  0.8323682926752578
  0.8249335308103976  0.8369298985956599  0.0829236656810669
  0.1600463427769145  0.0016308451146197  0.0848288699861144
 -0.0927140129523840  0.0005768829230820  0.3358681362623551
  0.1613923464599419  0.6652665997397667  0.2501755626606774
  0.2489619690036752 -0.0026697328244182  0.5050860015534262
  0.6608752515114428  0.7497853294843670  0.3367061609380236
  0.3311403667316958  0.0006844387412343  0.2504670000414708
  0.2495236610838207  0.0872456556535015  0.2481082502233209
  0.9953297254126807  0.6647793146095067  0.0847742646932645
  0.4098824433139318  0.0805360723641409  0.5845812781723587
  0.9959896985072058  0.4149955413278728  0.1676844459943810
  0.4141805374459300  0.9209370667594142  0.0804525321029000
  0.4967107186064149  0.6665803395921920  0.2507530931046282
 -0.0858569157276077  0.6658629462284865  0.6719673794028094
  0.0739122842523500  0.0854091232900135  0.5886827561348196
  0.2462414430530891  0.0846061769011346  0.0817325752056225
  0.7446369634046625  0.1666399656340994  0.6705733143268795
  0.0775873280328015  0.9177570344488168  0.4167451121272521
  0.9115172471375329  0.6648986648187944  0.1659793505805753
  0.3287239233718898  0.9175874441233371 -0.0019008157168795
  0.3306742180509901  0.9112638960963126  0.6714237087211439
  0.2451280645102735  0.0032411279476628  0.1676818446437035
  0.7428201000343820  0.6659837246817399  0.4995796060292025
  0.9163245007411793  0.6662513431603774  0.4956565588202790
  0.7443698728014118  0.5817326448533908  0.2485230446095267
  0.5806217381721022  0.6680141287836943  0.3342632961573805
 -0.0878218133511489  0.9214245091606046  0.0814809968686667
  0.8288252335951648  0.0832685140090496  0.5009700458622738
  0.4990422208725896  0.9148272010370045  0.3356894495217583
  0.6638810684349354  0.6680361351055701  0.0825431466175991
  0.3302686601083761  0.4955574086581297  0.2524007109568626
  0.2484622472290772  0.0822415182782404  0.5859693674385980
  0.6625909344245251  0.6670279030505709  0.7487656234836624
  0.9927684303071110  0.0878891296752873 -0.0010153247012139
  0.1644450158184975  0.8291022925227164  0.4178933138478333
  0.9948435712706734  0.4980235293506119  0.0798791037531394
  0.4138219246773680  0.0052329629306964  0.1656480127767073
  0.2475034811088823 -0.0006662910705202  0.3306855755391616
  0.5839242322353693  0.0790012567357737  0.5859013659402639
  0.4993425914153636 -0.0030905680411475  0.4178632531896498
  0.8266451398978920 -0.0014965412496947  0.2495086696226113
  0.5778983094190144  0.0007607005636201  0.1668788122831858
  0.7454122531796862  0.3302527592194920  0.8329991320672999
  0.1613504833264651 -0.0000693173989558  0.7550410521912575
  0.5802650601521906  0.7464450382707434  0.0856459499072055
  0.6612926684549321  0.2543803417291029  0.5004702414181107
  0.2424699476638839  0.5805619417162562  0.2520073366219905
  0.5776395739541131  0.1669988642378792  0.4995750742111753
  0.4924962348175340  0.0023281931016564  0.0810191565439034
  0.2450031574913866  0.7483842041809747  0.0770419612942049
  0.0821499092304979  0.0018222747639951  0.3295374536247327
  0.3308218111474602  0.3328405177413478  0.3350762335889892
  0.6619925240183318  0.4165495097593604  0.2499928102605735
  0.2473104435878990  0.3337253407197920  0.4177046850753058
  0.4121542194609092  0.6658529591526035  0.9156017272650132
  0.3296421648242099  0.4131105956943271  0.0825767242487534
  0.4132716553991759  0.3342775115995621  0.5844689977391095
  0.3287067946296853  0.4172447630963581  0.7483905708130204
  0.3288835862164098  0.4182891652342260  0.9155912821056678
  0.4131509168236556  0.3354139701961260  0.7496650760937954
  0.3293574722789067  0.4996881969036187 -0.0029466630346792
  0.2454287019212056  0.3352035321945485  0.7494890241466874
  0.2464460762200624  0.4157252626347577 -0.0005853731942429
  0.4128423960858711  0.3362973373454120  0.9159317299109084
  0.4123879106819108  0.4160730630613775  0.6679388678200280
  0.4978829978630805 -0.0015838592813756  0.8338579898101540
  0.4132437987681923  0.9149105570926097  0.5014450472820056
  0.3291383833387994  0.1677423327412044  0.8325264944910871
  0.3302455849250991  0.2515987858285195  0.9158839257792771
  0.3290146251446871  0.7483107476229279  0.7505691204434376
  0.3314813673170263  0.4996467266353207  0.3363383104841100
  0.5785710363569678  0.1684075724858372  0.9156916848049661
  0.4135301875368825  0.5000469650700871  0.4183316632640883
  0.3295765587056697  0.0843077052047181  0.9151966825555328
  0.3304107151536917  0.4995546705054498  0.5015179720200652
  0.4134551372815182  0.0850605027420247 -0.0020106994292418
  0.4132527441917549  0.5837009085452816  0.5022018946755222
  0.5790636236807365  0.4161886113277045  0.1658690066451189
  0.3306154046786184  0.1685326878814860  0.5001006850732415
  0.4142757621776307  0.4995263753798306  0.0823065573874893
  0.6627482531329733  0.5001236218902725  0.6658079579154670
  0.3285420098894704  0.5836056416891432  0.7491999326582024
  0.6607681776679087  0.2514002873897898  0.5843020546619725
  0.4967715373382474  0.3329747252529350  0.3341049225783407
  0.2452935757376749  0.8306531091569611  0.7510020953333789
  0.3286798435657405  0.0017683565368822 -0.0030467581968936
  0.4130665667403806  0.7492678106437033  0.5018747472156024
  0.2473443628628283  0.2512293793604659  0.3344852068217291
  0.3299826758914738  0.5840323789791759  0.4182894369208488
  0.2467564865963269  0.6663444073857056  0.2510641985412601
  0.4119083675997032  0.7511055247449395  0.3334589429731009
  0.4122705204020565  0.8321688680670425  0.4177935924974676
  0.2498082958352686  0.4995326900882863  0.4188972547389005
  0.4962415507235536  0.4161499583688534  0.2503630592842951
  0.4958392433643630  0.5840752185696511  0.7484459585605072
  0.3279014594054671  0.4994864417124214  0.1663790056302614
  0.4147728356733771  0.4992052068390966  0.2516489106249643
  0.4136456680720135  0.2512526558354642  0.6669323048485988
  0.4126042902814154  0.6664486946806076  0.2514339668634127
  0.3308630039129877  0.0838631269911710  0.7509661524096921
  0.4135098109899433  0.4163843221160737  0.5010503782896292
  0.4115560061056900  0.5843123752924505  0.6678675865503645
  0.2458631905634555  0.5806297803343162  0.1643741942261993
  0.3294633490259963  0.3348656690468652  0.8330625371387084
  0.2451332689626052  0.5828135019669237  0.8329513342854729
  0.4102752119072269  0.0021987327651417  0.0809647042844320
  0.4962824808242468  0.0003372337989419 -0.0030397179492910
  0.4133654114253195  0.9165827955407815 -0.0025662762108319
  0.4132820814328929  0.2517808117151135 -0.0009331773481679
  0.4142306133301312  0.1682401511534350  0.9167749189107589
  0.3299041194776139  0.9140157075608870  0.2492414096728352
  0.4130565381140632  0.8323604552879267  0.2498842328516947
  0.2463464807752697  0.9140650964902791  0.3335219759664495
  0.4128775983860146 -0.0033862754310281  0.5848332194038013
  0.4966071427510047  0.5024382085081835  0.8317288369774432
  0.4136440066819564  0.2515862303220532  0.3339685405086109
  0.3291784194863905  0.6646459053630196 -0.0021221053324458
  0.3296999489165844  0.7489512228255640  0.2508561203775261
  0.1603387917472985  0.7485975274415783  0.0795560100824430
  0.1634272366665908  0.1694636067739610  0.3336145146150022
  0.3320170365446569  0.6650745504918941  0.1666964183119745
  0.3289168290364555  0.8325645920714573  0.1674431550692495
  0.4138272650685538  0.5834311791062358  0.3348481518833226
  0.5821050256693681  0.9151910894958009  0.3336465057128421
  0.4949785084320568  0.3337500373315435  0.5000456520760581
  0.4967759474973825  0.6667669126302221  0.5014733683776795
  0.5797133361073491  0.0845353012533964 -0.0016028041099723
  0.3283616447715328  0.8305161652598050  0.8327236208594556
  0.4133230237373984  0.0840795412167090  0.4997013476295938
  0.4976461906715794  0.7503026892491346  0.9155090427559116
  0.5799629677179244  0.0862564521431836  0.1630625277954225
  0.4992156965814408  0.9149234651820365  0.0822626392934763
  0.4969801682490351  0.1690387022994137  0.1655180455550226
  0.3295432187161732  0.0010804960837011  0.8330225684580803
  0.1644019247605495  0.0867607383786320  0.4165696483030930
  0.5810017417022519  0.9149124612004342  0.1658710639720066
  0.4970582246066874  0.9148944617355181  0.7503831715382502
  0.4968239128491029  0.7496105851682792  0.5848421042031754
  0.3304929059704450  0.2516170071622618  0.0816046425457797
  0.3292383431175518  0.7494966764877852  0.5840429321425706
  0.4124150626229377  0.8307978112119040  0.9125816271112671
  0.3297113820396902  0.8300573371283687  0.6674080343320599
  0.4974429909265913  0.0870550071393111  0.0807991326401864
  0.4134258050949692  0.0009537482429883  0.9145421196827768
  0.2444377585845751  0.7479300052359030 -0.0036969733738071
  0.5798984010706689 -0.0035657969916736  0.5846087169268830
  0.6626992882498161  0.9160030646041142  0.7506055666264259
  0.4147268143888060 -0.0005870236703233  0.2527609132639868
  0.7464293467092666  0.9157153033813565  0.6684771655583959
  0.6614874738391643  0.0829117062856548  0.7515911019582115
  0.6623651900772872  0.9167493323165812  0.9158827849145036
  0.5797776677045643  0.2497585503441014  0.6667659913534878
  0.7454321045849430  0.9167188706379115  0.8336063083870375
  0.4974258584267229  0.1679001487686383  0.8333765997852026
  0.7463093249744402  0.7514521755397801  0.5003679213606700
  0.3322801048910833 -0.0007601427174458  0.5014209351653346
  0.1611215840704457  0.8324930574210031  0.6676674281697054
  0.4140527970040290  0.1687719724653310  0.4169987331882609
  0.5811983497028070  0.6648283734129994  0.9168930696421329
  0.4951653087488337  0.1695139929321845  0.3326606449118931
  0.5807188169435866  0.6657450616060325  0.2487749540137111
  0.1615030299537161  0.7487241128071199  0.9157621954010817
  0.4966785941280359  0.2511613521606679  0.0821510464413335
  0.4137151098160515  0.1701808423007594  0.2503271921172767
 -0.0043482509003588  0.0038883043693849  0.1657662265523838
  0.4132525551533354  0.3335594381143284  0.4173624307658494
  0.0783617436527453  0.0011213110075294  0.9164987568096713
  0.6612423078105627  0.2522752587597114  0.2495508462710600
  0.6635766591012132  0.6652798965823374  0.1682325682264832
  0.4961021963920457  0.9145411162516150  0.4192195062819700
  0.7453875976076179  0.5008015596535822  0.9156386595568219
  0.4945007341242155  0.1672035770844714  0.5008320722944831
  0.8283366742042942  0.4993012583002322  0.5011502036945938
  0.4965831747960779  0.2506178695251662  0.5849548042084842
  0.0787097995609975  0.3343515646512621  0.4180869825776325
  0.1605836590794425  0.1678293225875539  0.8333181269253269
  0.6635838245018887  0.6648115057023337  0.3331423394671889
  0.4140660231602878  0.3333770642863003  0.2506193178304556
  0.7450043193302074  0.4988954463241572  0.4175510018720794
  0.5793665173685048  0.3349114797096824  0.0818808474025412
  0.0786530138633167  0.0874084302218976  0.3305115998996209
  0.6621910173882010  0.3340210242946525  0.1666566675204597
  0.3275808179420132  0.8319847500553088 -0.0017762121176379
  0.5797772003797329  0.4174636472844346 -0.0003121460171379
  0.4139121699180869  0.2513200650443859  0.1651153942657379
  0.5781702005969408  0.4170749394800906  0.3338850970951305
  0.2448392337051881  0.7489471419536241  0.6675997287605250
  0.5790373420642050  0.4979744744447130  0.0833600979176463
  0.4124074438294584  0.6666978177647109  0.7495046207016252
  0.4957325811487583  0.5002067134743763  0.5011847909913947
  0.4134723044374493  0.7494289959205817  0.6671911435675045
  0.2445127822631321  0.8316538234390017  0.9149219880573365
  0.4140126957693993  0.4135954645466037  0.1662543374554580