Cr H  Ni
 1.0000000000000000
    21.1200000000000010    0.0000000000000000    0.0000000000000000
     0.0000000000000000   21.1200000000000010    0.0000000000000000
     0.0000000000000000    0.0000000000000000   21.1200000000000010
 Cr  H   Ni 
 259  86 605
Direct
  0.4968350879459983  0.0835560450302247  0.7538249333002884
  0.3275054195529501  0.5811778956997358  0.2488079091484128
  0.6621241265608558  0.2529332379820209  0.5851888498116032
  0.2472018426406798  0.6651398730992979  0.9161592288861176
  0.7480122594314862  0.2500069399529822  0.8352086574319443
  0.6632586575074965  0.0829509865975261  0.9193547300286298
  0.2478695216028572  0.5815773477587480 -0.0013933245505162
  0.5823949513154474  0.8333728394660139  0.0831049587523111
  0.6637301214137272  0.0872773466658740  0.2464163969328968
  0.4958483972136527 -0.0044230047357500  0.1662046855126523
  0.0813376410916935  0.5809687609227352  0.5004303642307554
  0.3296875049801891  0.7487184661476352  0.4154735395227780
  0.7454931346468660  0.1686493164489658  0.4170942238482563
  0.4923342263362790  0.7506280361593615  0.5874596801305960
  0.2484298312267157  0.7506894562721850  0.3328977538560327
  0.5775522443733789  0.9168733439621151  0.6635371679802271
  0.7454194251485825  0.4172866791988206  0.1664648915736088
  0.5806372551956397  0.9175365457018962  0.3332078777778312
  0.7493905738956991  0.2478746171326840 -0.0005361571698557
  0.4141467896817308  0.0014984587104857  0.5818871667643519
  0.5808726074850097  0.2505065694782917  0.3348690389642857
  0.5805842087786059  0.9168571550694641  0.8373055278451278
  0.6649831569732855  0.2512516796328779  0.4163449259258013
  0.3311643448479973  0.1679558890194410  0.1681448579686720
  0.3304539555999049  0.5795926725488372  0.4173735985550798
  0.1664668923603062  0.5788957998249040  0.7517482778373935
  0.7443338977167635  0.2504801901889234  0.3342417554147022
  0.7471417511330002  0.0055350448176392  0.7502288905893184
  0.7470873344822900  0.1668117530307295  0.7504124960145302
  0.1670991802519357  0.7503408779692304  0.5793857497744068
  0.5796045582153740  0.4987465171011626  0.0833040143122440
  0.2473271052454545  0.4151132800142436  0.1671983255947560
  0.4961739045522923  0.9193653208123566  0.9180440886885075
  0.7465447789400901  0.4179494728432154  0.3335346631046290
  0.2473943496394861  0.5000892909081402  0.9181247627223473
  0.6641912938788307  0.9145064436113034  0.2498838497238099
  0.0817629880263266  0.6654447557992849  0.2494667884640437
  0.1602970191924830  0.2497821369542066  0.7483196822030960
  0.5795524634420216  0.4158913014548440  0.5002670661255113
  0.1638073132878332  0.0856248228416674  0.7519519084252148
  0.5827896880330389  0.1686487907472226  0.4151887036411413
  0.1655657879670235  0.0839206312002180  0.5820323446633806
  0.1650365056241234  0.2518899836674235  0.5812957583276205
  0.9139172571478325  0.8335737002402033  0.2488202861872478
  0.7471426025999424  0.9185765458589562  0.3317364870709197
  0.9141948432263067  0.0017739051684952  0.2513540622176157
  0.6648131193062849  0.8353116638620105  0.4962643576481097
  0.1678876855979413  0.3366791662965266  0.1670841942581225
  0.7470761187847954  0.8294761500462929  0.7496859793275317
  0.5784556596915075  0.0836877372981005  0.0013475173578841
  0.7487653211067353  0.0015333315060956  0.2486468733347070
  0.4127084794293338  0.1677947769956692  0.4138177020605618
  0.2469524302579569  0.1691960833850812  0.0833841532887609
  0.8252224717966240  0.0866991457927138  0.4156466621300516
  0.6633007192605762  0.0857681012188626  0.4155760556976875
  0.0806391717899672  0.0007911910563779  0.9170542317416046
  0.6638307421401377  0.8368135866004518  0.0010587925957921
  0.4953414283580031  0.0838808575796804  0.5821616791725621
  0.9136070690421085  0.4975756001016760  0.7486783362260184
  0.6667721707735387  0.6640209028385075  0.0017859849378108
  0.1641525583406817  0.7480177896634254  0.4149901599465702
  0.7478341710039627  0.0824876351214437  0.1662102183245140
  0.6635708863286525  0.7479351036129558  0.0858802146055291
  0.7468429443405462  0.1648986057735896  0.0846412209655708
  0.7454102990793519  0.9181331703741541  0.1667005228126856
  0.4991211657288051  0.0030711381976727  0.8335285363186957
  0.4964372421766934  0.8314644424954455  0.6663701367136844
  0.4141359068923656  0.2498328281520399  0.6674885179510410
  0.4969436964409947  0.0823452406596275  0.9168954501642539
  0.3303813460086927  0.5818027975291811  0.5834604074630342
  0.4159313143607945  0.6626101091547774  0.0868983216483598
  0.2462042099183918  0.2505472728400617  0.4990904858431625
  0.7475982902476910  0.4170546360839403  0.8321985452429963
  0.3305070462660782  0.4155828488905686  0.4173440115843166
  0.6650699449348192  0.7507268307371034  0.7492482759905975
  0.3314384523931440  0.3347712135146304 -0.0008692886938193
  0.4148013401385266  0.3314458465472588  0.5853936046760467
  0.3310054256758026  0.3328074719748283  0.6658230923557950
  0.7488231977816528  0.5832032781057914  0.8358474880404865
  0.4136016137686659  0.3332014558742164  0.7476980645251290
  0.6644134524033307  0.2503664280053590  0.9147029636530090
  0.6652796049101304  0.8371842235726342  0.3323594080445295
  0.8355809186355815  0.7529059502949796  0.5823798752477667
  0.8306971270970314  0.4984518502221000  0.0005936629714861
  0.3279839801925084  0.6645023074720789  0.6656046767839161
  0.4964841550735463  0.9184383906232634  0.0842883708744814
  0.2476013192191165  0.5816470983091080  0.8345074246619067
  0.9152781913011054  0.9160119667106438  0.4997878477645910
  0.3320645406928003  0.0864425375526255  0.2483556489017517
  0.3287512389868540  0.9187435000487945  0.2538365984393889
  0.4128523969579890  0.6680202916412508  0.9156151741819003
  0.3296364768424632  0.7493033493871439  0.2498612446730326
  0.3292606089396302  0.0015807373142834  0.6658551465692478
  0.3320808122696493  0.8338288976918223  0.6661310586644194
  0.4982731453982008  0.1661787300524818  0.0006964371217541
  0.1657149383372955  0.4159377883013881  0.7520163055818258
  0.4132757894407086  0.9164314635789941  0.8339331678092081
  0.3301717750901789  0.3338872325236732  0.5003710403803227
  0.6642819679070029  0.4979267599216467  0.3336088980500049
  0.3302226810673212 -0.0004158242511177  0.0010607852100850
  0.3315785182180574  0.7481300427301578  0.9161412438676543
  0.3304447356098523  0.1682487267155529  0.3324502250279259
  0.4978153812731333  0.5813956978919967  0.0836564953673430
  0.4134111722828399  0.3347904560348795  0.4162697783658758
  0.6642075068207421  0.6620675537159870  0.3296747099952555
  0.2489837944453927  0.6644589776239280  0.5834021180202381
  0.4146946762570833  0.2506023261846814  0.1659705749047379
  0.6652384026302797  0.7471564867119236  0.5840874000458423
  0.4145536271444937  0.1691485756627415  0.5840664685259875
  0.3325521662238416  0.3335513097644038  0.8336502153857395
  0.6647876400218242  0.0018275853122716 -0.0005811927602251
  0.3322918855163106  0.5797505012283347  0.0841223463590476
  0.6637482483263591  0.1687782325879915  0.1675683698394688
  0.5824735395574019  0.9161728100304415  0.4990355612642687
  0.6646584944722094  0.8307839167822707  0.6703258195628300
  0.4123370686104488  0.5823176198261405  0.1642099358355600
  0.3311993931280527  0.1666970121319421  0.6675294307517137
  0.6639314120118595  0.7516195552815400  0.2466352920982633
  0.3293652928562288  0.5003047937310444  0.6629943793459869
  0.4979001355618117  0.7494189977905770  0.2524905593062517
  0.6610884764763255  0.4987345762679505  0.5001099093739869
  0.4175043588033154  0.4993663094875357  0.7490046882873235
  0.4156335002443614  0.4985293624552787  0.9162891979114671
  0.7463602286194144  0.6661737849159034  0.0835440193968141
  0.4090119418939820  0.2530184450831279  0.8327275825191756
  0.2480515950413844  0.5000165972257241  0.5841355889645587
  0.7455642087659706  0.7489100474210559  0.1652919388263928
  0.6616555389153131  0.3308446765741502  0.6667800828744884
  0.4973408112716083  0.1727231427501540  0.1663410107760490
  0.8304430515314971  0.0852578707853977  0.2491019959431061
  0.5802308787938324  0.5780197081249026  0.5005208260259394
  0.1662417105767119  0.4918564915623557  0.1654133929638809
  0.4959175330969835  0.6656039318023882  0.3336342570460853
  0.1642393758377987  0.8308646470549339  0.1673541963339471
  0.7513898883862243  0.6658048536607235  0.4159957107758252
  0.1600206960902318  0.8306705549037714  0.0000646597185703
  0.4926469642409456  0.7458126663623768  0.9148627616537099
  0.5801819983855055  0.8340595037531242  0.2500030837343715
  0.4965464056381631  0.4997045809058994  0.6676200402616876
  0.5815241102667627  0.5819622230193134  0.3326715295115772
  0.4959690747204181  0.2510557219644418  0.5827023265576045
  0.5810282162272306  0.2498681421104280  0.6669266182284410
  0.4982178732719010  0.0005145798800811  0.3326018092873733
  0.1676373194002059  0.9187683558638308  0.4138080419181701
  0.6618361602608912  0.3356332960571557 -0.0006357500435034
  0.2454366536277195  0.8332934818458038  0.5797530236435594
  0.5813534431941496  0.3323473726282870  0.4159010197813059
  0.5838747021180484  0.0843542732749966  0.6661967040395215
  0.7473440286287448  0.4971111748314448  0.5863806224704871
  0.3301732770591106  0.1681185706891938  0.0016087604847496
  0.5853842893738468  0.2509597963832387  0.8342673022633845
  0.6629933392667305  0.4991547643126475  0.0007988954173326
  0.4972062121977878  0.4973246783515334 -0.0003312621810402
  0.4957848281792427  0.0018671186820520  0.4999561632310923
  0.5808324882621323  0.5831953367397861  0.8328162809514562
  0.4989594225289895  0.4140254183063279  0.2492773210099627
  0.8316115340296901  0.9166753459080311  0.0812985439781431
  0.4112145186424289  0.8313483773803869  0.9156938334870296
  0.4966972409341106  0.6649283563298048  0.6666436113987562
  0.1645883181617293  0.4160311015636479  0.0825936533426062
  0.4974231015115527  0.4984500576216158  0.3328422564435612
  0.2473817834205091  0.9178600989195461  0.3331474940015147
  0.2419652319169761  0.9134859209056768  0.8327799929470476
  0.2467022095603029  0.4161882248967527  0.8343193540254134
 -0.0046740772135301  0.4166805692385238  0.7504283561860561
 -0.0028113847803090  0.4967065909892724  0.1665333400637891
  0.1633212872066887  0.6678614565925973  0.1681989311688955
  0.2473041272140591  0.4164268684354288  0.3338395077372894
  0.9144042460166388  0.4152428087111500  0.3326427905929331
 -0.0063778624142762  0.5788663108414447  0.7504035868365041
  0.8284158899094360  0.0851305894863212  0.5839172307380712
  0.5803557859729863  0.4173506666863411  0.8337065050973014
  0.0801065755661659  0.4994489009188554  0.9187939806097158
  0.1633750675729732  0.9176562888985144  0.7523712578996418
 -0.0019976240659918  0.9172172793672648  0.0837517251993131
  0.4143842312964134  0.0005034267414809  0.0845872368820419
 -0.0019654485982189  0.5812254717917530  0.5815479139862902
  0.8304887328433952  0.9159521107136177  0.5844869258551396
 -0.0016778375185371  0.6679063025628531  0.3296108981641271
  0.4130894323257959  0.4147551023856002  0.5003987933172749
  0.0829421728597816  0.6654422430514626  0.4149402416021666
  0.5797941065808847  0.5836150054058354  0.6665828193121299
 -0.0042741554876524  0.7481760055311223  0.5816964956627488
  0.5816254313301321  0.6657845619825619  0.0859547653493689
  0.0006676335247700  0.6653298298217722  0.8363195743262960
  0.1623909505775480  0.7521305535717152  0.7534384364326390
  0.0795800143592432  0.5809699383864984  0.0006831503309414
  0.4138631808506871  0.3356317424583523  0.2495722737631690
  0.0804341183535686  0.3341219072049275  0.9179119631040962
  0.0004567407995408  0.0024317874961657  0.6659426809893217
  0.0806726314079502  0.4991394346125569  0.4170089204589765
  0.0818535545597618  0.3331268115792885  0.4164246043024963
  0.0803820129859129  0.5830939217313135  0.6621546635822829
  0.0804886672791163  0.3333153356960511  0.5822523623150142
  0.4937899822887972  0.7483091204623019  0.4117551949252316
  0.7478744347773401  0.4975660848969641  0.4126008819122621
  0.0806988922819243  0.1650341661304676  0.0878955802714259
 -0.0003687127294461  0.0033034731886948  0.5012475080784851
  0.0773868033430197  0.7510020090842859  0.6677465029835881
  0.8304025765762623  0.4165401326035078  0.0850853695866822
  0.0810948072642980  0.1656330349817026  0.7496634000145228
  0.8315371819479112  0.6692362018141214  0.6665762048864565
  0.0805063832412636  0.0007532050426836  0.0838339832220639
 -0.0062175414218935  0.1699817230979558  0.0008988007969234
  0.8265639939944306  0.6638514262194590  0.8326652898305935
  0.1635491904907368  0.0037705356812874  0.0003675201686421
  0.0819582775379055  0.3330584516399104  0.2539565872352917
  0.9144938806037245  0.2502943152079438  0.3332066937325730
  0.7462556571138362  0.6635598261886051  0.5824891422034385
  0.1652291767849985  0.1669127619764871  0.3346002995155739
  0.9136870708767953  0.2495043578538331  0.5005998994133903
  0.8297434454347806  0.3322419255913837  0.6667205257810076
 -0.0026830075022058  0.6630857144954859  0.1667766452466970
 -0.0035145959975281  0.1696791700686482  0.3331945382600086
  0.0815981097271538  0.9164293417749212  0.3294179126219932
  0.4146790266494447  0.4143691473352963  0.1671174357967592
 -0.0063585601458126  0.0013315179158732  0.3322038634147835
  0.8318952633653856  0.8328743878461523  0.4987640554129358
  0.8300933587997321  0.2504226885191825  0.9165316523831791
  0.0800752835386612  0.0846647710596566  0.8341074191190599
  0.8309835484485764  0.4946109333356745  0.6649447434731436
  0.9122854264512106  0.3335769330815758  0.0852693820565570
  0.0801723312845798  0.1675874365759440  0.9149913445610101
 -0.0020695266453477  0.4134619700678900  0.5806854574720888
 -0.0030750921282179  0.2492186923832185  0.5806888173384024
  0.0798920055269447  0.0862257981376521  0.1668744503767867
  0.8280246703257087  0.5821538642979064  0.2500595670089194
 -0.0016684896829074  0.8334528719491540  0.4973331705424198
  0.3273396760004763  0.9186236377009598  0.4153197559304371
  0.9158077787042027  0.8342484920479238  0.7490072017576261
  0.0008794628675235  0.2483242879129041  0.7504221133858898
 -0.0030195257054366  0.1692362486544748  0.5018793314022552
  0.0773840419955737  0.7494365595324398  0.0033181559136462
 -0.0026161909258070  0.0845798688582018  0.5830026121762357
  0.1650016979877195  0.9173629133212821  0.5824957935112118
  0.9147649075170501  0.2516302796207279  0.1678863217402794
  0.8311877398719471  0.7505202838296224  0.9198135572861275
  0.0847385297949357  0.8374161971251630  0.5816536688250751
 -0.0032861123176386  0.1676172346690795  0.1656668310469067
  0.8321946916819883  0.0829097504942979  0.9168027646954153
 -0.0041688557792137  0.4169768976067309  0.0842401764576880
  0.1642472866490422  0.0875756704634419  0.4152052672426023
  0.7459041958481549  0.2483868786425138  0.1650122626824429
  0.6617001672494323  0.0841683776433180  0.5846774691547212
  0.1640741161975863  0.9165460259640337  0.2530645128721125
  0.0806100830194321  0.9186301539314125  0.8340589084323107
 -0.0006457969004366  0.8361232416249452  0.6698494278402853
  0.8325103312671732  0.9173851653529832  0.9163327792420265
  0.9124564988490736 -0.0001444238303776  0.9172539447809295
  0.8312941036561269  0.3310258719031622  0.4988571868602391
  0.8303890395153416  0.0850969080370915  0.0862885562008209
  0.9128167272399134  0.3334973434492907  0.2501363528652711
  0.9116458788047026  0.3327029258627301  0.9197056621830622
  0.9122219036982137  0.4967070784969284  0.9171041714114627
  0.2464272523861998  0.0884571159142081  0.8337308100101135
  0.8340290408799951  0.4978272343322812  0.4983844361991571
  0.9146394006457383  0.6648719347471752  0.0870733354580810
  0.0777717752566817  0.0026989318391007  0.2486355155424349
  0.1667851558133472  0.1676146723698439  0.0007090283613020
  0.8305967622411252  0.7536291790474421  0.8309950986531296
  0.0811774009034187  0.7509794395269871  0.5814328587819487
  0.4969404332719663  0.2512842004942732  0.8340478746793248
  0.8281940724968527  0.9205541972206989  0.4968726272606369
  0.4164584446947003  0.5817784026466871  0.2534770915795090
  0.5849530789097018  0.7495253283501977  0.9139863522916892
  0.9179799626782230  0.5821747322996759  0.2496143331794383
  0.9940205556493070  0.6657289045101255  0.4182315705524515
  0.0796812217600842  0.1683345116421275  0.0016683280081118
  0.1643587002588972  0.9175698008642358  0.0003217259684829
  0.9970121792231218  0.6684292601826572  0.7471168071079236
  0.1664762772329518  0.7431059831252252 -0.0003307811864558
  0.0788634199522959  0.3335468633130427  0.1655347572962784
  0.5005880794287104  0.5824414077964311  0.1708618256808374
  0.4109531993671426  0.0048970046915771  0.8329493994463520
  0.2492724599697980  0.2501997914146991  0.7510732081294316
  0.1643339493632496  0.9196672032066077  0.1651881437621978
  0.5785801076047687  0.6658282259366340 -0.0029461473258375
  0.8314614639990094  0.5815108908403919  0.6652257588876005
  0.4977158615596787  0.5843547538303512 -0.0045183719760932
  0.4964563931933792  0.0841604953575095  0.6674205823335159
  0.1645808822693647  0.7491583404524417  0.6658482346447397
  0.2497738884049257  0.8322118186134942  0.0007621991706405
  0.9979408260746582  0.7533680547645754  0.1667429012241712
  0.9101789479817044  0.0040741922632442  0.5000014183075882
  0.9984945749540358  0.8347348353859729  0.5834390143708930
  0.6653633024646830  0.7498070703137096  0.3334906004612426
  0.0784085701957622  0.9168706825341540  0.4176304987334637
  0.3303262123312449  0.9166671749029653  0.1639614148080052
  0.9976308390859795  0.5772209494702305  0.3342057368275115
  0.4955389454160500  0.7490896041858023  0.4995381742280103
  0.6646991138980670  0.7503034464972047 -0.0012957083136714
  0.2446566457264036  0.8348825612861145  0.6684694954637774
  0.9138472530552891  0.8321897352631156  0.3372937921922932
  0.4971427478140278  0.0837766868638576  0.1675047209339661
  0.1647562822137914  0.2516980965801089  0.8380501418930009
  0.3278711401442847  0.9168550006320951  0.8325222798918273
  0.9127552387845732  0.5858852531262383  0.9190822541327065
  0.7477440182719367  0.4980408382747217  0.4996531239973022
  0.7492094088172004  0.3359908735374245  0.0002719440591157
  0.4981907551679093  0.8325873871842510  0.9176877665799245
  0.3286551939002001  0.4995421215769311  0.7519944604023390
  0.7461426809025768  0.5822359776683045  0.7466310187833547
  0.9164932125495543  0.0857689779556594  0.4162378912897748
  0.2468481669069810  0.0009236880157306  0.8341927480387473
 -0.0899071596946660  0.2493092276363356  0.7495437014299213
  0.6667311262032377  0.9201085861528421  0.6654778537745450
  0.8338481004987990  0.6643964218465411  0.5795520142964087
  0.4966275317350894  0.9162128325302382  0.8312476324254529
  0.1637290766438326  0.6652701533964042  0.7499379712555365
  0.3263432185193174  0.1672884054614751  0.5788842291970436
  0.4961882570254917  0.0889306814942138  0.4945372254635759
  0.4136730125370717  0.8334416902473608  0.0058562917137089
  0.4933688662906406  0.9131373707617757  0.4998047575040478
  0.9139359829286414  0.6680502062413839 -0.0022350907808817
  0.6645350654703132  0.8338765893692824  0.5831525530839269
  0.4956901614468049  0.1706841877607965  0.9137826209545502
  0.4167267039594322  0.9172272306565221  0.4154033359251098
  0.0798934694801063  0.7493822607264911  0.9134796245571685
  0.5805893392177501  0.9166803187064578  0.7502776445642854
  0.9134865484600767  0.3323843303815567  0.8298438937555984
  0.6698601947485741  0.9174914844622564  0.8356774582813681
  0.7501419690755737  0.9172828137876921  0.7507941203839684
  0.8335356696916093  0.9164252331172870  0.1696019569105667
  0.3275556587278413  0.6683801751400310  0.0837596918529198
  0.6616367350701167  0.0006308834032409  0.2485139022040960
  0.7501931025320360  0.7500996103840920  0.5822266967889457
  0.5838397277054189  0.7502346993339960  0.4168203197135772
  0.5792953150236481  0.6679266590282661  0.5003212988034343
  0.1662966918464160  0.0054653809850202  0.2496752582976138
  0.4130425698557608  0.8285827797566729  0.8282071761588695
  0.9137038688630640  0.6671344803213337  0.8333849157688099
  0.8348455681462024  0.7485992033135576  0.1670515365576611
  0.2466757628462175  0.6603995822995365  0.3325610175607441
  0.6632320019328501  0.6654826857081911  0.4175786506789152
  0.0811416850373216  0.2543387493201256  0.0835111295315108
  0.0814116984666791  0.0038366197054708  0.3347817177399771
  0.4125446612313171  0.7538802846636630  0.0859042012593661
 -0.0047809006682425  0.0803482833017910  0.0004551626055937
  0.5786652621507349  0.7490285587952153  0.5828632499396669
  0.0814465040674488  0.4941872191674331  0.6649301130839105
  0.9097422505228959  0.0016676663634331  0.6681109506433109
  0.9136118047611856  0.0837523227637843  0.7510833291679407
  0.6619123984453520  0.2482600962797032  0.0021262934695659
  0.1647858093668683  0.5802006333188279  0.1665820934706500
  0.0797635475780527  0.5814656717468665  0.7503251464994637
  0.8315208747666842  0.3342091273114646  0.0010583264979652
  0.8304943056785565  0.1690318500221861  0.1678109570596404
 -0.0021511332938962  0.2508900222751021  0.2509093099300702
  0.0820735391749097  0.0018836206983736  0.7506713003233875
  0.1642511187842921  0.0015993436041070  0.6667383413123705
  0.3313597567482629  0.3335200851922947  0.1665788453633959
  0.3313244897580588  0.0828619059982250  0.5828961382341868
  0.2475261976977332  0.0029226234009604  0.4158327010311240
  0.8298344806530228  0.2513221040379414  0.5834978636961594
  0.1624673171463906  0.0018737931264168  0.8346259998081539
  0.8297200513989865  0.2504413445864885  0.0842930591019103
  0.9133899815506890  0.1690426939327537  0.2500425600954657
  0.9128499982147574  0.1683699740232937  0.0847349424078897
  0.8288732170385168  0.1687584816000528  0.3324901568168038
  0.9124219129225419  0.1693530073161613  0.4169752303574519
  0.7489416704316557  0.9175815969144779  0.0005126702686038
  0.2483196987447268  0.1682624982088653  0.9188083163826352
  0.9140380002411722  0.0842112971485029  0.8353364917873272
  0.2478904296573305  0.2508223551176378  0.1668964415522764
  0.5810319060282726  0.7514119106968631  0.4996559503552024
  0.1635419232367518  0.1677882755090895  0.8349293587215896
  0.1639456243565270  0.4167479363208634  0.9175452325622874
  0.6671370219762230  0.7506978974545360  0.4172795959845354
  0.5809444656677718  0.7487935302897563  0.8311790800464351
  0.8321676683891055  0.0010000330614495  0.1660206344854184
  0.2489157377766785  0.3337096017804085  0.0826804315579193
 -0.0020818761407866  0.4954172277305594  0.3338630026184480
  0.0804061148977491  0.3373930019129723  0.0828057709683200
  0.2464900153067607  0.0011889234903902  0.9191031556601598
  0.8310820496868198  0.4144243995883624  0.4156800618525476
  0.0791411761350552  0.4167535999450039 -0.0005658703163121
  0.1644912115258906  0.0852320018372804  0.9172933311883772
  0.8301605435198737  0.1667961825115132  0.8342169755144013
  0.6636609598616343  0.9173220561853436  0.0830313154472984
  0.9143836096241309  0.2501442025420619  0.6644855217763846
  0.8286663861997080  0.1680700838312762  0.5006277588447756
 -0.0035681143507836  0.8352536223077947  0.8331487094067280
  0.9137998181473648  0.0845216780511547  0.1668215804417087
  0.1643573731471847  0.2500770420329569  0.4160073624571728
  0.2481165724746715  0.1681481383691033  0.2496587289973928
  0.9132913734436192  0.0863171814609422  0.3324420931139594
  0.2478718714099701  0.2518124554972061  0.0008481032128976
  0.9132352396864015  0.0017700798744943  0.5830295357793870
  0.9122769276768166  0.1671098599674204  0.5839321428319925
  0.2459977504277462  0.0013275402675426  0.7492867231961191
  0.2476688551095730  0.1673477866059540  0.4159589217042086
  0.0810231282324197  0.2496926249069510  0.3341730708026298
  0.1646645329507463  0.1682479766918241  0.1662765921696848
  0.8269803040226293  0.0043278221673320  0.5001904863967153
  0.9128848604686096  0.0871115628570764  0.5015895255058094
  0.9148022956794987  0.0002096258870803  0.7507781411344947
  0.2471304433663914  0.0012397392422000  0.5830148714098833
  0.9117278219224257  0.0832418182507985  0.0008083297658221
  0.8292611485292061  0.2507960116153619  0.4153661726758607
  0.9133799517496582  0.5804601044271603  0.0025660065933506
  0.8294618697957566  0.3330340797957997  0.3330007588366675
  0.8289647954697607  0.1673287864500417  0.6660995492481859
  0.8272281597235414  0.2502889307733595  0.7499647040020645
  0.9137718376714261  0.4139983709540316  0.4995876353028476
  0.9145612918495759  0.3324033474089656  0.5829677959470977
  0.2495368709638339  0.0023384930676517  0.2507696523976550
  0.1636763737197781  0.0883875672836703  0.2497690899626326
  0.8298977188201805  0.4156499511945167  0.7493414835737214
  0.9142496264880131  0.3339778435862022  0.7471563094056712
  0.5803619265658299  0.4163470213296653  0.6668324673047306
  0.8286630048400452  0.3341082916462159  0.8333139467939135
  0.8299389277567367  0.4168188253393617  0.9174707504172884
  0.2479310783224284  0.0848342797341276  0.0013177377974103
  0.9135507590258595  0.4169874388764734  0.8337367335848566
  0.2480580371975111  0.0015572353256126  0.0828752001329030
  0.1646611222564601  0.0845845971011965  0.0834396539965753
  0.9130078304851288  0.4981594004982844  0.0844512772006991
  0.9134222658196014  0.3319138154109798  0.4157951980167551
  0.0822149421246366  0.0842422598168127  0.6653408238109457
  0.0819222505554612  0.0850748629549564  0.5005248850294045
  0.0812462531202411  0.4154748684433559  0.3342053205721262
  0.2476717237987070  0.3333045300049267  0.2508832635870703
  0.7465868913549236  0.8340859251691769  0.0828774948967711
  0.6644378480257470  0.5800987631686192  0.4166699189557035
  0.1635865177375926  0.5804543595247362  0.2501124381994214
  0.5805241455446918  0.4997771000578781  0.7501020887732358
  0.7471386659867999  0.6657190849830716  0.2496726449912528
  0.1643866708086312  0.4159604219914642  0.4162504385707396
  0.0811317215051831  0.0834798816324329  0.0007211654808226
  0.6666443891595859  0.7494702390207197  0.9156202135803857
  0.1642132213902677  0.4156743087887634  0.2514973795411856
  0.7489603991356333  0.7508220478908817  0.0007829618007963
  0.1641869729726734  0.2506506564720146  0.2505269020616712
  0.6637723239597719  0.6648185443408359  0.1676655722667584
  0.7472224541912028  0.5825378954509396  0.6639254937777432
  0.7470953637115062  0.5823480231529449  0.1662028472526328
  0.6645715625133113  0.5811121932884485  0.9161393178896520
  0.8312823561713313  0.1666409290494395  0.0003877890465245
 -0.0003934385106038  0.0842373791777256  0.7500697225973818
  0.1642276877351241  0.3331352523965336  0.3340628051836649
  0.3314495064612060  0.0857447560410998  0.4150304174290145
  0.8308126854931897  0.4142477413829329  0.5823695124979235
  0.3307513451157099  0.0021084193999046  0.3329391375261846
  0.6623223309116691  0.5818978410139943  0.7500526991104285
  0.4979086542959937  0.1684806388858724  0.6679289771681319
  0.6634214139213236  0.4163488040376984  0.0833408923182888
  0.4133394512471041  0.0855340356659011  0.1666151817786680
  0.7463787992245547  0.4993309726336427  0.0838130236834004
 -0.0018010862903298  0.3322568437238902  0.6660802896430214
  0.7469160565773824  0.4987238976178553  0.2503732819568829
  0.9127616198168533  0.2512472505073479  0.0009361584713226
  0.1644124039940350  0.3340398044335344  0.4987350556454588
  0.1642369253737045  0.4153137295064216  0.5822839532990653
  0.7482848210254580  0.5821788046815606  0.4993067036570831
  0.0802695481750822  0.2524701000335105 -0.0002669414871822
  0.0822792980768870  0.0015577917066906  0.5827806758335609
  0.8294444817115003  0.4981708899919195  0.1673326212301575
  0.9138137229744374  0.2495429621938373  0.8348625641757659
  0.6636304067909217  0.4173958415486207  0.9160143938732275
  0.7487666988165562  0.8342415642225637  0.9178414047174193
  0.6633707916861875  0.0014702757082790  0.3334963149889721
  0.8305728030390918  0.0008087533736779  0.0007363017827838
  0.3280285698968604  0.0014770586504324  0.8336701764954588
  0.7478983201183724  0.8345732486250901  0.4161012837683470
  0.4120646007376361  0.0843710359181647  0.6668674198944547
  0.3294281706476788  0.2515242444208048  0.5820175302214715
  0.7462961183000991  0.0849471095332974  0.6656460045863134
  0.6632755721900153  0.9180911946640529  0.5816420127670273
  0.5808429969772949  0.0024292173756840  0.7501316282458733
  0.7489460785339015  0.8346764996270544  0.5825142880056809
  0.3296310406857283  0.9167570082892846  0.7472165599357863
  0.1641099141380757  0.1673333548237500  0.4997264130439670
  0.5802357067246110  0.0010840025420811  0.9178536600081529
  0.5797710851450008  0.8314982589665999  0.7494650003693972
  0.4968477245766145  0.6653481290936960  0.8318350376861435
  0.5786372051286055  0.0003546109152923  0.2493831072434861
  0.8289030171310197  0.4155962596109402  0.2502015291229464
  0.1641060736803182  0.2513968770468709  0.9198398444171493
 -0.0028621540378398  0.1675326791856772  0.8347815942251611
  0.6640022810031263  0.8337919307923101  0.1659579707389865
  0.9144049767449304  0.1679342790544754  0.7491121936439091
  0.7477265646608356  0.8338089406652640  0.2482202018361163
  0.1657064984192878  0.0016952021437090  0.4990485209873335
  0.6640052586943367  0.6660437099474636  0.6666621948541481
 -0.0044489591235494  0.3340721409484763 -0.0000289740692623
  0.8283589791930447  0.5818577738381908  0.9178393765808927
  0.2487656706040587  0.0859684473031863  0.3326948566085407