Cr H  Ni
 1.0000000000000000
    21.1200000000000010    0.0000000000000000    0.0000000000000000
     0.0000000000000000   21.1200000000000010    0.0000000000000000
     0.0000000000000000    0.0000000000000000   21.1200000000000010
 Cr  H   Ni 
 259  86 605
Direct
  0.4973674397324996  0.2513370110038200  0.7500229076866733
  0.5816394777254508  0.8322805444453567  0.0864022041853729
  0.7441494890124902  0.2498657832110555  0.8364363243551424
  0.4965855007784552  0.0007874502295303  0.1632574315137486
  0.0791659111837691  0.6644234889063525  0.0886176778729530
  0.3312466582079592  0.7490246925314479  0.4175611433354123
  0.6645281579157641  0.0827304259996122  0.2494128024486770
  0.4114793542933647  0.8331187592328012  0.5840198529481522
  0.1636701412468548  0.5808336752313602  0.4184164974834690
  0.5756687420236820  0.9163244264296495  0.6655294598595225
  0.7473512240871379  0.1679635143137630  0.4158258398500183
  0.7465993017256608  0.4165775919176632  0.1663472089915597
  0.2471828070156345  0.7478563574546971  0.3328163967820708
  0.5815430854370047  0.3322240984002133  0.0829685415264889
  0.6643946164926303  0.2519075795064404  0.5840453010373367
  0.4977479868479749  0.1685273931510257  0.3327626976620208
  0.6649961846797702  0.2517530555759576  0.4156718844847214
  0.3300796072417904 -0.0022686662839148  0.5017886899184588
  0.3313065873469116  0.5796635398809766  0.4175055689113787
  0.6626432672381698  0.0027864372971989  0.8364170811753996
  0.7462436127336306  0.3336307891556365  0.4160991448462489
  0.1624185878056603  0.2515790241650586  0.2519379223770947
  0.8292210042947779  0.1666240244262158  0.6662422718144863
  0.1649671738573580  0.5851723812677661  0.7534306486716809
  0.2462528248130224  0.4123354321102936  0.1639985223996893
  0.7467380892155135  0.0026633454446341  0.7503234622238482
  0.5821426462187109  0.4994219181913960  0.0827666857082108
  0.0798931510459038  0.6663830769727199  0.5825661023289854
  0.3313903135473071  0.5810782437185803  0.2477828014194336
  0.4949382566820395  0.8325009370215982  0.3329098879581019
  0.6626487864642066  0.0837836460456763  0.9158917793568324
  0.2509055788021451  0.6662254972508632  0.9200635458233298
  0.4988909290367466  0.9159097516070221  0.9174681226595375
  0.5807943977363436  0.0008818174445179  0.0839577892653683
  0.7481716006831703  0.9171890152902916  0.1650556752565125
  0.4150600731389759  0.1672869225558936  0.4129578223140684
  0.7474458509915075  0.9181589179732512  0.3314964751418364
  0.6644894265569891 -0.0032418190265537  0.4969550051162542
  0.7477905335017597  0.9157262240001104  0.4998099834063832
  0.5002453845138125  0.1660467465909433  0.4995383063872329
  0.8294344877526104  0.8328189357400977  0.6638934174788497
  0.1673901747459004  0.7484119628658316  0.4150119904442390
  0.6667846999333991 -0.0001596726668464  0.3314779941878210
  0.7460893723604667  0.4168018824642405  0.3322592148470321
  0.0793501581768348  0.6647398671421665  0.2456872528255999
  0.6677266276858397  0.9182707734572301  0.2488359221864926
  0.5818492177179385  0.4215447760345959  0.5003507338186417
  0.1615481375654204  0.2552130141068683  0.7509784427557639
  0.5809576936964808  0.1667098307012188  0.4148763267737964
  0.2474189067666303  0.0808548219109018  0.8352062778994114
  0.2462786667942028  0.1679857584843839  0.5846221029273123
  0.1642225985657574  0.0853077337324120  0.5827396961485847
  0.7466108358134942  0.0833353080055532  0.3316711815941206
  0.1642021546166663  0.0844962178949467  0.9187639379138289
  0.9117363580867484  0.8348416189449716  0.2507222824795758
  0.8275632914533929  0.0856929418598903  0.4146522848064912
 -0.0009784211410122  0.4150323908991085  0.9165585633548353
  0.9130251515228560  0.0022472642213155  0.2504799843335872
  0.6662743713081827  0.8341685930819358  0.0006751144878145
  0.7476849186285993  0.0853605692450902  0.1661017279250810
  0.1644399712614474  0.3351135013881283  0.1650107816854891
  0.6625605967948995  0.6667656687111529  0.0008650936008857
  0.7468063281796873  0.2496431445101836  0.0002736299477263
  0.6646018471253854  0.6665742027691129  0.1665909542125651
  0.2472164187226010  0.4995277670905596  0.9177211536791682
  0.5797076593946888  0.9190430754094102  0.4990027721265253
  0.5809709970222524  0.1675690680811324  0.0833092439167313
  0.5797832778704660  0.8332546704389735  0.9132277197773633
  0.4139656544817797  0.5828340897427818  0.1628510087503979
  0.4131971238503740  0.0793854076183706  0.8357499472095118
  0.3286358612180239  0.5002844949075556  0.6654000781262529
  0.4970663249388795  0.7488923051405034  0.0830668019939603
  0.4142935746359015  0.2518853353779767  0.6692552410859119
  0.4973205958623082  0.6661580782033192  0.6670422212098919
  0.2457914707610105  0.4170173961820015  0.5010606435595126
  0.3310764363077437  0.5798346048265633  0.5841018319540049
  0.4179061145493538  0.1676739229771395  0.7468557550346371
  0.4150666705180863  0.3376570761508662  0.5844040368633199
  0.3305474892973124  0.2526645106770790  0.4179382053864747
  0.6628739534921596  0.3332009938906426  0.6669800571956196
  0.4148697643273350  0.3349022619804337  0.7494713761889907
  0.6634768159449279  0.7455671499619927  0.7514849869493789
  0.8309850719681678  0.7524558423288390  0.5829127479984005
  0.8238112013511806  0.4160555650239833  0.9165646624778316
  0.3287590303838233  0.6645900644493870  0.6653765238252739
  0.4118639149236588  0.8324921155906434  0.0839182134029755
  0.2475145914011505  0.5800575569606196  0.8341880854703998
  0.9147106503873436  0.8335760003818412  0.5857992512467266
  0.3314639478701485  0.0802672484883518  0.2478608208527880
  0.3297371843033724  0.9223963436243210  0.2492343133778087
  0.4129641870763056  0.5826715508467772  0.8373090990748818
  0.3285526537759707  0.7466341596360051  0.2507752659174804
  0.3324051271378204  0.0005244160842080  0.6669472550473294
  0.3294138606165268  0.8321174799886243  0.6648820090922726
  0.4975294397282577  0.2514233716286962  0.9170687090052714
  0.3317419946730265  0.3341083336353387  0.6662111377465950
  0.4973285616660273  0.9196524260043677  0.7496671508517639
  0.6624657925811710  0.1670997283668762 -0.0000529899430208
  0.1652893083726254  0.4109473294656684  0.7514427605362750
  0.8302644444058067  0.6649391798686867  0.1649602837419703
  0.3308872283022538  0.1678940734034406  0.6635985692758002
  0.4117264754452885  0.2538090402253965  0.4958692299769490
  0.6668060024008906  0.5831736318972400  0.2478118434444129
  0.3313342528946568  0.7498250522864366  0.0826481923245182
  0.6619592832412192  0.7486855101440796  0.2495061790869348
  0.2473212530288787  0.1671873440330266  0.4158078674826033
  0.4150715978665293  0.5000267170760934  0.9176081159939705
  0.6648422261144484  0.4991163094959223  0.4991736610449214
  0.6633296068330883  0.7488576392137501  0.4154340972579115
  0.2472786811452933  0.5007052572472541  0.5852136902728357
  0.8304297683156541  0.7481357946792422  0.0850810541833598
  0.6635891099818607  0.7473844091133756  0.5835640894765520
  0.7501832142571997  0.9166681740087284  0.6655430142137255
  0.6620137322217137  0.0008008828244748  0.0009722264375945
  0.3317345409642314  0.5824822804014645  0.0822271141212143
  0.5795430122009680  0.0831209027700350  0.8361675655802321
  0.3316693552020086  0.0006124076685719  0.0020342458817391
  0.7470925132578450  0.4173222746211275  0.8343442139904238
  0.2509173470067334  0.7494875124431803  0.0004195131831998
  0.4974900152448331  0.6677341575488110  0.0041719829496189
  0.3323885595778672  0.3331772685899347 -0.0003068763882930
  0.4133369359285271  0.3342568702427755  0.4169038818892184
  0.2496192163173853  0.6636551681461893  0.5848919463543844
  0.7446045447305730  0.5831507496053905  0.8342745716220975
  0.3308129048614517  0.2509418436513235  0.2493423137410684
  0.4151393630625488  0.1652593678808590  0.5868354716713751
  0.5825929098132114  0.8353238926912609  0.4127892702325344
  0.3328833550835442  0.3373404991877512  0.8343699488451232
  0.4144537321866121  0.1679508644702310  0.0833283276155384
  0.2480379503902356  0.1677031722260444  0.0826084778907842
  0.5809361245631331  0.5818381149830711  0.5020862696410977
  0.4967546123942639  0.6611887968210535  0.5016961613634604
  0.7438279325691309  0.5803331240580489  0.4990758253079445
  0.7481772203124111  0.4996264115661492  0.4150676553971828
  0.6636062659283025  0.4982473320363078  0.0013283352078404
  0.1633933780391842  0.9199603973912286  0.4155326135126268
  0.5798075233019168  0.4964702752017687  0.9156685907079742
  0.2468507019619667  0.8340709383311896  0.5824668744485768
  0.4957855513959258  0.7442022020510787  0.7490761322970717
  0.5826965958040732  0.0803973774974351  0.6661598508222009
  0.5790554636312285  0.4965731392552650  0.2487737716452476
  0.2460341605153423  0.1654236626873517  0.9195279506482834
  0.4951375927908607  0.6661705307768405  0.3329196281518053
  0.1641938357650169  0.9179997281104078  0.0838244732841000
  0.7469770470539835  0.6631161076592553  0.4152320502106894
  0.4081480871284677  0.8334857766724778  0.4174356594291015
  0.4143300241943702  0.8310802349203105  0.9154889590240758
  0.4982849149362011  0.4967390927127278  0.3311172848180820
  0.4980942804090944  0.4993164292401704  0.6688701627898466
  0.6625073136993305  0.0854740719598218  0.5873315154811181
  0.4981385028157581  0.4171833226869305  0.9175972110209631
  0.4984755187495902  0.2525642374333950  0.5865131540689104
  0.5787351785557387  0.2509554786937945  0.8344063188570529
  0.5016279179761403  0.4164864826513877  0.2498299178331949
  0.4969228500986601  0.0006305876303153  0.3310228764115750
  0.4981394069201421 -0.0000314470405243  0.4994960526774795
  0.4119140836483438  0.6635143717237267  0.5841645414038192
  0.6634350856578868  0.3323133153797815  0.0008982231500820
  0.8284964151880848  0.9182399925442488  0.0854027949913250
  0.2460494723121842  0.9221014278375298  0.3329798938177266
  0.5833366085019241  0.3323064174810207  0.4133709237177829
  0.1635690591241123  0.4151800652883372  0.0827273684870725
  0.2478708440058066  0.9174694018819045  0.8336043079824407
  0.9138032697508256  0.4143255213126991  0.3312059318965803
  0.8293161380956587  0.0849232369771636  0.5832054113398675
  0.2463320388514020  0.4161231659671213  0.3341381666445870
  0.0794432290058859  0.4973287485640830  0.9175908912455034
 -0.0038665602269526  0.5795173371279131  0.7495938089125692
 -0.0027107199218626  0.9188062614583852  0.0835368380747191
  0.5795208290603543  0.4170048564630764  0.8350248415900720
 -0.0022454336891933  0.5841358849963011  0.5865331553965176
  0.1639018039164494  0.9165759902030662  0.7511551782592407
  0.9130890998590923  0.7503582664305801  0.3289673311326007
  0.4148055371580180  0.0003929961606406  0.0841634050280562
  0.4146974879792418  0.4158601534091809  0.5003705324833601
  0.8303298222540390  0.9161855631068244  0.5831904489896870
  0.6629209457980985  0.4995125536082555  0.6687456416113896
 -0.0052625615670495  0.4962837367576743  0.1658787020289992
  0.5791923259172895  0.6672479307761452  0.0828632435351799
  0.1681923689918740  0.7503935638691768  0.7518238112149324
 -0.0030947552034494  0.7488506448642652  0.5832648477421927
  0.4977411242270173  0.2515025904384648  0.2484411179639492
 -0.0036981587528035  0.6656136168427454  0.8391536868342245
  0.0004005574086102  0.0062048528404861  0.6664863397318721
  0.0753970481908593  0.6656742900458810  0.9142561324375478
  0.0801692316945491  0.3331083990215203  0.4170848937056669
  0.1637193768424030  0.3328707484700437  0.0008247508557720
 -0.0027382506318031  0.1668822915239719  0.6665202251666571
  0.0794433090345991  0.4946389274840536  0.4153944293240564
  0.1629297415773581  0.3334096745493701  0.8339081365209747
  0.0799276515820834  0.4997048381949881  0.5847809049464280
 -0.0049766658570588  0.4146322855844728  0.7544031011387670
  0.0807451290327537  0.6662544945284578  0.4141812580961354
  0.1621922281232307  0.6628787525978311  0.1646265875857064
  0.1615190117642668  0.4943703796812071  0.1614153652587936
  0.1657222174186680  0.8371713612100118  0.1656413004491385
  0.1647508493245462  0.1668454046360376  0.3347616109787794
 -0.0048620455734464  0.1690397013909238  0.3343768937840130
  0.9138873459322138  0.8329013279818905  0.7495463570140725
  0.9141322298106698  0.5826764227280393  0.3308523461791379
  0.8324944343191577  0.8348455816609980  0.3317617672028561
  0.0015356193112335  0.8337847585560791  0.5018354375353645
 -0.0034254743571167  0.6658561760928834  0.6639903947085614
  0.0793516312371553  0.0838464941394113  0.8342729839953348
  0.8266004877355472  0.8347623157659416  0.5007531402477429
  0.8292360075958514  0.6663818670171595  0.6689257187292895
  0.0789431456854567  0.2502636986812017  0.0009078921453136
  0.8301062536184119  0.4992639609591707  0.6675760921481135
  0.7470458708994845  0.7463933453787709  0.8357180451643439
  0.0781692421954237  0.0907466299715681  0.1654601209755679
  0.9129094860045036  0.4131909852006297  0.5011608507510721
  0.9141012068796368  0.2496727447506716  0.3338617712707578
  0.0797667915026182  0.9225052741513027  0.3367873214376298
  0.9131887178393862  0.2498534803986323  0.5008186805902903
  0.8292828033904036  0.3337400450843873  0.6665555731575052
 -0.0034170010013678  0.0033361652757419  0.5002623472420137
  0.8291647552040313  0.4151829005188666  0.0843551784210197
  0.0810524312344698  0.8333491714899006  0.5828308482972453
  0.2462587109319896  0.1646633297492716  0.7472680831540128
  0.0792278689405055  0.0062619352258857  0.2530112355345671
 -0.0049863551598375  0.4152204484821558  0.0833406997158399
 -0.0033596385078964  0.1683167198148820  0.0003137655976701
  0.1641369038166824  0.0035257555046702  0.0007807369930781
  0.6646422269869962  0.0018942746394707  0.6701189276767251
  0.0812779579105738  0.3298758127340725  0.2489961425828326
  0.7434648640357771  0.6658785440898144  0.5836688967022721
 -0.0020353107149514  0.8307542234885628  0.6633640164302922
  0.2503016085363139  0.9193286394006974  0.1661344302760666
  0.3292719263682017  0.8332521685122767  0.4989030763562660
  0.7465274216162663  0.2492384580362574  0.1660048394930223
  0.0772193099553037  0.2482072906861504  0.1642767625872431
 -0.0028425509666183  0.6627160017518912  0.1659055812066706
 -0.0066769809279712  0.1680168515483787  0.5005306725668026
  0.4148267782025602  0.4159272034525214  0.1618277006245307
 -0.0034707817858813  0.0859720600293991  0.5842749295079783
  0.8291736069443925  0.1687470505773141 -0.0003053331972001
  0.8294169315750265  0.1671712543162971  0.1669308357961710
  0.0800962505167983  0.8359270612050265  0.9158979597555896
  0.9110682693764390  0.3336860829563401  0.0827473490598672
 -0.0041953387761935  0.1681057296190091  0.1666785984124107
  0.1634340875419728  0.9174816570587296  0.5826826052443419
  0.0794026088533427  0.3326273630400917  0.5835969651004153
  0.1648591721128422  0.0878892889534655  0.4152820662379628
  0.8289879252349912  0.7490878342213665  0.9165435981276965
 -0.0014523836783926  0.2496074176888060  0.7497382740743551
  0.0807440849633573  0.9170187835131381  0.8348542625790744
  0.8303833542641872  0.0854394867910911  0.9175896704796593
  0.8304912006486896  0.9185431318914837  0.9196390615027469
 -0.0034671295351684  0.0002830696685830  0.0001113480610595
  0.7457697529664110  0.4186569293153896  0.4999192534015189
  0.8294044241278645  0.0863817187141128  0.0849292934918851
  0.9129348366702835  0.3327741347216503  0.2495545690845269
 -0.0035216608621403  0.3339646379199790  0.8332469683860882
  0.8285211659486101  0.5824222585357879  0.9196376607244481
  0.3305226569664407  0.0016073942076377  0.8346086970190736
  0.8277437369911460  0.4966724949380926  0.4978160249304547
 -0.0055286614869947  0.6634066066724105 -0.0014761970556267
 -0.0044395452299840  0.8393659793809262  0.1662275370675418
  0.0796266580240005  0.1668695549941427  0.0825520242134636
  0.5822196002046349  0.1703173793569615  0.6686128366387557
  0.1632954699530821  0.4982496859742407  0.7511650816341058
  0.1588247381932225  0.1655637650742338  0.7491673718329721
  0.9956202655716102  0.7539516918498086  0.0000326762833559
  0.6631924973163206 -0.0002917838915765  0.5835166151174942
  0.5814078686218488  0.5866355907312050  0.9150571978715776
  0.5799821253079127  0.8304398560127544  0.5018213579241245
  0.0787840716254527  0.0024252203635511  0.1640227889436518
  0.1645829707948682  0.7493656811834082  0.1664646034317271
  0.4949668461380171  0.8321811700610098  0.7495716470676284
  0.9967849685094193  0.6664119818054646  0.7518849658321400
  0.5773935520675526  0.9166794911494440  0.2480111432863286
  0.9144986429848823  0.7497669127761881  0.4184560900834525
  0.4146863638266511  0.1683010439103296  0.8368380166511973
  0.2487020726218828  0.2526574385118605  0.7501424424773548
  0.6636943780367106  0.0858040786800149  0.4979874505870568
  0.3318742986524025  0.1665569026423334  0.7505752887322933
  0.9977772129792826  0.9180812274619998  0.6682039453623579
  0.2422051630413445  0.0002553045096061  0.6665545731940223
  0.2495917152010505  0.5003287163236539  0.1642257162645506
  0.0843274045051396  0.6648223688030508  0.6705313302670369
  0.3300283580274603  0.3392573665811528  0.2487940926485874
  0.7514288949683179  0.7495298896256946  0.2482680853057064
  0.9966702251036796  0.5822641917230734  0.4959590592556983
  0.2462834073079972  0.8348066106662437  0.3330546599575349
  0.1643037135938574  0.9148686320362097 -0.0040235168836641
  0.1604721804857245  0.7507829517200063  0.0004070667449929
  0.0784163372247747  0.9169397347598600  0.2486083723888808
  0.9114889771122605  0.4158170801965080  0.9168796917998947
  0.1654398262776003  0.2480647833756734  0.1649579203057832
  0.2488296067072969  0.6696074848910429  0.8315891503559367
  0.0833956506273646  0.1687395740403468  0.5007918212619875
  0.4081294953807187  0.9155857920617850  0.7490232236356831
  0.6626831222324254  0.9148112868182486  0.6675437107890517
  0.3302714531202462  0.8349776099031957  0.2491909949023754
  0.7462749637634007  0.8369469637374429  0.8358115934689694
  0.8329715420135779  0.5826090686534386  0.8311002435407719
  0.9958852358548004  0.7507698428880160  0.1666625046819166
  0.9161451847489160  0.5013739209647399  0.4990621899232475
  0.3299765072658988  0.0870419400123699  0.4991138654087249
  0.8319502796356639  0.5846351029338044  0.4982885479120750
  0.3303577366524428  0.0018969911708315  0.4121405380425237
  0.5817717457432465  0.3335516881337728  0.5027038532835478
  0.7452584496947643  0.2489789863122726  0.7462854379571656
  0.1623697619239534  0.4963768768620431  0.2522332528549808
 -0.0901010316774427  0.2498051585486994  0.7505051616283848
  0.0788684650930531  0.8319061455220303  0.3323877160126986
  0.1634481309811688 -0.0761275941623926  0.1704013491526597
  0.5788010717182318  0.8341656269829305 -0.0004311574411824
  0.0786749022861278  0.7540458751171009  0.4163510855221458
  0.4986244579016135  0.2521485637268789  0.4991780646349467
  0.4142018979054286  0.5821923918445276  0.7481359151917270
  0.4104073711294498  0.9193994446329355  0.9182950796062321
  0.4136483266280744  0.2510594343974476  0.5822060267966542
 -0.0874272863460303  0.8345628160730860 -0.0002382201073354
  0.3316112550200334  0.2480708545092325  0.8369061845182070
  0.2461105657479427  0.1682640377213303  0.8334005361361024
  0.1637136306604003  0.6660202879340628  0.9178484246080956
  0.6630848543007837  0.8350442901819828  0.7514609623187956
  0.3320868007821742  0.1653571692760077  0.2485816554847397
  0.2409321343357816  0.5819540982692913  0.2475987063664558
  0.8318186868335991  0.9198691722034678  0.8300265423431806
  0.4961734358721545  0.6666989263801022  0.9132663726373212
  0.5837526055929796  0.9157078953938498  0.7535191962826657
  1.0019159950720364  0.8359928420682421  0.7534985534687493
  0.4131601399385728  0.4161119155800523  0.2511759078265054
  0.4958734075795949  0.8336959404120823  0.4189540933781111
  0.5755069074278431  0.7468643001954265  0.4152707611141158
  0.9137857556291615  0.8352794575386684  0.4987028900880902
 -0.0046402290522807  0.4156298764602995  0.6637791916904795
  0.4175274160799847  0.5833023733240927  0.2514963056970682
  0.8303858023428645  0.6647827135708829  0.5815014461005311
  0.8267445338680346  0.8334654052803183  0.7520182027049556
  0.5787530011899042  0.5852831310055359  0.2477225242297433
  0.4966828554532306  0.8321284443545512  0.2443486870931141
  0.0812068439121575  0.6641265408479914  0.0013323101848633
  0.4133890186788116  0.1676055432503221  0.4996857265697828
  0.0776662146718575  0.5806056790344335  0.4165127086552937
  0.5798692450536529  0.5815796694127006  0.4126955841747706
  0.4955735810489317  0.7516147884358977  0.5021672292721210
  0.9105682654352857  0.0016866044402531  0.6682703101370464
  0.1620381744046812  0.5799961966956436  0.3287132860681384
  0.7509499243151135  0.7523782210599768  0.4162276658384176
  0.8334414788128865  0.2491458021768901  0.8330398856624092
  0.0779721676971339  0.7504073012586614  0.7518827514069482
  0.2474405725742596  0.6593358852650815  0.3328245793666125
  0.9129569571759445  0.2503448036100556  0.1668495420000950
 -0.0035181497356332  0.2503010809836140  0.2504037374778676
  0.0808740216494393  0.0012204045952675  0.7514422229047758
  0.1614630367833682  0.0006794751086919  0.6668044202222655
  0.3316800703718537  0.3331030449567263  0.1643384566778237
  0.3308185890011744  0.0832371725665569  0.5847649937008577
  0.8297843396736625  0.2495865150750592  0.0840522708105917
  0.8297489906244017  0.1686138021634031  0.3329187580336911
  0.9119995078560412  0.1676468119674074  0.4175505731590105
  0.2455503408017127  0.0024651437675641  0.4165938079275437
  0.9127865308327390  0.1679513526794160  0.0825645241890033
  0.8295964292070667  0.2511507332846680  0.5837099227025103
  0.8282920472258635  0.3331170237741108  0.0000534688888138
  0.1637576418888406  0.0006595119774273  0.8345682327416727
  0.9128428895529617  0.1678151267100511  0.2506243861445717
  0.9129151414166380  0.2498842764191156  0.6658613145604521
  0.0805134825578770  0.0012284836154448  0.9167426530640758
  0.9138499521181610  0.0843744596171187  0.8344874665623085
  0.2475042672482619  0.0007228501339463  0.9180123917869158
  0.7471647070093175  0.9184019730280679  0.0010528036283499
  0.0811475996833760  0.0851373314059665  0.6665163080611515
  0.8299436721503041  0.5829243784896037  0.0838139132460589
  0.9158117163085119  0.2502359282308564  0.8345353638460921
  0.5794490216955658  0.6648054432414606  0.4154215855270412
 -0.0023699828137062  0.1671743026856898  0.8337401043717375
  0.8301361847024059  0.0020414453212974  0.1661945074769057
  0.8281237616309872  0.2501693477495159  0.7487270713653146
 -0.0042283827016977  0.4966065887172001  0.3321510154949996
  0.2492161302837491  0.2503639852779760  0.1662098557000907
  0.1638919837197660  0.0019378719739883  0.4994790132513168
  0.8303431963214555  0.4144275066809450  0.4146132191629850
  0.3313350630410325  0.1671036341323621  0.0009400796198747
 -0.0039551284820786  0.3335427430542676 -0.0002691879084553
  0.8294544768745405  0.1651681354650889  0.8349219915634907
  0.2484019707732089  0.0851269532116985  0.3323957875245803
  0.8291591102144963  0.1679229953927423  0.5002354632265905
  0.9122482941000272  0.1676367372167889  0.5842910698779994
  0.2467356686554104  0.0003939664935491  0.7516440486925533
  0.3309334715779269  0.1686569890361075  0.3340545272143096
  0.0796326810022031  0.2499483302816887  0.3346022818184973
  0.2465924947662974  0.1675946965167482  0.2501752315256061
  0.8290294672006570  0.0009939619368735  0.4998041663707890
  0.9124403553093914  0.0852773110245893  0.5007569461059198
  0.9143180566309418  0.0027737072492080  0.7513545852957630
  0.2462691094374959  0.0000410556045736  0.5821798531661874
  0.9126210160888151  0.0847015977132062  0.0002659356851338
  0.5811071112426148  0.7467258172598653  0.5013534504434271
  0.1638854605506989  0.4155209719039811  0.9175414336561527
  0.5792920468320027  0.8304538172882524  0.7502887982666935
  0.2483433255579966  0.3322458587494119  0.0815128846005223
  0.0788905367938881  0.3325695799231196  0.0830067065729706
  0.0798251510963992  0.4149838403122865  0.0000224717411721
  0.6640902098026212  0.9171943231161896  0.0839802371782901
  0.8294400150122394  0.2509626289827867  0.4163748312289736
  0.1625403957631210  0.0867618506159531  0.2507318273495450
  0.8282061929369814  0.4164565725729957  0.7498157979108023
  0.9119022773248289  0.3346409936962932  0.7507223107871864
  0.5811104477734118  0.4178268882043626  0.6685895944083876
  0.8280093597331758  0.3348889616515797  0.8344989380746756
  0.8284485277361233  0.4982398155533504 -0.0000417322327682
  0.2482732759058006  0.0844639765621731  0.0013460014168495
  0.9124832933554673  0.4989007240000581  0.7507926706214906
  0.2481763078449009  0.0018239222448360  0.0830494411112130
  0.1641475186662670  0.0853879351114025  0.0822940952525230
  0.9118520656265302  0.4978310896119757  0.0833310189002820
 -0.0035477214786558  0.8348409267994579  0.8363129827053866
  0.9131935687135739  0.0850159907188005  0.1662602857178878
  0.1641206587329505  0.2504067892889181  0.4163539454475027
  0.3314576488255929  0.1675253043766524  0.1648414411570817
  0.9127525826580660  0.0854752450922194  0.3339232924142564
  0.2476867329757224  0.2504096649084490 -0.0002059012299663
  0.9132328787110775  0.0022025797339775  0.5821563565272574
  0.9125637777751183  0.3328205893652665  0.4161214197716447
  0.9121304665339398  0.4162389079901944  0.0015312983593071
  0.4966464622980016  0.0828146858880543  0.7510433593228965
  0.0795017200813293  0.4138231290744530  0.3332843580865357
  0.6631945302239849  0.7493875482286956  0.0832557967816727
  0.7473729455326131  0.8331816291436129  0.0835013486035662
  0.7467207865873361  0.5828691241438184  0.1650525869123795
  0.1596110506174792  0.5809301201426944  0.2452421534238260
  0.2456698766480710  0.3335800417315795  0.2502889596319632
  0.7483236945572921  0.6649808044178747  0.2484244232113881
  0.6647136600965082  0.5823729766210666  0.4142319103501453
  0.0793032654068107  0.0846047631921870  0.0000236763627975
  0.5811590280556498  0.4997351877053972  0.7513837798516674
  0.1624016388302970  0.4134704986747872  0.2494920637698537
  0.1627136779372523  0.4154685561032046  0.4176302419840123
  0.1642242913854644  0.1662494500279767  0.1667967306271161
  0.6642623533358116  0.7495998392174112  0.9178953053076905
  0.7462143345731491  0.5824053344372881  0.6672646000233872
  0.7469391158303251  0.7492963656130633  0.0009931261115892
  0.6646265612352013  0.5824394366659881  0.9184736310896512
  0.8290881614994602  0.2497060886963101  0.9180547038571832
  0.3313956763686564  0.0863602790101369  0.4154369851914980
  0.1631953787971865  0.3338359276864677  0.4999947735128951
  0.2471720170701862  0.2522743588697954  0.6654286567895626
  0.8290145406724541  0.5803180928193453  0.5853407178996713
  0.3288527774404292  0.4179412279498108  0.2490162826063788
  0.1635569730309862  0.3329548709770899  0.3342900881260309
  0.4978360752027493  0.0008679931213439  0.6670447122989155
  0.8292619448371649  0.4164207174811066  0.5837478849598334
  0.1642549375098082  0.2519098544589728  0.5831586938469963
  0.6639441853318231  0.5819473745268462  0.7504162227904019
  0.6638225948313227  0.1674096503510739  0.3321898954230509
  0.6638477546418458  0.4154615244558846  0.0835942139482310
  0.5811520887105425  0.2503210132256363  0.3319722402634138
  0.7468307622615198  0.4993507544486557  0.0834787746167388
  0.4154167845233280  0.0838371961343453  0.3316288358336762
  0.7474498570146664  0.4993858535803614  0.2489164555108720
  0.4982223360354142  0.0827537632462911  0.5829783506428969
  0.3304850596399585  0.0021167620039032  0.3305837167751535
  0.8295822601755457  0.4978650921402021  0.1667293479755510
  0.8289576371661811  0.3329188547947116  0.1669943540458397
  0.5804407110348445  0.6678308981770027  0.2485011800111691
  0.1661736794580172  0.1681795426586392  0.4996579859720333
  0.2482524115702906  0.7518018136284206  0.8343721601780403
  0.4959545038978711  0.8315299935225574  0.6653683972041956
  0.1632990507270194  0.7512332721222340  0.9163306695520902
  0.7471877950842971  0.8339318940752088  0.9194497113131622
  0.4933989085097787  0.7480119713465910  0.4157466482803763
  0.8299230869275345  0.0020091443991924  0.0007800490126826
  0.5802893767729113  0.6642321685400373  0.5845017918966040
  0.7464992970658625  0.8355462970734137  0.4149171868973123
  0.4137591604306046  0.4989081057369805  0.7507381995607540
  0.3291264946689928  0.2524951855379100  0.5826327353203005
  0.5806373220609730  0.6653004488282506  0.7504154944120160
  0.6641400138459526  0.9154324636602609  0.5822276496918730
  0.4964938218470396  0.6660324458865879  0.8317412969108183
  0.7456259831251719  0.8308319472069000  0.5835305310927253
  0.5818406684026602  0.6682928993791264  0.9183175341323406
  0.6636783227158655  0.4160376527582990  0.9169498189264461
  0.2463778599478360  0.0031909950932346  0.2492548740882430
  0.7468881501426482  0.6658507594464043  0.9182935127657077
  0.0791822396998267  0.1679778065082701  0.4158491470954597
  0.2468459842506212  0.2527896098959565  0.8353641524502543
  0.8296146369100172  0.4155230874345268  0.2499988367187717
  0.1637788103722426  0.2501520919509639  0.9183061684131826
  0.9129734313197077  0.6646842580803095  0.0835029312303221
  0.6647451957226084  0.8328073798808694  0.1667485082819947
  0.8295602208930248  0.3330006918706308  0.3326186378892807
  0.7487726798922463  0.8345791252006959  0.2488533971774004
  0.9139289940620527  0.1657158147194615  0.7498898639607452