Cr H  Ni
 1.0000000000000000
    21.1200000000000010    0.0000000000000000    0.0000000000000000
     0.0000000000000000   21.1200000000000010    0.0000000000000000
     0.0000000000000000    0.0000000000000000   21.1200000000000010
 Cr  H   Ni 
 259  86 605
Direct
  0.4977326850623917  0.2509842278973555  0.7492754668445343
  0.5790253937518698  0.6660691513355667  0.0828875364219634
  0.1600456686442042  0.9160428890115335  0.7513030835642964
  0.1680878979152292  0.7502973019733771  0.7516284363418690
  0.4138948014019281  0.0013171357322271  0.0835075423143174
  0.4971427988077772  0.2514419661760187  0.2487597566991092
  0.8304530798144345  0.9146967003354018  0.5799849009537605
  0.0012992426809396  0.0024312163829481  0.6628987814031040
 -0.0049162570886245  0.4969466520489381  0.1661645588889772
  0.0800549107897044  0.3334686799148548  0.4172916060934245
  0.2461596235941786  0.4155723189176229  0.3337672886149689
 -0.0017579191878686  0.1679011665104456  0.6657265118761762
 -0.0044226102741414  0.5798637319618548  0.7499485466226500
  0.1626237362289571  0.3338833796510692  0.8360960220517134
  0.5793035831875639  0.4173696678211137  0.8344309417874524
 -0.0043141087941311  0.4148888076522242  0.7513149479283369
  0.1630685399319796  0.6647512940038567  0.1641861341905124
  0.1635035903859948  0.3332185105490951  0.0009467022694191
  0.9143451493288152  0.4146045665151862  0.3315695462173688
  0.0802971204742300  0.4994257847961027  0.4156361889022676
  0.8290227449936174  0.0839477446996660  0.5836976747538609
  0.0792420806268121  0.4996795504805214  0.5852699406941284
  0.0789432704559867  0.4973563993319539  0.9175942005213147
  0.0805069182214903  0.6620611376551647  0.4152637977387405
 -0.0027728589324422  0.9197221668432013  0.0837629058989619
 -0.0035006712575846  0.7486742808805530  0.5833434659500378
 -0.0030328687897656  0.5830885687494611  0.5866442283445529
 -0.0035702403278062  0.6647957760660363  0.8386871571421105
  0.9129156952887946  0.7497475336528672  0.3294995419741354
  0.0763955866210710  0.6659070758366954  0.9139893896323091
  0.6628441063810395  0.4994316851879590  0.6680362487377715
  0.4146294576182309  0.4154134560018090  0.4974572943595430
  0.2484970312289991  0.9170420926782406  0.8367444226566160
  0.4980329692034225  0.0011162565700145  0.3306661898548116
  0.5820028622242563  0.0825595342242197  0.6661252503175779
  0.6635496053651467  0.3330998325123115  0.0001747184537968
  0.2459102292000367  0.1654058259929726  0.9197610001007767
  0.5826849080747697  0.3313846332693000  0.4133844822203220
  0.4969956350528292  0.4179118603392545  0.9177498503737715
  0.7435322435182801  0.5797837636989743  0.4992594393667333
  0.5020133523720790  0.4161523434904064  0.2502970497480170
  0.6647761307257289  0.4979785306586891  0.0013717603632993
  0.4121513264337723  0.6637472884331588  0.5833955779000067
  0.5802271227892947  0.5824519044428258  0.8310005944926683
  0.6618394612121643  0.0826246781137241  0.5869305032096607
  0.4959971987100131  0.7452416262285294  0.7493115231974065
  0.5753411922932259  0.2514101911516738  0.8346059158397410
  0.5795743380377284  0.4985745012740819  0.2490819216846225
  0.4981153339872460  0.0007249397198393  0.4992804537168062
  0.4963225389403945  0.6607258946792797  0.3332852520125559
  0.8276428489298879  0.9183241075672534  0.0856233133254986
  0.7454810940145212  0.6662799508660879  0.4158424003079955
  0.1632500789125236  0.4154817245127427  0.0823118721026031
  0.1644944747951961  0.4944082800959966  0.1614645219855745
  0.4146728846699784  0.8346644795910841  0.9154656293448010
  0.4973003839885317  0.6640289697800470  0.5008147262261077
  0.1624038205541138  0.7495321265389885  0.2479955268504676
  0.4984342900413523  0.4995583795952119  0.6685353970323762
  0.7472053296124720  0.4989573660777731  0.4160852479965201
  0.1642236764076379  0.9197865877890500  0.0825565426480298
  0.4988948055872527  0.2518931682440663  0.5866830443100777
  0.1625146638688746  0.9193510238498814  0.4155988006575715
  0.4097627759549782  0.8340943228984294  0.4186792932147821
  0.2452858690837194  0.8345724352164389  0.5817846675773756
  0.4983810209198345  0.4974898242805329  0.3311591959411923
 -0.0013741856816397  0.8392708101441692  0.0048745047689370
  0.0009897915335403  0.8330999819912539  0.5012267149811420
  0.8293916153971632  0.6659264798929952  0.6689599340711175
  0.8260127468864515  0.8339401744362377  0.5003838894074868
  0.7479292659007255  0.7463851586947747  0.8346522529680499
  0.8295286165744408  0.4989276578048797  0.6678573249981307
  0.9143068168509066  0.2500604250136683  0.3340711132730518
  0.1649524930749955  0.0033363794871152  0.0016813054885596
  0.9129975476858254  0.4204535371450460  0.5014734911840389
  0.9134911931563660  0.2464350438421588  0.5009019156835236
  0.7436130064795845  0.6652950530550745  0.5838071181270453
  0.9165572304005184  0.5829662498344078  0.3307227220666934
  0.8290378592235010  0.4147894860947648  0.0841018342141322
  0.8291583609858826  0.3339808759267365  0.6665648204901118
 -0.0033703626120276  0.6650935429772321  0.6639803214038800
  0.0792277332316138  0.0062241088400558  0.2498287884660795
 -0.0044928819623219  0.1687709787255833  0.3340767645340496
  0.8325112383159546  0.9182960895593666  0.9193311365677029
  0.0844349293603241  0.9162534967944013  0.8333577597421152
 -0.0031689772640444  0.3348691507973185  0.8326305308407279
 -0.0058066350792557  0.6625642563363887 -0.0014147949329734
  0.8306059885110371  0.4965564457918005  0.4984541841569944
  0.0795209256704781  0.1664210819472375  0.0838849016577679
  0.9114188534490985  0.4985178408903119  0.9140048347218301
  0.7460998825219112  0.4191324942479885  0.4997960787024572
  0.9133545867456758  0.3330667004123319  0.2498730523439142
  0.8292711776928605  0.0867783252973456  0.0848841399353533
  0.3311184486683706  0.0007990134206049  0.8349714156057568
 -0.0047227977941307  0.8389370974296322  0.1653325656016557
 -0.0032036582983541 -0.0000393638220817  0.0007024640989638
  0.8318006821322410  0.8310895303357549  0.3318417349406503
  0.3292343947582231  0.8336928603368624  0.4984650936078883
  0.0798138701964989  0.0842266509374650  0.8350658972174568
  0.2459283956728061  0.1645046471482402  0.7472162524451561
  0.4140024218950588  0.4149984036358806  0.1626538455986384
  0.1636911080665927  0.9168086437362405  0.5823594108167582
 -0.0029585867442499  0.1686536765354644  0.0008326169862054
  0.8293459891119230  0.1692960798708538 -0.0005741638277217
  0.8289174825611547  0.7479584855559023  0.9161836834315193
  0.0814812104420713  0.3304902131525023  0.2492377581973991
  0.9114039048730914  0.3335190267413597  0.0835338427010643
  0.8301344401368694  0.0858626191207600  0.9177510506027023
  0.1643706157330633  0.1668817277122548  0.3339889114971141
  0.0793072700039433  0.3338223359031715  0.5834564453312122
  0.7466727258195897  0.2498757032163402  0.1656947396583814
 -0.0026241492741996  0.6628201494606525  0.1658750381870026
  0.0774735111406376  0.2487341236041856  0.1645678540555962
  0.2499120335025323  0.9187391776636036  0.1654775237479234
 -0.0063905792429376  0.1676043107934670  0.5003848212683539
 -0.0007112681303441  0.2507183816722404  0.7493688808695813
  0.0794531226954450  0.8327847228686458  0.5831679691259612
 -0.0033476767968411  0.0855269727593480  0.5839236404320781
  0.0788682919126237  0.2504611219372072  0.0012063704473481
 -0.0042138232612533  0.4153941629892836  0.0841305178515698
  0.8295944804506307  0.1676091294248893  0.1667207779211111
  0.0787362403167172  0.0868113470501211  0.1658153748789886
  0.6634681106751729  0.0024463192583608  0.6667225141804910
 -0.0036067837337443  0.1681228048220801  0.1663969857325355
  0.0796475872700473  0.9221632419883738  0.3363585359777904
 -0.0024457946311409  0.8330274560071314  0.6664585066048454
  0.1649686980592033  0.0874792493217637  0.4145863061375187
 -0.0033057311690752  0.0030315302417726  0.4998403107795695
  0.9141015808332408  0.8318470960993209  0.7486742848959104
  0.5803677729725726  0.5822639163035362  0.4996672241893272
  0.2422788936292085  0.9191594961980234  0.3343804326939387
  0.4138768223975984  0.1682043729046769  0.0836046280242344
  0.8307062590967317  0.8290346888553060  0.6661696466530259
  0.9130859941706880  0.0024239225966701  0.2500291395390741
  0.6666721537680717  0.0004433274289679  0.3336034026588029
  0.1645464497094398  0.3356121464137776  0.1651751607226853
  0.2476633506634287  0.1677280349894862  0.0831011183117132
  0.5806720913499245  0.0012482840678219  0.0834818298916896
  0.1642002210974534  0.0845472944172571  0.9190623154022859
  0.3306474354111059  0.0841117861864642  0.4132085902836333
 -0.0049533175866369  0.4153091353209138  0.9163195064790307
  0.6633933747703337 -0.0028187473817750  0.4995323882068824
  0.7477411031845420  0.0861851150606096  0.1656474583247275
  0.4993097976906850  0.1664512711309237  0.5032761748125429
  0.7462605508394042  0.0839210413373848  0.3317373756558803
  0.1667129543439831  0.7483815563629247  0.4187718055143299
  0.8272470076011560  0.0858048591250381  0.4147925439451800
  0.7459264094027680  0.4165599594711891  0.3328251571648134
  0.6655601081042317  0.8332950752698648  0.0006758317239026
  0.6659799494615768  0.9152779655630711  0.2473915495032251
  0.6635563669289657  0.6655378386600821  0.0014488585520545
  0.7469896947812015  0.2505223434752420 -0.0001189357943194
  0.1614507882732448  0.2510486147886985  0.7501651383250951
  0.6639645186905365  0.6657505449418385  0.1665713513398503
  0.2470158611379342  0.4993884786160961  0.9177883168917855
  0.2475314298079704  0.0807312262757761  0.8353766698481540
  0.7479526888421707  0.9169662960892161  0.1647982193575852
  0.0801188428917671  0.6653461332961979  0.2450168157791460
  0.1640166234854694  0.0846999984291087  0.5824971394115415
  0.7440790713343253  0.9182025797210470  0.3313595461011593
  0.5814662718774470  0.4212622582084521  0.5004166286733077
  0.9120566912009426  0.8344454598930443  0.2499132595504860
  0.7471722789662689  0.9158504508654300  0.5002708214685347
  0.4952447173775550  0.9161952513162757  0.9171185517626000
  0.7465736843623999  0.4162766709641799  0.1666419112398423
  0.5812191639949680  0.3332410614406217  0.0823059422111471
  0.6648222626594313  0.0867160486073800  0.2485423801202521
  0.4971790939649096  0.1696278787351937  0.3282463538367560
  0.1610961645234469  0.5809279792862810  0.4185410608508375
  0.6648974674429237  0.2517190909002686  0.4160808963960568
  0.7474664376596293  0.1681890316808562  0.4162031136671954
  0.3311673648497175  0.5769624481554264  0.4170735805397251
  0.2487658369870976  0.7516710758831839  0.3334514978060165
  0.7465406387769347  0.3342549968008657  0.4165328922513000
  0.6640956889153465  0.2519096365205173  0.5842531796162967
  0.8286651857041426  0.1684913771294894  0.6656556388862503
  0.7465837172923594  0.2511276558620935  0.8336071122225811
  0.2466860519202507  0.4144300103502582  0.1647663411228633
  0.0804662690788059  0.6648866661904730  0.0874786376464319
  0.5817897244709900  0.4987466518683942  0.0836034408787481
  0.3341448292084903  0.5772028689538614  0.2472382551773221
  0.1621208864262449  0.2517774013517264  0.2517692284044638
  0.2510655172863251  0.6662050082340257  0.9194150772435530
  0.1645831285037333  0.5819072664077758  0.7531360455027934
  0.6618853693045427  0.0837320447226249  0.9166836029671314
  0.7460862460710678  0.0004026148459272  0.7505996175911511
  0.5818008748907176  0.8321757558911063  0.0862764767567129
  0.0792993125608412  0.6664315074035370  0.5830597643052678
  0.4967420240394061  0.0009587803603802  0.1639163914074383
  0.4943341530388369  0.8361315956380765  0.3326362957954520
  0.3313816340156966  0.7535040078998274  0.4177608025512536
  0.3296430357418362 -0.0022092072720535  0.4993230924603961
  0.4126112447614983  0.8329374812477416  0.5823945788721135
  0.6612942382773663  0.0030164461136784  0.8360224602887689
  0.5762003567789528  0.9161588927335717  0.6647030267770019
  0.5841214119950296  0.1673135574866914  0.4153528773534256
  0.2462328221432728  0.1675125807548218  0.5839693070086183
  0.4110560830511583  0.2538934677293002  0.4963749466877995
  0.3310980111735310  0.5808295791897752  0.5838579600280965
  0.4132697452186611  0.3340896328819095  0.4168766898954692
  0.3285465112605713  0.5013971900135293  0.6656893905812038
  0.3298604952700565  0.2525055032437898  0.4174515781782396
  0.3302897893326059  0.2544028759174155  0.2490511352859628
  0.4967172203133226  0.6671275781742753  0.6663492228746739
  0.6637288982229275  0.7453369519640090  0.7514530520273356
  0.3322453975758553  0.3374911719519196  0.8337504858374162
  0.4176722970720545  0.1673723219432641  0.7464686010231965
  0.3310394580340258  0.3338762339426109  0.6665036684511214
  0.5803969196965266  0.1682648204176573  0.0830524716572332
  0.6626772902904929  0.2523209077449463  0.7493720859267047
  0.6620947594565283  0.1677864864164566 -0.0004435635767086
  0.4134352910632987  0.5793551485047813  0.1659574677914036
  0.5809256500477021  0.8331990980586911  0.9130703108998079
  0.7475065960048144  0.4171562110754601  0.8337146687159041
  0.4128828180383406  0.0792600511193905  0.8356854256948354
  0.4137787764500911  0.2516554518117428  0.6695811343421012
  0.3319340738243568  0.3332247266691893 -0.0002179581013246
  0.4973687558952428  0.7496790277757135  0.0850229143118537
  0.2475716525509459  0.5011924610826157  0.5848505477573460
  0.7473242447863464  0.5826922288315980  0.8340796418143758
  0.2454525451620500  0.4172742551600682  0.5008590651081436
  0.8250734651686247  0.0036709731967159  0.6677049369015171
  0.5834453106008547  0.8349846148708003  0.4161170510806128
  0.4145108657921951  0.3346318316716718  0.5842649582419563
  0.5793852521338529  0.0830937370174844  0.8356973579826366
  0.1650143876985617  0.4200298459992777  0.7504603053335949
  0.4142509168629161  0.3351122252491459  0.7492792299608467
  0.1639220635461372  0.7502075016331643  0.0793556123348961
  0.4146331541450936  0.4992235410968908  0.9176218154164323
  0.4970451052013588  0.9190776906245604  0.7493775765311576
  0.3320265551311438  0.7517961633905562  0.0822169553053360
  0.2468689880244374  0.1671639631330603  0.4153239733628169
  0.6617402225118791  0.7478110481717162  0.2488958355214146
  0.6667940761370734  0.7476205445583818  0.4161201754548993
  0.6642140893980729  0.4990404512564072  0.4994985631031288
  0.6636880431361336  0.7470094080655956  0.5838231828926946
  0.8298670180736359  0.7481379085295682  0.0831466255475729
  0.6608869571257293  0.0013693944835047  0.0015216576883026
  0.4145181621653963  0.1645219931681463  0.5867778902533446
  0.8308377152833737  0.5818500401165885  0.2471332245400135
  0.3320756551816197  0.0004890051012982  0.0019341414034429
  0.3315510176057025  0.5812273677694834  0.0835787774659233
  0.6636187293126925  0.5818494907108968  0.2485316572066454
  0.4971588350547316  0.6642734408733182  0.0036858288953499
  0.5800384092154128  0.9190081035040114  0.5001865557769809
  0.2496871121915814  0.6639266565860977  0.5851074990111433
  0.4967746347655718  0.2517810071455928  0.9172036433254595
  0.3303128231025240  0.1675487936734060  0.6637202006447697
  0.8312441970078003  0.7526991104474601  0.5836950167970265
  0.8286364070308321  0.4163590450927775  0.9166790777890295
  0.3326363944186925  0.0005067470311935  0.6662870368877993
  0.4117834525769249  0.8329658896878004  0.0843497221462915
  0.2475721993025545  0.5798628382513401  0.8341160060461523
  0.4109073572762657  0.8363142748183228  0.2504418034914419
  0.3309452133974601  0.0800134657637986  0.2481528882557112
  0.4100638656374887  0.8306373392910836  0.7493816908288197
  0.4113481877178924  0.6649353508509125  0.9169596734919004
  0.3262519080782382  0.7542175486564338  0.2518913672464602
  0.9156899758447888  0.8331394973904886  0.5861650430762153
  0.3287735700906774  0.6650869261611255  0.6656757315885340
  0.8294727240300027  0.9188816897305366  0.8294616625054212
  0.6641182778431287  0.8350679845656644  0.7504722433948807
  0.3313045215252057  0.1671260432289686  0.2481950309235381
  0.1641731397874711  0.6668120421388214  0.9176113170048615
  0.4129970267115048  0.4151847625125859  0.2517056223671015
  0.2460872407550654  0.1680118324807525  0.8334776590652392
  0.3314315762502865  0.2481875403317794  0.8368384277225553
  0.2434095861441611  0.5809906224329923  0.2467757421069430
 -0.0911853340238791  0.8337537544135762 -0.0000763665969333
  0.1621218979498588 -0.0799042499666647  0.1698428899168153
  0.3327724178317373  0.9195203131516204  0.3321490071070954
  0.4139065540818010  0.5826349312306568  0.7519819374329970
  0.4984763567454071  0.2519440551445358  0.4992186028881213
  0.0778040569638031  0.7516046089893594  0.4168008642482191
  0.0780633324010622  0.8320162957642406  0.3322715444573457
  0.8302416836874964  0.9161657820113196  0.6672433323950060
  0.9132791026038318  0.0006221132218597  0.6674907363819146
 -0.0898638711878329  0.2510577733906367  0.7500627584695706
  0.5787199201834887  0.8340337770974241 -0.0004019229981206
  0.1621668045913887  0.7510027983334907  0.3331419675797095
  0.4971261679477342  0.7492979466302286  0.3326117978291634
  0.5778613162467232  0.7461233401338583  0.4178444910845915
  0.4138325019697861  0.2494891180216713  0.5827647685312221
  0.1625904313978456  0.4970848860903079  0.2519862343407074
  0.4972341544887795  0.8333503327492575  0.4190379577771444
  0.2468879273322605  0.6615431684585128  0.3329689729922166
  0.0774731426498341  0.7507253101918016  0.7522718420874397
  0.8353169076625807  0.2501812295939665  0.8331423266622330
  0.1619905368351750  0.5799828904368252  0.3284959119251828
  0.3315069900749832  0.6655681130432843  0.4169213263043698
  0.4151790168654860  0.7477307819099250  0.2500337345849281
  0.4153468869482508  0.4215196734227757  0.5860181394119338
  0.2487144902218036  0.9154523657025947  0.7482477232295321
  0.0812636668260615  0.6645379805355313  0.0005568996633468
  0.4999476141565618  0.8332991149037207  0.2457033339694523
  0.4966860729177700  0.1661010044538868  0.4158567097728892
  0.9969042655481427  0.0016893954053974  0.7542884543355609
  0.8304678465526703  0.6649190896067284  0.5816137027472053
  0.6613894594555929  0.2508516969227722  0.8355286394509688
  0.9130738299314669  0.8349280113536920  0.4990097880899023
  0.4124941093928966  0.1663359292943728  0.4984918103664799
  0.9134796633648115  0.0843414783942524  0.7528496283767587
  0.5002787214507615  0.6661285989189328  0.9142188367264132
  0.6624755054972684  0.0009517604973638  0.2471681428805530
  0.4966243171522980  0.8324289591976518  0.7492700878790505
  0.9935963195449976  0.9171372496785171  0.8339227552849620
  0.0841428566642990  0.6646408822994594  0.6707000456630331
  0.3316359871009191  0.1662626135039695  0.7506486711489383
  0.6631097061998095  0.0862690877755333  0.4979909046405732
  0.4144437846097809  0.1683885236756119  0.8364670504044273
  0.9131185677613608  0.7491373794085266  0.4185851678389485
  0.8334410132239061  0.9201967384211238  0.3336004214269643
  0.9968903821507316  0.6665909299015610  0.7516452852089304
  0.2480184012574431  0.2526128946188657  0.7500970051212200
  0.1643156010001460  0.7515864868110181  0.1638124930871316
  0.9956394067650903  0.7503611472581746 -0.0008106885216350
  0.1640974927154334  0.3354404558559329  0.7483918855571604
  0.5833809393654372  0.8324831130779127  0.3283161124379552
  0.5794588462183727  0.8299333874407508  0.5036547665600065
  0.7420156226231140  0.9171158683023451  0.9183501292743261
  0.5811446318907042  0.5818230278423369  0.9211720001011470
  0.7458654540359372  0.0887743771148499  0.7517118743802134
  0.1584927639845363  0.1624995643492687  0.7488636195303581
  0.5820984548170498  0.3330510408548773  0.5033170692863014
  0.5835145574713192  0.9158754671130849  0.7530338994167484
  0.4971426345709841  0.7512672413551426 -0.0026768043996445
  0.4145684154159875  0.6685825660498778  0.1666290718467603
  0.8279407915034100  0.5824885561069355  0.3345688816584460
  0.3295557580931496  0.0855913386142351  0.5015552032755015
  0.9141849646205892  0.3335281984048655  0.5009741341751339
  0.7470359034733873  0.8358452526769379  0.8337982377232029
  0.3305952854901917  0.6656229311530825  0.2495560971913834
  0.6646712333340683  0.9135583151942752  0.6665635954772943
  0.4101555736211520  0.9192283479061635  0.7485567678706745
  0.0834325434089071  0.1688882584906199  0.5002076812009848
  0.1655767161557154  0.2481123613990800  0.1647634866244184
  0.8320641928384040  0.5848017641553025  0.4991958444464999
  0.9119036523547034  0.5000367982759442  0.0037291404351827
  0.0786561099626886  0.9167746247454298  0.2478168554231227
  0.1653274976329554  0.9146548548172178 -0.0042444384289043
  0.9973436062032826  0.8337292839805006  0.9139312061504750
  0.9963942364402884  0.5813439800770160  0.4964549958500871
  0.2485376309240095  0.6690414249945940  0.8310275319712621
  0.7513181229911564  0.7490472159936381  0.2479382239367324
 -0.0050024277323757  0.7504378472483293  0.1662774376776315
  0.2419039117377308 -0.0005777960043825  0.6654017310787541
  0.2468131086388163  0.3341298455721612  0.4162547289506793
  0.4140767124673748  0.4163916932752484 -0.0002450150735138
  0.3301929044704440  0.4155661177416962  0.0818386180331721
  0.4990055039221410  0.4184309773894598  0.5838157912094887
  0.3302580537138458  0.4177941343757456  0.7504887983796301
  0.2488139532280914  0.3365270857851283  0.7510756048604452
  0.4143174492781029  0.3347602066111128  0.9165425151546203
  0.4966512796872617  0.0005955359812812  0.8341602494942782
  0.3309451987407240  0.4166467972292428  0.9173945563301037
  0.4141618148124679  0.4180088749722650  0.8342887423474166
  0.3297217140460841  0.3337947224591736  0.3334397826203855
  0.3311857507387339  0.4995762675835120 -0.0003894810778107
  0.4151641901859440  0.4155818052551323  0.3348315994436318
  0.2474328289584294  0.4157404797953155 -0.0004729585740723
  0.4131672060569982  0.4178524311929259  0.6685115217182710
  0.3307393129643612  0.6643925131300500  0.3335429700883351
  0.4134536261898308  0.4984287684547555  0.0832577202666623
  0.3308697799489297  0.2508928606027503  0.9193450055778816
  0.3309112015732972  0.1635983178073211  0.8351246250300047
  0.4128917311687226  0.7521713900959210  0.1655387726512390
  0.2484194065634357  0.5786731843557380  0.3344302030123027
  0.2489361760939229  0.7512229694061485  0.1654339254335438
  0.4149663693684137  0.6634479232957159  0.4166440819110080
  0.2465331741192079  0.2512225640248651  0.4996140554817406
  0.4114595416295487  0.7501331884040373  0.3347659656535888
  0.3296687821556452  0.6664275508964262  0.1643764656394840
  0.2465702733529146  0.4978000246899232  0.4175241721175252
  0.3290756834882014  0.8343051527026825  0.1667771988084292
  0.4145227822160349  0.5020206434610481  0.5837239032020862
  0.4973712802102902  0.3337998927945735  0.1653802489163107
  0.4139567082303629  0.5798168986458645  0.3327151146966987
  0.3290544968396902  0.5819301274195080  0.7499698023620655
  0.4980714833762230  0.5828103502076565  0.7498084150178596
  0.2468066630704271  0.2512645148980012  0.3327951058663847
  0.3307361067992597  0.4974205481586256  0.1650226239823600
  0.3303557430408717  0.5821083268225493  0.9182646349777419
  0.4135835083520318  0.3332681963631405  0.0826919357193029
  0.4135676914449481  0.6666510395336858  0.0827747056094388
  0.3318387153867826  0.6662873009898164  0.8341740600082364
  0.4127802155125570  0.7501752413587729 -0.0003607411490085
  0.3313621985879118  0.8334778358744129 -0.0001359660812388
  0.3313792539420240  0.9173043147689101  0.0834999208045047
  0.4968969414788411  0.9168932329700489  0.0835514284642935
  0.4140741465794483  0.9163886318056169  0.0014201532261848
  0.4141257108811441  0.2508175334197239  0.0003073522198047
  0.4148729103090591  0.1668045392234012  0.9189522328654126
  0.3304326987624536  0.9190224259903613  0.2483014515958421
  0.4134823488535557  0.9177025821889905  0.1657008602553037
  0.3291731883423770  0.8351398738923655  0.3338929260381105
  0.4139685940585788  0.0002169200372791  0.5826868131884155
  0.4975633514442513  0.4998870805428588  0.8339661123801816
  0.4130778407974461  0.2513314895229213  0.3326470532509098
  0.3316393675072770  0.6659740368876513  0.0007975490771759
  0.4130942720196731  0.7481480241675340  0.5014910701952732
  0.4142214600000664  0.5815981232448421  0.4996466245893546
  0.3277658862666995  0.1686968520639924  0.5002151211151840
  0.3303733445711470  0.4996259289881793  0.8355907168309631
  0.1643744590049160  0.9183710939512092  0.9148530793176063
  0.3306504960955738  0.9162641215474421  0.5822362118387889
  0.5786243594928687  0.1675393961777609  0.9173994939307031
  0.3305676950560684  0.0827860162313892  0.9193894218531588
  0.4142461154810884  0.0841813738918704  0.0019793319705669
  0.5804837696724841  0.3326863069508769  0.2487540966173548
  0.6630189216656935  0.5817541510084905  0.5841936628403026
  0.4979906470279212  0.3329115244771532  0.3324293119245998
  0.3314360519310129  0.0847247402941953  0.0838973075347677
  0.4977523010911760  0.3353777107358505  0.4991858989611998
  0.4144011964635335  0.1680024653677313  0.2492984204093879
  0.4141443495693873  0.2507786079140056  0.1660167512047090
  0.3298057406961060  0.7498596180467489  0.7494442532180097
  0.4131090798560921  0.6671549733826868  0.7486245651159638
  0.4117479000998862  0.7489967750291414  0.6650446000129643
  0.5812214720187355  0.9190406395792968  0.3318257229567059
  0.4141471452754414  0.4981037613704767  0.2490778412542357
  0.5817567130852482  0.3351521725598856  0.5860197416115457
  0.4971242520611382  0.0847249948888213  0.0832356051885692
  0.4962645944484730  0.7508155633417885  0.9146382364827357
  0.5789207476648323  0.0842824907769367  0.0007107543066824
  0.4963476001788578  0.0002216027217498  0.0025135249408719
  0.4145829427546432  0.0818964135968225  0.4996641695795796
  0.4964813532742899  0.0831133757535764  0.9179838602866771
  0.4978254434564083  0.0841805294916657  0.2491100318720503
  0.5805901094409958  0.9172998344818587  0.1652338730581257
  0.4968625351686428  0.1682470250289047  0.1662840421417942
  0.4960116628704552  0.7475608649290343  0.5836855747323720
  0.2459803886546423  0.0840750688838066  0.4998677956387114
  0.3300049300581123  0.7492580078242138  0.5824204494457766
  0.4140307135613679  0.0020367191304293  0.7500743509260199
  0.3296810165592729  0.8324732572100587  0.6643941626546384
  0.3306152304853954  0.2502611685048327  0.0823968689592227
  0.3305010941510151  0.8331839819645790  0.8346775239979760
  0.4138152579697200 -0.0002900893683238  0.9184800567891321
  0.3317782275381564  0.9173535885322431  0.9179690059176046
  0.4153127438588551  0.9189988093007528  0.3333660208637426
  0.4149668638914341  0.0014138952265372  0.2488775687184987
  0.0781199327507188  0.1675253278406636  0.7502860636144445
  0.5797188037655425  0.1672128657897035  0.7507725146872970
  0.4144420778088899  0.0833580738361259  0.6662326045630452
  0.5803944397273902  0.2509231650073324  0.6673339034954364
  0.7452755054542961  0.0859055237005905  0.6657756515157860
  0.4981270639817900  0.1667719881901438  0.8338969061184193
  0.5807049372669002  0.0024199314036894  0.7507985745776437
  0.4959315034207441  0.9176140068001938  0.5828211341254713
  0.3301474527654000  0.9174894877842454  0.7499832493266388
  0.4980410451525291  0.0823135945439895  0.4151109699164164
  0.5782835558258791  0.0000065160845488  0.9184682665453722
  0.5810373481394357  0.0843840112468218  0.3317093103245237
  0.5796136958562639  0.0012280015193393  0.2486013719659941
  0.5792409644111610 -0.0008964676873088  0.5832639217878438
  0.5798695161377549  0.0851554449097148  0.1654890902132813
  0.3301124768388295  0.9187562830686188  0.4177444532408389
  0.4974061410089441  0.2504043090097390  0.0828998299519948
  0.3313738662368362  0.2517259300332668  0.7501121032850353
  0.6643585329098828  0.1682414025800004  0.3321530597403951
  0.6646289920319725  0.2504055703051378  0.2484031821942976
  0.5814176721944521  0.2502102467787356  0.3317229881095597
  0.4146671079808465  0.0014909242297999  0.4157402561568887
  0.4145828728886803  0.0839237633038603  0.3313175093197948
  0.5836066192890507  0.2495682076246589  0.5004764701483465
  0.4981841409005713  0.0827055270857854  0.5834333990124857
  0.4993095633759549  0.1664098359933146  0.6664542410166394
  0.4116898567651762  0.1668662691358911  0.4136643010832401
  0.1615655413516114  0.1670435574112039  0.8350726946004942
  0.3296699902083799  0.0029965965499286  0.3326111236289612
  0.4139787073582605  0.3323703805192993  0.2496534088967239
  0.4968308072347611  0.0829282612191579  0.7504627044637823
  0.5800602821121100  0.2503756354398780  0.1656915288404058
  0.4147547900745813  0.0847409683043648  0.1658659545138976
  0.4983103506561674  0.2515273297780631  0.4142778095900961
  0.1640967202046377  0.2519529582846645  0.5827742652742959
 -0.0025299101504063  0.3339936467879315  0.6671518283411207
  0.3297670300428493  0.4986287885426589  0.4997089730735275
  0.5816683675823122  0.4151008481660092  0.3332136356730322
  0.4138264718324505  0.6635061359680875  0.2510983740552701
  0.5809164392574477  0.4161141362432421  0.1652952191797178
  0.3310279255101125  0.0812839264200686  0.7492731237362065
  0.4993033513967078  0.4163722394017004  0.4162216119355752
  0.3291314156220038  0.3357014805180116  0.5006426303075715
  0.2475700839027714  0.8342839835508111  0.9172822081302150
  0.4143313897739053  0.5824067736706054  0.6671044146949844
  0.4973191916028897  0.1679370018944774  0.0010509969292827
  0.2476599295038463  0.5810944826903484  0.1630794968967804