Cr H  Ni
 1.0000000000000000
    21.1200000000000010    0.0000000000000000    0.0000000000000000
     0.0000000000000000   21.1200000000000010    0.0000000000000000
     0.0000000000000000    0.0000000000000000   21.1200000000000010
 Cr  H   Ni 
 259  86 605
Direct
  0.4939277172636320  0.1675023805768807  0.6671004792705818
  0.1619509053611653  0.3327459410641608  0.8333984649771815
  0.4137422270339456  0.0001393479048228  0.0839672723445668
 -0.0059112995731696  0.4134835016025324  0.7521913542613455
  0.8314318770083190  0.9139108887601953  0.5837266411820817
  0.1639281034708739  0.6671386942617471  0.1656100269453145
 -0.0045988697913929  0.4974507880661236  0.1661666033831066
  0.9143235038821927  0.4147609062508640  0.3313094486789022
  0.2470948741126180  0.4151938527541232  0.3334685007482176
  0.8294740513887126  0.0885340596420762  0.5842209226519535
 -0.0032009015901679  0.5803437903643834  0.7478563585519603
  0.0790363773151996  0.4978550741451706  0.9190609647823771
  0.5807935115822788  0.4156639804646950  0.8353262537238181
 -0.0027391218186915  0.9189267829211426  0.0842352532370018
  0.1646954942480699  0.9176453124086941  0.7513219921959645
 -0.0022428285424971  0.5833371453639127  0.5860986498711097
  0.9140443477462704  0.7500634547032274  0.3288163277686986
  0.0804102541822686  0.4949515380050524  0.4148127531669232
  0.4146016145713514  0.4192257397264123  0.5005261466279424
  0.0796493426055099  0.4973500606642690  0.5845048158889087
  0.6624562942418406  0.4987476345021615  0.6683409903138047
  0.0850894548206871  0.6683315535434929  0.4154696693425050
  0.5801711414829127  0.6665008750796673  0.0831476217946967
 -0.0028908968568168  0.7496451574418100  0.5838897490942281
  0.1674402466779202  0.7505279827065380  0.7519065470437301
 -0.0063112884976021  0.7523116829807350  0.7510271359217521
  0.4132429529325666  0.3303441136669924  0.2492498417108251
  0.0762857193431931  0.6675139146914705  0.9162882280737245
 -0.0019965325506706  0.0068939486103588  0.6660049017320795
  0.1622574495333154  0.3320187234692839 -0.0000988254325582
 -0.0019576115605191  0.1672020093059956  0.6666880850035859
  0.0805562778179403  0.3328580758975535  0.4163061259726355
  0.2480134973939948  0.9166861695849441  0.8330126797756887
  0.8281491744824925  0.5792176767068070  0.5838983130382485
  0.1640158165199814  0.9187303221658537  0.4150124781870226
  0.6637340910827368  0.4987543225985591  0.0013949746020550
  0.2482927061963116  0.8317622061709002  0.5804145378225309
  0.5812702282313386  0.5821767232493784  0.8339113764742798
  0.5801768086072702  0.0824766051701317  0.6665074969443384
  0.4966535941418862  0.7487307284714902  0.7499343386223980
  0.3318647248687295  0.1673032230835168  0.0020505419810646
  0.5793245322938166  0.4960740659001089  0.2485028135937295
  0.4988925123481753  0.4164344640160889  0.9175471864093045
  0.4950042865629794  0.6663185486813725  0.3333702144982483
  0.4125535145954208  0.8352852146082544  0.4159373888755826
  0.7421716984377548  0.6652015425890933  0.4112788754349609
  0.4981257596440698  0.4962696747795626  0.3294878624023481
  0.4942229577657865  0.7495023908905221  0.9168208014982607
  0.5791595697552182  0.1664747021112653  0.5824356035537660
  0.4977153842634774  0.5019810268722683  0.6691360167267515
  0.5801222821523039  0.2503127351158640  0.8323009521465445
  0.5016240109442752  0.2506936013860575  0.5860520246797442
  0.4984458723138420 -0.0010900871799124  0.4993141210427270
  0.4987794358476227  0.6676249223452203  0.6676914228903919
  0.4975434399336094  0.0002113406275204  0.3301118117643666
  0.8331150772718207  0.9187582683152478  0.0839513254544692
  0.2463154645893811  0.9185716329669723  0.3326187471675121
  0.6647082729199514  0.3326874625886642  0.0012025808540200
  0.2454654281103214  0.4157328914097616 -0.0042504218500433
  0.1615941395382214  0.5002238287312981  0.1639615792646754
  0.5821265716375752  0.3332858568186469  0.4182058672582701
  0.5020942523600694  0.6623356380768816  0.4979761294675514
  0.1655540307272527  0.8334690860709112  0.1657740510704448
  0.7474743690492546  0.4982824863077028  0.4135326643069413
  0.1634261033057101  0.9183176279987373  0.0807318226260564
  0.1650486736353520  0.1661164755665544  0.3343241633513186
  0.1651471269194865  0.0867845075412771  0.4144201224504983
  0.7469760601050449  0.2487453686054399  0.1657017455487736
 -0.0021876426073802  0.2484924371435545  0.7493613070182528
  0.2504298252144269  0.9188207216668079  0.1666779606674176
  0.0801747346055080  0.8360606919646523  0.9163563299113560
  0.0806019777936567  0.8336374269925657  0.5826559504257026
  0.9145958081080757  0.8326911454425626  0.7498357409369220
  0.1609608991163734  0.9169293472614277  0.5829597716235475
 -0.0040264637807487  0.4150492183946560  0.0839349613597270
 -0.0012689699714679  0.8337812963430273  0.5012082140479943
  0.8284832743395567  0.7458901661747059  0.9174524784376238
  0.6631238000241941  0.0016893110019902  0.6671295657732593
  0.8295116170627677  0.8372624694850519  0.5014826899125095
  0.8308533492974969  0.0850324358376413  0.9167045747844386
 -0.0025282772318976  0.8313045501089270  0.6648312366289878
  0.8298980291604854  0.4997394493856648  0.6662590216515866
  0.7431654431061778  0.9249962125906096  0.8331581478424250
  0.0806233892482316  0.9182081739830850  0.8343149945150079
  0.0812976577053784  0.1660445951778177  0.0833916224712184
 -0.0070230854822774  0.6642330449724068  0.0004235667405551
  0.8262012984929443  0.4978089063401109  0.4978353271058639
  0.0765220177764791  0.9212442249933531  0.1623578170426697
  0.9110091963598916  0.5012381117883797  0.9198806502468136
 -0.0043177881479928  0.3332031007197798  0.8329438605365365
  0.9127064439215606  0.3325817219453753  0.2502496971623085
  0.8293421950016314  0.0859628161527973  0.0856845845617249
  0.7457066162283542  0.4175676759814101  0.5001529755426071
  0.3304621728089485  0.0004862061835073  0.8336096472923478
  0.9127620714174530  0.9214802010971209  0.0015613345852088
 -0.0019688830445717  0.4145774375902325  0.5821075494005512
  0.3302420945684707  0.8349890242330640  0.4983697905956234
  0.9142765537247814  0.5809941321224722  0.3311536728198853
  0.9139563935342492  0.2497344429369201  0.5007435389922701
  0.8291515828942811  0.3333978055732104  0.6656114467187919
 -0.0038478716019319  0.6658111580897000  0.1665964754868236
  0.8301047141861582  0.4160222602015566  0.0842546189454015
 -0.0041013118640162  0.1680444469097860  0.3341942595728709
  0.4153654318501843  0.4141393281774698  0.1638066630675856
 -0.0048836481214034  0.0035249553734068  0.1674664095519467
  0.8275398072337968  0.8381366633674182  0.3328336920219357
  0.8293830397359602  0.2501582131725110  0.9159437219768595
  0.1660197185457763 -0.0002044845587350  0.0019674585751812
  0.0833448991729600  0.0841545522339206  0.8335856392724129
  0.9115616536921497  0.3325786765481012  0.0835942550272933
  0.7434378476794281  0.6654481914470339  0.5872046076900691
  0.0788233517739789  0.2493532392123948  0.0011582714088806
  0.0795625828365653  0.3327109680696659  0.5836322867699641
  0.0794092046458967  0.0876420514250449  0.1668558610670047
  0.0806212059460617  0.3299224296429760  0.2499873907499297
  0.0780617196658413  0.2471068847029918  0.1642546553238407
  0.0814675581329576  0.9221441816798434  0.3380341979020938
 -0.0038450041663495  0.6657901209299872  0.6644668615850915
 -0.0062877909110137  0.1678508134430246  0.5002805732867449
 -0.0027752928086846  0.0036492854719813  0.5007551452543900
  0.8290490845066893  0.6656679592642557  0.6690481998301079
 -0.0039720492149820  0.0856855776961397  0.5842091951527246
  0.1659071617494528  0.0806255640841371  0.7522049144270486
  0.7468394533781043  0.7462867336381800  0.8348950184173486
  0.8295791382255103  0.1673174825223455  0.1677361718024573
 -0.0028254144629961  0.1677784283912823  0.0001701743133458
  0.9138610240888916  0.2503039832025973  0.3342537661351417
 -0.0041317819456772  0.1670156623132556  0.1660897436036540
  0.5811229330985141  0.5812971302712547  0.5017481719944815
  0.5003876326898516  0.4146828661649162  0.2485006626492092
  0.4123852642282601  0.1673092575420871  0.0817962372510858
  0.7457285890943086  0.9192476448349154  0.3325427544719343
  0.4144683916388273  0.1661323520261647  0.4169838499953318
  0.7471587321152282  0.9169217708344395  0.5006714026842345
  0.6640809099276926  0.0004332719263295  0.5007748401420277
  0.8293742299528538  0.8331534648648014  0.6643129627054374
  0.4977065955870237  0.1650235714917645  0.4993646106416298
  0.6649864361710933 -0.0003490585569165  0.3318937588964448
  0.1648245157452225  0.7486831751996298  0.4176745370200608
  0.2480788461349310  0.1679398900216070  0.0823528807052150
  0.7458005787701465  0.4166959052542648  0.3325762633534095
  0.0805810871788574  0.0003502531602263  0.9132056222538155
  0.6634038769500370  0.9176585720620526  0.2477761444362930
  0.5804858381141896  0.1652544411089819  0.4158594527875955
  0.1645363344802246  0.2562896745516521  0.7516595395191676
  0.1647334489865137  0.2525802902153543  0.5827509722313375
  0.2483184039985345  0.0807749237400097  0.8341052515083125
  0.7459123803634046  0.0834659203025249  0.3324561200544150
  0.1647463484834499  0.0851230923828051  0.5833891093831866
  0.8277479945758263  0.0850760929829592  0.4148441142744896
  0.9140635439300496  0.4132305000371612  0.8305298229757033
  0.9132602881205586  0.8350938771343460  0.2475864143597932
  0.6654046478573671  0.8342695961547723 -0.0000312365920588
  0.7483175022283866  0.0850395201615599  0.1655241923599720
  0.9130213384272817  0.0020568947946661  0.2514717716736076
  0.6631607967313414  0.6650179669078565  0.0016498241602508
  0.7484486849538665  0.2493825738485503 -0.0001600936383559
  0.1618839815235098  0.3265487180552789  0.1682499808861821
  0.6641375715488144  0.6675137101721048  0.1667685939571333
  0.2461586753883437  0.4988319888053013  0.9182621586497196
  0.5799923751160619  0.0012539746149399  0.0842235086765869
  0.7469858872492936  0.9177734612500799  0.1681621271514871
  0.4986408831024330  0.9203034717493812  0.9172179926039115
  0.8282349563234661  0.1660059686361846  0.6656488298161274
  0.2483783895365504  0.4121784370735049  0.1689585355845372
  0.1653087030408806  0.5817475651740501  0.4178880746347411
  0.5819953804980251  0.4991504330498890  0.0836047438932199
  0.7458939699509120  0.1674166741785290  0.4164608835943471
  0.3326496898060979  0.5819764433738227  0.2472551899145687
  0.2513685605884147  0.7509148683188136  0.3321241215643420
  0.2497965289336181  0.6671067310362830  0.9187560127222467
  0.6628538494490901  0.2512064038526407  0.5835651282905000
  0.6627739127059660  0.0834731383089873  0.9162197256343397
  0.7478599771911676  0.2489664841299027  0.8378637333114346
  0.5792243242177447  0.8323288366755855  0.0863548880092515
  0.1670134894973143  0.6651635137390727  0.0014746317128129
  0.4960793741478365  0.0006397936000618  0.1643129574431792
  0.6636229438502784  0.0831062372914000  0.2487449285114952
  0.4161601570776922  0.6642723112015979  0.4119589081047525
  0.4093465567306199  0.8336764804881038  0.5835661813793743
  0.1619447219804491  0.5856067390138955  0.7532340699007728
  0.5751854956389777  0.9166603805427020  0.6656462439979240
  0.7465647464904108  0.0022122475328258  0.7504848130648978
  0.7468290939595660  0.4163295689432114  0.1659732399475213
  0.0800428801859001  0.6660641335775093  0.5826851476356053
  0.5821598600837039  0.3322758313063822  0.0821933072475079
  0.5802541723971023  0.9177084164446337  0.3306442620723038
  0.4976895184375686  0.1679144789054899  0.3331011079969425
  0.3298503743514232 -0.0020285348101137  0.5009321512404572
  0.6659249750438500  0.2505934293306996  0.4159740790301282
  0.6621536755448807  0.0024389154952638  0.8347343363898504
  0.3317341836549323  0.5798629784666690  0.4163951613677608
  0.1634283795261496  0.2505307020828523  0.2500330764994855
  0.7451698083141576  0.2482053352145061  0.3335894013309967
  0.0803162379591815  0.6653459957111156  0.2450718981674291
  0.5813437620689974  0.4168789209176316  0.5002790580744005
  0.4140164554460176  0.3345517142888769  0.5871995053924762
  0.5803683688843415  0.1674467869654657  0.0833306980916443
  0.3302777185117232  0.0006253976813199  0.0019919502254298
  0.5795449340736675  0.9214317424939246  0.4989360641504643
  0.4141377838477708  0.5828951183697441  0.1655671041789371
  0.4146802460500092  0.5820752903512588  0.0018609558853848
  0.3316940310056274  0.1678415820784483  0.6658208652375890
  0.3299589172984094  0.5006851375073745  0.6643570521294022
  0.2488191463874952  0.6632158266489645  0.5857197107588975
  0.3318030658600578  0.7503028253586762  0.0833168821329666
  0.4166120552982466  0.4989852551182318  0.7509067524844855
  0.4147429876509984  0.1634113037828045  0.5832499423678971
  0.4152248455727303  0.4991142574464619  0.9173130255587789
  0.4135015220954237  0.1672667103262245  0.7469313496238992
  0.3319559932766155  0.5817052243692942  0.0818336977431311
  0.2478470634727025  0.5004362270647198  0.5850683863663360
  0.6636953652540677  0.3329682650387589  0.6670998493642308
  0.7504883419129879  0.9168481092735633  0.6659782790059500
  0.3327315117567970  0.3366983922867889  0.8336054586151057
  0.5824085802325450  0.8355849638772415  0.9139042466139146
  0.5792162856272891  0.0832968788995519  0.8351915004631769
  0.2471682390850041  0.1663705809419653  0.4155085831604773
  0.4119827640881938  0.0793628663820958  0.8349977893058543
  0.2497125542672174  0.7503861319269544 -0.0000369826630846
  0.5774350525067331  0.6657864569191889  0.4147792958954367
  0.4964014259666878  0.7502167553356331  0.0834003696008534
  0.4127701023016809  0.3330776522692337  0.4142410786874332
  0.6638671421455906  0.7482928764710188  0.5806644052315578
  0.2466376304990851  0.4165973251302986  0.5004546532370757
  0.3314257512045407  0.2499938758401315  0.2494283054977416
  0.6623433633204326  0.0025376034944233  0.0005029513313941
  0.6653381215593224  0.4961451060650064  0.3325878496488218
  0.4939216253145209  0.9173792559520904  0.7494869696964180
  0.7461699110741886  0.7494942042898323  0.1625275734847980
  0.3316390623477392  0.3327900732669443  0.6662787554570405
  0.4135781945962335  0.3332190452276994  0.7502953096475801
  0.6628673279129171  0.1661959465985189  0.0001423080268771
  0.4114975860907248  0.2507478650009657  0.6696275832358366
  0.7484250937901140  0.4171579632437061  0.8344118206003261
  0.3315482057716148  0.5813359258377446  0.5844566692233093
  0.3313704256994606  0.3335822208707207 -0.0001707828149754
  0.4116742744990858  0.2479259326268551  0.4965579030851693
  0.3316155629547450  0.2516914693383774  0.4166691668822616
  0.7467362035409146  0.5828159674227366  0.8341124198320273
  0.6610728155218171  0.7504717969682602  0.2487970462611512
  0.6650142311602433  0.7492850928295928  0.7554767628096334
  0.6633336833825980  0.8374628442335932  0.3311221711997532
  0.6660076528215817  0.4978768216676582  0.4984821344286330
  0.1619667949758158  0.4111203208475155  0.7532216169307103
  0.4946205160300672  0.2508161568386262  0.9173588230806000
  0.8289772589983330  0.7489116782783902  0.0843694683096676
  0.8296705538766094  0.7532587834939881  0.5846806830552694
  0.8268001578237362  0.4162840369921382  0.9170931788634833
  0.3299219071933444  0.9216041405716537  0.2499200530611372
  0.4125081373187661  0.8327422337384640  0.0842407653550441
  0.2435975551478298  0.5830404116442590  0.8369189507958190
  0.3285607448097034  0.6655506135729637  0.6659743045866617
  0.3319646402604205  0.0843969929169760  0.2479783749876303
  0.3301932761768582  0.0003448941339232  0.6675219254520484
  0.4174818390142715  0.5814388696424942  0.8372182199043686
  0.3295861391658421  0.7476786892130887  0.2504475107754737
  0.3331986231235831  0.8322308178434858  0.6656730704349747
  0.9151234565492776  0.8339529376065354  0.5839778581249292
  0.8350022102997426  0.9195946446654111  0.8342876188108282
  0.2471106353546902  0.1707401571180656  0.8357019330698634
  0.5819555874760772  0.9165711807958375  0.7528615054826808
  0.9957231867368824  0.5839846458797904  0.8387885934174438
  0.4981054547689205  0.6598867496321267  0.9174202224281778
 -0.0840089899639130  0.8377596089659943  0.3353925563251075
  0.7438999437286443  0.9175672902939956  0.0794354202376911
  0.1637428641441060  0.6665264936117727  0.9161010081580228
 -0.0867993337560178  0.8307829395513843  0.0006953894859142
  0.0024367843810200  0.7514767455989111  0.3315292047561063
  0.4088711376843566  0.9166505210611351  0.9170616144536822
  0.4159752233059311  0.5870729165985836  0.7486352449843943
  0.4985790329224417  0.2512424899604249  0.4989514364356652
  0.9941915507272200  0.6649684565653150  0.4145157204236594
  0.0846119352538463  0.7510026138034671  0.7522072635890806
  0.4125537784065219  0.6638752883661732  0.5017301976161892
  0.3308461129450426  0.5839213115517395  0.8340933158226178
 -0.0911547351706364  0.2487755337318610  0.7500946201521334
  0.5811715880595529  0.3321065612543881  0.3273116750266197
  0.2466167667949213  0.4163011441187833  0.0825410577163591
  0.8294430264377082  0.6663509253907524  0.5826271687495638
  0.5804751462522237  0.7557223095562461  0.4141837637450951
  1.0017988481665947  0.8386949967634730  0.7533800325973540
  0.0805218402000084  0.8324857895195750  0.3325694267257384
  0.5808780190535510  0.5862793217469754  0.2480361285959473
  0.1630736717474201 -0.0799339698477293  0.1673082936903051
  0.8272586967328995  0.8333924116009515  0.7521361210541231
  0.5786829987341230  0.8345502708925155 -0.0005339270814165
  0.4162873901554905  0.2486221245455996  0.5832164227504931
  0.1639674179527648  0.4977547282358595  0.2532106341090741
  0.4998032284146153  0.8334763700039148  0.5849056000994564
  0.2485500566126852  0.6613824714664562  0.3315284183814255
  0.2495884908606679  0.9194543748366238  0.5826189553299425
  0.1638953355630722  0.5805782028007690  0.3279106988442804
  0.4967835811920672  0.7529966630571712  0.4998536754612018
  0.5799976217202604  0.5782725929054939  0.4136554562647567
  0.0791928363154652  0.5815848890239890  0.4156116304802959
  0.0798208923541619  0.6659681821003394  0.0030642241652129
  0.2514501492371198  0.4165783447301986  0.7507598389473474
  0.7448392747747926  0.6661715741084737  0.4998658500922850
  0.2498797821893968  0.5841137393173559  0.7486251592595815
  0.7456683655621018  0.2486144232052670  0.7469968756920653
  0.4130734195273448  0.4175708868048438  0.2508359215143454
  0.3307899269372735  0.0017926101248620  0.4113991074140835
  0.0836338973549241  0.6651432488823068  0.6704669058178826
  0.9981490989851171  0.9187434193991197  0.6677811761126990
  0.8303098756402978  0.6637199245398339  0.2474868576854141
  0.5825677901834562  0.2494029927784575  0.9204879064155690
  0.9933670768072752  0.0852957760400334  0.8335887672454304
  0.4144027222794276  0.1685133733298722  0.8369981512893742
  0.9145929643177596  0.7521879513362236  0.4187162908289780
  0.8291850527892713  0.7486157334387622  0.4974615496472101
  0.9968214889296942  0.6663799830232424  0.7523291617364225
  0.1613816463647738  0.7532719475092815  0.0010057438659719
  0.1634373023199082  0.7503747570413959  0.3282454392048959
  0.5801852247346378  0.8313000674325827  0.5002847597214650
  0.5828470070990766  0.7470924194353908  0.9161312065137899
  0.9955092527513020  0.7542979877842365  0.0010889806854553
  0.1630370281871850  0.4987419542850594  0.7512529421582025
  0.4136175184806371  0.3334475769775099  0.5006109970838991
  0.8258521389517294  0.7485245177802370  0.3311993634751857
  0.5818736885252395  0.1692155739454282  0.6701982821062120
  0.2504560380214266  0.5017136540045459  0.1665953962102709
  0.8308014346285241  0.0008855651327059  0.5839983874006411
 -0.0883539905917178  0.5014151671298228  0.8310533975867083
  0.1642501725947575  0.1681708582647406  0.7498315880027302
  0.3307300668513385  0.2471140675062591  0.8352725212602984
  0.8296087760035961  0.8377775782297422  0.9186653362299780
  0.3295648502618675  0.0871371085375916  0.4998773038195898
  0.9164398685134795  0.4971501931033315  0.4980731645783030
  0.0840434535020118  0.1684848777690941  0.5005489590371676
  0.1615120617382278  0.4135972233166453  0.1669282582497200
  0.9144605822624532  0.4141586744901243  0.9184119888287696
  0.0798380090277006  0.9186111389527113  0.2500897762574049
  0.0792931082654918  0.0024723130129623 -0.0003224416018005
  0.9965401243073782  0.5809651703812075  0.4961094380405275
  0.4959635193387600  0.8350270326341388  0.9169722138854892
  0.7486265174521457  0.7488009130676170  0.2510317481459365
  0.2446612244080654  0.8326726663862779  0.6690907321946266
  0.6625386644950426  0.7498987175988637  0.6677589609163893
  0.7464512954446297  0.8347484241804870  0.8349505605686546
  0.8326930959137194  0.6641914654193802  0.4152162227823641
  0.3319962028385917  0.8349506064155644  0.2501073693218281
  0.3299217266574269  0.7458304599175728  0.4984568207369935
  0.6628565057744303  0.9165966821811804  0.6669518845883441
  0.4985845739227451  0.4133328250004853  0.6668989478262991
  0.4147799840369220  0.4157864103238518 -0.0000608422151986
  0.3311249575189040  0.4152390033116837  0.0821552475732809
  0.4978238460234409  0.4170050193889780  0.5833401671181405
  0.3333979587272428  0.4178440729742181  0.7504476034952393
  0.2488686696293488  0.3331909113151237  0.7507408056614184
  0.4145995819043088  0.3343676882580884  0.9169049300094885
  0.3304834847965235  0.3324656670111952  0.3326747349377358
  0.1617688455509418  0.4141830220989927  0.0817262559716302
  0.4130503756475137  0.4169368412603349  0.6675733633436919
  0.4965437085628785  0.0009148497969908  0.8336847552673021
  0.4144154006575992  0.4155638007056260  0.3339921532769304
  0.3315000350176885  0.4162863918964850  0.9170630281686570
  0.2476941090198198  0.3332894379960435  0.4162075173041356
  0.4154280345803910  0.4174471230534511  0.8343724701482562
  0.3314077706484908  0.4983530411201618 -0.0004439790980370
  0.2475909205103830  0.2494714568370603  0.3328984162176648
  0.3317456305870850  0.5827313776296824  0.7493202326286741
  0.3311309461356340  0.2514035093452608  0.9195399470455419
  0.4150249137898733  0.5002035518900558  0.5847473623083498
  0.3319010585739465  0.6662081185432107  0.0006382676621985
  0.3326404139208106  0.6640420278166784  0.3325752763803980
  0.4141040048406150  0.7496945628256048  0.1669199149562312
  0.2499959999286800  0.5799607490687030  0.3326261481556777
  0.2485806275424314  0.7496372247650751  0.1656266025876855
  0.3314353783724833  0.7494520822513722  0.4140765859315310
  0.2470863205168669  0.2506646825051979  0.4993834978990437
  0.4131485690336238  0.7500744421577155  0.3324220089754679
  0.3319147205380887  0.6661800382146866  0.1653935636100287
  0.3311145578293788  0.1633800306299489  0.8339028510019391
  0.2480415006194522  0.4976907775619527  0.4169809960286349
  0.3304977344002210  0.8332840072597613  0.1659724633652592
  0.4143731567073973  0.4990124301677978  0.0827383302257006
  0.4974597302089109  0.3321474487917495  0.1649687837035414
  0.4139002626407051  0.5809624284413816  0.3312802662966708
  0.4146766886409752  0.6645311202069246  0.5859398406188991
  0.3308051500354798  0.5816902013085589  0.9194355632841937
  0.4127784041813137  0.7483267693679777  0.6662134832476753
  0.4137565115654576  0.3330574725950158  0.0829578172329079
  0.4137103050804305  0.6667505299153628  0.0837275310482250
  0.3309342420041627  0.6675406226868559  0.8352219527227257
  0.4122371560270985  0.8329234774576428  0.9161442583115869
  0.3313011806016947  0.8333110969475759  0.0004441735847633
  0.3305758602608503  0.9171333521287419  0.0838430792234212
  0.4966445323430669  0.9167973519687518  0.0837484566596163
  0.4139234206390375  0.9174274239898635  0.0025881651985151
  0.4141131007989732  0.2508207415729269  0.0006242136902531
  0.4135843482706917  0.1661704973013507  0.9194371730816908
  0.4141732704117716  0.8340816305415597  0.2499990587215941
  0.4131462025105105  0.9177462657674835  0.1661675089953172
  0.3302874151476259  0.8347633307961720  0.3339575234900854
  0.4136242281146416  0.0002673909272354  0.5834113155285534
  0.4989796949140793  0.4992137374049145  0.8341684342880985
  0.4140509140591850  0.2495341373642152  0.3334165564593600
  0.4132588011439415  0.7494878624237844  0.4992192574500592
  0.3299835024999604  0.4989348530232477  0.5001396604707405
  0.4148804410954285  0.5809002855670018  0.4995387268604214
  0.3289237679135413  0.1680859049295053  0.5001013465186498
  0.3313430360314787  0.4990862471845045  0.8356694263330793
  0.1649444699639413  0.9174355617452502  0.9167388552767330
  0.3319943032239104  0.9170393215387367  0.5830287318845656
  0.5795810698747020  0.1660185018715448  0.9169930162558581
  0.3301746820589981  0.0823744064881323  0.9191569835733774
  0.4137554104685523  0.0831353304932977  0.0016948088465503
  0.5810109568073143  0.3324438895743023  0.2463734294103186
  0.6634007247102468  0.5811829440915559  0.5843357217023420
  0.4962306212635786  0.3327090206683188  0.3326999346732191
  0.3309570356348769  0.0842531462161384  0.0836659752410882
  0.4986283219311442  0.3351301162816948  0.4993432448313703
  0.4136538213109202  0.1673643622561609  0.2496479310807115
  0.4139841435051971  0.2494822068471681  0.1659149747678043
  0.3305457200171318  0.7494729336525815  0.7501923540759780
  0.4148789096909826  0.6686488377885285  0.7503169842253408
  0.4961067855619702  0.8349531561465124  0.3318394923957606
  0.3334056611388558  0.4986229213788845  0.1654943538803381
  0.5805052084917469  0.0820305242770233  0.4993785940310128
  0.3279710712968579  0.9179816167304834  0.9177249810711177
  0.4963708518069936  0.0832313883573128  0.9175298908268045
  0.4125834452038423  0.0011221255025789  0.9180504270770578
  0.5791888149098717  0.9172913998628319  0.1658244907152744
  0.4966675716904460  0.0843967133957624  0.0832320075986627
  0.4971250331024351  0.7473344791347841  0.5847951611074471
  0.5790455528583935  0.0839733528913379  0.0008424342800457
  0.3304899190614579  0.7481589988823186  0.5839549090914562
  0.4153044924425255  0.0825310209223613  0.4992829075953303
  0.4131567490693288  0.8330204158044954  0.7497757712058135
  0.4974722340358320  0.0841126403377402  0.2488988931036293
  0.3299673879882497  0.8331945662813857  0.8336991419582088
  0.4967761658379281  0.1675351949854036  0.1657116153616937
  0.4136129667449437  0.7498108501719539  0.0012503683043947
  0.2455699508411828  0.0840764194883419  0.5007361777038812
  0.4969693719849310  0.0006283699763004  0.0025453149188182
  0.3303968060442188  0.2505975013364703  0.0829165065039442
  0.4131741809858913  0.0003797253950183  0.7498772752594826
  0.7458519187095299  0.4988230228559887  0.5842925343151358
  0.5812849173814845  0.2521205462709653  0.6682757087911495
  0.3308538746372474  0.9172346372433592  0.7499666197425687
  0.4977066536896492  0.1669717909392971  0.8338315232675270
  0.5792467590953846  0.0006193689953529  0.9180603215406735
  0.4954863057741635  0.9189650659593198  0.5832688781689090
  0.5801252862273514  0.0012297355130219  0.2477361522276037
  0.4977773026440932  0.0826003047019978  0.4154863002330651
  0.5794718738374265  0.0844141999786182  0.1655379983443157
  0.5797957745512552  0.0824691005500775  0.3319824512972731
  0.4143982850284649  0.9184608983090395  0.3317066357397596
  0.5793669685986531  0.0000947096676955  0.5840251540301148
  0.3305664137389041  0.9170754636070770  0.4151227801253001
  0.4144594098324745  0.0018432959625391  0.2485717278280900
  0.5820336870238271  0.3340570014538039  0.5836628542700123
  0.5798749432944948  0.1663116074348942  0.7532822052637821
  0.6634205032893705  0.9188531968153822  0.4153254328350293
  0.2483418003999784  0.1665971473084388  0.7487694939137332
  0.4971265565150073  0.2497280019583293  0.0827745408172155
  0.4138791702830346  0.4998061320577372  0.2483466977923670
  0.3313380737826277  0.0858153910269858  0.4153933043344060
  0.5831518216707540  0.2504752582576045  0.4986489181412048
  0.3305421497129498  0.0019851944451370  0.3298852648760359
  0.4973885574107841  0.2507959974992950  0.7511492330754226
  0.4955653317362830  0.0829007898890939  0.7508157282942225
  0.1633358184725912  0.1675383970250725  0.8341182223776471
  0.4143271964587091  0.0850340534495807  0.1656107027992523
  0.4968011571530512  0.2501408884795087  0.2489049943967911
 -0.0035475109606005  0.3328238607713667  0.6671419243503007
  0.5800291017269160  0.2490888165600599  0.1651608354157134
  0.9129871706154911  0.2495670252670980 -0.0000809411913919
  0.4981978991187467  0.2503537092859910  0.4145879229745624
  0.1632153212723159  0.4158239993551930  0.5829540464383640
  0.6645925426253733  0.2492697703126398  0.2489054592576308
  0.0807372058446742  0.1679378394820189  0.9166524317889087
  0.4158130127106077  0.0003225529085556  0.4151141218815159
  0.4972291381838636  0.0827885508847418  0.5827986638836267
 -0.0023218060581670  0.0852278061985405  0.7481070823977691
  0.4137386200743129  0.4986455466263934  0.4160686753270407
  0.4979640267692222  0.4163696049150554  0.4161431974708216
  0.3292174719749207  0.2506688019295618  0.7504927299618079
  0.2480334695894038  0.8335286429558004  0.9168803856655158
  0.4133493782159944  0.6659852585936500  0.2493017686077498
  0.4967669130350217  0.1671468264187120  0.0010688190480810
  0.3303646650752339  0.0823316657110923  0.7492539138916676
  0.3313233405146978  0.0019406687533673  0.1662815864325634
  0.3291215772428169  0.3352067669523420  0.5008962961170291
  0.6639533181307595  0.2495014115073096  0.0833186406959063
  0.4148954475701250  0.5835693804567711  0.6664899762137392