Cr H  Ni
 1.0000000000000000
    21.1200000000000010    0.0000000000000000    0.0000000000000000
     0.0000000000000000   21.1200000000000010    0.0000000000000000
     0.0000000000000000    0.0000000000000000   21.1200000000000010
 Cr  H   Ni 
 259  86 605
Direct
  0.5798033985384436  0.1671394392542674  0.7510067567032452
  0.4972604345757968  0.5797940948240449  0.0833472764542589
  0.5836765616506497  0.4169413243812011  0.8303195133671929
  0.1668004990933366  0.7529933720100076  0.7537811221002567
  0.0818418672773079 -0.0004771190206089  0.7501849249941128
  0.4135104851342548  0.3300889370552141  0.2496156002354641
  0.3318988402532543  0.0000818777423222 -0.0005424035800572
  0.8331645252888878  0.0818128899431740  0.7499571229333364
  0.8301272725368900  0.0832159323874070  0.5827619791933615
  0.0815759049974183  0.3338458881040044  0.4129967617928773
 -0.0021718132233735  0.4208749208332283  0.2524173794533546
  0.1654490000709879  0.4170113071682776  0.5766111300999162
  0.1665124332133252  0.3330974831594132  0.3318927248706082
  0.0811333918957192  0.3337316643975891  0.7502102782570140
 -0.0021277911653982  0.4157718827423744  0.7496775207451558
 -0.0002554339516757  0.4176744926499005  0.9181692552855452
  0.0801355119483380  0.5860063013406559  0.1707960121304935
  0.0808927056815566  0.5831365282195765 -0.0036535874623420
 -0.0027501033224553  0.4994414691354754  0.3345222729689585
  0.1645996305529815  0.3333175077974016 -0.0020098877819695
  0.9134151138418409 -0.0000463769802996  0.5777693045566568
  0.0802557986448252  0.4995888293312512  0.4164030582412767
  0.0810373784660380  0.5022753266045765  0.9177055122014875
 -0.0032350541357907  0.4982878011241623  0.6659752974548592
  0.9156306116929208  0.7513165916132705  0.3333431571691098
  0.0800572576758624  0.6660802577810877  0.4165864240761646
  0.0001314242562049  0.6673742634639169  0.6668082214418428
 -0.0027680079364245  0.7467999121857147  0.5837093436026606
 -0.0051400055271350  0.5813771234034433  0.4149465538755263
 -0.0020144039097408  0.6668233037914244  0.8295376306470567
  0.5815885243195001  0.4998474858689265  0.5839774182992332
  0.4964404484777815  0.4149642077782528  0.5840390600273441
  0.2480530924577697  0.8320751015317328  0.9174440872058758
  0.4995515160413272  0.5833456611231164  0.5842442320537553
  0.2493737353265538  0.8335744596304158  0.5847642094099427
  0.4976412741331771  0.2501309058981461  0.5829072575489448
  0.5785801313664440  0.1659783672571278  0.5846477454786718
  0.4974072296310686 -0.0005791945038264  0.3340323879669410
  0.4992195018642492  0.1627768866446005  0.8327673784038677
  0.4976947637099063  0.3330621370682315  0.0008436353649527
  0.5776862123787138  0.3308235387903557  0.0838016811529759
  0.5826819980773835  0.3332634165978577  0.4118952619926982
  0.5814949706575246  0.4162278039376144  0.3333442175826039
  0.5800277304922786  0.5007529580878834  0.7502386510843623
  0.5805496300478642  0.5806351706631518  0.3320958829751376
  0.5841362550912570  0.5028949185283809  0.9151541664099163
  0.4977021195790591  0.1663713713395473  0.6681388358715854
  0.5800616152807017  0.5824865948840080  0.8311808574390691
  0.5820168219881813  0.2486831342233570  0.8333315584076818
  0.4957850976296061  0.7537581460606654  0.0813182628308897
  0.3308842683073202  0.0019229981767442  0.4989531498164099
  0.4982157337553386  0.6663765383430391  0.1683713495257111
 -0.0007159221328076  0.7525666999939233  0.9144345446251433
  0.1667157125389239  0.8318897044400909  0.3337042497613856
  0.4987251834616224  0.6656999258292077  0.3333360793479355
  0.0774545968354125  0.3307085049466228  0.0830080603810346
  0.2453339802231716  0.7519377381487170  0.3324147742945155
  0.6653530681232577  0.5809597584379522  0.4188036356333709
  0.4987333169048113  0.7522125585752100  0.4174141285744867
  0.1682442256868786  0.8314002112414492  0.1667319204131158
  0.4971690309394101  0.7518551285128047  0.9147156299536945
  0.6620056911273401  0.6668004575679395  0.5011869111696201
  0.2476655653690444  0.8337509201387487  0.0831946630181979
  0.1654360751157899  0.9157751887110825  0.4155709712137453
  0.5769008732956886  0.7508568900772173  0.1666454500846153
  0.0774845440867349  0.0007349596690047  0.4162529173860130
  0.4139964624094393  0.4178728870526240  0.1647424541756494
 -0.0020097571782991  0.0837655260581314  0.5815564897071611
  0.8327934923320236  0.1646724251331667  0.8351089911155534
 -0.0035618105654461  0.3358576719569369  0.0001738989696762
  0.8314762093175240  0.3334351119218982  0.0005059481753116
 -0.0040135462643650  0.1652415066978219  0.1693214269604516
  0.1663123082813390  0.9163958740520437  0.5829371009096551
 -0.0026693880750378  0.2508114814297140  0.5816392720080354
  0.0817048151265261  0.1680335001185820  0.4157583471630613
  0.9120938384037227  0.7510646432304291  0.0023851107607369
  0.0822592474529278  0.1678420723181572  0.0825813791675797
 -0.0007547881103337  0.2553315343174281  0.7495389972562007
 -0.0024343838494058  0.1661777436078215  0.8355378044608547
 -0.0030288061660863  0.0823943558699855  0.4188253517261368
 -0.0029494900060634  0.8346197404879783 -0.0002096798938794
  0.8316119326867868  0.4168142357313542  0.2507726659904438
  0.9155704570597591 -0.0002607964008989  0.9192790448052592
  0.9147034114806045  0.0855859221596575  0.8333380121950298
  0.2472322717773283  0.0817117273911051  0.8368234160993304
  0.8302192465800937  0.1659082528284215  0.0016594306242117
  0.9150420190982796  0.2453481854606632  0.1655854588742356
  0.8308688197498053  0.3328880179050766  0.4996890352291091
  0.8308430251002913  0.5017245767525293  0.0003375595194718
 -0.0027745626817638  0.8321511008496142  0.1656328037220140
  0.9145703207813954  0.5848541733002135  0.3355484945282898
  0.8284369904862153  0.5846344375591400  0.0832394725223269
  0.1630109819786549  0.1660759092199508  0.0036237079907390
  0.9149254337586575  0.3311666993546051  0.9189813591341282
  0.8294085308703374  0.0017044029350965  0.8326692035187511
  0.1654703807155883  0.0007137627390210  0.3304091558243716
  0.2528413295447382  0.0003026830867157  0.4159837981536531
  0.0861334713907819  0.8327616634108882  0.5830915097338371
  0.9117131466628164  0.9170938989907749  0.4996455164582968
 -0.0012507914353131  0.7494059240915069  0.7501720828870190
 -0.0018189921721018  0.0821686024188090  0.7492042940368254
  0.8279815111843192  0.8329681124321772  0.4987532108484491
  0.8283768959501647  0.5827502286638852  0.7503707222491671
 -0.0031823719691493  0.0824942751825444  0.9144996058311261
  0.9136604216153085  0.4159691414532699  0.5012944325739477
  0.9117280009974706  0.5834810137669229 -0.0017003161665267
  0.0808694678992119  0.0812302292855191  0.1670525090485213
  0.8291818641747541  0.7488668798059896  0.5820870702654389
  0.9126339905465144  0.2484613046808105  0.3349432083346757
 -0.0032111818362690 -0.0015824174217715  0.3347621465786504
  0.8335263789262948  0.5826118364715946  0.2501689397731889
  0.8296478765636485  0.1667806378662593  0.4986764813307684
 -0.0019451396700830  0.0008501892098481  0.5001229845256744
  0.9149321382637593  0.3333927425865143  0.0810276467018975
 -0.0031932401695485  0.0836274530880045  0.2466053570873442
  0.0802437241155301  0.0797960256791471  0.6646626651058863
  0.0808642540660330  0.0009773921940228  0.9154413772864298
  0.9127951550047433  0.4199539334824006  0.1687734005742299
 -0.0031218635277057  0.2484669875904940  0.0851621521639850
  0.1652859175879146 -0.0001247156485498 -0.0000564929843961
  0.9157326773519682  0.0856048487038351  0.6638460510016944
  0.0820480842371678  0.2496889652015429  0.1674096422870696
  0.9150301935299276  0.4145684508992880  0.6655892639498245
  0.9155985372504372  0.9148183444863737  0.6661017239255750
  0.0822226601438935  0.2500991300541446  0.3340987807619592
  0.8314739099649052  0.3342341046351061  0.6658444985638258
  0.8303334002234277  0.9176953437412483  0.7489168588477227
 -0.0018779531224159  0.6669029114695159  0.1678283770611418
  0.5791370767968209  0.5827248941443587  0.5055773066430598
  0.4980571091824674  0.5835776572160537  0.7508503786177954
  0.4949290559187686  0.1660848757491870  0.1664231193070090
  0.6644005125770970  0.8334489403641294  0.5007724049682356
  0.2529376648295089  0.0828195005953927  0.4987874426247467
  0.7468247901876359  0.8351582393621254  0.7499418868775072
  0.9136686226229007 -0.0009188742942359  0.0843167172165130
  0.9147510199654354 -0.0012292677719913  0.2504025700402379
  0.8318501920699632  0.0010182091562785  0.3337893153639899
  0.2486861936299347  0.2492028549544894  0.1676648942269202
  0.1681044379553638  0.2490049415224935  0.2498678242909889
  0.2511924966936579  0.1654252238586132  0.9140032532932121
  0.6641729418064061  0.0001246607080836  0.0013267832041806
  0.7465789678634023  0.7545839248744519  0.8315915053274127
  0.2449429808066652  0.7521422789936478  0.1667645029820102
  0.1660046634631756  0.1704734908637618  0.4991423731275437
  0.6643856753111748  0.0022513154661539  0.3313938525646111
  0.9147409217301132  0.0832749877696539  0.1668389982696070
  0.6623276257481417  0.0842313898514450  0.5841242638246192
  0.8297376701025699  0.0847361640968876  0.4175361844717069
  0.2499672361119041  0.7470124564084516  0.4991944113910102
  0.6625881999605185  0.8347761825957239 -0.0026149833210595
  0.6626243921085502  0.0005714091301975  0.1661478157032781
  0.7455793744774482  0.4164461491727827  0.3331574160656549
  0.6651557530820402  0.7503842107674976  0.9145881515720596
  0.6633106846187725  0.0835126296951167  0.2487856742392011
  0.6635971325730046  0.9181137506101321  0.2483420621102475
  0.7478362513660621  0.8335348344484217  0.0850207502815933
  0.2482120182788813  0.5038371333406964  0.9190901567796375
  0.2478644418393623  0.1641920855950999  0.7518980883210672
  0.7474268936621455  0.9153280601568140  0.1666604228176091
  0.1646197315214571  0.7494046224610486  0.2503554721565917
  0.1685567987011741  0.1638771328654528  0.6658674313095939
  0.7436253551918236  0.9187015574616577  0.3312781470134298
  0.4956925448821176  0.9187223132357664  0.9152193179079103
  0.7488856125424477  0.4175254221329496  0.1672509515952759
  0.6651872790680402  0.2489695778387762  0.9165430696085157
  0.2478946452701846  0.5834556521581883 -0.0007739018978437
  0.6639419197986709  0.1657732430338333  0.3319563685037165
  0.6635938820945007  0.2468980242492343  0.2498969894298402
  0.6651107878148813  0.2503525095367110  0.4144752960986710
  0.1645174037556523  0.5843096320828902  0.5805217941256980
  0.2477345315017496  0.4997271742635246  0.4171906561371702
  0.7462704034582101  0.1659496640140546  0.4170655698227644
  0.7473363166449563  0.2483602703138426  0.3335434236882953
  0.2526340931527022  0.5848605711585330  0.3359615237702841
  0.6618032533817604  0.1670091763461223  0.6660278620587854
  0.6634017252807717  0.2485251616849623  0.5851231085383127
  0.2501742992165368  0.4178508301452424  0.1672452629506218
  0.6621758478115932  0.1643473005686636  0.8319886413378667
  0.6666275945018098  0.4167825009320454  0.0839497798909677
  0.2477733150531718  0.5829471062130784  0.1670311527446566
  0.5797564344438311  0.8345202114252479  0.7485885126205587
  0.0813139626177154  0.5828376401385829  0.8324662055248299
  0.6653263379747278  0.3322423330782820  0.1712115212668326
  0.6648038555282133  0.0839419207042956  0.9181514802473916
  0.2502029388675469  0.4982405623400344  0.7501054445995832
  0.5807805573599661  0.8384041826440514  0.0821000448972876
  0.7489342275855803 -0.0023268346645914  0.7511819980553717
  0.5809256037131900  0.9177965170511416  0.1674670885554361
  0.1652171283275196  0.7509857730169643  0.5777841067069929
  0.2489827893200111  0.6662063218124384  0.4167559530088225
  0.5807674792692211  0.9197191741558420  0.3327304791047784
  0.4972245104207069  0.8328848843139688  0.6666969418233971
  0.5800915693107719  0.8344661164891337  0.5852005486317663
  0.5790498160238475  0.9164024217123231  0.6667385896893167
  0.6650599383219389  0.4167729766149770  0.4152843431441770
  0.5837746888178467  0.1676587663608189  0.4149489664888747
  0.4148242046595605  0.5026012272526971  0.2483893846314421
  0.4200861020014907  0.7480799339707673  0.1620259373005469
  0.7469228729779271  0.6693361205322166  0.2487854200320101
  0.2462226949185349  0.3340149967702515  0.4158322519705538
  0.4136122662268512  0.5835979628114506  0.8323543668272861
  0.6636902187735673  0.4995230133143293  0.5001615833086759
  0.6610027783181567  0.6650436016261612  0.3372212207996836
  0.3351092357176471  0.4148913634875189  0.5862614631896900
  0.7511008467556279  0.6675319949480734  0.0834143140614126
  0.7464087684277080  0.7526448608820422  0.5020762523033372
  0.5801461916067779 -0.0005372026589209  0.5819061269912769
  0.7414344811570188  0.7520682365742730  0.3359176959091782
  0.5797470484823470  0.0001187157389352  0.0838334537882608
  0.4966875356141479 -0.0001011582191662  0.8374790286469677
  0.6639232144224269  0.5007455128018909  0.3350140675157917
  0.3315882352132423  0.0833628528188918  0.9164599638880686
  0.4152358481608611  0.7515026871181768  0.0002698596576037
  0.4152511741382280  0.5853836279008277  0.0015061425305259
  0.3334529079167809  0.0830526860917637  0.7505036630881189
  0.4165616151327006  0.3333159898981390  0.4151023650429820
  0.3283813052060889  0.5823655770545810  0.4142332392785167
  0.7486649759975355  0.5795217424504626  0.8313009320572038
  0.4148195889029015  0.3345059606192806  0.0829090292431951
  0.4144795321572695  0.1677340913751715  0.5828400863427287
  0.6623047687026639  0.7507101464216545  0.4186083039668201
  0.3279228480878706  0.4185103136819871  0.7512456711218357
  0.3309498382100690  0.5001614871435207  0.1662938417632840
  0.1660823294001177  0.4162838328254445  0.7538990512251114
  0.5799946933935970  0.1652359118917250  0.0840070751928007
  0.4961765425955222  0.0034321762025807  0.4988008918251391
  0.2458104800529945  0.4175322758897348  0.4988173914149225
  0.1616826907267329  0.4162628526785917  0.9189009420201089
  0.4127642260954149  0.0005598343853827  0.9168955083128151
  0.7488456272235399  0.4166564536566538  0.8337658194612564
  0.5817439965906496  0.0836550755635466  0.8343197086577243
  0.3310063552943124  0.5009774031972345  0.6646705031423604
  0.4119313126176109  0.6653344360007015  0.0807288510802398
  0.4141170693224376  0.5035318434080784  0.7504921711094010
  0.3300744257557572  0.4194136957038098  0.4122352197557215
  0.4107013554111578  0.2503657248448976  0.8350691734389953
  0.4151536684873357  0.3305806896847248  0.5811390542407706
  0.3335393905231195  0.2489586543486768  0.5825586999190471
  0.7492463109140813  0.3332588923544694  0.7488734352187996
  0.4144130546243385  0.4193995038433042  0.6641390657272004
  0.5799144475536272  0.7512757666847417  0.8333720007510050
  0.4101130454945043  0.0014194162247010  0.7516439081618759
  0.4129324599177103  0.2469188765900421  0.6669686050103514
  0.2469095591459557  0.3388147290212256  0.7509306726790508
  0.3322972824539135  0.5854100020424491  0.5835618703354075
  0.7476362864546579  0.4997285776076238  0.9164556686791094
  0.6652814269535287  0.3349711385421355 -0.0021167341266037
  0.7473265928908278  0.7498188707414045  0.6664607204899012
  0.3308895819986586  0.2500198913380179  0.0844761625711988
  0.9140292765162595 -0.0004278959675162  0.4180349704681978
  0.3313263666334204  0.8362498590097797  0.1652294842341431
  0.3316992188700008  0.6670791082009316  0.8346054832088230
  0.3321800489748617  0.8328293397729536  0.6662767214782560
  0.4147721167389083  0.1655693868312353  0.2493125802190420
  0.3316886252750883  0.6658041103432103  0.6657323382072157
  0.2492507003620946  0.5840373619712973  0.8342077964143700
  0.4982071617042928  0.9171985917882499  0.0833097683220735
  0.3320844695712400  0.9176315262296246  0.2507451184019479
  0.4134076843734075  0.9161436986992775  0.6639612416753927
  0.0804022424278930  0.3329525655736362  0.5029996075832466
  0.3326445176907946  0.4168184666739528  0.4986926623094637
  0.6686494978939854  0.2521127406284969  0.8297815346030961
  0.5816561199438625  0.4206361253741998  0.0846091635314764
  0.0856076687955342  0.4997067000258756  0.6653585516253094
  0.4150711884962208  0.4165940189647063  0.2516465523341054
  0.9971512216716462  0.3302741371740554  0.2528631297914321
  0.1648625815930757  0.2535503083821293  0.6661348127335447
  0.9974404124026808  0.6645752906659596  0.9182849046744150
  0.7484389451434386  0.6625585102061441  0.5015552611266945
  0.2521579937319580  0.1670161688308110  0.0032999515496567
  0.8322105976012056  0.5816557073780722  0.5012356304308768
  0.2479151853304923  0.2513766684966769  0.7507284460906897
  0.6597216071973722  0.6677877275366555  0.2480398939816107
  0.4931454905142050  0.4156710403649221  0.8348517846417717
  0.9124976503522718  0.3327977308554371  0.1681173832273450
  0.7509399983861720  0.0040281801346708  0.1655912028890280
  0.8350803203059380  0.6715947188390066  0.2498648650522781
  0.5827572731280457  0.7507325158715291  0.0794542310471769
  0.0819200383184946  0.4208569844778780  0.0853646182682206
  0.4129179243096989  0.9123428485682176  0.7527398051113914
  0.7484452029169029  0.6651044800696014  0.3351777799301537
  0.9153893425496813  0.5005559163713915  0.8323616537677325
  0.8301048365297509  0.8365450817123804  0.5865653547276435
  0.1624556340220083  0.5839391650711322  0.3325233163394372
  1.0040130397850160  0.7509323591214415  0.3337989481248328
  0.4150182418685880  0.7506829999471487  0.2530635563490244
  0.0838459047990308 -0.0072178313695372  0.1660365764032382
  0.2505966358140227  0.8351304902053557  0.4975110902693066
  0.1660573188282441  0.6632165390633203  0.7507749687470406
  0.9965671941599880  0.2476317680942226 -0.0029267570736412
  0.7482115378961309  0.5803885779331722  0.5851449977569029
  0.9147295771733059  0.0004506871955901  0.6636849626382604
  0.4153747250687249  0.3330830028101563  0.6683596768671820
  0.5818803236564130  0.3329066227299141  0.5027260982920307
  0.1625284553575278  0.1666203076889638  0.9142893830579486
  0.9120478581346037  0.4192907154139213  0.9162550801237186
  0.7447202082718198  0.0863209344387961  0.7494882238375750
  0.4153238685697925  0.4157027048238185  0.7518229805023308
  0.3281069308859971  0.3293814816483964  0.4149903713088881
  0.0801459076651452  0.1693292606860161  0.6656773665322328
  0.7447027911628887  0.5813339826622708  0.2494373201200719
  0.7510746279713173  0.8348531271293104 -0.0032980952352785
  0.4933784215456210  0.4993583609247706  0.9184823764471499
  0.9980779776240329  0.0812914155079396  0.0036570725427507
  0.7478747723244338  0.6670553891779484  0.8327263291204913
  0.4173033812245854  0.5835917656013615  0.4165022636754926
  0.2458501159628150  0.0781419525116591  0.7483526101487791
  0.6647134572426884  0.2463401886893353  0.0043312330992965
  0.4967115298778507  0.2501077145540241  0.8351524955595849
  0.4977320132776240  0.6667241017173616  0.0812459279000454
  0.0823040189594700  0.9115687324425009  0.9167408420028111
  0.5826337399174742  0.6647063375969887 -0.0026710814580752
 -0.0899488940214038  0.6676171167708466  0.6657673011998272
  0.0828436712241906  0.1653698069098045  0.1687603933789889
  0.4965282270675378  0.9136847943364999  0.4991733785127977
  0.9161094122250139  0.5839759972334241  0.0863245937536882
  0.5794224793200685  0.4137952400165053  0.9195560497545937
  0.5791460878063625  0.5823424850733570  0.4182236891271417
  0.9984902345130455  0.1659023287966431  0.7476664576328400
  0.3323713333331203  0.7488631977554737  0.1656097910481762
  0.9999732569203995  0.7473756201286921  0.0017864715578209
  0.9083838040863023  0.5028187249835322  0.6663521228474989
  0.6655795654282525  0.3325462042919112  0.0841936154404088
  1.0008359118111936  0.9125316490271840  0.4984012337378899
  0.1668350372901880  0.3361217920643730  0.0865478589224253
  0.0811561507883546  0.9153571171012627  0.2500231615167413
  0.0815895658703740  0.5848302090555915  0.0837222550695105
  0.9107286966935283  0.7511931176647323  0.9130120892817566
  0.9976954033552515  0.0853610595380045  0.3331591627465417
  0.8315812169806582  0.9133788591945736  0.8381239531914157
  0.0826618757333773  0.3386562581981841  0.1703359873281532
  0.8282732986797081  0.7519779578004313  0.3338512307296880
  0.3353272372932779  0.7512776513256226  0.3343212706798823
  0.1655383223349221 -0.0005784372397056  0.4172343387315103
  0.4995192165972598 -0.0007277672251351  0.7478395845771030
  0.9165671592431666 -0.0017757489471637  0.8323271054764306
  0.9968968478517163  0.8346138664660457  0.5837338786945091
  0.2512565088092796  0.4140220964542041  0.9186411789295034
  0.1648952100758002  0.5832232101050298  0.6708923282238817
  0.1641757086420805  0.0818929488690814  0.5004789188103163
  0.8315706661046891  0.1702590279644811  0.7461646461270057
  0.1663311895737324  0.7494447268970796  0.6654529790188112
  0.6621114241386120  0.6643679916308756  0.0818905403287276
  0.3303826422766532  0.0815669727590872  0.1670038743724702
  0.1648452656286220  0.4163305309040272  0.6661449987018447
  0.4138348770607954  0.3322600974443640  0.9184927430959491
  0.3311961868053372  0.3324230937043934  0.3313031604412447
  0.4151738619703316  0.4158879228176786  0.3340957429215111
  0.3323097000806167  0.3319473078584754  0.4992326968115172
  0.4144316049396556  0.4162467106712219  0.0016784076193169
  0.3305929316573585  0.4170477199365915  0.0834463404643833
  0.4162505930344848  0.4161888441506843  0.4996305840793463
  0.3309614516333111  0.5017118872533205  0.0012935920594175
  0.3320126121038362  0.3326562748445838  0.0014473908498187
  0.4126057482316282  0.3316681100033093  0.7523420734887860
  0.3294945757102539  0.3340074966097210  0.6674885218491495
  0.4146887025467317  0.1661130518724690  0.9170812124142071
  0.3296767384616331  0.3336423728160595  0.8348596798626052
  0.3327197895791579  0.4176965084859309  0.9188609774449685
  0.4104619574624964  0.4173110130382015  0.8355030996696785
  0.3319855559555815  0.8351079670697426  0.3328036441786352
  0.3323416893381585  0.1664734843880784  0.8335178188333487
  0.3316921003855398  0.2491690235813659  0.9175133562675248
  0.3311606356209190  0.5836963441859950  0.7495432063802788
  0.3305987505879567  0.9165601278061002  0.0829993233921783
  0.3319075550197157  0.9171379261706688  0.4160684679707589
  0.4146223882675835  0.8346964560813344  0.0827546482994453
  0.4116114019256579  0.5018311462668474  0.9179700865154906
  0.4140239305129745  0.9166632466340237 -0.0005500501373445
  0.4152348902676801  0.2492929233073919  0.3325401994755144
  0.4144786506869503  0.2495804716952697  0.0013499109070229
  0.3305415810790029  0.6669111827486371 -0.0007086508448794
  0.3331111505690768  0.1659334330467955  0.0001518582267608
  0.4133926970157177  0.5006595285249462  0.0833018405852826
  0.3314012440730394  0.7497399034288629  0.0813370954312849
  0.4151796041729163  0.8356284922700776  0.2495250089808427
  0.4162646430347613  0.5012618135635893  0.5829162791864027
  0.4153366800861364  0.1662570112266161  0.4152599470805238
  0.4143210470714732  0.9177805456308340  0.1663607137855070
  0.3327523253988134  0.2474556201175460  0.4151822848642762
  0.4153059624022095  0.7498003505470340  0.4997798965924719
  0.4146902050724230  0.0827496978056450  0.0009430616295520
  0.4143337641562597 -0.0009735793877030  0.0825239959797437
  0.4967133285020399  0.3327385404045440  0.1665420064867821
  0.5819019611616517  0.3331056368564881  0.2496795498276358
  0.4972520027739397  0.3322789617594911  0.3324764064999785
  0.3310878558607631  0.0823775542597724  0.0818015683824244
  0.4971180980684320  0.3328262868134734  0.4980944840867569
  0.3323132374680806  0.0825499832032575  0.2514227924220598
  0.3313788797561311  0.2497187998309834  0.2489765953528284
  0.3313102407194765  0.7495691260679342  0.7498116902555271
  0.4141331770298663  0.6668081695455496  0.7502171691139451
  0.4138079619209545  0.7493805196894031  0.6667863122727560
  0.3322797438558543  0.1676812083436891  0.1673460653416702
  0.3310939326582070  0.7500136579770426  0.9177259601377734
  0.4143842588215054  0.6672336868140764  0.9171826620798423
  0.4142235978329359  0.7504112479028684  0.8340422763173326
  0.3309859186587112  0.8336329873533400 -0.0000073006205121
  0.3315289660993710  0.5847158254496688  0.9175858377410809
  0.3312247879979188  0.5841985264869013  0.2493297480216661
  0.4145489927882817  0.5832328132845702  0.1656497236132138
  0.3317600473477161  0.2493157773971960  0.7512719122245758
  0.4152350152632016  0.5832809121121574  0.3320297051292325
  0.3307686573471664  0.1659030771664041  0.6676724326280427
  0.4158856414454983  0.2491017779605864  0.4989925815248901
  0.4151441006142914  0.5838546795626040  0.6668347146192157
  0.3299788680705895  0.5836435915740361  0.0827123603912936
  0.4144132609414611  0.1658914738390963  0.7509125823464553
  0.3319366290815216  0.4998455070746847  0.3309399870499948
  0.4141678307766079  0.4986347195407934  0.4160367820633745
  0.3325627615263327  0.5015605187250410  0.5010862828609608
  0.4158728142625810  0.5834628230988840  0.5022409839412064
  0.3322068327638547  0.1670738910762853  0.4986787278608958
  0.3303223083778866  0.5021161664371994  0.8345666351697237
  0.1666799580359975  0.9165181415397330  0.9179669464087600
  0.3317555374818379  0.9167327509543703  0.5826286739258639
  0.5799781048281142  0.1660072507557984  0.9172984719879402
  0.4158088959184554  0.8338118431173714  0.4165753704478413
  0.3305206292322939  0.6648336895418443  0.1658435753159230
  0.5805449985725885  0.3327123817775446  0.5852355387928697
  0.4121711042375817  0.9165356349092399  0.8356405827602824
  0.3301334413747885  0.8326497266496911  0.8351426246343326
  0.4976127838146376  0.0829936250541873  0.0834504106598180
  0.4144349630943441  0.8335923092306655  0.9165499057800179
  0.5802193557923753  0.0827144172174245  0.0002222984840927
  0.4967490871725070 -0.0005511682003284 -0.0006158869650565
  0.4146156644167984  0.0841097628108622  0.4988897040079969
  0.4139282904273996  0.0830316752783483  0.8345086400976287
  0.4971827230215499  0.0835266523307851  0.2498841595545785
  0.4974122481995408  0.0002398389138468  0.1663685480320538
  0.4972417018404575  0.1663461739833034  0.0017930813095546
  0.4138003483410861  0.8324306432041119  0.5838182574144186
  0.4127842385331266  0.9174788635810612  0.4997026843101228
  0.3318857616276014  0.7493317163822883  0.5836026074624664
  0.3298622691061840  0.9158262787448572  0.7500830182189463
  0.4142765566899100  0.8308886390339798  0.7494501720889418
  0.3304363836724516  0.9169557364552609  0.9181720915569226
  0.4140874669377325  0.1665644959266536  0.0841095466662082
  0.4151697952932769  0.9177927779289803  0.3336944176030798
  0.4976107702162669  0.0832885326045030  0.5829151196828151
  0.3305017617793977 -0.0003336687171556  0.8347569004269290
  0.4154818423068963 -0.0004367653880966  0.2504660562123852
  0.4141987934741442  0.0834755428472210  0.6658848982946232
  0.4964525715816495  0.0830561876303455  0.7497981613288693
  0.5805780372343735  0.0843235090561839  0.4993916908760198
  0.5796936639170533  0.0817248300045939  0.6671495108395147
  0.5818131095395471 -0.0003069450809214  0.7510017992061074
  0.4971490013116707  0.0829694590597072  0.9177320776025625
  0.3315619751156977 -0.0005651880143016  0.6661906760128016
  0.4961780762329762 -0.0005645563488533  0.6644904111505255
  0.5810874569163272  0.0005729003910737  0.9179025642955895
  0.4976838626922447  0.0837088338511599  0.4157930667405302
  0.5796137882737724  0.0019027224518610  0.2495650040258917
  0.5796763516436289  0.0831147653762032  0.3330440527268395
  0.5796980269935118  0.0836568994061248  0.1659451497643080
  0.3330527656051473  0.8324216096824628  0.4995671636492642
  0.4965797099714112  0.2497220044349199  0.0840662087277316
  0.3302041491261932  0.7506840413412822  0.2485216828974412
  0.5796249872398090  0.1652449983035218  0.2494294255492931
  0.4987457001630023  0.2492988953703640  0.4148776448011673
  0.4976736360334633  0.1670224130458808  0.3325848861700432
  0.5804394332806467  0.2498072087393171  0.3311892763948354
  0.4155207688740216  0.0833747026366418  0.3326833563173272
  0.4139521368887609  0.0006312248335392  0.4163212206390357
  0.4981953020491979  0.1670941000516891  0.4996124770087179
  0.5812744491254200  0.2486154537629465  0.4994647165016549
  0.3325381419433167  0.0843242672710432  0.4151995663004922
  0.4961527083391744  0.2500868597225306  0.7496593977819113
  0.3319902720114269 -0.0000038577447942  0.3330464043689695
  0.5795641308724865  0.2488136513385167  0.0011049757425562
  0.5801611505097005  0.2506294490808016  0.6679726893193854
  0.4967006143070377  0.2494646897588937  0.2489512783134402
  0.4154114341341502  0.0826491035624291  0.1664879649782327
  0.5792880513499404  0.2482043965053820  0.1667459833588831
  0.3322688247717995  0.0839104293652711  0.5830357291856657
 -0.0025752712069649  0.3341827469346633  0.6653901886068646
  0.4152120500432886  0.6667549759655453  0.5837435423503554
  0.5819352699390210  0.4162975355521908  0.0010950316978508
  0.4156666103317025  0.6653985320957072  0.2493371271915441
  0.4985241808818745  0.4156458692279566  0.2494029615689560
  0.3321356857729844  0.1669439568219470  0.3317100061014788
  0.5815077696608101  0.4154621836734924  0.1678390623621824
  0.3322608959716777  0.6669852314307673  0.3327996164455507
  0.4983174930694719  0.4153424384222685  0.4149604726767082
  0.3320570437639561  0.7496360188061242  0.4174638413105330
  0.2482493173754060  0.9157669037173509  0.8349762280003180
  0.4160896177753803  0.6675446559635078  0.4171090347272289