 B Cr Fe 
 1.0000000000000000
    20.0899999999999999    0.0000000000000000    0.0000000000000000
     0.0000000000000000   20.0899999999999999    0.0000000000000000
     0.0000000000000000    0.0000000000000000   20.0899999999999999
 B   Cr  Fe 
 137 206 480
Direct
  0.6154639776816327  0.9036373904234996  0.3543738676987746
  0.0059645825895947  0.9241402758162867  0.9616626139770774
  0.4538111962447006  0.8215427759958944  0.6016935632780006
  0.3786514245721336  0.3170927772007450  0.5237448679102421
  0.0795883279435272  0.7899455878987899  0.1743215447534245
  0.9226895381433897  0.4244834246391966  0.8397606786711928
  0.0325628906834719  0.6012383711079883  0.1717383468509723
  0.0972688689973536  0.2908651091091997  0.6655241439772910
  0.2777985966413037  0.3532403437056355  0.5622316595389494
  0.6377155901512741  0.6071966989577733  0.5484800108110860
  0.7146636968554221  0.2401305278574886  0.0670102599532193
  0.7679302149149443  0.5582414160288245  0.2806887800588736
  0.7586954288376057  0.3266559835895435  0.4463508587011523
  0.3847910920446673  0.6089510156247960  0.0039072638491212
  0.9296799899521853  0.5694935193121637  0.6695523944066950
  0.0572272366129882  0.1568148769908525  0.8146130784898407
  0.3082672836213757  0.3540759981379221  0.9527163783454931
  0.0950924302819223  0.8139020039511831  0.6197676130262544
  0.3869102894888116  0.3543960393928100  0.6707208862369332
  0.2908677350557625  0.7629002611835749  0.7739523913715532
  0.8729005920782856  0.8141252544098029  0.3438504476510912
  0.6330098124480014  0.8000878948394593  0.6925080070618558
  0.0868002444642113  0.0942276861123995  0.5852957503164699
  0.9054817904823345  0.4316270567959756  0.2047086826887840
  0.1641906242147588  0.2854514871225795  0.2356357310077979
  0.7888394271900812  0.9450473396482074  0.5441514846608575
  0.7496491624711994  0.3599463999257433  0.2387858986289096
  0.4257945602895494  0.9673742708916077  0.9580141574670912
  0.0745039593658342  0.2877418813470001  0.4072941309085094
  0.2758951641806350  0.6391015591012305  0.2865622866886045
  0.4519542945878938  0.3611315141720495  0.7349407254951077
  0.0226771681358690  0.3180230789448721  0.8017222399886558
  0.5919797960484495  0.5814127400453470  0.3517600539318476
  0.6057446220374459  0.4008596874312052  0.0822376890482629
  0.9364268868304045  0.8258565951047084  0.8420654096047974
  0.1340081128622392  0.3503806372224436  0.4169595631049216
  0.6455698326081509  0.5886133983691361  0.1212236348202951
  0.5254463736935415  0.5349046075298880  0.9719648389458236
  0.0842240745394070  0.1859722026808693  0.9881728294571732
  0.6781735084041713  0.3724734851274341  0.0396017595836174
  0.0412145049070163  0.9694447647287164  0.4869882311005405
  0.4469733140700883  0.2724930984146154  0.0375862710659684
  0.4374139371006018  0.8076469211182329  0.9819257665542693
  0.8478313984879081  0.4568379646949329  0.3652444242476353
  0.7691891634516079  0.8453481417138602  0.1487261579796165
  0.6308921176236694  0.4521954403110221  0.4938542373374314
  0.3515294110808606  0.7601334529026442  0.7139108478524959
  0.8295091501221799  0.3052773239602656  0.1299456451528548
  0.6818152219078758  0.4172871689230335  0.3394377242197158
  0.6881701354962524  0.3223013964739850  0.4998389446757881
  0.2301209369384868  0.8343812163888730  0.1407069176368763
  0.8137234856401268  0.1896049149917027  0.4418512102057336
  0.3458870438768383  0.8594718934820539  0.5246918250863494
  0.5250823107394457  0.1675444166902744  0.9353409095522868
  0.5364383061709225  0.7394595690289215  0.3071755580676871
  0.3954283262610642  0.0325599194474444  0.7700059595713551
  0.4680045534322316  0.3484194797480523  0.9884159810922780
  0.4349945150144294  0.6388638543905124  0.7683956215559772
  0.0156067484236266  0.6244844089442542  0.0288514933989043
  0.3811618210361830  0.4874373495386600  0.7870107922791851
  0.1275964024032482  0.9449062466652605  0.1236175337190033
  0.9675378415719652  0.8405271995143180  0.5612040259892596
  0.4469263854120362  0.5037289026904259  0.1180206835273031
  0.9556877109012996  0.3933717820205327  0.6444532059229116
  0.7131953621672235  0.1835769162515005  0.9563710559112970
  0.2637372373048867  0.9400659671413781  0.7874126586370647
  0.9899719153119603  0.1396382402103366  0.4866655630966618
  0.7341813247637532  0.7115916960028864  0.6163154884152375
  0.8059386535070420  0.5339508265467292  0.1114675749685309
  0.3309740783384825  0.1930492341176344  0.7261971464326562
  0.8438720146653245  0.2455491137518471  0.8524988639505159
  0.5119674540267360  0.4288912434208529  0.7349713457130297
  0.1932784675394433  0.0084393618707568  0.1315890823875089
  0.3790326505240133  0.0432437540818530  0.5254662482996186
  0.0517191462335315  0.7164904279212737  0.8682230804559864
  0.1341964941061839  0.7865861738532348  0.0317774323492603
  0.3108161005764061  0.9562173682180000  0.4005056874943880
  0.9378479447118472  0.4706155832840586  0.0175701522008468
  0.1704495897942616  0.7653842859338583  0.3138753838653721
  0.7780188403520427  0.1451232784637477  0.5085922282749872
  0.9532949482403941  0.1845021162560537  0.3474487036876851
  0.7343467224999017  0.3570570496606521  0.8613104339154117
  0.5822030175835839  0.9707704960819903  0.8256659486477550
  0.1022805242110968  0.7393545098393086  0.7992463585675748
  0.0505847579249366  0.5205621979063813  0.1807814790363497
  0.5105017316552708  0.2983831073893045  0.6867841448531300
  0.9221288436585032  0.4572011882020533  0.2943121274419724
  0.8652171649159371  0.3860921002269963  0.7857417344463682
  0.7141158006599656  0.0739843837049057  0.6211258439827292
  0.2788255041467257  0.8254130380463759  0.2128717789099319
  0.5384690455846600  0.6929666147708520  0.6467791484158913
  0.0581441692958161  0.7337638728168105  0.6052015448879192
  0.9348979237589115  0.3263839843024657  0.9610055411775423
  0.8874085397478655  0.5974771724121608  0.8339890820986141
  0.8163743809856173  0.0912085930745100  0.8665855051064107
  0.2506127570186065  0.9655083797739651  0.9829624056113299
  0.0374040609546330  0.5622009590473580  0.5461597835735017
  0.7279740118063925  0.6357262373641790  0.2620777760468807
  0.1815975789798015  0.2946855735607854  0.7468836307774855
  0.8571112390399734  0.7803145027016223  0.5192195207662355
  0.1104819202634839  0.3940192156205859  0.1551589972030879
  0.7825317757805574  0.2339906960746531  0.0026785291444769
  0.8745189916141618  0.0876875706876603  0.7372689222687755
  0.9911650497299990  0.7731353685144066  0.8914613080737923
  0.2463301357897994  0.7928982378611598  0.6095572318603208
  0.0722880908504467  0.7041004392178100  0.0311036423469421
  0.0686007971815733  0.5534419998551866  0.0167112514782327
  0.3743176210369399  0.6802377994243767  0.5526279553607693
  0.8906332852201219  0.2462932593421234  0.1481265278971691
  0.9101977806316112  0.1576878325250825  0.2694207414128629
  0.5494104873075107  0.5495832948867805  0.4169469458922577
  0.3463322821805662  0.2140534988084071  0.4236371748122952
  0.6292433355837191  0.1123364321577185  0.4260884012364358
  0.2784060163508825  0.2085722715664076  0.6527674322886172
  0.5506841035229374  0.9546681356030700  0.4851260256128687
  0.1784089250376626  0.2152419825701015  0.2861414441658576
  0.2107717051288235  0.9620146627700371  0.5793239132531200
  0.0174793710438422  0.9640935997968200  0.2179949926449471
  0.9253624089384223  0.3100842676994023  0.6701866785732923
  0.0150604428756127  0.2095906220831998  0.9324521223547874
  0.3254173700134310  0.0644929711671394  0.2860153715633040
  0.8550587958889149  0.9797231743168968  0.4990723087183187
  0.9230028625044834  0.7397660821541134  0.7104545123290980
  0.0045873097289538  0.8862483041334751  0.7299415472909622
  0.0286609217737317  0.3560215699729318  0.9855398761405408
  0.9806990690001841  0.3976333292051396  0.5612652969499753
  0.7411697521272969  0.4838750162918253  0.1431620424381154
  0.2325527342588703  0.1572873470227907  0.5910369576225275
  0.1226468320237027  0.1478257120240667  0.4433759331298736
  0.4195418932299382  0.2330009736808920  0.2280480980130899
  0.6770949226941232  0.6218588038478428  0.9734375697685078
  0.2050847090901628  0.5381651731030750  0.5467974637766589
  0.7132390861511401  0.8993456527406095  0.0964578218207964
  0.7199428314054266  0.7965011055035046  0.2090115207870611
  0.3160228921382689  0.5430375486409789  0.9107530371001484
  0.4831450382074113  0.1176470936033842  0.0888288716212781
  0.8077151660695451  0.8359078722413995  0.7578192115431202
  0.2699078206455960  0.6020318323886096  0.6974030848565536
  0.3527598523400130  0.6692832603531822  0.2187867013582337
  0.3771638852121626  0.4034596388149737  0.5753169611324278
  0.8319560764621478  0.4127201404672106  0.4555100671586094
  0.4895595948341311  0.3898384408687408  0.6362621112796752
  0.2503828494656449  0.7219382289838596  0.6838946914997278
  0.4902513336609377  0.6318920788078677  0.9325720996519322
  0.3520146492455967  0.7837793929497053  0.6129294007382435
  0.4956687946070852  0.5216445560671806  0.6316479816636558
  0.7474437822097223  0.0028098518008861  0.2524513923599240
  0.4138921953326239  0.4548472370374344  0.6937355241202841
  0.4113166919688786  0.5702483430238260  0.8440274068439024
  0.3002685935711061  0.5945659680711309  0.5699878241422798
  0.3645560567420617  0.8030417122664818  0.3225521616896206
  0.7051866054417459  0.8586251344215650  0.2942162222718566
  0.9459321026830145  0.4788138950166887  0.3999815853421304
  0.5292153046362886  0.6803846288987118  0.0441394433263112
  0.4291026585722449  0.5988833832162805  0.1632126292796176
  0.4970658524502638  0.6343063029981203  0.3617783630476917
  0.3588685155099023  0.6670177266450623  0.6546016821441363
  0.2743086050577487  0.7037447381992608  0.5521501968764367
  0.6992196627926250  0.6968372869949300  0.8892581105994986
  0.4641551235374510  0.5628742331299946  0.4639615026480655
  0.4237966766384072  0.7045267725977797  0.9991436954538455
  0.4808683164140057  0.0378636091347141  0.4879881578658340
  0.5074926715194858  0.4975597897901438  0.3400744015093290
  0.8901776738385222  0.1366851358246394  0.1582413243066695
  0.7030933062999956  0.6045997393671796  0.3729629935045993
  0.5014468630928742  0.0401127628907326  0.7944618020699814
  0.3691661628084633  0.9164952746762663  0.7932530999074949
  0.4733833615631343  0.0731250844484395  0.9319544863781286
  0.8992070232180868  0.0845309626350653  0.9372848221677856
  0.9291122291117438  0.0430026197109222  0.8068225637815136
  0.5432312924838432  0.0658298396388306  0.2638512059482886
  0.9298205515948096  0.2075058082135211  0.6384109785977987
  0.8327781312560506  0.0797501510371258  0.4472175814232117
  0.8343671914072217  0.1694256810844627  0.6960509218620812
  0.4138979605888095  0.1332042513305847  0.2813173952763325
  0.2906353112984066  0.8619127191190646  0.9924112606097798
  0.3806226974223578  0.3327078420075628  0.2393113710629456
  0.9329300798967913  0.0573575792122725  0.0827630416653808
  0.2933757466094503  0.8529701241691851  0.7176484031702191
  0.4160359714081853  0.4398169675914361  0.4343992185732616
  0.5020702709851808  0.1985371231478977  0.6493049077795138
  0.4366148090203580  0.1457997216208758  0.7482504343441125
  0.3994048409842740  0.1034879867741416  0.8515094628036864
  0.4040647553976160  0.2928123098885361  0.1345904310741534
  0.8558319633020156  0.2922629442449531  0.4468767651447876
  0.5013570664943277  0.2984131948488473  0.1959281946030920
  0.4555342979670929  0.4756224545605449  0.5418149714201755
  0.5942885376072373  0.0564939905705518  0.8947552356315654
  0.7704524474903344  0.4824620440166716  0.6486891699749104
  0.6772398449751901  0.8907847984268769  0.1937530411083384
  0.5126609449028228  0.9512359590489736  0.3186971603303411
  0.6375216321957352  0.0573034235792042  0.7875479222629577
  0.6320813789044146  0.4955702616050542  0.3920076704127101
  0.5565370082129060  0.5736836942651855  0.2530829859790655
  0.8385184328979737  0.2271677918602290  0.5446138715683270
  0.6732517226798826  0.0774004813091502  0.9723790616782443
  0.5373398328446184  0.4770872886107059  0.0704798719777770
  0.8155968130375423  0.2733163407365381  0.6496128435747992
  0.6230280156899251  0.4862536693097885  0.9266635165645546
  0.8864115224491597  0.2783163646592218  0.0423324606386855
  0.5704587943853806  0.6049180122935686  0.7019865829438223
  0.7046378589570168  0.1264336245522909  0.7141156033607131
  0.6952797602723486  0.0037368282162907  0.7010511371818081
  0.6075332590702199  0.3705281776495152  0.6744180762398074
  0.6589519096886998  0.5018186372378495  0.5896909393615124
  0.5760060561600551  0.8624700405957154  0.8592572868635135
  0.4462213435797712  0.7110226181918945  0.1355971336412486
  0.9506342240134311  0.2336351577549598  0.5225686450752554
  0.4393951034216655  0.7050907571829943  0.8549918727594529
  0.3694477092293867  0.0905762339295115  0.0687560931364506
  0.4249839321768127  0.3080167065880896  0.8279049723304787
  0.7904439598143247  0.6547425282512030  0.7810720019326591
  0.7753966860148397  0.3616388947907991  0.3484494826841616
  0.6699256627870016  0.3326788565663293  0.7761614948131133
  0.4551904788522082  0.7314822140588961  0.7187203175359379
  0.5723882669352189  0.1330162121440780  0.7212495940339394
  0.6226235342012116  0.2957777475542663  0.0880024052089327
  0.7163373698584127  0.2519834446365283  0.8720425057402592
  0.8444967785030359  0.3760130604589302  0.6796589138406676
  0.6013043489511758  0.6335269923608318  0.4461435437907981
  0.4130329573997170  0.4500543556986408  0.2932730133429315
  0.6892937619825008  0.1796207565777736  0.1551587143119346
  0.6863780418047627  0.7178868387525779  0.4055789656365870
  0.7458955297374648  0.7013699679182916  0.1734781094210806
  0.6291251878723458  0.4963446651237723  0.1575466419321915
  0.5786789848934957  0.2579297393506434  0.8637396954020321
  0.8429043625840019  0.3102270436959918  0.2399929525375616
  0.8546670928164335  0.4034553076689293  0.9916105072488464
  0.4881216293232527  0.2281809472458558  0.5138250330394191
  0.7138785472125384  0.9763022400917217  0.0195548150496941
  0.2878839750727276  0.5924689387367412  0.1699665900322890
  0.6898878859435550  0.3914989530681307  0.1433302727881500
  0.4418724152037389  0.8564031261193890  0.1404647530119341
  0.6764081970744814  0.1232874077812340  0.5289474582591528
  0.5087551681543463  0.3843880352560742  0.2719132506913008
  0.6715228971713787  0.5669864326364886  0.6760482246184298
  0.5580092834481214  0.1107803379491976  0.0163124033182701
  0.4423085504468569  0.8679137376844244  0.8928442160309112
  0.6249711923222978  0.9719192485146966  0.2654865650954629
  0.8095942311290810  0.9051628012024711  0.3329202137069501
  0.7205473031006647  0.5590618804780336  0.0530896993600006
  0.2885919610639001  0.2892208603104973  0.4665485408876929
  0.6202747506663890  0.7679213882431665  0.2289367350159885
  0.5528631471050994  0.1327943766679186  0.5666288129443511
  0.7828248529909690  0.0583084750045853  0.7763599850427181
  0.8045015193697387  0.2070170118456366  0.1091408644747460
  0.6246897801289431  0.9638890910463952  0.1264699556491845
  0.1976204167711738  0.3823875006420480  0.2329011989696844
  0.9424075109464389  0.5102687246199586  0.7852309583805667
  0.5788991708390296  0.7150720456470003  0.5394373273380054
  0.5829145714906463  0.0106067624521369  0.3888206129815253
  0.6786007630019414  0.9866773614374447  0.5610097487714633
  0.9068955793363936  0.6339470614000091  0.3748325301939976
  0.2067262716955964  0.6762711127743131  0.2108741616602947
  0.1510933313033955  0.4429059738697696  0.5560187317265491
  0.2370168237721707  0.5209433813016585  0.0836464692916777
  0.4108469827752945  0.5204489155800854  0.9506479478246682
  0.1603647135405513  0.7411243297146515  0.5826967367912904
  0.1730067682383256  0.7118607668775090  0.4726617672741028
  0.2146208980503192  0.9210286751283054  0.1997674196626824
  0.1423028065012552  0.5845024132602490  0.8579246626365932
  0.1408841302040310  0.5958335005050884  0.7093476492475318
  0.0743898890247852  0.5769999030308189  0.2673771240330011
  0.1810745538532086  0.8297079096014568  0.6817181615886131
  0.1931883926282766  0.3463557546285893  0.6449157289925140
  0.6353776167023872  0.7986018667030725  0.4764390346788819
  0.2201152269897050  0.0496086708893184  0.7588080398269442
  0.9231251555257544  0.9435870915730651  0.1680243825156180
  0.1702549297529826  0.5687193512324800  0.9941704241571075
  0.1393766010245821  0.1169505467880126  0.2630256892309890
  0.8122879383722785  0.7489717303432841  0.6952286069841015
  0.1138402152129575  0.4902273870475828  0.0978993220100214
  0.1305687766662801  0.4734738820945936  0.2225931785110565
  0.1939449704797879  0.7819594841214225  0.7874287618104991
  0.8890722047899288  0.7713515806677010  0.9186618686090497
  0.8171856177016590  0.9258490289602528  0.0809349954131703
  0.9430060821620417  0.9149329647732086  0.0568077632158950
  0.2567538434435880  0.2466317268150990  0.3686718599035548
  0.1547834933039188  0.0077525406281494  0.8430501583306742
  0.3854618044068033  0.0689419555852229  0.6632608986523080
  0.8348654077711274  0.8590834615280796  0.4421307146345895
  0.3191072474255280  0.1316659425746150  0.3704676800891080
  0.1351664329468117  0.8495962382846155  0.8694521673306378
  0.9102118938125170  0.9004961861264115  0.9223371362364350
  0.2589864628533637  0.9285396157332554  0.4957497636688201
  0.1460758229659914  0.8527842720044138  0.4610370682717015
  0.9925543525282430  0.9928840372947734  0.3941427358924646
  0.2173224551661762  0.2297010291790824  0.0620301971984265
  0.2125870239931911  0.7877822861983130  0.9339393213205520
  0.1217390512900477  0.1312498779139649  0.7385385249478699
  0.2681532186890625  0.1540681730801066  0.2681278357716146
  0.3223803372667784  0.4228934465014446  0.1216768526430558
  0.1302057609276926  0.8646838784194116  0.3338237819065699
  0.0097702853196056  0.2981843638192948  0.5976164654907241
  0.2706066276645552  0.1325687918901821  0.8747796746095917
  0.2300389646868767  0.3865773096474326  0.7801299559451335
  0.9797689892312244  0.7918983850903266  0.3505542965138427
  0.0283491077083891  0.3065461165341101  0.1406223240593309
  0.0790087946540402  0.6323572368550118  0.3950004696848279
  0.9763097426939140  0.1503538215896557  0.7387206047640245
  0.2595874821325040  0.1653413702164384  0.4769235866050792
  0.0831468554943269  0.2233328678876647  0.2183556811649558
  0.3020064306108101  0.4558420719712920  0.9903355287361802
  0.0749793646511034  0.3525637817181201  0.2438713716927342
  0.0949488192861730  0.3643803635938254  0.7385573362852753
  0.0081299796870390  0.6895290112467189  0.3143070008391229
  0.9569283250609807  0.7240114009957899  0.5523797034107168
  0.9763237683825194  0.7086362450560025  0.9789045205488225
  0.8918954762637563  0.5012222949554451  0.9106084544323397
  0.0846267603397882  0.5074696688650425  0.9200559522487984
  0.3827424908701709  0.1848442968622101  0.6367047074467538
  0.9389611980809154  0.6408520657929305  0.7564759619600048
  0.1860807292997861  0.0599994647404730  0.4491317900496252
  0.8540541059767408  0.5384297519499071  0.0196535672802683
  0.3506952781811827  0.3491278285516879  0.3532168549575627
  0.0085672584396774  0.8703442976642412  0.1583332523664013
  0.8514194607052858  0.5587379647370835  0.5974361327628973
  0.9918445318549861  0.6793309458179337  0.1147370023385535
  0.0333551415614582  0.4666611302369386  0.4982024902533770
  0.9711575046741243  0.2770100252733417  0.4158931097941891
  0.8952894002870718  0.7854796371456036  0.6197201838918365
  0.6363457739173883  0.9043184589546427  0.6483721297453147
  0.9112916295660860  0.8420521125551178  0.7376654706508724
  0.3652521286242550  0.3469800954216915  0.0406490511767444
  0.0008009592225081  0.7606239714487014  0.7810278285257753
  0.1411071824676794  0.2901215931950271  0.9681117529906810
  0.0726198445376077  0.6382951952178425  0.9419487179035910
  0.0706622340568583  0.3937419677964140  0.6188837915632671
  0.3957183103277712  0.5497461536026345  0.3768131484631217
  0.9951838062247039  0.5697136832451484  0.8607649876496747
  0.1018862667107062  0.3588793252278626  0.0567389140721604
  0.8455433503030820  0.5643830796472652  0.7330573734127013
  0.0884544109627723  0.1963638805495323  0.3540532515348742
  0.1606215442726927  0.9770128623270424  0.2941641803225668
  0.8217096856925139  0.6893493043330465  0.5612942829797211
  0.0004282122795318  0.0069377645526669  0.5869033090614463
  0.9771191106659578  0.8276334476019994  0.9868030329853928
  0.7782251241852014  0.0476800333159327  0.5441579673087056
  0.1025018692205794  0.5209776067020219  0.6164447958718354
  0.0579481884354331  0.7892407782009185  0.5149345179870706
  0.0107412522408856  0.4284723340375771  0.1543509165646418
  0.9503475613962440  0.5297645955849776  0.2154023607272311
  0.1187825098406863  0.0059186500009216  0.7229209124628427
  0.8843675677063264  0.6621476459717992  0.6558478330386770
  0.7072666262377458  0.2552645854670374  0.2728236380266250
  0.9542530092943871  0.0521571755854723  0.2142356148696829
  0.8943483378542502  0.6310242560220009  0.4904907500027307
  0.6681709342150554  0.3085989471563396  0.3926647696233695
  0.6904831062773178  0.2797652200084976  0.5984534655471253
  0.7332198835277109  0.3614816943875005  0.6774407244177270
  0.5623873259837279  0.8551747518065956  0.7339627570784726
  0.7828117244725411  0.3475647188071705  0.5486645344941127
  0.7351377617160899  0.2889260647855264  0.1657168226690910
  0.8244136235133764  0.5434059698026852  0.4339936470994247
  0.7906481364939441  0.3162221819003477  0.7883452729903683
  0.7006570168207268  0.7275591635606680  0.7113559161111667
  0.7724268153205329  0.4782342700105222  0.5327226484572358
  0.7072123559615834  0.4134575847251559  0.4470253424250726
  0.7517704142006422  0.4888065192033851  0.3579215649188590
  0.9172930742446669  0.3450243827203978  0.1509295431003220
  0.7214655913660005  0.4608469745869949  0.2413368775737530
  0.8297532262125366  0.5109327356442972  0.2044954700215285
  0.9586900810393755  0.3604787457267318  0.2586483376671241
  0.7734115650063218  0.4467606144532075  0.0560621040140765
  0.8889829402191665  0.2575181038520539  0.3280146250973028
  0.9038017833723465  0.3701772919378957  0.3606153678946606
  0.8145236689363694  0.3056542252823624  0.9332683759108953
  0.7682896648816109  0.3240688430216257  0.0511086853603462
  0.7588842287686347  0.7661897091019930  0.8088386299644975
  0.8359625812743520  0.8762572916200508  0.6696833003602809
  0.9105207532227086  0.3265990649493460  0.8570983647745829
  0.7497047354826027  0.1410119115615499  0.0377959073468309
  0.9517200575121828  0.9091150702446067  0.6369047090930976
  0.7122880159068801  0.8543177731970257  0.4096097214732484
  0.9409826628046843  0.9234923006299076  0.8068723884784958
  0.9422477866715759  0.0514995176076879  0.4876995475878668
  0.8758902514735685  0.8381172824707451  0.1453085458828541
  0.9698155439684708  0.4196221307816827  0.9311761878754218
  0.7364694589793948  0.1382150064699734  0.2804140781977348
  0.7312729256309713  0.1400490072732408  0.4088587439783546
  0.8204188751350769  0.2028368092356476  0.2308669968543131
  0.9538186158792752  0.3751869667899760  0.7469209253421467
  0.9793278909626785  0.5689236146496277  0.3286871635588862
  0.7208726276762401  0.2424344025194111  0.7085128371626250
  0.8304606876084256  0.4219452030466976  0.2742837450264599
  0.8081170081998792  0.1756423925408877  0.9224455972436719
  0.8987531698257836  0.3262895816640773  0.5743325777723481
  0.7872269621271082  0.0392794887174391  0.3510399502539747
  0.9593628813935591  0.3751071896897285  0.0508235496492584
  0.7669587476609047  0.1036317879727952  0.1637431683378869
  0.8888503466606291  0.5883310281822441  0.1396726246073566
  0.8145518923995906  0.0501714687426407  0.0641264789233585
  0.6159821683366893  0.0605285795614834  0.6375106997892639
  0.7699160241337105  0.2469636350739975  0.3675553639084917
  0.8054160864845409  0.0631552930769507  0.6597310894588756
  0.8644078878792177  0.8768099368645578  0.5533074948540817
  0.9144531672546471  0.6374748341283958  0.0452666274696946
  0.7751891450534160  0.7891419485875264  0.9232576542328194
  0.8720701771686179  0.4355188101110679  0.5761071440604746
  0.8948954958333351  0.4645092846076929  0.1088736980461583
  0.8618700216641211  0.5421693535838632  0.3158884709450467
  0.8907821518904859  0.6165624185565262  0.9345714284750430
  0.9169350881117895  0.8565402982994951  0.2582091469079242
  0.8995774774422491  0.9738015855799775  0.2855784134660764
  0.0377606467674274  0.0291403949747382  0.2925741411378145
  0.0272516901494557  0.9932016826384664  0.1197956942488554
  0.5711223054774853  0.7282650314794628  0.1358334874160315
  0.4493329483357311  0.8833699521921393  0.2488099211364639
  0.5884582631169785  0.3858409642088738  0.3657244137355382
  0.4367654734210060  0.7167262427626074  0.2810225307448819
  0.5213744186707380  0.9662961679514445  0.9049874885451512
  0.7358583890716600  0.9908886432071230  0.1386548542496736
  0.6408737323585342  0.9348218449968640  0.9254784058765368
  0.9544406696688279  0.6450797717063367  0.2284505431233250
  0.7179730012807146  0.9973050328543904  0.8653994670996654
  0.7123323268475503  0.1177099741256253  0.8659838314011150
  0.7544293609684737  0.1685845435957875  0.6065616576153996
  0.7349450270032943  0.2355861792194217  0.4881612734417525
  0.7250044324572537  0.3924047162251934  0.9542467884950702
  0.6546293472920647  0.9226329940372667  0.7780652485035693
  0.7837070031593382  0.0513053039350678  0.9517121474367893
  0.6792859477714002  0.3959762666774165  0.5723163266931645
  0.8109653987778335  0.5359680478089566  0.8460395501902411
  0.6794492199800809  0.4506656809533902  0.7276195598846634
  0.4181786108307463  0.1756369912554006  0.1382662180874129
  0.0582387450680969  0.5081936826866443  0.3849045074881798
  0.9929279140247693  0.9873005895140506  0.7167043040260305
  0.0444802783663894  0.0772343814629197  0.6740183721792982
  0.0694511323004174  0.0675998073920231  0.4916595503764676
  0.1012785436843611  0.6218481749659495  0.0805749696892799
  0.8461266949353633  0.0162216408886600  0.1675491208273256
  0.9167155729209914  0.2274057965760218  0.9323231256446295
  0.8413118991714411  0.0828141067875254  0.2552989856392109
  0.7863381035442661  0.9228105340345846  0.9433792311931214
  0.9236450925345957  0.0774336546114325  0.3421951210492206
  0.7189692675491093  0.8698342587849704  0.8586823649497594
  0.7756268125558961  0.9361236776732774  0.7700054976797469
  0.8768541533194169  0.7491098034525259  0.7999094386773331
  0.7233278965927555  0.8459237369240263  0.7042257289570942
  0.7625746172000265  0.9473609236546657  0.6369863924894955
  0.8192303676505648  0.6832061961363407  0.8794898456577049
  0.7166152648958971  0.8753102841189784  0.5329601186709562
  0.7686266146706108  0.9549001271349477  0.4481620734444929
  0.9428508081733069  0.8126237655029439  0.4686988052221089
  0.8766575915949111  0.9833608908861337  0.4040157052573047
  0.8806649666268638  0.9857262847165039  0.9890796287341110
  0.8654422785712722  0.7328377425975537  0.4264824650554765
  0.8378496581544905  0.8595345391016265  0.8465055317416792
  0.6906971833909129  0.6906235482706412  0.5237249250599451
  0.7974708928841280  0.6588293057460604  0.3419604082300254
  0.9100001743637262  0.1694128714761013  0.4374482195973108
  0.6647346465450047  0.5568457927359831  0.2806332493864026
  0.8306447850880362  0.6309078650290634  0.2345962459247039
  0.7315983808930323  0.5769193104202298  0.1770230945383866
  0.9210425052421408  0.7665130507443007  0.0713864488916562
  0.7956144221835956  0.6427808983571234  0.0862531875314613
  0.8721228990291687  0.1203945744777296  0.5633014254967420
  0.7627334946996361  0.4992585843007012  0.9484792908817410
  0.8407767418025864  0.7112460355475073  0.9975294105904031
  0.8057293557321251  0.3979857709961511  0.1595728772154425
  0.7041426435542564  0.4563821691623521  0.8446245695025609
  0.2003236489305983  0.5278193442634866  0.7763384497203333
  0.8835597178701042  0.1525572355935695  0.8209970375874954
  0.2207693238309192  0.5052041318102513  0.9046852513400797
  0.1994867356294372  0.5776830739652421  0.2742589536946081
  0.7333193759117916  0.5508257020414101  0.7619631693045623
  0.1845678017689229  0.1819407693011253  0.9416419569619578
  0.7801013807098103  0.8013888218333515  0.5954061770548091
  0.2760425740538069  0.2554219864325367  0.9500438807268402
  0.7698136769096773  0.6321549454223220  0.6697093884264548
  0.2387845788776676  0.3446017289460178  0.0306900095840487
  0.8456517177205288  0.9859470742146432  0.8621840307525847
  0.1562110226561745  0.3051785626608050  0.1402353422923532
  0.7110226204270075  0.7296955923450756  0.2863865088535578
  0.1435870170829643  0.3011467904995819  0.3303202439501890
  0.2325492037714879  0.4898609716429177  0.4530758854260923
  0.8911738885827878  0.7266076679474843  0.2949448295693655
  0.7214616945545080  0.7244841714344543  0.0046681259880845
  0.1653450155168988  0.2527955047955384  0.4499729346727265
  0.7748295122476524  0.6181627361943717  0.9660512869845272
  0.1970228956246672  0.3581120301479199  0.5025460323347477
  0.7090580139896856  0.5787454376463304  0.8740560749281445
  0.1232211615448628  0.2797169082353197  0.5679923547177804
  0.9550429519007785  0.2376203088042892  0.2206418435729365
  0.1008879848065608  0.2365842599540125  0.7646211503406387
  0.7399896315113054  0.5924366520383701  0.5696545816388566
  0.3226464797521306  0.4545261754801178  0.8604659134002449