 B Cr Fe 
 1.0000000000000000
    20.0899999999999999    0.0000000000000000    0.0000000000000000
     0.0000000000000000   20.0899999999999999    0.0000000000000000
     0.0000000000000000    0.0000000000000000   20.0899999999999999
 B   Cr  Fe 
 137 206 480
Direct
  0.6174895361137607  0.8973203809018878  0.3728952520649889
  0.9398063109044270  0.4521601069627970  0.3005685545287941
  0.8829080822538645  0.3150401836164900  0.8298619892870566
  0.2361681307650250  0.3709483642197151  0.1545891899772409
  0.3828243181470707  0.6715249295836845  0.5267777632391382
  0.0580223071955709  0.6023085481363124  0.1585221053079065
  0.9004333305864896  0.8263596767183096  0.6707258215246741
  0.2187381133708289  0.9820960261449531  0.5725978881091363
  0.6296035435372626  0.1124522867805728  0.4392824887325259
  0.0287207585934386  0.9582473056638604  0.8824033435474227
  0.8044601434056217  0.1422311863928918  0.8425042700593673
  0.9041109277757517  0.2326036340063163  0.1295859107170296
  0.5767041107796335  0.5473605103357194  0.4029839475088723
  0.6156175601269334  0.2795672603899979  0.9117238525246972
  0.8225529631467471  0.2343927347541160  0.9930353624236339
  0.2979934737667386  0.9854166941738950  0.4473505680936863
  0.8659789747978699  0.9910531584239641  0.5210972955153417
  0.0174900559951446  0.5295834134183384  0.1950580687582120
  0.1951938427963183  0.7274639281745010  0.8726360023050441
  0.5963007238527319  0.9746293921082527  0.8459885484659669
  0.7357408642526032  0.3659081255367803  0.8358703768872904
  0.0455817986191741  0.0851363334606911  0.9922737303459463
  0.7784496971422014  0.1538530268608436  0.5088242431788160
  0.1843050145500349  0.7627700939357606  0.2998313476154158
  0.9134709326598904  0.5452557734591102  0.0281574026058161
  0.2848033638333741  0.5349544345610179  0.7137616548699639
  0.0910902199919458  0.8460888754803485  0.3706861852919855
  0.4407798976089831  0.6307788629876855  0.1781160358312208
  0.3865858121326294  0.0601245090793431  0.5539840212166099
  0.0544198161939268  0.9702574523124716  0.2834553570419461
  0.4981815896338305  0.4903074301701156  0.7225135288254829
  0.9457778629653286  0.1067610621035373  0.6334298281310999
  0.5022090649914814  0.3502776496636096  0.4174854798418172
  0.0781522780475273  0.7285170183533453  0.0356157176462984
  0.0095738459011772  0.7500709129583806  0.8946179171084562
  0.1182575231087650  0.5617860915334191  0.6000571938473482
  0.7379526259538770  0.6223794132753400  0.2677214624554908
  0.3893780165669731  0.6137889095867982  0.8190295577652268
  0.6543148940045035  0.5539842821100491  0.9644175312309059
  0.0303496610813025  0.5979410716268809  0.8662004765843178
  0.3438476051536672  0.5904012026645905  0.8954009921132839
  0.2246410227219479  0.5363495692551702  0.5201688352585632
  0.0708163671077360  0.3574159340832035  0.8644502181236747
  0.3395094631928812  0.0607337314353279  0.2977267800100916
  0.9315031986097302  0.7536522376041980  0.7116594880997968
  0.5284651255444800  0.7389915832873215  0.6873534284336190
  0.9653222423350252  0.3738606879502274  0.0588124052983871
  0.8706993694488681  0.0488441897410545  0.0906139939577791
  0.7411989293910399  0.7984081450445321  0.2198648137864751
  0.7113532512705757  0.6552303004338951  0.0601232418663390
  0.5250187993620331  0.3120081183718363  0.6511500094523498
  0.0172561049710335  0.1737402984574214  0.4580579131374706
  0.5455567530561363  0.9519461121138418  0.4902425717536192
  0.9620428167580345  0.7777673924159375  0.3104601141607377
  0.8209916659439146  0.8909417537326981  0.7892816187789694
  0.4909656147311410  0.1145160225656607  0.0907556684137195
  0.7237138852110593  0.4818124927068236  0.1553470916930646
  0.4429766671501730  0.2348074703390156  0.2464659087798967
  0.2009155952550292  0.0964268100384823  0.4676320709505016
  0.1947359456272772  0.2068234760991398  0.2855026128455988
  0.2837509575237152  0.9674921791721356  0.9739708219776581
  0.1199764228096737  0.4013009295098086  0.1480215582232881
  0.8754398181829094  0.6172239182612443  0.8317998247630165
  0.3683375932549949  0.1130835730799149  0.3603555966280412
  0.0328536778306280  0.9766357267076852  0.6557592747155995
  0.1249123709587357  0.1062605223260737  0.1957251203139954
  0.1542213311104509  0.2324067983627685  0.5403331018573181
  0.3434210728778084  0.1434683849023157  0.5064497734180284
  0.3510463535089666  0.1296181432423409  0.0310319384552030
  0.7486897579385272  0.7224813853368414  0.6237778477188968
  0.7337991042934047  0.1320049410458285  0.0756295594344661
  0.4108768030681034  0.2217742925633040  0.6104176999811769
  0.3165828340704098  0.8061636011944474  0.4868808425850406
  0.0645759070509012  0.2997713603288103  0.4097976835973688
  0.4754606891316615  0.0626640535174769  0.0219423404668960
  0.9139384095673601  0.3988000140449160  0.9970154093874702
  0.2725896171052792  0.5058526944842319  0.2545087763675398
  0.1574131722673162  0.2571572267961169  0.2208725232923796
  0.9107192960061842  0.3906466502835034  0.1561754280652567
  0.7071790309415920  0.2394144368706179  0.0939419813129939
  0.5803211077312882  0.7697576084460975  0.5980334379108447
  0.2603291672574630  0.4399963727170004  0.1042417028814374
  0.2500004881579804  0.9131217792593539  0.6135930575486263
  0.3940251656806071  0.3742258041606183  0.7255254476865116
  0.0955135160216270  0.8207555909070386  0.6166670416422229
  0.2111099447104115  0.0133764204144835  0.9743459414310632
  0.0534081791686764  0.5114238492467422  0.5561266958003477
  0.0895072578672828  0.3702449771189772  0.6822455027371802
  0.3206960938195449  0.3408054444339463  0.9623589656683005
  0.0070555067511274  0.8483523714530916  0.2127360393454257
  0.4788013036705455  0.3277356224972162  0.9652727043857642
  0.5562971870952697  0.7596375498209580  0.3045968469539413
  0.6556535781791566  0.5736564457320513  0.5404510687691387
  0.2911066870722451  0.6570298874568443  0.2649809999354809
  0.3109449847873371  0.0171327722537057  0.7144850230174906
  0.9350256670869904  0.1403382390187678  0.4523500945921601
  0.0415306711495075  0.6825999512015929  0.8496219386595713
  0.2467730125754796  0.9039042054167047  0.7735691906756452
  0.5353464844076080  0.6697966906016027  0.9365440121561152
  0.0210216758313207  0.9773533528271267  0.4620173591222533
  0.7911710533018428  0.3039328249366747  0.2552535048094676
  0.9335424587204001  0.4077323801608455  0.6019566476499162
  0.3674388382682223  0.8646586318445760  0.5237747829012092
  0.5286575815110545  0.1638977547946187  0.9323355835714831
  0.9196600251617266  0.1408758652393328  0.2423496488046161
  0.7726643098088624  0.2206157734768531  0.8252327873096569
  0.0676148172436246  0.3664366455889543  0.2946918958023211
  0.6417070307518826  0.6307547028260714  0.1106043598633122
  0.6283132821029433  0.4304645029722856  0.5024594285137851
  0.4740616891883365  0.8002825085649012  0.9508240452284750
  0.9082057292533526  0.3971543653472611  0.4487185095999480
  0.7398638749315445  0.1980025329957068  0.0203079086888190
  0.3665450657348129  0.7593450037290581  0.1574270588275561
  0.2733106454525074  0.3665613675089663  0.6062721970863290
  0.9415983231320385  0.5752984614006545  0.6844884050182259
  0.7062553238150663  0.6104475112384642  0.4715725660106717
  0.7964851097348594  0.5049039716249333  0.1117764785978328
  0.5824008564448520  0.3987691660345318  0.0637756442970188
  0.1534318681457330  0.9510028733706022  0.1644428227973623
  0.0440511457117622  0.9059970549785107  0.9545228338821465
  0.7101686834213786  0.0863576207927140  0.6160259160351892
  0.0882322120508208  0.9151178851218300  0.0308321971303392
  0.4985371903185570  0.5325303947428685  0.9847936449394799
  0.6737659171287066  0.3846149253131959  0.3198367981157162
  0.1134808539365569  0.5003554030149239  0.3870997985453625
  0.0954172868681104  0.9402057580302059  0.4960284586625754
  0.2286839029397866  0.8190516388543891  0.1406312782728943
  0.2560494480695443  0.0640271519643557  0.2680212639791205
  0.5809249660229393  0.6964709083732502  0.5445678731941144
  0.9084821090708172  0.6309016530115426  0.3095703294142143
  0.3256216794921525  0.7444490048626738  0.6473003873405969
  0.4308308694829600  0.9511773532112101  0.8239949902466049
  0.6642115170658067  0.3721954010627800  0.0337265187316420
  0.0660404477266633  0.2694213970294728  0.0959995539210392
  0.4483748236447925  0.2626644811211252  0.0259202221416372
  0.7741328889836504  0.5574927467018860  0.3080207440943915
  0.6778794477371258  0.2936629636244371  0.6477208653066867
  0.9706329053937700  0.0225433746501493  0.1324794314946197
  0.8228776332157420  0.1229443768858658  0.0233124845968647
  0.8233000237268709  0.7546530550498720  0.6998132771475475
  0.3737486538206637  0.2312944190810817  0.3315942551038852
  0.9711400677963585  0.7528677397232975  0.1994323051197567
  0.3152611887866629  0.8624744799167097  0.8473906508748156
  0.2611336380649884  0.0606677871417859  0.3795125844531955
  0.2064975514127814  0.8213598188730312  0.9193736614956182
  0.8094190179762147  0.7788490956401003  0.0661280573551177
  0.9637731051919826  0.0381615829879243  0.7123318115552765
  0.2646420085201102  0.1812983735923936  0.7267023465622421
  0.8068239202933777  0.8136276284799044  0.5998416063821910
  0.2027394472429914  0.9813452366196432  0.6778237475189567
  0.9261032875849189  0.8749227328447919  0.1398560820938567
  0.8836605327482360  0.1453804660271970  0.9240066667881845
  0.3225853622017151  0.9917125422924371  0.6103192547264481
  0.1627264806933967  0.8811974525975933  0.5633487463547064
  0.0999641709628716  0.9615415824368396  0.3803353021544952
  0.9772705117181920  0.9774725621770211  0.3625336461521808
  0.2562980404900996  0.1281875432994546  0.9799341141224707
  0.0556489138673533  0.2553810821425260  0.9183076140560896
  0.9048867269409745  0.7201237874082124  0.3851611924475930
  0.1037122133220197  0.6219215012974187  0.0581510009820469
  0.1679705416756794  0.3688602330415928  0.2410051828690933
  0.6665012183130894  0.0705210830554394  0.3389596949563052
  0.3232733107740967  0.2786496884770134  0.6335587204716286
  0.9047197180813472  0.8801532251625062  0.5796871058409331
  0.1975924771989559  0.4786146816186553  0.1835236352776207
  0.6051741729649905  0.8257686315426249  0.6997486189617732
  0.6413140643618694  0.7652828483013198  0.2362443861185167
  0.5303410433369860  0.9200974623155255  0.7786115298005173
  0.7009677547678467  0.9947239843168967  0.8648357409011094
  0.7842327813267496  0.0806165229318604  0.1536754024002966
  0.8179876079110815  0.8969145454861900  0.0916075821583523
  0.1670130415109786  0.3005211117974086  0.1251811401017935
  0.0852260868827851  0.4787140805189767  0.6608377920945149
  0.5595313109031408  0.5171176670649340  0.5223239881566613
  0.7833691241955846  0.5625824595952921  0.4187674612101615
  0.1220842261835181  0.5663235288506702  0.4812637830314954
  0.9638148718492726  0.6251122014743864  0.2019079357447767
  0.9495742341306433  0.6639125307459226  0.8974430112882008
  0.0705511761398826  0.7823924911625422  0.2820443399366990
  0.2109305745865512  0.5191600296965043  0.6362739481845219
  0.2155796070035695  0.5320589657461857  0.0714496811545128
  0.4931220716938461  0.4956148681232309  0.8822121738026771
  0.1121528156608600  0.7581158568827399  0.7064083452885932
  0.2426072797201124  0.6146515023186352  0.4499151502433060
  0.2142841732404043  0.0347009686452978  0.1763942750908019
  0.1365413209324504  0.6374956035529689  0.8657483570587547
  0.1974754120255949  0.1708250111520495  0.3878958247421888
  0.0567143189328548  0.6632489911224260  0.9524482927087908
  0.7332986352627497  0.8597109666285464  0.0076155770377890
  0.4341154829188266  0.8251895166379661  0.4420958714723839
  0.0989525639556647  0.0247019679308354  0.7239338058529304
  0.3921958537335796  0.5147122096228416  0.9610522887254522
  0.9948152756840523  0.3452236880421704  0.4806684695057171
  0.8121922381742880  0.4302029238002286  0.8655633356262844
  0.0091503039317674  0.4347561461389727  0.1377280657385722
  0.2807674188850660  0.7790593621426534  0.2421527552482578
  0.8236095321324937  0.6887034501148241  0.8924224014791692
  0.9604801209853241  0.0440135893309134  0.2568794313486469
  0.0789840017289258  0.5282576452323376  0.7955944208056833
  0.9553091642727006  0.6834980656593136  0.4914548261145707
  0.2502198959511889  0.8074272721404078  0.3906899197372892
  0.7646004210895599  0.6294328623541410  0.6689137312623884
  0.2811966945063933  0.0588124267454687  0.5251091350491794
  0.9666445618276083  0.2400946876329774  0.4001398467320735
  0.8902242180447981  0.0837495925122778  0.8205072067337609
  0.2849466226591464  0.4464829026292683  0.8959532957370834
  0.2647473789018993  0.2478775910296425  0.9372199032964008
  0.0909682773654832  0.5705543000762656  0.2589865991337109
  0.0016577454827476  0.3526308771607678  0.9523970994088519
  0.0827562787699409  0.1950349492329012  0.3786132507750039
  0.4254992673858897  0.1819984817714299  0.4280643748747813
  0.0500268661854998  0.7990869083918481  0.1238631509164208
  0.3409979866225055  0.2343315513361539  0.0291482093185443
  0.2152484370324436  0.3125885955192865  0.6880514832159734
  0.3549565535257616  0.2142097367540342  0.8223338502457568
  0.5053313428745790  0.2011754805125346  0.6453541975241770
  0.8141140327213362  0.6387128250993553  0.0524290883201598
  0.0914556829971896  0.7937434122014733  0.4996264290902968
  0.6637395088361744  0.5755568447717939  0.6551199252953601
  0.1486012996241466  0.1328550319807476  0.8009683614071333
  0.7983214112425583  0.5452764586511256  0.8602092416544296
  0.9726144969914496  0.0030736520283076  0.5735803893176604
  0.9716717303563192  0.6228512590369959  0.7760363148125584
  0.9333517622483052  0.9675639111559321  0.8281517363700379
  0.2560857532822663  0.2905733841975473  0.2425317255942369
  0.1531936150315396  0.7322795955404416  0.1076076338348305
  0.1690579305940088  0.2733414764895251  0.4411436258470993
  0.0529032134957274  0.2514275825379023  0.5128813624708930
  0.1383210061519787  0.2879302593688018  0.3230054047210636
  0.1685869677610039  0.9857967410238790  0.2811183831028881
  0.0439111187801984  0.4029180897314626  0.5821499345485021
  0.9809659062896153  0.3666358606145527  0.3696914541108950
  0.7459633763432885  0.5984484045086941  0.1544033854938564
  0.8236576624014120  0.2006525153798127  0.2236185817667465
  0.0049500908558633  0.6760235809466663  0.3112706925973523
  0.8318164760391392  0.6758090356479902  0.5789947750496237
  0.7558065544949856  0.0094372826235533  0.6696791799722569
  0.0876603108354351  0.5228740490265759  0.9132512909534293
  0.7194058874273652  0.7233553412540573  0.1380831039520656
  0.1054015946075877  0.9971343402010602  0.9514693426769565
  0.7536288278422260  0.9903009042152693  0.2598840102251503
  0.6834113033664163  0.5921522286645963  0.3591184685742329
  0.4806488448060403  0.0354867654248111  0.5006045061359023
  0.4474817283296906  0.1609442534182275  0.0011404101391164
  0.2241085070516566  0.9470652142317243  0.8772616363909410
  0.4590312651118035  0.1143422212693966  0.7481527316509677
  0.3770389494718256  0.0460922278565269  0.9711217558844150
  0.8049766313129869  0.3056930259318285  0.9115552501828770
  0.7795244605856245  0.0675652372717831  0.9133424313040478
  0.5426002234501769  0.0679009727298130  0.2795697233134462
  0.8574649857819741  0.3525210082054860  0.6590971457021771
  0.9148736306627976  0.2815385884675058  0.7268377924839852
  0.4191148229134402  0.9951936467038516  0.2552661133244815
  0.4094235042507249  0.1684583961031152  0.1318669866439258
  0.8794675353735444  0.1199531094497970  0.5514064335840648
  0.5647914299308029  0.2531487972789530  0.2840867703524125
  0.2404900467191046  0.9279967639438242  0.0842725676415702
  0.3851592090081093  0.3274446855898834  0.2303131734979355
  0.0904977504520538  0.1877638581249436  0.0227331914968750
  0.3931944162372974  0.8811975729068185  0.6285859148461606
  0.3597268101265779  0.2436469016958462  0.5189051891882011
  0.6097672329632911  0.3774099589406397  0.6619241845786246
  0.3900653455326588  0.0872625225040380  0.6582019988211683
  0.3038225618213590  0.8117707138357172  0.7319403701503324
  0.5117545153430474  0.4932095150320220  0.3310348158292372
  0.9039059040783687  0.0763885449722141  0.3615963835645137
  0.5152721353404737  0.2617437283232522  0.8804075653845322
  0.4643225739690633  0.5773874966086613  0.6649807812518903
  0.2517094746726747  0.6454128939685252  0.9069831315094502
  0.4669627041635886  0.4809992235111696  0.6013525733156897
  0.3292262678296930  0.6955284727709701  0.7478917923122873
  0.7685065372616446  0.9585932627106676  0.4688944160203734
  0.0295009202600895  0.7474535568889348  0.5822947729867758
  0.2828510192684570  0.4224784514515157  0.6917093810798831
  0.4958420173194067  0.6454723811516613  0.4927938362554143
  0.3768557181376763  0.4027109704597556  0.6222699335723335
  0.2059675851525204  0.4799647683010819  0.4267803620410062
  0.7342547786150094  0.8405863497182952  0.7356321554817693
  0.8425333880521492  0.4590088187720820  0.5689017398382060
  0.5433621209226905  0.7343168029537489  0.4160043304513869
  0.7037456914949374  0.8586894099417808  0.3029374674124681
  0.9542657039792435  0.4892720452833865  0.4029327062168221
  0.1766658829490424  0.5659774151100904  0.7457484276038217
  0.2755730554271008  0.7054171094843846  0.5625080868194454
  0.5487138149977994  0.6735760333960504  0.0473319283393352
  0.1822710009479008  0.4758450512264531  0.3076465100185972
  0.4982433783881987  0.6168748580056952  0.3765797989239453
  0.4561472172829573  0.6804335436542982  0.7541070737270457
  0.3545751277058948  0.7545856528990575  0.0457351211643105
  0.3821934504573644  0.6000366565107037  0.4463674326226288
  0.3901032358429359  0.4803771930083697  0.7179172709856465
  0.6355890377954669  0.1784534258619189  0.9271737348041177
  0.8014298819364414  0.3968075081288507  0.1376043495730745
  0.6582550507769934  0.2817335392856852  0.3702637648721757
  0.2421739614135343  0.6904917937573556  0.3517019457677943
  0.7269545057830226  0.1555979901354570  0.4098680506255186
  0.5838240210493689  0.1086534703642301  0.1485414598662239
  0.4160184267092492  0.1283230573271147  0.2652401413660531
  0.4975535573990470  0.2435751766407258  0.5102164080462350
  0.4047993176994641  0.7987594178445627  0.2544337717943352
  0.7605670259234946  0.3214330589840357  0.0506257772795639
  0.5944972277938390  0.3298844422975419  0.4712973019689405
  0.6150130902713927  0.4457447109961123  0.2465888357428407
  0.8701731667643862  0.2980099016647108  0.4224354081636251
  0.7835367918697098  0.4346175051933605  0.7529297608627665
  0.6986258779699637  0.2388659489084167  0.2705121045594326
  0.5837105323642277  0.8642734919850740  0.2699623836662758
  0.5311151654059895  0.3294902064215992  0.7658797969833001
  0.8012913124356156  0.8948180895640050  0.3527034588956111
  0.6251264967392509  0.6934349272315682  0.6547064358861342
  0.6513763953287162  0.1832188593777666  0.6346250911610646
  0.8490993418960714  0.4028386989159933  0.2530929394182511
  0.5209701430066482  0.7912894845446613  0.0647969331738837
  0.5289175100600355  0.6738959105675674  0.2414858739518092
  0.7056362416557194  0.3811139159260646  0.9370682751661108
  0.5213957850199791  0.9038648910650420  0.0888554368989622
  0.7057362028505532  0.1610192484269694  0.1712053694861128
  0.5179294163663024  0.0374751133653042  0.8107679654357904
  0.4508975666579633  0.6065156789263642  0.9116607361622420
  0.6138158749910588  0.2998989374544754  0.0935970800025478
  0.7986406884006669  0.8926504318165386  0.2184081247915586
  0.6407006003097195  0.0344733713471488  0.7680791602709623
  0.5696991667163699  0.8244879026613493  0.8593799403028108
  0.6249097319244573  0.5218832913188871  0.1475278211243305
  0.4859553629456693  0.7349717498604444  0.8654141709331482
  0.6362583944032164  0.1780740387275822  0.0610155788624696
  0.5391796673390613  0.6006056292144031  0.1528215656740210
  0.6441412994677537  0.6610529273840716  0.9737297597181237
  0.6053333234938639  0.4646427274683196  0.9047799226259645
  0.8758840319794069  0.3145549867290955  0.0499079447928188
  0.8542841320356273  0.5502367372119858  0.7499739861670156
  0.8099574883555268  0.1806529160395036  0.7353115909594782
  0.3346208822073659  0.4074562208053282  0.4348369018567689
  0.6748223866363027  0.3448592046456808  0.7514044604515304
  0.7974016421833330  0.3814153555828197  0.4535587403627475
  0.6948309960152649  0.7064441488857280  0.4253926022643399
  0.6610630686753826  0.4770696621317347  0.5911219026551285
  0.1750088522485126  0.0835241823765978  0.5727965098885643
  0.5187269658130128  0.4850417995400663  0.0870385711885985
  0.6013490108824612  0.5399577853433426  0.7826769417914202
  0.3985454959612164  0.3985672565989660  0.9095406466700476
  0.6641252013888926  0.6439193116984355  0.7716907557464288
  0.6814594620735875  0.9876806393494617  0.5724542796768015
  0.5299494194850216  0.1335215116027840  0.4430230449044363
  0.5174431666365482  0.2129845957539376  0.0982139338164720
  0.4916331236586323  0.1758543810655619  0.3311143834772958
  0.6233203126296363  0.1446662147740387  0.2550170128839557
  0.6766073546406728  0.2725096596480788  0.9907845797095908
  0.7026570210415287  0.2302368954651879  0.7427935851624973
  0.6064182339654725  0.2400821104677036  0.8123221808698039
  0.5607099766194056  0.1390251433350617  0.8397030241091505
  0.6133477357282652  0.0565184432058264  0.9041616944365620
  0.6920772253610611  0.1403366063293416  0.8303697668040861
  0.6190900233658934  0.0648108186080251  0.6379771372930616
  0.5314295276873046  0.0197645438230993  0.7027968051682255
  0.9384573729216382  0.9205052376369254  0.4846821199909302
  0.4880403501848750  0.4007329421939504  0.6786801172273885
  0.3417501757763510  0.4064166547899358  0.8011485191132426
  0.5961025594412938  0.8722334550248224  0.5744185590576891
  0.0159720078780366  0.7718604574823452  0.3961434496315048
  0.1593658034393899  0.8778743967688772  0.4404227484064410
  0.1719528419939952  0.8626568758007457  0.3134676658912769
  0.0957227128142723  0.8953652996053414  0.2255277306431028
  0.1636539509272580  0.7135090025350236  0.9753968200210619
  0.1014120753436903  0.8184091811740412  0.9918753459244046
  0.0039980636924150  0.7518217196943655  0.7891659885459045
  0.6139326902594525  0.2287479945206760  0.1742761030058941
  0.0086170536235486  0.6927175228584667  0.6805966977207554
  0.9893359357187693  0.7562770684810916  0.9930001189838420
  0.7988064126560844  0.8023008472762315  0.9325008484780118
  0.9686801966741849  0.5070791533752927  0.6153543491505417
  0.8796257550585318  0.4606729289130230  0.6806893136295297
  0.8593972476073908  0.9893781384932945  0.7425651814697203
  0.7665045807057631  0.5042064677964228  0.6561105395340893
  0.7071373507389208  0.1159316655000639  0.7102032271635228
  0.7625139470547273  0.1887813365167458  0.9240913674301491
  0.7410407926737460  0.4502967708654749  0.5166939056248471
  0.1187299837600838  0.1541457458492943  0.4846168164274848
  0.7026993590253503  0.0445496826367570  0.4528902847875960
  0.9227702094917998  0.4882863917228700  0.2009161850991102
  0.8841283628472296  0.2086137972057186  0.6360431867468235
  0.9994195962637760  0.1253120305106532  0.5398283476579302
  0.7144169258001417  0.8411715659247526  0.1261691974170817
  0.0222217393614522  0.0896177059292672  0.4070915309148812
  0.6296490599349761  0.9093633606675001  0.9164819469160704
  0.9759830568522488  0.4995716315662377  0.7426127096278028
  0.9923963335907600  0.1564427556091447  0.3113650962797250
  0.0793235387448175  0.4448195510695290  0.2287298497457416
  0.0170717504970603  0.1229509889711865  0.1964685777262479
  0.7822804318504262  0.0515227212885566  0.5573604077592664
  0.0635786977360459  0.0875278535533568  0.0928010357431461
  0.9125705985529078  0.8465611178234106  0.3860425573680145
  0.0786741897570566  0.1222083902897023  0.8994652379745864
  0.6705928571353759  0.9114911914217801  0.2075987618366057
  0.9829414287389558  0.0520122511502703  0.9166475898720069
  0.6323984079678250  0.9484728101956629  0.1045972242479239
  0.8762217581636185  0.0292626171482549  0.9515862442491387
  0.9986038090691369  0.2007794870063457  0.6326256551569456
  0.1150263488920310  0.8904877086179636  0.8813329146844220
  0.1413172625275659  0.7640251967943753  0.3914274079715331
  0.1026159825264671  0.5129355518669294  0.1359824478658559
  0.2733673957490986  0.7277077024437537  0.1367679023809677
  0.6840883152017553  0.1281488202044992  0.5311238098030542
  0.9805814305095496  0.3905684647226932  0.6883332327019948
  0.6976894067506783  0.0987836464340809  0.9837838575346670
  0.8902204190365320  0.3458567694804988  0.5345146247765521
  0.9059707041912177  0.3771277669370964  0.9009755990686307
  0.8732645956927232  0.5670988654570899  0.1235639131071063
  0.5538372409403537  0.9775877255359566  0.5895266188288016
  0.8769962853561774  0.0004829610289210  0.6241468055909388
  0.9389703552367423  0.6450428809326020  0.0375305851158504
  0.5029289185184629  0.9098773549785822  0.6720030056059897
  0.5102246015314374  0.7703895304873281  0.5199858638737668
  0.5758930742869716  0.3650256627431418  0.3450345359408704
  0.1397660338760726  0.9950426903458559  0.0743810390942008
  0.9724900107520860  0.3068202806681552  0.6058364655730342
  0.9365497551862852  0.2302247212407393  0.5169820275155219
  0.9916096608859732  0.5652330856048799  0.9633420089864534
  0.9856861726951217  0.3095559523774472  0.8294440452546434
  0.1272672201087037  0.3268771718825833  0.7739033342807733
  0.9368574279851186  0.1591769637164965  0.7350170053302707
  0.7032922812748478  0.2738193564494418  0.8630946826988805
  0.7760389364704929  0.1603700631486525  0.6128438239440885
  0.7426933595982070  0.2776882227543223  0.4520008846932620
  0.8169897869026282  0.4065708658725059  0.9827367983176538
  0.6427840318865971  0.9026392264639482  0.7952276653407222
  0.9915774369590469  0.1691362584252103  0.9658758022817889
  0.7873416183163471  0.0164436959801408  0.0429308508167613
  0.0501676520096047  0.4100442221785969  0.7739734290423419
  0.9071432058924620  0.4057398812643431  0.7839015360109955
  0.0805947967789987  0.6912803891867214  0.2057192594947096
  0.0909656144884324  0.9011775206844508  0.6780729603685826
  0.0166446499426425  0.6853768320267289  0.1044321987209669
  0.0849161711355994  0.6544980987927717  0.7643344448979114
  0.0461880968999607  0.5822603048683672  0.6759768261027058
  0.3119190814184871  0.5936750353078702  0.5458108453678413
  0.9565393591582615  0.6304146060281548  0.5935713897992712
  0.0600472340108925  0.6727310932364924  0.4348136847421308
  0.1579746696566380  0.7441885297607853  0.5883595758386494
  0.0321280602744358  0.8807726561268531  0.4414169060429649
  0.1862020210333478  0.9928560643345716  0.4771760967283538
  0.0312134500887362  0.8890991231033452  0.5701179242801003
  0.9523647326196311  0.9220150740356120  0.6817736529196380
  0.2168283823961009  0.2004217838942052  0.6231032161821936
  0.2576618446625220  0.2570151875392522  0.3475088684394527
  0.2208291805118225  0.1761628776623686  0.1937282635812263
  0.1805989569131617  0.1097672360325739  0.1040813710378072
  0.2104088190645491  0.2126694686614907  0.0513302140276510
  0.2733796693688742  0.0408373144402801  0.0540804182552251
  0.4151843300984672  0.9929360556492922  0.7278476180245481
  0.1137428227751938  0.9829872910451450  0.5913349528797149
  0.2407716816841706  0.1817301667765802  0.5085366334816285
  0.1746513618157630  0.1078521663824591  0.2873879947415962
  0.2294244731648180  0.8975539145908107  0.2049569541012864
  0.0797397177848092  0.0153328815179294  0.1920706829161257
  0.2965701753805943  0.0405361285019299  0.8920369026478998
  0.1479195409162673  0.0934322461479832  0.9993607694358043
  0.1872932731584962  0.0717849549961768  0.8932033236943636
  0.9137863342554401  0.8393361110645345  0.7725887778273126
  0.3200941732503014  0.2994843527395704  0.7481007252373000
  0.6055635788333854  0.6287645842362170  0.4609929861353851
  0.1945199423129823  0.8156993240232459  0.7991654931736812
  0.5041841598490394  0.8359707914506442  0.3465664879602269
  0.4601149904800246  0.9675058090790665  0.0072123017078870
  0.4596903396993063  0.5860995701484335  0.2665971097234922
  0.2836486557317434  0.5988872196735640  0.8050853990890159
  0.4630510342243221  0.7114721148353310  0.1266959235315762
  0.4720299486791890  0.5199884865374074  0.4510113155518532
  0.4938592082330485  0.4305669760191620  0.9870489322185695
  0.3990491507043707  0.5340115737953381  0.3567427973716970
  0.4688373215188488  0.5579617858175264  0.7855476912145382
  0.4241264684398792  0.5381392492760342  0.1541004513900949
  0.5822231113156795  0.5682986102508305  0.2804908285065058
  0.3732079220628194  0.5130762918568003  0.8385187938060100
  0.4060310091538336  0.4642678858722568  0.0645656265817502
  0.5688952044045309  0.6041317294074944  0.5869886186192002
  0.2664387071096550  0.6247295696796171  0.6683270444799759
  0.3059671590696913  0.5171112787208043  0.4501961871110732
  0.4517282679439618  0.3161037713177016  0.5779784018627080
  0.4550141690854679  0.4305855751329312  0.7950990009283276
  0.5318357231965305  0.0211123425422890  0.0939983871773722
  0.3697747765010397  0.5910619166069391  0.7256389430825367
  0.2831884104770002  0.7385003835791911  0.9596012358328703
  0.5589437533471915  0.3987602025564453  0.1589079630391267
  0.2037807708190499  0.6867932146437449  0.7759699524356155
  0.5125101969688080  0.3795371950178299  0.8788064062877144
  0.2750005129139011  0.6051774113972344  0.1643205331583175