 B Cr Fe 
 1.0000000000000000
    20.0899999999999999    0.0000000000000000    0.0000000000000000
     0.0000000000000000   20.0899999999999999    0.0000000000000000
     0.0000000000000000    0.0000000000000000   20.0899999999999999
 B   Cr  Fe 
 137 206 480
Direct
  0.6348595472811698  0.8548689199463211  0.4008726548941192
  0.2556260777683094  0.3437489584423282  0.1735277055520991
  0.4195939475888513  0.6925434120839025  0.5124924450034400
  0.0735215931178895  0.7211511842854734  0.0377185904222707
  0.6255623143148250  0.1156004679499929  0.4428720316473841
  0.0280826159426972  0.9622442152628325  0.8758813759050827
  0.9478867394201421  0.1141182691680739  0.6341339288957983
  0.2082542485903504  0.0946447720035125  0.4652344568493816
  0.8627607444329006  0.9913283274516440  0.5181013613046863
  0.0608751901588810  0.6052020706948302  0.1602034159513527
  0.8975535997749732  0.8272557515482459  0.6707842831231072
  0.5005756696621937  0.3536146318286905  0.4378080527468806
  0.8051279601498964  0.1441211154171840  0.8394181595717010
  0.9090521288571112  0.2364561583912625  0.1222467997572219
  0.7326547857312641  0.6773346683955866  0.4141576410794354
  0.4453070070077831  0.2405479350735496  0.2644575083253885
  0.7221042627145270  0.4810639787066277  0.1553789962854869
  0.0257913060096685  0.5298657851808275  0.1974844944760726
  0.1976232320466007  0.7264798475101991  0.8743773834809265
  0.5953514678569251  0.9743235412610779  0.8472846547308428
  0.7330097457899889  0.3679421855235864  0.8342155215429959
  0.0469975847417096  0.0846805942264838  0.9913011046870226
  0.7766156640697880  0.1559612766418875  0.5115336085758105
  0.2134730289519108  0.7782576988344183  0.2967759051818029
  0.9213432478038528  0.5389968095318568  0.0254559947387259
  0.2367439907927331  0.7158842215169060  0.2336997868887605
  0.0949834754069640  0.8326953326185706  0.3807228294143323
  0.4289558047989899  0.6396677873697185  0.1986796186740088
  0.3866705610576692  0.0588656403001296  0.5458018183576165
  0.0666993313036726  0.9561016434181719  0.2876535615915473
  0.4857257314629215  0.4856543553183710  0.7090132868675245
  0.4875135865970918  0.1183337243409757  0.0901503850272186
  0.5907787076552753  0.9265744229267040  0.3781326334316447
  0.2174219362977467  0.9781344018511221  0.5633196046871437
  0.3512806348519764  0.1298633294493415  0.0250419328696252
  0.2886366925807273  0.9722691207077381  0.9695368403126448
  0.8735240312282166  0.6125545507906989  0.8356062393629832
  0.3427790398886186  0.5877224583690556  0.8917966176743208
  0.7447836371502682  0.7986229633955984  0.2172323515633549
  0.8750293396759512  0.0456891677243753  0.0912530771145686
  0.1917503028363702  0.5013094316446759  0.4916489191803440
  0.7097506100753913  0.6505661241928853  0.0628728134160306
  0.0169346391780348  0.7599824001125572  0.9020174738208488
  0.1574929844625220  0.5585567196376336  0.6456531876599155
  0.7487339484120890  0.6139037046657073  0.2629757365091272
  0.0305232912005406  0.9811010922828878  0.6536522586200857
  0.3897797231970785  0.6117945945839089  0.8119202752744294
  0.0386667973207942  0.6030614018336558  0.8640943194296985
  0.6462269121120447  0.5445320313382042  0.9688372276973999
  0.9697972559886934  0.3770701608629238  0.0563946991442780
  0.5213836793693206  0.7449071624799074  0.6904422617368655
  0.9220812190306558  0.1373023491600370  0.4475016499225706
  0.9893714677550022  0.8344484139779139  0.9486855278223615
  0.1270798786559823  0.1095064162501448  0.1839302768041446
  0.1361953443246000  0.2532808217965746  0.5395516902591158
  0.1851756545627535  0.2007111475480310  0.2878549389896354
  0.5432068595415691  0.9501055285654394  0.4913981235319642
  0.9667218366220491  0.7725750898436737  0.3141284452139194
  0.8195553867124774  0.8934260465623611  0.7906458105538170
  0.1201131253308353  0.4095533498098278  0.1416345038856006
  0.6178821970962894  0.2806913123116826  0.9102252287271794
  0.0679967735244901  0.3575855143207947  0.8654284480175982
  0.9402983504466875  0.4437260644482225  0.2985824921746295
  0.3349456636275918  0.0662191379410968  0.3095751141738829
  0.8231411207417696  0.2306302083742816  0.9929657141089429
  0.9276703950440156  0.7585219475341700  0.7145857724593034
  0.5184534409188504  0.3114149952816571  0.6367953633218622
  0.0383324731677798  0.5653401897622020  0.0089369844581715
  0.8818925655915818  0.3111773936340607  0.8334845244332439
  0.7483325112756014  0.7261616611289100  0.6240916325765745
  0.6385773274243978  0.6244071281883445  0.1118894177340057
  0.4147442103863411  0.2373354799946799  0.6031568550420764
  0.3151478373906925  0.8099811789435633  0.4946293468676455
  0.0587898918362786  0.2833623173433777  0.3940076886874710
  0.4739015325576897  0.0643725365711303  0.0222320516286484
  0.9172940980379469  0.3999182605675026  0.9957692264904241
  0.2959739425373366  0.4953002380745058  0.2576169346513603
  0.1623048870241041  0.2538893534985218  0.2159641645618771
  0.9134843091983375  0.3908317461350620  0.1543365504270634
  0.7047801730872679  0.2385226643222862  0.0937186849031655
  0.9937684440289886  0.6646083572487066  0.4080648424837563
  0.2808107843216162  0.4654685550219667  0.0771318072065579
  0.2530545721521079  0.9162917696208396  0.6112115428880937
  0.3831918197186152  0.3700376533048337  0.7065921507734179
  0.0796535390757818  0.8200072298932591  0.6065649229963146
  0.6303876968143102  0.4331082003960107  0.5026078126538521
  0.4797853324577163  0.8029776023475194  0.9475650752148759
  0.0100250518556527  0.8499041927488715  0.2148414536743094
  0.4793122232310685  0.3264397613229933  0.9624591153504352
  0.5510747424380206  0.7497897512886892  0.3020293514390535
  0.3664147799571771  0.8689829048450195  0.5271477991173381
  0.8455022213322182  0.9297844466978000  0.9912686251851811
  0.0424291341543712  0.6879107060206955  0.8546217373987621
  0.0462740570052510  0.4955431782101157  0.5590746313815553
  0.7302658087550910  0.1321292976116734  0.0761867039523295
  0.2064909615067678  0.0024134980545123  0.9774220703468635
  0.6557536844293285  0.5758398006618952  0.5423916687502132
  0.2571285497492414  0.6356930595233286  0.2536819005852485
  0.5287935103604409  0.1628508718394962  0.9311103449716284
  0.0415955971505795  0.2714534177126204  0.5581659711445554
  0.5317696556714054  0.6696439323171024  0.9409195654358973
  0.9163920610357753  0.3918542672550582  0.4463854372995115
  0.9316010046228641  0.4103577825303294  0.6058332959989120
  0.3196201292115479  0.0204793920533317  0.7110858588195613
  0.0508946525230368  0.9038788396837715  0.9528851120567911
  0.7971117199475302  0.5006284150381176  0.1122816563581718
  0.1491727575039755  0.9503388396242878  0.1557700833397998
  0.3618149251695463  0.7636877856469515  0.1461364074343255
  0.7387573742875700  0.1962631297876125  0.0199071158290465
  0.7726361884250635  0.2216305311118351  0.8247074939390064
  0.0673794748211676  0.3574885678093279  0.2881584247028164
  0.9413177643631323  0.5788617724201865  0.6892663060672668
  0.3121955579051267  0.6278945563069135  0.4094477543720050
  0.3260110681709338  0.3305795710418312  0.9561670463441052
  0.9192726545313172  0.6160658654872535  0.3057379750976349
  0.7915659574328903  0.3037766543858930  0.2546636741899875
  0.5844868322210527  0.7092108700432809  0.5511870596097918
  0.0771488479305394  0.3725570264152687  0.6853639724682097
  0.2504269753632435  0.0687188804489793  0.2657682079815955
  0.5786343217390332  0.8916051251414480  0.2075291958908087
  0.7084641447883446  0.0856084778434290  0.6132805142355666
  0.2228890964127082  0.8278119233699688  0.1317945538176884
  0.1013114667577318  0.9254653660658105  0.4973700221443647
  0.0719314049550792  0.2717613215683741  0.0896907400447393
  0.6675102450303615  0.3663535534688331  0.0325918476324814
  0.4476153556174107  0.2603608740976937  0.0286866050966678
  0.2519625982410201  0.9072357339661475  0.7760937743706600
  0.7823771307940688  0.5503025262909987  0.3065223332255784
  0.6766126524282308  0.2937541018118826  0.6467007589760011
  0.9086628257402788  0.1488346517239786  0.2456154578074166
  0.5018453625212164  0.5286424499308655  0.9767787412761371
  0.3326880563928833  0.7542251299118529  0.6469872905168831
  0.0243163765025339  0.4283470567522162  0.3146271086698383
  0.6717343892570325  0.3815109748198689  0.3207705680827198
  0.4353810532696618  0.9541947297205668  0.8257627901423271
  0.7189435672190393  0.6171716436970546  0.4776797230898889
  0.2633417114642507  0.3855059645325094  0.6004628042101866
  0.8192464122257684  0.1164095844857261  0.0227760960477266
  0.7441643147684086  0.7208579327347934  0.9938888377252491
  0.4547032647394691  0.8619434461185423  0.8663420997919037
  0.2547452022199301  0.1790641852036803  0.7364793664391480
  0.1107279596611010  0.6237220651860756  0.0678672412546427
  0.8207655015379449  0.7562849903783475  0.6991810968478113
  0.0164008326612424  0.1235876919602606  0.1937371189615146
  0.2481788203336658  0.0574406959551491  0.3728659047064450
  0.2050155024059354  0.8236301991101675  0.9132773925475466
  0.1713146657520805  0.3641349497080382  0.2359642257981389
  0.1874075514646984  0.1662876083518568  0.3921290108360931
  0.8834372390458630  0.1423550987400267  0.9246642141490746
  0.3131323226788843  0.0031910413059073  0.6008060422188961
  0.8045014962489822  0.8121318534784295  0.5961027675667366
  0.2284776801931155  0.0361929651915976  0.7750453989780060
  0.0409608710519847  0.9325390135702959  0.1274709203776451
  0.1627913350635129  0.8808244246420932  0.5684428597888798
  0.1056243928110823  0.9493342480580863  0.3830117197645662
  0.9813171531147129  0.9667986311841822  0.3672165675571605
  0.2643446359789549  0.2454396239922381  0.9307416997142107
  0.9707657463445357  0.7541538547662349  0.2039110611488691
  0.0292881006078921  0.9436227511508648  0.7662331858322915
  0.1035028510280919  0.9985912450704164  0.9453446346197424
  0.0545308752334531  0.2542800217435467  0.9162948924905298
  0.5303971960140220  0.9220132112620864  0.7776230951731263
  0.3271519930175461  0.3002725252275273  0.6320690853475965
  0.6992920635088059  0.0041813584065955  0.8582308588321041
  0.0974082959051987  0.5836811810049393  0.2605369431621785
  0.7847563014029036  0.0804477871540409  0.1512958367759217
  0.8920665353380035  0.8378078738295915  0.0017945410173108
  0.1730324951652360  0.3095490059750919  0.1212462784927092
  0.0762193531220346  0.4797219361357606  0.6720042909776536
  0.5602589024796675  0.5193862996598606  0.5262087665358157
  0.5721148375829862  0.0258277895012469  0.4013037633351033
  0.9052347419759872  0.8778725131101676  0.5789007778250815
  0.4998361412467152  0.8932688476973573  0.6667811598147435
  0.6446824195617403  0.7577103592085579  0.2455754169190534
  0.7894279023664996  0.5557124047965166  0.4222343833624712
  0.2219413715598051  0.6614701969794278  0.4487862580293171
  0.2123781424989850  0.0339274523879354  0.1751773927970582
  0.1384410971583047  0.6371392929544354  0.8686129961424459
  0.0796159008019669  0.5950407754466198  0.5812806635365643
  0.9654831128563659  0.6191057026611125  0.2038208424850992
  0.9501993337150422  0.6702209602945564  0.8994470247214778
  0.0763393151894101  0.7769815095042661  0.2838257102108753
  0.2446522819955557  0.4967824891292710  0.6542757897246860
  0.2132813109215836  0.5445242104698229  0.0831684655815086
  0.4920822412012272  0.4960459165956870  0.8737256890673958
  0.1097000058384228  0.7593807853625333  0.7071936010046310
  0.9039794381152378  0.7147578964143453  0.3822239901166601
  0.3854006849095931  0.0926219546827892  0.4436707158070362
  0.8760425746406381  0.6799712308899721  0.1380771699532100
  0.8246671578751882  0.6870866125692378  0.8920321845883177
  0.0144312429713860  0.4368085926165274  0.1361563110920313
  0.9354484856044710  0.6791429567913897  0.4967755860710409
  0.3411049271848184  0.2328834108448142  0.0234524766392527
  0.4214073915468172  0.8192604931010106  0.4465638268819985
  0.0950598011573004  0.8079884105866096  0.9788231368277024
  0.3932953027470484  0.5129298798501598  0.9542124392874145
  0.2172605111868479  0.4420340828653804  0.1608285822213834
  0.2890094909791869  0.0292656832882047  0.4851306118937571
  0.8136256982036993  0.4035305390994307  0.9856592081785619
  0.0552102380980598  0.6549735785549317  0.9565853446851995
  0.2809274740166519  0.4554510490537756  0.8823849211554586
  0.2901310257741014  0.8045733536257107  0.2217508569868383
  0.0001770912380921  0.3536275725716438  0.9506860870011631
  0.0837817474961640  0.1815611118275365  0.3590398286445117
  0.0462548150949918  0.4128984723411965  0.7770316330869692
  0.0480651293607664  0.7965358559842779  0.1284451634188271
  0.0994960886256746  0.0269715582888320  0.7186153357370820
  0.7621508021353940  0.6312844180375766  0.6714832972148547
  0.9643537723804356  0.2249823106635614  0.4005653812503336
  0.0009779420652106  0.3337760874774831  0.4743570528506741
  0.8906236290860863  0.0833681253963043  0.8166391082031269
  0.2173047433282905  0.2499269869820538  0.8106271395889659
  0.0988164896365099  0.7907800700437456  0.5002374227180776
  0.2615054563095648  0.8111350148965986  0.3977391247465403
  0.9482480321497970  0.0492304772780995  0.2461213365827505
  0.5639099646655394  0.5029794722895861  0.6553986545079620
  0.7884080088753301  0.5457388335296564  0.8602541741965796
  0.9665747101588881  0.0099760104879244  0.5750948307093682
  0.9687237188916907  0.6126649216809744  0.7883079162948471
  0.9315364678294675  0.9665422855651427  0.8269548469857246
  0.2605563795134104  0.2755062322314379  0.2522311745215692
  0.1622500667039891  0.2793690582972473  0.4346733024891316
  0.3638785190105060  0.2094462683401565  0.8084963439910611
  0.0668409288210388  0.2116785450387539  0.4738837047381915
  0.1234913134421268  0.3258375491013093  0.7694743995527245
  0.1484114202621084  0.1262022407160263  0.7986717085123604
  0.0389487245660798  0.3953157085317831  0.5866613584938477
  0.8983884969694352  0.1298189231817668  0.1438964362316553
  0.1053001935211972  0.6750993507648729  0.3965055128341831
  0.7473454799130215  0.5939368804666618  0.1520137294511521
  0.7552662668183020  0.0104261312347678  0.6662620989144369
  0.7534202820202537  0.8664051745881537  0.0000224526061532
  0.8294570605762318  0.6770733224019796  0.5807391773449881
  0.2225729587563140  0.3664663072152995  0.3540870747073168
  0.5045307714701187  0.1988432944104391  0.6440435139663043
  0.0874200015864609  0.5232574670534994  0.9209882627688647
  0.9752129564817694  0.3501128848530943  0.3630140621485774
  0.1715492586470610  0.9848875992337807  0.2866889516654282
  0.7192301552554262  0.7253267771084070  0.1384429547743373
  0.3658457627090829  0.2312956046136927  0.3419108722551233
  0.7510576677139367  0.9917883111910539  0.2585986371741018
  0.2036550780569147  0.0815497549067194  0.5717429757373925
  0.3784244165665377  0.0462328957736897  0.9699337234778604
  0.8046247785119883  0.3048931690541337  0.9130278020533040
  0.6925437600758345  0.1418380183061466  0.8288103322969209
  0.6164239549316697  0.9707621397140396  0.2785650076604436
  0.8502888959095125  0.3593628002254390  0.6600871376342269
  0.7833152156024236  0.0385365430356667  0.3544385645250411
  0.9005044362339153  0.4032392207235189  0.7845156724809409
  0.4795221971312010  0.0361848544007221  0.5010352806417280
  0.5524985119059115  0.2434223461210101  0.9927618636031255
  0.4571081463552470  0.1190056789482652  0.7426011306194088
  0.4147490191677174  0.0055427572675688  0.2640874546562211
  0.6041869526806576  0.3787663953266708  0.6581366338048344
  0.3927082406019427  0.0833479118339627  0.6512693214788199
  0.3100328973129625  0.8190749598714515  0.7310742530879036
  0.4489842626228965  0.1615174077199758  0.9987394129000163
  0.8778159520084832  0.1193983216733003  0.5513491093194434
  0.5574749967492577  0.2572014091166113  0.2879910106814753
  0.2344566528175247  0.9294581814068138  0.0736528791017584
  0.3857444359852428  0.3276325089692736  0.2342028346530254
  0.0927742041249506  0.1865909061662634  0.0187088903541217
  0.3880290698105173  0.8846496087473888  0.6299516574498857
  0.3387470323201027  0.2361291274480641  0.5307310370691124
  0.5141828331914339  0.4886340424676731  0.3294739779966515
  0.2251025643593812  0.9464192275410810  0.8792541682093880
  0.4620456994490860  0.5810992439333167  0.6601475284255699
  0.7646838881903341  0.9607043215956980  0.4664287094762997
  0.5438638889850524  0.3979531408301983  0.5615697919006397
  0.2060775473273632  0.3932770611501770  0.4848919896445827
  0.1656707829724261  0.3940930911623711  0.6257210563822755
  0.8472214436611224  0.4609999926321017  0.5647058069793967
  0.5188814987460775  0.2622345705811787  0.8800367065118281
  0.3356473402830216  0.6967860368902553  0.7404958292004113
  0.2515778399459119  0.6427310324509546  0.9073827627119445
  0.5188185972079425  0.6506523692911845  0.4799620034070072
  0.3628235236426655  0.4271948805208880  0.6092883596828086
  0.8021099695280977  0.3941678866451159  0.1362648666457378
  0.3795786965337480  0.4789311866381331  0.7071730944024086
  0.1709960444139365  0.5692208145915106  0.7484991795378918
  0.2667719536447650  0.7004416410764888  0.5771237711176529
  0.4770553450184872  0.8199588039165587  0.3365214907659077
  0.7141983222355232  0.8297523299578831  0.3166708126982200
  0.9774918472449771  0.4702327412214546  0.3998304372764648
  0.5440535036021656  0.6728937517321849  0.0529873865683595
  0.1907740201847734  0.4708603084399657  0.2844310226680727
  0.4990387019099554  0.6248195327664696  0.3604885630820825
  0.4534594088501896  0.6807496807586764  0.7517958835735047
  0.0282562007859695  0.9044447640544031  0.5695043526772501
  0.7322732494754317  0.8419377647611170  0.7379147846707719
  0.4453514230169883  0.5917303873471988  0.5487479213304801
  0.3983983144959549  0.3974366940416557  0.9032184004266486
  0.5268191958944848  0.7910593024217558  0.0739623792117026
  0.3323195365379334  0.0853279027819322  0.1990930354304027
  0.5781902285086863  0.1140687745909412  0.1522149560952653
  0.4949131370535729  0.2595024794122089  0.5239539220172026
  0.7631348547489547  0.3158113095075268  0.0505576643496920
  0.6310174460292597  0.2212898972811040  0.4741203724064149
  0.6131093163102381  0.4444849004243225  0.2476251884651325
  0.8184006879069357  0.2005084814265399  0.2242262853087867
  0.7823065710897565  0.4374048538553250  0.7551460749365424
  0.6956126957889730  0.2460183033063287  0.2709864112698718
  0.5163687785790232  0.0388921335668957  0.8093484815254343
  0.5302413954158584  0.3318014745673249  0.7597018331094958
  0.6117772136303357  0.3034731775998449  0.0923320478133921
  0.7001867911647095  0.2285044676520533  0.7379586623149530
  0.6148895787018602  0.7034923923683374  0.6592812122455908
  0.5410138305864376  0.6680670083358132  0.2389062275060913
  0.7016348564153586  0.3801194132571035  0.9357580301058394
  0.6285778000132930  0.8610872477383733  0.0324284487444206
  0.8063363197138572  0.2107552111469955  0.1047589647245220
  0.2652399082877768  0.6972762875447143  0.3402557225688493
  0.5262047519736235  0.9033530521121166  0.1029812201069803
  0.8061136161863621  0.8950044179823002  0.3511517376073473
  0.7262679231067194  0.1545727359761926  0.4095180880199242
  0.5881431878348170  0.8490023724340505  0.3094880829360121
  0.8510800883654946  0.3988622236443038  0.2520561502381868
  0.7661686442326467  0.5020393369691201  0.6555558180801208
  0.4753577160962841  0.8957838105395105  0.2294150634257483
  0.3273056782760381  0.4212156392549610  0.4403430626587648
  0.5288803171561702  0.5987677415531401  0.1509157521159091
  0.8795608517048576  0.3142308984596733  0.0463577816495056
  0.6383562791526178  0.6545643851129717  0.9795243781471070
  0.7965875370063565  0.7624137325550384  0.4024239422898629
  0.6569023923340809  0.2820079469324280  0.3738364249163969
  0.6354367227952626  0.0366229927876561  0.7665072378766323
  0.6928176466262691  0.5883101424795789  0.3573576428251105
  0.4500730465575916  0.6070379005244876  0.9065605050340969
  0.6986214664411169  0.5467005632461588  0.0582285128797333
  0.6354811332057764  0.1782212075708222  0.9270319838110539
  0.6235699117771558  0.7937370169773340  0.4972961386875173
  0.7046663717866319  0.1633084870746341  0.1729092835987537
  0.5094156988895107  0.4838238976782819  0.0842272268531512
  0.5667359205731914  0.4394403004472739  0.7710148890608326
  0.5991042405054221  0.4631787184765472  0.9102671239888109
  0.6743118247469742  0.5823903641950865  0.8692054734992640
  0.6040207562464422  0.8867282086751658  0.5758264056184415
  0.8099359068154969  0.1822719668522603  0.7348308030445823
  0.6734532224951559  0.3470969448495540  0.7491564381052033
  0.5719411740409243  0.8314275320455798  0.8685575225077730
  0.8321946569194314  0.2479209475670558  0.5471267207249242
  0.7562130835810055  0.4611600119923199  0.3518923248266494
  0.4855819767203803  0.7351124087509510  0.8676967269348697
  0.4770282186015863  0.3966633081115457  0.6701293582041764
  0.6176738356969614  0.0643960339591493  0.6377687698904717
  0.6091922147504207  0.0559996416939040  0.9036862166594971
  0.6816432764825503  0.9885176793854229  0.5692135653820505
  0.5171806830710737  0.2148440499380141  0.0970964213323649
  0.6488924364054400  0.1829442846988228  0.6316700480153473
  0.6769514502388762  0.2714082901502926  0.9900459727513699
  0.3417945203962415  0.4037828666596738  0.7960817295606714
  0.4862495444313811  0.1778835612824290  0.3407250684023420
  0.0191128524868526  0.7640903171682724  0.4022947714122829
  0.6081872478507209  0.2408109333743697  0.8093594038585495
  0.1654693082102183  0.8701852897890944  0.4435337823132309
  0.8010544599247140  0.7863149456396027  0.8158000680619946
  0.1665306055400298  0.8649677907115505  0.3145288632915107
  0.1007874371666185  0.8896925740279131  0.2200358668330973
  0.1617935675740101  0.7114284130064600  0.9721049195352059
  0.1489905408979645  0.7394435179797945  0.0948280293895565
  0.0008912556643075  0.7567660544153729  0.7936334797002695
  0.6103208773121639  0.2306924756781748  0.1740070688050983
  0.5197598106546620  0.1368697822271409  0.4472638203541928
  0.5633148414452801  0.1391037154002955  0.8376898104052679
  0.6207662390044040  0.1523375056512019  0.2575141357510574
  0.7827441371990894  0.0750368183437404  0.9043331631791565
  0.5276285025740917  0.0171983101218388  0.6994412746281791
  0.9984558160034829  0.6907815172355325  0.6943165976860416
  0.9140816833436296  0.7831281429406033  0.8918985131355643
  0.0819364351569563  0.8423949113787970  0.7682648848362899
  0.9926256331885702  0.1673107383097225  0.9649999192487012
  0.6432526148915003  0.9042455299797629  0.7988724171286196
  0.8333837016086132  0.8690299002670119  0.4789280712737384
  0.8275117328202586  0.8946094807080334  0.6857711655306472
  0.8091497433141359  0.7750654052543804  0.0663247003894744
  0.7280835659223818  0.8529052705376761  0.4308124249260956
  0.0005104125128044  0.8607221705777032  0.8543344916964978
  0.7964682727071154  0.0013384404620579  0.0527692228518975
  0.9366010084448181  0.0399507184119283  0.4688336558524028
  0.0791949571513709  0.5306414694373466  0.8017549227213254
  0.8192766679511901  0.7859340289934923  0.2952315275657235
  0.9060293889744023  0.2851387125903826  0.7305334606574051
  0.7407176366700243  0.1297874595731759  0.2838992832420941
  0.6829356712419389  0.1280263816137986  0.5290243011518279
  0.8397834844231458  0.0762081838108323  0.2518162477286308
  0.8035641145261807  0.4298532607954158  0.8691364935926247
  0.9749145500728763  0.3897538533044654  0.6940498400593200
  0.9456558017198348  0.6335849375826432  0.0244843108605827
  0.6975939516674058  0.0822268666545296  0.9836569701474719
  0.9608611548187604  0.4513338450952630  0.5152255374639775
  0.8947929462452241  0.3483985894894117  0.5345548275453218
  0.9159643476555746  0.0624168072366431  0.3568485273406738
  0.9036798763210757  0.3784744592229087  0.8992406101586505
  0.6377652351365297  0.1780765075753873  0.0619942127111966
  0.8768100772532778  0.5651298265076907  0.1204320412972564
  0.9484078652565484  0.0832206907312657  0.0335017774616196
  0.5491654554841583  0.9771090017559805  0.5909524104203473
  0.7815928336011002  0.2344923848743579  0.3455829868268586
  0.8729527251598324  0.0001743320637497  0.6231326907260930
  0.1619020736399018  0.7611811903689429  0.3861381422255970
  0.9908183147242353  0.5363560293281587  0.2944277222425088
  0.3205733586794789  0.2919940450422464  0.7461329909783819
  0.0451197003791908  0.0028723181343191  0.4738432940293806
  0.9995526730899429  0.4646803293232385  0.0049379594777479
  0.8436842621800924  0.7909855357673190  0.1762922461772173
  0.5369832968186683  0.0768900624169103  0.2836167065797897
  0.0483075670589024  0.0532967035983402  0.3111546841359861
  0.9342947857397094  0.8740053462754300  0.1480073857479647
  0.5906855488929528  0.7110237517498930  0.1474926897479703
  0.4061045353717367  0.8012068908281159  0.2346348374025294
  0.4989375546855296  0.3862707784767656  0.2610043404493025
  0.6975134347822110  0.0420371100165053  0.4483260315145776
  0.8874634670464988  0.2064771121831753  0.6369344186821301
  0.7278305308113956  0.8472639894064765  0.1216723016045968
  0.6405620895435242  0.9206910726806450  0.9246493579143579
  0.1202883339768267  0.5237791997047443  0.1548587229844410
  0.9377132290194474  0.1639818145541800  0.7348490454481543
  0.7035494006016026  0.2751309455057794  0.8614667150958993
  0.7745231017572298  0.1605708907320619  0.6152456476942508
  0.7459067146981081  0.2811190856162454  0.4536964993804661
  0.8622723096999184  0.3041094644515873  0.1780574850082356
  0.8733361386108741  0.5171012627292833  0.3220976216408384
  0.7750121121653746  0.0662742033127249  0.7784879704318759
  0.7309024227486128  0.3899523265469125  0.6516705431100851
  0.1045724850144660  0.4929522330743833  0.0447036646816055
  0.6651903695883317  0.4666983492524995  0.7105631332673584
  0.3925668061293896  0.0600858106303231  0.0867670834189958
  0.0941391999418483  0.4919994574119522  0.3460302777665283
  0.9633016689653369  0.0418471851845546  0.7072808432371512
  0.0495253593035487  0.0825682166130235  0.6254288156660772
  0.0745142054399937  0.6966239575165191  0.1995818278114076
  0.0066425983681379  0.6810588020728753  0.1050727740721982
  0.2240195348269674  0.1678985864368128  0.1972508146229448
  0.0840595474292290  0.6599866001741668  0.7686102646571532
  0.0479518593868078  0.5840338152111088  0.6908451419378380
  0.3256971629395929  0.6245138570259265  0.5199364719516008
  0.9621194435023422  0.6309287607273599  0.5977152439778922
  0.0449748306014565  0.6738781513781192  0.4937700976268063
  0.1662509174509207  0.7706864914672253  0.6037206316945434
  0.0318924009951022  0.8773682666197179  0.4428868097434962
  0.1741739238198841  0.9930715736473369  0.4758425741202851
  0.0024348096527819  0.8172736047779373  0.6722599062254918
  0.9490247224253953  0.9242834968703439  0.6805847778013416
  0.2372802192925533  0.2008674929272155  0.6213845093587076
  0.2492466936994422  0.2514595428916240  0.3562192945058175
  0.1840883369293373  0.1100772190377195  0.0985026784348898
  0.0940605773727394  0.9053670238667737  0.6686653326552220
  0.2122532372037942  0.2134958758706951  0.0496601939799865
  0.2718331217512293  0.0392492432241039  0.0491961265238051
  0.4181711764071854  0.9951532613050373  0.7301303590619088
  0.1105342535680879  0.9951212191571119  0.5820048328844094
  0.2086058288472935  0.1891220131130976  0.5073008578660739
  0.1588606770922497  0.1024699066916892  0.2818538465242448
  0.2265489887641998  0.9044954212690476  0.2006144499305369
  0.0848428667410581  0.0181642802039622  0.2002832137967384
  0.2989913100288349  0.0424821064917818  0.8888330672294513
  0.1503368274491935  0.0917213556398435  0.9957859938931409
  0.1901775284932017  0.0692258284397163  0.8924513927714782
  0.9077231863951932  0.8417455342901889  0.7749609068302581
  0.2648369932629333  0.7332455968357621  0.1316039701465635
  0.5809238013116437  0.5661447004928555  0.4041852391795999
  0.3548947305355543  0.9951434114679295  0.3809583174521134
  0.5562131248520823  0.7471512621445663  0.4020467185977563
  0.3737150395587238  0.5133049979355871  0.8310677547520128
  0.6603001455047476  0.6385480745104858  0.2195411425006353
  0.2575452767414214  0.6179125893715606  0.6767477422492406
  0.3811671141480218  0.7912021994695051  0.9240819983843115
  0.2707859612552353  0.5441048771209058  0.4467540406864592
  0.4316056997475857  0.9613368717496831  0.1385261407104414
  0.4505495795008637  0.4285163205563995  0.7858120542513533
  0.4522044754446084  0.5916905395761848  0.0386298192413558
  0.3624078029730406  0.5861506884863945  0.7201211744405356
  0.4521201411426336  0.7114810181699851  0.9927977978732504
  0.5605740765829627  0.4025030671107473  0.1490068489567911
  0.3789706074715183  0.9414642804477248  0.9176790477853648
  0.3343889516940925  0.5573880670284614  0.0607176006563726
  0.5102033591365951  0.3804001733733795  0.8738545322556034
  0.4334809156003763  0.2835888147102873  0.6924950876383847
  0.1979881853769669  0.8206170875693086  0.7965988482386223
  0.4089696619788217  0.1283234264127150  0.2805014410595895
  0.3089468287096293  0.9257201938909694  0.6933172118016108
  0.4636420896057187  0.9667099869334962  0.0121728464427478
  0.3286203828523612  0.9700672636351257  0.8036886049068437
  0.2836963445938637  0.6070424122690518  0.8049376939248194
  0.3808969763472284  0.9647460647873016  0.5046634545801681
  0.4757433520988113  0.5261708632417016  0.4443762870096631
  0.6702406230485641  0.7572366752663106  0.3967101224863752