 B Cr Fe 
 1.0000000000000000
    20.0899999999999999    0.0000000000000000    0.0000000000000000
     0.0000000000000000   20.0899999999999999    0.0000000000000000
     0.0000000000000000    0.0000000000000000   20.0899999999999999
 B   Cr  Fe 
 137 206 480
Direct
  0.6251100774106637  0.8667584917446443  0.3971556321291990
  0.5275681260129682  0.1131958249315527  0.4475870089798199
  0.4793562163181733  0.0965665373534355  0.0385891915344015
  0.9567494337704553  0.7754275190247076  0.3169680219558062
  0.2082802435289348  0.2090274654661182  0.2745226603127638
  0.0232253410984211  0.9824677147081746  0.8608081207934284
  0.5133300291618430  0.3124289896444371  0.6473221029458600
  0.9147422229369906  0.7530536858399979  0.7062483651754488
  0.1192984534171446  0.4105153623248773  0.1665761535989971
  0.0633618393384228  0.6061945988755856  0.1630071096431996
  0.2491887322313924  0.3696665530957385  0.5862172180675329
  0.3815103467813599  0.1327602440500138  0.3584523460940615
  0.8192149015164116  0.9001025333587238  0.7918266572265534
  0.7111863111394124  0.4831330125264481  0.1751730057284721
  0.2316894288613364  0.1091842717887819  0.4458443703755932
  0.8175323438808262  0.1315168050955763  0.3532162147208327
  0.3498185852055875  0.4539307639463108  0.3389184406581874
  0.0223407229295017  0.5345735792999833  0.1981862621916170
  0.1906516957626692  0.7113074507173350  0.8845187090413804
  0.1577708513481379  0.8254282744042784  0.7315097244003124
  0.7339396665399480  0.3630846083636388  0.8364448181034555
  0.0515743846627628  0.0841099342698173  0.9899470782682580
  0.3755122887892660  0.0968735909107403  0.1563690154358286
  0.1803444250386451  0.7552202219296659  0.3127104021067675
  0.9305127336801512  0.5490670758559955  0.0146987646340306
  0.2223821512336834  0.7350934059203297  0.0473806341655646
  0.7316620183592740  0.4290788952066051  0.0348038218191075
  0.3943455410989281  0.6092622723385239  0.1783800383563784
  0.1030444472151799  0.0699898312889480  0.5308722031457298
  0.7580432907649166  0.4791286303987822  0.4562806944438826
  0.1765425307464191  0.4832385031465113  0.6485856156958342
  0.3283800239306943  0.7438423822879896  0.6505944501516030
  0.9649871755431352  0.8487154678359489  0.9329211828845739
  0.1314639628949295  0.1111933119719770  0.1767962878507509
  0.8800623877515498  0.8234662272913831  0.6644212103362040
  0.6976495564523698  0.0861686178440496  0.5760123465271311
  0.4991561285014712  0.3519683480062081  0.4378750843239821
  0.1665464987136729  0.4806877461915539  0.5211414561124157
  0.7435209562354561  0.7948262144583489  0.2245751778010854
  0.7837108129571939  0.0249466685833630  0.2356243690668615
  0.4476153620577734  0.1989624979118020  0.1655413046692052
  0.9091929202492031  0.3987289593845728  0.1498682322147254
  0.4697306516687150  0.0496521218325444  0.2597950744390578
  0.4127675052042684  0.6756999610958505  0.5278909408444727
  0.8978414119355099  0.2390597681811893  0.1209518600862856
  0.0543699875484213  0.7093780171496348  0.0355700022507991
  0.3542511483226748  0.5869925105765257  0.8954757126383086
  0.0363342891089904  0.6014128190747309  0.8537496390351667
  0.6485767639736647  0.5419253742641590  0.9740897267956363
  0.3552642004150169  0.5928963715084279  0.7039311039771259
  0.7237921797484893  0.9023017210612947  0.6414617633432738
  0.9299289571351025  0.1375637563820024  0.4544150665782191
  0.3602437208858915  0.9576537378859911  0.0260198719259099
  0.2315295698870181  0.0336825641045467  0.0661495387432792
  0.8808740034036858  0.6163027143757926  0.8327654963815172
  0.0320430598994951  0.9797869750477428  0.6581534221676012
  0.0092044791343732  0.7967833712589873  0.8779105568298072
  0.2196872928447986  0.5290852282578226  0.1504952591038759
  0.7803648858267053  0.5579040178639666  0.3059154671706698
  0.8218103207984176  0.2865496091653742  0.9947728668771482
  0.8612203618957478  0.9824378760566098  0.5183583062619235
  0.2664685308734480  0.3868046922405904  0.0886130812989953
  0.5680272486405749  0.9302742808363125  0.3777073608993316
  0.8900340577823420  0.3253959958113432  0.8268361978535439
  0.2252858244363100  0.9761006155384847  0.5549010134090118
  0.6413222014285835  0.2653662271188212  0.9068816152705634
  0.9486307877320033  0.4503951305527358  0.3005319792225045
  0.0198818920133285  0.5636640759223436  0.9957968754941394
  0.9509539972743247  0.1145694622591059  0.6330494647464850
  0.7273004786031163  0.7225481049998775  0.6203395964878745
  0.7460142012415700  0.6203645482308300  0.2598144678076114
  0.4109964650610149  0.2483147576016577  0.6050556809361340
  0.4759165281341477  0.7039751632730686  0.0998674514227625
  0.0516829325640589  0.2914199076167393  0.4116572509887496
  0.7346867829114545  0.6823628957354889  0.4076688274499796
  0.9407371429240294  0.3699722950725668  0.9771904251461296
  0.6227046962130230  0.3480278688764847  0.1779044766170342
  0.1802659483249366  0.2549821115764969  0.2004024907553478
  0.9759019523013296  0.3889764250543405  0.0518325478119049
  0.6984935791966631  0.2537310484961458  0.0947692309100908
  0.0031373551163669  0.6618631580833163  0.4088322703742707
  0.1876191837577678  0.6579932269511991  0.0750810565571156
  0.2738238215727599  0.9177827578680322  0.6008462405092598
  0.3595222774705096  0.2273048594185675  0.8507653554856907
  0.0765041724442213  0.8202626797688108  0.6089754435070245
  0.1371341613356261  0.9176007835061378  0.8729242159267515
  0.9158394873871043  0.6136848081930977  0.2968351506116922
  0.7434425079952315  0.1141687040472623  0.0710022255925770
  0.4778223950143057  0.8037551633975737  0.9393963031974508
  0.2301932178905033  0.8363412938319986  0.7825618867819498
  0.7940804968207750  0.1601939762247065  0.8415978090771192
  0.3377304574567906  0.7740416316416358  0.1600139273014551
  0.1230528833301684  0.5725097941100258  0.9773643424901681
  0.9310168194171632  0.5705432354626456  0.6880298223942781
  0.1072942620859000  0.1191206822920328  0.3412270706025549
  0.0117562300070372  0.8575993060176154  0.7457894276246432
  0.6028108167086336  0.5925910927221854  0.5140718436895653
  0.7407152989502538  0.1536036612393047  0.9931887800676845
  0.0628684867511248  0.3648681501992406  0.2992542520154441
  0.6213125040967554  0.4392652436300543  0.5087603607584255
  0.9190953718457870  0.3910778032883544  0.4440164787898264
  0.5866115396352937  0.6732085052804327  0.5511144979581435
  0.8343839014900120  0.5183081996030302  0.1416961507202552
  0.1490979348277731  0.9523321432025752  0.1732433635947175
  0.8452036975807679  0.9326900639106360  0.9954016926266943
  0.1008006331250732  0.9081643091991828  0.0325048878746973
  0.2935733604482859  0.4971515938680288  0.1915309482212185
  0.7328953065401755  0.6336949353525461  0.4812340929496030
  0.2692005804253856  0.9199464522050316  0.7653884855924353
  0.9279013990344033  0.1449408599516276  0.2405428285511903
  0.6732267359632952  0.3036318499418872  0.6483994418923215
  0.0589703498493581  0.3601420369432939  0.6672562699460803
  0.7929644754911098  0.3083969099382535  0.2517201050420413
  0.9609849872735892  0.3792152159157010  0.8063892175399362
  0.0032423964843244  0.8552996452240194  0.2281192504821824
  0.9271566742114230  0.4093738703108920  0.6005558385429710
  0.5684938995468409  0.8935948857530291  0.2081434224092442
  0.0383130236246136  0.2393628122486288  0.1801519883062723
  0.3247687682543308  0.3365003940458599  0.9477080950532708
  0.2089628050621626  0.2345931539720729  0.9748567846001578
  0.1837124052120616  0.3934347881232452  0.9634564851081661
  0.5277634233656083  0.6690740788780573  0.9413535057093415
  0.4348151243289591  0.2606619237545135  0.0293470944034343
  0.0646374357035010  0.2807500883187346  0.1019220497302208
  0.1502699904902254  0.5148139140726754  0.3239372825742396
  0.4450462204157223  0.9606359764264879  0.8299461900400052
  0.5550319562853829  0.1486079177767939  0.9236022879773514
  0.4994288619971523  0.2862437185189443  0.9747458184840483
  0.2709126806278304  0.2460718396315218  0.2252969669616543
  0.5562450227367975  0.7584389142603978  0.3134990073542968
  0.0972458269877619  0.9155917269902230  0.5050308767760194
  0.5233911723615828  0.5131757850601796  0.9797379976949739
  0.0144465126606023  0.4061013134191839  0.4434213383853374
  0.6758799184608687  0.4030695471968751  0.3227897227288147
  0.4736540901691439  0.8231543254696115  0.5929706421845883
  0.3206185698555737  0.8073085767227839  0.4967624849637040
  0.2737085250495175  0.6082941347999010  0.3053307039777463
  0.7021942025298075  0.7321218928077515  0.1447777187983478
  0.1927139958959661  0.8266974533327527  0.8887123908103133
  0.3814203987863077  0.9556734172507605  0.9187442753246435
  0.8264844909215080  0.7835299293254574  0.2960694568957812
  0.1101366772740306  0.0245589576963359  0.7175275098183417
  0.8059309003201262  0.7526600745089317  0.6961440308032669
  0.8533500241728921  0.0969736698753610  0.6818672241834280
  0.0228440326776961  0.1330936187559590  0.1903246582714208
  0.2796207816699685  0.0693635403168922  0.3563064106240454
  0.3488256654270657  0.1833978408744290  0.6553222873766660
  0.2006716092000647  0.6674616357907789  0.2541048061491997
  0.2371274162514511  0.0340617897662760  0.7678018268985419
  0.0430558123108468  0.9240643062463868  0.1332256641593550
  0.9006269234307575  0.1288140709880800  0.1397483024502018
  0.2097272345563880  0.9828705099016084  0.6606807377853999
  0.8253046599403915  0.8676389155917673  0.4798987583781743
  0.1716920032701733  0.8843523604324974  0.5691835063079550
  0.1867483262269365  0.0928672556565153  0.2719932240562727
  0.9101984765952519  0.0770007535046154  0.3622028070605578
  0.0916606175247892  0.3213412738566035  0.2065856791377686
  0.9144528733295577  0.8403204111423829  0.3985686522799153
  0.4132978385842985  0.1377333026775734  0.2531370733663969
  0.1560791565148293  0.4237043019822221  0.2751957654108934
  0.0231973025973927  0.0925231178821309  0.4070006142435162
  0.9598653917534292  0.3020616380454190  0.6160722857990455
  0.3383056876776150  0.2419899934508916  0.5293875864385945
  0.6425777100785189  0.4885537981059558  0.6009012380772986
  0.1364295956222178  0.4249680038904786  0.8588312202347345
  0.4635339070354763  0.9535134311388731  0.4160545031343503
  0.0954959600658468  0.8944877015068670  0.6801518396173543
  0.5897906088329392  0.8627925947703774  0.5886810558607896
  0.6532239925870114  0.6416880112436006  0.2188148385580404
  0.6339796895957729  0.9371553795291104  0.6850211004141915
  0.7414614869397501  0.8853984439064493  0.8678661389828422
  0.8048665419351123  0.0140418433026749  0.0604350797568619
  0.9467125717671325  0.9219689363105275  0.6880425395096289
  0.9666483523677420  0.3656224012638194  0.2364422347024213
  0.7893455994728732  0.5705694959805757  0.4132163685124917
  0.9838725135520825  0.8158001035577670  0.6554426613091221
  0.3006476548534990  0.5972413549264927  0.4116383659500030
  0.2520786512345025  0.1357574910797377  0.9753740013372182
  0.0763140004499769  0.8585732850058332  0.9367323451759396
  0.0687643982876333  0.6201101408840163  0.5863459885870230
  0.8467532810627292  0.5973066984653844  0.2176003724231362
  0.9692957597377101  0.6860231241977146  0.8760577385820135
  0.0715064329386077  0.7825124441273246  0.2936146572760974
  0.2041627925119666  0.5789033725048325  0.5857302390955362
  0.2531758864898991  0.7054631804275705  0.1503870687686306
  0.6818537390596019  0.5758442522489330  0.8765816597757411
  0.0849812008187268  0.9847378338239580  0.9439786273188577
  0.7524253675671932  0.6313396098335656  0.6779152560221856
  0.9858160168711093  0.3194625381407085  0.4936165443687318
  0.4024193995461053  0.0791852354107864  0.6399085750122726
  0.8911678821968327  0.6911150291890127  0.1332819049152156
  0.1976995232322625  0.5534664969997268  0.0540248666040016
  0.2628618738543840  0.5194521202153328  0.6993740677957295
  0.9497238450346138  0.5781721515254922  0.9133215974680300
  0.7972917774739072  0.5697468246355853  0.8825188070314984
  0.7855321081799327  0.6540726011523603  0.7884932735655164
  0.8889086074859215  0.0974327090494812  0.8158127114155848
  0.0086665008394869  0.1219104277426019  0.5241740951974800
  0.9520209584010186  0.6859043177987134  0.4985420602934587
  0.0950231976872560  0.5799020342303128  0.2650039083860400
  0.9715839015931907  0.5090030272309760  0.6105116655605616
  0.4330380612578867  0.7363061665421627  0.4341135665574031
  0.9447140660479066  0.2376171457988516  0.2156591248064449
  0.1332849790181152  0.5786236932194357  0.4843183800181245
  0.4082145677316599  0.5178755161905452  0.9669756893088562
  0.7474616184597863  0.0106610437948085  0.6625281118971605
  0.7575677271266331  0.8616070457250899  0.9985742399405337
  0.8233807590512426  0.3992394114679502  0.9855193125180779
  0.1441515411665094  0.2913884789377494  0.3133377241934230
  0.4796638308485632  0.2813595677538642  0.5291186320474622
  0.2703528273472480  0.7815120840841068  0.2520874719345589
  0.8732835356268582  0.2957463592881342  0.4177692805048490
  0.8984005315457572  0.8816164281224275  0.5796590261630711
  0.1099480567603622  0.1881304621862310  0.2552766565585475
  0.9461675021272243  0.0864894723427686  0.0352798490912521
  0.1156952060927108  0.5105822332316858  0.1485360522236964
  0.3251325543675235  0.2327583585235556  0.0229102903436501
  0.3928785945153875  0.1763971376141057  0.7643720063157181
  0.9911576733419570  0.8798433151248228  0.0334269359002578
  0.2968619767714396  0.4463727473614900  0.7900726145371566
  0.0939816022601898  0.8008414543410266  0.5072873239931559
  0.1634076064090199  0.8702660435084821  0.4392068514793091
  0.1583087805631361  0.1194015559746877  0.7866081653808528
  0.2572624206713094  0.8067853640178656  0.3985396777147027
  0.9632287034567214  0.0081194224728694  0.5796587600946053
  0.3493975618644125  0.3157318939235055  0.2425962060316763
  0.2731798343304779  0.9012547854113137  0.4925230130271084
  0.2918107982983929  0.5019372982732182  0.8891321749819372
  0.1498973609636267  0.2205776358789365  0.6848157277371105
  0.6945878684357244  0.5234028493991849  0.0704208082660299
  0.9976392037738024  0.5498674945616085  0.0983387311813412
  0.1676654452528657  0.2744458232522989  0.4333548577244932
  0.8145144102120545  0.6745784302631656  0.5762496133436120
  0.1335851083528627  0.7428463985205104  0.9751090225300050
  0.1165636281678737  0.9880679578978608  0.5906263878430865
  0.1296409702372481  0.2949776307070194  0.0156111145116584
  0.0179024725933273  0.2672778921521714  0.2992155900135342
  0.1731872624134887  0.9770967893849235  0.2806954122391008
  0.6308145792536609  0.8627878459709939  0.0341246164345595
  0.0868385856957142  0.1175086440124138  0.8972813452908440
  0.6730055549485561  0.0519401313635166  0.2174334388933136
  0.6161092247974306  0.4430504692749249  0.0274606144624364
  0.7789908439333333  0.0312101777942145  0.3514417085599848
  0.7690764374941852  0.4305728640954559  0.7461056615379257
  0.4818935203375134  0.0402790274678319  0.5072043718296724
  0.5906986775952342  0.3421743557739453  0.9682352944704237
  0.2431028862139349  0.9528997684631765  0.8695641859631754
  0.5323114265877334  0.0297728576241974  0.8098388487233410
  0.3853343303319537  0.0662179709601898  0.9780314808345066
  0.9865197214762799  0.2743515185171343  0.8139753446099199
  0.7019878278431617  0.2257175171418947  0.7152158168519543
  0.8463315805113035  0.3635232533075176  0.6552215782721896
  0.5258363574236928  0.9024802141900116  0.1016808652611207
  0.3103481686579755  0.2942525511082024  0.6361330182386724
  0.5356029759267102  0.3224085325256942  0.7639746805161396
  0.3303019412829616  0.9634967216193401  0.6867776017018781
  0.3209338663735606  0.8261208081928557  0.7204898869644387
  0.4570654672959121  0.1662615654821911  0.8627246196919791
  0.8784543023150932  0.1123985425586913  0.5507126193818528
  0.7619418227186256  0.4641465263536425  0.3502947834411054
  0.2320985923477577  0.9269927722540440  0.0770102243551928
  0.3383855349898252  0.3995568006671455  0.1624988810501707
  0.1177153689127509  0.1774233412657580  0.0062913264415273
  0.3812761802513093  0.8849820418789859  0.6054926405044074
  0.5123083612294621  0.4862200494606732  0.3300518316187996
  0.6290268175039050  0.9477932247907677  0.1368655581095563
  0.7996404740285148  0.4181849710796822  0.1275720322151670
  0.3295995831985559  0.7680479993354011  0.0412135608669388
  0.1126205292213683  0.3767004489741557  0.3943864680499743
  0.3430225076617438  0.4277807243540004  0.6279914200398905
  0.1458453300431375  0.3972706553686153  0.5967261858528130
  0.0254153796056764  0.9044895404320556  0.5758443941540544
  0.7284233484559912  0.8548874053730724  0.7450229435546182
  0.4092509039766902  0.8874544863294899  0.7488785171543508
  0.5372774747117832  0.3930148361176829  0.5668792163550109
  0.2764795426819591  0.7475903534410537  0.8264783412936293
  0.5123760115197550  0.6410431689223735  0.4858272155122997
  0.8382471163536859  0.4578011188514218  0.5587955163567299
  0.5358011353917376  0.2498413235596268  0.8812965148957095
  0.6524910892040900  0.7641042992747348  0.3786712187913645
  0.9238625520317381  0.5970237075331459  0.4017510658758254
  0.1408597616481154  0.6133311318025485  0.8668566812047931
  0.2654585299704632  0.7038146240937726  0.5746781725991918
  0.4687669842735235  0.8320592560605898  0.3366742338139828
  0.4721087419119431  0.6084904536837332  0.0191291003603687
  0.0592618467107917  0.4623143873834840  0.3489975800202586
  0.6165257671003914  0.8023018132403718  0.4796126324612495
  0.6113264751079158  0.7036926551958758  0.8717876839701316
  0.4916005352417996  0.6859542650751413  0.6119473310155293
  0.7576560086838787  0.9607429029959818  0.4661451476588345
  0.4559710700021554  0.5767244410151801  0.6695490669912023
  0.8129271123037389  0.1893065436108203  0.7399964451271861
  0.4343302027648538  0.4066403632543176  0.8038589864663576
  0.6826765319372298  0.4005244488541437  0.4294835727812816
  0.4800249584057837  0.7310833609358315  0.8635909023427375
  0.6412241501664403  0.6577496245035186  0.9727097714273762
  0.6132215916664747  0.9697625193130915  0.2777757843658434
  0.5803467665792490  0.1053113616155110  0.0163308366877510
  0.4226194498546342  0.6077860132476754  0.7869754694470289
  0.5249710146411820  0.2949251404050899  0.1654341697258362
  0.4053244057476176  0.1644109520836580  0.0735471259167328
  0.6853887800381144  0.6273871050217447  0.5750608978403262
  0.4813102951300494  0.0971326764150246  0.1601899241942801
  0.3110722395299101  0.4311919249103766  0.4362250295727861
  0.6628209580464961  0.3518070713979644  0.5537040194684125
  0.7373904470560810  0.7428825349004992  0.5036874320295087
  0.6032873277384784  0.8385175158925241  0.7362783871429454
  0.4978392783401098  0.4936929381408898  0.0835159716095169
  0.4919082589103018  0.5151146390694225  0.7672550376627769
  0.5286510670852325  0.7931061630629340  0.0681493004275544
  0.6034636746968258  0.4568376759081896  0.9120726278905270
  0.6070172346849008  0.9369092081893856  0.4823248214316768
  0.4188622499947124  0.8632153816363493  0.0035538850148035
  0.6731490289720331  0.3414168231009259  0.7505762666516015
  0.7017076150519985  0.0202168320169328  0.8637298621437363
  0.5182883102500682  0.7946694790404991  0.2158885935056801
  0.6240349365402516  0.2378548262474963  0.1750770717988879
  0.8269445608016620  0.2049150170360775  0.2133190212142115
  0.8409933077248586  0.5494610226833414  0.7500241181050187
  0.7624642213377937  0.3430486002963933  0.3463365600694115
  0.2915341755008778  0.4377828387212447  0.9929213288620612
  0.6901952736219588  0.5948238368508638  0.3568413232042512
  0.5259390378251356  0.2016395193050173  0.0891363579644322
  0.6641686875257012  0.1596379791723894  0.9178274030422849
  0.4388173839312588  0.4155468432995623  0.5058707687439096
  0.5037700557297220  0.6001810783826897  0.1431564125698584
  0.8242059721971968  0.2398187932782394  0.5429377855992207
  0.7091231327572977  0.2602079886658143  0.9853060181549053
  0.9185604483266625  0.2741957645455511  0.9300191322808943
  0.2075887578388121  0.0809865463463895  0.5516848563838481
  0.4752004722350139  0.4029082696134809  0.6944756151693975
  0.8187204141074123  0.6513360365221496  0.3341694887578525
  0.6301937497587267  0.1661396689171322  0.6029568018364831
  0.8521665707111229  0.4047759413329672  0.2510293712760749
  0.5926648948001505  0.1382656630295938  0.7139302452804508
  0.5417519370124516  0.6691023982714205  0.2507536446628091
  0.7297632850983461  0.2534575861066085  0.8453348459937812
  0.3374325290669828  0.6822903597105527  0.2388747829272179
  0.7953759230248172  0.2149439503643356  0.0842967895212965
  0.2645444656271819  0.6352216220569045  0.6679363597228074
  0.7125155869951968  0.1693665704245614  0.1668099602637804
  0.7116400168687822  0.8407942571455728  0.3178250721388911
  0.7186407778357752  0.1556442779939570  0.3927789148493201
  0.5977236822763494  0.3761279876407477  0.6630167407227651
  0.6317464231694808  0.0527006067817613  0.6423775374448063
  0.4772747948813397  0.1056954112904418  0.7328971390416761
  0.6798261179340552  0.9767379169676832  0.5664803820054345
  0.5967246105134726  0.1183478366944543  0.1536378330758623
  0.7765288172891097  0.1575678994527766  0.6159691716001405
  0.7533987396085553  0.3334180538704949  0.0585106027306659
  0.3548115656540599  0.3669950741310090  0.7243223051445981
  0.4839220805759220  0.1849090182465439  0.3341155815568524
  0.0201799057123955  0.7640466288174788  0.4054518570591363
  0.6218164187512716  0.2355215951925232  0.8056710219523446
  0.1473430363911916  0.7598813787625339  0.4088534216112752
  0.0291666578960053  0.4036729725652185  0.5808878308503551
  0.1727743807479865  0.8550146004680513  0.3199247834710460
  0.0969653415888557  0.8967522355061966  0.2406192464815679
  0.0785630771485765  0.5283432359749034  0.7910714906400214
  0.1922272909965802  0.8288544682544710  0.0183212573987899
  0.9941900406151852  0.7645451520253677  0.7842779164574726
  0.5616951854044597  0.2608297594372769  0.2985198780851093
  0.4761654496344980  0.0774580791614068  0.3702937119907801
  0.5728718229697395  0.1311685652628644  0.8290340656057480
  0.6349722598321021  0.1643140792456204  0.2735006873487902
  0.8020397863323063  0.2078719120662030  0.9372149699975854
  0.5413228174431439  0.0092452708915802  0.6970068005404227
  0.9642022788379787  0.6042708226624807  0.7814662123026808
  0.9692039657900923  0.4913437286505870  0.7443383642026600
  0.8758789020135388  0.4704427574373517  0.6712337704408973
  0.6654236185620007  0.0633013822179257  0.3367310010739548
  0.5592025208138210  0.0807456430655807  0.2790985028769964
  0.1484483288136182  0.3310166060575727  0.7025948962543562
  0.1971863989423868  0.1709705225091470  0.3674471360785642
  0.0057988520438997  0.4425878543141625  0.1329970370563884
  0.0617847358996714  0.2285409410115520  0.4967918138604011
  0.1273734055376362  0.1314648488373493  0.4598074151052809
  0.0365588513159920  0.7282256924497821  0.5862584927047780
  0.0076042187017849  0.1482396482920221  0.3086777353370194
  0.6025136873154967  0.0735298361686761  0.5198319504546942
  0.9605350917267050  0.0530060176949459  0.2537257001392106
  0.6478630452593376  0.3248819827289259  0.2677111938039143
  0.0648067790145681  0.0971828330745832  0.0889332949993052
  0.6466445269734813  0.7530795414395990  0.0517288132656950
  0.9795105961233961  0.1727082788795001  0.8599162589424160
  0.3541961110504308  0.7647724573992747  0.3433848159638013
  0.6585282427869152  0.6376432325347626  0.7797732683214916
  0.6572692808615542  0.2692351800119602  0.3762020073161432
  0.5945154245528395  0.2559326399101890  0.6918746987095336
  0.1343001044671186  0.9913554034485499  0.0810713337096123
  0.5512332598137795  0.4427568368292953  0.4387298178495778
  0.9654508966935066  0.3882483705948385  0.6928132374021663
  0.6707966711060204  0.0513238404378091  0.1000358573142610
  0.9340817760885133  0.2209408304430908  0.5218180533177641
  0.5237876657157745  0.9189407983712754  0.7788309020255008
  0.0691965373905296  0.5232482969202811  0.9138853662289930
  0.6302075034288628  0.6863336244973504  0.6642670072048459
  0.8844422925577761  0.3320034708861796  0.0585241192773675
  0.5176298419443384  0.7613254557910103  0.5264093793232779
  0.0154208943692985  0.8669140600640984  0.3308186635880972
  0.9821230513878620  0.0621144893655201  0.9166057737119135
  0.3140457612711250  0.2595024382859816  0.7612672463845038
  0.7987636407003315  0.7876369863994300  0.9306557711397435
  0.9421833622195284  0.9233596689356782  0.4854301188535680
  0.7973883441865260  0.3138215951887800  0.7703285265109112
  0.7121026877251904  0.1153610374255517  0.6938994317557012
  0.8738440578809324  0.0227833214806590  0.9495534281037549
  0.7237939582492819  0.4467583699378979  0.5407034948844778
  0.6930096175495390  0.0507821829096831  0.4557047739966814
  0.8896211126817237  0.2036384551735616  0.6372147500921802
  0.7465785203788763  0.7139933977864643  0.0018615798656128
  0.3663725978386283  0.6807796469411337  0.8576551591199729
  0.4671112860267871  0.6963656237968152  0.7337221984612353
  0.3866330530308282  0.7617348893217888  0.5622016377301201
  0.7448367959834908  0.9693368146240858  0.1590399381493495
  0.5284611472420376  0.2522866015838282  0.4189929025363078
  0.5318823417246470  0.9927038827459705  0.1969770025239156
  0.5652986017502573  0.7601902055058249  0.9620150457130209
  0.7021342203480622  0.8606127793012347  0.5449263358356305
  0.5469813169177339  0.7746674306557555  0.6541425120714440
  0.8934756002171268  0.1407550307720071  0.9255140976755531
  0.0707480767819616  0.8109218400981514  0.0509444086615003
  0.0459844847249823  0.4467605438469563  0.2391169972808712
  0.7837211990536832  0.0468114600112086  0.5541172968116117
  0.9692219423298106  0.7605420213964257  0.2142363889543520
  0.7291075312995438  0.9601403699370893  0.2826154903298626
  0.6726598626360326  0.8793258152386438  0.2217414958257057
  0.0098318483189641  0.1972861540944912  0.6159846543013917
  0.8553408435546903  0.9932935475116654  0.7391840556755817
  0.9964201612413628  0.7595002746013734  0.9705796475396348
  0.0834364067136114  0.6915925976883215  0.2204664149416128
  0.0174393062165374  0.6934080329996791  0.1257945624831691
  0.2226193635251070  0.2184304741022911  0.0722087789880538
  0.0754644762538214  0.6589690651411051  0.7756393446052523
  0.0362003713545607  0.5773930412094526  0.6862834569648525
  0.2124645591920670  0.6626528454654492  0.4620632906794251
  0.9518381493753001  0.6287171334856536  0.5986871124850814
  0.0755068765249370  0.6790323231923674  0.4715796151031846
  0.1659830598721405  0.7827780441936527  0.6192433646387586
  0.0316688958759623  0.8774480772384050  0.4419211229427369
  0.1621633576588592  0.9852171285529545  0.4783332179158082
  0.0794955937456551  0.7720912343366237  0.7042616687254453
  0.9079964085806622  0.7427289983164004  0.6042587075461177
  0.3188471468580134  0.1207234603373383  0.5336208060992174
  0.2641126485601579  0.2704413865694735  0.3329902573813914
  0.1795344322391452  0.1140093873415125  0.0869120786757816
  0.9309751450509558  0.9899463876724373  0.8244950263577586
  0.2769504216300754  0.2577061919236235  0.9023465734774426
  0.2095917463411033  0.0323722880966536  0.1705912408968227
  0.4345234593926964  0.9975047627514466  0.7338315872033051
  0.0352372140278064  0.9556497203429043  0.7644437860517411
  0.2228517728482121  0.1965834975119551  0.4945192916922994
  0.1656417000805222  0.0485571228260272  0.3833320752652691
  0.2229614989951619  0.8952967922149792  0.2113007730323699
  0.0836072813275897  0.0240468578482248  0.1946410003517320
  0.4269597120878219  0.1574477898554656  0.5592811431437574
  0.1556060675082045  0.0607955959954896  0.9899571648939213
  0.2017400410753643  0.0689170580743732  0.8889636897169203
  0.8943923934863551  0.8354233170733641  0.7651903688224939
  0.4522550921620854  0.5852283761909791  0.2586296405649330
  0.5773589128446091  0.5693915219655953  0.4129365504192307
  0.2947247414130735  0.5964824746067593  0.1582204757957393
  0.6081966043888376  0.6669080076678885  0.3379365329145684
  0.4542198629893505  0.6070369932300980  0.9031187899278842
  0.5620853491976787  0.5946517031031481  0.6055214593156176
  0.5617347451150384  0.4122699585414918  0.1319814320069816
  0.6348042230169945  0.7623066437528450  0.2480108009692189
  0.5040385045700018  0.3620345301289767  0.8840938617904938
  0.4210938411919848  0.9310104105419108  0.1120555877605746
  0.4272220312357983  0.2773615683048345  0.7003366527478802
  0.4944725266661950  0.4195319667693534  0.9837702212091577
  0.3805119930337378  0.2386912514330255  0.3463874600825846
  0.5497217993184016  0.4918327787940294  0.6703778286803570
  0.4688015950669547  0.9725388394521672  0.0056577049790130
  0.5776288373038818  0.5625018228393736  0.2771027209132584
  0.4026593303235971  0.6172525517031408  0.4488770385212591
  0.3102614449887695  0.5788673860069724  0.7919273728112557
  0.4698411063501135  0.5253432207575738  0.4495669096629535
  0.4076948922524837  0.2787499860784527  0.9302271501713724
  0.3992538363166053  0.5339514809574031  0.3628761845975707
  0.4217781895559518  0.3485641498533992  0.6046426539384802
  0.3983649402708284  0.5083427176032724  0.1663826843633850
  0.5355699340326816  0.0271522773378312  0.0902451944927163
  0.3939167554973048  0.5078413986001027  0.8432626172087831
  0.3442139650262191  0.9736436554701569  0.8069372855682173
  0.3159290693073479  0.6150544665041049  0.5311903213570739
  0.2139313559466595  0.6468230119783250  0.7741603948422024