 B Cr Fe 
 1.0000000000000000
    20.0899999999999999    0.0000000000000000    0.0000000000000000
     0.0000000000000000   20.0899999999999999    0.0000000000000000
     0.0000000000000000    0.0000000000000000   20.0899999999999999
 B   Cr  Fe 
 137 206 480
Direct
  0.6199985742478967  0.8965531195734298  0.3567111456628038
  0.5248350213892126  0.6731914919820974  0.6529539650691050
  0.0476973902157467  0.7508468675168479  0.6098846152581684
  0.0403289150097859  0.9754303796926169  0.6617810733942346
  0.2613615637338109  0.9708222568913835  0.9677513620000946
  0.8921880499382485  0.3616298945438490  0.9091068367201649
  0.8897055471557319  0.3012038545949898  0.8458598975806269
  0.5819635974672409  0.5782701259491326  0.3810907603639540
  0.5095897000702629  0.2840559316855434  0.6816017080092324
  0.0326294108066783  0.9612549899018241  0.8680466303839651
  0.7631020144987483  0.0780149109210103  0.8817419205863559
  0.8703694148133995  0.6216982166304529  0.8327896873349822
  0.0025976722997394  0.7514632319336482  0.8964604449336122
  0.7437137597339426  0.6270488975980786  0.2612375346665667
  0.1867883770819407  0.2862364607467336  0.7609841552264891
  0.9052044458914023  0.1602537874096430  0.2370509235122165
  0.8779252445108847  0.2405917459394371  0.1286690894257707
  0.0310684027894019  0.5252019434795324  0.1924951320533141
  0.1868316608623536  0.7217544271855945  0.8840834192346556
  0.5878490679192103  0.9774730783588962  0.8329112008700650
  0.7332067906093763  0.3417934025244372  0.8472096232559366
  0.0260643632898621  0.1970777654601869  0.1499600803354309
  0.7848968544208151  0.1491703112731264  0.4960270066648393
  0.1839638406270247  0.7595557160246859  0.3048509608781849
  0.9223401451862095  0.4755165034310268  0.0051338751176544
  0.2793617213699358  0.9760886121059190  0.4291746179417620
  0.1246229420817142  0.8128571062454041  0.0364979754731843
  0.0316642802708270  0.6800542679826096  0.8576009502900002
  0.3843791131783411  0.0631969572517761  0.5517064535897009
  0.0664122317767884  0.9804099999070909  0.2884033415572747
  0.5076551418822807  0.4878462547789814  0.7308731617633271
  0.3700259661595407  0.6773602565764149  0.5327070632170531
  0.9466222759446248  0.4550175846578893  0.3129978758637924
  0.7688712918540300  0.2525212486101250  0.9903784704639912
  0.8711746885772510  0.4723707490269999  0.8047794627377828
  0.0053116282792556  0.1873465097087908  0.9874786192965928
  0.2545683761253611  0.2247483064662426  0.6550145128873660
  0.2052871430743415  0.5383029437202955  0.5357985063255839
  0.9961639766941065  0.8660589583540985  0.7611324576061824
  0.0411898075198229  0.3806233024321728  0.9830748436102784
  0.6588515214085597  0.5556046784772968  0.9608129405345550
  0.0087012455413615  0.3683624053833062  0.0671747007454463
  0.3741108447987240  0.9206974251728175  0.6790174752548901
  0.2392799525532736  0.8040422059755872  0.6095513906498123
  0.8020134556314786  0.8627032052943236  0.7654220936689886
  0.1828165271650451  0.2173222530707838  0.2864407422069936
  0.2714397800240100  0.6244917027202588  0.0164251920747641
  0.6898709321255014  0.8828579570355827  0.0945038586353586
  0.7488582460668937  0.7973442959408158  0.2171854995184029
  0.9615220829457004  0.4094420389910983  0.5407893650932434
  0.4835346491446916  0.1187241667510143  0.0851347639052728
  0.3428266893538446  0.0702800187165054  0.3026480580934445
  0.5521202757330773  0.9526958244126016  0.4872383257801575
  0.2112459659901295  0.9721009401879117  0.5742153943899053
  0.9380908141283677  0.3077666803519595  0.6544970765935388
  0.6321954844316153  0.0945263992091127  0.4166976378010863
  0.3439072144935177  0.2194488027537757  0.4247963066462774
  0.0691951054754766  0.7390183349831529  0.0404026646810229
  0.8019615682502049  0.1360858145881915  0.8286111205686042
  0.8791288329506186  0.9648019128051174  0.5144251989351426
  0.8832479847831439  0.7857355671075011  0.5491996286324464
  0.7303659179197819  0.4845549433440305  0.1551300296970080
  0.6941865431230804  0.0913237691461311  0.5893700211235023
  0.4277274117747603  0.2306327343131463  0.2238156917917085
  0.1212408991520870  0.4024904320795781  0.1493873281720057
  0.2023399651517815  0.0859093722185491  0.4506476986291774
  0.0059775982839678  0.1617109874625569  0.6701855394880332
  0.3600294514877234  0.1469547646854742  0.4802547024933354
  0.2911283106400526  0.8366082521294871  0.1998261240609405
  0.7392474069662553  0.7255118763074696  0.6264584137787549
  0.5523756507355211  0.7546559806438043  0.2989465202220445
  0.3865812801225185  0.2074924258319223  0.6137944452718360
  0.3420031446499555  0.7999428604517241  0.4368254044720386
  0.0732310264283939  0.2964096887363875  0.4030891713636266
  0.4701945356974466  0.0725980046773222  0.0131798916117568
  0.7366610493381659  0.3204358907114537  0.2827942981702947
  0.8332596866135771  0.0883371976656788  0.6403826033675684
  0.1618561800367374  0.2844557603103332  0.2290641843239248
  0.8960881570389012  0.4111932256806139  0.1866129196652086
  0.1078829968492269  0.0998516343395949  0.5667384302867816
  0.6276943477776853  0.7807992019985908  0.6993295000255170
  0.8849090325448725  0.8058593721446876  0.3904456702313196
  0.2758151260226220  0.7625662350880896  0.7729641360649726
  0.3846220860684270  0.3722313317315664  0.6862797111868606
  0.0974863966237208  0.8213267461675400  0.6289114083525752
  0.3679095964089843  0.1052174782623990  0.8612381887942446
  0.4813754626558918  0.3254132948969566  0.9656541503018323
  0.9128094452373910  0.6259328426750934  0.3033382844429096
  0.7811706116675141  0.5605789447009371  0.2978190603624448
  0.7510759648410364  0.0374331572122985  0.0556959329808830
  0.6909561396193413  0.6114431838920000  0.4760864708159864
  0.0647010735726409  0.5924170337693546  0.1540891868947485
  0.6461550328672088  0.6025157724704222  0.5565780105863313
  0.3166383203098717  0.3538770036074477  0.9556632907076243
  0.0438827830482158  0.8509120302935611  0.1882154722062665
  0.0380304569507248  0.3176608378912241  0.7915411698036573
  0.0194301430782152  0.5990485196189682  0.8876331797397033
  0.2884624951526722  0.3713906637006827  0.5723988201180999
  0.5836658507263186  0.4013931370348585  0.0666228309181869
  0.6644136282483476  0.3029904051400956  0.6377987910199452
  0.3668332836708655  0.3311215013708697  0.5361286528543349
  0.5349623461074322  0.6692626541833990  0.9277117198410030
  0.0426224939184380  0.1634815646686283  0.8341258380481520
  0.0897562742353212  0.3040118121515944  0.6478609086066428
  0.8019206580357439  0.5045286219529435  0.1092627529195922
  0.9452905103084098  0.3889564839203554  0.6236148265156617
  0.3018325677488214  0.9282700067284261  0.8117598111322109
  0.9361319338836815  0.1387482817918827  0.4570075065958814
  0.2848332100460961  0.6496637784649212  0.2650257774590302
  0.3623098419296705  0.8688869934760590  0.4905967221776998
  0.5288631379447678  0.1662587995403640  0.9352067213563140
  0.9843716832164735  0.8095089693233246  0.5764124665038218
  0.2338485854713299  0.8446262494667975  0.1355358424677200
  0.3102068491581071  0.4847790602196769  0.1125187667266930
  0.4636024402021526  0.7948516358119507  0.9641308808715846
  0.9704565338785173  0.8449808266091960  0.0148670639091460
  0.8572681018082769  0.4468475436427349  0.3765850617001409
  0.9428118065961663  0.5640065013299651  0.6900377245774042
  0.7202237875262658  0.1223674908544357  0.0714653002865465
  0.4485449543134042  0.8177877694784542  0.5937536606251246
  0.8004298714351717  0.3489453975196965  0.5819061789805466
  0.6368831577711521  0.4472551187886090  0.4860233475026762
  0.4489113617509777  0.2678182430196723  0.0308149492510571
  0.6934508333770669  0.3959240503900081  0.3253581010583090
  0.8175338858479796  0.2981827500447589  0.1351007029531533
  0.6813696208877286  0.3078011146949874  0.4776376816370551
  0.7171377416427918  0.1809303596896178  0.0040129194891663
  0.6328058026406349  0.6153338821256662  0.1152438153294361
  0.1418608726498703  0.3592508376059839  0.4064109892831742
  0.8569077184696581  0.9293491215298123  0.7699438977932683
  0.0904999658511644  0.9212131629780419  0.4987486882994915
  0.5138985681895367  0.5251308540476004  0.9777227721464257
  0.6633672536550372  0.3745709825196497  0.0380365316250878
  0.0965374498558704  0.1963484886343801  0.0076011572686257
  0.3408186772031621  0.7501623421085721  0.7103887219070044
  0.3812104715383676  0.7462248990180839  0.1424866733269689
  0.1504985834363618  0.9700468511102508  0.1540522033111878
  0.7858908983743110  0.7957761118472696  0.9205240412868012
  0.1665462482203863  0.5922080194771125  0.9977570348194664
  0.8124316128858005  0.7559734061311120  0.6993252181052237
  0.2578099106734572  0.2496053967044771  0.3619220269546893
  0.2291058989288192  0.9195487280083395  0.8872959522545100
  0.3081234666787201  0.8362288672109149  0.8607364774822028
  0.7984977465090615  0.8631816512451659  0.1233246965843557
  0.9262493679538014  0.9204447288966174  0.0707301519856826
  0.1592133170360098  0.1128911624228099  0.2718025665654129
  0.0815572270936269  0.1410977956609596  0.7375181810368371
  0.1453508968950369  0.8560074622697583  0.3270160489340302
  0.2997852777942135  0.0593234905048842  0.4807801738954884
  0.1171067762761705  0.8892406515114901  0.8719004780502744
  0.8813223435035479  0.9672680939122840  0.9511364891641699
  0.2666823663408308  0.1061199237196036  0.6687121759413345
  0.8437367212360594  0.8585843234683772  0.4768785032147447
  0.1658867739852712  0.8725617672967423  0.5649891462903071
  0.1078616136026735  0.9526224998954078  0.3871239689661083
  0.0021154483994158  0.9928993296273071  0.3742320989287391
  0.2150837942652588  0.2307703458285782  0.0540525847921183
  0.1082008117383169  0.5080193785448143  0.0929489406222500
  0.2015794196555828  0.3903550640141450  0.2322279868158645
  0.2705570661749049  0.1460537402553866  0.2757295813284620
  0.9358839848349796  0.8839421881042463  0.1818581407508326
  0.5914883397091303  0.8718086480083945  0.5557191859011475
  0.2081602120946581  0.3349767559868257  0.6532382561591301
  0.6401221219300642  0.7614119103989661  0.2328894591403139
  0.4409320927638936  0.1812240390227152  0.4110670126817718
  0.5758286920322878  0.1138840436934533  0.5649871725759146
  0.6974398922369384  0.9979957995193226  0.8646680835480075
  0.7844455040467417  0.0798696956374140  0.1450648118736981
  0.6147977204870506  0.9540547832987110  0.1217305974638930
  0.1360878391874491  0.4376939878909295  0.3241527627333119
  0.9927501767544094  0.3793412079401112  0.7113618792549383
  0.5745851323685276  0.7083652683605198  0.5601078177763257
  0.5845209899087378  0.9993563222307912  0.3874841923834924
  0.7942466776694516  0.8215582454264091  0.6033662008380423
  0.9256906892202610  0.6121348320438821  0.4096948024427269
  0.1669667349308749  0.4396362201859934  0.5620315098535870
  0.2306231583989460  0.5424149058853817  0.0758166133863845
  0.4027813925390032  0.5058807707292124  0.9650313811572697
  0.2402225645296351  0.7177669901500188  0.6760516739523665
  0.1884507856362138  0.7402576616038895  0.4722442002761710
  0.2101835239829884  0.0592604340058584  0.1717533849473195
  0.1526398126878151  0.7176917945036478  0.9857415763433237
  0.0711674283106337  0.6481408023361152  0.5940440233386401
  0.9705565556114508  0.6196925914471408  0.2039011300862101
  0.0006008745399878  0.7534106724903072  0.7836426915350062
  0.0862674972120558  0.7786544664361784  0.2577387696922431
  0.1938560435472777  0.8122364359039479  0.9337184980099934
  0.3173101193579944  0.3856278841099528  0.1463752844013388
  0.0603899315684056  0.8150725879848226  0.9594381989733530
  0.9084203080402649  0.7765439654878671  0.6511151384586228
  0.0805535783326898  0.2178746738835963  0.2399697407706337
  0.5341166413938124  0.7803285138227393  0.6460547520205667
  0.0385177777226073  0.3904209141095777  0.3664669673637392
  0.3884375551461989  0.3571286016852343  0.0349654696663693
  0.0098236062616786  0.6802388996979989  0.3029266483006401
  0.1448282899641883  0.2962047764557211  0.9714009869848370
  0.0439935953876791  0.6625511857229694  0.9690303775653771
  0.0742209475066659  0.8006476669001544  0.5134650508039760
  0.4104981830901703  0.5494649970619163  0.3591094933832163
  0.9350366167100308  0.5437575652643435  0.8539797667711794
  0.1105533547009655  0.0262053480158713  0.7264160041811299
  0.8511224018867221  0.5617569065104738  0.7461100852519640
  0.9467601201073288  0.9269181055564739  0.6909533668078975
  0.0436342115449229  0.4698559411005477  0.5095501674683168
  0.8298401019991518  0.6932293319260866  0.5810281552592788
  0.9031506805514569  0.8300819471945471  0.7654746662441352
  0.0415957552780420  0.3083344935458674  0.1453977270565454
  0.7847194335411517  0.0528239536840274  0.5435743005555834
  0.0867746537550150  0.3617279269717722  0.4936054922192662
  0.9577748214753945  0.1566553743314000  0.7617488690571751
  0.0163928923154004  0.4299973230087869  0.1521074576840269
  0.0121213096005046  0.3077634091682809  0.5802947483880002
  0.8644605659835628  0.8451707139652201  0.9910952559096936
  0.0567473427768239  0.9095807897616549  0.0301737395161600
  0.3777223156722094  0.0775162510133406  0.0631687327870607
  0.9750708194330432  0.2339675673911467  0.4027930160071183
  0.2429975725740857  0.3426604762963685  0.0362571541762680
  0.8563866453118436  0.5957867920805782  0.9396755148334235
  0.0938107242407365  0.1950404023725794  0.3601169137713527
  0.8613274688521638  0.5597138023891928  0.6177129097944739
  0.1273057313006277  0.9161626704117970  0.6732510174789276
  0.8003068056793423  0.5375683149464203  0.8512891307369878
  0.1058462065884201  0.5282987580518588  0.6073998268439882
  0.9674580624525799  0.6239822017250949  0.7802967756489838
  0.9880022193527286  0.5549471901023417  0.0960285289244887
  0.4581383904411130  0.1850893133493730  0.6816764515396900
  0.2642399823607387  0.2947159266537824  0.2554071733811000
  0.3418434771717876  0.2126131611982515  0.8260985531616198
  0.2567368940007388  0.1778367054235880  0.4773508583524583
  0.1239914599336454  0.1498255306503758  0.4792804771429416
  0.2322056374047102  0.3761786419063923  0.7857748940181478
  0.1878222224250751  0.4643887724292501  0.9916512760715592
  0.9820523041010274  0.7652533840516187  0.2003442172202843
  0.9993565329802435  0.7878598393340601  0.3454601050848966
  0.0441975975740123  0.4183904542488865  0.8164556803450811
  0.9654129659704090  0.7069904632804092  0.5538155987705877
  0.2290945118795883  0.6798266772046663  0.3564856421830844
  0.0782564102883600  0.5382171962912176  0.9589591340662531
  0.7089276602919762  0.5564692502216324  0.0546142712787549
  0.2247537571462979  0.1817006067782665  0.7577722396415395
  0.6331091278193354  0.9599743788392827  0.2693282342892946
  0.4365413649281610  0.3051673271401195  0.8410043693247711
  0.2737788564420114  0.0199635770920832  0.8531885328258333
  0.4354397645118341  0.0015741857466375  0.7223338042468570
  0.4650452928015715  0.0794764192267454  0.9107329527210394
  0.9406126801496917  0.2658654333379472  0.9378464186572592
  0.8992986753996974  0.0772879621691798  0.8142137088251323
  0.5472663264044746  0.0596770524103424  0.2697689720723740
  0.9276715447695740  0.2089595381183499  0.6240630365986302
  0.9248271535005692  0.0732328447442213  0.3506374358157573
  0.9043165061329348  0.2694210101312570  0.7441151708645691
  0.8679359006996837  0.1987792028733847  0.9799092706734887
  0.4206952361404811  0.0063865164713486  0.2589011275007840
  0.3891680786942792  0.3282443736628894  0.2413906906768719
  0.9553471155758695  0.0311437461151159  0.1341940397484121
  0.2997598591728873  0.8516813690230207  0.7307795336645396
  0.4709545330682699  0.3657396043110216  0.5081018270795078
  0.5643531211471863  0.3136885511171338  0.5842744013422830
  0.4394969921183062  0.1233596959704731  0.7773688503692802
  0.3095877345399198  0.9900221434679989  0.7282083779436535
  0.4078341530750337  0.2864030706173286  0.1312116763298039
  0.8291450949031279  0.2372840288137669  0.5356966690300948
  0.5119003229251902  0.2962458313555382  0.1937496929226057
  0.2291580857834842  0.9386185631332393  0.0758721945780950
  0.5186459997277181  0.4962168650527848  0.3353122543163446
  0.4896589597692949  0.0326824492742449  0.5240461422772262
  0.7769863518880675  0.9514055330776667  0.4580824350663333
  0.9300979926853592  0.5128383738748757  0.5210485692655344
  0.2898646716183866  0.5823804511197657  0.3823189592672373
  0.4734300029767425  0.5003662980913531  0.6261461726604846
  0.1975943222089234  0.6811670145636353  0.7873925413464902
  0.3987110768734220  0.4762160161811999  0.7130412587730759
  0.5439867087465002  0.5876531221820834  0.5784642057191461
  0.2239350669527486  0.5273165341473997  0.6406016847418552
  0.3437876889240710  0.5322055267107993  0.6299054086492861
  0.3555217978487366  0.6363432645744725  0.9502846446296417
  0.2691345840075185  0.8160544691216602  0.5107480589149925
  0.3755696864253660  0.7717657235476599  0.0423075699616275
  0.4949754469510693  0.5597728099955463  0.4541220741806086
  0.7103778415044019  0.8510326755278889  0.3032831373530941
  0.9544657044274649  0.4775945963032854  0.4162619146390696
  0.2724307125120024  0.4920987395392292  0.7624703515173119
  0.3001758250026759  0.5938750348844530  0.5319081748756738
  0.3617996401519397  0.7910766723093409  0.3377904229644912
  0.5553498428936881  0.6722601354850538  0.0423899251602024
  0.3550165730094908  0.6658812520169727  0.0779065150478752
  0.4525576481622398  0.5910318766640232  0.2546324232305699
  0.3443280448308209  0.6570891275628982  0.6425949440930663
  0.4924546871584186  0.3920061015417187  0.6728630948952240
  0.8872717984066710  0.9535742177126978  0.2907196919393569
  0.7243830424210005  0.8742560621987310  0.8385487809725288
  0.6948850911394853  0.5965008766004730  0.3633303587978722
  0.1554382826860778  0.7435753639335133  0.5907033746235042
  0.2881142572802608  0.6063368216232499  0.1632162118581607
  0.6778042752217773  0.3398007515441458  0.7535757330563398
  0.8275117648802727  0.2643260310767979  0.6504557180093757
  0.5981508598707439  0.5344885241274190  0.7949877276210209
  0.5174070159706514  0.2156594566957583  0.1071081336580280
  0.6831751960627249  0.9332815590056805  0.6517668016466625
  0.4976488422925758  0.2437820792135439  0.5078744288175184
  0.5648932354369132  0.8430563907872873  0.8621272002442247
  0.6736668609274811  0.3982780178949207  0.1426771787165699
  0.3970475348438164  0.6554630276494655  0.8427277591585411
  0.6377686873263082  0.3356367441989823  0.2434451684332789
  0.7776617465521196  0.6503190210130615  0.7830211043840452
  0.7724073405029238  0.4988305783597448  0.6511493666055543
  0.4373196874011518  0.8365427099923555  0.1274806911868843
  0.5755589391277727  0.1361571944237117  0.7216356905453507
  0.7660871124072026  0.7667833848666133  0.5110986840650945
  0.6345208280323140  0.6759116207524654  0.6493684657021620
  0.6138240277850850  0.3035511009577652  0.1041195136077679
  0.6261916722901383  0.5139660084572060  0.1492014757628527
  0.4407040641915652  0.8594068771359160  0.8779102035646199
  0.8544329283012209  0.3688906058700462  0.6784080158640957
  0.4469280108601544  0.6954319110886449  0.7345547602020668
  0.6897695408218496  0.9570978644626073  0.0136569936490542
  0.4199290494861819  0.4449414796586293  0.2878844810336152
  0.7239583322541102  0.2620071558748998  0.5659037527653756
  0.7428821944575069  0.1351175314952176  0.3816471144113289
  0.4677807579615710  0.6933752082160733  0.1276944998450615
  0.8579453002790854  0.2966226797769602  0.0344376424140391
  0.6904977163854935  0.8856561842146119  0.1990337501271127
  0.8132434051615119  0.7738697422453442  0.2961490019465316
  0.6463979809507810  0.0418590323081146  0.7671515256589387
  0.8411905235616473  0.3219320821753169  0.2366993594764892
  0.5845975622597002  0.5675702348262818  0.2739721064221108
  0.5931660171050417  0.0565915585785237  0.9020722171544663
  0.8241777397268845  0.4015711156078188  0.9950318555393417
  0.6873987274445119  0.0830001945818982  0.9717427612409892
  0.5192045626456963  0.4864443964364940  0.0878394887751536
  0.4608525663053235  0.0737506760139498  0.1796467367451788
  0.6104695112979204  0.4616604572865430  0.9054035603543820
  0.3992594395142619  0.9089743432725593  0.3209817807446929
  0.5485457759859679  0.2633019412761794  0.8862816847690678
  0.7507060991262587  0.2295649836994739  0.8075980694294058
  0.6403116021214750  0.4880595218032764  0.3692692556779271
  0.6880577101191669  0.2627284811678863  0.9008969571905022
  0.6671838754690118  0.4913294704551395  0.5811592326147448
  0.8542059013209434  0.1876653393760580  0.4233701708217696
  0.5935183267387160  0.6557285997127055  0.4588241349388302
  0.0723745631497662  0.1999587774576207  0.6004752815447795
  0.6740784075841453  0.2966922796485233  0.3720000161381596
  0.6993851798102632  0.1596157584114890  0.1704828860608297
  0.9757119939636462  0.9136484102090046  0.9435029291458886
  0.5738757399762275  0.1135247337340535  0.1506572722009318
  0.5289423169083436  0.1580525958819511  0.3384576117114309
  0.9409093601661982  0.6664332876753032  0.9003603591066137
  0.5498845790450794  0.2441249267169410  0.0026832589252561
  0.6524061917138989  0.1840827616076545  0.6165250729307887
  0.6299729502026089  0.2299916408981481  0.8024072181709356
  0.0285563782883077  0.8165942080332166  0.0931342490552129
  0.6290853358606717  0.1766305892459896  0.9388412595567189
  0.6138525372714501  0.2288822790370909  0.1838336094360015
  0.5617499560740637  0.9728182515367333  0.5956045737316054
  0.5415704801224960  0.1340828762650511  0.4531473181923561
  0.0583999025128346  0.5124950557929822  0.3898709220945605
  0.5589045497029735  0.1437540480057095  0.8405163737414610
  0.6228137796383088  0.1427675659132698  0.2639618550328516
  0.6374989827166098  0.1809848783777254  0.0706596093759365
  0.5623062168928097  0.9843615464482809  0.7099512375171997
  0.4006160550311469  0.3994739084783421  0.9084485390245057
  0.3494013977581822  0.3951526629223511  0.7833025484038718
  0.5938991055431788  0.8719960252957606  0.6833202492043190
  0.0015597485133678  0.7107606153072111  0.4361874892282192
  0.1667564250212986  0.8610491384147237  0.4497959118638585
  0.0139308402563589  0.8901641804882604  0.2860274985784159
  0.1144726380865581  0.9082561480445966  0.2294231957004151
  0.9977955024242373  0.6904460986723157  0.6806370411534107
  0.6792092963824128  0.4576059809091894  0.7119205106368403
  0.4106247130394868  0.1681844901887799  0.1353504105896561
  0.7879262236385468  0.2474254493011924  0.3388289433956077
  0.8681269869763525  0.0301475260050191  0.0572120414829311
  0.8818485789711172  0.4686790750560830  0.9169832104199611
  0.9818921498252142  0.0331963590811555  0.7291843343343573
  0.0463015222697832  0.0770921369957129  0.6397866630806892
  0.0647351965134630  0.0298719839465901  0.4846440038117564
  0.0994996128377309  0.6416323315339062  0.0744356290857892
  0.9109851359220554  0.8846040966731169  0.5783296900036424
  0.9089077893587600  0.8289527127233887  0.2858724238951489
  0.9055537971968673  0.7794862694260319  0.8845351178360535
  0.7575520726415130  0.9858258763607903  0.2471239294569854
  0.0961693962382543  0.8377607154125118  0.7665442154258361
  0.0482216441859228  0.0834302004859261  0.2985262646216206
  0.7854168146586950  0.7759712711679293  0.8085307162748647
  0.0337547601762014  0.9399402899450235  0.1383717959591867
  0.7771607408864962  0.2097024257174658  0.0919053287971237
  0.8333777580172101  0.8983369072816020  0.6765493104963027
  0.8164397751000037  0.2032822100094441  0.2107503413739877
  0.7398423561160793  0.7187129515676974  0.9846442405553928
  0.9839964465479289  0.5582894252834124  0.3156747728245558
  0.7196803720368388  0.8425401106743287  0.4224165256148020
  0.8567664454680897  0.4233982539784371  0.2784606337798080
  0.9406844499045568  0.9562840541317241  0.8192933267481599
  0.8713864406921316  0.5338822068472932  0.3263201801143146
  0.9453724682200648  0.0417960219661467  0.4768661399040771
  0.7804499560325431  0.0195920681645369  0.9605793585531754
  0.8552265996224864  0.7885965575525172  0.1852341173460895
  0.6715305907018418  0.3718701587865659  0.5543893031601326
  0.7507131244407421  0.1101319459360149  0.2611874649670462
  0.1120146813887669  0.7551120501688411  0.3878028505150309
  0.5935540503788681  0.7147071952612764  0.1369928937652881
  0.1987813370343447  0.6935153232137612  0.2117835685771666
  0.4233141710373819  0.7312215404812774  0.4091357405235655
  0.5764150583705052  0.9892592453921074  0.9976115894733558
  0.5434672721077699  0.2588246082958781  0.4061008582627288
  0.5345407541154064  0.9776562166463172  0.1949098639882819
  0.5594527024437220  0.7642649035222608  0.9558970577442314
  0.7092599811505325  0.8711485061577745  0.5348174562807233
  0.5094202577906256  0.7911150481214958  0.5155475159424848
  0.4834047392777550  0.8253792640733136  0.3211939565223321
  0.6617099383364581  0.0443779520356590  0.2017628652604791
  0.7282656628361626  0.2467704417652914  0.6939901969662691
  0.8956100082446123  0.3283332090763031  0.5573849297019987
  0.9398644074311955  0.3758486541963423  0.9964258834384154
  0.8775512810257919  0.5694158397226634  0.1260792725096507
  0.6294442339050256  0.0557795525258160  0.6512045293038757
  0.7496548918521931  0.0344265142142915  0.6609020931578571
  0.9265089177950868  0.6373776755948102  0.0338366540083883
  0.8668680601727974  0.4439152813757555  0.5828946956099866
  0.8002644141910108  0.0277942724475619  0.3436658637002205
  0.4717626464439806  0.8908053035595197  0.2197476325592800
  0.5148907639599886  0.3804658913003736  0.2676504386353866
  0.4509069746809733  0.7180414112727890  0.2868531918274043
  0.5056969601975350  0.9674093290496020  0.8926594522969872
  0.4153342717227201  0.8132988957971422  0.6892307987721300
  0.4745425022038660  0.9034335191199589  0.5310165201444396
  0.4371759907447840  0.8479812689028599  0.4259555621369024
  0.4105273020986466  0.8723623691741998  0.0072968636715387
  0.4791922148134442  0.7409003783517679  0.8671579111029872
  0.4449609213474240  0.7097500211274248  0.6032319309419503
  0.0782684604986897  0.6791611973852066  0.1982789061643988
  0.0536986076010099  0.9446839968445249  0.7728673862696392
  0.9999366896032772  0.6949742489816786  0.1041256244874488
  0.0801443857261733  0.6529896148409037  0.7748474234573982
  0.0438404337587597  0.5750210610008051  0.6982010942912726
  0.2704477787166233  0.7051255816133205  0.5557513291775416
  0.9732521918098903  0.5964976792405955  0.6004445198424212
  0.1000753886873982  0.6790342809728654  0.4913828137191173
  0.0075021707981075  0.5952736797089506  0.4879992806865934
  0.0516471569494930  0.8616723833610299  0.4135328538851423
  0.1823814408721371  0.9852666313378564  0.4724971332764210
  0.0380104449625844  0.8980017277919390  0.5901121215970241
  0.9798202602741569  0.0013838065430294  0.5827663869507546
  0.1922071583065861  0.1863909887419015  0.5782110768654327
  0.1998816941803835  0.1587188460622654  0.3776592955656665
  0.2024077941854409  0.2012534690129420  0.1827932783456197
  0.1083002270604903  0.1299001282208459  0.1647685772393582
  0.1635649594060949  0.1251538485601469  0.0596011544174998
  0.1903601677755967  0.0491097858253860  0.9478212007183842
  0.3856895502342350  0.0884980423813455  0.6603420107244566
  0.1138368676249340  0.9938157955282544  0.5831621622056401
  0.2069488063107207  0.0747055786616212  0.5543687702270954
  0.2446494003188387  0.0488558248396857  0.3632318845971170
  0.2317289241282255  0.9267732348896746  0.1941137047263700
  0.0812162204041513  0.0283311204694494  0.1964054555395327
  0.2523011055009117  0.0433423148232366  0.0492144065949460
  0.1202950469473589  0.0164781328061930  0.0678572432836448
  0.0820855337208010  0.9873065752666967  0.9486183879591267
  0.0059392572821187  0.8503468141558067  0.8551494533747767
  0.2899316650177440  0.2893747733943157  0.7438216394216545
  0.6088443735785268  0.6737797909725015  0.3345407388116584
  0.2964411274647505  0.3010425964779178  0.4517527826605345
  0.5346797447634464  0.7475474859419798  0.4060027664044318
  0.4469235731683441  0.9816137667990694  0.9923782729726923
  0.3555301769969720  0.9348870472009393  0.9100806622383096
  0.2788546966151431  0.5859672128377746  0.8337505487831313
  0.2830341092322642  0.7513645477337411  0.1456654141647666
  0.3905914701584183  0.6246783902466091  0.4412814029648512
  0.1995994918984745  0.8086647904734784  0.8145925011334139
  0.3597787332435622  0.6636606601617805  0.3320375376623628
  0.3706289794041083  0.8848344718089981  0.5875963325551141
  0.4186800119187444  0.5792379596321242  0.1453064976995760
  0.2637559451856807  0.9044216189511695  0.6384539798521447
  0.3760240339015998  0.5138076033174773  0.8490505527428200
  0.3782140764632331  0.9695280872166185  0.4956307921557936
  0.4553192156034703  0.6964250235694947  0.9899931473847713
  0.2568813760832982  0.6022022473534241  0.7079228078658315
  0.3603897926333310  0.5189642469479568  0.4731215844398113
  0.9775603907960084  0.3431199600460761  0.4648504696328780
  0.4607445684230980  0.4183452560770144  0.7914511506009781
  0.3929123264541927  0.2756976277183027  0.9438363624343106
  0.3635046099152826  0.5778013007137298  0.7453148972521142
  0.4501164762646124  0.1903757845166632  0.8745408145109503
  0.4442795139168120  0.3977052146056516  0.1656726153784944
  0.5070252827699677  0.2228639797884845  0.7750838222780706
  0.5204732097422677  0.3774157772416712  0.8814874694406506
  0.4460927725296364  0.1438115345305825  0.5539224570138271