 B Cr Fe 
 1.0000000000000000
    20.0899999999999999    0.0000000000000000    0.0000000000000000
     0.0000000000000000   20.0899999999999999    0.0000000000000000
     0.0000000000000000    0.0000000000000000   20.0899999999999999
 B   Cr  Fe 
 137 206 480
Direct
  0.6309656369069780  0.8623158255243770  0.4029248007836543
  0.7127879499944487  0.6188789331742781  0.4695071216245461
  0.0506564215205287  0.9034783097251914  0.9531916386320534
  0.7908121589765033  0.3043931351890469  0.2565452755672548
  0.5771509501623044  0.8913236801975521  0.2057332866985163
  0.6266643207709163  0.5926970160578757  0.5040778537907504
  0.5502614707223918  0.7520909177842370  0.3022400835895988
  0.5323306473227080  0.1607303692248198  0.9310899509789812
  0.0427762778561721  0.2621209393233693  0.5553643923948312
  0.0419588879880105  0.6877809851099992  0.8530275275427877
  0.0138474604037495  0.8526335890037958  0.2167378375456949
  0.3252522877857801  0.3311523867067976  0.9556161563246801
  0.0760177432430703  0.3709194042832824  0.6840231232257764
  0.2619016457307965  0.3832033922684848  0.5989103400433282
  0.2529877970402382  0.9060275344048118  0.7758560101796619
  0.3663135376071796  0.8681679865209669  0.5290271748629883
  0.2577169615132948  0.6348269678100558  0.2532493539872150
  0.0806210565096993  0.8208634710105766  0.6072385417101375
  0.3812900747542645  0.3683776943406037  0.7057094512945912
  0.2534374475349198  0.9165435770958318  0.6105369828346763
  0.2811507526050167  0.4634288341141505  0.0791505553421701
  0.9948697935356727  0.6656248866908665  0.4078293769210837
  0.7044600591295548  0.2386531285102394  0.0951283299072987
  0.9131248090289434  0.3906916439276427  0.1539167431739584
  0.1623108683790332  0.2536585995500942  0.2156013980996245
  0.2968147998406795  0.4943207028253081  0.2587042052158692
  0.9171084280329156  0.3951989180776890  0.9929033207163176
  0.4737522504879058  0.0639982240489185  0.0218737889912386
  0.0592380949422711  0.2817139918691483  0.3947596015253367
  0.3154904392958209  0.8096230672560043  0.4952550190375576
  0.4152783041598764  0.2371561938673182  0.6047813197769125
  0.8455459343388718  0.9285620535301811  0.9919829717526402
  0.4789379877997734  0.3260895878099567  0.9632291103067239
  0.5324973390655410  0.6675486683380930  0.9413826671045123
  0.9208694613958699  0.6154463580969666  0.3022372301243932
  0.5898828872856359  0.7125417272223810  0.5530936934209875
  0.2500620267862664  0.0701817474583690  0.2609898645292120
  0.4486637492789091  0.2630059077568012  0.0272121636961286
  0.6749714518321479  0.3863358981510292  0.3237580373108459
  0.0247643799165014  0.4274267467895804  0.3134167683045623
  0.4370536420829016  0.9562738468099777  0.8257236289643082
  0.3333188738605277  0.7534243366720189  0.6470620159816350
  0.9410309958571763  0.5793503694591443  0.6870944195338140
  0.7968554456992993  0.5014053506282468  0.1114888453924672
  0.1499285198279908  0.9516613865196069  0.1594490903194628
  0.3145232519295644  0.6249014392209495  0.4107534402765339
  0.1009869707875027  0.9243512777779999  0.4962720821641136
  0.6670804372740272  0.3672045904305479  0.0330129128449155
  0.0717025992797848  0.2713610714738583  0.0888944328681144
  0.5045359949923837  0.5261079027555627  0.9766065837394393
  0.3631193467272930  0.7617756511271346  0.1459611712820277
  0.7094207026049468  0.0849979263363865  0.6142974926200235
  0.4797192445307652  0.8001830722448411  0.9542920934689008
  0.9149968494386777  0.3931663564853480  0.4467021115844339
  0.7301312041492742  0.1320148837436153  0.0773706583093444
  0.2053518918062770  0.0014217455156357  0.9774141198248718
  0.0459262564098697  0.4966330080257697  0.5577873968911207
  0.9302657570465823  0.4108533869412229  0.6028825194211737
  0.3198194658422284  0.0191476177958025  0.7109490098462254
  0.6311927755784376  0.4370381800874429  0.5115014417538473
  0.6774171661532797  0.2927674115089215  0.6491216408953447
  0.7375925325320537  0.1947100803814895  0.0199299329925782
  0.7838744211677479  0.5541827115894643  0.3020286429244964
  0.7728554979164720  0.2212325573279417  0.8254627988369151
  0.2238266279977298  0.8264986231814166  0.1308335378022824
  0.0675062905893168  0.3565827761904993  0.2873802352210199
  0.6378174089258336  0.6280523132667173  0.1101203329843968
  0.7457675116435889  0.7215371040216472  0.6201061427829000
  0.9079325896546161  0.1474190164830428  0.2461307063535750
  0.0426160182906850  0.5670877997591176  0.0070876821946887
  0.8972085142070328  0.8267709587422316  0.6700330101826658
  0.4806901047234748  0.4850243386893175  0.7065163174038240
  0.7738838908852507  0.4822895219695655  0.4676858657395105
  0.4022518094819248  0.0562483222947552  0.5577472429086713
  0.4287096336910531  0.6390558833185195  0.1992802867759259
  0.0959976909592419  0.8331165528070690  0.3787898520966592
  0.2377437877716362  0.7151129696243009  0.2338522966751629
  0.9201407570656919  0.5396095331759265  0.0256924010925119
  0.2160282465396124  0.7763533568199223  0.2974014557359413
  0.7776523916825746  0.1554227359417856  0.5123519683426183
  0.0461490220942383  0.0841484842231747  0.9915744360321873
  0.7324319304823963  0.3687735433414644  0.8343715041630719
  0.5983412452679218  0.9753907570209350  0.8480248580651889
  0.1977358278675357  0.7275632284188708  0.8742609146586722
  0.0268611324052652  0.5296093996273596  0.1957499059038695
  0.6273878433325422  0.1183939679905544  0.4437943832616262
  0.5014632781780934  0.3527906722013979  0.4413333543663251
  0.0162447385040231  0.7596627216975462  0.9018638211277372
  0.8732019316795887  0.6124542468482163  0.8341955254848166
  0.3490650384357021  0.1289802314703666  0.0235962816056240
  0.9409202772051509  0.4437380112444757  0.2976955533085736
  0.8812392516568295  0.3113144018614267  0.8322749762695770
  0.0278079796452019  0.9620805960832089  0.8757221783957003
  0.9085398026080870  0.2359971411460164  0.1236939361257155
  0.8057704891847737  0.1430686429115054  0.8406820779663243
  0.4211449324839662  0.6908365738845361  0.5136955485502941
  0.0627114340753053  0.6053515570317398  0.1594826744370092
  0.6182531922605983  0.2808355806441140  0.9109752797846982
  0.8224011447782640  0.2314063954018711  0.9945511137807935
  0.2880891459787205  0.9728664500561336  0.9677023709490766
  0.0306821581550085  0.9813824667156027  0.6533064547101495
  0.0749327638770581  0.7211577045911632  0.0365712929306932
  0.2556178246645191  0.3429590202650695  0.1733787870205312
  0.7305714982803753  0.6820028488908790  0.4075711449665261
  0.3328793611662465  0.0648622251886787  0.2986427639932359
  0.4473597204318899  0.2408760593759671  0.2648095469950341
  0.2094928743850979  0.0928141235490342  0.4623539827441959
  0.9471317840342531  0.1128482737118108  0.6329113297039179
  0.8626943784888071  0.9883654279706231  0.5188581821277023
  0.5845734490640098  0.9311596427920357  0.3802145787290862
  0.2188041666812178  0.9784452505283169  0.5618969185954061
  0.7220667737038716  0.4817440262396876  0.1551972388162985
  0.4870431648580017  0.1186686034758261  0.0894930733352645
  0.7499068839302919  0.6192813751198050  0.2590680417251632
  0.3609522509579338  0.1156956747055286  0.3648863845979559
  0.5198240280402373  0.7375122266417097  0.6922734017592914
  0.9670589114540105  0.7727126961018208  0.3130422867881357
  0.0657284836916876  0.3578637606812978  0.8663494427212458
  0.8208872430479355  0.8935229407575849  0.7914584165963396
  0.1568878653908006  0.5585450615972478  0.6451625810586245
  0.9210417253972031  0.1367071454817997  0.4466474171831238
  0.1847720787368175  0.1999501837817430  0.2867137112392047
  0.3424961764599500  0.5865112086436328  0.8907669834400456
  0.7457449315378724  0.7954448761077814  0.2209474005410172
  0.8740608275483606  0.0450700544766984  0.0918442078647325
  0.1906504204575517  0.4996239141611010  0.4911988225697809
  0.1201630199698358  0.4089906155227147  0.1405344539456067
  0.1350128627784973  0.2504923975041897  0.5353804817899234
  0.1271200741907894  0.1106202741742547  0.1822743288312504
  0.9886769131643135  0.8346178401728995  0.9494446481113900
  0.3890656446580280  0.6095999825690128  0.8123426978521538
  0.9706172912456451  0.3743725146816558  0.0533910822259941
  0.0385609944456068  0.6027972195416561  0.8625333463906073
  0.6461735805795509  0.5440631039511906  0.9702170758659082
  0.7110904356053281  0.6518313638378328  0.0638862814681612
  0.5171557625533925  0.3091304019056644  0.6389581704534534
  0.9271958217452219  0.7580970352883671  0.7133491033762852
  0.3609736212429945  0.4255244364931274  0.6088278499204507
  0.5254978877356201  0.6495888360691294  0.4835749774042196
  0.3345523849063883  0.6959488505665022  0.7408364944066788
  0.5188239485484133  0.2612278452145094  0.8815713278028265
  0.8022370289650306  0.3948001469626003  0.1359247500621212
  0.1640512205128808  0.3925455246615725  0.6230175562917919
  0.2056936420927409  0.3917130901933319  0.4844625122171284
  0.5420980288330007  0.3950586679860763  0.5629118422176096
  0.2511972143770819  0.6424480155423183  0.9061182996705197
  0.3763539345528273  0.4772657923403514  0.7072337472032884
  0.4608488019909817  0.5810863917814414  0.6611821352418967
  0.2673753049668378  0.7007110445771387  0.5760843858537040
  0.4742847228188585  0.8205350890629277  0.3350477859934715
  0.7129255447572075  0.8428065996436621  0.3141140129667827
  0.9800527621453602  0.4698652742222792  0.3984377566742331
  0.1703988806827178  0.5681365353099389  0.7478291883506271
  0.5382878905078523  0.6724539600489522  0.0546502715378797
  0.1909374858597073  0.4705853974298927  0.2839730108504481
  0.5012023390582727  0.6250446579077327  0.3620099023697168
  0.4513572001726586  0.6810134970567746  0.7581389691615811
  0.7344204749853619  0.8398243962153435  0.7406709618733726
  0.8452862819843964  0.4614722107030474  0.5589654085017326
  0.5202065363889061  0.7896502856391362  0.0707929261024802
  0.4471650012433336  0.5895533052957932  0.5492522830484508
  0.4871926174051865  0.0226783903840131  0.4996603551318420
  0.5153451218916284  0.4904375921360591  0.3311503399576296
  0.5530675198000327  0.2428311553319804  0.9932748471333026
  0.7038237215801788  0.1627817910896595  0.1736222389589783
  0.2251632126794434  0.9456542493431406  0.8793665640145638
  0.4574987708872998  0.1196412531282757  0.7463097837558949
  0.3784791756721100  0.0462334938373126  0.9683264218630709
  0.8045616649729402  0.3061303463756005  0.9133375245904155
  0.6932416924457612  0.1410091765901803  0.8304271426781920
  0.6181349625650718  0.9675828110865702  0.2784190087473802
  0.8532425131733142  0.3541889432832885  0.6568158391478445
  0.7814813788213124  0.0385684092754807  0.3559107930361409
  0.8991521428695155  0.4034374666200403  0.7816595645795928
  0.4154295185635026  0.0048540948254243  0.2595884245662646
  0.2350793990038958  0.9293152116102954  0.0720957260493421
  0.3874369451352334  0.3278386729787818  0.2350840807167932
  0.0925810543767524  0.1861116233857954  0.0184936097940222
  0.3908978418989014  0.8822379532610104  0.6306532117893201
  0.3411196078823826  0.2334784386917687  0.5303468479781335
  0.6036993277644840  0.3766370122918051  0.6595745737988238
  0.3948189291298748  0.0825103284304268  0.6568927829693879
  0.3113176565614268  0.8182054286884529  0.7316769915500709
  0.4480616663826189  0.1621751964200343  0.9959179986628679
  0.8783879515059579  0.1191236976652013  0.5513421933032692
  0.5726163183763758  0.3672119822363192  0.3518892140413930
  0.7619330249388033  0.9617555591523794  0.4689128623581633
  0.5981180778845356  0.4629237004836412  0.9120225912568367
  0.3298010239485186  0.4202465374547878  0.4405334749621116
  0.2064016665685407  0.0811075287025486  0.5691652305203961
  0.5302421039983847  0.3317052215922010  0.7607593974381985
  0.3973701067433938  0.3974536557928736  0.9025375106228943
  0.7003984579900088  0.2280799797384425  0.7399101305609866
  0.6935877543040172  0.5922962523761313  0.3517660038281595
  0.5407016996512651  0.6687656714598101  0.2409712679422487
  0.6373563026596832  0.1782813711485924  0.9288843814052846
  0.8100499409266066  0.1820074858187201  0.7359830314107126
  0.4873231618365961  0.7350850584953554  0.8694079495059263
  0.5270603238836544  0.5992892450552137  0.1513581250389990
  0.8324339178739593  0.2471859998971540  0.5475134962256623
  0.6099539658518700  0.7016521043411077  0.8803202357117557
  0.8776230437762631  0.3140018487213277  0.0500866573192625
  0.6575273878389215  0.2860500121737515  0.3727186225213564
  0.6322363417863305  0.2231591572385299  0.4748979248016274
  0.7954134774446887  0.7703176385353006  0.4017689872747670
  0.4500044741102371  0.6048196392500439  0.9056747058564639
  0.8185994086105527  0.2010452642115093  0.2253169177244867
  0.6366265253475761  0.0374485637264330  0.7672839558840848
  0.3330349571497613  0.0866118617388873  0.1933799054602373
  0.6951887176949647  0.2432877149777308  0.2717115664070973
  0.6988283809365946  0.5474270686784195  0.0588883684218374
  0.4743046580350597  0.8969429960537824  0.2288958104441476
  0.8056505706704812  0.2103933681479905  0.1060431034669885
  0.5730570145949175  0.8296702298275866  0.8693971528643821
  0.6086732096328786  0.8825536846078795  0.5909313571711762
  0.6170071615660673  0.8014959867357446  0.4948145955158352
  0.5098032847183170  0.4833725052513544  0.0855906671633280
  0.8512850969600390  0.3997354740821176  0.2517794106273287
  0.6748944345304331  0.5819935164589629  0.8712246054655115
  0.7013363924890076  0.3807033201897873  0.9360862959771002
  0.6713422482797350  0.3466373476324813  0.7509221941862989
  0.2655182275642380  0.6948299234006597  0.3416407672109859
  0.7587508362942986  0.4657956080192946  0.3539762494130103
  0.7275063483260873  0.1549710652241418  0.4109011199225460
  0.5641405337137784  0.4400852984467249  0.7705571205216668
  0.8037300706875351  0.8981875293982977  0.3532441654566277
  0.5782408038638140  0.1141077672373715  0.1513694146498409
  0.4947651519558641  0.2587574684935458  0.5231540309488254
  0.5178798987483789  0.0382827044301699  0.8093347072232426
  0.6292817313972701  0.8603799902148993  0.0307985735676757
  0.7620707158575168  0.3165646215958546  0.0518804453260827
  0.6121102568782871  0.3039739808708876  0.0927976504815791
  0.5859117286145479  0.9902720784886603  0.0045922918417036
  0.6148645553284415  0.4453856080505365  0.2480806444274141
  0.6585613254149203  0.5217148765748649  0.5842840524007490
  0.5857988109030444  0.8520465518344085  0.3097475844929199
  0.7818228186202588  0.4399687206848634  0.7551146978898985
  0.6145798895443558  0.7007789590918000  0.6599003879205436
  0.7472156831899673  0.9874164558743102  0.2626382746860987
  0.0284273010031889  0.9046628498461331  0.5690260355687824
  0.7082918120037915  0.7240327425817217  0.1446370464390135
  0.8141413353585337  0.4034106542765858  0.9856148966710238
  0.6404079514574054  0.7618256927702224  0.2456757871797940
  0.5325532116143290  0.9223208745433669  0.7783390436712130
  0.6983678523854266  0.0830422173774545  0.9825100499920142
  0.7835135968988959  0.0790920357236574  0.1525714009411164
  0.8911019936520260  0.8363148534663379  0.0020250414903346
  0.1731679341448913  0.3092456623252073  0.1208669796572894
  0.0752906934906488  0.4789160772553600  0.6713589971393854
  0.5544354210614653  0.5142972380246528  0.5267091251559493
  0.5734677600663471  0.0320480817650653  0.3990939145182512
  0.5023788400937873  0.8924806221415292  0.6695941632260625
  0.7916910521071354  0.5683540536160290  0.4138240058441907
  0.0780609105934194  0.7782802406363380  0.2849736570220427
  0.2432295953507160  0.4957745111166791  0.6539345870967406
  0.2137679265718815  0.5433649389482734  0.0818598011094949
  0.4914689166828937  0.4947311094344585  0.8741748723711781
  0.1097579175046306  0.7589098713314741  0.7065090480771584
  0.2232375920763972  0.6600341624235685  0.4491980440432407
  0.2135428038182566  0.0345557229389166  0.1716248755383050
  0.1386244376331557  0.6373228063477471  0.8672647904592687
  0.0793657097640477  0.5956958702666402  0.5805964113566322
  0.9682188956981098  0.6203537710347445  0.2032915141133040
  0.9501409961859574  0.6700748336414643  0.8988427064350973
  0.3258287784387596  0.2981820306467279  0.6314741705234980
  0.9038211547785494  0.8780271384493026  0.5786266488090697
  0.9049018637126713  0.7179182954910365  0.3820980706394431
  0.0288608807425751  0.9428193223389466  0.7660295627239083
  0.0155817249064152  0.1226688631209212  0.1938266402759241
  0.8186261846227231  0.1158931466061920  0.0239799364303398
  0.4555345693075541  0.8613815629266699  0.8691506435247994
  0.1714281638636316  0.3633073785678477  0.2361057726209568
  0.1872502095508898  0.1655052087109946  0.3908480900995587
  0.8196770944054339  0.7548333294924242  0.6968024494094865
  0.2482301807355199  0.0584410920658008  0.3687254928041103
  0.3784785817734049  0.7927613390468385  0.9218700368013169
  0.7473045571087680  0.7218075747707627  0.9958932543909251
  0.1022621307217133  0.9982661349633711  0.9455266458825167
  0.0537862765353579  0.2544928073055175  0.9175591520338946
  0.8013887560594900  0.8106759098469747  0.5956573165330277
  0.2280915521891240  0.0361888177039286  0.7742044483314013
  0.0440995915053354  0.9328189521500619  0.1316909469627361
  0.8828656991677114  0.1424289065411097  0.9268812453181572
  0.3161205578593344  0.0022743306684877  0.6003677031793525
  0.1628719605001858  0.8817379926080257  0.5680113450299444
  0.1018809592547870  0.9468485074614152  0.3718326556935013
  0.9792753425773875  0.9662522118088752  0.3683453755208917
  0.2637154670295185  0.2454098659119032  0.9310402431125822
  0.2533244297392990  0.1782757770202594  0.7353871792289105
  0.1779678805141569  0.6457266219946163  0.1680685782445590
  0.9117349650662531  0.8597810339634385  0.2685696618148616
  0.2903095983706502  0.8040766829832737  0.2202330226729880
  0.3676699234008812  0.2313458713708923  0.3411101756799163
  0.2230349722946873  0.3654025764818319  0.3539165684453638
  0.2886164689501897  0.0267012481325582  0.4820021069332686
  0.2803929280964526  0.4543917644905742  0.8820359157991318
  0.0014104744273488  0.4642663699579543  0.0010690908236264
  0.1066484998244974  0.6757448451276585  0.3976591187193535
  0.0501313426003243  0.7986311666976444  0.1270031161978117
  0.7557058559916332  0.8637309956323215  0.0026115316083684
  0.9631097550906158  0.2243791293697610  0.3998552310487184
  0.5038883831336058  0.1959987770590221  0.6473261374203820
  0.2156797402754724  0.2488609373867152  0.8097460732831930
  0.8863707951530356  0.6808234940786401  0.1367049223578805
  0.0842557036484241  0.1783200715621102  0.3566198340669460
  0.5649033159426788  0.5001909907469257  0.6548853784494451
  0.7460420782948544  0.5943210977240907  0.1518047486373385
  0.7886846399979476  0.5469811624630575  0.8612235595913053
  0.1219261991417050  0.3248025963183348  0.7699877345640667
  0.8285774649418690  0.6765767020089332  0.5784572951987421
  0.9979741284015137  0.6903998516381182  0.6931887449836945
  0.9467524924431787  0.0478539465731703  0.2463109517801444
  0.0881895672651132  0.5232844282042373  0.9184334560622197
  0.2608286166958479  0.2747938903613852  0.2518416748264785
  0.2640217246264648  0.8120432759660557  0.3978527803391920
  0.1716368843007788  0.9844957235727346  0.2815214211472201
  0.3642729385873313  0.2083084001133074  0.8083590317676973
  0.0995248695819906  0.0266499298116329  0.7190897938555186
  0.9753362931577602  0.3498747246157352  0.3636501474544244
  0.9995877893806538  0.3326198080074000  0.4750000732414950
  0.9400769501131296  0.1660354620334611  0.7361389976462901
  0.0990977208514902  0.5828519907067841  0.2595050247815366
  0.0394468495137010  0.3966474757274853  0.5850886742717859
  0.3922505664266854  0.0850611025798127  0.4602245584652028
  0.8976210150611487  0.1292030267684015  0.1444683518601527
  0.2171469313849003  0.4409546932750333  0.1612290372211383
  0.0441341571898553  0.4112317315008880  0.7759601107229488
  0.7547114560266145  0.0085782171543393  0.6672607766302729
  0.0561850906947635  0.6564839813467352  0.9542740533253747
  0.7613396304232807  0.6274103124709686  0.6694077081432233
  0.0143610120976666  0.4359674928543208  0.1342697809258030
  0.8260430159980880  0.6866226646233959  0.8920471891623443
  0.3419593989339932  0.2329491008968414  0.0237165773065126
  0.9664698594434977  0.0099249502415678  0.5750406811230845
  0.9349208891306064  0.6819421848110111  0.4950996570878068
  0.1149534869562764  0.8921284348160272  0.8714144062485809
  0.9309302318300974  0.9663653790501984  0.8275736091862905
  0.4164924222783313  0.8196925117980473  0.4453815218807398
  0.0986641580950361  0.7930741875088653  0.5002211867294284
  0.1647254550090191  0.2793366660599443  0.4335648093424985
  0.3934082260909222  0.5117577181516609  0.9539114089592617
  0.1482453096579074  0.1259302872285316  0.7981515251071019
  0.9985472674420017  0.1256853728346469  0.5316046921345973
  0.9164525556197731  0.2618604431511400  0.9318713640606741
  0.7677229321264766  0.3471546312699749  0.3465795989688004
  0.7126609038647769  0.2448346049080107  0.5590699109211210
  0.5009317514874897  0.8097982059520160  0.7661065742323107
  0.7788967930366854  0.2703578742854327  0.6618727892188203
  0.5911255324360765  0.2724071260439034  0.5817062442725898
  0.8701596953310134  0.4880226643248746  0.4377301464028345
  0.8825404866128753  0.6605188999636178  0.6908378412259066
  0.9920209250246903  0.9487509920646565  0.2433861141882548
  0.8862799054886853  0.5727851117800797  0.5150404782498377
  0.7808340262277041  0.3439351825790326  0.5617376290194267
  0.9552817132246831  0.2293448125247460  0.2133429547935632
  0.0163039811827284  0.1069006368034177  0.4151017369550508
  0.7953384773577418  0.3113668791201618  0.7784501581723181
  0.6661587103538592  0.3561113158332025  0.5621056568417386
  0.6864141578165885  0.3970550246997777  0.4301559200798505
  0.6799772668877196  0.5165945187220874  0.4588386630045970
  0.9768774871510706  0.3118285222061613  0.1297561223004450
  0.7316521637592039  0.2932645634511268  0.1736901263393240
  0.8061358311689664  0.4967338952619701  0.2122922445066303
  0.9712436698246312  0.3663193262338033  0.2374079182437937
  0.7336408726333584  0.4407407125180811  0.0520320032477832
  0.8875493614475182  0.2839572486279018  0.3016010901788646
  0.8705286365131447  0.4024541132701029  0.3581934538435187
  0.6731016439144862  0.3931504608670237  0.1358620917344277
  0.9282237090109979  0.4879894055880796  0.1996908998509095
  0.0657724549692156  0.2127006704204149  0.4709469628870750
  0.6499009938135876  0.7464417773335945  0.0522506721116449
  0.5078492829233153  0.2990929011118523  0.1855519293110033
  0.1114020400527307  0.0996810053441010  0.4978421568442717
  0.9832286679510589  0.1528892680532425  0.3079739951182416
  0.9724542514022387  0.0221692168746408  0.1380158914947904
  0.0653257569575571  0.0872673695495879  0.0930651173190344
  0.0784990911960381  0.1177266626795392  0.8973629035324425
  0.6615118210614103  0.6491799722112950  0.7782989764588100
  0.9780480652905732  0.0511559700218743  0.9187774024904750
  0.5911326840177817  0.2601639596360958  0.6987945516779118
  0.8718953723177028  0.0201422434826540  0.9526416340309323
  0.5598547422988026  0.4424324864185271  0.4370977962055099
  0.0949881716421022  0.8076590378860324  0.9771508848296897
  0.6630244871320295  0.0575865331586697  0.0929784038537938
  0.0793181703178453  0.4430986463947506  0.2319193179870349
  0.5934232211661997  0.0535730773134339  0.5155383811361108
  0.6249414920265337  0.9510907192207139  0.6896181685389443
  0.9759630191843937  0.5579134894300958  0.9275964703574354
  0.6118513157666183  0.8284457481876488  0.7095794982261791
  0.9838598814861347  0.3053290760072793  0.8310121738949944
  0.5014827725189041  0.7635056012506739  0.5067565891940419
  0.2155107610230244  0.2996693621998624  0.6875415828237335
  0.5598782614416588  0.2587445045948694  0.2882196457862893
  0.9699449548274457  0.5000548064602547  0.7449486034667343
  0.1398829561505492  0.9950156874410001  0.0692555705291460
  0.8734355260189421  0.4622671801310799  0.6780056767295917
  0.9649424297897419  0.3039057793045427  0.6141513452341482
  0.9672168366676426  0.5096706669749993  0.6173477215102183
  0.9467372988213630  0.2280044123155267  0.5188820504888022
  0.8970045008996945  0.4519084002729943  0.0752079290309914
  0.7820571853436389  0.0530544942470966  0.5533935084904017
  0.7329593941046649  0.3998821804216632  0.2397039229106788
  0.7624289127850412  0.1893031775399423  0.9244652846310440
  0.7309554054325467  0.4466315040280331  0.5468119569182787
  0.6953469945995590  0.0429440037291787  0.4517935049906362
  0.8888820589565860  0.2060290444623503  0.6374988842815547
  0.7267634661349417  0.8439855351758955  0.1210035224147721
  0.6414557922930640  0.9198119790662960  0.9244842133350526
  0.1212733912635121  0.5233070050032718  0.1535701995619544
  0.8905640715035053  0.0847467419183889  0.8173755027275149
  0.7040171364034112  0.2755228419792064  0.8623092396584138
  0.5319517457603076  0.2575670068726104  0.4122924828453827
  0.5345764926964230  0.9899088092843811  0.2032043826771675
  0.5673081437296459  0.7588348769513041  0.9698913104812372
  0.7115528430457824  0.8687656566759970  0.5374394760818365
  0.5423268830641395  0.7951862712634551  0.6093395846219948
  0.3590818625978865  0.7727910932663140  0.3378914673812851
  0.6615451421905194  0.0502807596485551  0.2116321727716593
  0.6607063441498270  0.0684730142903194  0.3370855075088990
  0.0512735908369081  0.7239658942369945  0.5978734571242100
  0.9753630583565585  0.7596937904540365  0.2060596843158322
  0.6777980831723373  0.8839298987094073  0.2200117931260757
  0.6245112954584024  0.9510829014555668  0.1343452273756124
  0.0094691880205104  0.1989111713708470  0.6326164756742010
  0.8594441442785216  0.9897263288688198  0.7404281278326397
  0.9869881893453355  0.7479618931193750  0.9987111079697161
  0.7990144854653157  0.7925100409513436  0.9299962174757809
  0.9427360377777644  0.9227959969580390  0.4847411927959189
  0.8485701701033890  0.5578877938587449  0.7453116452771208
  0.7058121125033573  0.1154676067808148  0.7092524773258301
  0.8615237412724247  0.9814582751887054  0.1727735996046667
  0.8663480692527867  0.7695301500434262  0.4993371960385943
  0.9061662848116312  0.1958497380934936  0.0343715234818279
  0.7613005211578237  0.9638637645792687  0.9476941506248961
  0.8250049429526629  0.0784779382140844  0.4484445051824377
  0.7211855716935783  0.6985313076796820  0.8781315766156419
  0.7405856480160723  0.9522660057695702  0.7589192779263313
  0.8918908449261761  0.7106299046764293  0.7960994956563735
  0.7067301827651676  0.7343710459969891  0.7171343677074419
  0.7946990978457976  0.9341739958566915  0.5775627324261973
  0.8656397969089686  0.5979946915439044  0.9442483170786503
  0.7128208051488579  0.8916498826934520  0.6486802655969602
  0.7993314517277584  0.8885390002364770  0.2242832936415051
  0.9831650718039049  0.7988072713532666  0.5209201804901122
  0.8658486685676471  0.9670653118548548  0.4123913568378637
  0.8731163287152709  0.9672794233903748  0.2923944916333564
  0.6902178897483278  0.9548000594528444  0.0374389403146676
  0.8593951394236309  0.8867279367509335  0.8904224282544092
  0.7678653253570515  0.5660945840282744  0.5393771588957595
  0.9219319151850451  0.5943657479588019  0.4005367623070955
  0.8412124569853735  0.1957932152989254  0.4490941223661443
  0.6990683770048983  0.5259282069432761  0.2514593255737633
  0.8120746188004667  0.6412436191353883  0.0569579328028162
  0.7923393024226321  0.6994330611027355  0.2111712839973020
  0.8307484664274301  0.8881216944606630  0.0974061718909990
  0.8745096617576400  0.7170643579889824  0.9942445561481374
  0.8046929722439520  0.3885576288890644  0.4581656936580957
  0.7248122482150114  0.4908583564750546  0.9438420368666305
  0.9006692338734689  0.5105921752887851  0.8406560230180506
  0.8129267428741213  0.5263339771489781  0.0181156633208547
  0.6858632496264779  0.4600385361746840  0.8306749683295657
  0.3538058097835653  0.6420176191091704  0.9815757901383207
  0.8752299157813934  0.2151019916217039  0.8283165779676630
  0.9195000688357844  0.7475590140140322  0.6086952652786026
  0.8983925798802322  0.7073522003930208  0.2637244421171103
  0.8159506083921370  0.9820870594985944  0.8470065329891695
  0.8732699046961067  0.2999568591095151  0.4228150396987554
  0.7241025060544424  0.7108707238785493  0.3041407533280617
  0.6359734517449701  0.6826391299259573  0.4592019939903581
  0.0173249124335843  0.8643808518943848  0.3228200018793757
  0.6195220385575001  0.9376957021035703  0.4781687175958755
  0.7396199786289146  0.8786343449706452  0.8658188847447640
  0.2647967318866496  0.4934636382409323  0.7703222742190963
  0.7455607594532833  0.6075404149185335  0.9630460552100959
  0.2644628049534278  0.3197597252064552  0.0346974838036618
  0.0006575818000007  0.1890231249487727  0.1026047350870874
  0.7858439964420798  0.6577810495316987  0.7815810333616260
  0.1202261312196464  0.2007310472271789  0.1339729423023935
  0.1905468804963193  0.4088864095304179  0.0526727260818153
  0.8570107674872179  0.5675933719421794  0.6237926160062625
  0.1659245274882452  0.7872796483287122  0.2050807684958141
  0.9164514850226666  0.9578322779865596  0.0570440017370662
  0.0048602142058387  0.8682180479720197  0.0430171686874893
  0.1613989423844184  0.4347386556536764  0.7319640859960826
  0.5832798125113008  0.1402769796829949  0.7252200784216151
  0.1978920373268965  0.5382210258425956  0.8617305404760875
  0.4199411922288411  0.1967279817887984  0.4346447975570705