 B Cr Fe 
 1.0000000000000000
    20.0899999999999999    0.0000000000000000    0.0000000000000000
     0.0000000000000000   20.0899999999999999    0.0000000000000000
     0.0000000000000000    0.0000000000000000   20.0899999999999999
 B   Cr  Fe 
 137 206 480
Direct
  0.6329039222233450  0.8656288436666709  0.4016213289092518
  0.4466161210896084  0.2403867666090626  0.2636930188691081
  0.4908181552951650  0.1183761226939673  0.0882166275666334
  0.9678109187850119  0.7718243992852043  0.3137038470800976
  0.1856352770290023  0.2005809115710900  0.2876456499248103
  0.0276561988496074  0.9725655924655525  0.8710598625421073
  0.5136858236697569  0.3027659228774333  0.6339899159177674
  0.9267310686091668  0.7557005069916174  0.7125556678060648
  0.1171847266053325  0.4090620513420542  0.1399361280259154
  0.0642081404482045  0.6060129644294634  0.1571641378610330
  0.1401987691115373  0.2448574625411274  0.5266585958789869
  0.3748081198513253  0.1242261636322528  0.3639682889359496
  0.8276703660590397  0.9060096606739937  0.7918901659253237
  0.7219420468332840  0.4870105856448241  0.1541160806355517
  0.2144655702839638  0.0885906475543570  0.4592613860462591
  0.3377230584287613  0.0665945697415147  0.3001367903978321
  0.0657829225421748  0.3564067194269972  0.8619834809466200
  0.0270779635924556  0.5293761898626255  0.1937343957521490
  0.1948371748469961  0.7273188564025527  0.8763308575292206
  0.5981236501633708  0.9711566881126822  0.8439453569708266
  0.7312999087542985  0.3679420183745314  0.8353039887234803
  0.0460700541656495  0.0897154273742672  0.9944873747884572
  0.7785847870679239  0.1544699751387342  0.5109432155564335
  0.2167858263731518  0.7767952822158268  0.2986364645844977
  0.9198858564975092  0.5403331430554182  0.0240877445241102
  0.2379058157063981  0.7162180100015728  0.2354096068503649
  0.0975542658763611  0.8335058374151734  0.3784450909676681
  0.3976379148803665  0.6303400689630323  0.1855506945167894
  0.4099902414707268  0.0473890367076814  0.5551828902904459
  0.7713854934408311  0.4864285094151904  0.4678962959825543
  0.4817150469021642  0.4829880599475556  0.7098991682457364
  0.5138221903153787  0.7580477207849861  0.6850679795286527
  0.9974073506446050  0.8358328746497001  0.9458049173210620
  0.1270840347820942  0.1113867845655205  0.1834942892396188
  0.8959929293852268  0.8248909711810881  0.6699939729259413
  0.6274330182784886  0.1177234238039542  0.4435440825852157
  0.5020832582427128  0.3539545390302899  0.4428857278136101
  0.3897163453255065  0.6127406417904772  0.8128896848525629
  0.7448576333308009  0.7944890327871547  0.2179947974352499
  0.8750477583493742  0.0410552063193574  0.0943116314439559
  0.3431005045190962  0.5904175775814834  0.8895079112142378
  0.1959187357080661  0.4990585027888226  0.4932435802388717
  0.8091359729653569  0.1436034398637401  0.8403161535650289
  0.4210885774600100  0.6802859244357095  0.5146084108209069
  0.8999832317324106  0.2339340977054002  0.1214845907642161
  0.0759163643963557  0.7236641395410699  0.0362313188582218
  0.9139231172866124  0.3914049848005662  0.1523079975694150
  0.0380147978376877  0.6038527396262212  0.8615702791462768
  0.6508011256848386  0.5479658870437263  0.9640742122005215
  0.7096420120004866  0.6520070177326253  0.0591092788477681
  0.2517497717782833  0.3427559159071619  0.1733695528965905
  0.9188086563775705  0.1360515422167713  0.4424570580160898
  0.3499047511104093  0.1296467424695294  0.0241720653852938
  0.2809729858134700  0.9680747624424029  0.9691029699678254
  0.8751787383107710  0.6098893372589796  0.8349858140746077
  0.0325895454749674  0.9869546108606019  0.6514228422491193
  0.0158484702520688  0.7638215496204770  0.8967148258620298
  0.1556837362115334  0.5604785701512225  0.6460332474349221
  0.7833242433144785  0.5574314184212703  0.3019139725492312
  0.8138076032058711  0.2763396016318195  0.9933357508133461
  0.8625746887501815  0.9912321078451373  0.5173862932260193
  0.7332772101862501  0.6845588025369247  0.4063318331580670
  0.5767868741051441  0.9286146998199933  0.3825266027802783
  0.8823001341412993  0.3168197633208619  0.8256419740985375
  0.2216535944432708  0.9746484855064044  0.5624069825513105
  0.6300789406258916  0.2808741886552649  0.9225503043174066
  0.9403484217422168  0.4463834145407648  0.2976332942399147
  0.0460352285558744  0.5666173048470409  0.0059816146408244
  0.9533442686175662  0.1201138846862518  0.6293092563973485
  0.7490390541566185  0.7182203598008685  0.6176691890625763
  0.7486190053019770  0.6214954577346052  0.2573697687445974
  0.4252738406750797  0.2385827358810024  0.6070554462247282
  0.4754004841920778  0.6802432766581682  0.0872636576284362
  0.0589091976184518  0.2831877421736557  0.3968218268620024
  0.4765805279558458  0.0635356956907417  0.0209983991420619
  0.9188441338036419  0.3903672602647320  0.9919437484571872
  0.2915594366233615  0.4910350672981612  0.2579086352683984
  0.1629521931163345  0.2532038298818138  0.2157270409390345
  0.9705079648538935  0.3776281030316313  0.0571336355832191
  0.6947295153045006  0.2476701299211436  0.1033199752263802
  0.9949240252044900  0.6683569188748824  0.4063885255248950
  0.2804859767484644  0.4622695718605297  0.0804383567634723
  0.2652273036366847  0.9129605725850616  0.6144770565226861
  0.3835158203276499  0.3647948041951812  0.7089336131933195
  0.0852737882232697  0.8233192611356459  0.6078806301496652
  0.2282962222878148  0.8265238389311443  0.1320289640006422
  0.9232665293157470  0.6137990612596894  0.2992506944619855
  0.7327431867972397  0.1184758603484284  0.0728182488154427
  0.4754774169614953  0.8033986168941215  0.9510600544170167
  0.6377092291806938  0.6255085171799064  0.1070772160009442
  0.7750262809269883  0.2211665362587924  0.8210692489505362
  0.3640909612137121  0.7597196426849224  0.1483530134339424
  0.0419069903047428  0.6904867068627373  0.8538994003881308
  0.9438538923401322  0.5787202903326364  0.6886726269343796
  0.2533910821649538  0.0699813474511395  0.2614396791642639
  0.9771432059775580  0.8582272487947132  0.7465582421917980
  0.6144083179457122  0.5950268178650837  0.5090954490717168
  0.7322422127386904  0.1582816914806690  0.9962191599910482
  0.0650428417671737  0.3575985495517772  0.2886146167716860
  0.6290076368925789  0.4402606963230288  0.5126163094288506
  0.9120890885944997  0.3979313554702509  0.4464560553789410
  0.5870004634189483  0.7003205640187252  0.5467335047988240
  0.7965339148230226  0.5048863595329814  0.1107353596086575
  0.1514637647086717  0.9551391884897036  0.1619435423715482
  0.8408879958530221  0.9257061664022929  0.9971410739852027
  0.0863371509810460  0.9187959306851247  0.0186879518341344
  0.2634491341712644  0.3743867847674558  0.6011507451378970
  0.7282227133327558  0.6352072722940237  0.4801831738256048
  0.2515394853789577  0.9202848027076664  0.7667027538694982
  0.9084173982586468  0.1429620841678457  0.2473268569906037
  0.6761269873710892  0.2932908555082109  0.6491163397662479
  0.0791737032619340  0.3696987730960125  0.6812816406148391
  0.7902661860889190  0.3066764234683608  0.2589652001248535
  0.0474741901436887  0.4968784085360408  0.5567410586925590
  0.0153554404993971  0.8516631902706790  0.2168813002274153
  0.9304122540282530  0.4128980821549819  0.6018010407192680
  0.5769497443731499  0.8879576288836607  0.2035987523905019
  0.9144739721963904  0.2111892976613733  0.2998431532141368
  0.3252880797847992  0.3310958642632133  0.9560794952227090
  0.2064920184001285  0.0111222949712552  0.9690527597141144
  0.7097249457654736  0.0853720917639300  0.6134097668079121
  0.5316149745160432  0.6715774319728934  0.9306636377667652
  0.4988528503948328  0.5269075084391259  0.9753639136840111
  0.0681265209655216  0.2710620251584530  0.0866519348211255
  0.9180711979197117  0.9176084953619101  0.7698597996563752
  0.1024385230254000  0.9243213113009928  0.4955462527548381
  0.5372211562284106  0.1619074257499565  0.9350964246162030
  0.4803093299213761  0.3248148493517852  0.9665591416195518
  0.0323398630926223  0.2844294568024238  0.5542826581331780
  0.5571452624597437  0.7544965383029403  0.3093071109769723
  0.4567112447757058  0.8082751146050813  0.5885128238688385
  0.4391293733191230  0.9613745879396068  0.8275980847850921
  0.0246470205871126  0.4306801096383425  0.3132545689591335
  0.6737952156315627  0.3893595968290378  0.3267968904519113
  0.4499352374903700  0.2619256610190848  0.0305853097767482
  0.3181774264295084  0.8125149286433375  0.5009500955887476
  0.2544246785549277  0.6352361130421746  0.2549772075407483
  0.0150874196999083  0.1246355284553198  0.1902465929283193
  0.8224244605879071  0.1057664826955989  0.0241322662059419
  0.4543565270107018  0.8645250870995895  0.8614394969615512
  0.1691423893669191  0.3625164983071600  0.2366477781807503
  0.1921877433035871  0.1625984561040825  0.3898959732074368
  0.8194369471534384  0.7488392207963673  0.6950605918081334
  0.3596520783861229  0.9967101132518232  0.3817069205682578
  0.2998679839295502  0.8645993819949563  0.9724067449351832
  0.7491148635108151  0.7248686876490520  0.9942450138158946
  0.0998236766002148  0.0000760689178025  0.9465173534576669
  0.0534055696523879  0.2550490385415283  0.9165531998342350
  0.8037717557312847  0.8106835446255551  0.5962857766041533
  0.2289311954114969  0.0343434800939260  0.7713742153830059
  0.0471810488853319  0.9337106161876267  0.1306121643373506
  0.8870390835426554  0.1275542149430685  0.9193836613161871
  0.3192138168406666  0.9992268277633868  0.5869696399495179
  0.1674739305187085  0.8831708500368047  0.5678333269437041
  0.1036997360576632  0.9460113648280177  0.3720838694170625
  0.0493748812707136  0.0449354027652304  0.3109537327621404
  0.2620581761812163  0.2457346786441814  0.9329448803040709
  0.3611008121564407  0.1820243614135516  0.6695739132519216
  0.1774914266889503  0.6460480040983397  0.1680462769316352
  0.9175397025329932  0.8404646371407438  0.3928741954154649
  0.4889839219064620  0.1749536286039436  0.3422352781767791
  0.5488293018534945  0.5123210155763350  0.5298134132694065
  0.3303077887596485  0.2948014294664458  0.6328981261803482
  0.5744116978929945  0.0316775178282549  0.3971725236534723
  0.2146646730236398  0.4415533710446056  0.1634576888752542
  0.9054563415000936  0.8763736697941377  0.5771041598007073
  0.5024365365961668  0.8781876499156331  0.6625431645295657
  0.6396349782054557  0.7606811380674084  0.2427195413957024
  0.6242219811088983  0.9536890063418815  0.6882495842082007
  0.6908396125305896  0.0598374883672438  0.9870945439308811
  0.7834883664612959  0.0763701099197857  0.1539367642732066
  0.8937410537727923  0.8375881443566948  0.9980110011165704
  0.1700665667573947  0.3090479556070508  0.1199310877034783
  0.0783995414386046  0.4778617759317266  0.6702057411939674
  0.7913627402034228  0.5724299658677479  0.4133070397050696
  0.2152110250863365  0.0366476406422917  0.1718938304374870
  0.1387630840298449  0.8675558046004942  0.0993749337175786
  0.0802690410816219  0.5967501850292128  0.5798654843401011
  0.9694395864735031  0.6207900070809146  0.2013696444772617
  0.9506907817806665  0.6715273124132052  0.8986907107465638
  0.0792564395088826  0.7782577497057943  0.2847907445477120
  0.2413629581693701  0.4986622660866686  0.6585049963615178
  0.2141577515151296  0.5430903740561709  0.0811980108034103
  0.5986284267982894  0.5429502233725372  0.7892315145755691
  0.1112268115070639  0.7644657783665209  0.7093327279063525
  0.2770328798770070  0.5700776897860007  0.3422164679677042
  0.9127746901654933  0.8576274337596692  0.2682728401457771
  0.0545291846853302  0.6567874269572630  0.9560651300217825
  0.8949584461703687  0.1293739841564147  0.1433556759660961
  0.4200487809918860  0.8273044323626512  0.4734880878728561
  0.0005764243699613  0.4651183730296132  0.9999988869246033
  0.3909369206017304  0.5133933562630920  0.9531057606764517
  0.0516556924887901  0.7978510700321121  0.1286914862923415
  0.8153855392171193  0.3914432452102571  0.9836746869492557
  0.9595813226396385  0.2264224802197596  0.3990837350739365
  0.2911933030822689  0.8042370853022510  0.2208928106682660
  0.8245082421187091  0.6833883298553566  0.8932009698236835
  0.7897887940543893  0.5452280815183151  0.8609939984569355
  0.0463315667428634  0.4106409572104338  0.7733009890115718
  0.9370011920269297  0.6822342944179292  0.4957320304119045
  0.0028728125774521  0.6879093459991793  0.6896582274111802
  0.7625453538372082  0.6241977766696555  0.6679603382745631
  0.2626778780387029  0.2748815003174986  0.2520086880361819
  0.2630275151334247  0.8134855523687760  0.4005629956926613
  0.9509371928575356  0.1778269548045334  0.7341179573962344
  0.3639408768533606  0.1991712153135642  0.8058751729946314
  0.2714432745914875  0.9047173901637530  0.5035587529419860
  0.0985738305955328  0.5828756338546763  0.2583593823474336
  0.1225938000690988  0.3222223935939175  0.7685651795868684
  0.2790228458369758  0.4534822835126127  0.8822770541691364
  0.3965911654345278  0.0838349986049245  0.4610417925327461
  0.9489821309815627  0.0456875665395732  0.2443140059187170
  0.2168019652135901  0.2451951018886201  0.8077682685338960
  0.5642618897392978  0.4976563230077616  0.6552111171260672
  0.8872330897132298  0.6812396337557173  0.1361125955815287
  0.7566030546452985  0.0101773017288441  0.6665973031874308
  0.2245245441840292  0.3647517032917175  0.3565022418574356
  0.1138966240779744  0.9976631121881400  0.5789935490316102
  0.9751345431399082  0.3537690874484952  0.3627729142191656
  0.9985166016812385  0.3405785317791195  0.4709660150719721
  0.1330621576060197  0.5754917135999027  0.4667741901465221
  0.0714300354169780  0.3091139780889269  0.1922566974233822
  0.7550364780638410  0.8592170378929480  0.9995391768284909
  0.3416270227296078  0.2332266139863466  0.0244807500784335
  0.5066872945178776  0.1811096416396187  0.6521286296015364
  0.0870493903011142  0.1820460192225429  0.3631103660370984
  0.9805714358140268  0.8723515670715930  0.8491130212255350
  0.1000229108696328  0.7948661264655430  0.5008540972409198
  0.2870700428477785  0.2855021901613272  0.4484862903912482
  0.7452579099927988  0.5967399335573537  0.1498064578225952
  0.1472912982155173  0.1251116083243904  0.7926103202178097
  0.9974172557327948  0.1256422700637976  0.5262971886976947
  0.8311744081449367  0.6745853540721105  0.5771492213901173
  0.9672872094571268  0.0120957270669593  0.5723213988835362
  0.0397021033399506  0.3955333990752691  0.5834064029262791
  0.1067323455722483  0.3998611426812367  0.9539924601632209
  0.9285993887832501  0.9951115767959448  0.8424262294235317
  0.1755702746467349  0.9841533111519134  0.2824494294795027
  0.7039511634034648  0.7239756309098633  0.1396125015090780
  0.0234924531680011  0.9561428590154055  0.7659885033061370
  0.7468103049746706  0.9833329582455403  0.2631414232564164
  0.6939113963046663  0.5940857774702767  0.3515467851079025
  0.8978199328449032  0.4080457408402758  0.7779167454505510
  0.4910084142782604  0.0114252501532286  0.4919126843885797
  0.5610790122869201  0.2429916842928905  0.9980740745644199
  0.2193037265886434  0.9462814535770223  0.8738553515106279
  0.4548872813182012  0.1246908593191824  0.7518727329734664
  0.3793934730184713  0.0466494438943240  0.9685205364981968
  0.9101172316521521  0.2697315890131787  0.9312652668381135
  0.6958022639687865  0.1436497414239938  0.8295517526727165
  0.6189886331643160  0.9666364834765061  0.2762646072062899
  0.7811406431519532  0.0353969336400413  0.3551287128906659
  0.4301047558713532  0.9544318315049695  0.1306742877906132
  0.4027285110306396  0.0783665391779535  0.6545992711598148
  0.3101348667602546  0.8368328132712382  0.7226467174105928
  0.4503235294315645  0.1619882065131666  0.9972296054586219
  0.8803042131813174  0.1209029781502860  0.5483166387144387
  0.5709448219967787  0.3687249258978452  0.3529640320534160
  0.2377529827857759  0.9291912516522616  0.0796070261757921
  0.3879439462885080  0.3283546411474069  0.2352488474886563
  0.0900611404245558  0.1897120181512108  0.0173662291287960
  0.3729866677015407  0.8766470180387904  0.5980511386236096
  0.3446978904335442  0.2308925557027011  0.5350983787764592
  0.6003856650087006  0.3747828050147268  0.6602568635863401
  0.5115845089602726  0.4946738997663007  0.3298733891026231
  0.8492908372671301  0.3596472038080311  0.6558610370223469
  0.3685607542724682  0.6643074025134973  0.6368884213369468
  0.7445981344098702  0.8397657480924776  0.7408610576089830
  0.2492317571186972  0.6423137759623505  0.9047599523448749
  0.5402155092466741  0.3925537551725600  0.5618137189733442
  0.1661472830789411  0.3914630807500610  0.6198275300414564
  0.8025024427315565  0.4010006962060860  0.1405757788853124
  0.3770098165557683  0.4743671567269823  0.7095483174952925
  0.3316602569686037  0.6973113626130569  0.7435877443480520
  0.5172593773634725  0.6403878132483510  0.4842185482573543
  0.3603732526367883  0.4223573839711225  0.6112864627539976
  0.2058126269550800  0.3892748009912575  0.4837957542992439
  0.4579565977088698  0.5787075047564468  0.6628182644710360
  0.5131649276503492  0.7821229057696814  0.0666495312412400
  0.4746713165817399  0.8225031408764587  0.3429682093116564
  0.7132804330211853  0.8416210871545070  0.3139087338959087
  0.9785355843252700  0.4728442740209775  0.3982800737848490
  0.1699836041613053  0.5682767698605925  0.7498337537975840
  0.2586658149157806  0.6967818677771686  0.5814805480432443
  0.4461181392033749  0.7073054025860706  0.9844652075362084
  0.1907515921186043  0.4680056407194752  0.2882964285393315
  0.4938625617784941  0.6217095540527584  0.3626898794213050
  0.4490986637899766  0.6853136622118804  0.7501204611368013
  0.8446139996978479  0.4633476407633843  0.5575726905476257
  0.5272364363607963  0.2616160013761137  0.8882478233711478
  0.0307445094162778  0.9061438608130717  0.5678328758769425
  0.6446455999265918  0.1744192775035697  0.9301027798278931
  0.7617679141268930  0.9607243844226511  0.4678469280859798
  0.5645000190897819  0.4390560582991441  0.7753267186358546
  0.5738876281154821  0.7091664152807255  0.1420947218702759
  0.7929670320620766  0.2108508581047631  0.0925551009568327
  0.8038868841371944  0.8951708959054728  0.3535163351088430
  0.5720795794023711  0.8358409231699437  0.8619132997924199
  0.8506017582057898  0.4048905678089637  0.2510543828351098
  0.4820867923617936  0.7385219016603228  0.8647938407834876
  0.6990930786830181  0.3759935957681336  0.9419025853978923
  0.6439500364775832  0.6566090916995700  0.9696184894856965
  0.2634911282017270  0.6940496720502063  0.3440875035556497
  0.6569271864556754  0.2873894176879335  0.3718445042051794
  0.7272661247398899  0.1556676203632468  0.4092592371468994
  0.4494580235634456  0.6066343764626243  0.9056272851176385
  0.6064034305855152  0.7031018021824768  0.6582990264758170
  0.4059270790197553  0.1772832029099929  0.1149422366172841
  0.6959459143847192  0.2400885088967338  0.2740859468222396
  0.6257539363208082  0.8562540681163759  0.0283376241709464
  0.4754670826539066  0.8965180748863665  0.2270752492967636
  0.5318842538244786  0.3311747963578965  0.7671391916436258
  0.5838310520420356  0.9868289738012741  0.0053667584382134
  0.6312860644194963  0.2224860765182209  0.4723435318080458
  0.7011685108108254  0.2290880906928957  0.7380194755631012
  0.5862975172725516  0.8562736905054401  0.3071732149511259
  0.8223000668010058  0.2019598992740436  0.2232588421241473
  0.5800947188207783  0.1156608340821827  0.1509181597717610
  0.6146831822948740  0.8818708198433970  0.5908807035750693
  0.4977578051647455  0.2573761965643369  0.5231276665614367
  0.8209837175121232  0.6546924911194841  0.3337984774148358
  0.6380018173121982  0.0384176291485364  0.7664727818961959
  0.6770541750769398  0.5806103433221156  0.8668559435812352
  0.6991150104817743  0.5471324096637721  0.0563928720810452
  0.6684353242999682  0.3466130314686824  0.7521829080236039
  0.7064411099003544  0.1626523455921026  0.1696383249753334
  0.5298311275276364  0.6006287840965066  0.1456598059787462
  0.7576978431741483  0.4688912561355473  0.3548437427138410
  0.5986127344856351  0.4640674000617819  0.9149643531247342
  0.8756628310794778  0.3230887784870861  0.0632714263798816
  0.7505367910240399  0.3300053155235481  0.0662137509707849
  0.8551392771142124  0.0980743216397387  0.6766881338970717
  0.6126174426348517  0.4469056060268614  0.2511573397205899
  0.6576035769238661  0.5264581718180459  0.5839026499418581
  0.8302557721498559  0.2488433299187720  0.5460218402464088
  0.7791502830778887  0.4393497373445135  0.7537431371491857
  0.3253900883814402  0.4210964847902309  0.4439421497907384
  0.2110495591816224  0.0784849203934493  0.5667344949311179
  0.5205797585254833  0.0413640281415582  0.8102934897161269
  0.6228196207613050  0.7927537943196209  0.4949119780854746
  0.3975301532996670  0.3980554516241719  0.9048184666272562
  0.6164534964608653  0.3141543542344868  0.0901119691406735
  0.3994503784629301  0.4621498037029422  0.0601094143703684
  0.5666185185071297  0.1392854291677131  0.8423189347362319
  0.6166454812778024  0.0720224235509295  0.6363958442468187
  0.6093289548173076  0.0522693976973823  0.9059116081400893
  0.7729021640592306  0.0816423731259137  0.9128533194177744
  0.5196815492426862  0.2168788050885112  0.0978375079124901
  0.6524401315996659  0.1856295988585338  0.6343730600770827
  0.7027336940280736  0.2608045500596240  0.9942784656935826
  0.6216119550236706  0.1529664133256459  0.2552690428020804
  0.3696803372717380  0.2316810324816736  0.3362798258661187
  0.5275275779484392  0.0295209987835446  0.6947116414011494
  0.6111242713451972  0.2415724774853935  0.8122060036668676
  0.4780540988101701  0.3920266179913059  0.6739886693286116
  0.4996915701708728  0.3900341452258359  0.2625776013354512
  0.3410255686305677  0.3992765463753061  0.7977306169758615
  0.6822333306950157  0.9891779090988709  0.5700890677225214
  0.0233256700378036  0.7652525667671533  0.4026170798077044
  0.1669780179405897  0.8716914674973908  0.4412527874404183
  0.1735677957586981  0.8641098989745125  0.3154291376964171
  0.1048369333389413  0.8937985398438714  0.2277255571765410
  0.1349115735129143  0.6405675904782726  0.8717181193561996
  0.1621326462264591  0.7121577988815947  0.9741597026614985
  0.9967372363947195  0.7591009123402960  0.7904807933819742
  0.6137197108721252  0.2357044266068171  0.1720796181283230
  0.5209561669676642  0.1340944328520874  0.4516104889280549
  0.9669608483027676  0.6096031514234718  0.7875347524588895
  0.5452507753681957  0.6736867330219019  0.2446687746255339
  0.4050899875650311  0.8008706447382254  0.2418553783409712
  0.7424024535721577  0.1288663362184753  0.2815572652057824
  0.8211774140330498  0.7862278486482530  0.2945797653169893
  0.9415556736249920  0.8794188677934858  0.1507890067625656
  0.4574493386957506  0.7167955282860268  0.2989887246832460
  0.5158558861284679  0.9583881984701310  0.8975791528493398
  0.4092448064203488  0.7816181120406659  0.6773471843451102
  0.4687879854252834  0.9324523967286437  0.4174817544821324
  0.8381320450101316  0.0708148276292555  0.2513408366085306
  0.4966704927584971  0.8882698196128266  0.5355792725338016
  0.9940656297113011  0.5348852122628864  0.2910380963358362
  0.3072346657269667  0.8650414037529720  0.8470644853580267
  0.8616502745920359  0.3054303899581496  0.1816634226591246
  0.3689218129748957  0.6911944915366627  0.8684603155767718
  0.8740252243427606  0.5221114006452654  0.3183587719086614
  0.4801272520307632  0.6943934557878345  0.6136156939851690
  0.9373765244463801  0.0391516296321207  0.4663826207943644
  0.7761459012393966  0.0690503779005062  0.7803316320768061
  0.0540566523747696  0.0845195871638150  0.6152778404710283
  0.7306519189832853  0.3863578806437489  0.6580558514163319
  0.0478443566066776  0.0036942442926973  0.4695936298883189
  0.1040905684269429  0.4915393014696803  0.0434765053341161
  0.0039038296860152  0.3560636091030487  0.9450920716482736
  0.6627095054592782  0.4673830045461842  0.7086181222538707
  0.8575929608864084  0.7945094424715563  0.1819719511696365
  0.3938203242608230  0.0602761857606511  0.0842571980643054
  0.5387593135707432  0.0763894725799650  0.2793553167024780
  0.0953611765354277  0.4927982888665157  0.3485598239309622
  0.9796302864519177  0.9636648129984029  0.3677752267757743
  0.9672782665058920  0.0500353157995450  0.7015537737070237
  0.1643861994468667  0.7619878603140352  0.3879275845497281
  0.3759535478555733  0.7530399196627763  0.5620501064427638
  0.3207911332566618  0.2872782882661186  0.7471014920211663
  0.5953938123935696  0.0517878168799848  0.5141837991918546
  0.5083921425223612  0.2999753453859242  0.1876466438840620
  0.6451221108677393  0.7433007383153348  0.0471474495031174
  0.6569112645657836  0.6501692510430563  0.7767533026516629
  0.5885148258035301  0.2600766066690627  0.6983984075827943
  0.5574444692870099  0.4443695287141994  0.4373805489325287
  0.6604994732520362  0.0528354625069410  0.0964533913561084
  0.5305504633326242  0.9277384471707245  0.7733002675389657
  0.6114054633552799  0.8293738502524752  0.7083810738579126
  0.7849805569285676  0.2384323758932879  0.3454129901050806
  0.8311183502106965  0.8708344824484623  0.4791890188929257
  0.9139630762802695  0.7826429013695303  0.8914525680361306
  0.0758994098238285  0.8481604373634679  0.7711260597488028
  0.7869100542622519  0.7663812612187680  0.8127415269824740
  0.8332323744238542  0.8987346983116193  0.6852243470525572
  0.8091247778684573  0.7657766243543497  0.0811275055098611
  0.7226507245490740  0.8521390854610198  0.4332644156451192
  0.0987247383476434  0.8920925803389643  0.8829008870817587
  0.7383930925598380  0.9623283831846583  0.1498267787020889
  0.5318568895136978  0.2575645246638014  0.4125193700673632
  0.5344247696329133  0.9891593258771894  0.2007608648386398
  0.5646705619188289  0.7621301634812454  0.9630995093788075
  0.7136788599557365  0.8683987520359006  0.5373670827271372
  0.5583198334283355  0.7891990408728113  0.5994459132803498
  0.3580944878672698  0.7742618422821237  0.3433474834781555
  0.6625580088579504  0.0495626460716536  0.2126487819635803
  0.6623595503898304  0.0684891519426117  0.3357993595240691
  0.0530343617049953  0.7247149197922362  0.5967547559284246
  0.0779114262739938  0.6964347473915167  0.1992997309632817
  0.0095605502205313  0.6850445538889034  0.1042864976644290
  0.2226008182606216  0.1693470844257784  0.1955161239904337
  0.0813309911340471  0.6609924655185033  0.7688266860847660
  0.0489723828662123  0.5818920941887092  0.6909007949645039
  0.3269991488875015  0.6284350554652465  0.5291835116144146
  0.9633191330540036  0.6300952291603695  0.5960760223430004
  0.0451553342349450  0.6764922871719227  0.4931484826103494
  0.1667635579389850  0.7693140919183918  0.6057432977275593
  0.0332923378212210  0.8788436199641690  0.4407905786976009
  0.1745468246263750  0.9907091042559433  0.4748965520054957
  0.0020185396998491  0.8146830368553424  0.6610880178404485
  0.9539038879838164  0.9268081747436170  0.6717649290519320
  0.2494101171293905  0.1918235122602804  0.6202847510484221
  0.2510929568420623  0.2505840498447516  0.3559198770885715
  0.1827559197910131  0.1110486239118966  0.0970900953082226
  0.0912568806913953  0.9084677786675002  0.6696659634787371
  0.2109847815854237  0.2135899580288085  0.0506315305261483
  0.2709750185422634  0.0397630310928007  0.0464986653475081
  0.4253875987342234  0.0059545571004437  0.7402011565680828
  0.0994982758939336  0.0289769604673018  0.7154289074191621
  0.2206861047661190  0.1835278115279945  0.5056047513673900
  0.1608175160386693  0.1016073217514837  0.2801657643407582
  0.2289781501505842  0.9039150509922191  0.2003583439369257
  0.0849902245070527  0.0219557450577077  0.2030223948762002
  0.2953380060420542  0.0401217460426850  0.8922018699631495
  0.1481324624366110  0.0939289574311822  0.9948151168809887
  0.1868128499501156  0.0724671735089401  0.8889553396288705
  0.8843433913247110  0.8238361249860663  0.7780838355829409
  0.2681515682998376  0.7321414811991417  0.1320159292807032
  0.5821089684822847  0.5699441929827453  0.4095848211318818
  0.3329131768089008  0.5542093454269834  0.0590093845012846
  0.5437159423246081  0.7266840170446042  0.4039971578990051
  0.3724814021550450  0.5120568167656057  0.8325286801498396
  0.4601995291272640  0.0785101302146491  0.1785444364623513
  0.2550136648334297  0.6188721459864958  0.6788002250614021
  0.5060801568272831  0.3446683437536653  0.0688936031524316
  0.2768797640519005  0.5452536776992883  0.4531459711225388
  0.4389921661240360  0.4177581247959339  0.3771766453984471
  0.4496516240223721  0.4252775860231088  0.7885419245447232
  0.1635312282330491  0.2743948425477444  0.4320731368063110
  0.3589355273619756  0.5812108606655660  0.7243559683907146
  0.3995685899026754  0.4609544145182797  0.2602305042097759
  0.5607194182684133  0.4033241983385327  0.1540085787593891
  0.4337525778326903  0.7193661573489893  0.4166264156872241
  0.4604229175719682  0.0578014616107036  0.3682523493503861
  0.5088437404080681  0.3772819384876429  0.8782539064450647
  0.4368005742450931  0.2790094259268212  0.6977647325193821
  0.5636635855246050  0.6096967274903621  0.5962169680681304
  0.4148904914417967  0.1293249716932146  0.2729972976445738
  0.4594630533334644  0.5909483209128124  0.2570473102842236
  0.4632858207061692  0.9670801243675136  0.0081226373760089
  0.3460440451541097  0.7607745263287478  0.0372992457140733
  0.2821808528180148  0.6051485040422241  0.8050314740320357
  0.4869433004319300  0.4280514018263986  0.9829180112506394
  0.4714610623648376  0.5259743183054286  0.4433841569750534
  0.4687703245929551  0.5529574536286808  0.7780592530645964