 B Cr Fe 
 1.0000000000000000
    20.0899999999999999    0.0000000000000000    0.0000000000000000
     0.0000000000000000   20.0899999999999999    0.0000000000000000
     0.0000000000000000    0.0000000000000000   20.0899999999999999
 B   Cr  Fe 
 137 206 480
Direct
  0.6110551788325650  0.9001158287959069  0.3637819846157760
  0.8804300621285017  0.4671022249804159  0.8103029289519531
  0.5204225139790316  0.3010361104134508  0.6723840360195534
  0.2922850696802896  0.8347397312575846  0.2017815126176181
  0.5251318399527626  0.6800767406018516  0.6666436861415939
  0.0579166204219419  0.5678678141668952  0.0128137951809688
  0.8682312156986753  0.6237298887861328  0.8355848427847796
  0.2806643628794326  0.9938069962225575  0.9617015749537201
  0.0423775662126980  0.9714982372263762  0.6616065993561874
  0.0337453402005970  0.9632454252489643  0.8681578439485198
  0.7455133332970729  0.6321313104108139  0.2606619626422354
  0.1768119301727497  0.2863941364269577  0.7691096261997155
  0.8890480655283354  0.7838248443112844  0.5478955972779398
  0.1128302293290863  0.4045026314272201  0.1469308664644519
  0.0677681088857766  0.3339309848757450  0.1166929133854155
  0.3437075121206602  0.1420765837163949  0.0326016933655354
  0.8177105705419732  0.2302011499037789  0.0047909163467264
  0.0198101829866447  0.5267849946933459  0.1970772579746482
  0.1923857934111018  0.7268640780491195  0.8785053565758788
  0.5849735740882714  0.9724227578757912  0.8362274028999176
  0.7396732210080595  0.3679098570701243  0.8445224524453081
  0.1179961248228079  0.1350350841588108  0.1834322075482846
  0.7831400938866201  0.1447062644870202  0.5091813934622740
  0.1840717827171558  0.7570024278992490  0.3045583087237724
  0.9119434300140286  0.5453629608022162  0.0281800963134520
  0.2808994038401075  0.9770148614457677  0.4451085432679637
  0.1281692236716255  0.8065257230040882  0.0369212986921373
  0.3930361245706470  0.6056108293694509  0.1577526178865879
  0.3835968518276801  0.0607292904131795  0.5553920555117359
  0.0700121564727555  0.9935407332837984  0.2874993028762629
  0.5030833939393524  0.4968294017029622  0.7261469820536307
  0.9554288871300747  0.4573631421584994  0.3120699915504739
  0.0069795392513118  0.7522066972401972  0.8955327898655506
  0.0473671186194242  0.7510694784387472  0.5957779155202243
  0.8207888945912677  0.8891852955793971  0.7798931809340574
  0.4864274978482244  0.1193300768706595  0.0917026338071504
  0.7292202582410371  0.4727231087570868  0.1701229768222878
  0.3296642646572082  0.5834820556059117  0.8980322287636372
  0.9936496113112004  0.8608071557575998  0.7576916503061697
  0.0205757001570424  0.3791636479137483  0.9802772485562058
  0.2149048149822911  0.5389117834990098  0.5248584333031292
  0.6536841452310624  0.5586934148997703  0.9575725147692228
  0.2042284271795907  0.0918136069685523  0.4562221093448010
  0.9958467186211956  0.2097918003964175  0.5904270705039893
  0.8817586467423529  0.9736486213626907  0.5167076512146629
  0.4244821045770947  0.2365056134366530  0.2196715869717604
  0.9601936422674874  0.4098575535420393  0.5508636399888047
  0.8628078215583725  0.0527744842110524  0.1016013659241070
  0.7391985751522792  0.8022600024219924  0.2216490836778047
  0.9694905773446759  0.3777131197883360  0.0556386311736334
  0.5478601466034403  0.9537101895819667  0.4952908677860969
  0.3346310157669354  0.0717130508898658  0.3039675440679794
  0.8037929394613300  0.1303000642028018  0.8509352556295642
  0.3795330211282745  0.6733574666304396  0.5232844549564654
  0.9014574573390867  0.2353026655340048  0.1332226604908260
  0.2665980265775303  0.3787533775712277  0.1795150912379889
  0.5848852484822821  0.5664990811588805  0.3751298558376671
  0.8925109423482309  0.3157583486419471  0.8677408272698635
  0.6146506096996837  0.2767015534950010  0.9162449498684414
  0.0729064078478330  0.7376691219948233  0.0369699131438026
  0.1802884116353932  0.2169486337893282  0.2926131077474861
  0.2114681741511637  0.9849520219844117  0.5696172125401882
  0.3461940266057087  0.9536208857137495  0.6871854973761811
  0.9329857440298446  0.3123047384728130  0.6633433051150055
  0.1573856893361294  0.7830460777741092  0.4763854262045642
  0.6391704895440075  0.1097577669439055  0.4389050127474504
  0.3417549347467569  0.2220032731362059  0.4261469039108839
  0.3588891183193690  0.1535373620211858  0.4817474221812501
  0.1695188939282232  0.2080463791265149  0.5379122430169689
  0.7391928100134668  0.7229623788662293  0.6231727862341336
  0.3167534682573557  0.3447650000957513  0.9699075963800355
  0.4030047292753417  0.2100061230665960  0.6205020666870602
  0.3448691269162955  0.8005536697759928  0.4510726938368721
  0.0667035875220774  0.3029465523560088  0.4148400739112710
  0.4706115880601985  0.0695052740859440  0.0208937433529875
  0.7909261665569273  0.2978849242975035  0.2709468771178881
  0.2500406753961498  0.5033963878698555  0.3137615670495508
  0.1522321914674827  0.2791059506914783  0.2327345632400205
  0.9121045394483420  0.3881300257235800  0.1471157108468488
  0.0957555904756839  0.0794920800809003  0.5456648384930295
  0.5964108517960868  0.7509347724933896  0.5707411393005789
  0.8661848597338123  0.8158503902198402  0.3854982956403395
  0.2622886331947932  0.7665033511534137  0.7551074595624346
  0.3854301183002594  0.3629707050448567  0.7076335899332941
  0.0976551585149282  0.8199493541635676  0.6228963423937803
  0.7050129005472701  0.2398322153978123  0.0993584140766156
  0.0778622444820058  0.3176553759481122  0.6606566520714988
  0.1545700482414022  0.9692584928975084  0.1681629923239270
  0.9357900052509840  0.5581070201666227  0.6862709839427809
  0.2529091152733922  0.0658092131820854  0.2622497422086427
  0.9151195625594718  0.6298118393525154  0.2969764468198883
  0.7822742069766163  0.5654616026627327  0.3002186417056120
  0.6450525240756224  0.5782780218924447  0.5471798288701822
  0.5899211475470157  0.4005664171453804  0.0659533507287291
  0.2992541076822275  0.3658069561999258  0.5566578281374333
  0.6899446552710774  0.6051313863028900  0.4741808946974375
  0.0258795477574970  0.6144457684555420  0.8659237876559093
  0.2337432834098521  0.8408535702703969  0.1366296586288563
  0.5807827955877602  0.7104112795953680  0.4991295501605137
  0.9731604243852584  0.8522620951549424  0.0203818459218609
  0.8073783368088454  0.4946831312967318  0.1191671984856105
  0.0671908795942363  0.5856091582355982  0.1589660676267645
  0.9205044073437707  0.1321157590116594  0.2517128913565286
  0.6748372921266097  0.2905059553288304  0.6563982381670854
  0.6339766150871231  0.6136288139957912  0.1135946627651031
  0.5550342059992793  0.7602577257471637  0.2956676223087834
  0.3559463756411373  0.1216561884428768  0.8588394482302977
  0.4859832567260365  0.3276855712519704  0.9658994605496529
  0.5343228752579458  0.6725562311369626  0.9290216092187176
  0.0377653506450777  0.8551643798717469  0.1900463743839816
  0.0284955456714535  0.3223517621263936  0.7812101247528542
  0.5273304672113908  0.1658106294349194  0.9371867504160717
  0.3544963827110309  0.8651413146759104  0.5122591624311364
  0.7358561552700345  0.1933230157885128  0.0252520119518515
  0.2847648392549399  0.0103146015479412  0.7067295599994941
  0.7687065310359870  0.2066094333612929  0.8273239427456266
  0.9315132991259960  0.1420611904202944  0.4557033060028168
  0.0958057606169912  0.3866872930136527  0.3102023196675200
  0.2911939923690838  0.6510058630672761  0.2626231605534622
  0.4054710890343500  0.7524080105806817  0.1401995020352173
  0.7865358318461866  0.3341166402752292  0.5792201542801207
  0.9332731388586851  0.3902654155691184  0.6302872117203788
  0.0882034972318146  0.9246305681427209  0.4908054872523158
  0.6901436349984701  0.3942591849743201  0.3265088418662581
  0.8586770009191662  0.4060320006662314  0.2132713895693741
  0.4514773346159346  0.2662879486395006  0.0248331699476909
  0.9138233199202840  0.4072993127559394  0.4764626714494530
  0.9764764126988322  0.8066143780606838  0.5710713344416986
  0.1950969704346787  0.9918647610031217  0.9921299346355407
  0.7266476593826425  0.1292529720174548  0.0810993881171463
  0.4986108227573636  0.5322401085594801  0.9822080713405706
  0.3168293526732771  0.7634661063330909  0.6884591977118214
  0.6680937388385236  0.3738012311421464  0.0363831868353994
  0.1166567064460651  0.2889458208802553  0.0581671875266078
  0.4234654432174312  0.9467365044742317  0.8236891367827516
  0.4628269717985331  0.7956601951114400  0.9541147875270244
  0.6154588750752452  0.4303781535213132  0.5103279702796144
  0.7388270031385694  0.9589655451191281  0.1264160920670463
  0.7872066907267375  0.8072187564529285  0.9294532340400070
  0.7014733601440526  0.7337823212917447  0.7318037267886344
  0.0066942029197153  0.2460135295294936  0.6979622481583950
  0.9092526448023676  0.7289344820420923  0.3549118716627784
  0.3113974589251324  0.8516100734597084  0.8549830246675184
  0.9285775880029692  0.9434736344336085  0.0655658570222909
  0.2439904634902854  0.0516490159972083  0.3659554200717576
  0.1336181237511665  0.6362562352721188  0.8716727071826815
  0.2727471068868030  0.1617362246070891  0.2851868235809895
  0.9767448137881379  0.7656879148672464  0.1971552874420384
  0.9989510875221812  0.1447780374624858  0.9890941580832687
  0.3177648670147179  0.1523560961004301  0.5804407993787610
  0.8334349809371636  0.8538326352252923  0.4794494395307359
  0.1982900460892185  0.0945626953374887  0.5673780429152097
  0.9783234100602000  0.9192195113432539  0.9435121091228015
  0.1647619334096724  0.8734734279010781  0.5613333965246489
  0.1122296193009348  0.9516763740200714  0.3761633875606171
  0.0011628158421775  0.9902966173796602  0.3708071203233139
  0.2429184598876932  0.1527511682145746  0.9909873453922747
  0.2535246043300095  0.2544738503344600  0.3657539345939466
  0.2250070246781312  0.9393246224399652  0.8882378425268127
  0.1898066941663607  0.8201309017783538  0.9300431784632921
  0.2327406690987076  0.1922746263436941  0.7533400902608037
  0.5886663950015417  0.8705317749700353  0.5687929111902339
  0.3328883457256487  0.2915985227670223  0.6303164217569799
  0.6392677817124647  0.7649175025500434  0.2279286150323408
  0.7593154866914871  0.6295005538814450  0.6691649571270710
  0.6218106899416376  0.0737271085801645  0.6269722262085184
  0.6992421023655012  0.9966907688929022  0.8662308461244804
  0.8026454098677160  0.2095259979422682  0.1113527918159544
  0.6260471271117392  0.9496672824790890  0.1048149087724088
  0.1760120352164811  0.3206596932273749  0.1421334410757814
  0.0817138362348434  0.4770391715291988  0.7084932425585668
  0.5489249209225182  0.5270436813029339  0.5493494897549377
  0.5801498530471360  0.0077715633746961  0.3992321581016700
  0.8004374228265887  0.8155562035065675  0.6027676111194968
  0.9346037071784632  0.6204943227846683  0.4005685324802584
  0.2050032070862624  0.5145620431888459  0.6286058198188108
  0.2277704476809128  0.5397427247195862  0.0824790707518605
  0.3738109277184274  0.5173724626105844  0.8344062942300217
  0.1035094779990766  0.7320394896567729  0.6875898182375026
  0.2571821522799078  0.6054632389800167  0.4581167674160644
  0.2138392716847144  0.0574325667628892  0.1676658592809910
  0.2433003375216475  0.6443372436119300  0.9221520303648479
  0.1268258154778975  0.5797089899779611  0.4810968183128516
  0.9674180057261327  0.6222207753586931  0.1986630277240567
  0.0014746054532396  0.7492065499919693  0.7848738144273326
  0.0874315369749153  0.7817574316721605  0.2498459457139922
  0.1033804888081579  0.6402848487033009  0.0731451410116599
  0.9708296770404021  0.0345342411261194  0.7131910461325270
  0.0780294324680807  0.2096040476219580  0.2587908893765462
  0.2330446562739513  0.4978996156897384  0.2058798990114072
  0.9685766569696233  0.2397375708755685  0.4105015317233003
  0.0509548341050429  0.6644972122870937  0.9573801945925304
  0.2132611151847906  0.3750218559850695  0.9173612483336948
  0.9343912069161887  0.5491085201317643  0.8551369793227407
  0.0888182434633425  0.2014639695087993  0.3731466443476140
  0.9070111398210959  0.7719056338418807  0.6504299575723023
  0.0901000717696448  0.5754135546655016  0.2674429578805547
  0.2545580441769393  0.2991690777208710  0.2567878109990108
  0.5282707162128941  0.7808110290237227  0.6420542262405241
  0.4383715688976181  0.1803179133715332  0.4078297216638740
  0.3521117848467222  0.2192855735473381  0.8165391730312709
  0.3888166529364102  0.5171163604150862  0.9606060330166123
  0.2178908884553258  0.3139348098140058  0.6753986496330845
  0.2000107484758932  0.5353621257238191  0.8802497459566249
  0.0078275991628725  0.3310582057613103  0.8892224776681821
  0.9700813958377712  0.0190906742857766  0.2416912510122857
  0.9707721939544358  0.4458103245232727  0.8869558785893012
  0.3682559562001125  0.6677584973644456  0.3329127671895780
  0.2428470302883277  0.7948237730773131  0.3853735660292479
  0.0615728278054046  0.8178062474080686  0.9594532758016338
  0.8491187794031827  0.5551275792177962  0.7503873554760018
  0.2552357060476907  0.1841758104427386  0.4818003285924189
  0.0201844467592154  0.0600392707060332  0.8121442280421054
  0.9619890726641166  0.6214877482071718  0.7730559613949723
  0.8042195886849568  0.5345124092314018  0.8570572588396950
  0.0266857502656809  0.4069443721791313  0.3877359340297560
  0.0079258262422126  0.6835377896917457  0.2991792078981043
  0.0142221766804823  0.4319004866042525  0.1386776369741675
  0.7373092680389537  0.8659878544385665  0.0235958337729258
  0.3898775788841003  0.0653503498301837  0.0855872203671628
  0.5055118135932845  0.1938237304728649  0.6501584148360620
  0.1339327055470829  0.8724746838179397  0.1243321116450347
  0.8644073513030897  0.7259784561941011  0.9912744469474292
  0.0636391432854128  0.8152694839383734  0.5070178032857965
  0.8575894560824222  0.5586455595839405  0.6144217082430742
  0.0875326743318470  0.5376767087776196  0.5893663754989712
  0.1074639653993592  0.0278415841475429  0.7333163203112392
  0.9818361888380460  0.0075918778579032  0.5769237025497581
  0.0340972427680242  0.4671728546171340  0.5024445782751583
  0.1230529034941967  0.0645802127395513  0.3786092709932427
  0.9393130218944268  0.9549967091771706  0.8155299664747006
  0.9595988484503936  0.2388732405624174  0.2232689593493391
  0.7473319253046662  0.5822054978912719  0.1494242223956047
  0.1668810993791376  0.2740023975133323  0.4502414189993153
  0.9390725137513467  0.1570480833473258  0.7549878500360225
  0.9632182816023378  0.7031910045182813  0.5470046721155626
  0.0078043840550742  0.3122656628691350  0.5885283454882770
  0.0823674017070109  0.5254963574499805  0.9183752031654202
  0.7023130878009466  0.6913949776943754  0.0954896135443263
  0.1742532740325137  0.3911311172445056  0.2380625249369972
  0.7520510414045465  0.9856216458712975  0.2563567215383410
  0.8131440317744895  0.1708787731386494  0.7415098733114026
  0.1978892395153804  0.0604816830106669  0.9101516745085363
  0.5521719439392836  0.9837116128446055  0.7113660622939777
  0.3721141981065461  0.0657947269149953  0.9624461372854121
  0.8051541068024347  0.3042540829688407  0.9314026491886195
  0.7749836488581194  0.0599805154047448  0.7773615541884683
  0.5474172672754988  0.0594614331419688  0.2720928139464148
  0.8914412435431478  0.2172913294214827  0.6335953934796648
  0.9235530449124885  0.0701703146681484  0.3479383446771728
  0.8017673954918861  0.3056320768467722  0.7919542256777130
  0.8804410191900308  0.1267717030653722  0.9330636718248838
  0.4201797382283174  0.0059459318479305  0.2626419365730326
  0.3714164295511773  0.3340411357388822  0.2249894568941586
  0.0213817918114449  0.0234489714437987  0.0271080201923624
  0.3671952381252722  0.8895656514808115  0.6115514797366783
  0.4670929007685438  0.3536434712878623  0.4927508281009514
  0.6052956279522859  0.3717651231167095  0.6680458527551856
  0.4397312479266541  0.1314674925388190  0.7571225783925463
  0.3190785287396059  0.9635190327142416  0.7929470338752503
  0.4111280455788747  0.2849881064316657  0.1240072144335427
  0.8844130336581141  0.1217432450799010  0.5552083036889730
  0.5787523798058850  0.2583712073361193  0.2913005383971811
  0.3251185876894969  0.8725164122387412  0.1017122568756935
  0.5199851215378607  0.4897098406486341  0.3307967764980296
  0.4708818145069594  0.8981054834038482  0.5416068019680229
  0.7355406203290100  0.8796605811716282  0.8488561129433083
  0.8231368155151030  0.1963449167370784  0.2298180756687360
  0.3441498661270841  0.5230709459859380  0.6321876514259568
  0.2237684955083105  0.4896951206576730  0.4247303375351433
  0.1871334753777820  0.8148102613378005  0.6894615960558030
  0.3554413488316572  0.7726386161158202  0.0378702723306404
  0.4918953977437068  0.5483227511568812  0.4422875581822445
  0.2965080096049120  0.4100260260802718  0.6685741045512282
  0.3517421512115446  0.6497544073089045  0.9773485615631242
  0.4295396154110813  0.7327118359230963  0.4285297569429352
  0.3919056771931023  0.3985186490743192  0.5964281491929608
  0.7788030216073702  0.9546494340210349  0.4618082148900011
  0.1622682238336019  0.7500324558528830  0.5763483143255551
  0.1674973615479796  0.5611640787232745  0.7623255126266348
  0.3052241932592227  0.5889071480381435  0.5575059007007276
  0.4876158278958067  0.8311157138357218  0.3382862076618338
  0.7021895315907737  0.8588915106132988  0.3038577701035028
  0.9463065238823583  0.4980214307529094  0.4093673462966316
  0.5525229870553138  0.6714044401624432  0.0427820448521395
  0.2876259696507512  0.7463627598201168  0.1471143732241299
  0.4992501437816595  0.6282389736475805  0.3605966820329766
  0.3539104295043558  0.6717100304127731  0.6340501167554417
  0.3948926059608760  0.4739829479167158  0.7144860278481204
  0.4590462104035314  0.5895716102532796  0.6619647098486955
  0.4222120376290898  0.3198785458460491  0.8147891312869439
  0.7328652052564540  0.3863371216705201  0.6554842296188890
  0.8498088190024780  0.4375603674825701  0.5775171308672455
  0.5614862140573292  0.8340731060111738  0.8532426513212765
  0.8073603476434827  0.7814150769973405  0.2957250165426015
  0.8562667691465197  0.4229539127078916  0.3114655922036785
  0.7113666457497466  0.3841337844065879  0.9437436883867423
  0.7796439910574973  0.6528588868632139  0.7841017204128623
  0.2832049000559577  0.6166253697187812  0.1612683128749355
  0.7584226674611626  0.3219577859788349  0.4726145356066282
  0.7410678534678650  0.1340656667201524  0.3849053197370446
  0.4479639305653844  0.6076004449041372  0.9158023259259314
  0.5780228976153911  0.1138508024332295  0.1522464492391874
  0.4146324520136323  0.1422614595058747  0.2795561674380273
  0.5335782273594186  0.1283560423797437  0.4478277784629905
  0.3888349644811720  0.8034563798284163  0.2381400287492476
  0.5000044284228055  0.7774050691307548  0.1997673718993427
  0.6171203646414459  0.2173556898340623  0.4881695562531118
  0.7071143291953245  0.2705944634404516  0.8698171249613965
  0.6321824242536038  0.6903537944196967  0.6581167198926403
  0.8463822065598098  0.1964786983477399  0.4378673342155157
  0.6087263491147981  0.6712720617477435  0.3316350551881863
  0.5022639658637058  0.7855644574134906  0.0660649273044983
  0.7042905809903705  0.2269605486166047  0.2809179866082658
  0.7020854263783540  0.1602398950766513  0.1760395423665858
  0.5123051057500145  0.9061844939297793  0.0806577515841284
  0.5151302877690107  0.2633061744653753  0.8838558515944889
  0.6804850544126264  0.3841675881182329  0.1425990923327697
  0.4784309308667278  0.7377813906994162  0.8596033947394178
  0.6323897149859302  0.4449421994658442  0.2467935758984392
  0.6970090321170280  0.5977654095325715  0.3637021300674925
  0.6067519509740609  0.0516819383253200  0.9071981689117977
  0.6681882937495280  0.3522484125067731  0.5599245542465565
  0.5230327424713036  0.4817723026641143  0.0867134363261805
  0.5946939578473418  0.5363195941549295  0.7968557147429415
  0.8751420019090274  0.3117223934273728  0.0597199604402815
  0.0936726294606841  0.1757692233706114  0.6040829852837133
  0.7121892343601790  0.9035877892327089  0.6407952073379961
  0.6704109695650173  0.8995560303266414  0.2015952395406344
  0.3982122947796701  0.4048391191727564  0.9097286826715236
  0.7886193763822054  0.4302637193143297  0.7626662909184162
  0.6406086294939544  0.0449021153417105  0.7800977594948842
  0.5175130803729625  0.0471873786206957  0.8017926179110743
  0.6786591837581263  0.7099177530228787  0.4243787948500162
  0.5885253636729316  0.5674592393710632  0.2701261551725163
  0.6156960917309171  0.2997018270043458  0.0914107306256338
  0.5248104129884168  0.4879091922841122  0.2122177282282919
  0.6922572780174598  0.0944838474141328  0.9820671498053222
  0.8812556187863037  0.4594765146040132  0.6951450232707174
  0.4458077698798923  0.6879371515042826  0.7359365299520549
  0.6049891541105388  0.4660918265078790  0.9043530708967127
  0.4138450620784465  0.4511063245449053  0.2684929790291231
  0.6811296525533576  0.3417512522208035  0.7566388555493554
  0.4260307663751289  0.0077415305861409  0.7334515803908316
  0.5192870941126860  0.2143516153708958  0.1011659481694319
  0.5245865046615463  0.1593081341749458  0.3331554562606952
  0.3419407813526571  0.4091903685528269  0.7923523198416634
  0.5523335513481294  0.2437084874888227  0.9956780049070909
  0.6505866461569126  0.1851709582915063  0.6371041972750024
  0.6120646778325033  0.2384954736434005  0.8202963527992899
  0.4836786326194618  0.3922941307474170  0.6858584905804551
  0.6320951699938151  0.1773323227402138  0.9330707287160038
  0.6024078702669134  0.8461578125393120  0.7058265408824507
  0.5611669084278532  0.9714524717822319  0.5985723385713067
  0.9989586939868013  0.7188635670232874  0.4282207123439419
  0.8088735346027124  0.1157195901356149  0.0299434856797893
  0.1677628222657767  0.8745271463742323  0.4451662733461723
  0.1568902500883760  0.8529727811419155  0.3269051678976049
  0.1128768757269333  0.9082806063366046  0.2359866515616055
  0.1149798550945466  0.8887575787948502  0.8685922848719001
  0.0346232837223396  0.8121813564165793  0.0959974396874364
  0.9468642108631494  0.6704505796355463  0.8935089299968039
  0.6156758328606268  0.2320261457008423  0.1792337047718233
  0.4977859606544449  0.2397012069702947  0.5069935860322985
  0.5606868484759205  0.1390473524672811  0.8448786667416136
  0.6220160119251557  0.1442764028112540  0.2624997840587168
  0.6376485661466090  0.1804650602095110  0.0641230645932806
  0.9920353351664987  0.6905023275956642  0.6748741327501330
  0.6429180223276816  0.9157831357371101  0.7841084216820747
  0.7647696917502530  0.1844650731859257  0.9299060633028839
  0.9706656654234774  0.1301269173952688  0.6431980617644034
  0.7096107121695054  0.8204238485661494  0.1284459280994681
  0.8125069545423700  0.4095374426111268  0.0022937015974107
  0.0439442526297505  0.4177431777856264  0.8098315694160255
  0.9202858188722630  0.3738411220286478  0.7892310367761783
  0.6863497782099053  0.1245151001324359  0.5371095805166993
  0.0041334721068736  0.3804589789411531  0.6996356928436684
  0.8632292701635821  0.9885114399595806  0.7342625627154055
  0.7041846479912879  0.2218244216383645  0.7475441338679167
  0.9740537146974779  0.7528251553379910  0.9937533342799062
  0.8899110945411817  0.3302019192867782  0.5609929871825171
  0.8005230590173930  0.7696432560602062  0.0723723485004849
  0.9185040147995538  0.3693974071789345  0.9655835410910923
  0.9801071676319598  0.9289319774917041  0.4820640475293171
  0.8757197424884349  0.5698726774831049  0.1239481104257150
  0.7992797838296585  0.8891712520290392  0.2245100024520370
  0.7661600379655369  0.5017787026456892  0.6543200419758686
  0.6273829569245206  0.9171595840465676  0.9125557431798423
  0.7040950895108670  0.1085796292810839  0.7071340488436076
  0.1204322964828115  0.4948757070654889  0.1880168367618038
  0.6800467772095448  0.2706444544069505  0.9902392722643789
  0.8882552804915269  0.0741342220301485  0.8218261084923556
  0.8256334830753786  0.4323810112494654  0.4399781334073901
  0.6937279576804934  0.1338708703297709  0.8396046335492237
  0.7126696727239535  0.0432287621155487  0.4507757418349034
  0.7758084434054775  0.1500647540253911  0.6182138594803814
  0.8432283325859320  0.3542851550011596  0.6757056189906963
  0.7246013309713676  0.2135542730942177  0.4583349214192599
  0.8268137988250907  0.8834031340696979  0.1033992332866280
  0.1099015682933074  0.7597204572732581  0.3858806449348172
  0.6571629273162342  0.9855742255692210  0.6807997409080144
  0.2010437768513718  0.6950499607494376  0.2177292557974759
  0.7982472633741842  0.7861591443451996  0.8128624807990065
  0.8387362311275220  0.8917387044425635  0.6788454920286418
  0.7390180848942698  0.7239297362250910  0.9839342339609868
  0.7174778371687189  0.8460436237613979  0.4208646046780794
  0.0044038095443946  0.8507659987371394  0.8534530983038235
  0.9460356439185066  0.0431949978517121  0.4715664295959420
  0.8437927240789141  0.7950464843987970  0.1794183587801810
  0.7451748738982198  0.1087831438644805  0.2687083799207501
  0.8495284010434553  0.0641183581900767  0.2452231740971244
  0.0103307340681182  0.1334048832150461  0.1974653592799032
  0.0971389090154861  0.1952655700892068  0.0224700836170671
  0.0763700505317242  0.1044081004661082  0.9063773469930259
  0.9768971881409895  0.0383776022122085  0.9157459556924346
  0.8812438200185395  0.9844070168817289  0.9426496117104475
  0.0496826554501786  0.9404587069068850  0.7692545868519212
  0.0417564569216820  0.4513383898974322  0.2646321698405599
  0.7920654840918036  0.0502802659831374  0.5461850433159754
  0.9367189653967489  0.8848648217694206  0.3763218824128410
  0.7701066543243125  0.0215040314703968  0.6565497632824141
  0.9306363670380156  0.6449717047635268  0.0329075419116053
  0.9178275531130771  0.5043118707928556  0.5174596143748204
  0.7961531508856251  0.0278570327692357  0.3507843207765852
  0.7756162641493706  0.0709624044929019  0.1491487159403456
  0.9161100068454305  0.0644990269861573  0.0218055578121158
  0.7805071513694707  0.2463701766724457  0.3576828240152987
  0.9110196741682025  0.8848150643077507  0.5757330772271321
  0.9091010159902029  0.7797008291840114  0.8852381994664880
  0.0948599136534147  0.8308470633544481  0.7631962250994854
  0.0774723827282710  0.6808842241288839  0.1964610558060940
  0.1211974897012996  0.9100853105027402  0.6720846630470338
  0.0043593467331614  0.6955039132278239  0.1024664335857715
  0.0741506867061961  0.6577288899668473  0.7737918114561827
  0.0365213605270436  0.5769171545782560  0.6920717060472308
  0.2777112245310723  0.7014407915113267  0.5497614504071699
  0.9666752896366103  0.5950897912461294  0.5964240016391865
  0.0868194482206324  0.6976164895574469  0.4953162099321122
  0.0695308491580220  0.6510805397606124  0.5939790562398547
  0.0486227446798243  0.8660105734862089  0.4039657433642827
  0.1847429658156731  0.9942386270727505  0.4724610761191416
  0.0342448851529649  0.8962226439713588  0.5876569373110726
  0.9558700709068214  0.9207297345628638  0.6845513550398127
  0.2195583404900508  0.2027301858365050  0.6281883142379348
  0.1968239145439613  0.1616022377384946  0.3821222820257522
  0.2015185794021883  0.2007938625410521  0.1901466871260446
  0.1740482903327610  0.1299313974000655  0.0962005470128685
  0.2058964352912061  0.2348412681472042  0.0611379068048546
  0.2615311237900997  0.0531912299765501  0.0446042418152566
  0.3922115732566960  0.1007745900756343  0.6529934753476117
  0.1119487004459122  0.9840442908759283  0.5734490654049490
  0.2964702623808544  0.0645131097064502  0.4889363532245141
  0.1610302072168462  0.1150874698993707  0.2738647730032261
  0.2365218293164807  0.9225793273020981  0.1980053124537169
  0.0878577776229388  0.0385577965911992  0.1972163344702496
  0.2992521353656505  0.0391981174526574  0.8726086503753281
  0.1299325749124359  0.0002078113071181  0.0776480042294619
  0.0960167022529131  0.9831354696582417  0.9495794691912834
  0.9018588042210635  0.8294738131241897  0.7626635331526845
  0.3106884215123126  0.3023028387844679  0.7485605885225491
  0.5936800317692394  0.6277585593737239  0.4530832103806900
  0.3764989078284455  0.7622132561369962  0.9143859100773086
  0.5425278520671055  0.7367827917005957  0.4080120449466532
  0.4443806246840786  0.3992178246087295  0.1571321683101180
  0.4828114195262143  0.3651393717212396  0.3647559799686135
  0.5155259036940755  0.3810994438712361  0.8804932746971672
  0.2967191011280696  0.3064830182564896  0.4484222942422981
  0.4250112128899091  0.2695416649855378  0.7095612523884569
  0.4296576131461954  0.4485711786848676  0.4022751411228847
  0.3372512526804103  0.0899240303922335  0.2031958217706750
  0.4869015952839935  0.6611754514240394  0.4897994585979186
  0.4523107384619069  0.9752423525973508  0.0024994644872027
  0.4253242861907265  0.5815950259167996  0.5506620872803699
  0.2718113507273652  0.6030081225275171  0.8136754786898056
  0.5622845510457569  0.6364573143330595  0.5803089933112356
  0.5085303463801020  0.3386257639108123  0.0708819843388212
  0.3888795545071575  0.6182209987298997  0.4376704739402185
  0.4109766971498349  0.5467768395305198  0.3473402894259938
  0.4722948122364912  0.6772646292552394  0.1358241824169769
  0.4325463366359356  0.5196580760013811  0.1593120058307093
  0.4988584351622012  0.4307912343520461  0.9855012267884011
  0.4891996719401277  0.4963926181495198  0.8858835804349846
  0.4639994205941291  0.5615282830797639  0.7868242564536586
  0.2605521006788072  0.5977668417420730  0.6831358688039727
  0.6357735500425283  0.5105587698706332  0.1399136871446238
  0.3508123285908100  0.5172503943100432  0.4666195212230184
  0.4111092054654695  0.4643140828157194  0.0605082166279780