 B Cr Fe 
 1.0000000000000000
    20.0899999999999999    0.0000000000000000    0.0000000000000000
     0.0000000000000000   20.0899999999999999    0.0000000000000000
     0.0000000000000000    0.0000000000000000   20.0899999999999999
 B   Cr  Fe 
 137 206 480
Direct
  0.6324763328773644  0.8642621776963142  0.3917897348572174
  0.5522677799121141  0.1503630803228044  0.9237167445844261
  0.2733992212994857  0.6079698246165549  0.3040255569562789
  0.0379572856112110  0.2397984918439176  0.1815620475277799
  0.9622425392124216  0.3732958403450688  0.8026000095208593
  0.1217718576346975  0.5691574108779769  0.9759315380829005
  0.6219453709151760  0.4393980236331055  0.5079028881802904
  0.2296461364413190  0.8364503907053215  0.7825930166916442
  0.4765644405068425  0.8052030111567225  0.9374252651058045
  0.6046599733527723  0.5898631671895971  0.5140355050311415
  0.2085166270969989  0.2336639067004669  0.9726053942492289
  0.9274684577029761  0.4098018204600296  0.5992391619994870
  0.8437034310143213  0.9322583113716597  0.9969517128735140
  0.3078034752030532  0.8029615122239313  0.4995945486353097
  0.5581994745835472  0.7596489707945455  0.3148444836297516
  0.0629827927412113  0.3644940288509032  0.2984436290353775
  0.7959221273506047  0.1596745998113943  0.8430482002881080
  0.0710783365340482  0.8187423842140382  0.6107512039339661
  0.3594637330236917  0.2299925429653701  0.8475272491832493
  0.2731885812331916  0.9197031001712983  0.6002801359939235
  0.1840916861819889  0.6621290670433615  0.0688903211255556
  0.0027352803593968  0.6587635921440855  0.4125724699793107
  0.6985151575327179  0.2534727834520569  0.0960511199570953
  0.9753735770368596  0.3878136712077983  0.0530901534904717
  0.1808618548529038  0.2547645323715010  0.2000653048037665
  0.6226036960904833  0.3482234781321920  0.1797844477615334
  0.9384458938052139  0.3696024832565010  0.9791909912369883
  0.7353291997040955  0.6821363085750592  0.4085245511906388
  0.0522486548660959  0.2953535553768100  0.4118986255682946
  0.4759402764695159  0.7040391110549893  0.0994887542563676
  0.4097639449276605  0.2521185782335933  0.6069171570098519
  0.7407040610285415  0.1537319955554515  0.9935197427546308
  0.9181350989420156  0.3918010885971324  0.4431167528755252
  0.7438089536177396  0.1151001861125383  0.0715993095293751
  0.5651729405237738  0.8916771780444640  0.2051300563799787
  0.3252537555420826  0.3357005074424723  0.9468378111861151
  0.7907957156854024  0.3082950391884020  0.2540036194148378
  0.0942033045885612  0.9122615386319222  0.5072425561698003
  0.0644353270942504  0.2805113876629944  0.1024091977683567
  0.1487709102978769  0.5154911479700597  0.3216414078108266
  0.4353555634976580  0.2586198879977066  0.0314749951364451
  0.4454400069203907  0.9628671043625181  0.8277814373546374
  0.1000073084822228  0.9068227131697778  0.0334607385183277
  0.2939547857482461  0.4959836468516801  0.1907383487312743
  0.7346630700682012  0.6343659485160549  0.4823520688095604
  0.0594695902531950  0.3611339386573476  0.6668580526498106
  0.5230709344074655  0.5129396806954341  0.9796364445931279
  0.0157274087708307  0.4056283540355601  0.4410222903437877
  0.6781488205930221  0.4034327336899661  0.3231026249921150
  0.4801288319231672  0.8304605385645059  0.5808716851397034
  0.2674464280546827  0.9207777819357224  0.7639595071387482
  0.1853833700199254  0.3921501710855250  0.9630111517245358
  0.5891718947832760  0.6703956943564454  0.5518121496668337
  0.1073396770279346  0.1214562347695741  0.3424385874282675
  0.0101880055847436  0.8563756461207735  0.7471335231264700
  0.9302153444407479  0.5698433220841954  0.6888446095203886
  0.8342359143654584  0.5192502162305428  0.1408862418431497
  0.1474185607395693  0.9526611844316577  0.1725235592651936
  0.3387301934567719  0.7684631272961672  0.1623521744321137
  0.9162165329692314  0.6145829644862064  0.2973574163050925
  0.4973732688106534  0.2887998322315906  0.9738897228684150
  0.9277336227137862  0.1447300548204329  0.2425947397328345
  0.5276903803096380  0.6707318787461677  0.9401817803964034
  0.6740912079070738  0.3023839096482587  0.6481250590029373
  0.0018633916169627  0.8531658709549192  0.2304179339433560
  0.7466666890425386  0.6207727935230196  0.2595661325649505
  0.1371615237559374  0.9165517520463832  0.8745856936050781
  0.7253745774290721  0.7222895569587414  0.6210884253604831
  0.2734938818286944  0.2442824031972872  0.2269720143422478
  0.0216225428311592  0.5615740763635888  0.9940481291572292
  0.2090276392546223  0.2088645650328199  0.2739630583069321
  0.1773494792952565  0.4837911431273503  0.6481535244117298
  0.7604892097962263  0.4793650334358314  0.4571976620634474
  0.1007188595427989  0.0657056773259759  0.5140197244749682
  0.3946571067133233  0.6077355197781614  0.1783330639948020
  0.7313058649581911  0.4290071646708611  0.0347389061506614
  0.2256273279893764  0.7384243558278613  0.0504199184953387
  0.9307548776216572  0.5468504804420187  0.0133560256728874
  0.1803261025468818  0.7557630445413310  0.3123637906210916
  0.3780449577930068  0.0958853727447417  0.1560284099311985
  0.0515779370862256  0.0832740753944090  0.9902804283485177
  0.7340940321546784  0.3629673920079752  0.8367939029237689
  0.1573386258262708  0.8243841716890116  0.7323598171214777
  0.1896694731884776  0.7114663767778514  0.8881375291078024
  0.0224406122873933  0.5358618597905919  0.1961685189514850
  0.3802670429452549  0.1273061105626097  0.3590016238275994
  0.9574780261121359  0.7747915670839025  0.3159963694859092
  0.4198954941993099  0.6802183503537363  0.5287868889255980
  0.2899158222634541  0.9665000364918072  0.1804096209378663
  0.7060087582793069  0.0898803097045099  0.5921382859868213
  0.2237815579824317  0.9771520753593288  0.5547375128789773
  0.8605172609684933  0.9829079799418842  0.5191735376294176
  0.0636252972241366  0.6076655729134972  0.1585621855657633
  0.5077787075713622  0.1313258750612705  0.4382999792399220
  0.4790769352988336  0.0974542182693078  0.0360829210397546
  0.7116447462783595  0.4837009866493295  0.1747265473362574
  0.0235197874034020  0.9794382168398647  0.8624201416237792
  0.5747823751567903  0.0146615971499033  0.3625768540546874
  0.8814224090820828  0.8229199202839028  0.6659443949014751
  0.5003467397365639  0.3484098092821844  0.4401590200958518
  0.4649334152257429  0.0414810402430807  0.2593104244003651
  0.8155971043779328  0.8967507328638361  0.7902545695829415
  0.2309642071530967  0.1119595917629724  0.4455213602804713
  0.9528183152536032  0.1167666989138462  0.6351224937383999
  0.6416394544268121  0.2666032049380502  0.9080408208831232
  0.9151869975599619  0.7528422529919249  0.7074454030093209
  0.5139287510228719  0.3134836650593168  0.6468051521455763
  0.1195505610143275  0.4108093569817993  0.1663012755542024
  0.9658740865652536  0.8454173889550018  0.9365901371077037
  0.1316154461469582  0.1117826797973797  0.1767060020851997
  0.2500759993799458  0.3709318816164851  0.5853295909980818
  0.8171082436874816  0.1305172426596522  0.3541077563580738
  0.3523087972002090  0.4513406823120936  0.3385616849743948
  0.7238985751636865  0.8996356016368025  0.6437472634706204
  0.2200747779809943  0.5282239376834376  0.1489705082306312
  0.2666129616732876  0.3833122169623671  0.0885610615182929
  0.7808121349511316  0.5583899729188366  0.3057585596949681
  0.8917342757879162  0.3239487738361101  0.8279440987694350
  0.3292568788266138  0.7469420826625796  0.6480335963350874
  0.8973286754150912  0.2390031310879767  0.1218571790693548
  0.9307780427710750  0.1388413408570096  0.4538766082257500
  0.0086639349803868  0.7931173619534116  0.8823388230756554
  0.3534466059742482  0.5968006467851862  0.7013312505259253
  0.6484990157552717  0.5426829043042790  0.9737157255049108
  0.0360326678477822  0.5982012285605581  0.8526507773992283
  0.3538355764007781  0.5874835175314485  0.8959788889976780
  0.3663210744170695  0.9624136019190641  0.0225880869613303
  0.0317890455054617  0.9801246802636864  0.6585167787164996
  0.8800314423232395  0.6157836733977524  0.8334993546218382
  0.2299019438301203  0.0380673238215980  0.0574392013599997
  0.9090483818180231  0.3983633202097127  0.1494314435959012
  0.4499652017817154  0.1978356809598651  0.1674138398693990
  0.7844967329772538  0.0237016705962739  0.2360769469779490
  0.7441380036137801  0.7939379009014075  0.2244692753343099
  0.1661009302677723  0.4794453985125596  0.5187414962920047
  0.8215902718591418  0.2862280408370765  0.9953039253473686
  0.9487405579999355  0.4509439851775233  0.2992287020313119
  0.2609723417713909  0.5024708460997950  0.3503181044957452
  0.3431726931228188  0.4296726127499434  0.6277663463849412
  0.1469436508795962  0.3976220637367113  0.5970618820522842
  0.0234175065958776  0.9048938079738263  0.5781733496903495
  0.8622538187451706  0.8929158838127349  0.8911883673961649
  0.4103394750944184  0.8883147748562749  0.7447676875881234
  0.5376309362418271  0.3916681505938392  0.5645791244591869
  0.2756861340348198  0.7469518744996985  0.8267531337094303
  0.5146659955939313  0.6367979933751956  0.4847716579034193
  0.8387039687560938  0.4581467540915245  0.5576086655054793
  0.5362289175728278  0.2517461666094927  0.8821904011166999
  0.6537625182933181  0.7630278552231949  0.3855302831260812
  0.0065789574899333  0.5711552378423675  0.4936548709727193
  0.1411771280396953  0.6136050968940807  0.8631882049808032
  0.2738218416954244  0.7099734191110261  0.5655073507512941
  0.4751069320285239  0.8330645910692838  0.3443164408912650
  0.4716768557596934  0.6089855213645999  0.0178505491977394
  0.0592404926782699  0.4630226807828816  0.3471295878779826
  0.5963964736860549  0.8201450496265918  0.4781341880703844
  0.7025983300286613  0.7350798505814731  0.7430156765377943
  0.4959389839511640  0.6812404646838236  0.6167202645057733
  0.7574411079737572  0.9614991132452149  0.4670810346959014
  0.7996407356509140  0.4186994513416668  0.1273171731034552
  0.2321612185898431  0.3475114086052482  0.7881433278723494
  0.6223852216578051  0.2364146396400432  0.8069142288117241
  0.5779106179749104  0.3681875844572624  0.3556216236506962
  0.6277738123827129  0.9490092444465893  0.1376771676968123
  0.5937784959768720  0.1401132546462644  0.7167081780415474
  0.8472072000781131  0.3628248670840408  0.6546081569482766
  0.7784858090764680  0.0299490442588555  0.3517509392554095
  0.7699535412728801  0.4309539760604061  0.7463058784195629
  0.4548287715309214  0.0565703382657755  0.5133985465040167
  0.5905427649927768  0.3429417675652847  0.9689895651806856
  0.2418863755651940  0.9521145283421385  0.8682367089804537
  0.5306936042897078  0.0322955528597192  0.8089712662530841
  0.3765620750812890  0.0734722563719906  0.9916318288207085
  0.0197577918896522  0.3555384742001144  0.8989026577546266
  0.4749552879090779  0.9799921136588420  0.0052522042061490
  0.3378960992736141  0.3971029408025023  0.1616044064529680
  0.1170066621848400  0.1770025965868033  0.0054450076568077
  0.3823082564919164  0.8865171190944302  0.6064813494307184
  0.3101339749002364  0.2966576781303207  0.6370644633083393
  0.5357355882394536  0.3243164935586949  0.7643008413254125
  0.3291295458892340  0.9645335540730040  0.6849568608922324
  0.3208668912194099  0.8271254240677798  0.7188895868622548
  0.4588315227413689  0.1691496150305870  0.8595209297669124
  0.8793937125513008  0.1134958484227682  0.5515973541058591
  0.7621939931286602  0.4650804449942189  0.3507467334115104
  0.2301863445236774  0.9320726687144785  0.0881349360925344
  0.4547534010676579  0.5771441211334848  0.6690063110588694
  0.3368874253854512  0.6797219048824522  0.2386935862784245
  0.4752043610062557  0.4037522919524334  0.6945275993952545
  0.8138454058063421  0.1895979034742907  0.7410297885713336
  0.7357283521701381  0.7438138363172349  0.5040126188571434
  0.8234060819521076  0.2400555981565987  0.5425472098656769
  0.4973388310637485  0.4936090984397180  0.0832065389309162
  0.2037814176763310  0.0820108528663796  0.5488294902146138
  0.6036337804772028  0.4574929291661458  0.9121150945916259
  0.2921126014755291  0.4364407850230528  0.9927386343332494
  0.7133401546460004  0.1700198412759334  0.1678126010405898
  0.5289472008279209  0.2005392464785530  0.0903632647953637
  0.6903700641328513  0.5952929852664518  0.3563233523999446
  0.6161992880472211  0.4435419188454225  0.0276655851115338
  0.4388675387101169  0.4146262932291644  0.5045878589927624
  0.6625446826241175  0.1603125355352441  0.9194762448765533
  0.7088267950313368  0.2600160782640635  0.9863714343386509
  0.5248163825579505  0.2937654847962761  0.1670337955406282
  0.5031349747726414  0.5996868020368408  0.1418910211427740
  0.6840396358077422  0.4009153669456815  0.4297851703851150
  0.6864032955545092  0.6258532698882772  0.5749614243739508
  0.9193576957896953  0.2735690744595818  0.9308002870289025
  0.8400490844887718  0.5490922257533372  0.7496939247143113
  0.3130978271707818  0.4319188143031857  0.4350071304450647
  0.8186575249460004  0.6521486461959271  0.3340854983204424
  0.5801811718804160  0.1055254057004734  0.0136750621070233
  0.6737975826362240  0.3422962070362379  0.7505866877859667
  0.7182944608815360  0.1535221138292193  0.3928710904469217
  0.2633418125166552  0.6403976488936727  0.6588065778069059
  0.6343321922670517  0.1713418776666731  0.6098217823633147
  0.5423171463343021  0.6689385743355084  0.2510977263335810
  0.4911568121440578  0.5155803127171963  0.7682744819393330
  0.7953946905575312  0.2153238472964054  0.0847413269323424
  0.6280543500968946  0.9377283004323272  0.4855141702174349
  0.7115839255047980  0.8391403988034345  0.3178179246146053
  0.7010789810598833  0.0198654993847289  0.8655741621852844
  0.8520442842462971  0.4051541557788908  0.2505817232421532
  0.4805753016611348  0.7321836668148671  0.8618299625264348
  0.7303980102386214  0.2535468096915979  0.8467338204841272
  0.6248095246380063  0.2382403360715255  0.1785770057137024
  0.6411494429875978  0.6590892052870949  0.9720505590941865
  0.6121701698772422  0.9681220662113870  0.2680032703370823
  0.6624324874478746  0.3528088868069565  0.5542899778906309
  0.4191887381982069  0.8655654486388205  0.0016881074498276
  0.4227583203657838  0.6089574615495287  0.7842326290211922
  0.8263775041271961  0.2049604126396641  0.2147379928463091
  0.5185954798886142  0.7932020689300954  0.2175572105864662
  0.2953658302871484  0.1236712451490414  0.0915764336601131
  0.6529550075013981  0.2601799634436138  0.3750753168742192
  0.6029746560886486  0.8386106728676388  0.7361633786744152
  0.4848324939687300  0.0956520131239320  0.1667345081690858
  0.5272644203569020  0.7943220087926393  0.0683131188235201
  0.6754114378414415  0.0528109677142654  0.2162391186730563
  0.3302196181552215  0.7701925132489809  0.0424200017257853
  0.6297697029694497  0.8624824800403712  0.0340595594659003
  0.4327778294538546  0.7281360469693096  0.4310423638836476
  0.9612705960018803  0.3032022692479576  0.6157008663952505
  0.6418893614211443  0.4865432675772451  0.6011575659575334
  0.4462320296550499  0.9571855205505819  0.4091159081320809
  0.0936169183531435  0.8932996420322467  0.6801757618324885
  0.5946457700670561  0.8688601952731543  0.5905244744511204
  0.6533787725857569  0.6418441338706172  0.2193786573261136
  0.6342990691457528  0.9386641636110306  0.6877784411106188
  0.7406351975961940  0.8836522931119788  0.8677623308309768
  0.8044270873089983  0.0139953607972249  0.0610521922735915
  0.9664976906260796  0.3658416424881760  0.2362070810153026
  0.7902143326105987  0.5711596116578719  0.4128542364864570
  0.2035936825986285  0.5763776624407657  0.5839869073121940
  0.2537331768333889  0.7039555581898945  0.1501252498824270
  0.6808844597826895  0.5776035730842828  0.8758530334133678
  0.9714117703307762  0.8029906730990942  0.5201684519968526
  0.3000747261009173  0.5975115645129667  0.4106678759597776
  0.2523961878558063  0.1345022064921242  0.9751062303226428
  0.0767047524422416  0.8564056435386257  0.9382550454878920
  0.0670693605767892  0.6184465489499000  0.5848615446714076
  0.8479350669330155  0.5980295664006496  0.2169649145259689
  0.9691624311707032  0.6838222594843725  0.8780554489904576
  0.0708391675015542  0.7806569169934471  0.2925598485752636
  0.3382997902325711  0.2422871126264872  0.5297606053932428
  0.9462152203403689  0.9232011606076301  0.6886308867494035
  0.0296040279012524  0.0893320867759940  0.4130754777543060
  0.9133267617676949  0.8404368191152237  0.3973106857614152
  0.2759771496458131  0.0679445724514975  0.3559779482165341
  0.0226427844456855  0.1333767964806539  0.1924735718909584
  0.8061071332004207  0.7536187219377812  0.6972552910644366
  0.1090895695654455  0.0247887748185468  0.7176035729881943
  0.3470290466404433  0.1850685277212032  0.6551125358099683
  0.3886847908370439  0.9653357907226191  0.9195291239574797
  0.1920243353066362  0.8249558275461354  0.8906001874407665
  0.7016252065512953  0.7316569538706066  0.1447459915477373
  0.8549428774798509  0.0974174186949521  0.6832334448416074
  0.1993871404218034  0.6675853364951273  0.2527603079443195
  0.1578422277468081  0.4228235509709378  0.2757465694315311
  0.0426826398346265  0.9256921776084476  0.1330664787113182
  0.9005367995403470  0.1287925405079387  0.1412608133919725
  0.2078870562312830  0.9835052014974837  0.6601050145134700
  0.8252073768321337  0.8677820868826801  0.4807547449464352
  0.2358162942228683  0.0339405644936126  0.7668696545465244
  0.1695398752302575  0.8846432569950604  0.5709665303402182
  0.1856771425391251  0.0923005359716125  0.2725427906378591
  0.9111590734370062  0.0771009256180390  0.3628169277503450
  0.0925669176927000  0.3216239122037707  0.2064555681261551
  0.4151818391307850  0.1333230496721989  0.2567981712501351
  0.8263919535380975  0.7830986917067162  0.2964237011876349
  0.0864482246034743  0.1171849261092923  0.8972575610870648
  0.4082015443876674  0.5176260342530855  0.9664201028333925
  0.0848533129063631  0.9831932853778924  0.9456681631395700
  0.0175923647444677  0.2673674952134351  0.2981416647082185
  0.9716721941152535  0.5093479538002461  0.6109941314128061
  0.9436435373487081  0.2373561583820754  0.2164766405489434
  0.7509522848118673  0.0105432343401674  0.6666802519375634
  0.1669391259615262  0.2760131756811022  0.4339120312908114
  0.1453588097149663  0.2914714780576467  0.3126987579721868
  0.1144773016500609  0.9897637631530525  0.5884692499760965
  0.8716947333451417  0.2961148881619814  0.4172363056919057
  0.9852707084047002  0.3224726107176414  0.4938326618134928
  0.1348470155392530  0.5782422213368514  0.4828427667821126
  0.1161590932769209  0.5107421362979156  0.1478540434964158
  0.7564561828576659  0.8602393667671447  0.9984700571706361
  0.2906113382157714  0.2900143062100433  0.1304376044536778
  0.8127882070069896  0.6748681327385913  0.5762850509624250
  0.9910255500046995  0.8784087700246465  0.0361639551372182
  0.9454178926199782  0.0859193124046055  0.0361494532678836
  0.1291500744325864  0.2950489438660232  0.0147730679866932
  0.0912972488957269  0.7993556966212271  0.5091006557650619
  0.1102658583704026  0.1883546518079388  0.2556411555942523
  0.1671502764142597  0.9782948203620571  0.2825828388955704
  0.1562355805395904  0.1196082442906890  0.7854025238474944
  0.0083957197563859  0.1235673729560647  0.5245241112038110
  0.6949010720702760  0.5236873153220031  0.0700539813788674
  0.9623768733395117  0.0095348604358159  0.5803502009589454
  0.4801170883392202  0.2796959995160869  0.5300429394696372
  0.1476268578609209  0.2201426636888558  0.6846134212833009
  0.8924060405412705  0.6907447839634946  0.1319515331830587
  0.1380019327110986  0.4261133966315673  0.8576775784979368
  0.7524097931244517  0.6313658731507179  0.6779231296821641
  0.2915339543370368  0.5019562153341749  0.8887673077395410
  0.8898396888237524  0.0954710950593898  0.8164306118292640
  0.9983148303965859  0.5499233164499895  0.0963837098651402
  0.0950212557454879  0.5818616170974593  0.2614510838874579
  0.8230125196921696  0.3987515114274461  0.9856123402594659
  0.1328953708649856  0.7353405064121757  0.9848643002059947
  0.4006269920271907  0.0805809544749524  0.6406544905408098
  0.2703876648847634  0.7805625374306040  0.2517431860424108
  0.2628573218328630  0.5234899256558576  0.6985806818891426
  0.1970490743868486  0.5536720318487677  0.0532321208337864
  0.7961384989411140  0.5680175716533530  0.8816994753759094
  0.2978497525882384  0.4481298665497531  0.7888348064160117
  0.9505272973799425  0.5745904706379735  0.9120161611278886
  0.8989245596453053  0.8805178157257114  0.5812114106737254
  0.1577499991099059  0.8692642890190200  0.4383523938371557
  0.7850886502120284  0.6543922742466435  0.7885852281530296
  0.3512287384051668  0.3149910360279795  0.2425208401591692
  0.2534281272301461  0.8054362222307117  0.3986192056628106
  0.9502318034627413  0.6289843001212272  0.5988259933625178
  0.3927625527988914  0.1763648017278205  0.7630863162721120
  0.2683363599367297  0.9004755324617126  0.4927727298462963
  0.8740771759683477  0.6556812366570210  0.6930338636663408
  0.7758615789190416  0.3428757907394782  0.5576714083590052
  0.9766310265356934  0.0267822102186178  0.1397891796245376
  0.8935662359165757  0.5717224021495450  0.5142852238760665
  0.7147432983480015  0.2373115816962202  0.2681269752254080
  0.5840618785605873  0.2730638818107143  0.5795142697754708
  0.7839839166347935  0.2746803113792123  0.6577146171350506
  0.4953719897872091  0.8094204788614963  0.7614924539811810
  0.7075949209928450  0.2466059202335104  0.5705774430838531
  0.8305233689761825  0.1141507026612493  0.0228177649351310
  0.8587474801873692  0.4889288022096376  0.4396816130117412
  0.8764704320057418  0.4111445045230615  0.7725125085101447
  0.0870249022279359  0.4952641236852114  0.0352653496631602
  0.6384784633337486  0.2109291619278496  0.4810204513385571
  0.6165551440030533  0.4406913122522718  0.2414892787115525
  0.5440519866572330  0.5065771463423498  0.5340443802072664
  0.9771611126715620  0.3172913248710213  0.1334534201257579
  0.7304015244136675  0.3052036144438958  0.1719442618548783
  0.7990246448482189  0.4958937877714344  0.2274796909286619
  0.9221924087416755  0.4951715251040258  0.2000272098873975
  0.7389617127026472  0.5812169651175527  0.1628208140925878
  0.8830464147845293  0.3012026442164170  0.2986961969043607
  0.8708682469855472  0.4059711969282664  0.3569598713362517
  0.8116509277955350  0.3218226942904103  0.8960318828262372
  0.6799889047386929  0.4099477982543361  0.1223418215242037
  0.7819717654775596  0.0893181799123289  0.9098210784857376
  0.7251101996519942  0.3911655184019576  0.6499812456252226
  0.0647284336666335  0.0389384367040968  0.3065649365087953
  0.9512822798556719  0.4569578621301589  0.5108175916000796
  0.8727868873925527  0.5232707114334992  0.3196670507271768
  0.6588002940932811  0.4615936834867548  0.7183746587661468
  0.4267731361373025  0.0363663853785686  0.0919399964144223
  0.1670654997244771  0.4757847880206267  0.4097059626462319
  0.9650596973242606  0.0444375722866973  0.7078163925578632
  0.6609749245245167  0.1718112421726384  0.0582680793120422
  0.0518224981838820  0.0767668190264603  0.6160014592032985
  0.7960277810199317  0.7857340308409061  0.8171424494784564
  0.0382147497481347  0.9921432180199053  0.4815492833327505
  0.7920227193084538  0.2319031487742055  0.3445633545467217
  0.9851679939393523  0.2754430437190307  0.8188361806769430
  0.7968256116911230  0.8054494793421541  0.5959517702464173
  0.8537625323286406  0.7965415715662875  0.1799348019857526
  0.9665143968020700  0.6469554838845333  0.0205131821050980
  0.9059832995387800  0.7827989485634391  0.8850013235672207
  0.9339747145448697  0.0398594915427711  0.4707483711541318
  0.0888906249789106  0.8419465253423949  0.8125869575119852
  0.9094415285817542  0.8626126492440243  0.2774103187338112
  0.7258528059244345  0.8549467313747748  0.7452665228386046
  0.7461168593861767  0.1247440613422556  0.2753907458227815
  0.8203350711129955  0.8970529298581537  0.6861736348064801
  0.8509026305517284  0.0902177144774091  0.2618426236285762
  0.8113487716897810  0.7741714691494925  0.0764946197317125
  0.9879155111776565  0.5463312294833994  0.2937098735865624
  0.7184103360742733  0.8539263612343870  0.4364772494634020
  0.8556449593017240  0.3145420234995214  0.1745164258058259
  0.9782380504468398  0.8800724057366073  0.8420625569786898
  0.9017695824146669  0.4622063467563078  0.0716087753623297
  0.5971258068487384  0.1271898371768580  0.3991825748503132
  0.8006323303248675  0.5191171539129043  0.0474389352425164
  0.1817707453252748  0.9318388583924683  0.9691255991552249
  0.3670250451295311  0.6807691738364791  0.8553266504608998
  0.4653736094122692  0.6983377819070842  0.7320688192841943
  0.3931321739578878  0.7743029289941590  0.5468632169801523
  0.7451657258876684  0.9683415060869300  0.1591466469146804
  0.5289902984227988  0.2455113813174601  0.4208540138638104
  0.5198056331951638  0.9855361268329343  0.1905142872816715
  0.5640399378709947  0.7626740527173567  0.9625716016806465
  0.7036194105707690  0.8592946855329586  0.5453558219747658
  0.9056962336665890  0.2871332049936583  0.7273862749414925
  0.7388400289654974  0.1496967444602400  0.5080981584646530
  0.0735879996285708  0.4621281459031236  0.6819538567429186
  0.6962067997167849  0.0605136668524430  0.9885428001103502
  0.8850688259301064  0.3468788002208538  0.5323237738219541
  0.9063520735918603  0.4011565298312331  0.8924554883967782
  0.8934598221491455  0.5841292772891563  0.1032965040273137
  0.5646710111085832  0.9890558514831348  0.5825172686977609
  0.8690574289481643  0.9979721757272447  0.6267264468858762
  0.9763775651158654  0.9742647014692010  0.3695035831181125
  0.9326113826496637  0.8860552174123612  0.1563136103539313
  0.6150224942307264  0.5305728188820762  0.1582480562506033
  0.3971628234463776  0.7931412986971059  0.2430323251032180
  0.5233490424887510  0.3722148066374138  0.2494230815119246
  0.4618427475214139  0.7221991120250245  0.3116429146822083
  0.5275205490605848  0.9558626624197432  0.8943999881115990
  0.4245485009297771  0.7863468324456133  0.6658241243667953
  0.5477570786565437  0.0277673461946738  0.4614585792375334
  0.5016361744919507  0.9215491904328932  0.5242959140522949
  0.8692696228569181  0.9947624065811157  0.1732075438546290
  0.8989167540581738  0.2103026675681592  0.0260475155988004
  0.8695947225702477  0.9730891471117330  0.2922472233562172
  0.7650951370482820  0.9696566165553726  0.9504874999172193
  0.8177808013932001  0.0735785237575571  0.4488109953836080
  0.7245450465755322  0.6961891451963399  0.8784502283391382
  0.7381416657655644  0.9629126746009041  0.7648926544940399
  0.8880751731780271  0.7110730111904195  0.7934822649414657
  0.6089009313034147  0.7035592408999680  0.8729067569171234
  0.7916738546899601  0.9296957025063465  0.5761692453820356
  0.8535113719295013  0.6109050653373040  0.9908172973196542
  0.6774420768389059  0.8075822307088177  0.6517770645860880
  0.8011312999290253  0.8878973099014577  0.2252180785074752
  0.9824662117281988  0.8150762178002180  0.6596276135628828
  0.8642035931127082  0.9674710806027774  0.4126933226025342
  0.7071103861654270  0.9489149131038688  0.0483018131828919
  0.8648277404134874  0.7680303801345814  0.4982528443976397
  0.8858852562488400  0.8425074306764821  0.9994255067815032
  0.7759940949079877  0.5577450670091750  0.5326045509547098
  0.9643135043844208  0.4839598046949657  0.3969868310415219
  0.8422797911391553  0.1854051443485274  0.4415387981856772
  0.6919963062278580  0.5286505992056745  0.2627511296636496
  0.7914045134450124  0.6479069693086290  0.0865406912282164
  0.7866312327929260  0.6977856562679137  0.2039003234690451
  0.8260250245635513  0.8959386217071239  0.0983062661185415
  0.8820685119034811  0.7236854926962308  0.9991983864801267
  0.8011615547282698  0.3861405265534311  0.4532885947566049
  0.7284083084093135  0.4866601902371406  0.9502697642193287
  0.8937518539926945  0.5110095053898781  0.8385812220424630
  0.7327424479167224  0.4020800260502633  0.2376243589200819
  0.6845682989876962  0.4514896936987585  0.8349439691126213
  0.2460842128886254  0.3230404733726510  0.0098579421415468
  0.8710650275567474  0.2253087285899480  0.8337080715373900
  0.9894524235726422  0.9501098741055225  0.2463287609977347
  0.1733166019036596  0.1888125441378680  0.8901687517422977
  0.6502369671317418  0.9189329828411592  0.9301594042337429
  0.2555214162565344  0.3909636791640467  0.8941607501937808
  0.7377972844276970  0.6007645011481348  0.9832987485150823
  0.1772381130290124  0.3254050229521703  0.1208842511032887
  0.8397318621819200  0.6799286014132795  0.8989247191901362
  0.0754465190475277  0.3765088829260759  0.0796906756772776
  0.1190479602356698  0.2067814218901157  0.1330053739817912
  0.0828965411780371  0.2088767078857762  0.3781162047910642
  0.8495331024109020  0.5687149302267046  0.6217501719141748
  0.2888322127809462  0.4282011797070733  0.2659840096119092
  0.2133664152650962  0.5407552874854598  0.2470015620882753
  0.9144762683709006  0.9652525483435414  0.0593095183248806
  0.1680034767944537  0.4482455930537639  0.7510719424510679
  0.2283609004722689  0.3348847022742868  0.2357900810272577
  0.2031023402678286  0.5322595245350509  0.8198122306912966
  0.0844174003608427  0.2903489174741204  0.5993911012183374
  0.7286258863770786  0.5434028253909904  0.7708747623993394
  0.0331689884364075  0.2720531769846092  0.7120773342737052
  0.5410937296561511  0.7344652764623096  0.4121305983422455
  0.1859775421709213  0.4955341842609302  0.9447302570978325
  0.9922606431940449  0.6871984645997707  0.6919341517605381
  0.0921903538330496  0.6220003583858947  0.0584853514766560