 B Cr Fe 
 1.0000000000000000
    20.0899999999999999    0.0000000000000000    0.0000000000000000
     0.0000000000000000   20.0899999999999999    0.0000000000000000
     0.0000000000000000    0.0000000000000000   20.0899999999999999
 B   Cr  Fe 
 137 206 480
Direct
  0.6303499878389890  0.8643680120320847  0.4001695571874236
  0.5668902286229546  0.8930847966474456  0.2132822799732573
  0.5252732579591399  0.6713943788996719  0.9397514202947448
  0.0212963323943458  0.2840618158293525  0.5555413863684624
  0.5465621298349722  0.1499571685629203  0.9277853777676464
  0.6173551653894548  0.5894435981538031  0.5120309920511642
  0.9279930018177154  0.4110295817968695  0.6073034044913758
  0.9623392187316668  0.4185299863654741  0.8075785009624532
  0.9136867204401051  0.2128669521833753  0.2992699120232016
  0.0555756491407876  0.7075402994106890  0.8515092491605287
  0.3150889528522720  0.8096370119723447  0.4953824233447012
  0.5590063637125691  0.7591242381137308  0.3133048293676485
  0.4865732915201031  0.3179824522458459  0.9667778089622229
  0.0128945452051155  0.8564468938019418  0.2201563958687272
  0.3271659770163420  0.3165961969307522  0.9489777099931417
  0.2175431798477909  0.0237127414084500  0.9574288384934910
  0.7328991189653125  0.1181246196445607  0.0723561188814706
  0.0798168393395331  0.8275558353208122  0.6087277252569195
  0.3826378268825205  0.3709707750605762  0.7096100773282646
  0.2675265600187159  0.9161217854276744  0.6115269951861635
  0.1937179272220471  0.6546708666752895  0.0738893184792483
  0.9907485585246358  0.6713385913063359  0.4071165052804105
  0.6974603608863429  0.2536046578415073  0.0999588412861148
  0.9756856999501307  0.3801600504722685  0.0478438547119820
  0.1632513273881014  0.2543111676024358  0.2142787515939509
  0.6033976759094454  0.4838977173096576  0.1278937493934962
  0.9198143262305915  0.4027712882235837  0.9892469293628453
  0.7348779452812866  0.6847114678281282  0.4092001395331356
  0.0582918483374920  0.2822181936779468  0.4000773590958162
  0.4778756845312395  0.7087526580495142  0.0991481009635699
  0.4206452212969307  0.2439435932465703  0.6002535364618607
  0.9127280542657246  0.3982806541424144  0.4477102646076726
  0.8433852940031834  0.9285994751658013  0.9943548979315052
  0.2767379344797524  0.6093314047840865  0.3033815519448515
  0.7303740946997330  0.6317901546062824  0.4796984432472400
  0.2549897960456256  0.9219618042417534  0.7632655061292780
  0.9061466586886835  0.1452135612595314  0.2468660058402118
  0.5278806603648960  0.5115086206345983  0.9799691825655346
  0.6719903238571785  0.3854765437437208  0.3210147070749153
  0.0258653196586469  0.4307186260778514  0.3177314315062896
  0.1001378163363378  0.9246297542569574  0.4971022100331391
  0.4506443726614812  0.2567847525475733  0.0276363252089119
  0.7545506733348131  0.6220744701776270  0.2619120935596208
  0.1317614766737446  0.9237899165464720  0.8758777950740542
  0.9248326080191450  0.6090422134669842  0.2973508434794583
  0.6765157339719429  0.2911600742301548  0.6447726707952618
  0.4590879446989843  0.8195573489509667  0.5896177991409308
  0.8867604061896338  0.9217502766121732  0.7865446504167041
  0.0712755344025622  0.2751708310314503  0.0896390572345407
  0.4436450596064043  0.9630025221652213  0.8296867959972628
  0.5920394633657192  0.7083967410254602  0.5594516248303695
  0.2021357175091239  0.3769294179272908  0.9704505305433117
  0.3405267664364682  0.7661334032448408  0.1630238273058363
  0.7324110656906120  0.1540442672815812  0.9957935082991395
  0.7937836568610301  0.1540495297856898  0.8426922892707891
  0.0630077272852294  0.3572258496318719  0.2876676881565629
  0.2175381460597444  0.8359166022446685  0.7812700811571780
  0.6291258345920365  0.4371130736520774  0.5102713768380055
  0.4790862289082249  0.8066536976217776  0.9349112782009393
  0.1495473098350089  0.9546852278371445  0.1707842193428560
  0.1022614203656517  0.3565157696022385  0.6825861833901891
  0.2537963016014105  0.0689137800378173  0.2611547207585573
  0.0893496382530975  0.9182149445857902  0.0280151435646967
  0.0237995887488525  0.8551613958620571  0.7429296853191060
  0.2574553077167506  0.3742608314449890  0.5981937348140496
  0.9327324798507757  0.5692371016241068  0.6896613764853063
  0.8396493594644887  0.5166818999683909  0.1414889333214447
  0.7409821052819124  0.7171720617521042  0.6226974240787194
  0.7929342710882692  0.3093876097384672  0.2575741452654269
  0.0320291211977200  0.5675706789532741  0.0015544082407390
  0.4436971511105734  0.2383732317115349  0.2568239806314978
  0.1739175790726289  0.4915278482394407  0.6246420757145070
  0.7721878930666563  0.4839677850303620  0.4665725803409052
  0.4018858478478433  0.0530327522395356  0.5474680640493234
  0.3956195045851260  0.6100474975937566  0.1770944602592363
  0.7272917094800680  0.4313018214781676  0.0413295678363185
  0.2365396422047835  0.7327368889099868  0.0581329677784284
  0.9428007178853137  0.5490290568422572  0.0162950561875595
  0.1833660373224892  0.7566755408418817  0.3143425112923119
  0.7750155528509817  0.1527569597601496  0.5133640684362227
  0.0455908329255892  0.0908731103840318  0.9927807683654795
  0.7317412416936028  0.3642159429357325  0.8373462809876357
  0.5956869922193826  0.9722095094135015  0.8450329205488477
  0.1981433571709690  0.7313712347761335  0.8905931297698131
  0.0285753811858874  0.5287069657263546  0.1977285730972406
  0.2148090548374592  0.0914493314408426  0.4524536741385669
  0.9487021890402362  0.1162980299864576  0.6340055236562572
  0.9412570036807204  0.4460571301280747  0.2991396849261566
  0.8792426963283720  0.3189343229239849  0.8307849519162159
  0.1753221812087782  0.1779272702796754  0.9587809569882561
  0.4186775365797470  0.6790207186764058  0.5242481837832107
  0.0690813393171257  0.7187314069101337  0.0353540140498978
  0.0276245467947354  0.9687893785624371  0.8770345848941883
  0.8879966213101050  0.8227048302355124  0.6675530132525003
  0.5723119391722010  0.9257222989415854  0.3789339300002459
  0.2229360019341818  0.9763200817226129  0.5605502349433841
  0.0674513132278921  0.6042328287031694  0.1622166457460611
  0.6017500853073309  0.0330601645944711  0.1856186401339927
  0.8966751704262986  0.2388724651788540  0.1231538077527405
  0.3075040306871242  0.4839640229020075  0.2004280900040559
  0.6381028586705635  0.2727380097752310  0.9107314344936079
  0.8582312780875460  0.9947457299875170  0.5195248846956353
  0.6254001863023673  0.1149664020075506  0.4408082700488554
  0.5039131374365285  0.3545955600873096  0.4395275683530235
  0.0291080215599259  0.9822514768755087  0.6556760926664273
  0.1919296674951216  0.2005256214693379  0.2827132836050714
  0.3795436740368591  0.1294246551038007  0.3597111670321315
  0.9594770944179588  0.7743932291263209  0.3156587909051736
  0.8090500153188852  0.8848524212803708  0.7931860177203036
  0.4673364526505084  0.0823906698072124  0.0450533107613792
  0.7054915551459577  0.4849718713347189  0.1762787608450801
  0.1443912119040146  0.2376919497092129  0.5244152349801918
  0.1268051065401548  0.1117847384323923  0.1825202229280737
  0.3505612920842834  0.9611721075503207  0.0258147551525659
  0.5143712685976862  0.3090538123148470  0.6308695057266275
  0.2929258332171715  0.9819117822734391  0.9601305630372106
  0.1233471084079121  0.4037992174331664  0.1486494527087197
  0.8862577356410756  0.6076834818230796  0.8441165151093001
  0.9638592191827606  0.8472513641378291  0.9342954586415037
  0.8173909136601800  0.2873637884685822  0.9965669674466934
  0.9172812331226324  0.1371488299060685  0.4461240387711575
  0.9237916260574813  0.7523870671966594  0.7089160433174199
  0.9117204142000367  0.3977107849403719  0.1533110261761317
  0.7504513767233723  0.7934453746321651  0.2247004836598160
  0.8780278477037948  0.0444615815024032  0.0940304001838449
  0.3488284990135723  0.5917146259169432  0.7032288801833030
  0.7848028642855239  0.5583251076692820  0.3080280357134331
  0.3416693146162972  0.0660760658592243  0.2996907703724771
  0.0743701096966656  0.3633367254381243  0.8676784280025260
  0.3227138291226356  0.7480245226927080  0.6498827141182378
  0.4462859663389824  0.2032031350719266  0.1762336491270167
  0.1695618425252042  0.4847776275501472  0.5280459129393924
  0.0430745903850971  0.6169992139137772  0.8543631231249960
  0.6495532621200933  0.5453388939614437  0.9805440044330080
  0.3535164518447712  0.5849198436947703  0.8907986249297686
  0.1892623119461750  0.5292544461282330  0.7701240231782814
  0.0120407571829223  0.7880593702403705  0.8811732584899165
  0.5428232852859832  0.3926904858555836  0.5604534121507472
  0.2122651641238384  0.3922586570881554  0.4832948222356975
  0.3357046696893365  0.6954235909031308  0.7410628507321115
  0.4192866259107361  0.8638144200093750  0.0054589722002536
  0.4888935527294946  0.6881663887715630  0.6115449240494463
  0.1518940124728077  0.3965409578893771  0.5922741354259289
  0.2599738088714832  0.6418725471680066  0.9028750116476871
  0.5220321954546187  0.6430225068650023  0.4883954839731335
  0.3618104478777356  0.4269990621131524  0.6146688347231923
  0.7598286675479414  0.9591973030421689  0.4672583201906010
  0.0271504519817373  0.9089163809542613  0.5703849472206326
  0.1460298425552313  0.5675204357017850  0.6868688141439526
  0.2605487016898621  0.7021974446186722  0.5741761579512301
  0.4729968077342808  0.8271543432215169  0.3425934261673851
  0.7171380054602708  0.8377438688944480  0.3170061922378378
  0.9803834483274753  0.4746454845208404  0.4017405488044248
  0.4752358185258235  0.6050394433307602  0.0140274566163573
  0.1904971266400471  0.4697985976685717  0.4078767946600905
  0.6132814135125327  0.6696719116318900  0.3413169191644728
  0.5749822884632926  0.7308156101729039  0.7637793838258070
  0.3762571095347932  0.4870374632311016  0.7213190154252674
  0.4536526629442226  0.5788759769919000  0.6688959857865758
  0.7338797649095200  0.8377971537178420  0.7370183737223738
  0.8453216932665293  0.4621897909283801  0.5577301456397943
  0.7904846307340226  0.3120561501396262  0.7669459715540471
  0.5151313218417238  0.4934756089016118  0.3288782395340268
  0.4873288084268673  0.0197231792554718  0.4914004787442249
  0.6348294250080574  0.0343884062637106  0.7656343799833837
  0.5647687007979337  0.2359122826793516  0.9940996445079295
  0.3376695510026558  0.9704751009467331  0.8099649106008331
  0.5196753304648729  0.0426657966113470  0.8122473143139556
  0.3717049406536345  0.0699567835416238  0.9846860973415968
  0.9845894421560796  0.3124620353824811  0.8187044483324055
  0.6872511299616687  0.1377100168161603  0.8175872372175695
  0.6775218161611521  0.8824968642189978  0.2229191625812483
  0.8434433131012348  0.3646317432180503  0.6568071155798729
  0.7774708066488835  0.0387242951946721  0.3552028171475431
  0.4198470428545130  0.9401930027707808  0.1220232138368628
  0.8754914850647895  0.1164134450254298  0.5512097760853149
  0.6873803067647090  0.3990973380147688  0.4298611049580143
  0.2347788131241526  0.9292322918682107  0.0904546858331625
  0.3161676554515548  0.3759964269735201  0.1310772676313227
  0.0889691228625688  0.1891298888134254  0.0206501094384926
  0.3733396872081979  0.8838287475609653  0.6009871713282932
  0.3287695425710389  0.3007544681657078  0.6255120009157139
  0.5996454089613827  0.3744270440401905  0.6606244811636353
  0.3959826475203207  0.0772261839396704  0.6496420489974319
  0.3114359469444090  0.8332721422162500  0.7191414577154598
  0.3549962301619619  0.1643827297897506  0.9084624870116541
  0.5340439077475337  0.2533179938936121  0.8847610148426933
  0.5490971494971131  0.6674398463425487  0.2470494013841689
  0.5729628772360891  0.4324143485085902  0.7813373610665905
  0.8066258994982726  0.1875149505869187  0.7410924025852517
  0.7019543584238304  0.3746856592991030  0.9416946961031354
  0.8293154092321052  0.2453552684403831  0.5472962831702668
  0.2143735683743722  0.6522638251922137  0.4560423213472131
  0.2115046828324569  0.0792325226623399  0.5610415323778505
  0.7253204146521071  0.1558656804982328  0.4132296562170938
  0.3970181058755843  0.3947826769477015  0.9078121462291757
  0.7156419313672402  0.1697821453444760  0.1702551976237959
  0.6305159484645102  0.2195109863416627  0.4702609466504871
  0.6961946098647969  0.5951094502010597  0.3604368471511994
  0.6105801829689309  0.4381263057462891  0.0301570763885672
  0.8230248305756735  0.2068510409885319  0.2211849116267692
  0.6518730407786001  0.1690912411563645  0.9274968581245945
  0.6985493783665072  0.2562846422498296  0.2733483021394609
  0.7926650614725141  0.2138752243990642  0.0835249287938849
  0.4952302971951568  0.6031527807535094  0.1350807926781657
  0.4806152669974272  0.4012009598595219  0.6786424689359138
  0.8063127867399219  0.8934845051839951  0.3568324112833885
  0.8795882437472097  0.3326146064504921  0.0641285183382074
  0.7674613273448423  0.1558467324029526  0.6199294465590411
  0.8505922932064564  0.4055450667065278  0.2515628265195773
  0.8256661540570518  0.6521115071490500  0.3354758528597933
  0.5818811043476578  0.7033639742877191  0.1475849079160637
  0.5218535242244585  0.2079007101741519  0.0997236245110345
  0.4695656210751304  0.0945583383625304  0.1608067738777477
  0.4066152470711245  0.1645425696354471  0.0876452888302489
  0.6080283932396191  0.9335455932769212  0.4800796183965832
  0.5677117963233305  0.8341681452296253  0.8636349538838131
  0.7058550228385493  0.2623758984771045  0.9884455966672139
  0.4782930043159484  0.7318139148745807  0.8613469621973394
  0.6159983726035679  0.4538776169070323  0.2400224650707807
  0.6416061932858561  0.6611232019634813  0.9713526239234943
  0.8454084304008626  0.5489923912716902  0.7549724352492493
  0.5998418754046035  0.1707276175455780  0.3579610509527810
  0.6055067800659873  0.0548768905856913  0.9080303574809929
  0.4168910945451588  0.6082172248664097  0.7845066370513738
  0.4954694922843956  0.2618322239599935  0.5196227074220328
  0.6228878227753638  0.3419052320528770  0.2226685824797714
  0.6512959619328994  0.5085012042828639  0.5907043173283730
  0.6044567950089420  0.4610796492110054  0.9145592769788120
  0.6247611818603177  0.8631916241506981  0.0337537244553319
  0.3258952626446617  0.4331485147151063  0.4215409668983389
  0.6719951252453531  0.3412946679006983  0.7506604514823251
  0.5842249135033112  0.9877178422954278  0.0083053783731620
  0.7366790357131511  0.7434821799209890  0.5083878736666876
  0.7580508536047811  0.4683691948078035  0.3557448498111357
  0.5216861410821516  0.7917517092749226  0.2162707267356557
  0.4989888152905765  0.4875099635340746  0.0821487194803463
  0.6136378315755585  0.8340003335777191  0.7147868924338655
  0.7456176077347270  0.9732853207929142  0.2705834642418105
  0.7995120560816521  0.4178278306200608  0.1296318307547658
  0.7104618045153636  0.7347417960724969  0.1418297453755959
  0.4199767092757156  0.8328775956506260  0.4765309094792368
  0.4990493188537165  0.8918326548573545  0.6638380799480318
  0.6428937907905514  0.7626139544918461  0.2495494412032117
  0.6229105159728386  0.9497762698202568  0.6845277599846712
  0.7360713571845200  0.8764786493644883  0.8682469793901115
  0.7897074919853290  0.0803945528079487  0.1473098422777249
  0.8595690393313020  0.8890526894266785  0.8904895929863190
  0.0167098263589666  0.4358533687263448  0.1351570357682113
  0.0695321079312291  0.4628706172190766  0.6741410439479200
  0.5495019787741775  0.5103224486713693  0.5299601471509670
  0.9009151483431528  0.8817019539590124  0.5821679442479869
  0.7950498612391805  0.5713774773864941  0.4168700906167034
  0.8536562765846044  0.5956776014513629  0.2193799628331084
  0.9571497054476577  0.6794008029722349  0.8927237360141980
  0.0758603284932973  0.7805268170110565  0.2934678813891459
  0.2588840228582691  0.5224616911585892  0.6860802297689851
  0.3398036731130940  0.6817421706421005  0.2411292159150119
  0.6045859646863695  0.5390020482995297  0.7974825015247329
  0.1402368212432632  0.6750809516853566  0.6565107867323173
  0.3036525589920583  0.5816273499473911  0.4051647018485907
  0.2132152008538522  0.0353550505495704  0.1738520178072524
  0.1447620981077480  0.8658360607849531  0.1157021945133499
  0.0680911834899094  0.6203060258368002  0.5766929855916236
  0.2405124388234023  0.2008892957499780  0.6180959391216577
  0.5710624755768920  0.0283767354835070  0.3923078913404771
  0.3587791341348019  0.1848572668431410  0.6599461869108895
  0.1158000689453002  0.1093149567513908  0.4895050861505780
  0.2175248155696124  0.8234651057876924  0.0176679553086451
  0.3587709622151646  0.9929732731977766  0.3798466403044020
  0.3014730962645529  0.0541248741737634  0.8850264864186403
  0.9147310093939607  0.8411786897753534  0.3963705695898899
  0.4185133746003394  0.1300756653245495  0.2606116912827185
  0.8163768973985867  0.7465146871163592  0.6970148908500617
  0.7442390236601911  0.7158847063838712  0.0053643144198837
  0.7978920617436631  0.2049425959696701  0.9385509275394721
  0.0148028294423655  0.1276150434191664  0.1908031538884913
  0.9129547133491409  0.8645051680435543  0.2703681661587184
  0.0347670604747444  0.9586493379143936  0.7706215313939786
  0.2031320787014938  0.9822650414259705  0.6652371229607527
  0.7978872553109205  0.8088566340515575  0.5985218591447004
  0.2288274884776565  0.0373818944921920  0.7712994809477476
  0.0463865884860296  0.9329448383139785  0.1325514822050858
  0.8248247124687879  0.1083880344037989  0.0238301187082439
  0.1670866478740133  0.8871914003993993  0.5687776067584130
  0.1012844891848836  0.9444621294034246  0.3696647983753488
  0.9155151273634923  0.0612917734686449  0.3563543862020738
  0.2277985856723200  0.1684843009756526  0.1880098423325175
  0.1012867004795925  0.0019304291943355  0.9473991762326435
  0.0525724970604000  0.2603996426906632  0.9053552203758083
  0.1688577903984117  0.3618570141514532  0.2404024154661950
  0.4117913424616431  0.5119543817344751  0.9616370288217214
  0.2031223445203868  0.6697993934333787  0.2535430866834274
  0.4907012846988887  0.5176505671096961  0.7594509913239639
  0.0859012574259720  0.1810883052061603  0.3663749959853969
  0.1153970550918231  0.9963574682773797  0.5831705861425813
  0.9973145794375238  0.3399817613035863  0.4703976737521210
  0.0036235872593162  0.6898496265760954  0.6860988634931057
  0.1806134176857523  0.3107318289894638  0.1250903187022670
  0.2617096770817642  0.2815487635835729  0.2430852784949447
  0.3399647512634403  0.2246180370606681  0.0128819672510320
  0.3739141442780822  0.1933834801779230  0.7851084375674408
  0.9745642477229729  0.8801960388735283  0.8349977480041946
  0.2301659906275530  0.3573884326944989  0.7874731930671248
  0.0929606031817709  0.8055621508179366  0.5048804952237945
  0.9447201680048081  0.0489104429041336  0.2421652141870750
  0.7478996607641029  0.5830208303794596  0.1559142839613842
  0.2553992251017552  0.8075965342103641  0.3964194446634795
  0.0506741258858861  0.8050544721164372  0.1355057445050893
  0.8236503105905053  0.6734482519843984  0.5787097726416516
  0.2711943510822336  0.9050983644689841  0.4998045667269379
  0.9584759037066308  0.2258083246548441  0.3986625535099165
  0.1409808881593037  0.2918478000584290  0.9989794161345112
  0.3008970973678970  0.4901802551458251  0.8934309186227443
  0.2171127456389588  0.2492329473154995  0.7906587030421898
  0.1754181432251989  0.9839514256971431  0.2835220009938723
  0.9711193909134528  0.6546363341158306  0.0275503984601001
  0.1443053619516003  0.1277231747988215  0.7835076867825773
  0.7967272421544319  0.5607500594321692  0.8795408920183372
  0.9601536399825966  0.0082104299365937  0.5778638034230293
  0.0592688904202511  0.4070947483195546  0.7710919898737798
  0.7583510593100340  0.6238441020813452  0.6743065299957252
  0.7539653610285614  0.8614614323867843  0.0011243465745159
  0.9474420072967482  0.1765492106821302  0.7369315418981419
  0.5044652122067349  0.1945617979888663  0.6435230839017705
  0.1028016460378831  0.5770855307480237  0.2636175222763969
  0.8169542377788384  0.4011224510544945  0.9890172167867616
  0.8953120877621159  0.6886326895838211  0.1374500204109244
  0.3429266600945440  0.2388447267224906  0.5278601754080507
  0.2696400723177194  0.7793592854865908  0.2520002785288022
  0.8692192317120662  0.0227134665130012  0.9454707336749759
  0.2092319089743968  0.5450663625432812  0.0777092396575866
  0.1688321354053999  0.2746196196189812  0.4299917130106847
  0.7461301360377459  0.0163837714836677  0.6632932938258651
  0.0938246556296449  0.5360328338364461  0.9176384035062091
  0.9943037490269657  0.1226223664043320  0.5277708973319734
  0.1357698064775302  0.2832220743982576  0.3165467762017389
  0.8302183394200308  0.6773923872648172  0.8997047104144587
  0.0321910449337658  0.3861684344546939  0.5909210412406319
  0.9744172191598400  0.3538597368721061  0.3629697087692194
  0.9501685386695894  0.6847952317397543  0.5006109965582953
  0.8968699087251922  0.1340628355776937  0.1423159473394931
  0.1270434400226237  0.5693625898976307  0.4680935808292397
  0.9702533309654661  0.3691306931121810  0.2359952481725225
  0.7677193502271523  0.3507088949912033  0.3472674665398787
  0.7110148413804882  0.2414446577876845  0.5558563913660104
  0.8855492872367334  0.3023889866960826  0.3022696658445038
  0.7809294111913603  0.2702188600391454  0.6560830788283499
  0.5909337772534414  0.2722587431146812  0.5772717761101424
  0.8706524774478596  0.4918446169795277  0.4402516011077148
  0.6899998015307128  0.5190462621921133  0.0770610707109319
  0.9909036609856247  0.9511680739481821  0.2445693402021215
  0.8698802665671127  0.4077575520280908  0.3599818648833439
  0.7794243086182221  0.3434673640642580  0.5589613815271915
  0.8041654732270905  0.3216852925076229  0.8985346370251560
  0.8585545345943207  0.7943047867737894  0.1804549307946957
  0.8826350868264425  0.6555062208896522  0.6940342389411608
  0.4982987875867722  0.8111594436832397  0.7606190346546795
  0.8890110629777196  0.5746100554938538  0.5164576831292859
  0.9531520840997117  0.2331790681802147  0.2093194403880791
  0.8749387235058692  0.4012443004608828  0.7740693814172505
  0.6650607904495071  0.3548961277017886  0.5587732601922440
  0.5754964245175030  0.3706405367493081  0.3480241667168245
  0.6789370511876687  0.5217456687718401  0.4634253865134286
  0.9767140988132701  0.3155654376505481  0.1275692667114944
  0.7372470378833603  0.3020976003335460  0.1734936956753129
  0.7984637494681528  0.4951434394369403  0.2278884998075130
  0.6774299194347758  0.4047912130148153  0.1297487249904065
  0.0461711611484246  0.0055464962577941  0.4740902948995550
  0.0049844582489384  0.3613891741150906  0.9436936561590964
  0.8271295720239924  0.8990580759354094  0.6883134857781620
  0.7938774849554519  0.7745196465599585  0.8188656270446546
  0.0477189529702151  0.0771012833497679  0.6135570876826930
  0.5426083828712429  0.0740646801370804  0.2721827058037222
  0.9772610531575288  0.9657920651618824  0.3700739623450272
  0.9402074288186423  0.8810021822963975  0.1515098447005443
  0.6117669605508080  0.5716311163054698  0.1697948853073189
  0.8139122409775481  0.7732714420366806  0.0756886252047174
  0.3972056208632189  0.7912036530957575  0.2467396811262054
  0.7201106922571751  0.8540229023235675  0.4347305752074644
  0.5037595075894967  0.3915764233344000  0.2572150768433221
  0.0613372893929416  0.8792623264629293  0.9317122946763333
  0.4642870825261851  0.7176915544125163  0.3103998719348846
  0.9348683285706119  0.0396229796950467  0.4680907607870394
  0.5165126298194103  0.9579943007429509  0.9016059002975678
  0.0902969499239950  0.8448849071944546  0.8183858397911580
  0.8301787780760613  0.7848539450804951  0.2976035736552189
  0.7258036280801308  0.3845227371653244  0.6536763187472663
  0.7440665268504623  0.1435093836118322  0.2939852884096958
  0.1068749243411959  0.5009702290905583  0.0345886516236395
  0.8296860160094034  0.0754988465349768  0.2497337245716028
  0.6613377579650183  0.4640213734894573  0.7139864270381834
  0.9957429444302400  0.5323958097797916  0.2940129238850893
  0.3827017745057580  0.0448452811253774  0.0944993778227469
  0.8620563878254092  0.3137052641690855  0.1802497803712430
  0.0933157649767117  0.4959235642514097  0.3591755766568270
  0.8759220024679294  0.5224759428070651  0.3208101531326981
  0.9643573400644955  0.0459999736330857  0.7074565993586105
  0.7721683389326242  0.0707036511745740  0.7828289490435577
  0.9070064965111826  0.4619179386228034  0.0753291117561718
  0.4149893082947739  0.7861826778273296  0.6747843595151013
  0.7298636136068809  0.3993745661909112  0.2410214446088685
  0.7073934736890037  0.8653996850536509  0.5383858426987915
  0.5406124017567542  0.7792636731418935  0.6441173374084956
  0.3575392341865474  0.7698475390471768  0.3509804037658725
  0.6931760786871921  0.0599123038876840  0.2210929183401201
  0.6620758103694520  0.0694313018153140  0.3379231727062730
  0.0412477408303717  0.7315935769228189  0.5843678511604276
  0.5914629608529740  0.0517957150092516  0.5128746630945790
  0.5075669131854517  0.2940838049381658  0.1866916000142595
  0.6469847489961736  0.7563756916596744  0.0506272188828217
  0.8675085330352414  0.0023207294682449  0.6247666240079104
  0.0063825636118558  0.5470008166992603  0.0996424331170910
  0.9640838127252159  0.4527445179907055  0.5156848101041022
  0.0473430049176288  0.0464176224369429  0.3094199664366964
  0.6526565342088403  0.1769761246611273  0.0605921160937860
  0.9361396439082776  0.9952132972604643  0.8312057113109018
  0.7880249728762432  0.2408860552429173  0.3478966155443761
  0.8297538751429375  0.8691507106018862  0.4833466175732002
  0.9060136028299292  0.7809552322444724  0.8860762545846140
  0.4687556948122166  0.9376848561083087  0.4134608627709147
  0.4922601350047682  0.8975225275097735  0.5327495142773758
  0.1990203167460189  0.8388428759373701  0.8851933693535077
  0.3616999002273626  0.6828767720556016  0.8570549556764090
  0.4627723645323458  0.6971761897436194  0.7327877872378594
  0.3791313475276715  0.7617032408938093  0.5592117697623504
  0.7415116348079663  0.9645314760070339  0.1519243459905955
  0.5316232457364963  0.2589963234928746  0.4087830649794252
  0.5173259515516950  0.9819177218190407  0.1954987530854162
  0.5639254575233789  0.7637619046180845  0.9621710749025315
  0.8623070051732828  0.9790129071160930  0.1739879821410802
  0.8657071990814303  0.7675930059708387  0.5003727007625913
  0.8949011703685699  0.2094496140978085  0.0269689530545723
  0.7611533071958771  0.9645437751469484  0.9477849058331856
  0.8209227820556464  0.0776833067755935  0.4493880739056619
  0.7216278669303527  0.6922364059639281  0.8822121960327473
  0.7382204546687718  0.9558345777871992  0.7557133891009289
  0.8917261704991790  0.7053874886084426  0.7970290215018833
  0.7076847677108002  0.7309440586849801  0.7237480345398198
  0.7918354878317427  0.9339823038186340  0.5772145788960877
  0.8636521174681738  0.6055726544812509  0.9844737296904227
  0.7097597413864118  0.8930410609359568  0.6474938143877826
  0.8013092353339801  0.8846278868545532  0.2242412120307605
  0.9733929631906270  0.8074078986994475  0.5166594127623743
  0.8626653898865880  0.9664955145087671  0.4142281323504298
  0.8707529642854880  0.9687240200157695  0.2933559306796484
  0.6915215367840141  0.9501431589705414  0.0419177806057424
  0.8877223552481887  0.8402732774987740  0.9997824151091746
  0.7683762750139963  0.5619034364912959  0.5426333833149243
  0.9240247507374583  0.5978979575964676  0.4011242711785377
  0.8371056481368409  0.1962206586340654  0.4489147665784989
  0.6952246951142421  0.5356533984453555  0.2609596044602464
  0.7993670163385441  0.6501087206066604  0.0809013965492147
  0.7915590035217226  0.6975343515414708  0.2056293671248479
  0.8303486497392972  0.8886757401955254  0.0987396539053644
  0.8821638138534336  0.7208611692639307  0.9975428004806208
  0.8040324529795713  0.3916045852469028  0.4575689407899854
  0.7255426097745479  0.4867595585526910  0.9557417046076172
  0.9061175785987968  0.5049155637607843  0.8416555172094277
  0.8033160472539671  0.5196894246283201  0.0472980414136043
  0.6887295232724342  0.4569929933812307  0.8363957414243061
  0.1615481437620291  0.7888491855798628  0.2145972647280338
  0.8631597216118028  0.2234225396231053  0.8331449271373292
  0.8524777003986668  0.5667047449157759  0.6250327973618748
  0.0755933401380593  0.3718633999533866  0.0635589798238758
  0.9156691994616585  0.9581648003294874  0.0576520694945691
  0.0897437499873852  0.1911684108424461  0.2476056218042666
  0.1703507571215876  0.4368401979608484  0.7176661797257704
  0.2848025751898499  0.3954409710662428  0.2491971337425783
  0.2008077729696037  0.5491158972856496  0.8637737339751271
  0.1052234626870705  0.3304570836390552  0.5027171565221181
  0.7304367232790547  0.5464509902151978  0.7703871732103452
  0.1792343075372671  0.4648650194564407  0.2895434252554899
  0.6221583470354517  0.7890892370115102  0.4974270902941469
  0.1080790674775374  0.2829437870950627  0.6098467820407247
  0.0721946725423639  0.3077466168847738  0.1937643287987968
  0.9136106364038709  0.7442127886795482  0.6060983550890641
  0.8146277336889609  0.9832891856784809  0.8451830421061209
  0.2027820775672207  0.4785522218961512  0.9586180417277076
  0.7303430228148893  0.7133178594242089  0.3099336985656572
  0.0976589188235128  0.6217318522705169  0.0624640779000938
  0.0176599149705022  0.8641391718423956  0.3253501714420496
  0.2818224970268626  0.6474905329190163  0.0370565498812917
  0.6971638964235828  0.0045902271612157  0.8585760974727138
  0.9536669646323715  0.9437245068232987  0.9460041249985969
  0.7435203071711748  0.6020511560347358  0.9830714433050020
  0.9406074802992704  0.7785597010524509  0.0887831402783691