 B Cr Fe 
 1.0000000000000000
    20.0899999999999999    0.0000000000000000    0.0000000000000000
     0.0000000000000000   20.0899999999999999    0.0000000000000000
     0.0000000000000000    0.0000000000000000   20.0899999999999999
 B   Cr  Fe 
 137 206 480
Direct
  0.6268982604904658  0.8884968791136232  0.3610077037173584
  0.0886010483595381  0.2954576466731202  0.6574051247109712
  0.3117048671647945  0.3522468177940409  0.9606987677058521
  0.0187890795507914  0.6315797555020387  0.0353867124805453
  0.4851584389766000  0.3298977792075372  0.9623539901058220
  0.6443420143141159  0.6079773624651389  0.5586373942428808
  0.3481188993326315  0.4960292501692857  0.7986166038020881
  0.0128968606591420  0.1783144359095300  0.4461173648953064
  0.3440588826668640  0.8873172587580526  0.5452571046042495
  0.9187819325601816  0.4437011899199134  0.8479365696865893
  0.3422395784701147  0.0609072849618450  0.7545555619045762
  0.5120702790147410  0.6967643372958755  0.9065752023070521
  0.0197340265762527  0.3205592153483189  0.7998038682550594
  0.0431586284045529  0.1669232672858028  0.8201550890774963
  0.0675984984203195  0.5911759616885440  0.1616967101411886
  0.2968436820811586  0.9310906671789273  0.8063914732613467
  0.9374698470245865  0.3872992331321390  0.6390106242401481
  0.0895429240892115  0.8258866164604486  0.6199191354972682
  0.3888169845378548  0.3618024009305392  0.6804427171171147
  0.2836559755329809  0.7577413449749608  0.7758832830240554
  0.8849588015624830  0.8012013188543390  0.3840082287042729
  0.6336163947860084  0.7987830060237407  0.6922951872386108
  0.0937851584268646  0.0983262551599569  0.5632674593515964
  0.8916473924930249  0.4088998739642909  0.1959510107217449
  0.1660875379248157  0.2822528081777768  0.2339939269288503
  0.8105350741246142  0.9248366124847325  0.5481653755526583
  0.7318130058694633  0.3187986979825987  0.2881613980084118
  0.4761032297560668  0.0772284877709262  0.0116331956264080
  0.0791432531002518  0.2974363403659922  0.4042232290460849
  0.2904840050352097  0.6476583622361042  0.2679644286553210
  0.4428092379001153  0.3739869564472107  0.7494677266420311
  0.9903549659765335  0.8128244438061321  0.5728724189220421
  0.5246888263157267  0.1758007856826236  0.9298695200260899
  0.5455201093431908  0.7567523171432992  0.2958144538822884
  0.0888798868492363  0.7946520971738597  0.1679365768326465
  0.7772366216036322  0.5643597815977744  0.2981441835509007
  0.3769123683083363  0.3292741626444998  0.5330089642483652
  0.4510267725550777  0.2722000151993884  0.0306996717535584
  0.6912456948851153  0.3932233858315537  0.3321141213181349
  0.8207202511563841  0.2945422883376405  0.1379037000804418
  0.6834913087462734  0.3099187192388336  0.4852315726370495
  0.3481729240077209  0.7518574658680658  0.7128665653440553
  0.4490416948190811  0.8221456712641037  0.6011111096380194
  0.3069880760891343  0.4802098964883864  0.1121025982760747
  0.0111901681502124  0.9273095829866330  0.9168328521620370
  0.9226723586259251  0.6241009341548969  0.2965273611227883
  0.0812015634312095  0.9198425734232609  0.4904180150236004
  0.6697879933990524  0.3780134342042626  0.0365455779914920
  0.1008620490131335  0.1934797031109949  0.0070318112778571
  0.5369770489114395  0.5330573440746038  0.9810027136476318
  0.9307830837256789  0.5623563982632738  0.6831943957120580
  0.8161033253665511  0.1815540662238693  0.4257778289419735
  0.1420313162073084  0.3596832199980364  0.4096900486271420
  0.6415376554808193  0.6100769541567229  0.1277483180665637
  0.6397987388843298  0.4506843749930946  0.4845706170478394
  0.4510749950452378  0.8057009187574636  0.9716745834848615
  0.8523862619345084  0.4506815640743013  0.3819335771507423
  0.8628528835714913  0.8576389214942316  0.0885836873090629
  0.2366237857908871  0.8376728991535759  0.1366155393994537
  0.8618763588078718  0.9205755302420324  0.7761063529225241
  0.6864817663753369  0.6126508895439832  0.4756628614218835
  0.8011377547735287  0.5085099318219884  0.1184702249084398
  0.5887144384646417  0.4051434029487456  0.0687039438284567
  0.1417783520361811  0.9581517333624616  0.1430990871693918
  0.7590381175927352  0.0336144040147677  0.0521953752952579
  0.3958617686671327  0.7491748879750602  0.1505503472587232
  0.7141436508490169  0.1861411053276439  0.9563635447694364
  0.7444138323244712  0.7335298926382764  0.6232753488370874
  0.2832387913592337  0.3632791552740185  0.5673910431777133
  0.3578276968705329  0.1472361156847597  0.4777384688471376
  0.8706670219506797  0.9729146421160049  0.5053849504337056
  0.4970114558170838  0.4431272430025710  0.7413388045711313
  0.0613589284130194  0.9732735439641538  0.2757281860440889
  0.3794178567984205  0.0551880577524013  0.5424877519279580
  0.0591282836299190  0.7081546919328008  0.8674715104126828
  0.1374802350768443  0.8028565340949450  0.0216425048357274
  0.3064345611620414  0.9619453010042340  0.4029669413352161
  0.9370829943430984  0.4759023077362214  0.0240682138559335
  0.1774094795640438  0.7593148085570628  0.3038065452047584
  0.7713038615495318  0.1339890936633093  0.4903279880593661
  0.0300118791154354  0.1951806441205585  0.1566802213367581
  0.7348964389351513  0.3704224024392993  0.8502524720222608
  0.5840907613334458  0.9812796948451609  0.8208439088929523
  0.1031921278034050  0.7560762574132189  0.8108044341961748
  0.0336851807182945  0.5204570564127361  0.1927761359207241
  0.5491687761644396  0.9478789040130997  0.4905644744437987
  0.2069193577307976  0.9779830029811011  0.5669625270721993
  0.2585120296977896  0.9718195068451490  0.9767318732333882
  0.7744400646618897  0.2406378743731707  0.9950071965896625
  0.5258330285083492  0.3007662887756595  0.6768841438770390
  0.5781775310052042  0.5738978587965302  0.3852703448641611
  0.8800935258984950  0.2315562389330925  0.1311701453139851
  0.0241431024186929  0.5471386421750623  0.5610850214272437
  0.0720753537055720  0.7101179761731008  0.0310860229103419
  0.5908059549842724  0.0924813159124405  0.3784182997624970
  0.3436397597533125  0.2202128491689390  0.4275822245316397
  0.9309713427639073  0.3349532250676639  0.9601674709971162
  0.9052984483620099  0.1549117454153547  0.2498003748694741
  0.8592899802771907  0.2532861986947729  0.8507279082001753
  0.9437509758174447  0.4541529896006824  0.3201951288443715
  0.7943264724868779  0.0914194583124067  0.8690493750996399
  0.9275299502904295  0.3034256344680370  0.6627972014497482
  0.0672433308777002  0.5590029017837536  0.0176107521000315
  0.3710623214982424  0.6878398156929620  0.5308177815875108
  0.7371014297804036  0.6301810349740081  0.2609670136608518
  0.8089098332556928  0.8570556491237585  0.7632989587425516
  0.4880194694982625  0.1229091726010991  0.0852042878134527
  0.7302769156185072  0.4825766839943558  0.1606242237484664
  0.4290319401987152  0.2308216825790312  0.2266643151897146
  0.2022088417735680  0.0825159173218712  0.4452495252722146
  0.2267636078622769  0.1650272247802133  0.6023717494333573
  0.2363271137011214  0.8050647914537608  0.6122631960769519
  0.0131492783189794  0.9364295657929061  0.2002061511964443
  0.8706190111268264  0.0976795227037749  0.7387388749288322
  0.0150272991523995  0.1752493201838730  0.9869961432134757
  0.9938928858380545  0.7568022711825935  0.8923507189910984
  0.2771633552369785  0.2091637707268413  0.6595584173827845
  0.0494828301765850  0.7497446857372354  0.6027281997171986
  0.1837590244494853  0.2143328071506452  0.2893373420434026
  0.8761854442348570  0.6181639209993656  0.8365908941325624
  0.3388737705050487  0.0740446205023697  0.2971614153404706
  0.8745116241732744  0.4079574092208716  0.7831280827928112
  0.2743704061014948  0.6179944738536324  0.0158980209001204
  0.7359053226102573  0.7951628577241107  0.2136692387294006
  0.6730546334864110  0.8842518497702255  0.0925808776828388
  0.2006023300719604  0.5380393373964485  0.5397206592817055
  0.2875505797238619  0.8342162892446425  0.2073361575930666
  0.1191439864456712  0.3997600136998124  0.1539432811642037
  0.6998420345557438  0.0857904805353599  0.6094082524937183
  0.8719889231368333  0.7839174071464097  0.5342575694839352
  0.9619888484497736  0.4081488398349820  0.5606001532121169
  0.9323558542841490  0.7386694943539762  0.7180892519711567
  0.0354055955613860  0.3674835596091657  0.9853812696981650
  0.0032868936477468  0.8934191368259782  0.7561735681123377
  0.6653526129049880  0.5669285486415292  0.9671655934433364
  0.1809383484343102  0.2912561345981090  0.7575403169869622
  0.5247263261775573  0.6921211888662131  0.6522423969514708
  0.4725743804639239  0.5119469657247224  0.6410137342942481
  0.3418155850890608  0.7936243770139662  0.6183846605383611
  0.2397115244322083  0.7316663016190538  0.6858825429812719
  0.4912923220978979  0.3946512588121741  0.6484723465154532
  0.8786901215405312  0.9549401335144556  0.2843008431782515
  0.3822569507266616  0.4167966228627601  0.5877904254462758
  0.3819180678448986  0.6733485076461680  0.2176814896368333
  0.2603209487593700  0.6099792415124663  0.6899492084974853
  0.4702557352040167  0.6057742280004995  0.9319881017623509
  0.3949849063455670  0.4635135177062232  0.7080640898798800
  0.5441074136772771  0.5937089323762418  0.5816471770151376
  0.2964150732409410  0.5987939894775934  0.5340718010473686
  0.3551709471456882  0.7859328189563771  0.3533244521917367
  0.7075428744299362  0.8450663229728160  0.3012067453166871
  0.9483427909572232  0.4791200695728939  0.4213975020497893
  0.4062891897573445  0.5793930049104009  0.8385572997078902
  0.5442942348193628  0.6816531925129858  0.0144083435285225
  0.3582364057671107  0.6659204000854314  0.0813138112224382
  0.4910123644801207  0.6342920766006154  0.3660025678198559
  0.3490298145877312  0.6673921455685996  0.6408926923826478
  0.7306648299375978  0.8816816805332459  0.8357608236288491
  0.9211096385775783  0.5078939296829610  0.5258909921335546
  0.3703034997783073  0.7801584966831495  0.0522899460038600
  0.4632095525078109  0.4838596786717755  0.5345498538002235
  0.5471168664782120  0.0597985356088359  0.2666653015390930
  0.5170550693986187  0.4917813022357993  0.3401113633433330
  0.9310677154111687  0.2027264039542578  0.6270295859913002
  0.8724242130829200  0.2882497540634381  0.0381065777247714
  0.9198602339991865  0.0691612599882671  0.3389256250365658
  0.8280874022442742  0.1731714038212157  0.6873273534047308
  0.4832868130365653  0.0320861524851769  0.5212597501309046
  0.8889021553740105  0.1246612941324061  0.1344784082730774
  0.5050338596361229  0.0532749191440561  0.7920111111844358
  0.3892159993360351  0.8905028766588765  0.7699261977356414
  0.4673684617500606  0.0865538065580215  0.9099932365576147
  0.9280201227631549  0.2302988418647075  0.9371176638243748
  0.9232485954375880  0.0552044232371345  0.8192608441413981
  0.4224520284397953  0.1370749737819463  0.2872103442517841
  0.2874138396733243  0.8490374933756608  0.7228332898652862
  0.4286204641749312  0.4433024112103125  0.4236380125988343
  0.5063125898268802  0.2040745185424981  0.6418571777554060
  0.4442698437234728  0.1447026380951438  0.7467974395399990
  0.4016607226912177  0.9950021661879921  0.8359190716972683
  0.4119381915161289  0.2843061137825875  0.1338763668035304
  0.8602070299702017  0.2840044162003954  0.4400070379189395
  0.5140872358430536  0.2965826084510235  0.1925573479904284
  0.2287211231616301  0.9379995033592139  0.0807913475491793
  0.3908390614426458  0.3286553631892077  0.2431452807639169
  0.9628255419182343  0.0188458314616481  0.1248158131408886
  0.8104550014346131  0.8858414943989154  0.3521839158792625
  0.6757886354338611  0.8866993889932975  0.1980555377636879
  0.2979656168492569  0.6037474912521207  0.1690844892218572
  0.6787748356928140  0.0797285191852793  0.9644133660881661
  0.5743417721871948  0.8638883147258881  0.8562747910864873
  0.6149866523496926  0.4776233499964971  0.9114882070486016
  0.4094238662672971  0.6934505892156370  0.8689633840519591
  0.7746746754968774  0.2039052148995344  0.7939785304507833
  0.7803679909042534  0.6563657502058783  0.7788003136040991
  0.6614715629547873  0.4969247169087469  0.5872945301957039
  0.6357234940101725  0.0670437223518137  0.7785460797283940
  0.8406589341428489  0.3580260438355125  0.6930489838130651
  0.0563800065581776  0.1979562163450811  0.6169655417700366
  0.5789378221622697  0.5657131479446619  0.2779334175921894
  0.4191276163301549  0.4471119103760055  0.2895963580556213
  0.4370705747712841  0.3197719499741765  0.8437839090212320
  0.6919173382647041  0.7107206908678116  0.4138009825310451
  0.8141256769088862  0.2702499517242838  0.6266788310711477
  0.6878991658416465  0.5975180293383929  0.3626587544082383
  0.6260581962311543  0.5099652270368981  0.1518699307494829
  0.5560064063497402  0.6103850010067323  0.7086687640272640
  0.5929644799074890  0.0656115546099921  0.8916616548805582
  0.4424844173639103  0.6874837846781520  0.7445724600923379
  0.6925355862187662  0.0121963912732102  0.6937440452110728
  0.5219380314970236  0.4899902591594399  0.0903848440364030
  0.6832527224350492  0.3534853183520364  0.7586642982088966
  0.6946264258087267  0.2753008021968213  0.5914795843676385
  0.6169151576475810  0.3048660742644724  0.0954700280245666
  0.5750219812520734  0.1488908281906665  0.7196406028201172
  0.6661364404281246  0.1259089944388946  0.5056063272359376
  0.5230343099921642  0.2207937609349353  0.1019104922846879
  0.3804516922243864  0.0810874657189271  0.0609378024308930
  0.4936512323766667  0.2404122697774695  0.5178196247644870
  0.3876363236977087  0.9126292341407924  0.3315794349582903
  0.6764680421285777  0.3960318406640362  0.1406233416467390
  0.6394832192726324  0.4853796352876882  0.3734533723963384
  0.5829966280366757  0.2583585610710791  0.2979778171544755
  0.8388452389343309  0.2155402082691779  0.5283316412373819
  0.7655673308764790  0.5036921860241399  0.6562443881867924
  0.4705473778625756  0.6897179976567795  0.1123470334139402
  0.7934530870444357  0.3587934352673656  0.3673616417781699
  0.5485154929132432  0.2745374530496404  0.8797861578390592
  0.8441003169631696  0.6284352105713836  0.2352346259344389
  0.4342027143106497  0.8468517258313695  0.1314200267661579
  0.7230505686059099  0.2662910239162937  0.8804287811717589
  0.8356608224379271  0.3206313719518984  0.2451655652558739
  0.6354379471071793  0.6847345941286668  0.6469697808233504
  0.5929366345109462  0.6548927576245495  0.4564810167095554
  0.8489015800533433  0.4060056237203645  0.0031235105780777
  0.4422848674461082  0.8655033268065395  0.8809059040205220
  0.6982003251162398  0.1597800992486596  0.1660257516640806
  0.6919079735870899  0.9609937533018552  0.0115942504827929
  0.6287999953708440  0.9565149583898671  0.2727845811887873
  0.2677127645321611  0.7080006043203998  0.5664278907034326
  0.7158461286478737  0.5534345948344378  0.0621120208354403
  0.9468496655428843  0.5411094070474365  0.8616084313448856
  0.5766315552575507  0.7116298607067467  0.5548973847092569
  0.5880869106045616  0.9872956344910623  0.3815855832001980
  0.6291384120802689  0.7875130900946824  0.4791473890511895
  0.7114907263994501  0.8828179679581064  0.5386531482363494
  0.6288843382590428  0.7605510559503755  0.2262594826273462
  0.5542116725042585  0.1244138477788906  0.5648437394448231
  0.7104008921131347  0.0112978293544787  0.8546830270193492
  0.7812629035261004  0.2066411635326335  0.1011068757347388
  0.6106302505826743  0.9666773663375124  0.1104110981260778
  0.9575629710239830  0.4948638313696327  0.7598876720550737
  0.9095977784374852  0.6172504230846892  0.4040364152722474
  0.4024747810287484  0.5082703668222833  0.9515889236914077
  0.1394027558417593  0.6486508365899990  0.6772701542590788
  0.1852139172641311  0.7375422764805218  0.4743984215988364
  0.2237264083309466  0.9203861721768151  0.2001418565247071
  0.1571417943991892  0.5820003798712901  0.8531686358405437
  0.0639250202788525  0.6419407660551351  0.5854611475660431
  0.0860229205665100  0.5727087279122403  0.2718907484858165
  0.1753804099601530  0.8476825731405940  0.6843822656472666
  0.2048725221852933  0.6878649414083113  0.2129251402706010
  0.1578204838852275  0.4372931019260409  0.5657757196152663
  0.2285880759538194  0.5432286815605719  0.0799612541019283
  0.1968527195524434  0.3414530244409199  0.6599243083281748
  0.2012858985214015  0.3879919329882455  0.2363536468692859
  0.1443717713540529  0.8606545761430140  0.3178177900986519
  0.2078458253854095  0.7965841397413381  0.9307474593259459
  0.9393581902388511  0.9157873110122212  0.0522721052195346
  0.7731728037645236  0.8727674524215197  0.1322592592151747
  0.2831301930061237  0.8409756122666084  0.8505365530814387
  0.1356411705821999  0.4824057941139515  0.2158384830080523
  0.2596653345071669  0.2488300158928685  0.3665065485343491
  0.8213282027635713  0.7609818704466426  0.6979686259448697
  0.1649736987853510  0.1079240330933356  0.2717925219222820
  0.1692788543451698  0.5716393860700305  0.9854257804171039
  0.7803123313051880  0.7988872408890935  0.9171626005758146
  0.1518541253792253  0.0246355494986590  0.8448977977362790
  0.2162899566243452  0.0654140274855019  0.7608097531201539
  0.8390913124887510  0.8588108205408962  0.4651147037259590
  0.2983543555670075  0.0525396952671308  0.4692496862783705
  0.1232329904071756  0.8678027061344677  0.8797649397227437
  0.8989213549099822  0.9595507507771460  0.9480035814744602
  0.2665081529041819  0.0915155904699594  0.6667121089714203
  0.1577788448078703  0.8846500454486095  0.5652530852683115
  0.1002916485272936  0.9495698298581811  0.3784801407893417
  0.9968359489237281  0.9861892047859442  0.3673253184785124
  0.2128925807945836  0.2294604169464405  0.0540869264533919
  0.2119718914284511  0.1829903774294584  0.7588126388490429
  0.1087137059255720  0.5004441952756478  0.1039674694898291
  0.9159260935372998  0.9084201333101396  0.1758353480894774
  0.9090754797291235  0.7846286016213542  0.6316398131068610
  0.2722016266570526  0.1490921893204898  0.2729783116834943
  0.9674404367298979  0.8366069970815077  0.9637732864492975
  0.3872528163470703  0.1948030295107798  0.6446884199263242
  0.8455176345398350  0.5415986640750681  0.0308158346141596
  0.8503767201347009  0.5587996850634571  0.6131168736759446
  0.1072004402122406  0.0267786638064905  0.7247784482619615
  0.8722707231238197  0.4952658982650729  0.9351037917915680
  0.9499362840277560  0.9208573899635225  0.6706403787581400
  0.9584236629020892  0.6261924764500124  0.7644264438048570
  0.9137539682765864  0.8289501938980892  0.7657718238938892
  0.3116915640008471  0.4157924381994664  0.2658010691957164
  0.0654232795640656  0.3975958775379845  0.6241290805514722
  0.2629919198357576  0.1380650814526035  0.8695818072254050
  0.0072098613160710  0.3072256205819971  0.5882419842409234
  0.0731699103684029  0.5168721982185704  0.9167216804020701
  0.0369047575066260  0.4618616025886544  0.5057998886276841
  0.0841531065564996  0.3578588762022941  0.2420792103937038
  0.1131170366542853  0.1337806809025221  0.4654275110820051
  0.0365405140291131  0.3096539281319399  0.1476977624646924
  0.0162035440256665  0.6735583608329436  0.3124592774064229
  0.9919940045835943  0.8254900460472416  0.1801129943632944
  0.9689014735345279  0.1474751883529828  0.7386362166712104
  0.9745000900904413  0.7116784617580313  0.9838855358090460
  0.9627932302627195  0.7130794089175871  0.5448874433599844
  0.0827609681911625  0.2179219249907091  0.2429703628463130
  0.2245885576806817  0.3820133702304790  0.7940202251217532
  0.0719848855840403  0.8031754261786357  0.5075024272684393
  0.9900406956642522  0.7845471590035520  0.3449947695812406
  0.1421555176073321  0.2942141913163385  0.9677718922635153
  0.4064654726750786  0.5476587628799344  0.3679877584090593
  0.1092169837519758  0.5245337569596695  0.6183398041864797
  0.8460760293293105  0.5639303880394764  0.7464209913815224
  0.9331419586303383  0.5032182369421544  0.2240290109707643
  0.8289371966776798  0.6947359605173652  0.5747447497770328
  0.6306534379514134  0.9030698787072828  0.6500472528016230
  0.2852999853264758  0.9933290773457704  0.2654816116997462
  0.7713403191004369  0.0364217569438622  0.5418511589395821
  0.3686828854198657  0.3406992804283793  0.0477002575199354
  0.2285097896570036  0.6791060405908633  0.3579355644269790
  0.0121458817686377  0.4266740851290535  0.1528607486257432
  0.2538894715709697  0.1745116410530824  0.4801965189713233
  0.9762640240558189  0.2666054221511854  0.4039138766466077
  0.2917960182766594  0.2982572042909796  0.4655627760830485
  0.1761671136188074  0.4545286504609989  0.0012918263782551
  0.1079449490379476  0.3648272820742933  0.0582167664178725
  0.3130818796941495  0.3820441058301317  0.1501922105374600
  0.0970298929754553  0.3590601823960241  0.7383763751250921
  0.0901711710482946  0.1945905297809094  0.3643502866014565
  0.0782946214604764  0.6402795191312581  0.9462886220348025
  0.0056140640693500  0.6960458967027219  0.1190026839301468
  0.0832332153280328  0.9218877522145235  0.6832199362456765
  0.8963139818750130  0.2558722357479239  0.3157332058849510
  0.8317025694484934  0.5270443711583439  0.4472023457466947
  0.7781020935126824  0.3335582273332576  0.5228381389179461
  0.8240284197876938  0.3127611354189451  0.9296956026371707
  0.6998744708024499  0.2238102436840534  0.2757258193209302
  0.6148177460718016  0.3790352697121698  0.6626860607908824
  0.6738568643967660  0.2958694970574410  0.3809489055755934
  0.9152003915094354  0.3667181248645264  0.3692142992814291
  0.9668998043972229  0.0077419606901721  0.2467996954745191
  0.8824984178695875  0.6590972508525585  0.6786909944534290
  0.7405587383693593  0.3852114473948358  0.6450822501080343
  0.5609821596091115  0.8496157079339176  0.7389711691074360
  0.4465008471837239  0.7968479576014743  0.7033787814440279
  0.8789004999420142  0.6163391989158005  0.5122934895121779
  0.7279397051714263  0.2913532705028883  0.1794527400964853
  0.8051967171101626  0.3242524398997109  0.8000866309333593
  0.7614625903640316  0.4561946321285162  0.5368363572047288
  0.7109562780446158  0.3988182045860831  0.4370739041191284
  0.7584110911743844  0.4783241002244549  0.3488631130052457
  0.9158317697820348  0.3297831120030416  0.1431191254258090
  0.7373786844339082  0.4104710199351918  0.2453635904924509
  0.8119008746464175  0.5051461400850028  0.2187320163071075
  0.9598687987597896  0.3665024569412226  0.2549411726942183
  0.7509244157333307  0.4446936192121497  0.0555972739431826
  0.7547711150067604  0.3211277873650639  0.0574658429599829
  0.4488701433168487  0.7211613103148063  0.3030868153233536
  0.5125273299072225  0.9762404211248681  0.8889742838639330
  0.8528123084365402  0.4245122109694571  0.2853692001487875
  0.9840692704125624  0.5555178402852675  0.3280088067122335
  0.5142909868421954  0.3792885087067321  0.2686949027904534
  0.4628297126364285  0.9004951129505701  0.5359104995679868
  0.4321563744716026  0.8541914597535391  0.4288528173141359
  0.4074433137259298  0.8825973500990570  0.0153859605527057
  0.4942938605642169  0.7742700967883110  0.8234668914223726
  0.8668244222516535  0.5375886254281986  0.3281887606133763
  0.4481478951414635  0.7208054558101940  0.5951391274537866
  0.7845687592200591  0.0269879786640968  0.9546094914293785
  0.4198535072510873  0.7315618642459676  0.4226049895194222
  0.6682257638585766  0.3806186149632375  0.5543846176979159
  0.5749524899786493  0.0009114174987412  0.9927827190544797
  0.8049233565625603  0.5483883231473385  0.8554862774709506
  0.5386614729101855  0.2636894092981960  0.4100552143746558
  0.8184441643338285  0.2006798273812530  0.2169465869646238
  0.6745685436056603  0.4635147276972685  0.7171747870162161
  0.9047732377488573  0.8314264791505935  0.2795152836424249
  0.4162905212189141  0.1697053321816279  0.1376104486594128
  0.7528347671904138  0.9819781874831074  0.2429304650065717
  0.0597149363824513  0.5083153908334866  0.3929274878926171
  0.0545246326353845  0.0809292752064115  0.2883521976019930
  0.9926034669335578  0.0069395107249265  0.7260370118156263
  0.0432444244352390  0.9233937863222491  0.1084584697471096
  0.0333709735594442  0.0854657026968314  0.6457486872228119
  0.5871495195643438  0.7090298274770868  0.1286215990977544
  0.0541796389194606  0.0233838160171369  0.4843590697321716
  0.4635416400541014  0.8915096076092437  0.2259622446398910
  0.1110447114016946  0.6264266616100826  0.0770329818030021
  0.8953495798694752  0.4602327897519042  0.1126094227790373
  0.5366544192807819  0.9701631335042471  0.1928791921630854
  0.8025594564414297  0.3941855212037976  0.1476296166495267
  0.6487724940661098  0.6747333526896910  0.9605609799779230
  0.6184582842535002  0.2625496552476173  0.6919484652607651
  0.5903179051764034  0.3492705814800152  0.4721578934175086
  0.6632417859338516  0.0689405403758123  0.0781794085187836
  0.4937524390985153  0.9238202790152177  0.7873423878475814
  0.4979660047012198  0.9016756525148992  0.6562358555688580
  0.4728990071726203  0.9638758197970170  0.4244602014599163
  0.5937072242761716  0.3772946238746647  0.3568784364207145
  0.0452893330756718  0.1091887352937737  0.0811322778039608
  0.0052778276064473  0.7463561221195634  0.7872385814716396
  0.7858826983389957  0.7764226229453609  0.8079181995702150
  0.8450645559439377  0.8880763588447055  0.6764418070084710
  0.7397013365502304  0.7324297424076400  0.9898440224900241
  0.7155115728348526  0.8455935911520519  0.4209003182788499
  0.9443245267508624  0.9447712155585235  0.8244680063267028
  0.9377433894604766  0.0457043665840585  0.4688285627481190
  0.8697232553453101  0.8014009561836071  0.1731071990251840
  0.7471224078938088  0.1110988522142856  0.2608522127290844
  0.5452598324708057  0.7828477401179331  0.9428276063070283
  0.5479091813696132  0.7922173130322560  0.6325513618936662
  0.5023867400781531  0.7921687327937810  0.5105730996306328
  0.4754437997849711  0.8286725496408510  0.3253545055519828
  0.6577670016769060  0.0428667409511057  0.1987450106834795
  0.6686837763585993  0.0556909090237669  0.3230870838611064
  0.0101898774716778  0.8159070536208435  0.6820483495545547
  0.5886887154334991  0.0402648402004398  0.4791111386907744
  0.6372572008784244  0.3359104025358046  0.2428702565586586
  0.6271508680196646  0.7684307802608625  0.0305898527497005
  0.8431664390925879  0.9850881187388815  0.1519455766222496
  0.8555054475110913  0.0676806434306517  0.2340349477172231
  0.8121983223651328  0.9398379304880864  0.0422213087629202
  0.7671837303428888  0.9173735925541883  0.9326557965345903
  0.8285178956852826  0.0743812112258774  0.4383570108868279
  0.7057180128229924  0.7122384157623871  0.8643943488500352
  0.7678041380381873  0.9527682831815968  0.7514300235492692
  0.8841047280720861  0.7084598122403888  0.7962961286460913
  0.7270769301100507  0.8501847837463230  0.7000765718129832
  0.7531145359375804  0.9444070702380151  0.6290904470195532
  0.8111739734992490  0.6830135549438531  0.8868483060862483
  0.6633093489370038  0.9986268148067063  0.5619877857703655
  0.7742085396961533  0.9548770703094326  0.4545366156621228
  0.9524064414148533  0.8124633436472137  0.4710248779722247
  0.8778934406114098  0.9730926998616749  0.4040986398729468
  0.8725164571115502  0.7233847240906400  0.4548769500592523
  0.8779300097995856  0.0874720193961707  0.9269989861224006
  0.8585944170904876  0.8722739930424895  0.8658141210741263
  0.6978309578532275  0.6898066979381425  0.5405983366308078
  0.7996459203500119  0.6509124119875839  0.3445790965585241
  0.9149232187660364  0.1602993140808979  0.4280592161484491
  0.6939485385738920  0.5288845789603347  0.2571947277959531
  0.7584954846702019  0.7021997700507616  0.1793416425043099
  0.7407666994908785  0.5879936927467156  0.1641848492850191
  0.9245409413917647  0.7803129094500265  0.0696941606925557
  0.8038451316069058  0.6482543735900279  0.0755599147475584
  0.8703452498842565  0.1063482575918144  0.5509931985649509
  0.7463622844657325  0.5013035304722692  0.9500699466644692
  0.8563946158046540  0.7202591642030087  0.9905428550099188
  0.8810790094942483  0.6152777462216603  0.9414427028917847
  0.7010762288223177  0.4661744370114387  0.8408346934235013
  0.2257300548749619  0.5250715503985044  0.6377286549211624
  0.8759297910738505  0.1571459817991312  0.8210287106726045
  0.1691066724374540  0.4434854688605280  0.6927894878697822
  0.2193890198826204  0.3708197248112813  0.9198122435718669
  0.2030688387745266  0.4849359335630582  0.8890195023068852
  0.3000892870381234  0.4391556003645919  0.0179557522527275
  0.7285557987721746  0.5560701083744078  0.7601192567260433
  0.2090414869698320  0.4291323058068838  0.1134562919830053
  0.7966985123668266  0.8245228330993566  0.5942249471845987
  0.1850178322789256  0.8031206871925376  0.2130344351317139
  0.7621958704961043  0.6380348139177985  0.6637984000096263
  0.1430827118524622  0.8596308848233596  0.1059862053039916
  0.8290472902183786  0.9903971077776180  0.8500199653801797
  0.3071234710168331  0.9757117577322069  0.7156724382845893
  0.1502390913234309  0.5553673839689406  0.7375894960979005
  0.7087238237078961  0.7195886497987707  0.2966093803726209
  0.8984962091717485  0.7133770662677500  0.3372366445095460
  0.2174789297855929  0.9331963873527679  0.3731011589005370
  0.7081143480631457  0.7347730856576185  0.7190108682528314
  0.2603557498195273  0.9334161021165228  0.4955296690637372
  0.7602535052039481  0.6173326827078962  0.9710878460084921
  0.1986776355163003  0.9823206987772836  0.6654190888526395
  0.6969213518671697  0.5903748232217044  0.8718427097039699
  0.0910984040439453  0.8464438471384884  0.7715859352053390
  0.9524118167699060  0.2371614184144240  0.2096822638983262
  0.1925459442761852  0.9267623123540476  0.7753645214184994