 B Cr Fe 
 1.0000000000000000
    20.0899999999999999    0.0000000000000000    0.0000000000000000
     0.0000000000000000   20.0899999999999999    0.0000000000000000
     0.0000000000000000    0.0000000000000000   20.0899999999999999
 B   Cr  Fe 
 137 206 480
Direct
  0.6263517486904367  0.8583333664721249  0.4047665423940152
  0.1227483465986634  0.4029536992452497  0.1508567945226156
  0.9247706343449646  0.7508058924365065  0.7089093553839485
  0.0723140336286355  0.3624765463638028  0.8739453060315892
  0.7851603379129554  0.5568970754799245  0.3082445811915725
  0.0242300814129760  0.9681252773492713  0.8745412109997348
  0.2928501405278740  0.9784812797337098  0.9592469657287371
  0.3525523043483322  0.9607457026150710  0.0235997158382726
  0.8847722596639522  0.6081953246492743  0.8444497303976696
  0.0686958091471778  0.6052098017851373  0.1610104780327284
  0.2096338963481645  0.3132208713609412  0.6308106294495616
  0.3237389994881957  0.7473807357811960  0.6515737805071458
  0.3419966552173652  0.0647359457488694  0.3025086872261094
  0.5136518247579532  0.3131507572530997  0.6346109935387665
  0.9618810226682255  0.8467374218619054  0.9341623883001902
  0.8171754725956388  0.2863573367647055  0.9961217063568727
  0.9418312521504121  0.4454482513998871  0.2982529634403559
  0.0306361527002864  0.5291380890207404  0.1966125491123611
  0.1997976149614173  0.7266269814032167  0.8865516052756132
  0.5967083195815129  0.9709269240441309  0.8453246423496175
  0.7307176394400068  0.3643327014074049  0.8390144926703275
  0.0444292206062494  0.0899434739008683  0.9935625876377084
  0.7765481116505251  0.1531492603676734  0.5152360105546298
  0.1843354483846316  0.7577845925356087  0.3143969502349287
  0.9428253673292898  0.5493261663451212  0.0163288046703534
  0.2381712290658398  0.7361140637702951  0.0591724381830884
  0.7271845606759214  0.4305868883891503  0.0408761978316267
  0.3978513005516213  0.6119905612227330  0.1736765426740215
  0.3943568968757722  0.0529963715949552  0.5440446418549009
  0.7714251309537611  0.4833169309982865  0.4639495044129196
  0.1703103284059247  0.4908681336805520  0.6399573310987471
  0.6375775582493850  0.2714311250876107  0.9105960574285776
  0.0298230451051217  0.9826937662812538  0.6552845646494341
  0.0098215709555777  0.7876899531499606  0.8813452898107061
  0.9580894394055318  0.7754599900772738  0.3154187987503901
  0.8134415101992691  0.8889948745942938  0.7926744630163327
  0.4672862835475595  0.0820754227638704  0.0424953921675848
  0.3529312977320763  0.5858983101451004  0.8888969632665983
  0.7493039745652532  0.7894964898052184  0.2237164304202602
  0.8765973236045808  0.0459304174084813  0.0954551459822944
  0.1683099851688970  0.4821547022715755  0.5186594392649776
  0.4476846037507630  0.2015900065744984  0.1771120404359953
  0.4480742588875209  0.2375235091304915  0.2575458606071774
  0.2133643033876706  0.0904172509209839  0.4539014970696258
  0.9496908252035416  0.1177319551047597  0.6341133251679810
  0.7035396399665472  0.4852530160568452  0.1757417156047321
  0.3494129752735349  0.5906199963848211  0.7006669748332528
  0.0419390887650011  0.6159698612116138  0.8547564233486533
  0.6503279815477572  0.5460345967203847  0.9788114237404997
  0.9127175588735610  0.3959669893804301  0.1512410196805889
  0.8580057411364922  0.9949139877007696  0.5207258023488771
  0.9169789613135220  0.1356125812905223  0.4456115478734181
  0.0681379082552925  0.7200408689736398  0.0359762422420858
  0.4882534871163603  0.0510772577235754  0.2523491972395641
  0.4212068778320106  0.6793391282281039  0.5250163428373551
  0.8953675790598487  0.2364124359933726  0.1221456413890470
  0.1791109997851826  0.1735661391561760  0.9660246646578782
  0.3073335577862923  0.4838969201175947  0.2018076631159450
  0.8772834811789690  0.3195110765787116  0.8309615316714886
  0.5013257626371906  0.3508680066063535  0.4290539627420958
  0.1438606595342743  0.2405355469855979  0.5209596521232954
  0.5695946484289306  0.9205711607263148  0.3784835259119163
  0.1919951469795746  0.2020447922540961  0.2797251611581818
  0.2226455053293971  0.9763519738604068  0.5604101195364002
  0.3810101942891200  0.1333739542403923  0.3593612545831804
  0.8888180990465309  0.8208614681656961  0.6670245755678335
  0.6245928633511683  0.1203624121442699  0.4426418633917116
  0.0321703699676559  0.5683714202640487  0.0013184524006793
  0.1280598772912135  0.1123380190280930  0.1802855873861521
  0.7414019466372345  0.7158152329654177  0.6211031077499827
  0.5660811601438337  0.8976057357215169  0.2153918926208163
  0.4153531300415574  0.2483665622658311  0.5998066557470508
  0.5018393278021197  0.9808771654769778  0.1883913251343091
  0.0584661191320997  0.2825127218930629  0.3992702585993693
  0.7366987006364941  0.6843978190773574  0.4080259619977717
  0.9196816883213436  0.4034413463601915  0.9902888238186298
  0.6039961347168499  0.4824822924022016  0.1283971533251801
  0.1629350990647609  0.2555694425305116  0.2134628918755436
  0.9750330321937982  0.3819097902677412  0.0510560685636281
  0.6977990337842096  0.2523409682536054  0.1001924816937202
  0.9930251317317812  0.6700991551778095  0.4072364724998088
  0.1953410550302841  0.6574497978219297  0.0745766698879665
  0.2671685048711698  0.9153975440489035  0.6110143339149711
  0.3768281123022569  0.3706356510465628  0.7026516956099226
  0.0801993947448827  0.8265026364617696  0.6091557438942790
  0.3280244554161435  0.3177204570528780  0.9507789939681942
  0.7925766818581088  0.3090328911357786  0.2571728203636743
  0.8371031265501304  0.5181540274357747  0.1400862487869378
  0.0209839474228726  0.8554435503006840  0.7454316308658312
  0.5918357912317802  0.7064356528256455  0.5573899780458901
  0.1384918833368066  0.9233089582443161  0.8772740006009940
  0.6747262065584588  0.2928647310453890  0.6442577398419036
  0.0536851228296932  0.7046254300701290  0.8516512355613464
  0.7323605816006922  0.6323584330257236  0.4795080916259364
  0.0902332923124876  0.9166712418898798  0.0328743338542228
  0.2363651983953868  0.2773731672379025  0.7018912191951933
  0.6120405863226650  0.5912834976032540  0.5139402924840675
  0.7573996760682004  0.6207583273292799  0.2606660684636306
  0.9257547228832711  0.6074279500212589  0.2963677717906339
  0.2523526981755118  0.0693082855365423  0.2620179250210597
  0.9370088760413566  0.5694012807883291  0.6894191294245597
  0.0653738269420990  0.3611143141580278  0.6668032035176379
  0.2545646565754742  0.9234798714162402  0.7634147264353551
  0.9033897818792342  0.1427776327704711  0.2457763564623941
  0.0627785883269905  0.3571931942554559  0.2846937442127179
  0.5444458403099257  0.1504930355109310  0.9284299746112773
  0.5578669223115685  0.7577946349743900  0.3099660174862273
  0.0194934353211260  0.2864019999325680  0.5520025864845748
  0.4901903555436585  0.3173256373915502  0.9681854516023198
  0.5245664382480590  0.6710699142877535  0.9398531214963602
  0.0120563180050369  0.8574276152617660  0.2221934633370704
  0.3173771946056320  0.8109167903398794  0.4957198550841741
  0.2780133806517668  0.6109682843985992  0.3024791034609445
  0.3437932320633006  0.7667595079904503  0.1626108587382054
  0.9273944064748784  0.4133328410565454  0.6053043361214022
  0.7323225400951903  0.1523802351898888  0.9944471982678116
  0.9056278485859831  0.2102788372172502  0.2997095258745394
  0.7937620427477143  0.1531254993391302  0.8415865403712877
  0.8407820168771520  0.9275430119405134  0.9969341365236991
  0.1499935141023896  0.9530905358090437  0.1723640002619910
  0.2022010817693401  0.3827213172713638  0.9722413605662441
  0.9650167729199113  0.4164182419728583  0.8078131230144884
  0.1009153570673018  0.9242260240123471  0.4983036139258571
  0.0682702536840238  0.2729712139275622  0.0898796204492139
  0.8954264452486873  0.9202002293498299  0.7866965945495524
  0.4531702419886950  0.2550053205554368  0.0265637422221526
  0.4782644613030025  0.8072213199813132  0.9337679368061540
  0.2227990200994082  0.0268116789244159  0.9530018947667029
  0.7331638462839252  0.1161092490889262  0.0715184609488588
  0.9119252112020031  0.3985077283436466  0.4455485228844305
  0.5273292015444663  0.5105552652916987  0.9801784394214721
  0.4589349365225446  0.8204790572977277  0.5894097471964379
  0.0263998485755965  0.4308361669467197  0.3165338768102396
  0.6726714962082749  0.3905819545620466  0.3213858171650991
  0.4451728382411398  0.9632285450171775  0.8282517623524243
  0.6268240714946294  0.4377916094405932  0.5099193893854734
  0.2176485454879554  0.8397631541716845  0.7837953099591382
  0.7966885725941300  0.2043026221310054  0.9375578731093245
  0.7427919257169753  0.7168424795190022  0.0069738457009000
  0.3026766354907870  0.0542951666484166  0.8801304578194233
  0.3572843823783974  0.1866675648105178  0.6593092512761242
  0.2043907780999368  0.6719812787018726  0.2524977412601686
  0.8170272208960346  0.7452516070736113  0.6963634456109489
  0.0159530127141573  0.1268054724803168  0.1909846235724158
  0.3508793115461833  0.9888063276755577  0.3844972775340526
  0.1676090743830744  0.7098320033397770  0.9859784687457460
  0.1816454454586179  0.4667787691085457  0.2873732457121964
  0.1143164269484839  0.1087709666008747  0.4905467064166596
  0.8247866556989486  0.1079283527253344  0.0232264377135124
  0.2041011365986001  0.9834616414570605  0.6651456599944636
  0.7984053820057241  0.8070534196011172  0.5978248947241364
  0.2294050852736976  0.0389315521618862  0.7696957751634849
  0.0459410052204735  0.9303585227664902  0.1357273921195002
  0.1675633909155175  0.8863361580569534  0.5696898420829336
  0.1015726549365612  0.9453329017077547  0.3709765639818006
  0.9173171407499885  0.0582396295770925  0.3547833155147281
  0.2276746893096687  0.1699187032329413  0.1854904096242246
  0.8349161052240921  0.7818518502045101  0.2970598997926019
  0.0295968632890563  0.9597395072006634  0.7685473579828105
  0.0968923392956609  0.9965210477346326  0.9459201779155215
  0.0491156144370927  0.2584578678735087  0.9089781002707501
  0.7379976462048977  0.8760603071548432  0.8682438959108013
  0.2369168812444422  0.2030248239574464  0.6157655368262493
  0.7897839449226500  0.0817539355870108  0.1485685684603320
  0.2714720405112737  0.7799823253470867  0.2522188725359408
  0.8600321654120962  0.8894987437713969  0.8917488876745601
  0.9252951573905496  0.4947298545402611  0.1989289389088611
  0.9691685684546399  0.3860774958040463  0.7003589574394578
  0.5469857728225437  0.5106690969706118  0.5302408106221629
  0.5737552603025406  0.0200173602976756  0.4021735578711619
  0.9010167334107368  0.8787569545648727  0.5807832284402967
  0.4989129705703653  0.8938194114996360  0.6632040164501994
  0.6691157161892674  0.6513838774010239  0.2244164255134359
  0.6241495968632863  0.9469746061210037  0.6857116709177520
  0.7960057373137970  0.5719848612065025  0.4166356568288998
  0.1848318837868603  0.9267570999593535  0.9805707253365239
  0.0697548019296951  0.6169381482027624  0.5775237165969467
  0.8546845430784095  0.5952736331751411  0.2177851020318587
  0.9565713152775742  0.6792443923723085  0.8938873667730577
  0.0758175192292598  0.7809539744737056  0.2935996827122971
  0.2627358338354205  0.5165680084466675  0.6860423365649945
  0.3445030908272074  0.6837653997969270  0.2400659595097353
  0.6050317308925510  0.5398739528006664  0.7975554132390974
  0.1000384724025675  0.7780237840043626  0.7046630085460363
  0.2998427158850524  0.5783687419904978  0.4052842648737800
  0.2120652767448187  0.0367202850041313  0.1737309855314488
  0.9167825153017987  0.8409912753066500  0.3985521293025193
  0.0634045259619257  0.3998061999563159  0.7727044222926592
  0.1347480799653004  0.2830587825619899  0.3160009122286538
  0.1019605005698990  0.5804392699339608  0.2623107309684855
  0.9574086639094180  0.2249518271114523  0.3972010155973958
  0.3395517950185507  0.2411971035754810  0.5267731211919605
  0.2160581989323637  0.2497168853230762  0.8042128970780377
  0.2099385282505297  0.5476124375020012  0.0766661447031349
  0.0835725286186823  0.1808577672309474  0.3644953859326808
  0.0939496535022446  0.5359735569252917  0.9169959191440898
  0.7594693136113473  0.6233273930898763  0.6737620775715316
  0.2633244929765777  0.2808926261840687  0.2413894712140671
  0.7871030843745235  0.6519289890738106  0.7872152939114299
  0.9469356836502791  0.1759367784738671  0.7367963974741244
  0.3763079260438571  0.1910635031325649  0.7841397561507667
  0.9517526974989443  0.6834459731076652  0.5006438247834860
  0.2662046513191639  0.3914960031678080  0.6899750788843505
  0.2936048365637184  0.4971413852562775  0.8930409885651738
  0.4353451773427637  0.7293589139089902  0.4275493787999515
  0.9740265738360491  0.0225109483668216  0.1377740715916687
  0.9712429647353860  0.6548507932862538  0.0277419759364410
  0.4110945446267613  0.5126074397892465  0.9601315752339455
  0.2569833835320675  0.8081287269802896  0.3967263153172274
  0.0495286052957485  0.8067668091336134  0.1339137284306902
  0.8166410613223981  0.4004026105966753  0.9882981138102425
  0.2720314303712246  0.9052643845451654  0.4997014674661346
  0.1155308949707769  0.9955552737338091  0.5840345777106829
  0.0045520205705946  0.6872955339439273  0.6868278423359805
  0.7956083610418760  0.5597527726446777  0.8799258348501778
  0.9745689811722730  0.3542909216395541  0.3602981153132549
  0.1309720272640408  0.5706058853046795  0.4682661684680904
  0.1842448002207255  0.3127793991406981  0.1265492946080903
  0.7526587215314652  0.8604476715976677  0.0010582291530984
  0.3412915978014903  0.2257267490060483  0.0139025761161227
  0.5016820039192372  0.2001664691326665  0.6395063152878918
  0.0641563430797701  0.8765231137700589  0.9331775098857893
  0.8973913494860660  0.6878812272426940  0.1368838245726945
  0.0947697656042176  0.8036531542366998  0.5056934820525807
  0.4900889708038211  0.5165622078448424  0.7619853884402084
  0.9964346619247756  0.3411090490189732  0.4663643054104292
  0.1454310902909858  0.1285748753880840  0.7841866455242349
  0.9607493032625104  0.0089787142229549  0.5779671109204066
  0.0276987504807042  0.3928507533615275  0.5776486510486469
  0.7463071635844291  0.5834775766521155  0.1560808263302366
  0.8677692315095050  0.0211475535935949  0.9478655414555655
  0.9552737104731194  0.2329679124596689  0.2098484867638956
  0.8249066114093790  0.6725490424442739  0.5780399932071320
  0.1931042354623124  0.1655193912511971  0.3824924891947276
  0.7478564908880050  0.0112114802216072  0.6644976748829314
  0.1416492845967522  0.2935327561847728  0.0039997119426992
  0.9940774067587498  0.1235430464011410  0.5277492080986964
  0.1740890459113433  0.9858501733224229  0.2849704949369928
  0.7250433089115276  0.8472265266603890  0.1183860341752474
  0.4147517007134938  0.1307693247024554  0.2597539249400816
  0.7503883088296751  0.9646895453166574  0.2747015243262717
  0.7145441075603514  0.1673647890044931  0.1690586610722198
  0.9814323382239609  0.3099023669600187  0.8212793017873609
  0.6876763801454789  0.1370791625030405  0.8155570479216930
  0.6769797906857893  0.8785701732723340  0.2208733823765631
  0.8438026125589715  0.3648742208556867  0.6551975118430170
  0.7781460439445120  0.0362388827599272  0.3558205872917613
  0.7901194272167942  0.3132973236687456  0.7670243512736119
  0.4871475507397047  0.0235078038787840  0.4984559809502735
  0.5665700327095554  0.2352007496398727  0.9939008561763429
  0.3397042201279755  0.9705888338991921  0.8067787079701334
  0.3720767623799796  0.0680436393710653  0.9822399455911321
  0.4196111940480244  0.9425082362589063  0.1190699276251386
  0.3259519143995750  0.9681848692966231  0.6935229437722062
  0.3567806197470080  0.1661506656481156  0.9092902025431024
  0.8758216846048305  0.1162998318540089  0.5521764751012008
  0.6865707525445319  0.4019838531624124  0.4304347415722404
  0.2339429871694054  0.9291090841666370  0.0951405891285389
  0.3179315080605516  0.3787691803272731  0.1328199103692716
  0.0901304938052216  0.1883849332602662  0.0178590984495986
  0.3743285535072550  0.8856257216035811  0.6015452176448216
  0.3194238810124439  0.3019851694544011  0.6261901450126038
  0.5999952560033596  0.3758331013807736  0.6617952354242618
  0.3999180786421855  0.0817503431556678  0.6457884360216221
  0.5136502719660726  0.4940829362805412  0.3275886301719812
  0.5214964772345636  0.0418167199780158  0.8119048111653606
  0.4523463222430085  0.5749591820521301  0.6673943736828511
  0.7604898194366954  0.9590990419601244  0.4685993542020810
  0.5422816880701609  0.3967097268335111  0.5652167901796482
  0.1033881364859130  0.3819975895346368  0.3827827992060118
  0.1509682636791580  0.3978431381601308  0.5908842953999984
  0.8437716144886573  0.4624019543596841  0.5568643378202077
  0.5352087188418228  0.2537048975461131  0.8839365219071030
  0.3123601056244290  0.8355597980942739  0.7181009900272507
  0.2760819811711709  0.7547649878516894  0.8211254293766277
  0.5205654826877975  0.6426915420552797  0.4873731093024984
  0.3498395203531021  0.4299597572021535  0.6168291162659075
  0.7999434540115469  0.4179384060514537  0.1293082354718346
  0.3760220373778289  0.4842078415916427  0.7192160051870721
  0.1574592006722244  0.5700796520250733  0.7120817563927163
  0.2600123322572104  0.6998897268662126  0.5781964867789799
  0.4740397752848736  0.8299885019217536  0.3394688336570704
  0.7180874426953581  0.8363447395493663  0.3157851275242126
  0.9806352733483686  0.4752232127588954  0.4001504484945207
  0.4754161734943418  0.6038603910935305  0.0129040738997841
  0.1980366334987078  0.4805768623313250  0.4082648786937077
  0.6121926270004132  0.6693599253930864  0.3401512063083400
  0.5751983458739168  0.7302965218372049  0.7635299948904677
  0.0278091571385080  0.9080853689676464  0.5712284419723251
  0.7373224790615326  0.8368878621650364  0.7398612547780942
  0.4893205392935114  0.6872297323412949  0.6134474948171624
  0.6101763906297919  0.4379371232921682  0.0296596011019181
  0.4196429952339459  0.8633631592866461  0.0054448752669360
  0.5676197859437367  0.8337875863474299  0.8642895394904540
  0.8083715407559863  0.8911126574747167  0.3569416660214373
  0.8522176531301945  0.4057681892044666  0.2488038432689582
  0.7265296398111938  0.2499361356260968  0.8464002716597108
  0.6377189170840256  0.6594192684248067  0.9721433570836991
  0.2164355433486626  0.6514789530184345  0.4567317326699425
  0.6989584995332764  0.0535418506750429  0.2250079254198788
  0.7289426251354013  0.1544279847663999  0.4142634678371326
  0.4168252079745549  0.6050188395339957  0.7827961297143844
  0.5213236745784677  0.2078911427534420  0.0993885234693329
  0.4058093793080754  0.1641701360400480  0.0884037308873388
  0.4865979971168617  0.2779454178432778  0.5224491204838474
  0.4666952020200540  0.0921031499786396  0.1562034695058374
  0.6155348423192503  0.8319217779029943  0.7145479431003410
  0.6434666886496105  0.2290514095417024  0.4727711694760368
  0.6351725728116201  0.1780246455468579  0.6208790272054463
  0.6229657637297491  0.8617563941856125  0.0350691604251148
  0.8231203839479461  0.2065665287599490  0.2210058067702058
  0.5860060868524577  0.7034446116146438  0.1467852300729162
  0.5833337785998119  0.9871670970603378  0.0100798619404108
  0.6994812444980496  0.2497959705067545  0.2740751231836439
  0.7918202418943939  0.2127082448417298  0.0826613573560363
  0.5220875819585352  0.7945360368283759  0.2146188343970441
  0.4798932254940192  0.4047202950223836  0.6823852383366856
  0.7064023578410749  0.2622810922306353  0.9874984859863619
  0.4789995832733335  0.7324999648164447  0.8606700012741769
  0.6158784418771620  0.4531739333321951  0.2402649570950307
  0.2097093200622903  0.0798022595669984  0.5618838083828509
  0.3934439005055741  0.3448299395054227  0.0270361776680513
  0.6777299979689967  0.5283269792997418  0.4635112312916415
  0.6964023718279138  0.5956195321628504  0.3588680837004287
  0.5729794365742862  0.4327441909731889  0.7814617804260066
  0.6510807227478036  0.1680290366064183  0.9263270873461258
  0.8065223428540791  0.1876443346445312  0.7397344800258709
  0.6059578790772874  0.9310795389067293  0.4822491159572161
  0.4977096840044334  0.6021506587197618  0.1350043965376435
  0.8299803847401475  0.2472250908205143  0.5478195726945788
  0.8471509900010247  0.5487213143827872  0.7544530247653515
  0.8798084478523528  0.3317519054598598  0.0628999549955555
  0.6056797745979556  0.0540720481132119  0.9078036740409369
  0.7372086148771319  0.7421359628319623  0.5076005618431323
  0.8267107356606750  0.6503103469753410  0.3349894377281871
  0.6239195138678252  0.3400955554144537  0.2267800077154953
  0.5000150558002545  0.4861956048423888  0.0827285361036268
  0.6363213872722209  0.0341444281688489  0.7655401029079701
  0.6496671435636603  0.5078212398281033  0.5910319619730983
  0.6041753388227478  0.4591077869720192  0.9137679209703243
  0.5476861399618477  0.6677177792935759  0.2436193968021564
  0.3243880620207295  0.4335622489117703  0.4223027715274834
  0.6727435397977717  0.3411740638202586  0.7502472867371393
  0.1648019666360661  0.8732930487019291  0.4413185634034915
  0.6341358338018945  0.0592287228545809  0.6346439652363056
  0.4615374319957138  0.1178716530927852  0.7359580140569546
  0.1020614356630655  0.8962428241524271  0.2398231583166818
  0.5900869340503939  0.1277613744488155  0.1383566553422231
  0.7711512808225629  0.1597658192865239  0.6172762632822386
  0.7486252586291042  0.3337800499363129  0.0609031576226011
  0.1752145257944407  0.8577850006606098  0.3218061466968803
  0.4825764839292392  0.1812530522881937  0.3391070672911632
  0.1409196529232654  0.6469540053687968  0.8702026893773096
  0.6182577559465774  0.2393827015635938  0.8074438152121014
  0.2218146492580235  0.8256357188471770  0.0226802950594542
  0.6971703680230046  0.2250576126610459  0.7228215378582722
  0.0008434434336668  0.7629565508313322  0.7834341690840900
  0.6202778018645146  0.2359248649809653  0.1734932566648970
  0.5159040157630048  0.1208520162786682  0.4320456576729014
  0.5709981761059530  0.1373660290024950  0.8319964514952644
  0.6344928912774882  0.1476911206362831  0.2530513385006760
  0.7690623029771065  0.0851384257301065  0.9090502515539000
  0.5343603665284842  0.0217518097105970  0.6953920950478436
  0.5370668637287693  0.3280114176482555  0.7671828137518752
  0.3426462208266908  0.3849564934371464  0.8000353482579345
  0.6778619656723582  0.9777507890914012  0.5654162942081510
  0.0223959916989981  0.7668433996939659  0.4039306464414142
  0.9672668605074738  0.6062204886958786  0.7845847381913060
  0.8848963653510660  0.0989484511640310  0.8089416193159139
  0.7026517515359236  0.3751363870356721  0.9429524343841424
  0.0794893319256828  0.4463488465452132  0.2367935428570019
  0.1057596711348007  0.8151724130584806  0.0197557311775989
  0.1216471587000369  0.5141515011690768  0.1498477417383523
  0.7497698178986300  0.2839464707165206  0.4521506010421257
  0.8018638497469520  0.4410579844822824  0.8682234171232543
  0.6477130312316730  0.9010731999914190  0.8011777403793158
  0.9886176224713795  0.1743692748890453  0.9691101541387407
  0.7730844574174603  0.0525838611874336  0.5572654077006836
  0.7954439498842255  0.9998756387294251  0.0568037673546286
  0.9798440761445353  0.7615396924220085  0.2121098327750676
  0.0791867471307350  0.5351252525962639  0.7953874204694843
  0.6270494151871525  0.9677037025365834  0.2769254971671087
  0.9002123736724150  0.2839227112782198  0.7295697046299362
  0.6221569486048180  0.9483768556493302  0.1434896809382475
  0.6818476448847306  0.1283686915051464  0.5326888552249616
  0.8848450038710659  0.1358982656183752  0.9243148353628681
  0.0085421510177736  0.2039756658642145  0.6133086054650536
  0.9457260643449887  0.0895281313222986  0.0361911665374064
  0.8568078463572630  0.9982206476172160  0.7394334346352163
  0.7288689395262826  0.4472096053822925  0.5434713950316226
  0.9966318163246831  0.7648864138580613  0.9795226621813903
  0.6921854007999005  0.0398003660306900  0.4541823249521338
  0.7959610051919559  0.7854624198116941  0.9339768188060900
  0.8873113381496367  0.2041875025617002  0.6376318060571308
  0.9413077419878013  0.9240870332303180  0.4875761652897007
  0.7075641030644194  0.7359245220266831  0.1441322672402347
  0.7700743666026220  0.4324525918888824  0.7498833755203073
  0.6411680435453435  0.9196157320569622  0.9271337710624520
  0.7082426904654546  0.1134543296069226  0.6996589867254277
  0.1470040424295117  0.7600598473479180  0.4099585622844086
  0.0748740212156691  0.4617231025540234  0.6764835447311884
  0.3255894966522119  0.2865507907026651  0.7425771661634640
  0.9343870573816158  0.9959761881545939  0.8346501753547365
  0.7941420632911601  0.2409309102768840  0.3458473390036682
  0.8285197997026390  0.8672553236375115  0.4825594621381883
  0.9044481967275452  0.7805971795097597  0.8861753922476738
  0.0920153290567586  0.8490458334128920  0.8183387872832093
  0.7950893565844508  0.7732388279217377  0.8196646178895319
  0.8278680457151328  0.8972005756453362  0.6870218564519390
  0.8133199996417791  0.7705674368561408  0.0800002046612990
  0.7200476925224900  0.8513071954574382  0.4344721425883988
  0.1655862572603228  0.2746514429239625  0.4275659907832328
  0.0150857171853189  0.4366493108099574  0.1363525032293187
  0.0537050219827818  0.2196891739528774  0.4813825448890621
  0.0143908532867109  0.1071623211476755  0.4141226650712250
  0.9853486790725959  0.1493985405392627  0.3045263908016029
  0.9422526557245996  0.0520399391126573  0.2397693293861508
  0.0657544108690129  0.0919004494410932  0.0932386535549596
  0.0754423852968565  0.1234978198430407  0.9003114452017494
  0.9797715255903863  0.0593645126541424  0.9202462801394024
  0.6894010144593712  0.0587769929069357  0.9914633431294898
  0.8948481853722210  0.3514386305627350  0.5331126367946017
  0.9080091998193729  0.3939394387817285  0.8908080720758622
  0.8974241245164752  0.5834195987755368  0.1025669534728923
  0.5570135586824321  0.9783514223768058  0.5898883842364244
  0.8679084162777715  0.0004467894964821  0.6250670998572563
  0.0070647509875334  0.5488357001632090  0.0991676886433173
  0.9590371980756927  0.4574635862708444  0.5122996363264544
  0.0468349687306322  0.0481567109258799  0.3082224674264287
  0.6548679963903277  0.1771475985223726  0.0571187965439272
  0.0863729474317233  0.6931588326756025  0.2182924879485789
  0.0208915945979194  0.6914040565441362  0.1225997822992151
  0.2150710201192445  0.2148812114291336  0.0536951478548970
  0.0821516935965615  0.6595012020592377  0.7657853241642324
  0.0428372284904434  0.5780445496210090  0.6843706244633586
  0.3211805434266322  0.6217131563851660  0.5262568374743297
  0.9560091906546386  0.6268978665598496  0.5992687758041273
  0.0696910686271713  0.6775164984739663  0.4675408056730442
  0.1640721061913513  0.7760098420181590  0.6086133714211714
  0.0332448900724597  0.8795670386832136  0.4416084258584217
  0.1731459508722319  0.9912422273317880  0.4746456364539811
  0.9928666548809925  0.8148467375480348  0.6586315411682947
  0.9493988175180583  0.9219918363973599  0.6862917699179631
  0.4346122554781915  0.1570664730975926  0.5473532894419947
  0.2524260471823108  0.2549660157206808  0.3466342507346673
  0.1841013680522002  0.1101977986082366  0.0935229000080604
  0.0874436366037879  0.9026380856460211  0.6785807388139231
  0.2488483771040971  0.2435675451264693  0.9381396306577520
  0.2618650054567857  0.0269711225416210  0.0455817920561176
  0.4310532637695179  0.0030495499194157  0.7356585810328079
  0.1018139567762173  0.0274291046995769  0.7152961647296532
  0.2222446508774595  0.1848874182946356  0.4994553580145650
  0.1607587563615312  0.1035540041572298  0.2779592356112561
  0.2234419817302706  0.8987523146160639  0.2150712547818662
  0.0855771027455117  0.0235720425852457  0.2013651692001879
  0.3115948760552666  0.8641525053387425  0.8399961022182170
  0.1472546365149986  0.0815592836673764  0.9958361393252388
  0.1868887503408477  0.0881209572692601  0.8854892625963013
  0.8909222731825668  0.8240856021177581  0.7694407325273441
  0.2630062231497523  0.7013975671373472  0.1503713796697250
  0.5821019369949398  0.5685035316088760  0.4140596120905137
  0.5837314330023942  0.5682750137068808  0.2874147866447542
  0.5445931432106703  0.7298955981972848  0.4083827384562018
  0.3985421060812339  0.5293262733924644  0.3573572599327492
  0.4612660374197903  0.1665357384977783  0.8621479134328407
  0.4012779199753537  0.5098590163540929  0.1620838381158524
  0.5058281183919741  0.2170464573713205  0.7649375571549876
  0.3902561129253427  0.5022388463819759  0.8374478503212779
  0.3948656428848895  0.0853779828213166  0.4517403607960216
  0.2614375247366349  0.6337102207798769  0.6711969803318123
  0.5925913688786432  0.3368131821545966  0.4692284830320119
  0.2520344044821780  0.5318814107724221  0.4930581377071988
  0.4446086434074030  0.4162805843608163  0.4925860346250812
  0.4497931845248849  0.4096602849443218  0.7907977850591621
  0.4649393084545719  0.3065243173895403  0.3332924379874390
  0.4309778111789271  0.2942174375264636  0.8158139780288648
  0.4526089841689645  0.6059005512715258  0.8970441516640343
  0.5582816120517651  0.3967575727335949  0.1463975512697528
  0.5681923351168153  0.1085203116679661  0.0180252950779603
  0.5098368251802747  0.3680781395917939  0.8789515609239130
  0.3208251725064797  0.2782045231065801  0.8567868248031255
  0.4352537025957418  0.2852330151484718  0.6952339566034358
  0.3260731289599642  0.0869467207873706  0.1951388295875903
  0.3685770544013096  0.2364768163548173  0.3303041493156506
  0.3398664818973381  0.0863366714873113  0.7560881115304989
  0.4608019607062616  0.9766926775335465  0.0141392804001605
  0.5204155429743195  0.0924153247686037  0.6076257424011423