 C Cr Ni 
 1.0000000000000000
    21.1200000000000010    0.0000000000000000    0.0000000000000000
     0.0000000000000000   21.1200000000000010    0.0000000000000000
     0.0000000000000000    0.0000000000000000   21.1200000000000010
 C   Cr  Ni 
   9 259 605
Direct
  0.4256867396550879  0.1683196985632697  0.6703729155481192
  0.4186342315542649  0.2562129488963331  0.5779027363361839
  0.2426209086557538  0.0836548353592527  0.7583738644454623
  0.2477137926605647  0.9916056923368907  0.8416672523548515
  0.3358635906555590  0.9937462363458880  0.5795802735234835
  0.2418086715692218  0.1763268298495195  0.6683847975923999
  0.2391697867473730  0.0857765631555530  0.5770799567911182
  0.2428289932574027  0.9925342077058141  0.4901027169599709
  0.3351260717790944  0.0810579419674927  0.6695183119322996
  0.1651001889125937  0.4159378373271606  0.9187660139218097
  0.2488159310904504  0.4176626399161413  0.6664388593776481
  0.8327667775295570  0.9994617995726338  0.0011235989372429
  0.6667817260456949  0.9146969952412516  0.2494416643207754
  0.4994755594453280  0.9985744298572446  0.1657816781334669
  0.8337127304588182  0.9989816125268164  0.4985308677345729
  0.4162866146762377  0.8318773050577900  0.2495222112635910
  0.1656761017190627  0.6666609913745831  0.0002123395332712
  0.1655631196105624  0.5829881888270926  0.2474810937402354
  0.1652523125683831  0.4168820935706936  0.2480107942555086
  0.0805119683730570  0.4175398870898618  0.3319185249063381
  0.6650579052817158  0.8320715145198841  0.8339481691889465
  0.4992864553714186  0.9151417403489863  0.0840375922209240
  0.0821681047639346  0.3348352803285724  0.5830701433839504
  0.9168388613347381  0.6626619868027187  0.5844963157359553
  0.9980005701381748  0.7488918660748353  0.7501178050703268
  0.1609506700543141  0.2549390056582311  0.5794434416951948
  0.2483376537508588  0.9167126790458130  0.1644127763963679
  0.9987826583168585  0.5832953225059233  0.4149830909951365
  0.2482923786746282  0.9129157982366211  0.3286382083463076
  0.7478935222106959  0.8330816788775129  0.0841536305768155
  0.1644090578093657  0.7491524968332521  0.4137657615606728
  0.2481979328999096  0.9032149296702842  0.4985852355446677
  0.5831783385136466  0.7476777050953146  0.4995354340029233
  0.7484093445841207  0.0826918398687221  0.3333909310073258
  0.0807114039493756  0.8318431160047840  0.2469953224581265
  0.9143347400578357  0.9985307540807683  0.4151458378122837
  0.4158663656406418  0.7470718713829425  0.6659534057049226
  0.7487914318793946  0.7481930576353062  0.4989300920204301
  0.7495635400610388  0.7486186872847159  0.3325310438736137
  0.2456479633264771  0.9116196533541118  0.6676070822097961
  0.9151877961891290  0.9152947915947158  0.6670046852284883
  0.9129364385380362  0.9997961324872175  0.0835428682378599
  0.7481938667417682  0.1674550584692321  0.2492946268689297
  0.3334339852518064  0.1676927642004299  0.0009383703678192
  0.5012572240932870  0.1674617881704245  0.9998792015697815
  0.1629591834194797  0.2517318329068020  0.4129826499728943
  0.9972415794260715  0.2499093462732546  0.0844689451354551
  0.9147076575982633  0.1676448506002435  0.4161079727675042
  0.8314308536700850  0.8314328751687571  0.4995016379462606
  0.3342036310279476  0.6644464801820441  0.8345016435441653
  0.7507744076450987  0.0835162765186469  0.8337533090896727
  0.9997377133177616  0.0817082445778033  0.5804165171290192
  0.2486372243742034  0.2500650780868163  0.1650150986620147
  0.8300233691437691  0.1680712039944030  0.0024105554142034
  0.7493511889780148  0.4171697894951527  0.1660214917064347
  0.2449312533366253  0.0854007755773474  0.6681157877110862
  0.0806074406800733  0.9953755790771068  0.5837991316596221
  0.1623890320470394  0.8310078268557937  0.4987382015164916
  0.5862430017684844  0.9966666636400880  0.7524203713671467
  0.0775661022417370  0.9976734270849278  0.7518846108453948
  0.2442893675370757  0.9950558300237196  0.5816848925804354
  0.3317543278374019  0.3338818011355330  0.3299847425408641
  0.3296024416875695  0.3383425562630878  0.4953310696828562
  0.0819986468718262  0.2498918767353056  0.1658839658022505
  0.6667231520797354  0.9153054817091615  0.0822871829260415
  0.2480550627202376  0.3330245736590275  0.9178543094730592
  0.4990045692811011  0.9135507081832887  0.4141859582815233
  0.6663608762465468  0.0825279453380856  0.0836521741763983
  0.0773691760269351  0.1686150533967960  0.7543580911552166
  0.2466860109038892  0.9926873428548340  0.7511473302908236
  0.2473170147853092  0.4179927960788395  0.3307513076741534
  0.9960071981465523  0.8309085326024090  0.8349484553155592
  0.6679890108969501  0.2505359803432173  0.4151673850174639
  0.2465483034048426  0.0823270373934856  0.8461674793485000
  0.4244523498443278  0.0786225676405899  0.6680146183358222
  0.3349420635643235  0.7486139956284604  0.0838280518967129
  0.4183608373711020  0.1653791992904699  0.5784109842491668
  0.4161815111351231  0.1679289944304872  0.7611925991392609
  0.9139585268093459  0.1684279624378507  0.2498841164692188
  0.3333727611468245  0.9907190134505359  0.6704114543439443
  0.5139661494950746  0.1674215486969562  0.6665647381706031
  0.0822526634725573  0.5837461804075220  0.8348927467039217
  0.2497134810609243  0.5839058421295190  0.3312196728781116
  0.5839222930590011  0.3337843239239494  0.9175833381516445
  0.7491624517250329  0.2494860775673740  0.0008225895621586
  0.4155523040545447  0.6652707238752240  0.0832674776169066
  0.3332345586389539  0.5826847261745328  0.2496359239834965
  0.2487417412758296  0.7475768126592357  0.3308948481553823
  0.8292166820844473  0.5835723002641929  0.0845244405178869
  0.3329194977500243  0.0850519545033739  0.5786989869099408
  0.4999194901842982  0.2504983471894962  0.4138801124996277
  0.6639546940824987  0.5827729956737105  0.2504803967259170
  0.0816403343844481  0.6650511275766881  0.4138331527874318
  0.3303461098673855  0.5003653264676033  0.4979453891784247
  0.3318318162148089  0.6665278695128017  0.4990363719147641
  0.5822147273111764  0.7483907524882372  0.1658465244568033
  0.9127483428022264  0.4170990066475943  0.1646618349141433
  0.8312350438706356  0.5832966320108228  0.2499418477347547
  0.8307941213606432  0.3357244970235170  0.5011789870949903
  0.3351975508922834  0.5826097107457909  0.0837943137896958
  0.7505538372790320  0.3333994261544198  0.7502544107863518
  0.3360146534771224  0.0834969105154947  0.7596834709757302
  0.3336245519725888  0.4161908852785521  0.9179772791761136
  0.4185574707971031  0.2577622000839881  0.6687343894844303
  0.8312750143886046  0.5821822458049504  0.4162439929849098
  0.7497468604473899  0.1655961996034543  0.5822033065949427
  0.4258344355797057  0.9984036672486234  0.5809378519764180
  0.4157873697478591  0.5000634760288719  0.4152432651772466
  0.3325764808151176  0.4173280971065702  0.7506369973029828
  0.6671853549198499  0.4997337308611950  0.8334891323420244
  0.4202279072330831  0.9127822609749775  0.8366757575039034
  0.8312631107436337  0.2493390559546832  0.0825382644332494
  0.4191347524813515  0.9128223799649309  0.6665559824722238
  0.6670841513144284  0.4996759548440174  0.6663269799626949
  0.9132931077832043  0.9993330373853860  0.9197961741751781
  0.2451735054174492  0.1757975418876297  0.5781605126415517
  0.4988514605592584  0.5825089836010865  0.5832015338924320
  0.9159066651071567  0.8308325011698534  0.4142536550005438
  0.9147081266244746  0.5822774001479912  0.6669432059319651
  0.5021094679158545  0.8306972916616013  0.8339141031869047
  0.5839395485037716  0.9997070570193282  0.9190821634817982
  0.8316730486358817  0.1658507937989221  0.8330965283210620
  0.0810715291708751  0.5003384375343251  0.0826666603850621
  0.9962014639998636  0.1674072429489056  0.3306583670628288
  0.2484527177449921  0.9136642179495904  0.0027821642544227
  0.6688566377009988  0.9154823895461720  0.7508796593882582
  0.4160579018390804  0.5816764320704850  0.8340739900348009
  0.7478384177987399  0.0837682397224699  0.6652106109390464
  0.4996301619126282  0.4989041008142008  0.0015992938061817
  0.8320642169837258  0.4172994731608380  0.9160323675483466
  0.4999696275343731  0.5004273184627313  0.6656255506396790
  0.4165111211091372  0.3329766144737930  0.0846133808644938
  0.5843234991482116  0.3352502705972499  0.7507604844153649
  0.9168226510261424  0.4161025566647351  0.3319872591809349
  0.5819456036386776  0.4162082343315203  0.3322186259083423
  0.6653198335837691  0.2500682575001694  0.0840715200056839
  0.9982148318257402  0.5015473674708651  0.8345998009432234
  0.1648026908790953  0.7478450419799666  0.9183853171538828
  0.6664127755753301  0.1658978357116453  0.6653974439748527
  0.2496309843441492  0.5009994951674930  0.0835789654381134
  0.5007652280071528  0.1671190833016240  0.1672923942196145
  0.4171419968784407  0.9991931351649276  0.2484909460869771
  0.4179186817249659  0.9993900793659887  0.0845070272120016
  0.8320302397632583  0.5838543335775994  0.9169253163268718
  0.7499913962955053  0.6648904438509424  0.9172526310732476
  0.4994955834449608  0.5004721192941542  0.8342069058219737
  0.2476129446953045  0.9024440549656569  0.8355681729107510
  0.6663445581707657  0.6665025985999570  0.4990289771708845
  0.3306203676149557  0.4978601483045654  0.6679177837292672
  0.8332715926700217  0.5004619127235247  0.8340262906115552
  0.3343454893994259  0.9967557653887976  0.4898543192637601
  0.5007713212886006  0.1675423508600278  0.3327143646817821
  0.3309043316772980  0.3379330275984824  0.6693385760177921
  0.1528692055170175  0.9969528879147289  0.4940469657804493
  0.6681675041856618  0.0827196911919608  0.4154031743231709
  0.3349699207211039  0.9117428431621410  0.7525070900817130
  0.5812405607243826  0.6660056739226490  0.7503085389104168
  0.5823305968975659  0.6660815713587993  0.9164276868828496
  0.0002614737240282  0.5830110558975415  0.5833250966600193
  0.5826842381743211  0.4172607163373540  0.4990454430634151
  0.7508283903283662  0.8321939078560783  0.5808132187086632
  0.4984430476299754  0.9162255720407781  0.2481186857555333
  0.9155384628706170  0.2510968087874381  0.6663277296943028
  0.7472823973800546  0.6661231795122442  0.5808110386094751
  0.3345091636749462  0.1717300909146676  0.6697753921270597
  0.1518751826915359  0.0810778079633873  0.7536968438289521
  0.9979283145821187  0.3342532306693292  0.8337156083867145
  0.9139072758480720  0.5001989243738757  0.9179865778100504
  0.2441273319643748  0.0837290210644149  0.4881135369526676
  0.4988183215781134  0.6664260671884947  0.3321514970532353
  0.1639636871311858  0.4182064752659446  0.7516848873603652
  0.8319864150428778  0.9157729961677356  0.2494385819405107
  0.8311011361879718  0.4167342581402358  0.0847037941570806
  0.4187970257168376  0.2526242527416562  0.8358460568691364
  0.6663982003714640  0.9147364615455129  0.5823714095245472
  0.6681559114086043  0.8321059183428332  0.0022708108351262
  0.5094487145108066  0.2513841762739873  0.5815148568368447
  0.9964566495305488  0.5818069016595532  0.9173263355553284
  0.0824469439210422  0.5006306781613796  0.5836166182906515
  0.1637687816829669  0.5843369017019715  0.9174552169145890
  0.9971970117142678  0.6650767047929458  0.1671417822144892
  0.9968345178264217  0.7495163863687223  0.0860931713957165
  0.4185987765425190  0.0829666676518824  0.8368351897478813
  0.5012831095872120  0.6683086721817523  0.8336926813233095
  0.1480020157020267  0.0823454067100027  0.5806098797952745
  0.9969671070804820  0.4993655315444359  0.0004600380963106
  0.5838321483305974  0.3365622376419435  0.5812949406133330
  0.8298516080513688  0.8321933580628463  0.0027390646087235
  0.9154212884610328  0.6660584779599006  0.7494535539288650
  0.5816612597952409  0.5841720064309442  0.4998228303616826
  0.9151483857688522  0.4189655577821081  0.6674894439863822
  0.9970295303375428  0.3358522070305449  0.3312806152507004
  0.9976505643632062  0.3341680553809441  0.0024271421747090
  0.0805001191297811  0.9989609335437392  0.2484910322975313
  0.0799024486559620  0.1669575191762044  0.2485564694592667
  0.1601541589937321  0.0835591316724133  0.4113175915102863
  0.5002146855388774  0.6656162025293927  0.5006604820411340
  0.4989829840490913  0.4988041503141522  0.1666605303474165
  0.0788027844121248  0.0852418838938734  0.4937691945351724
  0.4157805973994953  0.6659706422672835  0.2500537552447901
  0.9983111118054396  0.7473851058844643  0.5841249204982422
  0.1651309353534448  0.5827795813342820  0.5834090193046757
  0.8313827029162806  0.9168476389467733  0.7497518331813978
  0.9969868490134426  0.8309219084175714  0.1665824527275975
  0.1618382303429238  0.8309981685198041  0.8360336286525735
  0.9152130936305305  0.8306198013254601  0.5817721909891044
  0.5827599365431149  0.6654952242194725  0.0840984121671955
  0.6659548865183844  0.4996116153876563  0.0010980850634475
  0.8330742942022948  0.1664491074923246  0.4989111527517172
  0.4152918483608602  0.8317835866814479  0.0827981780401234
  0.1642608207909912  0.2514594365371452  0.9200088035760706
  0.7487118573802511  0.6651699022312465  0.7490715838103587
  0.3331959612069916  0.9047903569286710  0.5817819120979151
  0.1640655487153174  0.8308925059483639  0.6682400597743107
  0.9961073203231250  0.8314949658055735  0.3311612064379558
  0.1665401017364012  0.6655425289689220  0.1650493740904082
  0.5837210832948710  0.8314126396136512  0.7504440279223259
  0.7471043246000111  0.8349046696026400  0.7503896901966907
  0.3347039043595869  0.5833023457156509  0.9163172212934505
  0.8314881429518380  0.0016467138898520  0.8339004090956078
  0.1655380559534421  0.6648818444294525  0.8365705916637258
  0.2487209280923742  0.6658850767875235  0.5831107184248242
  0.3348708559855408  0.7479574118129680  0.9164306440644693
  0.9980089585535002  0.1679554448671010  0.0029590078035981
  0.7492881627406497  0.4170435595599738  0.3329821166681971
  0.6661948726143800  0.9147795794985585  0.4157575263017033
  0.2498806796146986  0.3330908691439233  0.0846751897935275
  0.9975538229791927  0.1674625752396491  0.8336118452908502
  0.4988496392891286  0.4993099754856188  0.3322016097489623
  0.9168500422621364  0.5028965430674026  0.5835136661928507
  0.5844893036263932  0.0826159054228451  0.3324835912541678
  0.1647216352939514  0.1671200827573864  0.0016662964105169
  0.2468075660611803  0.2644122652969171  0.6687180622888294
  0.0783236094074765  0.9974813357214912  0.9213572047936253
  0.2467207448451562  0.2537388736572846  0.8401924956251354
  0.0784485247734476  0.2541736134192270  0.6659012247997671
  0.2475459684929179  0.1739988185828943  0.7585267299776737
  0.8300195365321454  0.7473749305843845  0.9164245324571718
  0.2489712354673234  0.4184826080358588  0.4975533588958324
  0.5839724303048103  0.1659529977738731  0.9193216034889321
  0.1652471044831686  0.9166916650010457  0.0864904914157970
  0.9948812637622608  0.9989333724348545  0.3306387274522198
  0.9948109042998224  0.7494704892236427  0.9173035913314505
  0.7505238558446545  0.3342133897234884  0.5812883972465104
  0.7500809284700707  0.4163378225391784  0.5002240958968248
  0.0792753275516742  0.9148331058794881  0.0027728345373705
  0.6666134009235452  0.2512681191870360  0.2497762255985309
  0.4995181537742387  0.9993096157102804  0.0023455213839802
  0.5832557088030910  0.3333634208284831  0.0847381743782109
  0.4985866277097254  0.9144104039630321  0.5829517838740310
  0.5857635288225816  0.0815672059080717  0.6646834762267182
  0.9977187644282972  0.3365291071209804  0.4994344395736989
  0.6661962178396428  0.6662859606628312  0.3319566809802968
  0.2487067356707344  0.9966244264387079  0.9305259806176072
  0.5841919154824805  0.7488714221846386  0.8342109658692338
  0.3328009002405710  0.0837040961966598  0.2489081903531741
  0.3318490033544956  0.1671174794986875  0.3304624209045083
  0.9985822465258348  0.5838215009603557  0.2471707582303630
  0.9980086945386007  0.7492231830189560  0.4146723901112981
  0.4180832407620338  0.9984691766661216  0.4132554955009917
  0.1638527754029306  0.1685213131283783  0.3309844256865283
  0.1663045371255232  0.9999229206180152  0.1654074675273327
  0.1650065222759079  0.7475349274541209  0.0842679187696090
  0.9139599371466989  0.6662985342014662  0.9173694941450310
  0.7487439119282422  0.6647155003240047  0.0853056988425661
  0.0822220809034041  0.6652244172122073  0.5828347330803397
  0.7511692458921780  0.3348850359553338  0.9165788121219620
  0.5835946347548956  0.3332621102538250  0.2500749301991843
  0.4171607660324292  0.7490057594038617  0.1661899053683525
  0.8332730026551924  0.9156483913594580  0.5823956977513987
  0.6670220447382422  0.2506879651732087  0.9173518077010627
  0.4998389266562607  0.5824470939459045  0.0835619860193586
  0.5007344732869518  0.7493068443660159  0.9182483933799173
  0.6669197566052399  0.0832794010617369  0.9180780261818502
  0.7501164869665710  0.2505245173542341  0.4994140525060732
  0.5836073759462456  0.7482938279610031  0.0013098264518074
  0.7505598121087440  0.0824182306903618  0.4987513312349557
  0.7497915333839941  0.2501547498073599  0.8338858509781597
  0.6667553534534494  0.9986366231599234  0.6657629126168800
  0.4997588584933478  0.7476290845025593  0.4156066234680906
  0.5847433991480518  0.9150749246609721  0.6667248037703096
  0.6672919976969524  0.2517756037003736  0.5820063949823389
  0.6667611109320876  0.8326866098226432  0.6662838460978744
  0.5832401805366917  0.5002175276913320  0.7502573204351277
  0.9152346288149292  0.5831396556973715  0.3320298450944180
  0.4183553980595833  0.9983805220270859  0.9193209445935338
  0.5005357740974643  0.5821000442764622  0.9167386467125955
  0.9145922460154757  0.2517968999672213  0.4993704665546899
  0.7492797166692480  0.2496597019829332  0.6656468586565294
  0.5830797397130343  0.4997163955388470  0.9170503482020181
  0.7496561149992769  0.9991878901894360  0.5818673750471176
  0.6661927304708071  0.1669602409292287  0.0009477671032864
  0.5826034993678606  0.6659860281110681  0.4159866017909185
  0.4149556678724979  0.6653773150526178  0.5827815471225165
  0.5833488370573323  0.8316726303621116  0.4151278810588366
  0.5837143546599162  0.6654598605034642  0.5834451754425081
  0.6679322137308008  0.1669836540949398  0.4978762323128254
  0.7478072722653653  0.1660434346026305  0.0849472358643608
  0.4992185048782291  0.7485417216592941  0.7492103181544012
  0.4165555363797803  0.5824906695904711  0.1667044792490530
  0.4172549402619303  0.2507849012679277  0.0011923555443796
  0.7496747737752477  0.3348601175255985  0.4162517344224536
  0.6667919949751586  0.3338072166702515  0.3332134775741395
  0.4169606971038182  0.9143185410069585  0.0011010837888263
  0.3328286703430988  0.4994824922337023  0.0006118332452258
  0.8318948315052310  0.1670159153825813  0.3327752613690377
  0.8307701996331600  0.6650301532218220  0.1672500257183862
  0.8322251085737211  0.5001564127393591  0.3321811382664704
  0.7482087881921585  0.8329929100763310  0.2497742098029049
  0.9151628552288078  0.5005396295840179  0.4147578715936265
  0.9157708482466534  0.6648855118915624  0.4147088593720679
  0.7485617839029370  0.5834234980375623  0.4994856655445837
  0.9995552239639474  0.5006159587383597  0.6680823385803657
  0.9146365453828279  0.5000833350030651  0.2492155743164256
  0.8321026537387958  0.3336950968589153  0.6661963224299532
  0.4194904816084771  0.9968514374703181  0.7532058800274495
  0.9149494825541311  0.3356050384692472  0.5831961294234128
  0.6670242260373240  0.0813602972412940  0.5812443258856959
  0.9155553376841903  0.1668492607461678  0.5823448218999445
  0.5830571810161037  0.0832254524970669  0.1665840270853809
  0.7493074023969383  0.9983602463965483  0.4158933543257073
  0.5852425392876994  0.0818562791723908  0.8360022863151635
  0.2491969248098858  0.2510448502258191  0.0022119773224270
  0.4164148077769675  0.7485335508994715  0.3322330301218946
  0.4173785025702326  0.8306993051752838  0.4149129219342692
  0.2483486658402956  0.1686836807993366  0.9202352279928768
  0.1625337756816846  0.9123150551737729  0.5833038659443047
  0.0791920475283732  0.9130984538296972  0.6681919872926795
  0.2497799185480958  0.8307142007902197  0.7503119100758244
  0.3352703273541227  0.8304031227135507  0.8354369585094752
  0.2487995073426394  0.8296648663419804  0.9201181100099870
  0.0785681943678124  0.9139370731133267  0.8366046879202492
  0.1605133248269368  0.1694010516630473  0.4952015011080879
  0.4994633383200809  0.5003694791788154  0.4991881467415114
  0.4164134012048399  0.1672147476572701  0.4128433502641168
  0.4178129574625333  0.0834141376229909  0.4952141664271737
  0.4162870618561333  0.4183540189627523  0.6674811217817754
  0.4165747518538133  0.3349787549214748  0.9178469037679917
  0.5009803129667529  0.4179344435675177  0.7506600661075274
  0.2481666523838705  0.8302408528398404  0.4124211839326374
  0.7491935683745978  0.2496546655072356  0.3330682983661459
  0.5819056224663262  0.6657372554599763  0.2499244342639922
  0.4994857792611815  0.8324410643082346  0.3314225732431881
  0.9134711164015534  0.5839323824906111  0.0017060536355275
  0.8316762246610455  0.0833136537628082  0.0835005959047907
  0.5830102204887192  0.8329117150984811  0.2493879191962663
  0.5004686449416308  0.7470739981511610  0.5835883359710181
  0.8327338295175403  0.0840337487943579  0.9180149248741244
  0.6653067828110318  0.4164835387125806  0.0838471336714769
  0.4990655871355270  0.5832977394075493  0.4161723374270544
  0.7482968238762310  0.7486681316988952  0.8327950994927884
  0.6668372840503130  0.6659584555752595  0.6665429587081388
  0.9148989230873996  0.3340092860527843  0.7500067275208392
  0.5838166743253330  0.9148412820949806  0.8356436450843353
  0.9971629990280098  0.4174269577906415  0.9177772403956022
  0.6665687587591373  0.3333120000386430  0.1668122697921484
  0.9139913950552320  0.5827150754002831  0.1661599085653754
  0.8319561299367040  0.2501601899329037  0.9169240263123301
  0.9144196102688243  0.2503598531017462  0.0002710341631437
  0.8310008521692015  0.5001268674822679  0.1674387803352076
  0.7497343632933439  0.4998813562611147  0.9169021603070701
  0.9977918380520254  0.3336990998691292  0.1658612645696152
  0.5001362349249956  0.3330419691421086  0.1661969669510540
  0.3340378110449225  0.9987541383280696  0.3308509856773772
  0.4170122260594696  0.6646450991885117  0.7504760517581990
  0.3333896418176390  0.6654210000179183  0.9996624017584476
  0.4181044256321642  0.6655922221239422  0.9175409834851341
  0.3332368174697709  0.8306802397355648  0.0011351300363241
  0.4167697696835161  0.7480008811383305  0.0006112298640211
  0.3331337707390269  0.9153680706780393  0.0834017262084398
  0.3330072901661662  0.8318382393730845  0.1662143359049950
  0.3329403467065292  0.9156342090963591  0.2489270745655921
  0.4144141450236936  0.9146345629893843  0.1661686202517938
  0.4989708810262845  0.7489453537041205  0.2492748807863079
  0.4180970983431382  0.7475523147286246  0.8340825279249124
  0.4994222387713529  0.7487609501139784  0.0833151801654154
  0.5013639346994870  0.0831306603694584  0.9184599733590152
  0.7486851013045646  0.3339984712778362  0.2499913855784478
  0.5823695009700537  0.7485392541555305  0.3318722678043252
  0.9156877397013740  0.1669921662310735  0.7502754526965282
  0.8302304435992285  0.7488214467275256  0.0841869145242908
  0.9134326264837322  0.8320701866644135  0.0846027062974741
  0.9139868038501417  0.5000786343677427  0.0839028524947410
  0.9144120918386031  0.1675678482447034  0.9183144706516446
  0.9138604114531098  0.4165825242488608  0.0012374044599647
  0.8313900937330446  0.3335305076385607  0.0013331446995782
  0.9143426647820099  0.3349261528941577  0.2483402111431213
  0.9138496051212214  0.3329634544537318  0.0836851535109721
  0.8317562645756198  0.3354038551582988  0.3322598280566932
  0.7485126414293526  0.3330988148131629  0.0831668199623267
  0.8314891872404548  0.2500283764240152  0.2502941008032504
  0.0811213339829331  0.3342321892610271  0.2483149197853124
  0.9148723892363350  0.3337911746537340  0.9178139754067893
  0.9161167697792504  0.5834139693821473  0.4991904691040507
  0.7496389455646736  0.9166226470449568  0.9995962843849897
  0.8321028356748009  0.5002519353184840  0.6667000008738375
  0.9152445816124853  0.2504454177723064  0.8343171920478242
  0.7483822424123469  0.9167207627738526  0.1666282429543217
  0.8309422819290300  0.8320401011586935  0.8324450376209547
  0.9153930389676229  0.4165358006616227  0.8334470520987024
  0.8316711843675468  0.5829263980262117  0.5831288915861623
  0.9974876302411999  0.3355162990587486  0.6664261607478936
  0.9160198574816870  0.9145588606118876  0.4989209688003394
  0.8316737042213176  0.8321737779128411  0.3328883465142440
  0.9968556907920358  0.9139829351462130  0.5826693843421564
  0.9144731945061418  0.9152532529807352  0.3318370904112204
  0.8322145052927528  0.9160062262231046  0.9177601777557192
  0.7499948916177407  0.9160078057538817  0.6651179467328071
  0.9140570126892733  0.9150193503687036  0.0016908174475080
  0.8304303998217966  0.7484957441508089  0.7491313804119488
  0.9147297317318741  0.7482778253599902  0.6665784581441735
  0.9129124784225807  0.8311709944691837  0.9177608555074130
  0.5829430969735332  0.8323498966442745  0.5822722436019360
  0.9146357408060584  0.7477666686946458  0.3315661408958978
  0.8302919612127796  0.8328824886254501  0.1671317123674742
  0.9993831317427098  0.6657074387547464  0.6673340596365513
  0.5830778063229037  0.9144386216388350  0.4978735343276017
  0.0824394281387063  0.5834244745042685  0.6674656700940569
  0.5840031008417302  0.8322067019948763  0.9178754832435067
  0.8312530444385036  0.9162582681508822  0.0839736274251324
  0.6659344100577931  0.8324835650578137  0.1663162305381309
  0.7491266738928878  0.9154952820355559  0.3328935693375761
  0.6661241863580658  0.8325186954388559  0.3322726552434783
  0.5830097122571138  0.9973074052404460  0.5814697296812944
  0.7486768288482542  0.8318286185646538  0.4159391228745833
  0.7484686759238703  0.6655322848696565  0.4153225448646214
  0.6660580484012016  0.8318530201644643  0.4992740508425216
  0.7490804767399324  0.7492614681872402  0.6656903536159093
  0.7495880025400562  0.9155924584064302  0.4988771609415339
  0.6659615684906204  0.9974298719066619  0.4982847150406433
  0.7501866724827259  0.9169079305571883  0.8356420934414420
  0.5834652375951886  0.9158786148241851  0.0013186102055375
  0.7494995181679351  0.8322445912651476  0.9179232054127364
  0.9138539305110928  0.0834314282894108  0.1667561993082594
  0.5832590549729774  0.4998800335388516  0.5825451060016988
  0.4995496022649485  0.6653074828036432  0.6661466232992805
  0.4178525254136470  0.9128008159858810  0.4971806541914215
  0.5031577386072827  0.0835202044562006  0.5800424824716830
  0.0815590142132957  0.5000504467132695  0.2480717853866648
  0.4165544602425580  0.9151564795507121  0.3313411679352350
  0.6660446567925435  0.9991451180239180  0.1670470608874556
  0.5832749513433737  0.9151098424576755  0.1663445322284097
  0.5829880173525944  0.9155739922200334  0.3320244912867154
  0.4162645344183731  0.1666512814983805  0.2497753707123982
  0.5839456625068540  0.9978469220778141  0.4146221270855148
  0.6662810966033004  0.1669003303283511  0.3331269775701237
  0.5013182069980096  0.9978157782771740  0.4956085403059552
  0.3331620454545077  0.0843387834090435  0.4120261229089185
  0.4172634473948547  0.1669608899568098  0.0835407272886591
  0.3317015107534270  0.7478029309673150  0.4142280270516134
  0.9166856508418894  0.0830179833460745  0.6657064412068567
  0.0811608610861667  0.5835014261171574  0.0003025702661424
  0.9154925423177990  0.5000719876602534  0.7507590413173575
  0.0801742011488135  0.7485125208718592  0.0015390128249826
  0.0821849844455241  0.6656094479630824  0.2481922391455550
  0.9138109527013984  0.9989101988754588  0.2493055203457169
  0.6650831918015866  0.5829380599166076  0.0840578010262883
  0.7486191781520377  0.7481303167952057  0.0013607561782517
  0.6654835183488187  0.5825276544479788  0.5830283664562363
  0.6654494335144182  0.6657280726029233  0.1672922658578109
  0.7484730909629828  0.6652550642908278  0.2500569733438264
  0.7482591847482305  0.7486711014794546  0.1668618111188352
  0.6649463914846070  0.5832280133608733  0.4154783009335459
  0.6658286281970029  0.7485614789063443  0.4155225901870912
  0.6656567602579775  0.4997559114152071  0.4992098714870942
  0.6661323561333159  0.7497301690060294  0.5837282051299953
  0.7482888985970366  0.4998922783505924  0.7504803428085587
  0.6655310506889353  0.7482916748067484  0.2499775483091076
  0.8320361828650964  0.4171248091676725  0.7500145067030787
  0.8328148444801957  0.4185051496490671  0.5845667388343946
  0.8310477566059087  0.1671424038296648  0.1667825147954039
  0.0808813150423590  0.4996383649812512  0.9187013128648143
  0.8328199955500802  0.7475245236890674  0.5836487865373712
  0.6661574262832327  0.6652199291221763  0.0012007830431812
  0.3338481854823230  0.7477738740932183  0.7510765327137304
  0.0817623716041690  0.7481949095356032  0.6676389700267563
  0.9963276326030662  0.8307834120639739  0.0021203058544662
  0.8311836296240713  0.6658033235628935  0.8326176275920887
  0.9977717031163869  0.5004534772834682  0.1659725459704685
  0.1646785837090491  0.5009497704119140  0.4981643753365037
  0.3320259348059711  0.5000483414149037  0.3316879252492059
  0.2492118157680022  0.4169749979481934  0.1656629338046819
  0.2479456144261339  0.3351210762489361  0.4123284943879014
  0.1650324608837375  0.4178221643846484  0.4135385897507519
  0.0776593410921120  0.0825953521235112  0.8385349175860832
  0.9959969261897194  0.0833170642980953  0.9193938609770365
  0.4153721362529494  0.5829664311728324  0.4996569982255478