 C Cr Ni 
 1.0000000000000000
    21.1200000000000010    0.0000000000000000    0.0000000000000000
     0.0000000000000000   21.1200000000000010    0.0000000000000000
     0.0000000000000000    0.0000000000000000   21.1200000000000010
 C   Cr  Ni 
   9 259 605
Direct
  0.1728560165410288  0.8292176008489074  0.4204328570622082
  0.9913275610058144  0.9221909301657313  0.3267605676152153
  0.3385399547463099  0.0018132824617093  0.4194851164757746
  0.1726602443567255  0.8290777057293249  0.2378955924481888
  0.9885939102167233  0.8286024225505639  0.4213191023996952
  0.0832069343198803  0.9232918406964128  0.4208411231481927
  0.1693922776870254  0.7409082248714385  0.5076586580202812
  0.0806310380415273  0.8262806386233975  0.3268857858377981
  0.2497637160911960  0.0027314779239981  0.3271281226078354
  0.4966294182244643  0.6645225686703831  0.5019625935099257
  0.8307207845529493  0.5003000513913965  0.8337421674007953
  0.8306829858231854  0.3318904489995437  0.8329035897484001
  0.0803549224585799  0.9172382393838078  0.9984626021654091
  0.9137302591780877  0.1668063786441597  0.7512001778873922
  0.8314497342479329  0.0836765734628937  0.7507446631588208
  0.9143659275300975  0.6652470830141273  0.7515370783541584
  0.9137581658149426  0.4973089459776651  0.7514397544818511
  0.0813108021056932  0.7350648905928495  0.3326574730729846
  0.9991709256097453  0.3318627267460076  0.6655878172240155
  0.0806733481003600  0.8309830652009504  0.4181551609051173
  0.8318067733114555  0.6662673786901564  0.1644120161970835
  0.1653009717082004  0.4148478963889241  0.9161713958646089
  0.0806862122429520  0.1684602878046113  0.9180944409119195
  0.9979350805599634  0.7382982659195709  0.4186198228871239
  0.9142641258049977  0.4173975974530159  0.9999751026257703
  0.9138710022627783  0.1669175000202776  0.9166736673153026
  0.1661751465662593  0.4178053498158709  0.5838633397742234
  0.1655668319939168  0.1667507086243259  0.8348936574559063
  0.6660903695440001  0.0010324191816973  0.3319498761290935
  0.0815699644563025  0.0836394440764323  0.6682905871903106
  0.9947036716920681  0.8330466630572252  0.6677311278490456
  0.7451388754766864  0.8316566490418469  0.2482528393148432
  0.9157412199922473  0.3329180693838144  0.4144099974284989
  0.9144458695167553  0.4990890749446498  0.5829917177056761
  0.9098896439816448  0.0010158863030595  0.4174486722819683
  0.0814728133216427  0.9996694638503706  0.7505796496512720
  0.9143538928428216  0.4978925504498016  0.0817196929178583
  0.9908780109507606  0.8309139997925460  0.3299707954653223
  0.1668854031388781  0.9209831828063374  0.2422930280049444
  0.3375335182519402  0.0008115875081594  0.1619744588501692
  0.3360040097340900  0.9119556776972016  0.4177016113626299
  0.5014286304832659  0.4981937863087456  0.1655454165576973
  0.3318779524526937  0.3325714851829491  0.8341449989041317
  0.4997870264849271  0.2516946651276128  0.2481164403567264
  0.2497503623161277  0.2500961849124779  0.8345434827496034
  0.3341531516493645  0.4160256803781343  0.5846348448617663
  0.2515701742069995  0.0924821147973834  0.3309275605749004
  0.4149619550076700  0.3319844388491374  0.5845949643192029
  0.4146335837739816  0.4996862947191295  0.7525221520841714
  0.6633769516832465  0.4976931318155597  0.1668146984418481
  0.5825583173797216  0.1666002818104962  0.4157120839540646
  0.4987838094099231  0.4979192466599614  0.3314779992578798
  0.6667645253089826  0.9168891332833603  0.7496235514792803
  0.9150681247850917  0.1666428386613384  0.5846697426810105
  0.4156378126544703  0.4983799981638374  0.9155080544627228
  0.6664842424809624  0.8324346409087655  0.9979586352684805
  0.4162363973998648  0.9158990045330724  0.6693835447817595
  0.4164177333105252  0.9144289142824216  0.9974954839670749
  0.4168866275367625  0.8328097039302079  0.5858510351018162
  0.7447006713226514  0.1669004145723272  0.4164203827955521
  0.4179337970131750  0.0001768560082849  0.0816317503356368
  0.2509015836970865  0.6641054462298567  0.0804250802969534
  0.3318173004968725  0.7480339583921707  0.7504707517896388
  0.4175657686033569  0.1666825580514273  0.9144403332146650
  0.2507895519034319  0.9159309179204169  0.5040642709292049
  0.6655649772443600  0.2498581770689258  0.9159050172318602
  0.9154918373742937  0.3326870686338327  0.2509941509812985
  0.6654923923764726  0.0836882198553320  0.2463679643707308
  0.5839641874000503  0.9142481154884181  0.9973598409054865
  0.5033871556569195  0.0853271474348705  0.4180678108606011
  0.1686416749357711  0.7401044385321203  0.4152155343838530
  0.9132518104391598  0.2500454592697884  0.5005052152092766
  0.4164426702038854  0.3335925238829950  0.0806175403937047
  0.6653755651390246  0.6669761092798500  0.9987826156872421
  0.8298180076369533  0.3321398573718039  0.6656994745252386
  0.7456299839091245  0.5000326268558496  0.2499740591432442
  0.9111104098606220  0.9152616964932763  0.1626601072727412
  0.1656238205820806  0.0855811974858578  0.2435744896698118
  0.0815383289478255  0.9170562942517649  0.1613340449088039
  0.0794870919414979  0.9982070797971787  0.9171897340321188
  0.9990779651738885  0.9167829449711454  0.9170573645258872
  0.2483226851768825  0.9992468042462614  0.9168409648219568
  0.1649797246878486  0.1684184018233092  0.1641316166743856
  0.9954961560768782  0.0837364380634142  0.4190269681499355
  0.9976247419139266  0.0117618190416800  0.3293412024226414
  0.3317163263264957  0.0002235628024709  0.6670834977123111
  0.0802325581936025  0.8333324404704804  0.0810974364919241
  0.9989945446156874  0.1691514486533268  0.4999318083015843
  0.8299914923132695  0.9182009748313977  0.7486739766043348
  0.9119308021337404  0.0838520231269815  0.3325028688819351
  0.9026214862608966  0.9185144780985144  0.3317611789100091
  0.9973566289936995  0.0867912189951863  0.5838770019295041
  0.8334283941058918  0.7474826608416588  0.9168704640978635
  0.0848444722600490  0.0881021813616123  0.3303155686284491
  0.0843231836414436  0.0126476717366401  0.4175552690969748
  0.8326391802300029  0.0846556658283404  0.9174400990534978
  0.9136234726742481  0.0018060390695881  0.5840215127036599
  0.1601626635664698  0.0046421008698561  0.3267606224819137
  0.3316796860576609  0.0828864519511307  0.7502691980335713
  0.7458143578334150  0.9170704572520635  0.5019935351144539
  0.0813561369600678  0.4965654112813668  0.0828898256312803
  0.9979773589890502  0.2493478143343917  0.5832904184670544
  0.0833645828238517  0.4159275656134062  0.3324950425777445
  0.8298052621300770  0.5795258228230614  0.4174121241584356
  0.8312225202787162  0.4974992404002606  0.4990254359368937
  0.0768008681264604  0.7463176131804107  0.5049237469408038
  0.9980846359984649  0.3334913721986390  0.8336220720981851
  0.8331063506009315  0.4971119345920421  0.0002487836925593
  0.9991676233496675  0.7486674008545173  0.9162036444472528
  0.1647229736448046  0.7493452046884644  0.9161391726310096
  0.5800202073544517  0.3309147353898224  0.2489084042484141
  0.2547659282961284  0.7443630895674921  0.3313529684708751
  0.4186682036562563  0.8320789406895085  0.2492957952363506
  0.4187179388657425  0.5816154564326116  0.3325535273718426
  0.5835795684699233  0.3298698540864723  0.0811168110723031
  0.5836320700569426  0.8320037369095492  0.4167024870651689
  0.4145140246145499  0.5814039275768061  0.8334074438375667
  0.5837708285005556  0.8321311809189714  0.5838386325628415
  0.6659018629604300  0.2496367838976876  0.0818685135097574
  0.7485087568429879  0.5820386226766007  0.6666232038237510
  0.4165655867882451  0.4979214072379113  0.0805055808417249
  0.4179829828390963  0.5814685337537046  0.5012799925988425
  0.8295321885009076  0.5805776498227837  0.2487707458505848
  0.3341891509005600  0.0002501583302740  0.5092940036769912
  0.9132665643782130  0.6648216769565278  0.0821386299339377
  0.4178236767296813  0.0860898510345720  0.5024797995014251
  0.1713038281070768  0.8298299477357640  0.3292739063508133
  0.5019440471924116  0.0830001165957146  0.2472327621086974
  0.6644651177973236  0.4977913634347435  0.3307596989753720
  0.2512607308873381  0.8336083804042919  0.0788549173924649
  0.9979590046505619  0.4146887704844637  0.5833170503662154
  0.2495077820775974  0.9181112830472226  0.9974349262452517
  0.9125136770670561  0.6629891269129868  0.5841483711339103
  0.7500625557458824  0.9164140028459608  0.6687800056338541
  0.1653937416465086  0.3347310370502872  0.6656547571980852
  0.7483105362666280  0.7480332441839600  0.6678317561018203
  0.2493871765758313  0.0838278463153125  0.9977404670825157
  0.8312415594509678  0.5793796317396191  0.5827749691230362
  0.0819105606549617  0.5825699508533825  0.3304119832243044
  0.9135639890618300  0.4142463870997172  0.3326987678246822
  0.5802493245413471  0.3330683242297958  0.5865958932942966
  0.7478394609847836  0.1661920287041312  0.5843738145917279
  0.2488765555269055  0.2513085799583156  0.6677090098711610
  0.1666522877442955  0.8324294051108979  0.5091649889929757
  0.9929550023763877  0.9210805694400507  0.4183843533952737
  0.3320500612147990  0.4991457040157322  0.8331954154538674
  0.1648092598760334  0.5801062429292734  0.9158503319439649
  0.4997727321614573  0.7473774222956611  0.7501767097717553
  0.2483927559557735  0.4977275467684241  0.0828239951020609
  0.0840637251751409  0.3328843376265623  0.4167226189360052
  0.7477693578318617  0.2496182112589841  0.8331346783977694
  0.3345516920292983  0.0913890098985413  0.4176827404497637
  0.1651607621982825  0.8328363016663038  0.6711451988807432
  0.2514716954317487  0.4155499954487256  0.3319698828133764
  0.9126489655710626  0.0852612657787757  0.1635917808975134
  0.1647636602383585  0.2518164487191840  0.4155434326322742
  0.1672025878178445  0.4981600054629898  0.5004435545821859
  0.1651335928817736  0.3334902575631375  0.1652160413079025
  0.2487601926628309  0.2492609608140532  0.9985364702405272
  0.1647453530588955  0.3328335317931854  0.8344474891803899
  0.8331616147701951  0.9164305083114124  0.9180072869382627
  0.0801168198746645  0.2503772040262282  0.9989396354775797
  0.8308264590069481  0.3326902100534433  0.0008236476575528
  0.9139221199781954  0.2510414103992677  0.1664187615996744
  0.7482470731310980  0.9986965456403472  0.7523006423804321
  0.0809950424940339  0.6644826388588635  0.7509504632667607
  0.0824822205593201  0.9173024799070878  0.5111453050034038
  0.8304182678379216  0.0845375895328005  0.2482128079629621
  0.2503023853334552  0.4975751481894071  0.7514779280897641
  0.6651403937261219  0.4168541437912049  0.7493864224777815
  0.1735938364061611  0.9186805260813746  0.4171662928131755
  0.3321173232186106  0.9175701237226811  0.7500562946916306
  0.3315892400505514  0.6660820524086339  0.9988602839554074
  0.5824128074554479  0.5820723158955219  0.8341116716270331
  0.6635142242152609  0.4974328012724421  0.5015020655380353
  0.2471959401704376  0.0028592514648905  0.4191730257622547
  0.3390779226609177  0.0017927814764518  0.3295450205320990
  0.6669315976221920  0.6660671309989318  0.6690964839135652
  0.3347036757977464  0.1681069181453380  0.1635094695699161
  0.0827885642176914  0.9193647237542351  0.3283964403174788
  0.4175721513411148  0.9996475247088361  0.5856575087708196
  0.4981266123486106  0.7479550362904696  0.9157455565429528
  0.4172414872776407  0.9981168319690533  0.9156717603528652
  0.0824772806283365  0.6620065665835313  0.2482266290494659
  0.3340807966389155  0.4166645693829507  0.4156313550725604
  0.9987045577399303  0.5809314519581341  0.4146480576074562
  0.5830258201823785  0.5002788050137437  0.7510067139975976
  0.5822575218527344  0.0835785481119667  0.1651258948392159
  0.2494994510706694  0.0837022789706200  0.6704629352160070
  0.7500864260921466  0.5810456260225619  0.8345800609267142
  0.5834001902264631  0.0841919187227103  0.6692518251794427
  0.6649478017844755  0.4167648600752047  0.9158958955105163
  0.4166722715476719  0.1669897291981494  0.0820762062385720
  0.0840258127533624  0.2509093733002835  0.3336738160212636
  0.5814461903883562  0.3301108125765002  0.4169331442867686
  0.4988095971961942  0.1654109199382927  0.8340649753865184
  0.3335997175810123  0.2513027163571921  0.2454944911046317
  0.2478391347302742  0.1675184909213830  0.9153949664856537
  0.7484953716391188  0.3325949669255737  0.5866248847669121
  0.4153550779786374  0.1663244597790683  0.5857757890138002
  0.7473189357951339  0.3312727428484804  0.0814783798134559
  0.0805610067704211  0.2513881562160338  0.6668958766608725
  0.0819129958721882  0.0041605414601634  0.5883727006295252
  0.6652629409453943  0.8335024727949879  0.5006233303393214
  0.0815450412578797  0.8310218558746080  0.2373776961561603
  0.6650814872264070  0.1655819361216547  0.1665594294656403
  0.5845085741409336  0.9143071883989590  0.4995445796099419
  0.7460943872087479  0.3315701863627351  0.4174377823993851
  0.9141021490975229  0.2519000157090741  0.3340039989740021
  0.4170405805232909  0.4162997580551014  0.9982795956845775
  0.7481331696939854  0.4994249191198937  0.0830867855251521
  0.9128047991693951  0.8318236873619897  0.5856543904842217
  0.9981843237394266  0.5805816847412123  0.9161171126114647
  0.0806163632442281  0.6632720358903382  0.0816818482994370
  0.9001385670443017  0.8326944219793908  0.4163589075393027
  0.0811281088693503  0.5798207345572955  0.6697040921157372
  0.8297451468478879  0.7482008703389788  0.4171484874854540
  0.7484792190120342  0.3317882382912460  0.2488010820023084
  0.9982288661405440  0.6630649347312815  0.5016128340508552
  0.3328019326099279  0.4159360153471909  0.2484941629261188
  0.9960928096334893  0.8322627867110424  0.5109270459428168
  0.6650792548689654  0.2501868915805260  0.4181771003611932
  0.1670932958599575  0.6525789879562748  0.5022960055904478
  0.6637507501904781  0.0829342097946598  0.9178923041508208
  0.1644539637610698  0.8317823420644775  0.8343738409843924
  0.4978061031517474  0.6664163409216168  0.9984132251570375
  0.6656425111326443  0.6664911712330031  0.5008180451519565
  0.4980911768599656  0.4980929054390222  0.0001342840136078
  0.9948949049946755  0.6631719711023961  0.3323186462414138
  0.5826146972365510  0.4998036077443159  0.9150740441914172
  0.8314774123426144  0.7466496108343410  0.0836371210680945
  0.4996905437468669  0.3313271943279886  0.8321298094043149
  0.9966995103458041  0.0853053022724034  0.0831037579419319
  0.4987815122170978  0.8309909659606611  0.8321342627120264
  0.4174423905770836  0.8333225483593710  0.0809165045204278
  0.4992214735737876  0.4983315409725185  0.5007557860752121
  0.2540602766304145  0.9130775468904577  0.3298544274959256
  0.6652580869362025  0.7484162940196031  0.0827454874513657
  0.4997928259964695  0.7485024909691991  0.0818704307614736
  0.5824363336242441  0.4998097204663961  0.2481342992789707
  0.5828132168701881  0.5827244942386750  0.1648658620490314
  0.2482560231088388  0.6653007487288614  0.7509032691299276
  0.5825266498887151  0.5005658281283744  0.5834494012914215
  0.8318761553548780  0.7478359300342091  0.7504875118999474
  0.2528546563427296  0.5801089071260760  0.3307922944357580
  0.6668241625776435  0.8317101447508890  0.8333015286091745
  0.1668385953454723  0.8309800869952938  0.1499348294974928
  0.4979017907189635  0.6653960204197616  0.3319697552576924
  0.2513127908510310  0.6629518817248726  0.5851548880471801
  0.5813612664629444  0.0843240415686439  0.5007749745159044
  0.4179438120942027  0.6662305325535440  0.0812626052158571
  0.7485089607599351  0.9999029566379661  0.0817802550212374
  0.3308909803605489  0.7488229835891648  0.9160813729066141
  0.9096626019998022  0.8316054962104609  0.2478435441771806
  0.5023128439520965  0.2507062975330988  0.4181308790553235
  0.6669127057784806  0.7472593174628875  0.7492082752028553
  0.4987480817280503  0.6664579860685712  0.6692934904617682
  0.6665950397337537  0.8333686029133494  0.3316911339074707
  0.5842228447230190  0.0836270462497090  0.9978229174138050
  0.4989182969471551  0.9992319526275316  0.8337987126295321
  0.6644741333517252  0.9147504159129144  0.9183480337784963
  0.6652258970360768  0.6659542330044393  0.3326981419484300
  0.4170884935660535  0.9146227123769364  0.5032523904504863
  0.5831544233734265  0.9154038079746878  0.1659436190925221
  0.4990224386664619  0.8320012628929012  0.3315893020492152
  0.3326214831149820  0.2503737006920085  0.4173217716322830
  0.5001718438624086  0.3326045287840725  0.6674754664132835
  0.6646822617407045  0.0824116804842726  0.7491977543188896
  0.8279035348128765  0.0028071537487854  0.3319312930275551
  0.8305866728278606  0.7477908502927391  0.5847236809819018
  0.9982518756700363  0.6647605477824636  0.8337636090070971
  0.0813744731906925  0.7476486561406361  0.9991171708048487
  0.0810402787627207  0.7453389010747168  0.1623136935509769
  0.1655565487811174  0.5810995038707742  0.7510936832819411
  0.1642141680721508  0.2513042700417991  0.9172540949259311
  0.0817609087176492  0.4983224319845859  0.9162032514297301
  0.8301260314680758  0.3321303145325198  0.3329605337915073
  0.9987126302407064  0.6644190035910015  0.9989496851102346
  0.9981956738208313  0.4977544666985650  0.1660242213422544
  0.9976195345011374  0.5805150294477525  0.2485214200810565
  0.6659345982972591  0.1658377409287352  0.6673503259757975
  0.0815855295792855  0.5806238742176641  0.1640318758460977
  0.9134407445472883  0.4980291674284830  0.2506497927377231
  0.9958498000732290  0.9159539536591645  0.2394717768840284
  0.7478159106348412  0.6644657936159813  0.2492401296845716
  0.7473248872574516  0.7479006548652313  0.1655018024455069
  0.9136491997350462  0.5810881784767794  0.1654745540901892
  0.9991468601588410  0.2501784906366666  0.4153594071011772
  0.0819273936826998  0.3332843269335493  0.7502215127201435
  0.9140792578584679  0.7479132565491551  0.1657396288832780
  0.0798856682061412  0.7473696773383303  0.6701484501286734
  0.7493262520991104  0.7485288397012679  0.9990954823090988
  0.9965023306700281  0.6630086552976014  0.6686720923328061
  0.9980796001793012  0.2503253921473902  0.7509425465841031
  0.9107034128527539  0.7464356152767795  0.3314940062394360
  0.9145310107838190  0.2501027021114263  0.6669302813105159
  0.9969152979003726  0.8319083374922408  0.9990900226910518
  0.6648873597318398  0.6654388891628245  0.1649043182211730
  0.9975205265076529  0.7466479969406924  0.0826191724522043
  0.5824660530901556  0.7491039307550221  0.3332472234383137
  0.0816348847667025  0.4156852948795207  0.8334159082246378
  0.8293129827836591  0.7477677143072970  0.2479011521072902
  0.6654921935305839  0.3331012485911962  0.8333104343908392
  0.9992915335416631  0.4155778414200225  0.4150209981934078
  0.9125743482184338  0.7460294948923689  0.5026194347476363
  0.9981672676485097  0.5806025698036753  0.0829060365141049
  0.7483466450755221  0.4163515459207109  0.6664413694804349
  0.6643537590411206  0.7486241049159940  0.2497296010377649
  0.8314667727248986  0.1667759218626844  0.9992517400831344
  0.9984270672427844  0.4987876604677441  0.0002941463750872
  0.9130866190112951  0.8316041084541527  0.0816815357605508
  0.6658043557242299  0.2493610728095894  0.7505890008544945
  0.7484886280889759  0.4981917176669734  0.9171353534701655
  0.9151858802800444  0.5812518898959685  0.0001091431463593
  0.7483304980277374  0.6655903261811500  0.0816863265751307
  0.4997899883923239  0.0833430048224188  0.5847663438723680
  0.7490166139548088  0.5819677437209932  0.9997747428894675
  0.5008213524469085  0.9148485266726635  0.4173504125480951
  0.8312893018015189  0.4154135302004384  0.7503553125705863
  0.4168959414251522  0.6654240646680993  0.5851337030517807
  0.3327551943373118  0.6650194735046413  0.6689140282985035
  0.4155841398664956  0.8315218336257960  0.7512731953514108
  0.0825280201285639  0.2512676967861051  0.1648266032299919
  0.3312592497187052  0.5824864969300015  0.7499486525236412
  0.7462332979198727  0.0015372794126440  0.4167457845356550
  0.7463938052910403  0.4149611001919124  0.5005359947514674
  0.8309901333988697  0.1660920632245862  0.6675869303558457
  0.9963287812499941  0.0013710971026286  0.6687526192423530
  0.9142318147190595  0.4155254902621434  0.8333459045948697
  0.5819301910055353  0.6656628512768181  0.4166676140509158
  0.9124687227241089  0.6630787928346887  0.2488092510531104
  0.7469103314131297  0.5812170500769842  0.4997980215109546
  0.8304155237461386  0.1681166019442409  0.3330942593180838
  0.6644852592630183  0.3320098323353778  0.3327064956074310
  0.9145350218508841  0.3328564522130646  0.5831588103402594
  0.7459660014891846  0.4987513254365856  0.4165942332188010
  0.4165012891198684  0.4155330521671676  0.6676882766347331
  0.8295257116866540  0.4143710738556036  0.4160185515270955
  0.8319788004828859  0.4983946578388908  0.6670042274259779
  0.9127292338601827  0.5803590517575997  0.3334944782884109
  0.1656726262781580  0.2510563421376954  0.5852900682885124
  0.7487319242539733  0.3331121345389553  0.9160051032148884
  0.9152608422911120  0.7479969841050736  0.9989442749345780
  0.1637752453224142  0.0000017916756840  0.8347221942231359
  0.1656528163444206  0.4146642212379072  0.7507302865622953
  0.1670823165779313  0.3344676201454190  0.5001023985753806
  0.2483204371745449  0.3327851638775922  0.7507354680639402
  0.3325457491932124  0.3327782198691699  0.6670317038267541
  0.2481864103161495  0.5810789280753377  0.9995428722262467
  0.9975492919125835  0.4145264327812608  0.7500061060926190
  0.1661847061263576  0.4983646757521467  0.1649442175835232
  0.2487292323971776  0.3322291198134866  0.9167320609095105
  0.9965507285653250  0.0029058889024598  0.5026333016720579
  0.3338189189558484  0.6644827776372881  0.1630000702408681
  0.9973433651064106  0.7458607101061492  0.5875838630292127
  0.1665240607216477  0.9172327452117948  0.5885173104985242
  0.4174707468462187  0.4988636906778491  0.4160808120734254
  0.3373588657304282  0.8307027197834485  0.3313104574482584
  0.2508276444669634  0.4158645892249547  0.4998126539790289
  0.3329525394062049  0.3330697026538370  0.5000294228694285
  0.0826218517175406  0.1672732351878921  0.4160304296191916
  0.8321183013895257  0.5812413369648461  0.9170298747529200
  0.9977529400320785  0.3328389523150714  0.1668974589023713
  0.0804150042623476  0.5786519669891214  0.5018748844460048
  0.9970632202571243  0.7478408605951685  0.7499381571630418
  0.0814946094433731  0.6648331137905708  0.9158075961685040
  0.1663649754150406  0.9193521294533076  0.0790796738383981
  0.9963160892917431  0.7466744136871813  0.2462567339164168
  0.9970941326621137  0.9169548689183475  0.0816081182854908
  0.0827418791490796  0.4987260197159786  0.2502037549111966
  0.1672849991351298  0.5806845442516427  0.2475995583115633
  0.1650181947191920  0.3333802337931809  0.9993383450413719
  0.1664286374397939  0.4160988453459844  0.2488381185485305
  0.9143945439727146  0.4979077518756140  0.4157835138761509
  0.2500075178715720  0.3325354696657873  0.2488234004901075
  0.6652270926503299  0.4985242939471384  0.9996361017094620
  0.2496814717728223  0.4152612583586884  0.1652716236570049
  0.9146362383292082  0.3328735542082323  0.7501891269190996
  0.9973148284378434  0.6630643303237987  0.1649033344924929
  0.1650509296602696  0.2507161408878910  0.7505937079164955
  0.1656974514115263  0.2505889313575499  0.2474182827399645
  0.0821475033925657  0.1678059458011276  0.7506169597185552
  0.0826314790443083  0.1678388275759615  0.5852206146457579
  0.9962045458141705  0.0868486033528971  0.2460456749596815
  0.1649430097866223  0.0839174923113711  0.7516849501787543
  0.1662274818330370  0.1689342784422137  0.3311518871419530
  0.9979042418530192  0.1670835180013080  0.6675927534813186
  0.9979341091012127  0.9166895140386293  0.7500326160535012
  0.0803263025238781  0.0010908145887135  0.0812331539510405
  0.9143156310610683  0.9156989804701441  0.9987912108521844
  0.0811000294686094  0.0856712211054725  0.1630833744493833
  0.9980055740360937  0.0842151285108304  0.9169578273293524
  0.9968863252520379  0.1689687796992687  0.1650891369871078
  0.9969533691576383  0.1672908371667579  0.9995683237026135
  0.9954718770021957  0.0014050033462797  0.1632892228117235
  0.9975082318209146  0.2512507307257938  0.0826033830298259
  0.1672964448874755  0.0029725119626927  0.5041207060116005
  0.1653651652761903  0.7451072291129531  0.0800046185932254
  0.9980587927058849  0.2508520539268544  0.2503167500105055
  0.0814766876391728  0.1685778390454756  0.2471890598469163
  0.0809070080782501  0.3330806155778490  0.9166221387633328
  0.0812058389601534  0.4161541958526453  0.9994951364270925
  0.9143358593543373  0.3332866488415434  0.0829820598940619
  0.0820221131907371  0.3328282990743814  0.0824385176847312
  0.0827794370786767  0.4157560439922446  0.1657343782426898
  0.8295442687250744  0.0849859343088838  0.4165218670311626
  0.2496267826836464  0.2514373646174002  0.5000755652826254
  0.1672313733664189  0.3338347515727854  0.3316102791676880
  0.9970500055250028  0.4978955538862132  0.6673658310852122
  0.9137721201993922  0.1682607888119910  0.4159602664509919
  0.9985508097616822  0.3321941148020849  0.4994289129106490
  0.9996629202414754  0.3331056114750893  0.3330066877173339
  0.9974372176709284  0.4973482007778892  0.4993088099050213
  0.0827306808418690  0.4165801832486666  0.4998678240978827
  0.9977385768947326  0.4152970539575349  0.0836589942148017
  0.9989796677635204  0.4152590789747502  0.2500324732924507
  0.6656501649338413  0.3323657705779546  0.9986048945471230
  0.4997582137501508  0.1682209330635044  0.5024605459115760
  0.8312921434095651  0.8322685192201177  0.6680887567911366
  0.5834630762306723  0.9990194181095238  0.0813859193756188
  0.8322673401049804  0.8313825385822997  0.9987744389302337
  0.7466350282156932  0.2499503612539636  0.3327771680663533
  0.8310644831853157  0.6640339460074999  0.6676218830347304
  0.6650293844666028  0.0830503271823061  0.0823803343232810
  0.6655617400305286  0.2497310831188340  0.5849120999975846
  0.5831769116563961  0.1666546542458634  0.0818083605481187
  0.5825342976724274  0.5830886180685796  0.6676357463789701
  0.8289812425240835  0.8329296248529052  0.5034274214244334
  0.6658419058770801  0.1653131615863943  0.8340611937255914
  0.5825226607644828  0.6656180677163807  0.5840051413779015
  0.4995509730049223  0.8318210113309259  0.6682145705757454
  0.5828498640938132  0.6653159870977452  0.7512521014672677
  0.8295124443889407  0.8314772781129256  0.1643574585822232
  0.6659107727170509  0.9990637551144920  0.8343309894267978
  0.6650893918592816  0.3325322686509852  0.6669172384864263
  0.8293232276785555  0.0016681502031003  0.5019393864291581
  0.3330309144100850  0.3331053770699132  0.1645279648708845
  0.3334615212732955  0.4980555286682190  0.1645122020973710
  0.4170373511854422  0.4151128564927615  0.1643285279211099
  0.2502989679815165  0.3333764923233142  0.4158404742964498
  0.5820392124685904  0.4148307111275157  0.3325878080779106
  0.3329170526094187  0.4150855210853146  0.7508271117999066
  0.4161654560245066  0.3324497449964658  0.7510476435127857
  0.3354917014277448  0.1704072072540136  0.3314402421608460
  0.4171442219443052  0.4148227892005740  0.5008065767143411
  0.3347695397922767  0.4982318499950870  0.3319071701954045
  0.5009037943017288  0.9996060766595610  0.5026531918457134
  0.4184262201517170  0.9157717271137096  0.3318448351883551
  0.5821632389205924  0.4993874530047588  0.0823482006974808
  0.5826401842266382  0.2496244265797049  0.8333015027443836
  0.4996203669289871  0.3322332766953787  0.1643226159482294
  0.5811191029194308  0.1670585622879864  0.2492314380072903
  0.4999760101413048  0.1681655874519866  0.3324044823855243
  0.4156979385293573  0.3323300017469408  0.4166500742689239
  0.5828366326018783  0.2497646273859665  0.3326625140256182
  0.5000180888884430  0.4157819589310668  0.9149725949185538
  0.3350909716517479  0.8326256261448556  0.1621900773013145
  0.4168957232734706  0.0829076959494152  0.9980731462622237
  0.2503936138946052  0.0015560504998973  0.0807543122195150
  0.4186412664994245  0.0010248685631676  0.2472098352645181
  0.5008097373937774  0.9992394936452210  0.1638952060801241
  0.3330940796464918  0.1691003133860157  0.5018724299844504
  0.2479747712115759  0.8326210915804411  0.9162207342979547
  0.2493780555108836  0.9158009519185251  0.6700627713830254
  0.6650086217507774  0.4147029775491888  0.0821906535828750
  0.6635709597657311  0.4145745038733353  0.4169419054395355
  0.5827609566248423  0.4165129968769115  0.8325179647748377
  0.6640240569502992  0.4154201833023790  0.5847889352361159
  0.4163565271363005  0.2500784389142286  0.5011700396570821
  0.4991408102256747  0.4164467405199891  0.7510882252553157
  0.5824599110146796  0.3326468905945782  0.7508598976770352
  0.5819462630649284  0.4164397248017906  0.6676905294548569
  0.5831463974770323  0.3329679134383455  0.9149680088911110
  0.4992165170915593  0.3320185546382112  0.3329919888322546
  0.9974532435243283  0.5811372641299681  0.7508820449736053
  0.4990871298634448  0.2494726573741944  0.5852487689167866
  0.7472645591659735  0.9995974088791428  0.5847829645722523
  0.5826275418712541  0.2497600122862196  0.5019048555081195
  0.4989276600160270  0.2491524948426380  0.7506795135209886
  0.4992195738564270  0.0828900960820547  0.7504387464837082
  0.5821833024970910  0.2495516106047637  0.6677365557321101
  0.4159474848257812  0.2496166317668604  0.8327830677626930
  0.4162093858679568  0.3328628262867510  0.9150870164781417
  0.4994056135215897  0.1663864291557593  0.9984082472589035
  0.6647782517301146  0.3317532291944596  0.1656887749918695
  0.4999351838479799  0.3329382139462227  0.9987644679240822
  0.6657978020617863  0.1663500603268152  0.9989099287664561