C  Cr Ni
 1.0000000000000000
    21.1200000000000010    0.0000000000000000    0.0000000000000000
     0.0000000000000000   21.1200000000000010    0.0000000000000000
     0.0000000000000000    0.0000000000000000   21.1200000000000010
 C   Cr  Ni 
   9 259 605
Direct
  0.4256202628745880  0.4219238499845310  0.0808531134799371
  0.3339762840674994  0.3313014520660198  0.0770542675039630
  0.2405284122971649  0.3344003242784787  0.1708393715344480
  0.9110391335431142  0.3334441699063132  0.6674420688669137
  1.0045834967260556  0.4222300455410347  0.6671686650161158
  0.2435015245229532  0.4237766689397784  0.0779552586377256
  0.9969073400476152  0.4188719834672755 -0.0009257858566696
  0.3353467723420743  0.2412223272761472  0.1701735946063999
  0.3354703266229894  0.3358212131895295  0.2616460968908144
  0.7484618270974704  0.1661074396068010  0.0830453181285178
  0.4163968163243831  0.4996180877379000  0.7498348387444065
  0.2445269191216079  0.3329994345124006  0.0806247402959688
  0.7493430935845105  0.2491003211105892  0.5002068722501246
  0.5850701328020058  0.5843031904158145  0.3347172571167157
  0.8326307665590540  0.0817397616674152  0.7486427441887221
  0.1655486292490755  0.2497236864466262  0.5823617295023180
  0.7467395681179061  0.6685415906119142  0.5832113366237325
  0.8322362308790772  0.0826678587743146  0.9156457580848631
  0.0785262740293744  0.3308137625516963  0.0811981778481455
  0.2477790615652994  0.5827824131032806  0.1664627796843732
  0.9143625573709239  0.6669725158046790  0.0856673916221166
  0.5012654664388881  0.7506301551036388  0.0819810928467306
  0.9140863089278279  0.6671456830072156  0.4154654824556199
  0.0816342291859450  0.6648447677675390  0.7508272648934718
  0.5860006451643732  0.5849599454227081  0.1666923136811366
  0.1652780774573831  0.5013591695832034  0.5003907945772799
  0.8316619520490343  0.5847053593769349  0.2495088447757658
  0.0824824178434657  0.8334677900393087  0.7504962462210570
  0.0840713862582517  0.6675398826989516  0.5829409418119239
 -0.0010813794387480  0.7516974543567487  0.9163925505625165
  0.0000271395052213  0.5861355096920009  0.7491470014074130
 -0.0008323875134719  0.5846944663138244  0.2514920919967366
 -0.0002814771434715  0.7516780547180377  0.2505697744184480
  0.7503053356216444  0.8328994080558572  0.2512000024830247
 -0.0009182478218244  0.8313849780755026  0.3307916624562237
  0.7464158983895798  0.5012356801461139  0.5810149103476184
  0.1638708705526976 -0.0016116711490718  0.0001509987552751
 -0.0035032716798320  0.6689609141175918 -0.0011044357655338
  0.6653338164065716  0.0819283940406950  0.9154832940227173
  0.7472605151355637  0.4177451752537774  0.1681783542479865
 -0.0008966930774095  0.2502830893399438  0.5816267982873420
  0.3334982241875746  0.5039487356111908  0.3353445284341918
  0.3342862185546346  0.3328365216551571  0.3502685629743959
  0.5019115662038504  0.2482205315914739  0.4199579770973689
  0.3327842276507197  0.6687094530929120 -0.0021824403623406
  0.7483741085242813  0.4164453803786476  0.0007724279626912
  0.6668369590824469  0.2482163308395982  0.0849969159485027
  0.2461383214131692  0.4264976356316513  0.1695696374380564
  0.4158314135045073  0.5844901251683657  0.1670565284334876
  0.2446017924334932  0.3325031109891620  0.2605623671512235
  0.3346200794787036  0.4216384203739512  0.0803471284523460
  0.3334373375156053  0.2461496203647977  0.4151051236210504
  0.5015535119842963  0.3327239570160332  0.8313508709292721
  0.5138333558672366  0.4173818552685759  0.0834989653229054
  0.4177652979658076  0.4174071547954337  0.5003099732557356
  0.1503621366197245  0.3336860383639719  0.1689029375709666
  0.3333147961501972  0.5042308252648120  0.1689484744504497
  0.3323104199962629  0.4997125576637752  0.6684009180061494
  0.3314662281880606  0.0816214828609994  0.9154462730474571
  0.4143001238772643  0.9158091860165324  0.1647901976526043
  0.4143642458167900  0.9163859035933645  0.3337194833152934
  0.3320195935575842  0.8337493307467976  0.1664511017689526
  0.4163523229034407  0.6681221017620318  0.7502371058802271
  0.5842884162675369  0.0810538636861231  0.3351810965060507
  0.9129115317415027  0.3330920294190090  0.5767716871410759
  0.4196593035398896  0.2484143665762353 -0.0061576093285443
  0.8327884682643527 -0.0003016030902409  0.5012797994078815
  0.4179496311280628  0.0824333957499689  0.3351687558023877
  0.2494555439120681  0.1665435325439715  0.5830730498558134
  0.4979299726712746  0.0003115244401638  0.6679829326582676
  0.8334675830439808  0.6666002765392963  0.1665299071747130
  0.8216139055295821  0.3325823450272514  0.6653138011932619
  0.5825165541952391  0.5837821768443869  0.8332997053158862
  0.0816341095005836  0.8331881316703137  0.2506553657827826
  0.1636932478101901  0.9145008551039816  0.9168909231454169
  0.1642095197180734  0.9146591452993814  0.5827622879032244
  0.0002945669696831  0.2503027822348055  0.7497091393452957
  0.0018539709121445  0.3308751127445055  0.6665773968978350
 -0.0005844283280556  0.0827484328644572  0.7487527360541057
 -0.0003330001215324  0.4190413543251459  0.5760155791004309
  0.2475202628090476  0.3343960623783541  0.4168788520109524
  0.9142112905542192  0.9153023814206491  0.0006219005275620
  0.1626195035727090  0.5043767856613284  0.1687863483128103
  0.5844410370315486  0.8336077192468101  0.9159273242725968
  0.9149266396996236  0.3326275344662874  0.7579730840572230
  0.4156403181161785  0.7510152949738219  0.1644198722773371
 -0.0021224230381214 -0.0014990836861835  0.5014361065386906
  0.4158538432292575  0.2485189735120378  0.8311254327606912
  0.8312927600722870  0.4186151386996161  0.4151164773921931
  0.8304275445591791  0.0015664201364754  0.3328739231555311
  0.9143670344996024  0.2501879618287216  0.4992209574376707
  0.8310512958244006  0.2508779382775864  0.9156640461998554
 -0.0030506827728469  0.5059734037519853 -0.0014861605544196
  0.9131263002482400  0.2442068988872306  0.6647576314340687
  0.7483243733769844  0.3341104545325996  0.5811999670593103
  0.4176423212313354  0.3324445094891223  0.9122567808612344
  0.5009028738921828  0.2490768746658452  0.9144094898858698
  0.8333467140415362  0.2491467038271098  0.0847990163570852
  0.2488818969693201  0.1640965252164213  0.4179378135602438
  0.3322557056930455  0.9160457464105795  0.0845651305667995
  0.8315211459992138  0.0822035261368324  0.0839943591024878
  0.9148417834322023  0.1653934800390329  0.4177584655241956
  0.8341596220604878  0.2485992406964109  0.2507372421630498
  0.1629953997376072  0.0813876799113792  0.2510535456031948
  0.2470423541160153  0.9168046654787608  0.3326254279308446
  0.5846408189739473  0.9177912770546718  0.3336782301476412
  0.6665157072214585  0.7479400424799106  0.7487120901277649
  0.7482944678969623  0.7506184597831506  0.5012913039502499
  0.1630534975648824  0.9184453714552785  0.0812859420405014
  0.0822842549433765  0.8338419891829156  0.4152237337569343
  0.6676445260363024  0.6680670073014811 -0.0014873383665166
  0.3326926003597879  0.3332565512843613  0.1702785387514721
  0.5856007082718258  0.5863979965158423 -0.0016872312929002
  0.4179346420680033  0.4179252812880223 -0.0103586549314456
  0.3321400750029903  0.6691910447801994  0.5006019332890703
  0.6645100952956445  0.0815075551722660  0.5827735161075821
  0.5010853709048316  0.5838617223877491  0.9139801828668891
  0.6669052651123478  0.4992107944029471  0.1676384025182628
  0.0826876595833916  0.5865882127439469  0.8313994861703697
  0.4159029891559026  0.6669370730803593  0.2511531253449681
  0.4152094942938071  0.1668761809749094  0.7500941497717428
  0.2476777152152469  0.5038383562534345  0.9128098390059971
  0.5003128576829058  0.2502249221144436  0.5847890917669111
  0.2492090728542363  0.7493197874740319  0.5011243791857822
  0.5813940210908676  0.7521131468856622  0.5010126125216998
  0.6667088216135477  0.6700403074803960  0.5008867176717772
  0.6657862816140734  0.6674119821246242  0.1662288409352596
  0.0811020645543469  0.8330764842344577  0.9161662763327733
  0.5821238661719372  0.8338349042227610  0.2498384921403981
  0.4989164375957506  0.7497868210607543  0.7509114340648817
  0.2436164588359719  0.2432299511483075  0.1690844107069307
  0.4995900784822360  0.8326395773135532  0.6675287393652410
  0.4152181337258627  0.9155952328608723  0.8328082615770646
  0.4234873198281274  0.3305573046414589  0.0819151181575231
  0.7488895785022878  0.0817464925182325  0.3335815012300138
  0.6663720000694021  0.5012156379791185  0.5007431833164860
  0.4994638968468569  0.0821018449055361  0.9158940742849160
  0.8317427596278054  0.5848583755322044  0.0841599727977956
  0.5829138686066719  0.9179024168346859  0.8326758176641241
  0.0805457511112603 -0.0010309522733928  0.0830607651411037
  0.1658578652096597  0.9170221101006720  0.4158888542446316
  0.8321038934652293  0.5857320340048275  0.4167439363982050
  0.3327022392417134  0.1551116381729750  0.1674767191388628
  0.5834351764039803  0.1660479643851004  0.7486975483682256
  0.5836504813814201  0.4153478994483601  0.8309952873442419
  0.7496567019671510  0.7500713257189248  0.8311202360283739
  0.7493195465826922  0.7515671680036563  0.6670985455615418
  0.9114913297720729  0.1653675824135327  0.0838197318115795
  0.6652797436888945  0.2495516370170735  0.2510944451860111
  0.2480055359713800  0.4166425762555092  0.6663476726045151
  0.4149092259007921  0.0000700194285811  0.7492858432642356
  0.4150650168355017  0.0833975815819509  0.6666951954355291
  0.5813307358347762  0.8329695789326934  0.0817462549397044
  0.3321156283239239  0.9153751455291691  0.5840913618734469
  0.3321492967553146  0.2508874803252081  0.5833798956693725
  0.0859487771307239  0.4171030806139138 -0.0036357446997022
  0.1618288453598147  0.2452565593594623  0.2529874373585741
  0.9130880314777829  0.5016636233541235  0.9145662339202293
  0.2479249059893234  0.5123950485033366  0.0808660570310255
  0.4154042940248882  0.7511295535145877  0.8328228583201291
  0.0796290618645856  0.1637832000687368  0.0818482681491519
  0.2480669529766864  0.3312406043719960  0.9132090297469719
  0.9142691280664544  0.9144388073010817  0.6678888824900217
  0.8329806505775385  0.8340699286853123  0.8323783222817180
  0.3329506901192417  0.2422488944013404  0.0796309870644751
  0.9161296016282895  0.0834307069363897  0.6667281083222768
  0.9140632874293042  0.1661904821219297  0.2513556582202310
  0.0818743056325426  0.5860445166297954  0.1671121193159731
  0.3328802216410532  0.2445271634946544  0.2598657685061302
  0.7468356597371885  0.6693568149675423  0.7497483840923401
  0.8325058059816961  0.8345675521058781 -0.0009339527784303
  0.3314254023577346  0.9159845936729227  0.9135104791840145
  0.3324802199423533  0.7497953402971343  0.0837327718287663
  0.5015510238127969  0.7511577115771569  0.9172586148425695
  0.7493118042654735  0.7507305289395731 -0.0003501976907034
  0.1645581501946561  0.6692550316475693 -0.0022332585620100
  0.3332622434928354  0.9161856896927260  0.2492780342598423
  0.2486116220264537  0.7500668339366878  0.6665845605970554
  0.4993238131603347  0.4988444140695482  0.4998686445527834
  0.9140349501281352  0.5022799857666678  0.7525751387742629
  0.9146391902340286  0.9153953002284315  0.8317738289270564
  0.5815156755408014  0.5832441898734779  0.6663101752250650
  0.8302786461358563  0.5838540085154162  0.9165179208241957
  0.3308198824577343  0.8343120626350636  0.8324796336430793
  0.9149845258828125  0.5002493202213214  0.5802339159180789
  0.5003643280392616  0.8346132232638995 -0.0016067543373623
  0.5832746354126427  0.7504125905678881  0.3336643548659251
  0.4156745645115184  0.6679550941449504  0.5839288617610581
  0.6662929015848560 -0.0017448316220314  0.1654713025144263
  0.6642407990114872  0.6681177258195005  0.3343169764614439
  0.4167494174155922  0.9147184065426205  0.5012297843409811
  0.4994969856843210  0.5832839283993470  0.5828981161350556
  0.5004680296430569  0.1639398732027669  0.1668145984366388
  0.6661677789269668  0.5007509039371691  0.3340501199793326
  0.4973743138357836 -0.0012901928270856  0.5010225396516363
  0.3326449632490681  0.2499947244550920  0.7506992425571484
  0.4258950014452970  0.2485601973133256  0.1665761963985084
  0.5857169065955500  0.3310392616186874  0.0822871688441200
  0.7468913334356306  0.4171204650118226  0.8321915180512207
  0.4991757768615186 -0.0003001760931527 -0.0029241555216736
  0.6677456524044409  0.3324698954953864  0.6654053853691130
  0.0820258375865205  0.0828050956525662  0.6673263491188496
  0.8333915288006635  0.9156766108824390  0.7498998220457858
  0.6646298583101349  0.5017631914896309  0.6668681082191740
  0.2478533359289164  0.7496131718656996  0.3342344695654605
  0.4170795378186813  0.4153884104303605  0.8332828095587997
  0.3321470418760227  0.9156629591402841  0.7511138778674487
  0.9157621154051426  0.9152391960839076  0.4990903873969184
 -0.0028810105151140  0.5022897306081602  0.5009966870592544
  0.0800735582618963  0.5031651676562515  0.0832620849258551
  0.0835578370332392  0.8354162988444732  0.5832172035785192
  0.0840480607347083  0.3306498009430844  0.7511390190214741
  0.9124490391995856  0.4184809811323812  0.8319494575746423
 -0.0021945537020518  0.3279957992696754 -0.0005896953332648
 -0.0020835239334328  0.3325273234103195  0.3349193957704571
 -0.0009183520173870 -0.0004379088893746  0.3329926114674407
  0.0820700152948708 -0.0010775576609963  0.5841546601602224
  0.2464971644433134  0.2440817844459874 -0.0008624739165288
  0.1653606513633660  0.1655392816125833  0.8323674666848798
  0.9156413102163595  0.6673033344705843  0.7500252374632767
  0.6652018821392642  0.9165194415033655  0.7504933192671963
  0.1633870048406632  0.1636802367969849 -0.0005541140155674
  0.0811169028028617  0.1641121883679783  0.4186127283820009
  0.9146502735580817  0.2485560044558901  0.1690970347743981
  0.2451835380060004  0.2454591630620211  0.3353412370061283
  0.6646830381946116  0.9166374747385729  0.5828207541233770
  0.9143048740885141  0.4168471608343969  0.1691434431364006
  0.0824774439953470  0.6672499430098582  0.4171365542453550
  0.7479941942834171  0.1638035587836796  0.7497945249928537
  0.0806298487867426  0.3344541770569223  0.2531782789051039
  0.9138374740879013  0.4236190348138917  0.6664622054034107
  0.0807602289317781  0.3345251639773368  0.4164198498080967
  0.1642181925433481  0.6665670998033276  0.1669558878200354
  0.9151215298935393  0.9170101544392172  0.1668556121288566
  0.1640532463062514 -0.0004084302052262  0.8329338536593698
  0.9151678500220048  0.6684532221578920  0.5819562961476731
 -0.0014484059229469  0.0822757920359652  0.9161404994414238
  0.1649058493452268  0.8332102267127972  0.1664602028077589
  0.2493379408350795  0.0826469885993715  0.6652159253198989
  0.3341211017924484  0.5021777134016384  0.5019403085696996
  0.5008729068408330  0.4195278860435571  0.2513514744064795
  0.1663357501864224 -0.0000913515693580  0.3343071252318925
  0.6674239794418295  0.9174662579006627  0.0841182004890176
  0.6656415743962918  0.2497229608987306  0.9153223945326887
  0.9161745675311355  0.7486235914747458  0.0004112380140699
  0.1684855865207474  0.5020144047386232  0.6674248273530597
  0.4254940233460435  0.3337588583221507  0.2526281189075617
  0.1641425166057051  0.5038234321306895  0.3366583145287461
  0.8335262828678254  0.8341296008529056  0.6673893285316566
  0.8317968511728645  0.8331389951815881  0.5005054405345478
  0.6649546696397716  0.9161503173876284  0.4161294176058911
  0.8324214523111300  0.9152985331172079  0.0840003620777139
  0.4187130475666899  0.4195612886234165  0.1724217730351797
  0.8318516200064219  0.8328627650693804  0.3325761533921967
  0.8323733993306780  0.0819028802446810  0.5828101694271911
  0.6639076521137515  0.9153954714577679  0.9147841610606550
  0.5000871831647573  0.4203762432377157  0.4191644571725865
  0.6662096538630993  0.2489390049964552  0.4172223972875337
  0.4180661320028519  0.5114961123172717  0.0829035259771777
  0.8312325551111343  0.0815673283690079  0.2523926293855289
  0.4978244854948192  0.0000067727181123  0.1661449838328146
  0.6653175072606597 -0.0021600642088012  0.3336413516663762
  0.8302859312716572  0.2477791018166871  0.5815855247524055
  0.6662854637991618  0.1668153624682284  0.1667897202536933
  0.4155623042013272  0.7473606771177117  0.3310959762340067
  0.2488608368998423  0.0831360443762062  0.5016021190390372
  0.4995236069148428  0.8328904117331399  0.4999132838365011
  0.7478958777933137  0.0002732885883939  0.0827394301996497
  0.0821496454311958  0.5852048350686296  0.5006371336053880
  0.1657923626066623  0.5851537771500980  0.4190367530542762
  0.0809115885609845  0.6681493013288299  0.0824430006229196
  0.0837554856411447  0.4166460673198408  0.8325812439134929
 -0.0023012321649915  0.5854552891991007  0.0831876190796409
  0.1655533222923990  0.8330132648905018  0.4994407668505442
  0.9154791763309285  0.6667823278464320  0.2501354059649547
 -0.0017176209811403  0.6670522819175415  0.1676378589100199
  0.1666060476459774  0.5849663988905988  0.7493897391857814
 -0.0025780198669858  0.5021678227127253  0.3341986415368787
  0.0820504810430372  0.5021616075910449  0.4179857566338522
 -0.0019082316512680  0.5856033094657929  0.9152452251788548
 -0.0013489586480767  0.5862455706558226  0.5820223012632767
  0.0810624557390688  0.5853395586115069  0.3355628111571588
 -0.0026600259459515  0.5018874343151853  0.1678982557390682
  0.0822290281083647  0.7498052829531702  0.1666011449697455
  0.6657762489156756  0.1651588579706688  0.8333220084666944
  0.8322668912292497  0.6665991116203922  0.3329016820980001
  0.1649358893475443  0.8327029874915779  0.6664928172726780
  0.6670977626133524  0.3321866636345093 -0.0005664346591048
 -0.0011108266337736  0.6681969445863923  0.4998804731853688
  0.8319980601246031  0.7502704293957084  0.2500738955145141
  0.0816549891060812  0.5868050125950245 -0.0020768623490546
  0.7472925375889838  0.2467620045780376  0.6659297331734174
  0.0820991189910307  0.8340092778067514  0.0842873745821088
  0.7489458373792489  0.9169379733127341  0.3332356226446107
 -0.0016188549812149  0.9162287794965490  0.2508846103608109
  0.6659759625408229  0.4183999699480484  0.4176271750292682
 -0.0008200247451798  0.7501822603375190  0.5826989769405448
  0.8316600765613021  0.4169550392023628  0.2505770468339787
  0.0833747248786926  0.5856242175255545  0.6653850709287279
 -0.0016144372113702  0.6681581120384188  0.3336955672063079
 -0.0005344988235311  0.7489940445567055  0.7495680329431804
  0.7488407881991390  0.3327370979937569  0.0840998869164925
  0.6649923167001919  0.8329904000172332  0.5005615718355424
  0.4151846888771731  0.9163407534742009  0.6669731072211629
  0.6658880187156940  0.5006323981406565  0.8324864060184384
  0.8318989961659804  0.6675510630183886  0.6663383000615611
  0.9144672370638334  0.2480791247227486  0.8335365892954716
 -0.0009818387848655  0.5083665572379563  0.6646350229592810
  0.8318426029125959  0.3333351148613691  0.1676683191296074
  0.8291031453851353  0.3333048370175432  0.8330998041762777
  0.6655977719854523  0.8331701704564894  0.3329007239421644
  0.7466921636114497  0.3328132665240601  0.7502327231435949
  0.9141310496852122  0.1653625065654984  0.9158006304118728
  0.5848526801699730  0.2478063197464797 -0.0015929685299664
  0.7478657790796465  0.2480903319758928  0.8332776984749243
  0.5821048983811685 -0.0007278323329235  0.2501493633912164
  0.7493889288314555 -0.0005913390428217  0.7494698012032407
 -0.0012960104458302  0.5024641684662398  0.8326008205294794
  0.7489794822069807  0.1656415035060028  0.9157314504326011
  0.3316485702285351 -0.0008810965515247 -0.0018260792044783
  0.4159101698072980 -0.0004475744005417  0.0813590692201128
  0.2485612962817192  0.6674712253013518  0.2501612955687090
 -0.0023091340435139  0.6681550224837450  0.8337355372332425
  0.9166928109102931  0.8316145308806173  0.7500069475593807
  0.1644498433891796  0.8335742792360579  0.8326002536399669
 -0.0026555873990052  0.9162233111030332  0.0839493833618859
 -0.0009718077288495  0.8335595489702540  0.1675148655535661
 -0.0013585117091774  0.7506884759351033  0.4166822698623495
  0.1640323761865414  0.8347141305833556  0.0002925604389138
  0.7486248960298524  0.5851747194389126  0.5001036973593217
  0.5830213235483074  0.3333260028017952  0.2525678947912111
 -0.0025671741814312  0.0819501303127557  0.2512073899247780
  0.9155646555899211  0.0812972821068399  0.5000157900648076
  0.1667109703843683  0.3316710562081974  0.6658438645266911
  0.4158442803630818  0.5006148249432142  0.5841479004801956
  0.0822755599042665  0.3320378847216481  0.9164158260540836
 -0.0017931283457057  0.4179482756875701  0.9100038499175247
  0.4153108272617533  0.8328933633654997  0.4160494534733620
  0.7482698869190829  0.5006354817587773  0.9166288937345950
  0.6668646496713631  0.5006955379729635 -0.0007420851250410
  0.0817699206426832  0.6674450990406722  0.2511188704051859
  0.0819833370588912  0.7504145584754149  0.8323225200260983
  0.8299494464967432  0.3345660062918623  0.4976368832765647
  0.9154200320090867 -0.0001635940065781  0.7495177071612134
  0.4164379124874340  0.8321149392694805  0.2504687918008074
  0.0808250909643134  0.1643277311206825  0.9149801020789329
  0.0819053455997225  0.0813281582089229  0.5004455957716741
  0.8297887624641052  0.4173409661476452  0.9149916196810993
 -0.0019890588017611  0.2490239401649098  0.9160155420049860
  0.0832736046692553  0.3327008047613011  0.5819449904765897
  0.0823510656108250  0.2480904901326542  0.8333123256208849
  0.0811805167656686  0.4214581931186244  0.1697642839454463
  0.1640001487026557  0.0816012064457029  0.9155256820156992
  0.1662910128719378  0.3320415599333740  0.8330370183607615
  0.1647884400431806  0.2481202120989275  0.9161174638817587
  0.3328604818634397  0.3322465335786908 -0.0100642449777223
  0.3325850372263330  0.3331706137290162  0.8325727865813964
  0.2485661494428885  0.5872172830971881 -0.0037745584228605
  0.0808372903090614  0.2469488222950612 -0.0007092824546094
 -0.0003417886559486  0.8332515860662578  0.4996469964213283
  0.1623080767242753  0.5865032317088688  0.0813718544192743
  0.6661583397988253  0.3325285354757287  0.4995171658204649
  0.0818679876404777  0.7506467902788920  0.4999368132497239
  0.0816463745730120 -0.0009648253360643  0.2505971701281128
  0.6651970668489814 -0.0019199947595792  0.5007651454303033
  0.6653492284695719  0.0816684015711677  0.2505437529540672
  0.5817778856395979 -0.0016145340626694  0.5834865616080871
  0.4984610381394993  0.0818241476027960  0.5845640430713276
  0.5004012785598129  0.0810530618083253  0.2507883248878409
  0.3315970576631986  0.7499999991940967  0.2492472757127333
  0.2481064199252888  0.9162477536094169 -0.0004668671009144
  0.3327588803463893  0.6670336667238740  0.1661716907534273
  0.5001869430213983  0.6674895346505051  0.1666267801537667
  0.7468410929376427  0.5012258049902729  0.7498217625666446
  0.0827710069123011  0.7497487238260708  0.3342823566207589
  0.8316325443310223  0.5019020521979982  0.4993464809515099
  0.7489968736952920  0.5854289269299326  0.8321605511596262
  0.9146374081271555  0.5856591081120639  0.6652992260842874
  0.7480712514510316  0.1649656377966284  0.4174367766975892
  0.1645040833638201  0.5034222616704496 -0.0033780213912858
 -0.0018549050894526  0.4178269026190332  0.2515770429326231
  0.0808652528717009  0.2480676430502067  0.3359034777813494
  0.1651461025269248  0.0825896534601073  0.7491484637270567
  0.9153236850417552  0.2485014635973115  0.3347367839814913
 -0.0034349015493543  0.1644473826827696  0.1666729118886190
  0.0907068197786752  0.4168850773162155  0.6660985282473731
 -0.0007234479981026  0.3331922799826336  0.1680895552542456
  0.0813021851656764 -0.0012406985777604  0.4168297851493494
 -0.0004400595028640  0.3321422557149479  0.8338934463309754
  0.0821202797912520  0.5030822990258538  0.9145400570271376
 -0.0015654718736257  0.2493552952338315  0.2514831122838966
  0.0805151545625452  0.0815685538936224  0.3346684257558907
 -0.0013860749414883  0.0820945011442883  0.5839619473740226
 -0.0020484362548864  0.0816444930235515  0.4172820788383911
 -0.0016013279636250 -0.0009366400864614  0.6666372979065844
  0.1663479956792728  0.1662108642027878  0.6656660070817796
  0.0815611737067928  0.0825817371752634  0.8326728333111548
  0.0801617718563495  0.0817955346808128 -0.0009252728936021
  0.0815248076593128  0.7511610884559230  0.0002758289469673
  0.1653373434609063  0.4191366401476237  0.4171342753485852
  0.0824531348666948  0.1652170367638678  0.5834701369932248
 -0.0013069914482827  0.1651444571493605  0.5003210361027025
  0.0834517701990441  0.2484885078777416  0.6657042436642718
  0.9138322663046801  0.0827850385949641 -0.0012788402111007
  0.9151210037069391  0.1657402795407641  0.5816767396148449
  0.2475852824756919  0.1635472697778785  0.0805926819980737
  0.1653897739830910  0.1660709314809819  0.5007897101377643
 -0.0031050533482491 -0.0000718928277627  0.1662590188791066
  0.1624801717091183  0.0811440096536241  0.0826349542201971
  0.0822167030773389  0.1658271204726742  0.7493537154435667
  0.6656297643350305  0.1657011981799712  0.3342609860845396
  0.0804918528937782  0.1635153333637009  0.2514589544394089
  0.1568036943413889  0.4198319881419564  0.0823445685012333
 -0.0015612600806808  0.4181118267853803  0.4178310144878063
  0.0837896971792529  0.4177819005720990  0.4987867535121106
  0.0819942439605948  0.2497273963503458  0.4992984985242558
  0.9147096681757593  0.5859819265790182  0.4994669742709764
  0.4155489220336688  0.1670643264643903  0.5836215910318494
  0.7488790564754939 -0.0013947114176461  0.4174772198625469
  0.9145596351483065 -0.0004734078358479  0.9154549342157102
  0.5005994697055082  0.6674522637287997 -0.0014869800368095
  0.7484171837150244  0.0812455115992313  0.5006604722167819
  0.9156604702336395 -0.0017786831036475  0.5841277660301113
  0.5848270025934099  0.5013262718082173  0.9149843178274752
 -0.0018543134728100  0.9153343024983117  0.9160151539798542
  0.5030922061670166  0.4181282495601675  0.9142736560090109
  0.7489010091019809  0.2488096884208047 -0.0006157477399774
  0.9151978499939888  0.0822202359417276  0.3345238109965947
  0.7476188950602068  0.4191766501882201  0.6658089480853021
  0.6652488988679034  0.5843124348086731  0.7493763312886356
  0.3329952766234667  0.5844353865551806  0.5839682966948713
  0.4994642280512035  0.5009307985249045  0.6668466926960928
  0.6661429994028846  0.5851813713329398  0.4176678535912299
  0.7479523484377558  0.5848675478315549  0.6652371724017518
  0.5826607714214100  0.5842161443261576  0.5009200052097990
  0.6654748226070535  0.9160712355737990  0.2494562688571824
  0.2484918905856275  0.2482099876466084  0.8326874725113177
  0.4188385095253593  0.1637625217248119  0.0806549659557402
  0.2488413589252566  0.3325037943269196  0.7492970380013141
  0.3323243908148348  0.4164136262691557  0.7503038349544693
  0.4156962220987334 -0.0016389937923029  0.4175698526206923
  0.2495257745446328  0.4183713440957282  0.4996860979158691
  0.3331329745321390  0.4215323574234075  0.4189022613810274
  0.3322618190500515  0.2473679368910494  0.9142285173082980
  0.4175186183323788  0.1647327236709583  0.4191831323050195
  0.1657424759644504  0.0824276491518734  0.5835148195262032
  0.1659218072885882  0.2487369164331834  0.7502830301510450
  0.3317847333513678  0.1669609131344371  0.6655126837103701
  0.4162882220754667  0.3334536611508054  0.7497409445430429
  0.4166854208624019  0.1649644788866353  0.9141428368691288
  0.3318312018746638  0.4182885871885075  0.9131901047468345
  0.5858654550297289  0.4167234270165111 -0.0018880072058511
  0.6675962027759553  0.5848522541567728  0.0833809947622430
  0.2480068913482903  0.4204072706737618  0.3371592344633957
  0.4153479684142422  0.2493699664264295  0.6667985750293717
  0.3341632307766118  0.0805918935792273  0.2523943212164411
  0.4187593636365598  0.4191137552625065  0.3370536801554687
  0.5832929149256116  0.2491934260726225  0.3357559272877938
  0.5015609200977338  0.3335439973294969  0.3368863463499959
  0.4994413416147313  0.1665523452037132  0.5013285073227842
  0.5834252259514502  0.3332578460753628  0.5837473486663760
  0.6655276820402021  0.1648708830082242  0.6653528631697762
  0.4999313308285752  0.9167794042946535  0.9157698316583770
  0.4174195527361360  0.6669671337390363  0.0824324029407674
  0.2482943462004401  0.8330839709161735  0.2497279961796265
  0.4170951346869795  0.5860140276880367 -0.0033658330496512
  0.0813398761855065  0.9163553413073415  0.8330375627194200
  0.2480755463220671  0.9157947618097155  0.6666449949387572
  0.3324569250280582  0.7507076763578703  0.7497651263139683
  0.1647774398606236  0.7496716439405524  0.0834629772887026
  0.2486747875429997  0.7515172726424679  0.8327842333463323
  0.4186364333832063  0.0801225538989289  0.1655015869637373
  0.3327093154962004  0.0819294439306732  0.0807022346309104
  0.1625709099416474  0.1634813526663220  0.1662917844740895
  0.4988976829762443  0.9156931876150206  0.4164191144256881
  0.4198345188136482  0.2475917638544942  0.3372172822841158
  0.5028532806705279  0.5034403267309685  0.1675778688075082
  0.3316494771448881  0.5858893853829457  0.2520276252127160
  0.4167443308562157  0.2500583896834673  0.5009720586519182
  0.3328090276163019  0.9153862577893279  0.4156314807497031
  0.5820216452336384  0.0825673445857463  0.6658127086505181
  0.6656431310899198  0.1658781912098205  0.5001345780351338
  0.5832529081219395 -0.0001894114784490  0.9156108492754798
  0.6651715991130296  0.0836767386786114  0.7487493262560393
  0.5005613247674171  0.1644939823859886 -0.0027497606063364
  0.6662574133319625  0.3322441975225235  0.1678425083574208
  0.5839987013459383  0.1653096816052091  0.0828412923250807