Cr  N Ni 
 1.0000000000000000
    21.1250329189096107    0.0000000000000000    0.0000000000000000
     0.0000000000000000   21.1250329189096107    0.0000000000000000
     0.0000000000000000    0.0000000000000000   21.1250329189096107
 Cr  N   Ni 
 259  69 605
Direct
  0.0886384216608727  0.9149917660774298  0.1699584993427589
  0.6648426041251909  0.9145449702962011  0.0767744221091813
  0.0025952765042682  0.0715912539986259  0.0817911689266805
  0.1666875523980168  0.9978195840884341  0.4894563715325981
  0.5730253222194898  0.9148158245249947  0.1688028320420701
  0.4877556789832137  0.5853100744480730  0.4183305089916224
  0.4182984061296217  0.5849143771999044  0.8322557883100435
  0.6691476814107680  0.4169922473819195  0.4165369970879117
  0.4168292314444729  0.5802465861260256  0.6668477021056128
  0.9870324524603451  0.9964760622444445  0.6661193762529785
  0.5780579015256569  0.5855287368359904  0.3264788718563991
  0.6550805609317526  0.5024362011525579  0.1648695369251392
  0.4161357343580846  0.5028387178672946  0.9163556753982792
  0.0790197819928391  0.9970858937037448  0.9224900921465815
  0.4877552753791505  0.9163859044504880  0.0825711812801417
  0.4991396976042771  0.8326980923568986  0.6682640764413479
  0.9099632503807135  0.4201739284763081  0.8356452124390883
  0.4974835387647804  0.8333390795409537  0.4975151607413190
  0.5805442065181515  0.3319704957206573  0.5850564853052169
  0.4149559025159511  0.9142979956505053  0.8301556237725503
  0.2507819852674174  0.6706200954195719  0.7531799438973787
  0.9131740121840740  0.3308179589253131  0.0874739113641769
  0.4155921518874883  0.6673307786314581  0.4161059432312190
  0.4165664504316416  0.6672207595738943  0.9177833302477609
  0.4992299876591761  0.5832604576294392  0.7510712476997805
  0.6598002415026798  0.0831752290812367  0.2501522965336674
  0.0005342128454326  0.1587886181768017  0.9949441703750780
  0.1675294396089262  0.0005503034827712  0.8314526800271872
  0.4962653755302955  0.7465010247997865  0.0831873855189648
  0.0782272404997438  0.9993104076109602  0.7499917902140854
  0.6624273273539987  0.7523805152806243  0.2509078189070144
  0.6625723509938538  0.7484644409992112  0.0810954608887873
  0.6678994262969848  0.2466454340769317  0.7481605043358635
  0.4216781458021622  0.2511179867085752  0.8315798504057909
  0.0796978817357509  0.0820801300465960  0.6667384310421232
  0.0017015843425008  0.2467329472991104  0.0881804703866283
  0.6568344753174007  0.2463870265579796  0.2511836818717305
  0.9191771711901933  0.4180500151210989  0.5014664717488287
  0.7461828399021749  0.0838294444911970  0.1629753009372564
  0.5650532488590796  0.2492668472107117  0.9991445323012659
  0.9978319148045128  0.1647392617300059  0.8282371235248761
  0.7502666615593946  0.3323758768661261  0.9049459695447668
  0.1714861079195110  0.9114553692493917  0.9234501532595936
  0.9198859986407708  0.4173853076461854  0.6663395019274655
  0.5748400521773288  0.2480823829875859  0.8360632247432824
  0.5074804508013903  0.9989602821674743  0.6678322133352038
  0.0055778397855482  0.3367678029638049  0.0023231707693840
  0.6611686882671517  0.0820838757709497  0.9132784514266670
  0.6612790482018004  0.0802911555818544  0.0734069029097014
  0.4206219269357887  0.1639729243908990  0.5849668376502337
  0.9136547889368893  0.1646602220298082  0.0836538874781981
  0.0881718355134948  0.4216258544910710  0.8295142969764303
  0.6556125700447102  0.2520239353101890  0.0863007725537408
  0.6602386500969746  0.1572332229910112  0.9944301777344506
  0.6630414552988997  0.1663312232046069  0.5033055672975237
  0.7456028917075590  0.9970529741253754  0.0734142356688088
  0.0001279268492001  0.3407160051650832  0.5017402751836905
  0.6581474635683687  0.4275369619765102  0.9143865876510866
  0.1694492736019730  0.4209632397015943  0.9104124945883588
  0.3346362517636161  0.2488304481350812  0.9223751191929153
  0.0008097431676735  0.3371141004845342  0.3229819138903505
  0.5799610539824080  0.4144098474874054  0.5082550407079192
  0.6627695173947857  0.2456468876974021  0.4221485597922701
  0.6605768193499357  0.9958816975466778  0.1694906333366989
  0.4948691823991317  0.4229655469987292  0.2479782205259675
  0.7487144747192972  0.4210283359770720  0.1662538900307516
  0.0812991492128616  0.6649679881904397  0.7569668694016743
  0.9994824486088288  0.4254086407455416  0.9229512501959469
  0.4164819510780078  0.7591158295925413  0.6652152858753314
  0.6610569485141741  0.2488531414753826  0.9046196266883696
  0.5808878975646369  0.2475638015093846  0.6602328407276554
  0.0862490698872491  0.6625826440073549  0.9194616459604746
  0.8329480288424900  0.7521707782603358  0.4179967746834465
  0.3333282393280140  0.8317790203508049  0.6658158246845800
  0.0821491383719231  0.7527261495183536  0.8370932677685247
  0.0817364920287459  0.7509859933284847  0.4946861288620282
  0.5699641009853268  0.0833077793035342  0.3362506563300557
  0.4948809642082941  0.7500633709425648  0.2510939716482973
  0.9990528755660247  0.8370714340807893  0.3347507581085568
  0.4941418342328260  0.1632041338860305  0.9983853400060847
  0.7419084165141356  0.2460018153730397  0.9939443278249082
  0.6637977366518828  0.0795952873684877  0.7480998614253719
  0.4168982538459997  0.9059834796358908  0.6659670704319635
  0.2516405111429168  0.7590312071217051  0.6629722708663243
  0.7466764852289424  0.3402670899547136  0.0833583049532378
  0.4138175963430198  0.9145910513284539  0.0050541536514956
  0.6544732280312696  0.4166141436600541  0.5874964795125102
  0.7455301982338266  0.2458728727226975  0.6682240745631312
  0.3315319287271513  0.8269577762653185  0.1669487390237273
  0.9175874071652453  0.4183124754368912  0.1770773733846564
  0.9979405489912813  0.3349683286866724  0.6672498169388009
  0.1612015213799127  0.6688208465041160  0.6621202785720676
  0.8268416123503451  0.4172510976356433  0.4079654823540071
  0.0820598236599349  0.5789488641235658  0.6671191689389069
  0.0835517476809303  0.4932436944907633  0.5810358121701228
  0.6638530644769186  0.0005443097733027  0.6705848387584313
  0.4188540827954402  0.6672644333348281  0.7552726223155869
  0.0042983430605613  0.4269454387304563  0.4123074048581686
  0.4927156175830240  0.0829164759039693  0.0839106687223154
  0.4960452274405324  0.9995937894110449  0.5005783256248877
  0.7477730156039162  0.0029140186154651  0.9139891007050456
  0.3240069673149012  0.9155897424911608  0.9199010294703125
  0.8301390185528212  0.9151976176534736  0.7498157258532334
  0.6585118088095385  0.9953731905294857  0.3330269038690520
  0.6547244963419803  0.3397610245961485  0.0018102908090936
  0.8290840737864353  0.5873688724545859  0.0756278672813696
  0.0027912684408804  0.7494341192000471  0.2458361162141864
  0.9098066544871785  0.3340138721488049  0.9048795753054333
  0.9920082856242936  0.7524264511794272  0.7523579943352816
  0.9145014053209690  0.9144058057280121  0.9983254145744467
  0.7408176536468876  0.3292067144145925  0.2608087064939971
  0.7517453817842512  0.9063893551846348  0.1663186386940014
  0.2516614573838730  0.9136404537992199  0.0039497515453386
  0.4150014609802446  0.6686438407813103  0.5775928692051550
  0.3323354529623099  0.6669013099511728  0.1679781914030977
  0.4164844399144496  0.0846631594985916  0.6691534085185765
  0.6584608050692398  0.4222293562388408  0.0825536096914510
  0.2494884233323198  0.0012979325297298  0.2524881961898890
  0.9116805196521898  0.8336423134914932  0.5823538061781987
  0.7458137468880294  0.5058608919422375  0.0804212763825245
  0.9997447206660359  0.6678261924644423  0.0058969784497259
  0.0011371826129177  0.6612944895014512  0.3352543917074504
  0.7437186318392963  0.5047248662387523  0.9140753798360287
  0.5679432126690739  0.0832676264751308  0.1678684168445396
  0.2494330723926198  0.6686486942356936  0.5741400639161294
  0.2495990937987107  0.6663572407124048  0.4158349304796017
  0.0000122375194889  0.3309766808840287  0.8258701372341497
  0.3324184635068179  0.5003044982034801  0.5006872596185684
  0.7472191561750727  0.5034850486431526  0.2574949371876486
  0.4909552642091169  0.2518376547475681  0.7477834505697800
  0.9159139402422267  0.5896032134298482  0.3332341742069195
  0.7425168901805659  0.5861859456134995  0.6704766144378524
  0.9969992751801555  0.7500511783470047  0.4227660285682950
  0.9944761194380907  0.8346148459135154  0.6642681792411806
  0.0841121283150516  0.1679482290059737  0.5774979079047430
  0.8309855539390084  0.4171759164075105  0.5834605257859002
  0.1678309969354149  0.3354406255461228  0.5001540812598075
  0.9870745018648339  0.6715029308871255  0.6674421333103103
  0.2525910956740632  0.9950495025516278  0.5763125413669237
  0.9964366223163413  0.6656962939782362  0.8302814853428097
  0.2512684603271302  0.0835444897254831  0.1706111318675193
  0.1719838768039845  0.9979597979838724  0.0096022172279938
  0.0940092320248605  0.3332488670598733  0.0904393952994748
  0.7445209995590227  0.5963167238258951  0.1662971704719867
  0.1701904317876481  0.1637088635594727  0.0026500718863213
  0.3313562048571964  0.2450565357271181  0.2520003999076388
  0.4143822786165770  0.4178605078976045  0.6653529575169318
  0.7492912404711874  0.9062870854688426  0.3346517124656064
  0.9137605098145829  0.6702197449982817  0.5816712151039404
  0.2498522569372919  0.0820927250631979  0.4912049030020049
  0.0860378047510358  0.5866667589327501  0.1675744490155165
  0.3335328156493611  0.6700067626789642  0.6654239549845594
  0.8329653065683243  0.6790697450054545  0.1666520132790542
  0.8322734605874763  0.6693337561536019  0.3326181900762973
  0.2509930758137593  0.5852472023949056  0.1676220850634048
  0.1618885466891280  0.9976137963939882  0.6648784422037053
  0.4926792117670960  0.4158994296574683  0.4226749470615381
  0.5784910915851128  0.5029678519582734  0.9158014122604817
  0.6661334010449640  0.5825253385139226  0.4137969771077946
  0.5764719584363599  0.5844288472159546  0.5039657681787120
  0.6653556567299962  0.6689610478773331  0.5030323764898014
  0.0807598594992225  0.9960347625008699  0.4223622023107274
  0.1697807208124105  0.5087594952543674  0.0022885857609424
  0.9191914065641480  0.5850598982573835  0.6670647037358163
  0.5803441410743377  0.9150311320054294  0.8335539670048571
  0.3331821371776155  0.3346325060096612  0.1654523125239001
  0.5782120959641260  0.9148422199110751  0.9921152413948803
  0.9942142688990058  0.9951047346137702  0.3334631627338801
  0.1692849669242808  0.5033796225225966  0.3328481137241274
  0.3337008010872213  0.3349061999237239  0.9918343255129233
  0.0891472880730633  0.1693674412536417  0.4165470780310817
  0.9995202092028901  0.3384635558096592  0.1807770556172925
  0.0856368020244455  0.6660635275433233  0.0841984617539280
  0.4151882021630762  0.0848891517201261  0.0014193614228754
  0.2466607485131839  0.1732970859905105  0.5829816797648530
  0.6543868281256933  0.3359433749678701  0.1641850101541452
  0.2492271316278078  0.0840190349726666  0.6693298150932558
  0.2566227591825274  0.0025164146887810  0.9180924962315726
  0.3339975501834084  0.2521999128814758  0.7455921260707769
  0.4158769468987213  0.3324941003729882  0.2521127917615791
  0.4948358257872628  0.3346128948956693  0.1619474744107757
  0.5895498569435632  0.3322348213393279  0.2514895773088465
  0.6602711855043714  0.1732927504159425  0.3388421903961261
  0.7507641288414272  0.9956790030191687  0.2500378245695155
  0.6617472234085656  0.8197061544397304  0.1658138233988557
  0.8318532243166853  0.7478281244225141  0.0800925599115562
  0.0931355969316561  0.1644903045180055  0.0881653747607693
  0.8299840157107212  0.6686242716535613  0.0008158317328450
  0.2455532490598779  0.2503321370596502  0.8317749078996314
  0.3308357098011662  0.4233159201556996  0.2495282806862446
  0.7418080171288610  0.4157388718622771  0.4968963735250306
  0.5798563709728456  0.5853944405170555  0.6695331916181708
  0.3309469591317923  0.2601287279380911  0.5834869108777484
  0.6651609885530185  0.8343470105549332  0.6681773251384988
  0.0781648584555709  0.9071925619592771  0.6618361277207612
  0.8271603451762715  0.6696997421811471  0.8346971242069768
  0.7468163280278658  0.2455786471683588  0.3376250494726823
  0.8287248670972895  0.3350854424896565  0.9970552982621631
  0.0831287230257726  0.5012741219227277  0.7481137763179181
  0.9145635796449391  0.9093328154382722  0.1658423283785087
  0.9190497423660086  0.4182802489781108  0.3235854278343319
  0.1680332866175412  0.7489296909341545  0.2505602890641846
  0.4952025675360727  0.2474097635412814  0.4219518312279025
  0.8248243824341831  0.4222614212826158  0.0824866479479921
  0.0790085636817186  0.7568612010374366  0.6616109129180905
  0.1686584803637365  0.3371508146497977  0.6667850497382143
  0.1782444980838007  0.3326814845849099  0.9976509376443337
  0.8398635868765033  0.0811296179377600  0.2520933964397351
  0.9217872732404507  0.5885551968635487  0.1684697009153197
  0.6642858561023718  0.7518941962231519  0.5924527477462854
  0.8308602276946462  0.2489548978810388  0.9049765369443648
  0.9139316609216658  0.4268498618981481  0.9961260843822952
  0.3313748455482428  0.8312424467152636  0.3326137752029879
  0.4166799317100226  0.9963443360898677  0.5738361402952149
  0.0870509537265452  0.9981080571777309  0.2471678883705622
  0.4154714851042749  0.0012053096622479  0.2543727432532628
  0.9129060386867955  0.3335570847576861  0.4135904877184823
  0.6645780685941244  0.7573874118595678  0.4150937976336043
  0.2577389055858313  0.9134298302662875  0.8350847606506075
  0.2494757359423609  0.4186181054196372  0.8350588426180250
  0.9983741956460128  0.1646608421483693  0.5049915860148609
  0.3326683531574042  0.0834641743731838  0.7488759124482568
  0.6651179020123926  0.8426459258414911  0.5033381694629290
  0.7460022077542804  0.8277762269513855  0.9151263129361633
  0.3318447847901446  0.8322300656636277  0.4952082634935090
  0.8371638962570407  0.2487021279873419  0.0858828467391615
  0.0842343836487092  0.7476887970060676  0.0102746746463876
  0.9140273435298972  0.2470956569179772  0.6678945373792067
  0.9172408255702513  0.2456926658096436  0.9985456056988801
  0.6639850742920264  0.9977476911088052  0.5027712102381627
  0.2514137719858530  0.9044596425286039  0.6649652527198485
  0.9995378065310203  0.5075580926446912  0.8317922217992345
  0.2488886414050448  0.5795020992400269  0.6633252708517127
  0.7439940981215120  0.4187770586850137  0.6735347904682765
  0.2521163382187432  0.5843639606469616  0.8391214543953333
  0.3349398743709909  0.9978836120959611  0.6700964046335673
  0.6617971686619795  0.6678896708722363  0.8339401302303756
  0.8308176018842237  0.5019014105690460  0.6681937669770202
  0.0890642967177137  0.2515404317815439  0.5007485084240543
  0.4134836466634837  0.5850971070750568  0.1661550993231380
  0.1697488508744452  0.3359586429671119  0.3338948745559118
  0.7470051350155247  0.9128956074028001  0.0040565706937648
  0.9999712276459726  0.2515849431325379  0.4124091517232312
  0.0026841442196221  0.4261392001060886  0.0891406309421248
  0.8361042253780964  0.0797527578484581  0.0771725007767405
  0.4961208580622510  0.8315409424261498  0.3328456286280272
  0.5016631937960573  0.9145237914509389  0.9149675215666475
  0.7475417316456295  0.0826959962687206  0.3417305811793099
  0.8341254192946027  0.1546935430345523  0.9963601080873543
  0.9104723445230324  0.1601211547364580  0.4189103293242563
  0.4975474780891865  0.7474896716182649  0.9169759663224787
  0.0017198547001743  0.1638665196733308  0.3255172015944016
  0.7447273584137130  0.1766919929862881  0.2540967623530196
  0.3334858656764292  0.7459970706189704  0.9184967368639567
  0.9119463983993400  0.9145946301909894  0.8331181195823553
  0.8313148789990707  0.9980824660913079  0.5025129032773709
  0.0829624072523844  0.1679474182584910  0.7535845635254975
  0.8312313584087898  0.0797951095382346  0.7482303526568864
  0.7462088430095253  0.2469189030528511  0.1717714023170041
  0.8296719602089352  0.2422857975752635  0.9934122317495366
  0.7491678130182939  0.9922459323610217  0.3399812908905004
  0.7508684649313522  0.0885630029811727  0.2532108053748414
  0.9987998609255171  0.4204357841388744  0.8314654161283608
  0.0057272942218347  0.3397790826406916  0.4109375910770132
  0.3349880801856949  0.1732226000870711  0.5808157114210953
  0.8306076743565849  0.5896174021271271  0.6675283790377465
  0.8329806500007200  0.4121575194270525  0.6732720052409679
  0.1701246512538870  0.9112698087582153  0.8334427511578165
  0.4223533904445179  0.9954944861575037  0.6638030537712987
  0.0011123057739753  0.7494974824458823  0.3339726164236851
  0.6622631158703480  0.9061005543503179  0.1678298723606952
  0.5822354007103847  0.4125227019805947  0.4202233315478279
  0.8346008212555680  0.5916792420267970  0.1639589146167517
  0.0051869710431287  0.3361760663728424  0.0946691679060352
  0.6568998994480931  0.0845108672385636  0.3410372349896191
  0.8300840282029589  0.4174872993302688  0.4951500404139991
  0.0013545614938885  0.9130895483295967  0.1647598091115129
  0.9153622301677246  0.4264401067714253  0.4106069488222750
  0.3333357077796161  0.2522197745921072  0.8337166727353066
  0.9076161561569851  0.2467793161528194  0.4143166316136369
  0.5796090010759637  0.2505663025989171  0.7484502570345796
  0.6510391623490061  0.2461536337705397  0.9950338858274455
  0.2502029205512600  0.5807487169013666  0.7524608146612219
  0.4943136802297852  0.4209410819335742  0.3354269000078038
  0.6668018447823792  0.6709211776046469  0.4127829122348883
  0.6643376277813169  0.7576458608055238  0.5046711674162038
  0.0831202298096885  0.9974072141490180  0.3348190039694049
  0.0863905667786175  0.7517611417652853  0.9243969513491345
  0.0723008053879444  0.9951332107593072  0.6608806879859707
  0.0806248762121229  0.5789260486063462  0.5778324200323999
  0.5744860926547636  0.9138842655172909  0.0793270684223579
  0.7452697946846256  0.2463428801536219  0.0843207492413936
  0.5036901284789282  0.3311511994483762  0.2494843584879341
  0.0791287472527653  0.1696409040641267  0.6653065336467449
  0.9966801970194374  0.6651486096657052  0.9182373478648603
  0.2487929546570149  0.9927720948209890  0.6691437872771078
  0.0937676088389096  0.3342101252530920  0.0016809028172595
  0.7464159488709793  0.9154813774685309  0.9154554492352923
  0.4212586120760803  0.6695121531204372  0.6658450233045666
  0.6584207486677944  0.3392411656247156  0.9085399267876521
  0.9997434587578872  0.2528515070622972  0.5040437134596112
  0.0010148645396909  0.3345050548705170  0.9121719248945281
  0.5753727031813626  0.5860222081600746  0.4142896019653329
  0.6660928776506206  0.5811077580528140  0.5043089866538267
  0.0758202167190068  0.0006301964707317  0.8363416678862970
  0.9128150866010214  0.4249511315409170  0.0887256557496206
  0.6542894719418243  0.0850450738395601  0.1600098813058191
  0.3309054787423853  0.9133286530892805  0.1688975170823002
  0.0012452148821458  0.1595765405659991  0.4139645572966384
  0.2491376702616500  0.0851552715619203  0.5791668018374974
  0.2471726230134594  0.6699231369479787  0.6626211431761487
  0.3284503741382088  0.3344837165459054  0.2551048190879187
  0.7408731447025303  0.4152253749679496  0.5855166245732970
  0.1682281518424432  0.0033761603239033  0.9224446433225519
  0.4131091206361003  0.9167079388472200  0.9171436815424793
  0.7418454734797637  0.3401543169368723  0.9934527764353354
  0.7524570805182328  0.9940362381192442  0.1601390087542831
  0.0729697278686405  0.6670570658836901  0.6645000788793523
  0.0038027143583611  0.1574436003228023  0.0882196752814705
  0.0813470080975414  0.7539234271734104  0.7495706585287039
  0.7441303421448454  0.3345137736178386  0.1743650915569421
  0.7437222308403671  0.5089666981220536  0.1695119797939563
  0.3319254844179493  0.3343601356139675  0.0779401890691755
  0.8382672520674475  0.0827836618068480  0.1638788398725035
  0.1734053382734956  0.4222190158773593  0.0004387865643912
  0.0056941443092250  0.2450644295837056  0.9967225616599512
  0.9158444529385179  0.3379871671186255  0.9955024113301435
  0.1617593828491796  0.9935460837870089  0.5751180303528424
  0.9988562710537852  0.5780649492700667  0.9173526989006766
  0.0855285668563191  0.5033318675112802  0.9164774828798163
  0.0838995968077183  0.5832848058383737  0.8332473636648738
  0.0830280919188380  0.4177307074048409  0.6666399103990346
  0.2526358404461991  0.8299694644901500  0.9208714426973875
  0.4993337157157448  0.0808310928731508  0.5829966815069898
  0.9991303614180190  0.5012848606102223  0.4999645461339864
  0.6624038664058346  0.0817730047187570  0.4276875411053797
  0.9990864532857904  0.7500071670020695  0.0839711527188222
  0.9966850306035401  0.5845263170118502  0.7500221635331580
  0.0862933749372622  0.5056022638620833  0.2512262231860493
  0.1679558240501706  0.5031829411682790  0.8327731961424070
  0.1670543454185981  0.6669076623150941  0.8351414681371291
  0.8286060242738764  0.3333407866704073  0.8269722679563807
  0.2516987324798739  0.6653557123567858  0.9182016842652780
  0.0017030819588080  0.5874229302404046  0.2500758212141901
  0.5758565984843198  0.9983730075497632  0.2512512896465282
  0.3327757155703061  0.1661700408565938  0.3356440048459370
  0.1692231716410876  0.5839952740423477  0.4163063486409070
  0.4164094113862055  0.8319020445549175  0.7531388642826287
  0.9960672857985325  0.9148556176857006  0.4177661104604816
  0.4966640201489442  0.0820805607728696  0.4196120861097535
  0.9979959537939509  0.8329344189571474  0.0019700781585820
  0.4978701622613922  0.9985693050168275  0.8332176448944072
  0.0891774673342494  0.7496892225431887  0.3338232528828668
  0.3326266882226584  0.0847694251206913  0.9169255576345912
  0.0817067864683196  0.4261208321471537  0.0029026987269368
  0.5782499946104707  0.0004280196877767  0.9150569598103572
  0.0008912861168612  0.5861342131104129  0.0850732971877849
  0.5796779726133093  0.9977867839427955  0.4192897046445120
  0.0846909232911920  0.5840803580229840  0.0027411123199961
  0.5805449117305975  0.0812135056406869  0.8317623691376808
  0.0015139667287803  0.5073660536525764  0.3319018122381149
  0.4947169872556468  0.2485871876477666  0.0842048835548799
  0.4135356555277067  0.1664318841398955  0.2524681888031613
  0.3331826779389860  0.9157661780047603  0.0818415011952233
  0.4144609344291064  0.8313267827914970  0.2514460367430613
  0.4959687439101590  0.9154783143995413  0.2529522600478399
  0.4145634070983130  0.8330101702443994  0.4150375322504758
  0.3330926642947787  0.9151263990186760  0.4148192975754783
  0.4155307806121882  0.9138024603521229  0.4965991966363799
  0.2499046629914912  0.7484469386344097  0.1688674988287673
  0.2511571242361768  0.9981152898026381  0.7556695520755404
  0.4160720804761552  0.8335519380591132  0.5791616120815797
  0.4159942816047793  0.9986687794476643  0.4170992706479436
  0.3333785070216710  0.9127315291425144  0.7503823502601258
  0.5821118401730876  0.9153791044822678  0.6674738818504969
  0.3336199319236412  0.9130509251851019  0.5790052959762492
  0.3333319224800101  0.8290292190415098  0.8355455072474824
  0.4154398400449449  0.8286229387867423  0.0837258221359380
  0.5808517204864140  0.9979312297730063  0.7515446466248857
  0.5751233068560667  0.0819866275308746  0.9978232613220048
  0.4955101608025603  0.8298472033366181  0.1672824982899118
  0.5815207206579496  0.0815872074723554  0.6661130031193291
  0.0853583227761624  0.6668246959945933  0.2497983993988730
  0.0020405964488954  0.6681442096478284  0.1659618688953697
  0.0849756496240349  0.2496224119262759  0.8303562066505751
  0.0847236217794116  0.5054486732094349  0.0875919147802623
  0.0012517231446404  0.5055400139818442  0.1695782968036654
  0.0058431824487313  0.4253194338487018  0.2512817527076078
  0.0844482624899991  0.6674744114002705  0.4165394253188234
  0.0860036675898302  0.5019833642629983  0.4144336633498803
  0.4984462017144280  0.0816302353457569  0.7498798868428365
  0.9145084869952378  0.6672847792730597  0.4175144152942171
  0.9954300152680948  0.7518296812065334  0.5807561793103042
  0.7476186270321828  0.7517237953155088  0.6683753618039072
  0.1647361294236104  0.8315217786062066  0.6642990405558730
  0.0854619258881446  0.8319545648257090  0.0839234487450281
  0.1734940595775465  0.7472050208868373  0.9204107527223220
  0.1693787999841400  0.8314443789464314  0.0033301349241108
  0.0850918064850778  0.3351535506211094  0.7487277485803742
  0.3345298302867571  0.0015792177014555  0.1697167576242779
  0.0858821711961646  0.8309451150822965  0.2499669555518900
  0.5755558812132080  0.1660841446100038  0.2521936143697450
  0.0840318012635630  0.2577692774634672  0.6655477667487660
  0.0876117971414774  0.4201331352116702  0.3321629560853691
  0.1683631359400008  0.2515066793993070  0.4154577161789061
  0.0846903586485884  0.3379823367162164  0.5831766835657232
  0.0006500553659317  0.5052524193294921  0.0028918721765173
  0.2508797786664799  0.4946777787465451  0.7495012354193902
  0.1688129199381389  0.3347345596190414  0.1695909501651699
  0.0881038024162520  0.2497539081441814  0.1700978938709707
  0.2485726872605968  0.3355990269506270  0.4171341484904468
  0.1681536360224530  0.9152435767439141  0.2515941275119917
  0.9991620289075255  0.4180102803063840  0.5840033676946932
  0.1692977285928974  0.3355597112857244  0.8302887530441353
  0.0852396695581629  0.4182780143717866  0.4977918990724867
  0.0854828208654487  0.0808808930487993  0.1697297961052206
  0.9161910949707353  0.0810369196829092  0.3337906968690716
  0.1684310702809805  0.5050880553112977  0.1684139957642128
  0.0865486579626137  0.1660131543477700  0.2515349429742124
  0.0919029384533798  0.3347716744522701  0.4149994155716822
  0.0871493756482405  0.4208721203233582  0.1694846132620222
  0.9126770319448766  0.0812423984241386  0.6661223505075862
  0.1684491860299746  0.1683954129078781  0.4979429606606566
  0.4078677819580361  0.4190250004603063  0.3352567468807869
  0.3329516001660544  0.6670008521779610  0.4984082977195266
  0.3313082761557196  0.5848062446943704  0.2494522499253454
  0.2505255082994681  0.5010197305567288  0.4166294525130178
  0.1659772463605337  0.8311571371440636  0.4958140930527154
  0.1682237941340989  0.4997287516664184  0.4985302593206335
  0.2498090313414076  0.6670821818500752  0.2510112121652934
  0.0790491709142479  0.8395438073995102  0.7496148937105848
  0.9939173319360974  0.9145869024735375  0.7488980358580164
  0.9961557252504941  0.8326411283657980  0.4990086248418353
  0.0801969576337747  0.9127865084430491  0.4963802593774595
  0.9122892312006968  0.1636220311157336  0.5847921563196290
  0.0858696534852526  0.2510343978343961  0.3316492533710746
  0.9975769965823701  0.2520059193003621  0.5901143192100070
  0.8310057884810573  0.3258777325369375  0.6666618884892710
  0.9980829985011518  0.2436725122570204  0.9069467721865161
  0.0862564463201039  0.0820807432379037  0.0000713008111935
  0.9133368947477862  0.1643534477294726  0.7490592758030113
  0.0814674929930123  0.8379297781775128  0.9220436895822769
  0.2450788861916023  0.9155340429000307  0.1690346788797211
  0.9940554462196539  0.7548904296153147  0.9170164514162489
  0.5751673405794653  0.1647601874659423  0.0818616646878952
  0.0862262399584611  0.7481453291752038  0.1663817040483037
  0.4154292205160932  0.0827833826870700  0.3356656826110956
  0.0001462486562551  0.9155894059801067  0.0780006790861432
  0.4150863461800154  0.1665794954260108  0.4181819768178192
  0.9899502680735203  0.9969767904464732  0.8325104271806327
  0.4951714737879437  0.1671410998598609  0.3366426799610762
  0.1699903689481652  0.7506656822287336  0.7503320658410448
  0.4963715035740918  0.2491940775424873  0.5845630852834279
  0.0002348758087145  0.0788279166232553  0.2518958792229072
  0.9151482434959574  0.9128785076305186  0.3345094225937608
  0.9987448164150702  0.4189142406651932  0.7443650280936285
  0.5796542739797006  0.0807145129108869  0.5024835767488981
  0.0849525685297641  0.5838210766007363  0.4930111791692942
  0.0027959413051382  0.8262826257587451  0.1659105440399058
  0.1707766624241496  0.9992082324738590  0.3352234027966392
  0.0936485851570930  0.2430456293329438  0.0023892549821416
  0.9906915638678910  0.1640831673233285  0.6661338837962403
  0.0025974868698587  0.1647568472083390  0.1752815396095803
  0.9996190161470626  0.0822174029449090  0.9141544426796918
  0.0848220651016698  0.0858923987498081  0.3333164422872811
  0.0863131771832191  0.9979881065300732  0.0848574147942399
  0.7445590851900913  0.5044094810225989  0.7509604932592929
  0.1691263594957766  0.2480649070088685  0.9150203904797706
  0.1686579177895978  0.5856105922428725  0.2509464108384553
  0.9988846458623288  0.2497989732228684  0.7480812925294665
  0.0821980746231942  0.0841438803194400  0.4963801809138795
  0.9123209759520789  0.3321883105426171  0.2514216162619257
  0.9949023286977007  0.0820164635243412  0.7492516551339548
  0.1688507616317158  0.9998106675851947  0.1677512624404303
  0.0817187495751712  0.0884211601901450  0.8317943222325956
  0.9964836492538141  0.0742654954917501  0.4178920197706901
  0.9157299145488664  0.8300681121949169  0.2500889185495854
  0.3338264025293359  0.6658586507981967  0.0007551688398143
  0.5792609352044947  0.5030992283975737  0.2493197022873358
  0.5789763791746847  0.7474446437905921  0.9994673886847874
  0.3324346977406354  0.0010697114393007  0.0030982938229570
  0.5790628405306837  0.6680526583861067  0.0841203322722937
  0.4139075324361803  0.0013619129304220  0.0839576915509598
  0.2504011371773730  0.0828907166842425  0.3345008801014134
  0.2591548331501825  0.4212780627246572  0.9982422960469185
  0.5807367329254834  0.1605812965648568  0.7491473394764885
  0.4192635174894321  0.3347358881088441  0.0819044925108831