B  Cr Ni
 1.0000000000000000
    38.7315947344316172    0.0000000000000000    0.0000000000000000
     0.0000000000000000   38.7315947344316172    0.0000000000000000
     0.0000000000000000    0.0000000000000000   38.7315947344316172
 B   Cr  Ni 
  50 1596 3725
Direct
  0.0837301558585068  0.6540494155040198  0.4922715543704118
  1.0132575002525284  0.0889280546181389  0.9162338831942124
  0.0532920062390287  0.1979306387391827  0.5950858933255003
  0.6723174381970108  0.9541124476697579  0.5511885618401555
  0.8901103630526792  0.8282605331413441  0.9462632019168963
  0.5571046897009237  0.1889728927085310  0.0106690151548035
  0.5086441678483232  0.4227574297350808  0.4862204350303894
  0.1614879077072503  0.9301631001920480  0.5866989078292435
  0.2470469241223784  0.1305126866987622  0.5267440317064096
  0.1104269722815306  0.0698571334291744  0.9570684848793942
  1.0042537156452782  0.7911858602806136  0.6038770060462013
  0.6851148748695065  0.0454984196155165  0.9245042108219029
  0.5876185230553453  0.1982965597380636  0.0416337462102842
  0.6098599221287088  0.4226627903334511  0.5213102524019513
  0.0168164219565129 -0.0201972276091749  0.9018902429156221
  0.0295468300815588  0.8975105266627410  0.5762076560869543
  0.0261608256024403  0.7142574924492916  0.6230933623148075
  0.7117268123408705  0.5250978876640606  0.5861227579251644
  0.6801950755704852  0.1057285479275513 -0.0196556962707359
  0.3618020346389255  0.2456779026839348  0.5201857484117258
  0.5673711274033140  0.2703442284836560  0.9626436885262468
  0.6311717949357502  0.0033340994531591  0.6203293606880240
  0.7273461886903445  0.8345180205613580  0.9410716960364197
  0.8408864390451772  0.8926549851932251  0.5965626434411592
  0.6748083778576512  0.8938130127975331  0.6596048364490139
  0.7378726976157091  0.9013743558411138  0.6121606233782815
  0.2208829814534307  0.1885799147026935  0.5968983645333891
  0.9524834071523938 -0.0037819506681066  0.8169360193030011
  0.0068561147898550  0.5898639698102812  0.5696393805678081
  0.3731078913821148  0.6569106780424580  0.4750552607900285
  0.1756255954221757  0.6514850938881288  0.4779166976006272
  0.5582760635316379  0.9121274067393143  0.9863200399683562
 -0.0358040803587709  0.7061280095923789  0.6752330899544380
  0.4763324560165936  0.6570672811165070  0.5128398286221741
  0.1254101755182545  0.7738397475888947  0.5263080562639283
  0.0168152961141396  0.8696657659468808  0.6547918175377270
  0.4315509896851020  0.8924929229932657  0.3306907410009141
  0.9377014629596071  0.7807885013322692  0.6530786657215290
  0.5642223337205912  0.9706678284295941  0.0424505723013320
  0.3862286031351160  0.3650640818769568  0.4111242483442391
 -0.0988862043828239  0.7737328727786823  0.6262581759754389
 -0.0132172014729809  0.4375432491769504  0.4743695798895066
  0.2496090144796206  0.8272083406782577  0.0686341232152844
  0.5041829773569884  0.9313660957781137  0.3438902543996290
  0.5623526711817644  0.8519687616321970  0.9411941102028965
  0.6892043090760027  0.8312542520019889  0.6056140972065771
  0.4505130684396376  0.9578702910197602  0.2858800424807335
  0.1638287847458930  0.8542222619324775  0.9679725352996950
  1.0627769624518524  0.0516002978007746  0.5913760926891515
  0.6335106955731206  0.7535892115985761  0.5415500746188934
  0.2865333302567737  0.9621424686925427  0.3698252165570061
  0.8903525370267621  0.1014992566514154  0.2757080488654590
  0.4031123104601099  0.0381457153309321  0.7871321308482881
  0.0530635072358604  0.7185633671135360  0.3645510698387276
  0.4803161200419753  0.1371860910642906  0.7922012680753600
  0.5328343444746890  0.1749739512004785  0.8579242837045762
  0.7111692585971219  0.4100675366500408  0.3394901957813103
  0.3294094112489518  0.2908929096095840  0.3701896374406020
  0.3266247960404325  0.3264997961120421  0.4799148530187162
  0.3246228990663755  0.8086127207734298  0.4321659176573052
  0.6049272425362225  0.3959985305205151  0.3645239040100944
  0.9148282692676954 -0.0178320866063093  0.5283656741270355
  0.7158310152204375  0.4422811872576390  0.4422061564445642
  0.5519505577021909  0.3682954542441953  0.6621580652589869
  0.1672756250085448  0.8408874468464762  0.3688568640320956
  0.7402830209867369  0.1948517351713471  0.1953109046001547
  0.3878821211162735  0.1802406871409822  0.5900719432100162
  0.3361875612877017  0.1482070710884961  0.5264087306816938
  0.5922681975908894  0.3192764528681249  0.9130120775012638
  0.2513862518262470  0.5461054034786240  0.4251282215845062
  0.3807748608236645  0.2749862804838395  0.3365157801198275
  0.8317004018644384  0.0410333417170283  0.1585257313824064
  0.5061348747348310  0.1308251829916995  0.5218808960111033
  0.7925547100687742  0.1942737621653597  0.3269898999523732
  0.0384788365067352  0.5328962397017606  0.1849697231607442
  0.5796603338385741  0.1471356597791461  0.4390032884598547
  0.4045931478524953  0.0142282141847783  0.1421584843305362
  0.4672715756057915  0.1820617294070068  0.8389813404789640
  0.4412815685545040  0.0867226537982552  0.7896590077368132
  0.1799128414506071  0.9625535860261574  0.3334609283539729
  0.6411488785924818  0.3572490951965879  0.9804022278454079
  0.8389950113353153  0.1166479960598913  0.3099142485369517
  0.7470266017997670  0.5214198201981467  0.9255244216214069
  0.5119286873761528  0.2103454948118234 -0.0103902614376136
  0.3310111056948903  0.2783966555377620  0.9558142912485970
  0.4524974356237225  0.0269790068362526  0.5360898971008964
  0.9283212878929015  0.9838323885695792  0.6518758425874502
  0.6764361400898175  0.4726322035512049  0.6394995242655217
  0.4831079741163679  0.1738901691294651  0.8966552362645381
  0.4443968978460413  0.1239167358502677  0.8928888554219229
  0.5086050694266959  0.9687828912469323  0.8567029795033648
  0.7572829225168948  0.3484110814676342  0.2631904437321348
  0.1938521561531861  0.0311123910309958  0.8843186498873553
  0.4624985095824807  0.0304993229222952  0.8087787981319885
  0.7941214085854418  0.2095575915066291  0.2674772192410033
  0.4472865543985896  0.2398253414828198  0.8239439448560104
  0.4966957395378547  0.1640475458246774  0.9558605187879382
  0.9333550967638710  0.1314330050030788  0.3660995256874303
  0.3092004406741040  0.5664526626645220  0.0440970318813665
  0.5466768341230079  0.2168277648520274  0.6338691513748789
  0.5346127422968511  0.2616072241164886  0.6787008440291383
  0.1991892834605926  0.5438562895490814  0.0715631636490385
  0.5727783252448398  0.3102468672418079  0.6804321951597606
  0.9874939910068573  0.0072734050135666  0.7772843725996339
  0.8017495285728609  0.3589079097167935  0.9228324633560793
  0.6716108744950169  0.3846734704480923  0.8147987638840396
  0.9893905411553284  0.1450700423822747  0.4347734546279037
  0.6636569754950064  0.5171123672481062  0.6790939422998974
  0.8727044601733617  0.0894070746755233  0.4235277383514559
  0.5923787866561686  0.5704574425777322  0.7017827945750472
  0.6796931096739959  0.6073400862320393  0.7604107618943202
  0.4250498706458542  0.2628267830730805  0.6978640096292994
  0.6180576926802827  0.6153921654487343  0.7379025685691275
  0.7284790227895991  0.6457314229939715  0.8245404363440176
  0.8533135984742872  0.2986553459511747  0.4940598138568352
  0.9045323392858401  0.2839235509108614  0.4604234131813422
  0.8001932071829365  0.3361879300254633  0.4648298424120920
  0.7278755482191434  0.6791453093456653  0.9281592039198708
  0.8145791243688746  0.5314202821913298  0.5603122460861270
  0.5723469406731252  0.6122899090670180  0.5149696375620378
  0.5693638944310004  0.1576709278999950  0.6517269356400101
  0.2728329029265100  0.8694869693422687  0.2833525587614907
  0.2241277483513634  0.8858984900853893  0.3173656281620721
  0.7702716387443822  0.4284279484766175  0.8385268216101861
  0.6005650795031779  0.4051950703618141  0.7325597792649926
  0.8612714543163453  0.9992343196867101  0.5652470762414862
  0.2739116642745383  0.8544640735859943  0.3454774735563829
  0.4528229479308342  0.3248758963550897  0.6387022459942577
  0.5238445473735170  0.2736845810402996  0.6137593891016333
  0.3199679830113685  0.7785287683602737  0.3252129686848617
  0.3698922934052024  0.7646444029603295  0.2895794359675764
  0.5073096164324740  0.1988029949656323  0.7365790920474032
  0.4224927327053306  0.7176024228380956  0.3756167146420943
  0.6209145510095329  0.5654767440860190  0.3717568327027541
  0.3747314387153923  0.7946797928244276  0.3963394075128455
  0.7701485119395934  0.9450418200944571  0.6052362650630817
  0.3242545656094427  0.8251243932365596  0.3712080849870564
  0.5684728337580603  0.2142287766058930  0.9536102488997190
  0.3930442615825841  0.3330339150727643  0.6189978457871715
  0.9446268021826053  0.2230558070586879  0.4459471498224649
  0.5325284164952570  0.7642659351253318  0.4561186330720754
  0.8035025481103832  0.7785374376940822  0.9349880991441968
  0.8883207644781914  0.7165638072477993  0.9709503257924601
  0.4801474712531710  0.7128848060208024  0.5070011151616063
  0.4348018180730512  0.9165138033593382  0.4985088022359743
  0.5188378594987726  0.1216258943861105  0.5844341071154194
  0.8312202764775597  0.8411645769780446  0.8736638340693456
  0.8972208215639462  0.1963047721224300  0.3657690607686504
  0.9030488953125170  0.8979358055590529  0.6056047743606375
  0.3513351168481589  0.4861694042279434  0.0168037752686152
  0.6526017909684179  0.1595915350356761  0.9012769742548568
  0.7261769219648775  0.0578447218141816  0.0592748243171470
  0.4059080089727736  0.5007931815693283  0.0943230286078628
  0.5133915615282316  0.0698144820420608  0.8734604387091846
  0.5834953255070474  0.0164019174955526  0.8534702885569706
  0.5821719738070456  0.0501440135734442  0.9587497334209548
  0.5458803021833371  0.0053925037082576  0.9577052896104128
  0.4763484251950335  0.0570647675519854  0.9794366611238293
  0.7458710148999993  0.3050001722983737  0.4560869798720908
  0.7831062237483625  0.8024649959895332  0.8088207385951115
  0.8906473398682678  0.9332361382836306  0.6476097548778513
  0.4104351399722378  0.0581636703970646  0.4197957187507959
  0.8987850355192275  0.9192046561761753  0.7110714691873002
  0.4233145764740260  0.7008708556311617  0.4349161149649367
  0.6890636345464964  0.7701923730178435  0.5638535760790571
  0.7692672150453431  0.7783111636947866  0.6439053549913402
  0.4801067754872042  0.7944979663796462  0.4321342907845410
  0.7455161880723168  0.8451890525647954  0.6199245652994438
  0.3879374577343416  0.9182350658791683  0.3598577230842979
  0.7992015939355104  0.8765890203268311  0.6865604131459844
  0.3999828132761898  0.3922983818896982  0.0642500893503030
  0.3854626186716562  0.9687688656756355  0.4163982414034898
  0.7362017226563128  0.6736156773826094  0.4370462732278314
  0.4497944719310923  0.3622725936915358  0.0901233777595441
  0.3560220682997028  0.0416007514197676  0.1166232196705623
  0.3088328156465799  0.2198915541474157  0.9959949940953878
  0.9805639257054166  0.4538724338448290  0.1323342368703421
  0.0815782534974154  0.3570874551552168  0.0776979874340095
  0.2400368778457043  0.2959564637167793  0.0418105975578112
  0.0295158201975522  0.3740156193927132  0.1125849595887513
  0.2333163679863193  0.3312931017289605  0.1453599712900637
  0.1402364856449477  0.3963286479610660  0.0293384220086378
  0.2474544997139793  0.2405347699788649  0.5845035122195434
  0.4171479145958498  0.0782151609931076  0.5593293094231987
  0.2876983417514478  0.1707878009764935  0.6668216273161647
  0.4925811117809186  0.1261354411323896  0.8518586629280122
  0.4669009135961256  0.6114393504109102  0.4790086885785015
  0.7834530531585574  0.7115092375622138  0.9935324002830727
  0.5154696136790756  0.2866961738440258  0.5466096882787583
  0.4157175513797862  0.2483307083987772  0.5299963330550799
  0.4166259411889968  0.0089688691696767  0.6418846611505175
  0.4406911826719357  0.0531984837126157  0.6826381366187764
  0.4830578084691954  0.3231302068970495  0.9339775265765250
  0.4480757402556251  0.3146217861612685  0.0436890234553315
  0.5525650087496861  0.0841149789142827  0.7694899654410579
  0.5508857821753964  0.3143449862646762  0.0774494765175661
  0.3057182097309593  0.0743659351367208  0.0915017905527538
  0.8595300284678845  0.9043771465594476  0.8124429609459574
  0.8458437421725492  0.2091970792009981  0.4013388955157509
  0.0164857213200155  0.9309295029317914  0.5310311533909757
  0.6278486250443129  0.1227914394888329  0.0083322601483817
  0.6644241770806820  0.1561706432885052  0.9617148521231922
  0.6650221902969123  0.2666714869618020  0.8902249352853696
  0.4287307654187783  0.1493808550521941  0.5006730524543256
  0.2598987894831936  0.7332808200982915  0.1450622205114128
  0.2121938508211106  0.8081489011342897  0.1682999442499338
  0.3186445589142320  0.7932836455561711  0.2638440346038956
  0.1756602302377761  0.9309785296516652  0.2254248350983835
  0.1248201557593102  0.9474489715489390  0.2616107783799766
  0.7196947024948801  0.9813137092115755  0.1392075999852450
  0.1408792591760318  0.6428754084261582  0.0154295327191553
  0.2613678674783780  0.5870541168956317  0.0167778793901609
  0.7272699255696938  0.2275190552468557  0.8040366052998319
  0.6658443414672149  0.2340229774711098  0.7822619499612244
  0.9730845531279838  0.8905457975594921  0.5711901033404926
  0.0606193090846619  0.9433814634128935  0.5877762031022389
  0.9668030802919384  0.9520361303892967  0.5568998719228466
  0.9705066160852174  0.0096011798820471  0.3083777315367713
  0.8816198460372263  1.0123275688792750  0.9560757739166086
  0.9270098528611463  0.0862004983288600  0.3256807837051187
  0.8718110085383386  0.0601419435581463  0.3172672616302686
  0.6393132833735604  0.7037246704724883  0.5633726320177663
  0.7475716133973869  0.8763283530646667  0.5641594742358068
  0.6825220147673337  0.7266512118988365  0.6834539610373332
  0.7432010292977548  0.7191186359154249  0.7056011962245941
  0.8260354261436138  0.7728983959025977  0.6642448482995625
  0.3565805709996242  0.5817456360675201  0.1060976352437686
  0.4718048481669275  0.9546892086708241  0.9625890139315076
  1.0232900882565790  0.9937499100144397  0.5034281857696330
  0.7192726029320249  0.0154870582825202  0.0148684483957593
  0.1551833812556681  0.7488246880833548  0.0562853990335561
  0.8842529499766334  0.4402508055283723  0.9862212915722078
  0.1526655462127046  0.7322772355323101  0.1136168167310538
  0.0647613853774295  0.9053222866905937  0.0872519230376440
  0.0241845539372747  1.0099436384333691  0.2095351792759697
  0.4309142219638090  0.0637194909211170  0.6212184769530341
  0.4806581885366972  0.1021316079796386  0.6870982959666480
  0.5792619325228927  0.1467438980065040  0.7120374024951339
  0.5727223247952602  0.3427922634309288  0.7888970134166720
  0.5557820699540715  0.2344414851727974  0.8063571739212005
  0.7521001300419752  0.3022121780228270  0.2204279468474455
  0.5805312961268417  0.6884573029282349  0.4340813639313240
  0.7779185548014246  0.6498781517390010  0.7850400387020408
  0.7550186237972262  0.7416633998168756  0.8712897972445878
  0.6851182057450116  0.7333141541726562  0.5221785600904059
  0.5913242521428755  0.5390196009286697  0.5952685368349924
  0.7292398457018197  0.4119523008010589  0.9391739545654696
  0.4773414405877316  0.0028666430214596  0.6667081243403618
  0.3713732581379448  0.1682387345053306  0.3113176347637993
  0.6873541960108243  0.4590854695530923  0.6974029945705025
  0.1861189589347914 -0.0107901791794269  0.2050040483811823
  0.9250959553385354  0.7267996433330807  0.6449235216509582
  0.8808816128180812  0.8123050007478574  0.7274464851421397
  0.7188616303370207 -0.0024138258142431  0.0766236678895711
  0.6747833763716807  0.0876552530945241  0.0332504437611138
  0.9302569060570067  0.8851350067620498  0.8961170298508855
  0.7496013054944742  0.6870002435750017  0.6031384223768449
  0.8648649021850170  0.7387370808258940  0.8481674804216301
  0.5853284007820404  0.2430977466776753  0.0737067993984696
  0.5019663751964515  0.3789267585962271  0.1601139239824495
  0.9315118174537641  0.8504252594420050  0.7915060085421856
  0.8312338012736639  0.8087648227865872  0.7689313454479714
  0.4521571807375979  0.4083282501895044  0.1350260938817070
  0.9413019537522314  0.8396404116054688  0.8532503814040371
  0.9147687790798078  0.7773672379184513  0.9141913636105617
  0.9902773476750989  0.8773032300395764  0.9183149179002993
  0.6706664292723432  0.5208673178098907  0.4588314770399146
  0.4587282550542520  0.5197692302827741  0.1617083033691771
  0.0527858944457421  0.7650789109355849  0.1825024159650090
  0.2133920011411505  0.7931277019861995  0.2269937847706088
  0.0685685765437382  0.9333321842562954  0.1915132229212956
  0.8021745933010033  0.3019190893167777  0.3552699268745793
  0.7926243963011494  0.7400205272483558  0.5498167964283488
  0.0625265691855603  0.7957720271026426  0.5174229499137055
  0.7331276347141971  0.5837730710572702  0.5823321305952864
  0.7651295153366068  0.4259610310916133  0.4100786185700133
  0.8232249641729321  0.4710071459911152  0.3583528453712791
  0.4001172725828044  0.3863785008294192  0.8926304808437339
  0.7778034411010436  0.5492793725467526  0.3749888129127439
  0.4489050961097636  0.4245939756730690  0.9580293657013244
  0.2389757696556918  1.0280661849205430  0.5751756055451979
  0.1365647249406206  0.0599538921698568  0.5194251515597339
  0.0764018456004587  0.1434691257748686  0.5895261209056221
  0.2334249880488182  0.0468220749766629  0.7824741324750231
  0.4794792218350433  0.8198346565316286  0.5365378374088994
  0.5870162760042091  0.8130452477709302  0.4060109259977714
  0.6122790191453161  0.7806423055455899  0.7029953431898441
  0.2986638555917222  0.1920722129447596  0.8331497002810156
  0.4833905198981697  0.8392723383546702  0.4785079778215882
  0.5902733755142558  0.8579323379081647  0.4534399670789939
  0.9947944735741850  0.1586742957275187  0.3692788844097034
  0.3695686818765714  0.3256152349390492  0.9535627689871679
  0.5577139525553391  0.4422690512615640  0.2738357060920305
  0.6622396565386572  0.4238890127650738  0.1440672078408059
  0.6857138148357683  0.1784607692236825  0.1235556815487504
  0.8107339974798905  0.3628398630778864  0.3350217835127264
  0.1679425460044560  0.8712219218170461  0.2450310653582697
  0.4086147251738765  0.5207090893962032  0.4845101270077543
  0.0675446364522933  0.8544950370823855  0.4998229596602850
  0.0609738108967803  0.8107802959272348  0.4534412714340649
  0.4830748881894261  0.8771578607414414  0.3542243691495626
  0.3678674080598220  0.4562858159196588  0.8136945776860741
  0.3779266456364298  0.4441059087809702  0.8744217451246658
  0.9875337436215065  0.1134097200384342  0.3294774742351544
  0.4562100917232043  0.4416734099234230  0.0113121528503799
  0.9476680007774512  0.1807737903368416  0.3346360406379391
  0.1675376183211706  0.1850334342944920  0.6233859232502159
  0.1915220793914239  0.1435588675076898  0.5697591993681346
  0.9013917217470552  0.2586122396906555  0.3491871295063803
  0.8770438042811252  0.6596423038151730  0.7033987507723987
  1.0015802091796937  0.1803187547732849  0.2376013195796171
  0.4933390762955042  0.5607016018652768  0.7816391886727085
  0.7982802634971234  0.2411490164632961  0.1432878111438235
  0.6623830682921465  0.8523284132817828  0.8724831760888783
  0.6577392809261426  0.3289203967626922  0.0516093945278644
  0.7084058414744988  0.3474257815940260  0.1264149043978452
  0.8718672501077268  0.8904571777520718 -0.0090094357130238
  0.4092753686611950  0.4665274332517406  0.4992170376858566
  0.6636692593054567  0.4571030175794965  0.2501282193274175
  0.4734236204052784  0.5529693875509972  0.5533896724928367
  0.1053370721718961  0.7190768576384979  0.4955115046528841
  0.2702903354848698  0.2279664245325186  0.2572846816852640
  0.5762120073770631  0.6310312241357189  0.9415245201501397
  0.3592438331144927  0.6102631591424287  0.2134645613086351
  0.3527330644105122  0.5018571964903212  0.1865392778211079
  0.9947551840814491  0.7182349208116633  1.0085661039292344
  0.5513624992577567  0.3788679150540289  0.2934203947151263
  0.6062087585819582  0.3796804086777998  0.1960116105816820
  0.5346696284916287  0.3918069669605984  0.5281142928557290
  0.5588891853604520  0.4569500774171948  0.2133421622891349
  0.4061475013267341  0.5185513121689732  0.2573934251328888
  0.6508224689051102  0.4103023324080358  0.6922681418006478
  0.4625952202032778  0.5666338953075605  0.2034932104846633
  0.1060353764386442  0.8256353675207586  0.0747493641093007
  0.6378171788838433  0.4542167401993911  0.7361616512921504
  0.4185349140813179  0.6722383559051749  0.3285596557527916
  0.7367793552640765  0.4980551315118538  0.7608108460106603
  0.6984187476546320  0.4815009052778864  0.8609948815951108
  0.3120944080524166  0.6870003956332545  0.2320404855306950
  0.4180658993464259  0.6897533493089791  0.2676009138974863
  0.7367492479509197  0.5319170105464223  0.8655698842859445
  0.8823667073149246  0.5357179536233473  0.0180881315120160
  0.8215012982069144  0.6184286839821879  0.9707586522540327
  0.8404405933520588  0.6766008437302333  0.9101584823452272
  0.6822455831156290  0.6083093299871624  0.5505557275359562
  0.6916390458497712  0.2255707631608790  0.1685538447571759
  0.0132378580013321  0.8858904090738310  0.4773029962330765
  0.9336597010096802  0.4509298621564399  0.4558310484232715
  0.6794259740861542  0.6401739207903936  0.8648775828940835
  0.6073134677026918  0.6596019889197640  0.7815699732598256
  0.9085434226372171  0.3514931798236682  0.4420119489167480
  0.9665410552446969  0.3887520075048692  0.4543216043585505
  0.8704915260448181  0.4194173980069988  0.4442374396099454
  1.0109927606313471  0.4051861082036668  0.5132017841075668
  0.6752573732406458  0.5805808007659773  0.4435872576114370
  0.7869117820149596  0.6423040203673253  0.4623174842300430
  0.6781740062959785  0.9245262821252036  0.7536091944010397
  0.6673238720741063  0.9696524121182819  0.7963138704907622
  0.7546817791816124  0.0067197872546088  0.8534771791766984
  0.5611473649366457  0.5044297559296740  0.0317096265199003
  0.4308611546090823  0.8078372117609186  0.4730776579074881
  0.4672490778157992  0.8415431670678333  0.9873495601285539
  0.4528247352904444  0.6096033778532354  0.5316398755149618
  0.5424029667588924  0.8019597323379722  0.6203593375270422
  0.3961100148615235  0.7416243541277749  0.0264920148296600
  0.5406396865384044  0.9148257046910846  0.5360773871953917
  0.8343211213275669  0.5479949031755794  0.5091616035782778
  0.6133822949736254  0.4878742773072857  0.2223608267598360
  0.4771594502648415  0.7665990551332935  0.3236821816863568
  0.6744550650716564  0.5811093110132382  0.2151091579451855
  0.5420349761898330  0.9338945486129524  0.4748657164833318
  0.2324758746346573  0.0794578694053813  0.8882624331285029
  0.4615501319582213  0.8629547531109788  0.5790844153904338
  0.7380558584947823  0.7191424339121097  0.4803606990930647
  0.9541243006476916  0.9346934720886083  0.6152880010421115
  0.4087240094927405  0.1554449654018314  0.7108851431709693
  0.4367038102345882  0.2183093045583571  0.6536933227072458
  0.5167774820764086  0.5818376299002647  0.2736289440880994
  0.5210184614628959  0.6283124534266633  0.3186188080345640
  0.5170351278559930  0.1859120931065354  0.7999493078203243
  0.5047644516315622  0.3305237457568904  0.5955525436585843
  0.8600536620769912  0.9421652909800333  0.5806623987297077
  0.8497610473371207  0.8824537348926536  0.6504926486146093
  0.6337575031752855  0.7034058166061865  0.5071207220197765
  0.5960108278011411  0.6403435771834608  0.6162591844315476
  0.6242291469854592  0.5965816177384576  0.4784104978522712
  0.6453108228215608  0.6768932180943487  0.6832214234792064
  0.6560815136176303  0.6656964282967598  0.7427207425036305
  0.6945619935970574  0.7152722081215286  0.7444531871172294
  0.6194620633406457  0.5170989816292068  0.5575180400147447
  0.6918153871057630  0.5796490633615142  0.6196286454929641
  0.2305989668016693  0.9252595904027754  0.1219867021198669
  0.5802423758864201  0.0101324575600156  0.5863859161223778
  0.6585382839801232  0.9446578577758108  0.6281108678143832
  0.6225513109771567  0.8981041320428486  0.6279368808792395
  0.3585481205237899  0.1175311466679044  0.6454925635352450
  0.5887543927954996  0.8826435730524727  0.5636043390131729
  0.5700399101961924  0.6105605110148519  0.7777475273856241
  0.2585121699675704  0.1758725475562133  0.9313323430371589
  0.0990077019625053  0.9728671951628916  0.6545786478695999
  0.4126180378141578  0.2170860790217663  0.0039928073021537
  0.2195492393738316  0.9905487861761697  0.8074308079774269
  0.4444522250221276  0.4901613211374917  0.6108656059308413
  0.6676190780670258  0.6528620358251369  0.8032468661784637
  0.5152669637774909  0.7378391144441500  0.6795721466782030
  0.3932857186020050  0.3649355216052501  0.7256801544572193
  0.2163216756303206  0.2230641228669846  0.6892928863117449
  0.4738647885531339  0.3004693954995344  0.7657976069246429
  0.3515975678824311  0.3485976114244161  0.8276823840479484
  0.2606381597762732  0.7942657016725470  0.0271964067182040
  0.4520753658039453  0.3575368113767979  0.7459788405876779
  0.2115776841522120  0.8252181423961500  0.1077884214676939
  0.5107862632181489  0.3837781754026889  0.8737284659151866
  0.2252315533943169  0.8800377943452549  0.0727045524405371
  0.6096276143840046  0.4261223278992459  0.8978194020542781
  0.5379695241330897  0.4790828507630533  0.9226115394738773
  0.1200782678930684  0.9170456474139597  0.1563281466094283
  0.2991906036273477  0.1591185062738920  0.7279054338485563
  0.1031857112681757  0.0732060431986467  0.6740841868871826
  0.9989403926194788  0.2020675657573398  0.4098826676203554
  0.6563922812571013  0.6991337183075084  0.8464093408253729
  0.2709803085281557  0.1292957544665686  0.8918511401809601
  0.2002738414796388  0.1488575280761146  0.8080962553708410
  0.8628925593547195  0.3757008373584633  0.4086958407073720
  0.1521418269401090  0.1104488226355374  0.7408729234389659
  0.6070794069224351  0.6948336313213936  0.8865790253207975
  0.6447406601805278  0.7440522132453653  0.8892227575010067
  0.5242684925005127  0.6898561173226549  0.3027945134690271
  0.7111919960757135  0.7274565216898704  0.9732186354389816
  0.4308768237808954  0.8405753051113487  0.3451757722040777
  0.2452051388371964  0.0702003666574723  0.9517872996506409
  0.4293088158473747  0.8597220897334368  0.2842389886864983
  0.3467944756834232  0.4806862127035250  0.6920526118142974
  0.5160319592315102  0.5037139707171121  0.7983217273563898
  0.4826973216422315  0.5731806683455458  0.7199253400232687
  0.9881865522650894  0.0257631611011715  0.1608288895754974
  0.5317044611591205  0.5923866215810962  0.8820014369819181
  0.6837828934889005  0.7614615925373812  0.7870578291229242
  0.8435177611256696  0.1791864983807786  0.2937212459348847
  0.8527663623025138  0.2862212748703217  0.3214178982540629
  0.2940162169689822  0.0741015379817302  0.9110788878608107
  0.3450761058632332  0.7671525437508301  0.0606071787852179
  0.5310201007818760  0.8445950948655386  0.6639568888061076
  0.7766898142479464  0.5337952039434894  0.4384588171532177
  0.2170904217793920  0.7512235194907878  0.0213347848907663
  0.5848171734119179  0.7526501622666436  0.8693624167536590
  0.4926705202114188  0.9799112833143673  0.3828292708490240
  0.4694620892649680  0.1187362223956026  0.3010263785381225
  0.5276841628085692  0.4584448818348910  0.7556228452064164
  0.5378840289666609  0.4461003107342894  0.8159915562433191
  0.6749079909676206  0.5374228993226113  0.8452356592209996
  0.3057985308746277  0.6300351602463138  0.0207407738810041
  0.5562917558580687  0.0249439450528823  0.0139569549070769
  0.9085888228626914  0.9400802751828448  0.8794273561199099
  0.5805129896916223  0.1794492202457118  0.8190979203927384
  0.9596505712062995  0.8421908711120640  0.5239295930545884
  0.8477418418462187  0.7792048777557568  0.5036361711258184
  0.9640409780098855  0.8740977975336603  0.6301905305751447
  0.2603124525532797  0.1355458731329092  0.1707171944000568
  0.6986057357529359  0.8371608098461902  0.6621407129288198
  0.2419189711590030  1.0016214339616549  0.2755609511137427
  0.2947396537840387  0.0238148399300074  0.5985764793588894
  0.3147335116579819  0.2654609439446131  0.7169274293675487
  0.3363386539849053  0.2096406213945447  0.7329679997950437
  0.3860456094634572  0.2473530849521602  0.8003745866990934
  0.0022089190710730  0.0948683174164458  0.8592267277721870
  0.7101296945064199  0.3059314519249774  0.9578498880651182
  0.5148573637539520  0.2198705734126023  0.9146940218499687
  0.5595868680620081  0.4450307245150608  0.0469197013383620
  0.5208813677126101  0.3729903711926465  0.9353767411998239
  0.2441268772985350  0.6978828227903718  0.0387297186831557
  0.5094366256848341  0.4574845716221639  0.0817800887474883
  0.1213250612114773  0.9189525152647168  0.3871414788222092
  0.6367789437849279  0.4879702831418664  0.8414282332563228
  0.5624494134054994  0.4892210928109543  0.0912928746671056
  0.6263995860974586  0.5003813875265898  0.7806159170738249
  0.4629606331735425  0.5516319483240960  0.0417058410582666
  0.4145824477537021  0.6432539776558741  0.2235709703675046
  0.3542308143562667  0.2830849030353721  0.6154178395650356
  0.5179791769163837  0.6321385246601311  0.0890015663676324
  0.2968716695820007  0.7393942774948894  0.0437169234328876
  0.6668919526244222  0.4520799418888338  0.0226404874320530
  0.1430313252955115  0.0262363450158979  0.9261346559954571
  0.5248991923785292  0.7257936133244682  0.7406451563639137
  0.3436259546340359  0.1157271171595205  0.9752022045886934
  0.5499244644111160  0.3047845044922340  0.0158677209203436
  0.7632721980070065  0.5774025830052066  0.9020592462891828