B  Cr Ni
 1.0000000000000000
    38.7315947344316172    0.0000000000000000    0.0000000000000000
     0.0000000000000000   38.7315947344316172    0.0000000000000000
     0.0000000000000000    0.0000000000000000   38.7315947344316172
 B   Cr  Ni 
  50 1596 3725
Direct
  0.9155686118593511  0.0241828590923066  0.5587908564745996
  0.2181096605000836  0.0550503747711260  0.5338822808482433
  1.0060613990932490  0.5915755528627881  0.5675023250801868
  0.4642569919706691  0.0785768288316040  0.0389086593437360
  0.1722749350894708  0.6477249811322077  0.4766530285548764
  0.6748316233920544  0.8963533285258122  0.6574565733533132
  0.7262034015448809  0.8967728917514849  0.9934315583594340
  0.4740639677063390  0.6554116948303560  0.5120007031206112
  0.0018290138271948  0.8505467698811615  0.6601257126400202
  0.9375613482773504  0.0315662228378879  0.6926943396428603
  0.4297397704193908  0.8946753874700538  0.3308688602464717
  0.2200025765282941  0.1876972164322284  0.5969772802528074
  0.4442509588489356  0.3845467147531870  0.4776451534878273
  0.3843636006853532  0.3196113160922041  0.3716278750058631
 -0.0104666629696331  0.6262650842478652  0.7065259884870155
  0.9873590939861397  0.4373552877115610  0.4723872576968542
  0.2542124931128159  0.8164506406826608  0.0779038181573632
  0.5026188391479909  0.9304991733773099  0.3438116273785110
  0.5659705886369297  0.8554651870844234  0.9393166525900423
  0.7388188663536150  0.8996228992249049  0.6126935668357351
  0.4311696636344204  0.9690771715710024  0.3824694632280641
  0.8883377874283950  0.8412605791265181  0.9535487773829517
  0.5364316086158265  0.0651445207094792 -0.0046807802234239
  0.3177850983277244  0.7934767575082161  0.0360562148457800
  0.4292979792222366  0.1367895861614600  0.1240569702378843
  0.5173900855150753  0.7883920136671920  0.9494777495591086
  1.0033810601079018  0.9373875476800121  0.5874705199358727
  0.1595079682049979  0.9244453375845447  0.5850551544372264
  0.0554564922120437  0.1978921883883137  0.5937179143465020
  0.0861290029461220  0.4207923020958523  0.5718102016377091
  0.7261216337514755  0.8343424039742098  0.9414438284770661
  0.6382653949032522  0.7511574357575324  0.5411047498605543
  0.4120488913179711  0.8112145897035703  0.5299661662030151
  0.6893886575473206  0.8316436758553154  0.6071946142588386
  0.1628200758201633  0.1827263999954130  0.4643319879167905
  0.1570755839192901 -0.0280124397002784  0.6286002583232215
  0.9963960177435641  0.7880878094733318  0.6008605647016088
  0.6179525590789198  0.0192010817714125  0.5755334467629136
  0.2586441956907424  0.8196418348147484  0.5872221867905359
  0.6400646314051462  0.3845438692355568  0.5410629242433589
  0.9670934167249340  0.9319253953947484  0.8952737631069919
  0.0269695149611491  0.8988199923398359  0.5804187728399711
  0.0082300082100868  0.7700012673976864  0.6785288906954797
 -0.0132802303339302  0.5824256272413330  0.6997000090236750
  0.7660984272829745  0.5404569593577249  0.5554469148135036
  0.3632688492462208  0.2464432764820111  0.5201263343802032
  0.6198996211056579  0.1194318245315615  1.0221346835859102
  0.6390262258240312  0.0032356971535467  0.6154678380048975
  0.4026394838255667  0.1317714412585400  0.0891154079352714
  0.0411600489357900  0.8704472960438392  0.6530996565159470
  0.1772585149405548  0.9095153797139720  0.0559255573085740
  0.1346545102306680  0.7417378913816650  0.7697267934154444
  0.3950765243154329  0.7501599068237619  0.6379400659611223
  0.7934566539174567  0.8127835992607649  0.2504813337026324
  0.0794735252694491  0.6019287085584487  0.6899595538381924
  0.0444199077560653  0.6534249834914727  0.7013805745022749
  0.0901167950846176  0.5903969184515563  0.7508626039734232
  0.7959475578059427  0.8464255067001815  0.1288890557358555
  0.8414584352046729  0.7338424157763185  0.2315236085454816
  0.3618039517280658  0.9585941890179031  0.9810760117410726
  0.4644782043191663  0.7675164708580824  0.8241946209446899
  0.3652272450113004  0.7243563823842801  0.7980743884294825
  0.2946503945748214  0.7422191941465703  0.7152775548074126
  0.6678322454372589  0.9781098685299456  0.2362705194054358
  0.7891843465709024  0.7039242830731615  0.4453811760482735
  0.7929456686065560  0.7803750924725669  0.3720970333471024
  0.3744721879561113  0.7140352977507500  0.4724042658818595
  0.4264794249651921  0.7174378457692724  0.8206888673776851
  0.6001944229756599  0.8957712825136958  0.9583765525369684
  0.4482327992263605  0.7888583217512264  0.0196644343881441
  0.6399354705666382  0.8432617288704276  0.4179758926048013
  0.8326609016861184  0.5781998486330006  0.3848359668303741
  0.6504676574980441  0.0417108109754017  0.5326200204128553
  0.4810817245223816  0.8748243068860292  0.8101076187112726
  0.8394600514933286  0.2245032032452400  0.7850335925821741
  0.6285124930231769  0.6626069379286569  0.0098058810392712
  0.8017500290043290  0.1761558574150623  0.7781085829857629
  0.2514407240499106  0.5631782072145902  0.1381770117104697
  0.8508854551944097  0.1792771485517228  0.7381710227852791
  0.2498246676988932  0.5469953514245375  0.1960625321501111
  0.8016449714142397  0.1417020426946647  0.6730101196505780
  0.4039314441942070  0.4856499992471514  0.1524658225889765
  0.8090811033492080  0.1068692237494254  0.5730994746399712
  0.1856656946764306  0.3588290762747876  0.1163619392908837
  0.8400393170288818  0.2584561617991346  0.8935252675607964
  0.6623365538344025  0.1076626405449068  0.5187261385003943
  0.6023591483124525  0.0426599670353109  0.4044218268490924
  0.5154795000174470  0.8051391524524888  0.8916642135581825
  0.9012888916937358  0.8273458316498431  0.2267779006995905
  0.5081752991802191  0.8473737704279856  0.9338234095155902
  0.2548565675862057  0.7613550441596619  0.9204590591853835
  0.4597671118609189  0.9308054712321260  0.7910929380842838
  0.2828478052869187  0.8236684160604508  0.8629257081936996
  0.4313519954946192  0.8352458253743537  0.7444921248210125
  0.7420114998196037  0.7814322402833350  0.4668993707402107
  0.9577106075008461  0.2382199343616820  0.9314662098814457
  0.3040039317861781  0.8033771133337181  0.9852107098947136
  0.4231930238436171  0.1665116924747460  0.4416992997867148
  0.3448680779839594  0.3927957757749183  0.1599939295336049
  0.7454795373778427  0.0195396860543464  0.7920084065917151
  0.8048163899510399  0.0127507966578852  0.8128264724965588
  0.3991979806430908  0.3448759228389631  0.0183118723419215
  0.8164243104601541  0.0006756506110194  0.8763162815925638
  0.7603051762438711  0.4064027510058346  0.6739219175742150
  0.3503430619512919  0.4547056639238372  0.1417427606844671
  0.9365649541904548  0.5791729244646853  0.1932748450474626
  0.8520543576655051  0.2551229746616013  0.2143591943411593
  0.8351342333477739  0.5090239087501324  0.6819643419285411
  0.7391408168430155  0.7015694848197703  0.5417408810122690
  0.2203468523507762  0.8578978758860308  0.4413451250497981
  0.7302654180524270  0.0865567028439855  0.1675973013985642
  0.8096278058262649  0.0922157765195291 -0.0321607950175546
  0.5275395678845475  0.1649607284017985  0.2472077756282540
  0.5265054744804447  0.7342119625889703  0.1240209378076469
  0.8915373199826478  0.6378262523194564  0.4969395301602080
  0.2053877264932554  0.6884549576617495  0.7498417529123942
  0.8354053995497126  0.6415856102090700  0.1393245762130071
  0.4363171375238235  0.7053071689667657  0.8798124741016029
  0.9327068786363198  0.5323491625402802  0.1491339752207664
  0.0239163024295839  0.7103706010081187  0.6849042815797542
  0.0446159660694876  0.3005381763921075  0.8958866028351267
  0.5651410498807611  0.4741099487343752  0.6560121738903018
  0.5908193369120209  0.8713493481883315  0.7903512500445458
  0.9231962376832971  0.4087093896511316  0.4153630152192668
  0.2062742508701474  0.6851490861204895  0.1992131278181264
  0.6843524260061521  0.0258935941024022  0.7710565373825967
  0.9411952173707081  0.1692295090370378  0.9348384361032726
  0.6176390538464583  0.0415252182905320  0.0852321839217080
  0.8089988064480466  0.1988573557879163  0.9444087552442697
  0.0168176483833489  0.9326273723446300  0.2901879379544589
  0.7838826994127145  0.0682226188925413  0.7947752277862772
  0.1111424935996695  0.8552830538950112  0.1746578493810156
  0.6641475402655628  0.0480055487899941  0.6462523838211265
  0.7137837471130941  0.0878650005685710  0.7104511423793506
  0.6587607667534430  0.0523165250499796  0.5882493426740045
  0.9399794341408850  0.2105930769722723  0.9809243547578724
  0.4988919946632734  0.7604697754345056  0.0042169036772774
  0.3274039510546731  0.6741437973018958  0.7939266252837596
  0.8793190250436091  0.4999454874195526  0.3678096271385354
  0.9902739315049262  0.6093777531219097  0.2034171304492214
  0.1003798506582906  0.6708425622562884  0.2238975324658396
  0.8831904875648203  0.5265396114295314  0.4783196459003993
  0.2664325342820901  0.6495467666008534  0.4541432081540827
  0.9292887232968771  0.4862355328759763  0.3332004476095386
  0.5300597039269677  0.9133216802018466  0.8744925687199909
  0.9711704528922436  0.3489672911176678  0.9201929646777991
  0.9851364007055877  0.5040016017133556  0.4021687016515086
  0.4342026562209285  0.5693152190969140  0.7585852858488178
  0.1555113544639126  0.2645940054118619  0.7728887033152284
  0.2164278935601733  0.2580346752020408  0.7947669486503103
  0.4517332573854808  0.9685127824331902  0.2308743812635841
  0.1187892919455413  0.2146187232128062  0.7678652936165148
  0.5336702728958667  0.8762600571229169  0.2594757645220338
  0.1909899811379558  0.1605946110571293  0.7452500124566085
  0.8382761471892713  0.7202747671476551  0.0637894683324395
  0.1680917234397522  0.2537035264854003  0.8341851505825850
  0.0703103847836358  0.1753421000760502  0.7021469700693983
  1.0035764283535415  0.1932360612206644  0.1758592525667799
  0.8908281819659395  0.1163003859327199  0.2138999659497628
  0.9225851549084477  0.1270186887994713  0.7167311175295809
  0.9380932561875888  0.5618052953837938  0.0241451558009159
  0.0434495994969958  0.1126799735146913  0.7582884417581760
  0.8602061986274562  0.9644594686997210  0.4571132051128371
  0.8625291835426327  0.9803252075793500  0.3954074153887159
  0.9627171175115339  0.9012584721327280  0.5101050596296861
  0.1785980708289931  0.9801229391247579  0.5063411697906711
  0.1511733217682967  0.8127188344508061  0.6519817315649118
  0.1407374819858232  0.1905298992831478  0.8886938877334023
  0.2644075435867767  0.2957347173882903  0.8638290575661327
  0.2412514353401640  0.3084009754545483  0.9691066916838720
  0.1970307746127374  0.6561551076023947  0.0336513256558484
  0.4595305853111478  0.8972748091343511  0.6841390881196083
  0.0527325852221096  0.7493033196904944  0.2442504122620249
  0.9215293292243090  0.3932145429167422  0.2470967073652234
  0.9500477869149291  0.7176731753279875  0.3287885384857912
  0.9127889131967134  0.3330214794385400  0.2668743695915592
  0.9610018250471922  0.3029291612401920  0.2959440474289317
  0.9564858775901407  0.2561394388242850  0.2521890096317325
  0.8947976495763164  0.7486884214648466  0.3027602981441211
  0.0152121135226961  0.8461706034262231  0.6050649738117470
  0.5484369493775900  0.9843266425652639  0.7514049106314209
  0.5034931666075800  0.0487798885171703  0.7037077903533825
  0.7281286794371519  0.5953699876172859  0.2865342630719642
  0.1138772169358646  0.0967405689011573  0.8424615785183185
  0.1741465985363730  0.0549162705243048  0.7581477195737426
  1.0191559012054210  0.9872330711117284  0.5669044201520289
  0.1819886432635224  0.8749934712082515  0.5907657226072157
  0.0055629711974550  0.9053162886793406  0.6322777769310900
  0.8704122739534105  0.8237862266955154  0.6684554018984673
  0.2915858525636576  0.3380061514746619  0.9838764194020007
  0.0647740263577082  0.5278846214962009  0.8079444511152944
  0.8215874117734983  0.4536178068335943  0.1915909772065066
  0.8207387625047831  0.4379687268905628  0.2527948884043957
  0.1737832564957068  0.9193455306765624  0.5297383722503159
  0.7875125228568144  0.7369296418549403  0.0988423108323538
  0.2523371128096733  0.5920636291663403  0.6935069487448413
  0.8711102620632327  0.4066206593310766  0.2797096948956719
  0.3014250359066391  0.5955061799740993  0.6519882659088483
  0.8424693547959727  0.1623607282031896  0.1245584465437469
  0.6985980138476175  0.9199106751342202  0.4754131124164241
  0.1914667222053686  0.5517212689600942  0.5159355333987661
  0.3203543583224715  0.8746137378631681  0.8699554410067696
  0.4968390354221333  0.8728939238904692  1.0334359692254271
  0.0584517735259328  0.6406484333514403  0.7645696045830148
  0.8447594333002928  0.7477761752155431  0.3992023621490406
  0.1448952102532261  0.6640456387778177  0.6228575029088737
  0.0664208921620553  0.7302160988514724  0.5857422686675808
  0.5031961618334240  0.9647966150694766  0.1309382363580321
  0.4460294625821767  0.9369255691496656  0.1270408685304504
  0.2958274390992284  0.5103667864025699  0.8353114892629887
  0.4377947563758732  0.9429454639984939  0.0648822098920617
  0.3237728992007435  0.5723833344141732  0.7768179539595984
  0.3497853109028597  0.9343058472131813  0.8097222882012880
  0.2243322951244247  0.5289445616377925  0.7513957750868093
  0.7456544582604161  0.8277397816605923  0.5143785759665611
  0.9558378585389057  0.5935681721332366  0.5404650336066447
  0.6437949489383065  0.2554451271814013  0.1417420079566103
  0.9103852476811741  0.9363570777373527  0.2553506803207054
  0.0198726400632832  0.6248316539476837  0.8662450143769976
  0.9062846695306508  0.8891459619473238  0.2112245158077158
  0.8907482169319821  0.6875884431290017  0.0906934864759159
  0.0052239755195712  0.2077957237262456  0.1126263187470230
  0.0538929667695650  0.7253421261806108  0.5326912475661568
  0.9487202621924101  0.7813542170549937  0.0859783294006981
  0.8692437323305761  0.8712867219643210  0.0509591070203316
  0.8459687732433150  0.8141056335377281  0.1559974059970028
  0.2458775484539822  0.0316045013049545  0.1469326144944663
  0.1023166990608644  0.8434806049440554  0.7950202397587909
  0.0277779683505664  0.4428658251126938  0.6998712230241485
  0.7852630831094104  0.6575304278562323  0.1744098970557834
  0.3506423429554670  0.6182714489944743  0.8126617306616759
  0.9198520947191985  0.3622927024878265  0.1398793011104783
  0.0932419881141683  0.1510043326578563  0.8260220998143087
  0.1248206465508652  0.8798928843958822  0.5713598491176032
  0.8657483895535061  0.3618493547409276  0.2377239937647614
  0.5141829888943363  0.0401593841239629  0.2841192907693547
  0.1970706901587857  0.5644398232021057  0.5700974881560364
  0.0648740511056481  0.0571604955141953  0.7755603264729237
  0.7101393983467560  0.8432483714546186 -0.0046415468749803
  0.2889401777761023 -0.0031103163791857  0.4784801438163634
  0.9579572343424193  0.2704892280624312  0.1912588351002868
  0.6113042791320853  0.9829622834597934  0.1027299847250882
  0.6300567151951370  0.9553806224473638  0.8993046081700978
  0.7348548345811658  0.7044887188467992  0.3150844690828680
  0.4411202267466228  0.8935826848301406  0.0230061956896224
  0.3882850402084689  0.6677362052425578  0.8155800432988829
  0.9565825603299546  0.5293867663408982  0.8269837298346031
  0.8370863066857198  0.6588548050427127  0.0762830612432230
  0.6083504770646178  0.8585256777181431  0.1359826701738151
  0.7072080596182082  0.2502800204556958  0.6789637276690558
  0.7439994747909484  0.3344471259210732  0.7913573766314296
  0.6451316402070228  0.2907398768131239  0.7651568135310941
  0.2238839206627770  0.9080407081247914  0.4886420671100406
  0.6345011140620334  0.3028684273563518  0.7041642543830148
  0.5858020833921316  0.2643540112636173  0.6369973484857724
  0.8685856281465620  0.0736389319302171  0.4828205902575770
  0.6897437418592912  0.2764614058018481  0.5595880016513577
  0.5747384586163289  0.2759069229771479  0.5753706374602013
  0.5663192633823700  0.5064416007210655  0.4820777711411399
  0.8836669843911884  0.5597677734308655  0.9459932288448052
  0.5560834965882228  0.3946770871343469  0.4651701987737801
  0.9150959358332652  0.5120960394760763  0.9266813879646857
  0.8579064304991245  0.5175038059016932  0.9074703023120454
  0.8182078258347710  0.1041423465871901  0.4580822137245335
  0.7008153460069030  0.3312201879788654  0.4218427784987707
  0.8966446143817611  0.6907161041907397  0.5450158906696135
  0.9541792720791810  0.7647122957342576  0.7056040171897889
  0.7776869818638652  0.5173532150025940  0.5028436614142940
  0.6068684319043975  0.3441733887868857  0.5099814438002094
  0.9754910985019324  0.7727165693949212  0.9343716191031274
  0.8212023676436465  0.1652315889650485  0.4436995691640767
  0.8537307328190719  0.3312051038738939  0.7724209856730173
  0.5699493611881654  0.5802398505056996  0.4057455301049606
  0.5694682853648997  0.5649375595194993  0.4675273880176857
  0.3601125169686703  0.5791332029260862  0.3355707711779344
  0.8250012798245979  0.6187555623163925  0.6406990496252709
  0.3271815752386386  0.8719782456069288  0.4166435022640904
  0.8114536467046737  0.5641291381882974  0.6649969003893581
  0.5910184343068572  0.3188490196689689  0.4509141087624750
  0.6392289525106428  0.2569607763460134  0.3690458702190822
  0.8660613569111547  0.7063818150102023  0.7465775292463092
  0.6852790081822022  0.1785455632807993  0.3517345736137808
  0.8654172393852058  0.6776553800243076  0.6433937900812637
  0.9667870612120328  0.5762258498849822  0.6029942091707703
  0.8130207081929263  0.0285774807053929  0.3080319653148142
  0.7646060240717630  0.0903636191028887  0.3873020886794689
  0.7613052012805839  0.0440995979148814  0.3426463237280542
  0.6112639577491644  0.4416388803584478  0.4050175671761343
  0.6930992354893130  0.2729034447735328  0.4426487018220927
  0.7436420401639016  0.2563938586405181  0.4077478183779429
  0.7923830609294019  0.2235626912154177  0.4341523533900394
  0.3597745765237363  0.5950047651331353  0.2752288573247272
  0.9015164527663468  0.3693456253848143  0.8388035018086185
  0.4105304766082086  0.5635261640967294  0.3011689552903175
  0.8042080298857305  0.3268256183906317  0.8136661152453070
  0.5150098813987303  0.5491688166196536  0.3967640738938094
  0.9125321012796432  0.6244413493389072  0.8863767361838712
  0.4686905086738680  0.6250197529074926  0.4147720527144422
  0.6342130222953166  0.8004844611835581  0.1446570995498253
  0.8756757147052486  0.3539773544457448  0.0059717114950618
  0.8518354742947148  0.3637412932276314  0.8796950303426794
  0.7196953734167394  0.2048069854375125  0.6298962837249483
  0.6531146009525829  0.2209484233294243  0.5523761957466526
  0.6699220078738756  0.1625654935435882  0.5664396371375393
  0.4523038329369309  0.4254185319507105  0.3010305338138498
  0.5474309292189199  0.3337512175960978  0.2516692459648213
  0.9874142782233393  0.4597147044280884  0.9064657140894955
  0.9290209134060672  0.4662878615705204  0.8840935357794701
  0.9778661668294636  0.4721854703146500  0.8443000336943617
  0.4909880210053281  0.3026315394981538  0.2437858153261253
  0.7288573525797996  0.1949393476681489  0.6948158780211414
  0.6583493779085720  0.2116216464150741  0.6132290119945052
  0.9101902507038894  0.3555487832036180  0.8998302391538029
  0.3168094809159078  0.7003672276952477  0.4032974548199819
  0.0469727348889091  0.4515323291648483  0.9274115516514103
  0.7718124483816616  0.3954647071296524  0.7337727314362740
  0.7394844852971315  0.1945115224278626  0.4233711144965793
  0.7234607333966484  0.3573108084555431  0.6669547940062431
  0.6001925483936157  0.3711731002726611  0.6283148119267788
  0.7128757772756908  0.3688060249272766  0.6052743542861160
  0.6888034377680377  0.8308161452237582  0.1535184952972186
  0.1009532478948316  0.3900930506329912  0.6789465913109551
  0.9178239463320993  0.0128241307448312  0.4021505461427690
  0.3250414812322044  0.8574958635498997  0.4744684208373260
  0.8763211978005528 -0.0542788501425222  0.9744076408025717
  0.8572934447878631  0.4847480827312923  0.8030291771472139
  0.2723417100003016  0.8219860743832751  0.4715878964516807
  0.3672682762913497  0.6865832593226832  0.3665651535845602
  0.8686390378405549  0.4726328958857504  0.8639593490378478
  0.6189406898295318  0.1949310921354500  0.7158818137612898
  0.2697016256951671  0.7937288173958865  0.3625472965618848
  0.5917607934529293  0.1015910537587661  0.6670582832997138
  0.6206953432356620  0.1606812251068984  0.6070770616953369
  0.2142917310485962  0.7627305899588880  0.3482090303063758
  0.6923202891430275  0.1100178321220823  0.5854111693041890
  0.5239945305079702  0.0781735736248340  0.5378267238781324
  0.6650594013659659  0.4386185611288163  0.5349534253010795
  0.7481774770187147  0.2668196476353706  0.5763809806965803
  0.6260953812478828  0.4359293585769874  0.5701627268248078
  0.7870645930907597  0.5035444541612299  0.7210770387983926
  0.9242151537889178  0.3130073555686905  0.8557998861942848
  0.3861825486840034  0.2692790395998351  0.1015316631251613
  0.8932740222508838  0.3491259866078595  0.6696482795040082
  0.9500158038879566  0.4301217496861075  0.5108577971228571
  0.2511465737970004  0.4652884475970787  0.0505750552150279
  0.9331492640349915  0.5692068925153360  0.9031040007502302
  0.3902379496719645  0.9832810038357426  0.8125928729922512
  0.9961864763208613  0.1931253368313643  0.9467855541364181
  0.1933767439476254  0.4832292179945182  0.0849524088977836
  0.9895384182704245  0.4253644353686892  0.8008887122833749
  0.9240353313215027  0.1008942553724504  0.9493931385981399
  0.8736215140892256  0.1227804639681732  0.7560393873913915
  0.9058113901651683  0.0538162787494327  0.8391085466393152
  0.3610405002495423  0.1664879068017046  0.0773444190242935
  0.4088848231619022  0.1111347596810257 -0.0048305455363570
  0.4620708765122367  0.1282450800920195  0.0144090770647346
  0.0010882467996703  0.8131390700700968  0.0972729524173095
  0.7854596997322184  0.0333728949492278  0.6887029006720072
  0.0482337857283174  0.7330377467066724  0.0765822570032746
  0.9369280661564363  0.2679593364244102  0.8109659752803318
  0.3401659881804751  0.2502972744865177  0.0255288587851763
  0.9708315726690238  0.1649422589671967  0.7815921511428755
  0.1664131937052916  0.7078136785780349  0.9536742387956380
  0.5366670512446846  0.2409279682376936  0.1662371118902709
 -0.0022136531469283  0.5617457084632276  0.9293348145837657
  0.0714218143671558  0.9481711056579677  0.3603634338076869
  0.9436095286476371  0.5078491265962870  0.6607055250774208
  0.9180032818159028  0.4444326531683647  0.7189989015012385
  0.0600204810236244  0.8405260991542916  0.3349502433099983
  0.8705463462118261  0.4054892880495100  0.6521699221975824
  0.8348176367630523  0.1069841046191616  0.8576454460457064
  0.8742694005622824  0.1798936346099965  0.5180392100434502
  0.6961073807180096  0.3204710657125775  0.4924617974444581
  0.2137618638619312  0.7779112035296436  0.2894391687790600
  0.9028700399942378  0.7962537400606535  0.5736605804004398
  0.8490068019325624  0.5867346458070178  0.5607992674627834
  0.3048840903661066  0.5793422735854235  0.2045103488839468
  0.8847597366483481  0.4965785959309301  0.5364553928049948
 -0.0143994229132600  0.6683016176111164  0.6734757904328111
  0.9330814096145972  0.5386384230914328  0.5437448425268659
  0.3982646441828301  0.4090519893472406  0.2307825784483483
 -0.0351924200200228  0.7308398841780007  0.6653382358461313
  0.4456009363565869  0.3460383367871275  0.1513812173660577
  0.9499449126972194  0.7310140842455983  0.4963036437602888
  0.2099546009808987  0.7172132155321161  0.3038759106787235
  0.9345443332462778  0.1150923635837202  0.7782844217003072
  0.8625287838571191  0.1336577184452704  0.6934755845954741
  0.8241986449366896  0.0847914328793448  0.6921889541008889
  0.9411961995325266  0.3876054440745989  0.7350192526379133
  0.9636856640732815  0.3309188379827984  0.7532608433573130
  0.8652079869472890  0.2861693582268935  0.7281142360536964
  0.5087731999532272  0.0435666474716910  0.0437355943830692
  0.9148610615784065  0.2916001398214506  0.6869106222093609
  0.8167809355414108  0.2485916907925608  0.6604696795396814
  0.8451326939640568  0.3112143601903704  0.6027316296818861
  0.8439366785083825  0.1013045144155448  0.9163424066709609
  0.7875243958162269  0.4693390000083138  0.6168937941203346
  0.8600024607874666  0.4179996623127786  0.5928356279076609
  0.9957286668074373  0.6876042279491926  0.1273215960064348
  0.9348615240294098  0.1481211150753911  0.8826341762065734
  0.9433249966138250  0.3546874842634044  0.6263985193482254
  0.1523840332337107  0.6702944363459349  0.1276387001659283
  0.9319250726766959  0.3699946098928382  0.5637559813997881
  0.7812007844181672  0.3251124493931169  0.5165954170592829
  0.8596117909256789  0.2682988845337521  0.5600308663176974
  0.5739429702135679  0.1027878376067650  0.1673432326195383
  0.9294810860542471  0.4331647538578729  0.7795294927072322
  0.4976743594717162  0.3705910983880146  0.4656709029192275
  0.9791734169663172  0.4380258286393897  0.7397698613373460
  0.9992349028187500  0.4160565088431041  0.8618119667132849
  0.7108894295110079  0.1394551942024487  0.5268343865478797
  0.6180051854610759  0.0260750080390736  0.1479395185906249
  0.2049466556846536  0.4897754235238466  0.0303659002111105
  0.7515914262539077 -0.0060538488548381  0.5879257624657601
  0.1887847095503043  0.4332295142640925  0.0340853872845107
  0.2448233954575574  0.3609363653920600  0.0143585376344989
  0.9372494382559773  0.2346419305799757  0.7048185315826470
  0.6594034882700665  0.1218386777282929  0.4583215391593861
  0.7123620270146566  0.1052542260969086  0.4221219166459911
  0.8150760342033377  0.0966295406369874  0.6317696823337750
  0.7772174673613750  0.1663397297400297  0.5436565847146613
  0.7607086332362599  0.0578784899270950  0.5077455702172621
  0.1468279663557330  0.5648638804307844  0.0995995828916611
  0.9357651449299048  0.5219587683900427  0.6016694981844090
  0.4152260882712978  0.7820211341253591  0.1258413826441033
  0.8880057261898596  0.2298447348109822  0.7453657015275319
  0.4110970480977027  0.1594813541066923  0.0382638516057889
  0.8991928380609415  0.1841373611666119  0.6987347553223044
  0.5146932727466523  0.1020775650037071  0.0364120893765018
  0.8308058602312863  0.2033190696477264  0.6143833192309412
  0.4227010158032987  0.1828612957779878  0.0941929780306501
  0.7113064838351686  0.2166918047186106  0.5684111054749909
  0.5654375140689409  0.0757078460687544  0.0569005866775835
  0.7740667618775727  0.4833570362702018  0.5595439064398161
  0.8802191769886071  0.5159125936484930  0.3059725646823814
  0.5587911566049167  0.9093950826585142  0.6005580061872308
  0.5097066335906231  0.9363096848066993  0.7493469403590137
  0.8920026489052244  0.7514216207253777  0.0762999124084846
  0.8862901519252909  0.0868916213184435  0.1064731934204436
  0.1910042167260699  0.9309502828624323  0.8657591095392640
  0.3087195110173728  0.5079962378253353  0.5093729210059185
  0.7659613963712066  0.9188613529565004  0.0597775713708607
  0.9484179144085848  0.1765105537890298  0.1031461004386862
  0.3670641037853881  0.7325480261660674  0.1839774206629024
  0.1011828341126958  0.8776264802107062  0.8991397781795666
  0.4395768872659934  0.2435683173759676  0.0604425694023351
  0.0750355830468583  0.2969559645442874  0.6276224004928338
  0.8898070033106252  0.2426568206023349 -0.0006159746791993
  0.7144724610103210  0.4242818236882853  0.2766779593462906
  0.7653748293247540  0.4084185420666346  0.2423721196887566
  0.9986085634871795  0.7179747713697983  0.2323094636777355
  0.1137315244900218  0.8682308326983571  0.9594874227966537
  0.1775116751420949  0.7050088155083879  1.0149184609262654
  0.0859820875149832  0.7715807309724222  0.9126215558073321
  0.1667185870877530  0.3895060026391820  0.5342139504622359
  0.3840209296748901  0.5308757153233213  0.6943422140732541
  0.5774157664625302  0.7709971609264187  0.1292350643740268
  0.8827463763761978  0.1159041312481107  0.9819558617458832
  0.1840586690425527  0.2942057865895431  0.6118242565519296
  0.4116633378333920  0.5935157063758953  0.6346645907349994
  0.3114114404087820  0.9547263542811883  0.0205426609985840
  0.8716658101218178  0.9176960120231206  0.0977777741076781
  0.2816361790426120  0.3686726473688677  0.7436601561681905
  0.2395906018233673  0.9705250126028662  0.9338625587446235
  0.3949469653254347  0.9398027644030550  0.2283204641542437
  0.7712401037624502  0.9801605423621087  0.0425491506001198
  0.4158749769855162  0.4941059189072913  0.8771015886660544
  0.1843702288062842  0.8145052872861622  0.9389291304876216
  0.4556120541849032  0.5462043341423484  0.8827304592960187
  0.0449538412327914  0.2663590399344263  0.7915319302986803
  0.4902883545910057  0.4089269938729346  0.7504806829245830
  0.1792124952604813  0.3929352428746251  0.9295215732964506
  0.2736231470909244  0.4417248306214219  0.9505473667796515
  0.9892924961116278  0.0561062669597215  0.0373018681375307
  0.1969541294107184  0.3366597175233088  0.9487847623403631
  0.1323311404557742  0.3542655568108409  0.8629972433563170
  0.8266133433983510  0.4863842267873500  0.0698446089331767
  0.7736699103943404  0.5174503462597155  0.0427925507679154
  0.8754149378634544  0.4542899283827178  0.0931482370114181
  0.1448114000324061  0.3093380174277579  0.8188051575355271
  0.9765972584614682  0.8871204245605583  0.0266152416799216
  0.2787572162932713  0.9262681517693560  0.5563409820528171
  0.0231284172350264  0.1406208759535874  0.6309798168123919
  0.2809910750345140  0.8565896990036076  0.9752710729824281
  0.9948141786292117  0.7033888654066064  0.0667859179803605
  0.3494411227067375  0.4364494834280258  0.9764124674018908
  0.1597474033718439  0.7637035777593039  0.2188164188831560