B  Cr Ni
 1.0000000000000000
    38.7315947344316172    0.0000000000000000    0.0000000000000000
     0.0000000000000000   38.7315947344316172    0.0000000000000000
     0.0000000000000000    0.0000000000000000   38.7315947344316172
 B   Cr  Ni 
  50 1596 3725
Direct
  0.3163039700457174 -0.0284595253843128  0.5684281616089095
  0.3703273121027155  0.6567879259521848  0.4757228682284123
  1.0322640345904350  0.5606369524283723  0.5025728943620094
  0.5078639646224822  0.2698415081800864  0.0050526764736342
  0.0726573076919158  0.1755943909669555  0.4898966419786240
  0.6752227870853061  0.8956091026778628  0.6600842400882946
  0.5643733620943665  0.8539492046580959  0.9440400251298368
  0.2200534905566671  0.1876017561795963  0.5967588284832636
  1.0014538043250762  0.8445044738190667  0.6598255744108761
  0.3792822972104229 -0.0106789836797763  0.5080561247578779
  0.4302411704838441  0.8915121135219632  0.3309622435471556
  0.5165862610613540  0.7881747073969214  0.9495713816373275
  0.6891392959213858  0.8326539233265445  0.6071229869714228
  0.4013027338435837  0.3310003956382129  0.3647990001174878
  1.0002118226000685  0.6061235594689605  0.7652050127814433
 -0.0104169599788204  0.4385645756754040  0.4710964407645371
  0.2498484679646317  0.8316993848176274  0.0665330952083571
  0.5038644311322890 -0.0676789005927836  0.3455592929657888
  0.3730237471624922  0.3107865779406325  0.3926666946688152
  0.7370454691207583  0.8996754403902724  0.6136378954126168
  0.4346526390851248  0.9511456190218773  0.3893728730073622
  0.3105262016811570  0.7685820496548916  0.1058691534131325
  0.4640087689430528  0.0752631910635116  0.0414039656327303
  0.5128539958264857  0.4195435804167366  0.4878420115102112
  0.0863199794139746  0.6518324590421090  0.4920171188433650
 -0.0037908986864382  0.7854519276246296  0.5975082421557583
  0.4026374579803004  0.1324579401616751  0.0902320095419267
  0.6127758751615545  0.3770519979129044  0.4740033211993215
  0.0574625606839383  0.1989840324691929  0.5908809055785580
  0.2535637766217001  0.4027367554257925  0.5739303178865129
  0.7265875189831873  0.8347062801287635  0.9420713527589238
  0.6373575095423676  0.7516380680433089  0.5399746980783313
  0.5250304541576049  0.8056162115924203  0.5702988761994809
  1.0043147880662466  0.9349114768270237  0.5893062639366894
  0.1679368385282879  0.1826504995062367  0.4637371201361229
  0.1049490635576947  0.9732267139702052  0.5856782332050953
  0.0496582850498489  0.7807416165045584  0.1220891520009552
  0.4304192752559810  0.1365470662937264  0.1250584697830388
  0.3885576417246531  0.0596637300700579  0.4675367164667988
  0.6839856206099262  0.1016327375063907  0.9764433254500565
  0.9485521946910461  0.8004474249197736  0.9640663446038176
  1.0271771500305675  0.8967143636647658  0.5804197287947880
  0.0088789703555799  0.7678888796543453  0.6769462783441649
  0.2580585372017281  0.8196250903490717  0.5863622501445930
  0.7635122024205627  0.4052305417977889  0.5226211131352710
  0.3648615851475949  0.2451223285338976  0.5218551291274224
  0.6172453670861866  0.1193347651437648  1.0217368362416206
  0.6351017517727051  0.0029440852423350  0.6183895782340928
  0.4730492702083796  0.6558168555621495  0.5110642250939924
  0.9039691392716188  0.0081678317311722  0.7993401425245359
  0.1761276544883855  0.9116105628370686  0.0532231859196176
  0.1339044420283110  0.7410163422716571  0.7686264613139554
  0.3937339094123365  0.7501655105409605  0.6388450380674962
  0.6033445976133280  0.8844984628040627  0.0169592642172080
  0.0799742995819187  0.6001448169803414  0.6890924002665173
  0.0459881227920222  0.6514974262351976  0.7006728047410213
  0.0894144535901134  0.5889982449020413  0.7499749644913875
  0.0258701531304289  0.4747683225706777  0.8039653201220132
  0.6783574296904032  0.6584485351600682  0.1391155085767345
  0.6682019038405532  0.9786085898304683  0.2365070898118053
  0.7894981721465604  0.7043531541604240  0.4456898385368103
  0.7940623455422385  0.7810168371053272  0.3710484446975215
  0.3746318065733359  0.7153862304198099  0.4731309259944196
  0.4259751542813429  0.7171345540842230  0.8213785726215114
  0.5992715280311154  0.8969849965111801  0.9590866293161023
  0.3602983103642398  0.9588504861382438  0.9810584446380567
  0.4640433542612408  0.7670737344856645  0.8246903697529034
  0.3648268697186434  0.7238301325636981  0.7992146823978360
  0.3442029044883441  0.7463941532309400  0.6761886760508203
  0.6305942109716471  0.7374183767448048  0.1585579815484145
  0.7330124806930649  0.6893370703602351  0.1483127984292809
  0.3068408366014538  0.7978443449986733  0.9976088627747091
  0.4031228154227504  0.6431194990854887  0.9386366300139851
  0.4805263616582536  0.8745218513531303  0.8113122390674233
  0.1530099315466445  0.2287772819460361  0.9903868976430339
  0.5600777988080790  0.8331443371117924  0.1128607613019334
  0.1090529687354753  0.2748474878066784  0.9776073144845684
  0.9917127123133233  0.3937189367528999  0.6942141040924258
  0.7106326859664577  0.8924443288110001  0.0438532751844942
  0.0339059016363580  0.1915620290193059  0.9064964784758951
  0.3469350847981695  0.6510272004696684  0.9169408179956187
  0.7822681295465643  0.6103226611378443  0.3572521570499389
  0.8520447608672644  0.8745278672707635  0.3666894115793205
  0.0843908164513925  0.0333800613056319  0.9048639015538806
  0.1800638009269125  0.9087106835783244  0.6965572263347177
  0.3952340575262886  0.9688107193909133  0.0986884983119117
  0.6029855920098954  0.0426333375994584  0.4041779346685448
  0.5089455787948504  0.8490367695547196  0.9339714199256441
  0.9012867783957905  0.8283601276779748  0.2256748329277621
  0.5527801908615557  0.8540802184431576  0.8915657267201434
  0.2553432154605269  0.7603338277508206  0.9216511724979872
  0.4593453642433428  0.9307043758236448  0.7923956851689620
  0.2826588631901115  0.8234732707660969  0.8649697150908313
  0.4309932088047479  0.8349644425636268  0.7456525286272628
  0.7424345555889370  0.7820154958653991  0.4671695307031268
  0.8326421259165290  0.5787851102086505  0.3849209715171442
  0.9578588534924768  0.2390237958858460  0.9305284660079804
  0.7837757450915684  0.0677273046124812  0.7967635118779646
  0.2193314224661473  0.7853027545426657  0.5105881841868731
  0.6890593305934110  0.8148178926400178  0.2142116549605267
  0.2747173839717565  0.7655932154772457  0.5930157159026913
  0.2220759787470320  0.7721759327014932  0.5715337099187966
  0.2229758741112388  0.7599551952861938  0.6320515948009495
  0.6368492159450070  0.8302571783917341  0.2505526674945590
  0.3366387683636208  0.7357086585132078  1.0058681277404737
  0.3227115192689620  0.8035903306252473  0.6572336472462676
  0.2917740690110705  0.6900385858320922  1.0009986283919170
  0.0444148005942943  0.6125035575924315  0.3330547540372084
  0.3366913991933122  0.6957104399106937  0.9605410287307107
  0.9891861552182937  0.5649288998886466  0.3859922507924007
  0.4806700234386356  0.8959458487493379  0.3006935000835372
  0.2226591802015021  0.8727727824269831  0.3786890147110432
  0.1980269459220586  0.6042507148457654  0.9290942290631560
  0.9074622884663942  0.8869885427457342  0.4377138348830160
  0.9523904905368972  0.8301461299062112  0.1286681532841193
  0.3639490337097157  0.5538143449974374  0.5712749270699433
  0.8231890504819114  0.5533469203618024  0.7243489023782081
  0.8765315302316288  0.0155039920601510  0.9514777476794131
  0.3498190081225374  0.4708040691887466  0.3090759696638686
  0.9819964081075538  0.6069357018005096  0.9715684140545863
  0.7357458610909343  0.7373119503934329  0.1937513487959148
  0.1121709472489572  0.8424914416055803  0.2357214670277708
  0.6645401645645290  0.0480565276768177  0.6483315849144319
  0.0167447354303464  0.9333965203790950  0.2896621631134682
  0.7139244198021099  0.0873619679556273  0.7120244794938074
  0.6463056940980839  0.9813751953887163  0.5672841654337664
  0.9382239043992497  0.2126240988374941  0.9806540364995575
  0.4992169074635728  0.7623235791472681  0.0043905532604304
  0.3263909318254290  0.6740339925984763  0.7932070920085231
  0.8790816653268853  0.5011482454301471  0.3668857944711925
  0.9897893349132684  0.6108551392884551  0.2019532371886659
  0.0994736757621309  0.6717836994478865  0.2227987164507738
  0.8837828428870440  0.5270943930476336  0.4791756291876453
  0.2676642884955838  0.6507454889121570  0.4541539495282578
  0.9292314162311653  0.4874338291046699  0.3324352188646971
  0.5306638058019716  0.9116831903937345  0.8752771491762620
  0.9232314560425464  0.4095223665531771  0.4143589565567568
  0.4249524038184275  0.1653354825488687  0.4417022546214601
  0.5035931706204185  0.4826626245059593  0.6343106444643305
  0.5905220679658844  0.8707490931327496  0.7900757323028114
  0.2055132476991465  0.6861725625042372  0.1980145251345465
  0.6846301487618242  0.0251436630892660  0.7725801109553444
  0.9361729948317709  0.1726479462791983  0.9333453338193584
  0.6177902794844391  0.0422589740201005  0.0862006504646096
  0.8110441486738027  0.1967016614221944  0.9439122429327752
  0.9475290849933810  0.6845797997664461  0.4511104112983024
  0.8711518542502821  0.4075751682118870  0.2793093478833232
  0.2398599326972740  0.9369695595584581  0.8259901731843282
  0.1562485443515905  0.2633353354197782  0.7724573435994528
  0.2167094771683034  0.2572870251815044  0.7940510964786022
  0.4520813767832676  0.9685587182463994  0.2301707132924319
  0.1189020333361632  0.2135555356406152  0.7676452415564393
  0.5339288208450602  0.8767302650810660  0.2600124421119395
  0.1907679441691359  0.1596866543445578  0.7441039087731430
  0.8380705445757691  0.7208608326894559  0.0643684915963044
  0.1673907881273584  0.2532996685587415  0.8328926585468768
  0.0701340665343340  0.1748758021059402  0.7011911005858120
  1.0038331501613362  0.1940939502624489  0.1752683734413304
  0.8914449429697728  0.1172373095167307  0.2151211063423067
  0.9345400656899758  0.0820231289628662  0.6731143282697726
  0.9379199885794067  0.5636479957577087  0.0234479097368635
  0.0423939938718602  0.1118426644702766  0.7583976748590013
  0.8601500859930049  0.9659075959069284  0.4571520747183808
  0.8627159191735881  0.9809898966843555  0.3962440357771176
  0.9629042889349558  0.9012640328936282  0.5110475234015527
  0.1795626726549762  0.9826077305214181  0.5063568810387085
  0.1499538118534868  0.8115870846676637  0.6512868821978325
  0.1787287154020029  0.2397132345588358  0.8984034979295488
  0.2644675229531330  0.2953469335225122  0.8635294670385188
  0.2419502471263376  0.3090218587820636  0.9689721723254394
  0.1971097959932200  0.6556655956595733  0.0332264448025841
  0.4591710442777431  0.8970634383718906  0.6857323352261755
  0.8716879521634635  0.0787880958288687  0.9355442087446311
  0.9215298404563034  0.3943375105028291  0.2466445107481686
  0.9498387024386381  0.7185495873656396  0.3277917094595260
  0.9125601261959764  0.3336756361929610  0.2664878528524483
  0.9615190803130240  0.3038936474285016  0.2956722350581885
  0.9568683894861809  0.2568293056859438  0.2522626594112197
  0.8947676924180824  0.7495946443343142  0.3017717145144295
  0.0164893891657523  0.8439410865354253  0.6055222389475613
  0.5479097893721170  0.9836748355080432  0.7536498924355405
  0.5031213467987689  0.0478822289117961  0.7062108120952836
  0.7279068658916570  0.5959782170456793  0.2867371667071667
  0.1146039859417121  0.0958838697270713  0.8421537903545250
  0.0753164874288430  0.0448197598609145  0.8389419747922263
  0.0242123797932565  0.0441596815892017  0.5457581417804106
  0.1797153665863856  0.8787206824964471  0.5893234078009411
  0.0085975887005844  0.8978186805119592  0.6333481026493862
  0.8706295523102916  0.8231930153709773  0.6675040872514607
  0.2920224754413521  0.3379879922598570  0.9844400832571557
  0.0642176102907125  0.5258113055883445  0.8075135692680854
  0.8215347154447009  0.4546374877439086  0.1916888707378668
  0.8207876965528719  0.4388877857936149  0.2525932107327108
  0.1759151649625476  0.9212101249746615  0.5267966380624872
  0.7872700318473651  0.7376442130787324  0.0982878486302437
  0.2522533108717155  0.5915013418872510  0.6927573142500456
  0.0525278988456977  0.7507119315544835  0.2418440611478114
  0.3009063895317236  0.5952026335995341  0.6513535194684316
  0.1281451160000071  0.4517503204407745  0.6238934690570744
  0.6990862802859977  0.9200459005503210  0.4755592741380362
  0.1924663174639019  0.5539650658256670  0.5175528801775536
  0.3193217538628893  0.8746803196474094  0.8702684119485053
  0.4973190988479627  0.8744569390105416  1.0342119360528563
  0.0555077005072267  0.6384343413364378  0.7631056370097097
  0.8457751925195955  0.7485263486108226  0.3989535540500132
  0.1445699294844941  0.6621152841817179  0.6222905637677325
  0.0668418325933815  0.7277736701172461  0.5851550313746129
  0.5037990951755662  0.9657185674870086  0.1301434901650563
  0.4465128745498428  0.9375543174322625  0.1271674895567357
  0.2957058437192044  0.5099322598078294  0.8349944261721722
  0.4368088425644405  0.9421799603756995  0.0649369929924942
  0.3233144887190497  0.5727369421239084  0.7760481666882509
  0.3492042360024735  0.9341485019767830  0.8109061860052648
  0.2240003306485157  0.5285823741332714  0.7516673485368675
  0.7454687216266551  0.8282685835742813  0.5143892674018230
  0.9572794331872831  0.5941504056898780  0.5414379074588533
  0.6438134780412053  0.2554890474656187  0.1422834185610115
  0.7524429075856169  0.9514914655878938  0.4820569540556866
  0.3905533327480509  0.8911494863707429  0.0601138535901884
  0.3095874078110891  0.9187459280514566  0.9145207281907072
  0.3137380743157837  0.0205994130102726  0.9320641436704394
  0.9823940527629202  0.4692189184874511  0.0708012712960166
  0.6964182957752023  0.2615727583857270  0.6171573669810373
  0.0584487645235809  0.6216551089243330  0.5683240387868485
  0.3662397321972429  0.6906476689935980  0.6931534475127048
  0.8411342387016397  0.6873842205662442  0.4137406236027835
  0.0299453981334914  0.5640811318775120  0.6206704697739770
  0.2551772561671835  0.7272531697946762  0.8155839491960711
  0.3535158707960475  0.7015268860449312  0.6314491888984000
  0.6813771523106530  0.6573968935127599  0.3660540020472517
  1.0163958947108576  0.8646061519725624  0.5370809499667877
  0.6888093160240452  0.8315848195837162  0.1533164783391726
  0.8758363578456649  0.3541822310080515  0.0056400457929762
  0.1010213257838046  0.3890887284302908  0.6750985770727413
  0.6604472479427211  0.8428812742169569  0.1001603267544539
  0.3892759936983455  0.9829099333152506  0.8134314026086890
  0.6088340599354835  0.8586178659911091  0.1369535168569515
  0.0755707609547556  0.2957945899547409  0.6273697754788062
  0.8896572834991086  0.2426704007627458 -0.0008616904158141
  0.3842259633641504  1.0037346180115259  0.0194264284764036
  0.6628347561130741  0.9505497143878717  0.1296388654997445
  0.4573605592088331  0.6780037568898311  1.0039734226402373
  0.3468208042012945  0.9978094544257081  0.0717749743564143
  0.3530666623807208  0.6709552366366217  0.0247294287243360
  0.4886262077797984 -0.0408328615191104  0.6241535356321315
  0.7345417782806277  0.3115600067704268  0.6202750570012108
  0.9561621090230333  0.5281749620501092  0.8264934020088426
  0.9842490216947067  0.5050911295842491  0.4016751711774486
  0.8975987562314632  0.1781304311347218  0.1996170689980188
  0.8531556844861901  0.3306496121101536  0.7718488442236594
  0.7435690169504154  0.3336371445525066  0.7915215671479225
  0.6453023073673564  0.2904257980403306  0.7651711857372745
  0.2242209676234874  0.9063983334695505  0.4869508967949989
  0.6342249278031463  0.3022076858457786  0.7037079891824061
  0.5865996293027317  0.2646216100976964  0.6378177911372739
  0.8684370967092315  0.0737513989406459  0.4851238510482523
  0.6895545524558285  0.2764919689229615  0.5584846508951996
  0.5746391711577346  0.2761219231487601  0.5767191902330538
  0.5677353893423813  0.5063371257002102  0.4829859231617926
  0.8830262205590782  0.5598901756737329  0.9465787522691557
  0.5585796579923558  0.3908387766976011  0.4684106423169343
  0.9154106807776681  0.5115874735388171  0.9264809201628593
  0.8576369630969245  0.5175025232810994  0.9073483015608678
  0.8186597190659395  0.1048768006176753  0.4592059163676335
  0.7010252292512903  0.3318580417729933  0.4222183622193039
  0.8978941317004087  0.6907977308094342  0.5433417031373673
  0.9523948923476596  0.7633796846169133  0.7028180852441571
  0.7176248728415656  0.4806633168751201  0.5416460487182929
  0.6033958093492824  0.3448551802396000  0.5161854552392257
  0.9772456147901397  0.7687811429959934  0.9307391916557478
  0.4691666244294511  0.6253871481340145  0.4152182850592279
  0.8201921548668799  0.1661934105491744  0.4454091609265473
  0.5706524980368540  0.5804249764885119  0.4061339935660330
  0.5155201676982856  0.5494754306423573  0.3969341250564585
  0.5695939800398115  0.5655840413316425  0.4678698221782235
  0.8390359311142024  0.6098221916793065  0.6998669554655178
  0.3278409234638660  0.8712703230339800  0.4160050919032323
  0.8111199106446548  0.5637418128314662  0.6648703304154761
  0.5902734153763280  0.3244541929783278  0.4540644618439840
  0.6395357962117050  0.2566988652078954  0.3704069468751378
  0.9260554491406738  0.6985340290689452  0.7656174896052537
  0.6857422882169910  0.1789226170136126  0.3522532021359497
  0.8658749597483927  0.6751991108866319  0.6434904709853287
  0.9703430884303895  0.5707956471949517  0.6000734875384868
  0.8143530942482776  0.0294116464694641  0.3085225363659154
  0.7649630345774285  0.0902952314314270  0.3879554762624378
  0.7619729048427683  0.0445927914228405  0.3430552321216179
  0.6119774061402758  0.4425658386790420  0.4046893161892221
  0.6921849085805186  0.2729526938609200  0.4429322225955238
  0.7439450679934656  0.2561432455732400  0.4085953487872249
  0.7932129427930585  0.2238371275793418  0.4349056009637266
  0.3598326464382993  0.5949753112712813  0.2754128661018371
  0.9007235322297625  0.3696595675664527  0.8375414417751996
  0.4105103092233398  0.5645279263077159  0.3009561153573895
  0.8032928577952232  0.3256991561072587  0.8138935296969776
  0.3598151761733778  0.5799048588057076  0.3354446194951076
  0.7071096588844453  0.2492593480250388  0.6789200496652867
  0.9125794055937416  0.6238771729379712  0.8853316945565529
  0.3428131325180601  0.2907622089880881  0.5524656546732932
  0.4190608327784507  0.4285046476681521  0.6693412569598951
  0.8518220386061180  0.3636519037432630  0.8787900362197397
  0.7202902130455150  0.2040441573862931  0.6339534847428522
  0.6521407922535301  0.2208649764523700  0.5517720327504791
  0.6703616431238170  0.1626271895220285  0.5668654857180841
  0.4524194275721656  0.4264458559212995  0.3007615166278994
  0.5474345178234711  0.3338745639725753  0.2516887714166130
  0.9877087020551737  0.4595749762355145  0.9066276217294532
  0.9285567843823652  0.4661717253980730  0.8838054098475954
  0.9773444356498715  0.4714763289224175  0.8447575665978241
  0.4917874029655127  0.3038622443038472  0.2434054295601506
  0.7288549955592527  0.1938187425620166  0.6972524883912634
  0.6597391262029055  0.2111602746643373  0.6132416595435641
  0.9099112377003965  0.3559228621659186  0.8994515699190103
  0.3163923891376689  0.7005594222028233  0.4023467101153804
  0.0469611676216058  0.4510753368667447  0.9263765930121469
  0.7714997564835985  0.3947147719299689  0.7335940913185937
  0.7906014341602288  0.1773032356107412  0.3901176940629470
  0.7228456161503529  0.3571408957040948  0.6660136764787815
  0.6018233524354949  0.3715888725825612  0.6276609678875226
  0.7122917215621879  0.3690672272573389  0.6039711905552659
  0.7624703428816828  0.3933920896826537  0.3045050720337244
  0.2719203106213346  0.3791056220256695  0.6836607010417552
  0.9182189088062102  0.0131854680406853  0.4033234364722080
  0.9322352176869957  0.5685577569435643  0.9026180546946301
  0.3264103848655062  0.8555934082320136  0.4746846464514389
  0.8563733990868512  0.4835163239447196  0.8024328817254666
  0.2728120432911660  0.8223188329999539  0.4709652624401777
  0.3670995773875658  0.6876382135652731  0.3653705561363085
  0.8786043056440380  0.4264095852512900  0.8199390611550139
  0.6192116367463580  0.1943281433114512  0.7166256527018331
  0.2696233587416019  0.7943573604154629  0.3618600605339538
  0.5918548859415147  0.1011138809210664  0.6685730392235587
  0.6218239142256835  0.1604437457354054  0.6078838320935476
  0.2139332161161548  0.7640800671172286  0.3473292258661971
  0.6916328984491833  0.1088292458597234  0.5862726320017851
  0.5242582922905782  0.0788869093511478  0.5379573666199148
  0.6701874222068114  0.4388908995868233  0.5356401360493229
  0.7484019150716537  0.2669378861962793  0.5761189291126719
  0.6054597552978214  0.4058944513643483  0.5209637477675086
  0.7862900067485773  0.5037081235369256  0.7185350122555090
  0.9235687172468289  0.3130299779652074  0.8553269151272875
  0.3866584762010331  0.2702641228397706  0.1019985090919204
  0.8929854943130288  0.3486180696231305  0.6691939009889578
  0.9518106059733729  0.4327598755381020  0.5093927312149407
  0.2496547070606181  0.4654023225511142  0.0499285484590774
  0.8738319490531264 -0.0439855757641991  0.9731364884931401
  0.2744761282140524  0.3440265230572943  0.5750997270419594
  0.9950064878227137  0.1944534138847424  0.9464445341575236
  0.7747709391710895  0.1663408700952527  0.5453920861685178
  0.8717518196558957  0.1813800346041561  0.5181410284364280
  0.9302025728775447  0.1082446002956574  0.9490553133437617
  0.8732323770844569  0.1221009919650042  0.7577186200301798
  0.9056348692294750  0.0521059269523596  0.8386982720090271
  0.3611892029581147  0.1681704140259786  0.0785888908640610
  0.4068307209320525  0.1107641246056710 -0.0056937346905869
  0.4622557407233678  0.1219352102714616  0.0153639012998136
  0.0006270115497955  0.8156148319119314  0.0949219911875842
  0.7869226892081118  0.0328408350511980  0.6907987313697537
  0.0984980426444274  0.7035369125603946  0.1004772639795049
  0.9364708301251288  0.2674352857382599  0.8107006565037862
  0.3413830853604318  0.2506703961000705  0.0258690465652604
  0.9709145773743505  0.1645035747497481  0.7816724132692618
  0.1666623158087965  0.7076097811145979  0.9530935005849185
  0.5363767072071324  0.2413001996211455  0.1662333648574180
 -0.0017613091493626  0.5600593048590397  0.9288628834100859
  0.0712797963441319  0.9484831228637610  0.3602289694986384
  0.9547864314951503  0.4935152913860857  0.7221272750962520
  0.9170660253706162  0.4442131343738214  0.7181312016872474
  0.0598760231844250  0.8415574176358195  0.3340276245696631
  0.8704388434632859  0.4057446958051847  0.6513208250251469
  0.8597139102522051  0.4174340821672300  0.5917343706740495
  0.8359859330322583  0.1043052476637024  0.8629832301093671
  0.7454527679266093  0.3556389669716435  0.5000832586358057
  0.9009818081775702  0.7958869783373530  0.5721559555090898
  0.8361579288335343  0.6591997548225040  0.0755905544658910
  0.8465203115035168  0.5862110577023097  0.5593459713664937
  0.3044364242127731  0.5793921955155142  0.2045640318918882
  0.8502416851426249  0.4292814512188228  0.5308013672421167
 -0.0147391311310450  0.6598189872488932  0.6772835073767685
  0.9300856184963273  0.5383405199249581  0.5434863139483311
  0.3982384117024381  0.4101411812122243  0.2308997255203415
 -0.0334556719511452  0.7263385481132555  0.6653583385344276
  0.4466488587645671  0.3466112297517910  0.1519429993642320
  0.0050348188525982  0.7607901540173667  0.5054402378832675
  0.2061103994428093  0.6556974099054736  0.3209922279284781
  0.9339600639690598  0.1134117380935005  0.7789575718364743
  0.8622418351107755  0.1335172920053727  0.6957178383784947
  0.8246011085195369  0.0838720743213739  0.6944234901655956
  0.9407491896568307  0.3877049597656486  0.7343567729448505
  0.9634016954489611  0.3304093862686824  0.7529336070804369
  0.8648120116095950  0.2858078129246497  0.7283032427443991
  0.5043763477494214  0.0377140018550961  0.0508984067570934
  0.9142379636756715  0.2912298116823037  0.6867535646797492
  0.8164403250404048  0.2480046828232154  0.6609775622785947
  0.8451771926584222  0.3104479546976411  0.6035106259253409
  0.2139288450230916  0.7796981968649065  0.2867209599499879
  0.9892742235980101  0.4247698616522874  0.8006079631857563
  0.7867800061837072  0.4695548114717278  0.6150521714061833
  0.1928492368291246  0.4829018698638122  0.0859237860123409
  0.7609343319250591  0.0579384219152042  0.5090593004189121
  0.9431544044375271  0.3535894338158715  0.6265158131601660
  0.1517545407086371  0.6705131069570672  0.1275596711036624
  0.9326014979903564  0.3678454880215624  0.5641421505255528
  0.7826600008262244  0.3232031446799961  0.5185401746901691
  0.8598051635751121  0.2667710961610500  0.5607137921554710
  0.5740593587448274  0.1032933537459599  0.1680650916258034
  0.9285324665085203  0.4329252965184933  0.7793731721082237
  0.4909115602467800  0.3706836281295092  0.4685047299293175
  0.9787603928362874  0.4371556722431538  0.7399297517062788
  0.9993494372073594  0.4154882570617284  0.8612109938626797
  0.7113562461885801  0.1399487767425106  0.5272224670851231
  0.6180740078568931  0.0264709435600496  0.1487854464163750
  0.2042934180458872  0.4915349885947348  0.0309447158947339
  0.7499946017183226 -0.0060409276519146  0.5887628861499293
  0.1892013035952061  0.4337733732273932  0.0334609645510099
  0.2449717266401531  0.3608274919308677  0.0148747303346019
  0.9371661170023230  0.2340596858636234  0.7045321897662201
  0.6601323372895914  0.1219240863349986  0.4588394104056719
  0.7127340151807793  0.1054460192988939  0.4226862800331373
  0.8145621868334222  0.0953487931650913  0.6337720637396951
  0.9339409807123152  0.1467636904579047  0.8833978667546386
  0.9950685843950068  0.6895979043548797  0.1254538114897804
  0.1462372303963699  0.5655926070247790  0.0987627220333349
  0.4928168581643067  0.2839837937028598  0.0644081689367717
  0.9338440710559829  0.5213919777291359  0.6004463370376506
  0.8878321389570503  0.2290371260988849  0.7453644501967139
  0.4701874012782712  0.1761763497357919  0.0568769242494446
  0.9000484976304316  0.1839781738598538  0.6991697332658509
  0.5152475179145312  0.0976539869167488  0.0368638392915525
  0.8298659820918319  0.2026015992653136  0.6157616123325791
  0.4235046951441064  0.1839943954003981  0.0949504096078671
  0.7313635843203649  0.1564924359758970  0.5897689169612080
  0.5654677980670746  0.0758024656431654  0.0597326360583386
  0.7758122575605377  0.4854875383785419  0.5598014781692215
  0.8800779021641504  0.5169551367328873  0.3052895801915433
  0.5583470808931560  0.9058014002406726  0.6035614575750244
  0.5095563035412718  0.9359975511511159  0.7513978617812332
  0.8921628891964393  0.7534214744199068  0.0751143410081830
  0.8860108579528297  0.0881021323376986  0.1076647611042484
  0.1908594665624453  0.9302644709560848  0.8649127035222460
  0.3090347715466589  0.5088014945345471  0.5092745974799033
  0.7648065604367849  0.9200972683243265  0.0592886728004936
  0.9486498042282100  0.1776166558832655  0.1032852985537753
  0.3648410279262414  0.7464909451603330  0.1221462745538983
  0.1016614721368917  0.8770086716392017  0.8984490038782194
  0.4136502640902879  0.7833439110780712  0.1253594616297010
  0.5274600697228912  0.4253468279135078  0.6502153056951139
  0.4212907629523582  0.3929707108348170  0.5657917155484131
  0.6308959678272004  0.9557056940132322  0.9005905087570153
  0.7343953429358985  0.7045250718191998  0.3147958297769756
  0.9982048493006016  0.7194443328362358  0.2306558225141378
  0.1141095862153384  0.8672766603726165  0.9571744302707146
  0.7948665794334419  0.8476517238707111  0.1283158256297399
  0.8411724462376571  0.7349329749631818  0.2305121265654158
  0.6401987969053352  0.8438889890489405  0.4183032739133478
  0.4484231730882072  0.7900858783530480  0.0201810800768466
  0.8391201932359985  0.2238282192394790  0.7852892453270236
  0.6283416159026144  0.6621320095969161  0.0107383347705360
  0.8016978765848544  0.1752087997099158  0.7800266088748499
  0.2508940426039067  0.5626676155210394  0.1378016632592880
  0.8505943438243045  0.1789064850869813  0.7392615132708921
  0.2497804011084135  0.5474604252197186  0.1961628871732635
  0.8015589667016965  0.1410365108356642  0.6752442105526295
  0.3497454318967656  0.4553897632263087  0.1421486696784275
  0.8092148927509089  0.1052384072375241  0.5753730081823097
  0.2956591810559008  0.4227954322766526  0.1342679514952986
  0.8401474144423479  0.2571378127683535  0.8939962549157437
  0.6623273353884770  0.1069770130620050  0.5188811026236161
  0.5836511527784409  0.0079212543129279  0.5871909555705482
  0.9708529947118228  0.3488470872379821  0.9194652108220487
  0.4407668731589177  0.8933206018234950  0.0223627278337034
  0.3449451811551043  0.3936986845061405  0.1603486261825101
  0.0440932652037837  0.3000609865475682  0.8947088991055995
  0.9888886214416316  0.0591032760336735  0.0373626338764416
  0.7451894555831765  0.0183969608899173  0.7929758329303572
  0.7551155703714709  0.0054916527969668  0.8567236077734914
  0.3985661386563049  0.3459704017054506  0.0188823032441570
  0.8162262357084745 -0.0018500179134924  0.8779037509488853
  0.7831451413515217  0.3500982287957811  0.6879467034717973
  0.3477120564849278  0.4077700494994090  0.0988517536322867
  0.9361052457740487  0.5805161671354248  0.1921437634598661
  0.8033283649435172  0.2862809102416807  0.1861063298644708
  0.8338410686346192  0.5085341444521071  0.6802652069399832
  0.7400633652265959  0.7024723356177497  0.5418799557017208
  0.2205724078451526  0.8578385630453569  0.4406968972286942
  0.7301335940586881  0.0873544182412856  0.1690574112957539
  0.7670420914155734  0.0497850782939190 -0.0406841956581059