B  Cr Ni
 1.0000000000000000
    38.7315947344316172    0.0000000000000000    0.0000000000000000
     0.0000000000000000   38.7315947344316172    0.0000000000000000
     0.0000000000000000    0.0000000000000000   38.7315947344316172
 B   Cr  Ni 
  50 1596 3725
Direct
  0.0653984033563818  0.0482614386998853  0.5898536036411928
  1.0137717014349887  0.0887394647054257  0.9166640524185826
  0.0505889500202551  0.1948986902563851  0.5954120800198763
  0.6717785284389800  0.9494350388469273  0.5554579796560819
  0.8883587513417638  0.8403011633608365  0.9554953427613089
  0.5318323142352426  0.8556827688924059  0.5375511887636196
  0.4943590788007444 -0.0182612455608745  0.5511580125599221
  0.7382860072613947  0.9017882338839507  0.6124461267881537
  0.2470985190867467  0.1303195351840816  0.5266228727872416
  0.1104483969334991  0.0689623133000998  0.9558517485062928
  0.9979627403543653  0.7871013671516527  0.6000865331853876
  0.5720220906121776  0.9688585417522471  0.0493858470161785
  0.2210684251135298  0.1886027667390697  0.5966046253823666
  0.6102489762938254  0.4223151117137948  0.5215482334117056
  0.0164370891603801 -0.0196564263833423  0.9022030217804179
  0.0251724700958657  0.8946947485835292  0.5851053638316842
  0.9328481407702049  0.7759559463367532  0.6546454174770887
  0.7114892278748273  0.5250089596735438  0.5863808775932891
  0.6888234976570199  0.1040433523532325  0.9754678659196194
  0.3618233209044295  0.2449489786014954  0.5198341040963121
  0.5737746398612908  0.2725458054500483  0.9563158437337921
  0.6324306568065794  1.0032387538503871  0.6197141908537267
  0.5660308971888632  0.8561421328631216  0.9418085260642852
  0.4750327861275752  0.6571830369775337  0.5132206659012257
  0.4869555944954877  0.1831279575503940  0.0681321020324917
  1.0129660380470193  0.8555606038354875  0.6598135216709824
  0.1618323952258542  0.9303856310995079  0.5858828312710134
  0.9552170443222640 -0.0020593402340847  0.8149135920903984
  0.0081453289386107  0.5899981852069828  0.5685380086461278
  0.3724858602866650  0.6567477520386652  0.4749595379390209
  0.1760389803852967  0.6538155409708248  0.4750240713075482
  0.5452742678086805 -0.0152402686877001  1.0170358473290140
  0.9880112572581009  0.5896574500992392  0.7001458811705540
 -0.0080249304196349  0.1140480896281320  0.5919708428358941
  0.1262999566707004  0.7756297540902515  0.5289695075834302
  0.0268325877840401  0.8895707031233238  0.6325245397753310
  0.4304764786772698  0.8937042573440779  0.3306699930887939
  0.9502513532374843  0.9313175278479248  0.6126925359851700
  0.6750126995901932  0.8956838092067836  0.6585804718419506
  0.3883591202498323  0.3651926912559389  0.4115831213626833
  0.0075225262808230  0.7679906128784895  0.6791444230506267
 -0.0132270766885109  0.4374548963703014  0.4742771960132460
  0.2483958864559991  0.8279202144373963  0.0680013744508177
  0.5034701284347828  0.9323444743610482  0.3435298820108328
  0.5166820029379019  0.7888339730027939  0.9510096211292171
  0.6888488238924966  0.8320001809039743  0.6073840281281946
  0.4321276871785211  0.9628937330138346  0.3840682879318448
  0.1691636417840432  0.8555664465563824  0.9685962656088392
  0.6861139139701875  0.0460162790156916  0.9241426221060627
  0.6338659570124009  0.7525913511981572  0.5420173701478485
  0.7112489637282293  0.4096540932011629  0.3397594874204659
  0.5331405825589893  0.1750424443753825  0.8591539795514009
  0.4810934335188748  0.1371901334006404  0.7927055752827851
  0.9042406360330940  0.2832094700755587  0.4605014875274157
  0.4039902626682940  0.0383320062743899  0.7869251554751198
  0.9213145189190080  0.0431642053204153  0.2835252478536692
  0.2872475443693676  0.9619299427127117  0.3690487189891259
  0.7998460959875178  0.3365609359680228  0.4648411457165073
  0.7283657820760725  0.6793569468731410  0.9284227961062875
  0.3883659129919109  0.1794510198084703  0.5898521568056332
  0.3365254106885087  0.1476123804464445  0.5261752510821284
  0.5921479219431953  0.3186110496490218  0.9153524872216958
  0.3241953227022954  0.8083914623408553  0.4320583432328841
  0.6043954784797005  0.3957974928430016  0.3649543660495999
  0.9147554982611997 -0.0190184417212328  0.5297283203411982
  0.7156763561214725  0.4421084198890483  0.4422604105124092
  0.5523806616326442  0.3680821296129688  0.6627221006741475
  0.1674418942584437  0.8421296340037655  0.3690239599646781
  0.7403885150901459  0.1947871426607811  0.1957138869547690
  0.5718524771442465  0.6112794160371384  0.5147412729985120
  0.8149142529964130  0.5313164667849694  0.5599614153278391
  0.4480054159480130  0.2398457288367185  0.8245881603963127
  0.0249455577734515  1.0093537539903221  0.2091540842333988
  0.7921043302475395  0.1943471716333035  0.3275987500158662
  0.7474591245926836  0.8757287493579985  0.5647969756990658
  0.5916575504836016  0.5386853445804295  0.5958803426054833
  0.6885984841340734  0.7501969444439514  0.4581437229513246
  0.7557368019585815  0.7420145007193957  0.8714150689882407
  0.7786332143563856  0.6503548429652030  0.7852274962951596
  0.5795869370034795  0.6880200224253878  0.4338851721279954
  0.7521763926271120  0.3019582423843427  0.2205277455811590
  0.5561646702832524  0.2345732924254133  0.8065507273200644
  0.5733486628329211  0.3428350846955043  0.7897372378523192
  0.5796792864286177  0.1467751710429884  0.7123112366829899
  0.4812251310685874  0.1015913812917159  0.6871826845110541
  0.4315250741521006  0.0623090344416171  0.6206147794892480
  0.9292362306516669  0.9831330319404682  0.6503002614285667
  0.6767583425854439  0.4725749444688118  0.6397218464832738
  0.4841726747643593  0.1734232948523808  0.8981449326578232
  0.4461132799161462  0.1239308866014393  0.8937569789523043
  0.5092608078396909  0.9689098394990618  0.8561758595929826
  0.7571206038738547  0.3482809383042779  0.2632689458711364
  0.2541635062497794  0.0258070059327106  0.9093591783255827
  0.4634619453042716  0.0304194646388956  0.8089144677400072
  0.7941671784135389  0.2096050487993541  0.2678702999510216
  0.4967135271953852  0.1640784008637774  0.9577232836364492
  0.8316171645126473  0.0409756895276087  0.1590368518073804
  0.6207404662816628  0.5654625868179067  0.3721258878556049
  0.1525295766814445  0.7321437490447721  0.1137086999150001
  0.1546116132576933  0.7487276726237316  0.0561754056044500
  0.7199623565235890  0.0163002119523335  0.0156448863304744
  1.0234686406694375  0.9935492560585094  0.5033763689307814
  0.4715794732517685  0.9531889023447799  0.9610285241952768
  0.3563576819469618  0.5815489544065876  0.1062017489239839
  0.8312015390101928  0.7765301401333932  0.6633166373503012
  0.7441353746470186  0.7195561906999718  0.7058112134879108
  0.6836668360228461  0.7269278019409418  0.6839014875943332
  0.8456236886267234  0.2087720660418131  0.4015442343458295
  0.8976420630397808  0.1957976145892590  0.3648202537892811
  0.6345464128075853  0.6997799733098323  0.5595489614637585
  0.8716801714173039  0.0586110260908908  0.3186197316423106
  0.9267787650264314  0.0856608526734393  0.3262766434275835
  0.8808200054266430  1.0114255261873348  0.9565618762097240
  0.9699211139979969  0.0092716213583610  0.3086020687232060
  0.5426101842870795  0.0964628131489488  0.7084779338263140
  0.7940506467631847  0.7594456140868837  0.7690070538076303
  0.6169314340251009  0.0544549596439451  0.0175268179783898
  0.9246674681987014  0.9959488910465915  0.8592585214180369
  0.5807476361092977  0.1796579907449199  0.8192159970906155
  0.9595899806478240  0.8419277155879910  0.5262045581806987
  0.8844378891119067  0.4404403778948213  0.9860420914793178
  0.3741617059228295  0.7945523641179181  0.3962987002549234
  0.7725021718241668  0.9441690580076423  0.6052737663743737
  0.4220069254809351  0.7175718183207374  0.3757932354420400
  0.3239219098083437  0.8251028834162122  0.3709374399708095
  0.5707098344573462  0.2150894383261473  0.9508584961790182
  0.3931330645968966  0.3326118749508739  0.6189257199128640
  0.9458580318918357  0.2231201388555349  0.4458289958470689
  0.5318569806071600  0.7642305076639476  0.4551137679758803
  0.8038024691196159  0.7799801164700284  0.9355078307974900
  0.8873942679414456  0.7169213465169826  0.9714111097800107
  0.4801250836460149  0.7133306029766568  0.5071575590305338
  0.4344382786542296  0.9174008564874629  0.4967844622215629
  0.7705859480762113  0.4286175169982285  0.8386838944683621
  0.9330465489792729  0.1306477830258269  0.3670007177979572
  0.2731324406425880  0.8693731885094412  0.2827863150901919
  0.2236053059321744  0.8859075485261507  0.3176172865027337
  0.6012598798333134  0.4053063730922764  0.7328807485515425
  0.8630625209290974  0.9971748076825152  0.5653574675624012
  0.2741612172554984  0.8544588912003755  0.3451488541442493
  0.4532424129639513  0.3245756161651834  0.6388548869599955
  0.5240214766144967  0.2734000677393985  0.6138480916208370
  0.3198521009258660  0.7785220328381638  0.3249767756372162
  0.3697777028787390  0.7644399209494080  0.2895284504202972
  0.5077623749141226  0.1987686819697395  0.7369165317499448
  0.0641484501561024  0.9048513427771233  0.0874734300210605
  0.7359158664869416  0.6737677774167811  0.4370149501712754
  0.5253430441265978  0.7256405236671153  0.7406954528620469
  0.8529055920070846  0.8805311313765103  0.5922632191183549
  0.3510281061567904  0.4862345753018623  0.0167624367965658
  0.6527797812093450  0.1599203340467218  0.9005852636355902
  0.7262756490573237  0.0587170944461711  0.0596986757728864
  0.4057222719593866  0.5009280468401945  0.0941300317683150
  0.5145302956465563  0.0696330865956798  0.8745725537549671
  0.5843419597294444  0.0167140638875363  0.8537484076325189
  0.5885404724284632  0.0540903803252409  0.9588468427835067
  0.5481678675898545  0.0012376476501609  0.9586545766925424
  0.4792097577219611  0.0554844744033483  0.9813447065005940
  0.7453944237050658  0.3051403174282498  0.4561918587251342
  0.7836658244000206  0.8031810801224651  0.8100732962202909
  0.8896107435969757  0.9326997484935009  0.6478668054352221
  0.4106901582753020  0.0587469515909056  0.4187211179440984
  0.8999970705134140  0.9196944956813270  0.7106068279706489
  0.4227171587962001  0.7007864493566329  0.4349237318254533
  0.6896021458101824  0.7760893368624049  0.5644603329924651
  0.7693057103298644  0.7802374100653470  0.6443464022807421
  0.4798574477318531  0.7945162600807959  0.4320916708302415
  0.7450822740211316  0.8462444317814577  0.6209073972810222
  0.3899857985789444  0.9215280057596611  0.3635485150857010
  0.7989657610988826  0.8771361118099107  0.6879345543080270
  0.3995375325322638  0.3926472970168764  0.0639764964158027
  0.5497816981236253  0.3161491470057515  0.0818671523021343
  0.7367391684456864  0.7196394215868375  0.4813258579899948
  0.4488351379753484  0.3632165703140486  0.0908226383947128
  0.3556828713383871  0.0414185412194102  0.1161214617633172
  0.3085516450733136  0.2198528339579164  0.9957601008379947
  0.9805249565749363  0.4537785106935122  0.1322562379869172
  0.0815591734810140  0.3569985314595223  0.0775799625187263
  0.2399347185617877  0.2959083987846541  0.0418059335946361
  0.0294919091327422  0.3738031576896230  0.1125311038097356
  0.2334692831508585  0.3312062845773401  0.1451169843360174
  0.1395068943803029  0.3951136359491584  0.0290637927089863
  0.2476885728234353  0.2404900710499544  0.5841686312037873
  0.4175946637410185  0.0768092990776691  0.5583621270228746
  0.2882341195919815  0.1708890594474489  0.6664692943333225
  0.4935834500699518  0.1260153649029637  0.8527096620157258
  0.4660132215540663  0.6110827155260902  0.4791198349072334
  0.7824115919648796  0.7123867080663485  0.9931918981607587
  0.5154458958022506  0.2861525974020699  0.5470002180655428
  0.4157094501604163  0.2476368043789873  0.5299888173210987
  0.4179937686343310  0.0088968436655030  0.6417240743558057
  0.4411294973517887  0.0529442851636560  0.6827169022750080
  0.4835402439330648  0.3238190846026625  0.9344610091977602
  0.4474151184477179  0.3160969208496544  0.0435839973834337
  0.5531308245272626  0.0841434276833443  0.7699022396325541
  0.3860862677870803  0.9674519067424060  0.4129187468319980
  0.3592502019137170  0.1172382316366267  0.6451250696056805
  0.8601123916895647  0.9047588254472450  0.8131426763657831
  0.1437533768632470  0.0268692560943361  0.9258871417356984
  0.0152330527631737  0.9290519167715515  0.5371210106487837
  0.6162822164218882  0.1508031892580769 -0.0012976308994654
  0.6678097144530967  0.1551154421375970  0.9593073661822451
  0.6661214859484400  0.2666134913629740  0.8906149741732403
  0.4284841281994997  0.1494616352014431  0.4999874793673220
  0.2599623380791138  0.7328621067715257  0.1450964507451942
  0.2123939343581280  0.8078326399770591  0.1684164613545389
  0.3185352005607067  0.7930203958444184  0.2635668812259145
  0.1758081622657185  0.9306748620655282  0.2249796643394300
  0.1248788010632817  0.9468141923062460  0.2616917855584284
  0.7192089883543547  0.9815092592934571  0.1390499184937918
  0.1408850688234341  0.6428123887934950  0.0156539336239623
  0.2616989871935251  0.5871066655640333  0.0167902194619565
  0.7276172570211219  0.2275991419013297  0.8044624250794683
  0.6661870213989817  0.2341535707862187  0.7826000916785826
  0.9681746753723659  0.8910190316162017  0.5733638155781917
  0.0591503082032388  0.9420330133516271  0.5868665949338070
  0.9649211979273071  0.9515527148018189  0.5592290685771814
  0.2017410242942085  0.7164488896242208  0.0760804151804193
  0.6414558830062942  0.5915670665560796  0.8615781513060627
  0.7635243875669826  0.5776391755349620  0.9022394720451129
  0.5497091280526369  0.3168481610770946  0.0231842231080344
  0.3441432938302306  0.1157895178593958  0.9748524277630021
  0.8483988551235093  0.7800708678146694  0.5037935862938311
  0.6671306368315947  0.4524842347421017  0.0228261206626477
  0.2959551030735215  0.7397660253775656  0.0435885692192063
  0.5178837729035214  0.6280412956578761  0.0923033053098061
  0.3546207620338271  0.2826923971574852  0.6152684245493912
  0.4144653381298255  0.6430798999331715  0.2236764678341597
  0.4626142297700137  0.5515291925654223  0.0413408863629236
  0.6268441166032558  0.5006019893225750  0.7810002462180403
  0.5624379066696773  0.4892992536073802  0.0916079223381748
  0.1215095771776894  0.9179003140300338  0.3869959473611074
  0.5092779491967346  0.4577952659085306  0.0819807867485737
  0.5210227493016867  0.3724491875705980  0.9359262295769926
  0.5595147014984039  0.4453886670876022  0.0472731981292893
  0.5149048524182652  0.2199268319033941  0.9164465985399350
  0.7096592749544935  0.3057544185274945  0.9590958427263140
  0.0038398155422466  0.0949944096229214  0.8598638278925047
  0.3868196819932748  0.2473656085761695  0.8006372274742917
  0.3370345228527351  0.2096887045903437  0.7328511638030465
  0.3153263610923809  0.2654865273618017  0.7167373675339161
  0.2957795373376491  0.0235702482893008  0.5979922383345240
  0.2421432308901538  1.0012710507418372  0.2753612184994383
  0.7110469237891567  0.8224506152640400  0.7281784362861514
  0.2602031643100295  0.1354870119655378  0.1704706224445463
  0.9703582327005102  0.8761186888092450  0.6296274110074187
  0.7295149151239634  0.4120850671959344  0.9393033706545374
  0.3051955206388717  0.0742295442374049  0.0911789799403785
  0.3309328432201228  0.2789356440676697  0.9554377481084169
  0.4088243701095458  0.5198642469147201  0.4843889606269637
  0.1860359001558601 -0.0110537296212108  0.2048607229693839
  0.9072297451990752  0.7224511797516848  0.6451461278937999
  0.8817063534998122  0.8132202803227858  0.7302090783030846
  0.7199901051664817 -0.0021245663110268  0.0770648988184286
  0.6747018132237557  0.0858975657940639  0.0283087719179151
  0.9324971978827146  0.8861618069497151  0.8957510227573872
  0.7450699687022014  0.6845439957912615  0.6024484248138832
  0.8654845870727323  0.7395496963113357  0.8494020271353575
  0.5853883970640947  0.2422201126629200  0.0684819755346768
  0.5016621910648178  0.3793654323364354  0.1605140300764666
  0.9320494301413850  0.8518191077218217  0.7930874981059077
  0.8322319078832349  0.8091000413239898  0.7701104281666322
  0.4521439381635459  0.4088822923574519  0.1352759072928831
  0.9421283459887598  0.8408687723676824  0.8555890968397694
  0.9159356620586026  0.7766450142278227  0.9152947425714447
  0.9900896479203191  0.8788339148829999  0.9176180389633949
  0.6704119005125825  0.5206257142534174  0.4588880321141859
  0.4586071307832191  0.5197917080163661  0.1617664737775273
  0.0525471555596600  0.7648636058767104  0.1827419351008923
  0.2134436361958431  0.7928944833254853  0.2271210317113558
  0.6878514479731842  0.4593556392261920  0.6976535331083338
  0.1680753663865670  0.8708235838193016  0.2450317841385392
  0.7917849481022123  0.7404234457194493  0.5521923698464298
  0.7328471203345631  0.5830680330217457  0.5821843899200621
  0.8105122161251952  0.3627227846319259  0.3350136910180296
  0.7648752465694733  0.4258826317757464  0.4100159565503884
  0.8230532227453677  0.4708746165877319  0.3581455620699591
  0.4005548673756189  0.3867807135383177  0.8923137734686009
  0.7776112030307343  0.5492024021297579  0.3748048747464853
  0.4485266333445965  0.4258528839092373  0.9576257813518194
  0.2400595735120938  1.0280947988164233  0.5746362541609358
  0.1375619438609623  0.0592200160543226  0.5190298778815579
  0.0770282263926370  0.1430465929159683  0.5876409709931444
  0.2334255859357663  0.0476373749387094  0.7816258341710055
  0.4795293817731314  0.8199722343504626  0.5367504195305256
  0.5865650155948400  0.8131189753154281  0.4056532812163086
  0.6125954876491768  0.7803260716031969  0.7039454489099980
  0.2990580326029386  0.1924691921583955  0.8328216293967049
  0.4819790047595923  0.8396400006061987  0.4776494817326315
  0.5900356303332833  0.8577050970886574  0.4537040377999854
  0.9951981193403987  0.1579530548241384  0.3689392365539323
  0.3696111579828094  0.3263617085832214  0.9530807025900569
  0.6127710345728162  0.4724425951464988  0.2833501042224773
  0.6625178015778126  0.4239633785833383  0.1445926059310832
  0.6863244922880205  0.1793781126794739  0.1235525396754805
  0.0669562219810077  0.7806944069183782  0.5290025293231427
  0.0685331260210731  0.9326578841203799  0.1917314004301978
  0.8019092646986637  0.3018020502346833  0.3554452062829217
  0.5057306828940655  0.1317350176943460  0.5213004483254861
  0.3091455951788651  0.5664980053524296  0.0441009168453084
  0.4831577917521933  0.8771853042407924  0.3545083475737165
  0.3680938094927852  0.4565089343076658  0.8134528888543788
  0.3782114871756543  0.4444506548600353  0.8740183909322322
  0.9878684693599838  0.1129653215914952  0.3297955439960436
  0.4557817857963474  0.4423676853301101  0.0111516188555350
  0.9484585847455793  0.1801848022213351  0.3351682999846181
  0.1674619178619121  0.1852994652827571  0.6232173612472225
  0.1917791307829146  0.1436359119307929  0.5695224466293382
  0.9014062280292080  0.2585201955675188  0.3492474586698970
  0.8780330827726295  0.6604961797926338  0.7019218973779667
  1.0020093588500096  0.1797711873561685  0.2374962866960369
  0.4936957233783487  0.5607132172997878  0.7817985955410459
  0.7987066341093839  0.2409836198002005  0.1433816351351035
  0.6633194815116581  0.8521274838855962  0.8747560113385793
  0.6582177900730548  0.3299051414897388  0.0517779287454968
  0.7117887762983378  0.3938590761942625  0.1720641530462172
  0.8701751727747092  0.8878521965048640 -0.0080143180292082
  0.4096022583184933  0.4658131677900558  0.4989364783007186
  0.6630311496269893  0.4572101349047393  0.2505305220592393
  0.4734979048867957  0.5517208302294375  0.5534186465542832
  0.5695760754675930  0.1576863024328899  0.6518959029403081
  0.5190550873317806  0.1214641563078298  0.5845816200305826
  0.5764812338735477  0.6312282542839962  0.9413319054304559
  0.3526336944299172  0.5016609049496232  0.1864711992275738
  0.6918604335662892  0.2258337183190521  0.1683722971239516
  0.9940152953929468  0.7181562783746336  1.0087788750932087
  0.5511394855292687  0.3788056361282252  0.2932441270009988
  0.6059152362563885  0.3792654307612031  0.1958191391736268
  0.5339189576557818  0.3917247957019404  0.5313634648126069
  0.5590359622308803  0.4573476850667270  0.2138466218349436
  0.4060439429870639  0.5184710688552006  0.2574298234823503
  0.6512848353783940  0.4103626648541824  0.6926922129538032
  0.4624895698436240  0.5665557924520145  0.2036633706365547
  0.1058191778222406  0.8252431262362450  0.0747125417651059
  0.6383773373879310  0.4543820662848440  0.7365468364589585
  0.4182221688532153  0.6721459407858776  0.3287734012342121
  0.7373638000367887  0.4981334356661782  0.7610104067155989
  0.6987073815389159  0.4816631878535918  0.8611329039784384
  0.3119214653113036  0.6866867536443043  0.2321839238971538
  0.4178704853740963  0.6895330862830443  0.2679060816140598
  0.7370124345901006  0.5320735484997177  0.8655970952624855
  0.8824206897461978  0.5357967472073020  0.0181111188184330
  0.8217446027700643  0.6186780329541590  0.9706720827090831
  0.8410115185835574  0.6768041694960454  0.9105042168724023
  0.6823261173000785  0.6079998746088748  0.5498325026316414
  0.3590664591875181  0.6099706882216033  0.2136226200073913
  0.4554112979827681  0.0271950929874822  0.5347898703711064
  0.9335398921551882  0.4507795345591608  0.4556471074275614
  0.2718609342708900  0.1297611363221526  0.8916042377128676
  0.5703420686732938  0.6106490934964356  0.7780243064676997
  0.9083228825518274  0.3513153372503712  0.4419128956615456
  0.9665242297013215  0.3886418276545419  0.4544443469483238
  0.8704617442200433  0.4194410012943730  0.4440949615920285
  1.0109691007796224  0.4052673190191930  0.5134184101760584
  0.6749474198921975  0.5803400542962159  0.4433478761738611
  0.7866537074096958  0.6422809957078394  0.4622550514356725
  0.6789869314254964  0.9244377256704714  0.7535793794620173
  0.6682255652354936  0.9693381761163526  0.7966320966313959
  0.7551271984558572  0.0064807273863686  0.8543414007382482
  0.5610942550986447  0.5046646090139539  0.0319557856142755
  0.4301366634737028  0.8080938916352604  0.4735916964872549
  0.4471739526195445  0.8473845718279095  0.9769868267449460
  0.4530869620325057  0.6086949220830997  0.5317969898965018
  0.5433617810737261  0.8013910331084266  0.6218732273929065
  0.3959388883150587  0.7423647115208105  0.0256237900079723
  0.5406134519549409  0.9133265621235301  0.5377487521040156
  0.8337631939920325  0.5477560527659892  0.5082831976670634
  0.6140760882036497  0.4877304701151479  0.2226439164908482
  0.4768783771036890  0.7667571204666769  0.3240351313767869
  0.6744701691373626  0.5810703669522588  0.2153135541118722
  0.6077840613029313  0.6599562459780487  0.7817975864717865
  0.5823858556963022  0.8744952224497587  0.5621312329757727
  0.4620290654401632  0.8621535995594438  0.5800706040483415
  0.4780816717793263  0.0023983564907925  0.6663220730441931
  0.8331290066490343  0.8419333277522126  0.8749772869157874
  0.4094093069406204  0.1552377851414949  0.7109193897802276
  0.4371893433240833  0.2178776964032879  0.6536994347827084
  0.5166745065455949  0.5813453867011390  0.2743927013348840
  0.5208095115561514  0.6280175447970739  0.3193437216742854
  0.5174985686855318  0.1860105906669798  0.8006986981741284
  0.5047951360260711  0.3301714805547956  0.5960511483858074
  0.8589785807944881  0.9398698116531014  0.5801525024517148
  0.8526628993347910  0.8799399755106452  0.6490548775053668
  0.6319704341538364  0.7031865234774439  0.5055252405880349
  0.5963719315917672  0.6398452164716650  0.6166025123047723
  0.6236489107648895  0.5961152964028884  0.4782381327566442
  0.6460348700136056  0.6774463006519167  0.6826902443592116
  0.6570153758937831  0.6648201384865363  0.7427192467133017
  0.6953309995390524  0.7153766683934879  0.7448683824123287
  0.6187757878878416  0.5165342676192065  0.5577570014943216
  0.6917986110060763  0.5789403183002468  0.6201245594889548
  0.2305260916901318  0.9252108264035752  0.1220845885402794
  0.5822075232576854  0.0109981600593459  0.5871151286372635
  0.6594575499654238  0.9450017053396813  0.6260374650258307
  0.6230595523572080  0.8979212073583281  0.6292776616282870
  0.9095294945489442  0.8947476352050352  0.6083402107961282
  0.5412994260142410  0.9346752355354824  0.4761931258499730
  0.2336073380511128  0.0795006146461468  0.8877392734503721
  0.1005283665396078  0.9740146908499944  0.6539973525914085
  0.6799228443038380  0.6404505688571914  0.8649821621375536
  0.4113818943049878  0.2182490088389021  0.0038058542761987
  0.1851949575620511  0.0427765615096650  0.8216815183507828
  0.4450766663288769  0.4895528063058404  0.6101125088988169
  0.6682528146305911  0.6532206137431177  0.8034752608211800
  0.5158272316857678  0.7373733584381305  0.6799367980307862
  0.3932640813386519  0.3649711756811764  0.7254277436635366
  0.2166846707162292  0.2233254104558656  0.6890871105758325
  0.4744927363113685  0.3003370754753602  0.7654879678675137
  0.3522480708083545  0.3487851283407981  0.8272817225191115
  0.2593598577828568  0.7948677373615992  0.0266769089385276
  0.4527423687600037  0.3580461878242874  0.7463728969619858
  0.2115939350963566  0.8246017622716806  0.1079713668095523
  0.4508351006073971  0.3918258273498973  0.8524120775891668
  0.2254535568608660  0.8805869085304212  0.0759801565221116
  0.6097484629995088  0.4260477491588139  0.8983434560781808
  0.5382184126054771  0.4791207026492794  0.9225366113751692
  0.1199517615602200  0.9166177410178507  0.1564496326374728
  0.2999187924205431  0.1593170452679386  0.7275874668216746
  0.1040981508125425  0.0741677736488601  0.6741048271757046
  0.9994533807786579  0.2021259706205311  0.4089098732896727
  0.2589998557958272  0.1763350129688080  0.9310657618714409
  0.6570141716604608  0.6994313282341121  0.8464436881766856
  0.2010386803613651  0.1494256249589631  0.8077384014462898
  0.1525453026042412  0.1114013562652404  0.7404291662058717
  0.5847652977917998  0.7537014938316580  0.8703996567042215
  0.6076624340993924  0.6953782613960122  0.8864327478533737
  0.6451462044767482  0.7442423055469275  0.8893016492683544
  0.5241150608412332  0.6896006302322932  0.3035750694337798
  0.7111587472206090  0.7274353862008964  0.9730024315473449
  0.4306129286856992  0.8410599068171902  0.3452449809699084
  0.2458021874817940  0.0704124216328083  0.9527367926916839
  0.4288807511229711  0.8602396008584495  0.2845304711398287
  0.3470918528671325  0.4807064621352727  0.6917038720533967
  0.5161554757607265  0.5036441104317092  0.7985843764070263
  0.4829961736646491  0.5729513750255744  0.7200701434891292
  0.9886467291277510  0.0248691259851768  0.1611734889459552
  0.5319305993861804  0.5932407960293226  0.8822988789877443
  0.6842495376737661  0.7619638840241174  0.7876401539291165
  0.8982433727106115  0.2106008344586631  0.3067020799422382
  0.8527302076644467  0.2859984006691484  0.3215407436609126
  0.2959284315983333  0.0748315315626966  0.9107885299029407
  0.3451304293718916  0.7662522905776654  0.0611235742574804
  0.5312290509806944  0.8444326419997283  0.6612573733110948
  0.7764077856606034  0.5335859046763299  0.4381406531659988
  0.2166541782931407  0.7511975640801647  0.0214069804142314
  0.8627254018282475  0.3755239005850827  0.4086164892405105
  0.5230998414766004  0.2109469393576022 -0.0111123718007299
  0.7472449299186780  0.5215086555660374  0.9255280018322569
  0.4593711341357655  0.0634336901096508  0.0811420947504303
  0.2521584996152129  0.0600527260030393  0.0182193256294780
  0.6752123811272206  0.5377494441572390  0.8453369560273969
  0.3060228749307166  0.6301626727530750  0.0206202480715708
  0.7332877468207224  0.6731335313666145  0.9861720538561165
  0.2066177476396299  0.7928548765926569  0.0614809039463681
  0.0827665260855405  0.9011030997395788  0.0025678562006097
  0.3842102523515412  0.2972034427186838  0.5104109248309545
  0.5611442218607693  0.2578751542324559  0.0072609672492576
  0.5140508270136441  0.5667938359797148  0.1088133982199686
  0.2439729394104157  0.6978696516033731  0.0387097907947739
  0.5383511643530066  0.4462680405031133  0.8161610251290213
  0.5280174090157662  0.4581356088373771  0.7554325394114577
  0.5643612929318265  0.5075733632435238  0.7598032271185241
  0.4188616614083781  0.5755236176144131  0.0147168094653714
  0.0054344441246056  0.2295387406499683  0.0485090703195214
  0.2958279563869100  0.4545905146035297  0.2400396090699113
  0.6756877645268232  0.6280504741919000  0.0269397470074194
  0.3604758403641481  0.6448441035955912  0.0861395965832567
  0.2889154509433285  0.2312121029145517  0.5509956847085092
  0.2096267085324821  0.1815401409662028  0.0806837830058499
  0.0525105511734790  0.2090494973565940  0.0217782437484057
  0.1366287348029314  0.4420357337957456  0.3602372921380506
  0.7739885091935615  0.2287664063706576  0.9844616264758296
  0.6451314108038689  0.2875403850316012  0.2449536338555234
  0.3596587728049726  0.6060685440929362  0.0388620935622650
  0.8117051309841806  0.1633237378590586  0.8385932777244504
  0.6901555209497331  0.1797584797747087  0.7980571405272723
  0.7112756296202579  0.1217997652485775  0.8153162282425777
  0.6405617766842595  0.1405734093966642  0.7314640021163303
  0.7503825789067576  0.1359709778713317  0.7134032593253785
  0.6977219211120360  0.3028821391650655  0.3161768082100181
  0.6010902191139279  0.0545994086172545  0.6222876894698370
  0.4696703163481891  0.0104562137212504  0.5973905454925238
  0.4408054248147115 -0.0285690394571846  0.5472256923752820
  0.7386009883083192  0.2154262910163531  0.8653798528477157
  0.3607604870656873  0.0891348066780089  0.1609779237967424
  0.0874394870989828  0.3094143862614184  0.0312863713310400
  0.0345456644368355  0.6008305189109205  0.9908251993616239