B  Cr Ni
 1.0000000000000000
    38.7315947344316172    0.0000000000000000    0.0000000000000000
     0.0000000000000000   38.7315947344316172    0.0000000000000000
     0.0000000000000000    0.0000000000000000   38.7315947344316172
 B   Cr  Ni 
  50 1596 3725
Direct
 -0.0293268795501387  0.7155023876766285  0.6767426750976585
  1.0297708041746672  0.2731881067107698  0.5720889608292716
  0.0600832057997738  1.0564513901374157  0.5946566741789309
  0.6286143849169195  0.8584266131253884  0.5898166741777945
  1.0120211574152520  0.8617847093638100  0.6586093268327846
  0.3734017486626509  0.7648637221528873  0.5132689703546635
  0.9935756381690203  0.6296641473792930  0.7096832098703797
  0.6229199866673680  0.1238473862661004  0.0185606719240020
  0.5156515475429806  0.0787373097591473  0.0915769890322727
  1.0124866019841539  0.6342761946307989  0.8083990476447910
  0.4274560940210324  0.8968473682084247  0.3339618907830105
  1.0281890570516707  0.8995665927803039  0.5786994616165646
  0.2245529948212428  1.0464706058822610  0.6022188323926848
  0.3969475334404678  0.3267809034804253  0.3635291794683327
  0.8984979167214119  0.9327116477369801  0.6643873747454202
  0.0029448543232071  0.2442534106782739  0.8763833984418010
  0.9253317028092453  0.4084104921432525  0.4638692166868729
  0.4960360101842605 -0.0659846942579257  0.3427127585546503
  0.3693521784611243  0.3075076380461892  0.3938769197664909
  0.1779461841956856  0.8627770428478705  0.9672725839325330
  0.3899216082825364  0.0057423077818787  0.4297991828443569
  0.5617296501570035  0.0997528068759822  0.1538991305991147
  0.2280980928011759  0.0039637620073702 -0.0129085343799832
  0.4340693823140627  0.3825874533912951  0.4712926909984657
  1.0215415034301241  0.5685777297131180  0.8945917855384218
  0.4723165978331159  0.1083198674401196  0.0036719686139908
  0.5871589411884518  0.1092329556290387  0.1884910219072428
  0.4250881268699397  0.9182764749278950  0.2584207864958461
  0.8949692128709010  0.0420116579370101  0.9071586547495236
  0.3118141705248673  0.4184561181720075  0.5329392152976439
 -0.0338053353808901  0.6105739910661754  0.5737890309877630
  0.8987635783444010  0.0118962559931880  0.7942151896466706
  0.0986453146364060  0.1446269880196821  0.9507260062199112
  0.9806214699792802  0.5293236830340328  0.5734624650489782
  0.1633702732340475  0.1749060571422351  0.4679950629315561
  0.1566790784555439  0.9682286636800180  0.6298455805653996
  1.0435378665425896  0.6469154677720901  0.2147186788722253
  0.2035171116805219  0.4585055369149911  0.4885459295363997
  0.1737930624098060  0.6477016557491440  0.4773046760962413
  0.2221727481647638  0.7673119713168433  0.5699542460985340
  0.2828802915375955  0.0959564993891198  0.5333974832033330
  0.0068054308122170  0.9391516642126041  0.5848069402215053
  0.0699157817216820  0.7131661930057893  0.5867481954894328
  0.9645415316601963  0.1030282690550108  0.8932092336864275
  0.2235313937682040  0.1871081028311286  0.5980856194528247
  0.8470832094537684  0.0880942773836523  0.9760598839644452
  0.3669902221017342  1.0247691293465042  0.8848702870130376
  0.9678028610504499  1.0447148776725088  0.8456901654541787
  0.5988619623050628  0.4196977009127518  0.5209487223823082
  0.8583323359268941  1.0126537580336612  0.9078205573061652
  0.1733255079384093  0.9108965715466947  0.0578771587526773
  0.1364422800215409  0.7409572057403201  0.7688122953949569
  0.3956881780511192  0.7523940785301677  0.6370383330299073
  0.9158247364638529  0.8121282938273251  0.9666017983028780
  0.0800279221510706  0.6001476686678848  0.6904786892292281
  0.0304992901086903  0.5940562680443103  0.7295666155355581
  0.0916245774890412  0.5882356019229170  0.7509279370115035
  0.4182367599848140  0.6544758705726271  0.3904178623084700
  0.9283200741500902  0.5029808299228600  0.2714719776383766
  0.6681543640484900  0.9801079743896431  0.2382507251557210
  0.7906985572990649  0.7030524722347963  0.4456739793650262
  0.7852925396128543  0.6557898083102403  0.4012958303071901
  0.3846071963172072  0.7663519826231691  0.5713620831673196
  0.4282681968751852  0.7169143665251018  0.8220006359434320
  0.6046709468746508  0.8919977633371647  0.9597917468360894
  0.3662212123040127  0.9569950737912390  0.9804534167475413
  0.4664797161132792  0.7672746540603417  0.8250746448406155
  0.3667415241454209  0.7237310358795122  0.8003741316749136
  0.3561220247736949  0.7356118171243358  0.7386461850925262
  0.6639837603430514  0.8914546172997665  0.1455774921695182
  0.2300139389844786  0.6139015974061416  0.5703327510196415
  0.9577128868199762  0.2416217546096710  0.9325170477564508
  0.3496848211920625  0.6478166316652039  0.9194162375691728
  0.4935927761285637  0.8293686384195719  0.7643762591957450
  0.3571728807801517  0.8052180278971415  0.9511533672005831
  0.5561991935497617  0.8887009494086193 -0.0007975521606849
  0.0275386355192055  0.4758027651428543  0.8057926134113107
  0.6801756267814323  0.7054852060427440  0.1828029776833908
  0.7305441350716511  0.6902972580604910  0.1470433329990360
  0.6267629256229579  0.7398981905089961  0.1549722242701669
  0.1541730639354763  0.2256036314466793  0.9918332219642736
  0.6294532866927338  0.8017954646584993  0.1375318732553212
  0.1060555692924040  0.2725099949519140  0.9767209011003636
  0.9935204867655962  0.3945442477972171  0.6969237636213430
  0.6559755742505340  0.8810545675671007  0.9780940006411323
  0.0330204545728000  0.1966584884053011  0.9059099175223371
  0.6045344818062898  0.0426918299933790  0.4066770041898952
  0.5076765337198622  0.8503885504572091  0.9314666237689297
  0.8471530978106857  0.8608792680835570  0.1997926055995790
  0.5554217675082890  0.8554948014558584  0.8918754414823902
  0.2589361888572844  0.7598042459689677  0.9282870723757187
  0.4836175198130710  0.8742431695394911  0.8083339541309498
  0.2969847762110430  0.8102843704598466  0.9307398116046820
  0.4342534855484804  0.8363584962405491  0.7447115507999390
  0.7425502326239957  0.7818825701635798  0.4652534767989934
  0.3184250108646725  0.7931075827871819  0.9964003532250799
  0.8302977928368368  0.5794594885509908  0.3852273374888820
  0.1012878904639426  0.7323111794140807  0.2071810274899044
  0.8509201312707629  0.8730921635626503  0.3682655047876027
  0.1831446294301319  0.9067458688519852  0.7006288213241227
  0.3922045666631251  0.9695228366302175  0.0930081113877176
  0.4046904553422550  0.6451070983004157  0.9413724368243336
  0.9468027452021629  0.6858215783969097  0.4506817608957405
  0.2188795219246624  0.7828261085512064  0.5092839343461302
  0.7330484044317538  0.7369761331729976  0.1931934964553595
  0.6823264262422001  0.7523271844673761  0.2275964596225487
  0.2732643576066475  0.7671818560321526  0.5958286290838607
  0.2112807828298187  0.8076509103487243  0.6106365615870637
  0.2266363881209162  0.7583023033285550  0.6321744905539192
  0.6356500412653805  0.8306138633621936  0.2481121944636313
  0.3427024560662627  0.7306137851616977  1.0070899982961514
  0.3256718044647948  0.8046617895598105  0.6578477181398094
  0.2981164506191120  0.6865747310925580  1.0032275469562610
  0.0429159053275644  0.6118767594345802  0.3343260313732132
  0.3419648820055813  0.6895422234867651  0.9621111903078446
  0.9880183551075109  0.5658958623596010  0.3869621866296386
  0.5347802568503297  0.8590685236062305  0.3204057369964087
  0.2154745147847294  0.8246218604229759  0.3347044020669087
  0.1986208740965476  0.6048772740445041  0.9296019857468737
  0.9083251087418517  0.8864962335204967  0.4384733707845572
  0.0741526657696430  0.0370460736971118  0.9090708245528973
  0.8802354142844442  0.5481830105573932  0.4124158805942642
  0.2708387583589273  0.6448281401810068  0.4585682170579493
  0.9898694260982094  0.6110683041235454  0.2032565366001720
  0.9280034457964053  0.4893927957652651  0.3317278679705922
  0.5844446362043895  0.9513658566659600  0.9407882658265994
  0.9209313758961772  0.4275652610823176  0.3487644312776483
  0.4226531519712783  0.1796272024190432  0.3791143111735831
  0.5084621216397504  0.4851736719238876  0.6346899525378855
  0.5923444896366991  0.8728286472528340  0.7895280022261819
  0.2041407737171344  0.6842881614519871  0.1985164975830372
  0.6855772668951462  0.0273909907034321  0.7692345342224933
  0.9357725982619759  0.1777830057074899  0.9323963425504688
  0.6165382565245112  0.0436904446567265  0.0866188181838956
  0.8113315981728649  0.1962188104050418  0.9444600541677668
  0.0145356291920463  0.9309043050964231  0.2907822154846654
  0.7838433196800096  0.0702389936635573  0.7920006089116336
  0.1088250696753092  0.8401766812664160  0.2362077409001026
  0.6746595642400113  0.0403713279442329  0.7062731123120697
  0.7226439263927712  0.0423780927981626  0.6651489855606142
  0.6987253523694840 -0.0021065608098648  0.6259646218249102
  0.9405837383613089  0.2127029454741047  0.9810432180769897
  0.5082731971760606  0.7202773452398326  0.0094014561502521
  0.3285412089091229  0.6730896201094180  0.7955517453198068
  0.8765934227929374  0.5025455124798891  0.3651968750916426
  0.7808894880738553  0.6099032436816976  0.3580993246309810
  0.9082238174005018  0.8008553900639794  0.5732932038727985
  0.2466317109815970  0.7719324967656548  0.8615839807275960
  0.1563152899692334  0.2631427570630037  0.7729215296136382
  0.2181095727347945  0.2572034937922348  0.7951076274522501
  0.4566739497645667  0.9659056253744340  0.2371976260066727
  0.1194501510060316  0.2151376745273087  0.7684771406189645
  0.5325929535871451  0.8761292311078388  0.2568598682037570
  0.1913792097193009  0.1598048190595178  0.7456677170847091
  0.8361058246581641  0.7199950081059369  0.0639481710048976
  0.2287661660199959  0.2454318425221587  0.8548441400707044
  0.0707146686804686  0.1763185495046433  0.6997056010207505
  1.0033027726440464  0.1932801930969972  0.1775967100354783
  0.9411675080414682  0.0865363737964437  0.2443631543818098
 -0.0305382069485977  0.0307792210279717  0.6547738259785536
  0.9356976138498608  0.5657154427865403  0.0291055457271778
  0.0418659180322747  0.1140747644228115  0.7578481543264336
  0.8606454038042921  0.9652195984238616  0.4585173348276957
  0.8616353209134033  0.9800766759888122  0.3963363870713744
  0.9579291206544521  0.8544347908988513  0.4672325067850057
  0.1805744123696666  0.9833641124610480  0.5066999312669764
  0.1426900749949128  0.8580995180695450  0.6936261858844175
  0.1794906398496174  0.2392223614902296  0.8993717619677272
  0.2656901405022036  0.2947695867858012  0.8637077090221171
  0.2396184926229763  0.3050174492824498  0.9696705844250046
  0.2309587530790003  0.7053779338423443  0.9785454596981549
  0.4606680716616914  0.8989120013756950  0.6829243653348178
  0.9835750349634150  0.4900283678189910  0.4712621620151493
  0.9195871622248187  0.3951005275885274  0.2451295202893896
  0.8939208478322103  0.7495939167007112  0.3018809228621952
  0.9113795782287433  0.3327581566283488  0.2656077882423599
  0.9605175040839652  0.3047068579524975  0.2950702447446019
  0.9546907735434288  0.2569387977214828  0.2523207763587763
  0.8981432293573701  0.8113449419519393  0.2869431367166888
  0.0812127603069497  0.8210251831388476  0.6271724490859193
  0.5500100827890725  0.9852908759811602  0.7510885998506183
  0.4892245949812443  0.9923360975123657  0.7288713254115877
  0.7250257343447463  0.5961323949106428  0.2870754288709699
  0.1136220770106510  0.0958385747000663  0.8440786104983181
  0.0746743666493438  0.0467895572482016  0.8399109951926559
  0.0238067201262744  0.0458399968424357  0.5446280679760029
  0.0670056030062516  0.8333531624993482  0.5685849053355547
  0.0116429998687627  0.9110317553346525  0.6307319962468462
  0.9286627574176880  0.8203144407950609  0.6872996994813643
  0.2881186521515435  0.3352114374281437  0.9847605536624970
  0.0651794012401804  0.5264923591884890  0.8091984212813749
  0.8188966836626972  0.4553889553303738  0.1904042454779083
  0.8693584531905438  0.4262495237166396  0.2149046458139441
  0.1240748838005772  0.9511069658086138  0.4935836811810572
  0.7838480951220137  0.7199233896862404  0.1586750545993847
  0.2540359498318910  0.5911021755790240  0.6934186408195726
  0.8338048028872005  0.6599755172136251  0.0756017237906370
  0.3033460883750493  0.5964316290664872  0.6533493318915257
  0.3566950410362548  0.7027198015240335  0.6320909404370353
  0.6977510412852090  0.9167052713175265  0.4747346686603280
  0.1888394676353900  0.5574786542351648  0.5146762178606157
  0.3253287646122702  0.8726010627421955  0.8693376031786765
  0.4927883701473816  0.8737177325826054  1.0354405027514642
  0.0609946624405988  0.6388318459423320  0.7653905147121125
  0.8456671250626424  0.7319779062890056  0.4607854111265733
  0.1460304912605694  0.6611710299862267  0.6251014300916070
  0.0768713644976854  0.6738444269704731  0.5409589120035445
  0.5022784243395370  0.9634408302104998  0.1347087661714614
  0.4414536315698868  0.9343411722126769  0.1187758079667827
  0.2745492878010350  0.5665173753167203  0.8157968694131472
  0.4362239166577688  0.8878698262872047  0.0726376698220023
  0.3250147283940306  0.5716457323882582  0.7772102749931690
  0.2925474138679231  0.9401304430346615  0.7869829468788656
  0.2270390258927836  0.5285475478192536  0.7531305518659585
  0.7965297671286039  0.8147315375324113  0.4744753683528286
  0.9802018512209284  0.5408368516673956  0.5136050600660655
  0.6349913535551513  0.1946159733439298  0.1612194047265222
  0.1298286783422908  0.4528776453431048  0.6242018052218590
  0.0691036686296347  0.6123226642507131  0.6302851929408093
  0.3684224321907295  0.6907243281244478  0.6937317780969834
  0.8412304854354474  0.6868424238247489  0.4146835969257113
  0.0428405398698108  0.5519720226953322  0.6860487949916581
  0.9503559761539619  0.8274971886664461  0.1301604357339518
  0.6749931786761660  0.6116308078746640  0.3201005579698885
  0.0115551871854429  0.8066095356808924  0.5547128906198107
  0.6858254857195875  0.8324706731976701  0.1519089379026868
  0.8755243348366751  0.3528767892563716  0.0054384699351557
  0.0939748530962921  0.4036874966828253  0.6124063031053533
  0.6674154911930719  0.8410964823522605  0.0960304637650587
  0.3914523604791735  0.9829862668087188  0.8123694530484358
  0.6211520762581911  0.8616104687725979  0.1214484515018769
  0.0649854427737482  0.3402817460733856  0.6721171554296982
  0.8882048623409697  0.2416400191022975  0.0004741758057371
  0.3905036899887471  1.0000511322746479  0.0232110074537141
  0.6629981497086326  0.9517544937112875  0.1305754127751925
  0.4623287027014549  0.6772517790314452  1.0067284865251021
  0.3444468400369686  0.9927965641667783  0.0646529242890507
  0.3571563363489148  0.6229433427760032  0.9820481279401931
  0.4873476721987810 -0.0379132044895138  0.6224250163457353
  0.6766890729454637  0.3246636574431205  0.6009169488538071
  0.6972369122734053  0.2634788577285608  0.6178305935886578
  0.9819737752159839  0.6070726975590202  0.9721959847514385
  0.3994760265009775  0.4554539969871183  0.2731399024948528
  0.8777045744264488  0.0148339939157649  0.9577753457671959
  0.8234040530490526  0.5563098496990589  0.7251660334669371
  0.3642991014916383  0.5573302217461533  0.5719295532465442
  0.8845305366771240  0.5492608398707612  0.7456181057003479
  0.2118658936436648  0.7769355875046045  0.2891825689470225
  0.3670040707764049  0.4876572949781283  0.9200299193717669
  0.8536294283485962  0.3322524964151456  0.7737147729115466
  0.7430770095084830  0.3346229827447333  0.7913650827832321
  0.6959457566115163  0.2968699690179885  0.7255728384406979
  0.2267517741257066  0.9057305318097646  0.4918036937480286
  0.6344583909270912  0.3051668728344545  0.7036125178194813
  0.5856589799125538  0.2673093094162725  0.6370694501860554
  0.8701462124913721  0.0760996507096312  0.4826011640464468
  0.6377824996668564  0.2723638105452685  0.5975370729591032
  0.5762173955900641  0.2800889711981316  0.5752978098641492
  0.5630237690426966  0.5066452643287546  0.4821327732405675
  0.8782007937785801  0.5638638642748399  0.9457046123445132
  0.6642747349489280  0.4522274171737500  0.4752026648769890
  0.9159677443569103  0.5151229202265564  0.9277336854262292
  0.8573235850453257  0.5202978552980639  0.9071968894784239
  0.8209565062637677  0.1088552216773332  0.4616033752964013
  0.6944168783442682  0.3358404732349726  0.4253298962538453
  0.9036598844916720  0.6960229258868423  0.5463860420483058
  0.9280371666375787  0.7305742852584192  0.6486120333873909
  0.7402831237021943  0.4341545124726494  0.5563399472220221
  0.6139112795777079  0.3346989830451773  0.5163043541549239
  0.9757947959899083  0.7726140595251184  0.9323826192947164
  0.4665291014600635  0.6239468063933158  0.4153813248309479
  0.8254640519719941  0.1731906301293641  0.4464633767116662
  0.5146364368920203  0.5914928087250838  0.4418091993400548
  0.3572545688927642  0.5793391763609578  0.3349516237550413
  0.5123197811135979  0.5487548922710276  0.3968457571589357
  0.8400901788797208  0.6114960835989004  0.7007255240205665
  0.2748897764788437  0.8838903930326143  0.4563381643160847
  0.8130382789715144  0.5679059514187589  0.6651987919318010
  0.5851574372245315  0.3195378635970106  0.4502244698273893
  0.6380860823682527  0.2565338914599783  0.3711924148774328
  0.9172259951106988  0.7124551518299008  0.7056338505679137
  0.6851759174072496  0.1787367691518271  0.3538088027629823
  0.8681689208276071  0.6779884982125034  0.6448385168160162
  0.9427276606217265  0.6274874774243395  0.6223124794682751
  0.8143263504160526  0.0300123905180269  0.3099820462588789
  0.7656435095882406  0.0924290140836070  0.3907923180355938
  0.7620072751578923  0.0459523728937072  0.3448200804677242
  0.6061322929770467  0.4418802177251849  0.4049275337682717
  0.6876605787671961  0.2716262163748273  0.4426345358853209
  0.7416684498494388  0.2574946236591960  0.4079941558103159
  0.7910535273508396  0.2269834858080770  0.4369356488743815
  0.3563484597419411  0.5941915669555518  0.2745913055434874
  0.9018642118919382  0.3706110155913668  0.8402611148092130
  0.4073925140341537  0.5634735171049499  0.2994323373432382
  0.8043772672910453  0.3271695451263157  0.8142685186504380
  0.5654117252529992  0.5646065996417459  0.4663857995128475
  0.8059232807848936  0.2960021304479276  0.7063047759549789
  0.9617302260407680  0.6321000498168444  0.8447853920577674
  0.8169707860283940  0.7030190300465216  0.7874451110204068
  0.4258438887395505  0.3944415385968645  0.5657482289088159
  0.8511969030195607  0.3654341941888967  0.8801098725580314
  0.7200889745848673  0.2072963809856429  0.6325816974441025
  0.6517376979520914  0.2230993013835016  0.5516449647183115
  0.6692797967498412  0.1666196102969719  0.5660251743563478
  0.4492868848813050  0.4240658409371044  0.2992923022964947
  0.5441945630284630  0.3324012595289735  0.2518455556515538
  0.9875337976943033  0.4603066413337473  0.9059147230469949
  0.9270718191256860  0.4680981047511650  0.8838478779021625
  0.9773194987332395  0.4730833515662193  0.8458789941470594
  0.4889636293306970  0.3005391237120195  0.2431148708818197
  0.7293850356540351  0.1957536137596287  0.6955576069465194
  0.6590094991212622  0.2140866958030042  0.6120691582975691
  0.9103301860349670  0.3575570728460432  0.9010095233776150
  0.3094975948756192  0.6549734973201561  0.3560880896182311
  0.9952187963070721  0.4455375693690956  0.9682693752294882
  0.7721643709388232  0.3973541850616861  0.7346902909804925
  0.7899070563500900  0.1801027915508512  0.3914233601854112
  0.7225318624893616  0.3600808978262917  0.6655219109551641
  0.6642155938318881  0.3677586037129965  0.6443932072448466
  0.7156635999396543  0.3740661036873988  0.6017785616851365
  0.5312987590091123  0.4260136652236162  0.6492889423140953
  0.8384423536478278  0.4100484193774595  0.9225935023132605
  0.9164701094552468  0.0108370701462645  0.4016076809956762
  0.8726546700440156 -0.0464402599592027  0.9747238992737011
  0.9262163432674803  0.5699946919540901  0.9041447637350540
  0.8942612427458959  0.5374240086251518  0.8050596823127748
  0.2726934912216420  0.8184455318836062  0.4772105227144329
  0.3659195424819637  0.6865898288239684  0.3654011544745535
  0.8791897284432394  0.4288072322449916  0.8216237262209194
  0.6700783732471555  0.2035049819278494  0.6732353884820246
  0.2677009522174276  0.7908503183847206  0.3637519543706616
  0.6318478110895922  0.1532408765628384  0.6692287420305234
  0.6202961688347288  0.1639099915591500  0.6079228913234845
  0.2122802540797766  0.7642536641278681  0.3483579865119955
  0.6242389794223179  0.1165504760805529  0.5634932819351464
  0.5203316089882152  0.0791798960285610  0.5372154708311168
  0.6819251230867959  0.4449221428712310  0.5298469578770554
  0.7502151644087842  0.2707985214471132  0.5756941620909314
  0.6902453741687106  0.4303394435974283  0.5896370554013568
  0.7866933412250642  0.5063785003290656  0.7202816033653802
  0.9256280260418054  0.3134614386146071  0.8575965332315388
  0.3843368464249339  0.2674196919524071  0.1018710910626672
  0.8822469137771867  0.3957013620312635  0.7171118327511893
  0.9336256991080399  0.4432139123716637  0.5097969535709792
  0.2470068761287366  0.4640193412721019  0.0496585951241265
  0.3267862192831437  0.8510883409376758  0.4802840741746428
  0.2587562949012386  0.7150867846609003  0.2084465915246572
  0.9970505539315654  0.1938542287953859  0.9480962189939240
  0.7674086251192563  0.1713620266452238  0.5447852216642715
  0.8750128122176694  0.1901427104790871  0.5195414188173888
  0.9425781797646045  0.1097842130697062  0.9421605939448884
  0.9445406429223174  0.1011308887212453  0.8399254527550197
  0.9080416172787500  0.0549462624524475  0.8354551721263332
  0.4089715221606947  0.1575766875912356  0.0392582931504989
  0.4143409622511849  0.1118170289385802 -0.0019217517617155
  0.4386195646117474  0.0616320377639692  0.0197101346576855
 -0.0001143552366891  0.8133309759541137  0.0955503334899486
  0.8499863254401143  0.0287043733947259  0.7072117533679726
  0.0976858115629905  0.7026712454999871  0.0999657093386680
  0.9597163565211370  0.2113222608554592  0.8264574680452224
  0.3443420618654300  0.2489925179387518  0.0187970909810772
  0.9715137319797256  0.1646720364933397  0.7808283738165049
  0.1685358229169539  0.7118129636067778  0.9520768708107781
  0.5348981052763544  0.2391859971085940  0.1666279664430750
  0.0309374288641196  0.5508160528442486  0.9558007839652592
  0.0695935536013148  0.9477257955889050  0.3616140964298746
  0.9553764440178115  0.4938087679382007  0.7238045119755897
  0.9174113031258943  0.4454901274338098  0.7193604161201954
  0.1142608827800413  0.8704345673109203  0.3438441343503071
  0.8713919906574650  0.4083249176671848  0.6556815280912878
  0.8614529271671612  0.4210525797975028  0.5980793950380183
  0.7845314509257383  0.1012169188509163  0.8973348733720111
  0.7337421226239087  0.3511778908580916  0.4982736667450848
 -0.0000258562341142  0.7957540071167737  0.1558569961203630
  0.8102278533304059  0.0429266758524592  0.9224864499925666
  0.9135758599506317  0.5858304286122181  0.5835781061940521
  0.3029072400159781  0.5790303085086099  0.2057812084784331
  0.8535049303813165  0.4363657565357116  0.5361880352540761
  0.9511330931648343  0.6089402402599944  0.6808657592258657
  0.9717943962856885  0.5749609863438503  0.6144760832746708
  0.3954219757142607  0.4091454964561875  0.2309769754645014
  0.0273920754840877  0.7102095285347058  0.6839888277527642
  0.4443653758932704  0.3444561151023486  0.1525416744964167
  1.0063970150767758  0.7001059785382702  0.5205690237427446
  0.2543523467878654  0.6395965871530189  0.2859583399120518
  0.9316688005580378  0.1147978271188116  0.7766764540018385
  0.8632247713133728  0.1341717240893653  0.6930835214873029
  0.8238511732759852  0.0869660853565227  0.6904851688427345
  0.9421577178187960  0.3869969344428325  0.7374294768915323
  0.9645714436850341  0.3306578435918842  0.7554369371008817
  0.9050014683530981  0.3379870278357835  0.7332861217417286
  0.5119474887249109  0.0300929060715150  0.0489640796859482
  0.9162479158065003  0.2921709462193091  0.6895065339440312
  0.8180271593601373  0.2509894912888626  0.6606259611648070
  0.8476927879905611  0.3130334244900591  0.6042454312604055
  0.8685880610070000  0.4088546743007939  0.2766463532812978
  0.9907613809419029  0.4256689021937397  0.8024111911549479
  0.8120218653589848  0.4156345074741558  0.6339848565648766
  0.1916963087805646  0.4815729833879938  0.0857929275957309
  0.8125380363996081  0.0880008532995467  0.5153484407372758
  0.9448592992302600  0.3555664351745224  0.6292081061719018
  0.1506044494166817  0.6696669400398676  0.1269983318298333
  0.9372033220595979  0.3690152423526851  0.5660081678956065
  0.8419480924132776  0.3262917701159269  0.5454495588965579
  0.8262388593673392  0.2234401422882875  0.4932582542918016
  0.5776834576592553  0.1548223151995764  0.1523895967095477
  0.9296774959352737  0.4339371378237069  0.7803565138691732
  0.4874970235943115  0.3678053685461232  0.4620249961225634
  0.9793275783029954  0.4377521387855201  0.7418852383629330
  1.0006054617685420  0.4152906819579763  0.8619089731630956
  0.7124400461204737  0.1405379453756986  0.5292662559954455
  0.5635004999528803  0.0559661030975801  0.1190025716022412
  0.2031968912710994  0.4959081035218855  0.0315416411835385
  0.7553530073907009  0.0359883594100522  0.5697127559424189
  0.1898765640499411  0.4331912208429104  0.0344334261131554
  0.2429162438101332  0.3586854630420195  0.0158831277907639
  0.9382411552608446  0.2362767674390016  0.7049756022487247
  0.6621384218008183  0.1213471214240542  0.4603875985290695
  0.7148397933584705  0.1072721841664021  0.4249055108627424
  0.8534073769484828  0.1471157608153560  0.6329943606242949
  0.9333891690659449  0.1473903127826178  0.8828428956374028
  0.0458587577846173  0.6730046228522498  0.0922217655881440
  0.1444657306258042  0.5632165687814731  0.1007225497985024
  0.4137822195293972  0.7820903323431284  0.1299197796398137
  0.4819138287388721  0.2226685509795147  0.0934663077424673
  0.8875337785533912  0.2301177959143491  0.7450793256097161
  0.4673817413253090  0.1911915471464500  0.0445760676150003
  0.9010690089400322  0.1854734131424806  0.6985233077750939
  0.5152331122896661  0.1397493700451316  0.0798981473904967
  0.7703693069712638  0.2135415243215706  0.5929429980656906
  0.4716223551508154  0.1637932851593908  0.1109511996802914
  0.7304460688948565  0.1599028227654812  0.5876102330342231
  0.5645195472965606  0.1139670748666366  0.1007612751521422
  0.7522162047891718  0.4226145285446931  0.6118873782893890
  0.8762687625598643  0.5188596491373793  0.3049288796629199
  0.5597893889403601  0.9101685410341244  0.6004685250047036
  0.5713334196960433  0.9284520981689820  0.7707498537369120
  0.8911017106405426  0.7521931807755489  0.0756290811112261
  0.8910671633978451  0.1313005912069427  0.1551697023473049
  0.1932844175109709  0.9297934646744700  0.8672400672599402
  0.3085658413409523  0.5143677083555201  0.5096251874038771
  0.7643237481507323  0.9198182503269912  0.0600822976883613
  0.9505320400815280  0.1766135946763193  0.1042875657255731
  0.3624072400491210  0.7525691841908940  0.1190327631697631
  0.1035923130446939  0.8771741715759074  0.8984062078816388
  0.9521773442638340  0.4830024533535756  0.5551017357736862
  0.9886783857817389  0.6571276701719727  0.0193180701468514
  0.2869301427261226  0.8554949016098599  0.9707959238601520
  0.9312344496075886  0.5327651478644622  0.1493851929017924
  0.4385050917083043  0.7047720296254090  0.8823269700987084
  0.9391252870607191  0.6573821421565694  0.1156795913117749
  0.1009659606995382  0.8409035249447520  1.0124921847828099
  0.3240768807221296  0.0201095289114042  0.9289802599243535
  0.3150279997228515  0.9187383987472103  0.9122661391455293
  0.3811528321330194  0.9329457149475980  0.0463151614620932
  0.8056475528543062  0.9365570271436081  0.4473998768922454
  0.4272358586384625  1.0168648401101010  0.9109331908187779
  0.7916358052930398  0.8135221540760330  0.2504253259927751
  0.7945221809489620  0.8466140383315620  0.1288048179283124
  0.8394621790081843  0.7342289391143100  0.2306086004000688
  0.7381880202688459  0.7332711536663260  0.4208967585735469
  0.4540047454081778  0.7817770876553473  0.0340734940150223
  0.8393009307041154  0.2253262672938252  0.7852613267604956
  0.6250385732198206  0.6666062389944601  0.0080886036026834
  0.8016332955266038  0.1772171156830715  0.7785725678210130
  0.2497038043882062  0.5620297097920184  0.1383955977261104
  0.8514796443906185  0.1800050125638354  0.7389255242377880
  0.2478164788368902  0.5460353174961112  0.1962918369926760
  0.8019589878965767  0.1446938847944611  0.6730788093844633
  0.3474051167530490  0.4537169930304750  0.1431816180807097
  0.8857912831054513  0.6271045544120287  0.1058719649434287
  0.7539798875658137  0.1050442562220652  0.6087443862153231
  0.2944820077258380  0.4217761524486838  0.1354522449140879
  0.9874819568147153  0.0577160847851273  0.0399901987514905
  0.8415701544550915  0.2575485516333020  0.8945548215822909
  0.6625166498152809  0.1073330409848347  0.5224471486925173
  0.5780521394171891  0.0109148301428246  0.5835194978275919
  0.9692705403359007  0.3507432605010647  0.9195271333882667
  0.3395950423681111  0.3450573880649315  0.1176154359627281
  0.0481338456291492  0.3027850517198045  0.9039771286767569
  0.7449053814279273  0.0200390963001800  0.7912143947052999
  0.7552925956478685  0.0083676333203499  0.8554039432042523
  0.3976702046097557  0.3459557688919809  0.0203647921845051
  0.8140675795907002 -0.0003612045276270  0.8762928769304577
  0.7835190335837695  0.3523743156897142  0.6882211019926924
  0.3460673006652846  0.4072595801570607  0.0999460772046649
  0.9342569994159399  0.5806581908815935  0.1930539347687656