B  Cr Ni
 1.0000000000000000
    38.7315947344316172    0.0000000000000000    0.0000000000000000
     0.0000000000000000   38.7315947344316172    0.0000000000000000
     0.0000000000000000    0.0000000000000000   38.7315947344316172
 B   Cr  Ni 
  50 1596 3725
Direct
  0.9208798799935837  0.0230529601826947  0.5611571158485046
  0.2216363972707012  0.0543668007827088  0.5317722451781109
  1.0071124530629882  0.5906556585780994  0.5685826644036450
  0.6847955055047059  0.1011479869613389  0.9754629512369459
  0.1745855063286127  0.6495859001091472  0.4757584864623559
  0.6747475999025142  0.8963056321926259  0.6577580903577885
  0.6529973120269600  0.7042809941178071  0.9848983859403405
  0.4017813697835759  0.1307115184569586  0.0902127555529114
  1.0020444363923011  0.8523992464100115  0.6603945583066044
  0.9375469627251918  0.0302781977640369  0.6937322066938193
  0.4297572665656675  0.8941970999842063  0.3303531728431068
  0.4728640428009567  0.6563133331952350  0.5140367270039063
  0.3172990671036101  0.7932233248739071  0.0356296058515964
  0.3835728213986323  0.3191951025537320  0.3711464999155421
  1.0000688914627338  0.6095418555056045  0.7656883567455381
  0.9871085946144361  0.4371918407076471  0.4727722800620369
  0.2539940391823271  0.8163510896123245  0.0774651028458379
  0.5025711326668654  0.9316589293579415  0.3450790985540957
  0.5643324609486609  0.8576974455562559  0.9417789136462810
  0.7387557766405726  0.8997063798344510  0.6128061862065279
  0.4302685017040616  0.9674302477519209  0.3825657264328159
  0.8489502128217521  0.6702349022811322  0.9575810390406627
  0.5341222779317094  0.0606848374293399  0.9909706669092758
  0.4284884952399979  0.1361830958367498  0.1249105406515827
  0.6181886301548807  0.0191470439453847  0.5758935852362224
  0.2197706717604926  0.1886179880872992  0.5974439953641196
  0.6888347902906701  0.8317570899821911  0.6073516279986335
  0.5793925405406773  0.9682276116821322  0.0541984896718649
  0.0539316056808444  0.1971264022758170  0.5957616099377905
  0.9417124769467893  0.7092019056328182  0.6120850307132603
  0.7254058826678091  0.8348973735798615  0.9422675495976476
  0.6343351189039826  0.7516081403707796  0.5403957390888757
  0.4139061034738361  0.8116265959721876  0.5294886134186921
  1.0411530319158997  0.8713971725409012  0.6537953389334104
  0.2412844680216434  0.1392426394567857  0.5407319946827903
  0.1039088687523945  0.9831053900029278  0.5910227997257805
  0.9981403786181096  0.7906004699142238  0.6015484617233807
  0.1641681498712382  0.9308453208558843  0.5855934857295417
  0.5135551550684584  0.7885498618022484  0.9499722125678894
  0.6101945429277298  0.4203715473181139  0.5220418129084131
  0.0144307501996134  0.9801664630042062  0.8973123284730316
  0.0282363859928897  0.8990271392458078  0.5801626156909147
  1.0071491936629642  0.7708752340328897  0.6791772269674065
  0.6005135279739823  0.4834394622006377  0.5690436842589118
  0.6946705223121223  0.2013533849691553  0.9488001126535668
  0.3616761875730812  0.2446581447082122  0.5200764335551570
  0.6186318684818397  0.1191731565094759  1.0238080649509527
  0.6391130848984573  0.0031846999390834  0.6160090933014933
  1.0044283831939897  0.9365314971742725  0.5859890836779608
  0.5779133343480818  0.7986824407687791  0.8966971788156345
  0.1771721442933175  0.9091120957105847  0.0555869322441671
  0.1345041529560618  0.7415115556971280  0.7691829944533943
  0.3950102147894350  0.7501688216642998  0.6370847238025296
  0.2268465061578548  0.6998905994355308  0.9781199506407392
  0.0808229242934295  0.6015087076129229  0.6884738498148014
  0.0472999478217598  0.6526137689103451  0.7003750390914684
  0.0897642891616066  0.5904580894520305  0.7498038610431440
  0.0440244167260493  0.6109504337228326  0.3356399333617289
  0.3369579403819987  0.6983514644283411  0.9584531132445556
  0.6680079588446447  0.9782728733937801  0.2368643472940299
  0.7906547727200631  0.7048348680707831  0.4454281522892657
  0.7930611728741525  0.7805788464222109  0.3718357100215641
  0.3747209978158922  0.7137267606884020  0.4711713733391008
  0.4262428612693373  0.7175434793849571  0.8200824275254206
  0.5989535473682008  0.8977336070980522  0.9596674548520210
  0.3614468654953457  0.9587062209198570  0.9804004317657987
  0.4642811570384104  0.7674936245287612  0.8237790028585538
  0.3649088970283110  0.7246580927904219  0.7970958780387146
  0.2942547876479875  0.7429361096250459  0.7138659617297549
  0.4802785811879233  0.8959203552652049  0.3005878292101883
  0.9892677340701245  0.5632991078715031  0.3878003687109502
  0.3035885522147767  0.8031149589670511  0.9847463004425492
  0.3492437268590016  0.6905116424489703  0.0205803986946749
  0.4809504621213531  0.8745800290760913  0.8102615751262222
  0.2224128163845709  0.8717912264098445  0.3791821018132722
  0.1978322379066902  0.6044235419878772  0.9296083615801555
  0.9077050051231652  0.8872996268747274  0.4381807728095573
  0.9526958643388220  0.8282938519413209  0.1302478384513158
  0.3636086903920539  0.5540218354262798  0.5708924492572756
  0.8467722887740682  0.4975236732308098  0.7414345396291409
  0.8276475684077266  0.0285273476992859  0.9843706752993457
  0.3501268578538519  0.4702316012507464  0.3092895217567557
  0.9819863370783642  0.6074037109820982  0.9702784748228611
  0.6958867511712217  0.2613747377928489  0.6189325726956164
  0.7353088422700990  0.3111565114924508  0.6203828357494886
  0.4855864879053212 -0.0402064586630915  0.6209888232379644
  0.6029188167741181  0.0430167452687361  0.4046394398660604
  0.5157204653670957  0.8047090287386126  0.8925114500072160
  0.9010769905691487  0.8267811750345662  0.2267324423724200
  0.5059478429730409  0.8478811548128544  0.9367741241928531
  0.2546443402145353  0.7612159579201461  0.9198944072331122
  0.4596354139607636  0.9307266109182982  0.7909633214944620
  0.2826415703105131  0.8238209942851039  0.8621051414539096
  0.4311930275769675  0.8352017129229720  0.7441041845305217
  0.7426842312878732  0.7813087221250742  0.4668108754828850
  0.8335284762246868  0.5779506049473053  0.3854571831388467
  0.9568829437300999  0.2382644140538631  0.9319476746957653
  0.6344766241840666  0.0218102190835139  0.8120008286555448
  0.4569365452050945  0.6779851563419300  1.0029101773669435
  0.3868216604474546  1.0040179996229461  0.0192655736505531
  0.8897805247244776  0.2425908205376137  0.0003955937000528
  0.0751629027090170  0.2972715314998304  0.6280834489733467
  0.6091116159906041  0.8580140999729913  0.1368664194120590
  0.3901184585255498  0.9833880502599747  0.8123052690247454
  0.6351149263023446  0.8002804196406860  0.1455442313395806
  0.1009226435985210  0.3906986999318115  0.6758306632700505
  0.8754153204898967  0.3518852007591292  0.0061465026555959
  0.6894459614973371  0.8307224408697139  0.1541981157282015
  1.0180202747049996  0.8663361568817773  0.5373591112198918
  0.6815884519264983  0.6568256991851275  0.3662156013780691
  0.3550101665290478  0.7029424622233770  0.6311295754809326
  0.2552917890827381  0.7276367153477492  0.8149808286318706
  0.9916139693644698  0.5374364255704722  0.5654078658402671
  0.6264695532468043  0.6422055709137270  0.2945553698338440
  0.3673030503878906  0.6905827748054605  0.6910434161877330
  0.0534056856372316  0.6216481552855518  0.5697938497079476
  0.1287515292397873  0.4542100287962832  0.6230434784703651
  0.2406037586763003  0.9370842746139182  0.8261034616071167
  0.9829300901714358  0.4684185977255113  0.0717818307699091
  0.3145263166998301  0.0202510058041750  0.9321415278189749
  0.6632726024141630  0.9503361017514123  0.1294641003954004
  0.9411806301155613  0.1695061381031702  0.9354750968270068
  0.6189148908661475  0.0415886047885895  0.0859699056358854
  0.2061883998267421  0.6851372219347729  0.1991502862252179
  0.8034531080622831  0.1992092309551179  0.9457870627490640
  0.0168896434599269  0.9315365568257823  0.2891122281912441
  0.7834700976247835  0.0683637890337079  0.7957011828894852
  0.1115649230158493  0.8548500022611670  0.1741166159490967
  0.6643006396358978  0.0477635865256153  0.6472473358851732
  0.7136707393743039  0.0874389845950746  0.7112350962146172
  0.6590495306377494  0.0520401954501665  0.5888750824521178
  0.9401736864497651  0.2109223559344297  0.9816873061840241
  0.4986123529516324  0.7634323904690810  0.0023683705668562
  0.3272563214741634  0.6746111342891713  0.7931642496172383
  0.8785655345094883  0.5006896288067413  0.3685874921945893
  0.9899820058556720  0.6096778656634246  0.2029804773147528
  0.1005091007236884  0.6716601444258657  0.2235006436337850
  0.8837331552742225  0.5273149029065806  0.4792857928382606
  0.2668340788315530  0.6492075371811501  0.4534133021748989
  0.9283025914944799  0.4864127489909578  0.3340782196380495
  0.5297349707027200  0.9132754845204978  0.8744470444061146
  0.9226643432827405  0.4088946972050627  0.4158756935085404
  0.4227043371366799  0.1670834997457973  0.4413099749383405
  0.5652329066871489  0.4733749816866256  0.6573530506563404
  0.5905839647309017  0.8710033625240519  0.7904895375229835
  0.3459665752988757  0.9963069490636169  0.0691826334953738
  0.8434440025414993  0.1022754730743348  0.9167358545874428
  0.7456974464704021  0.0196110921974819  0.7926262299153749
  0.1554816178735823  0.2649673912356935  0.7733755312041274
  0.2165945297717689  0.2578437019268435  0.7951206870210233
  0.4526308537909206  0.9681912977516948  0.2305637032941538
  0.1182604782992633  0.2144757223755500  0.7681391168791327
  0.5337993213306950  0.8763078639528293  0.2598475370130539
  0.1903670782372598  0.1610699028542167  0.7454086770204628
  0.8381063382838962  0.7197958441056488  0.0635218588992425
  0.1679544097278132  0.2537349355239576  0.8345909911043001
  0.0579499160420530  0.2208603012426273  0.7478388351745846
  1.0035556610105560  0.1932766051369122  0.1764796870719839
  0.8910205713289693  0.1162436592639575  0.2143212894182853
  0.9224011409619981  0.1270438399701158  0.7170457274593399
  0.9384405826862987  0.5615862585093068  0.0247971731129527
  0.0432947360544941  0.1123864375876208  0.7589499481744901
  0.8605331225063260  0.9655547716296504  0.4565287292787634
  0.8628293570762304  0.9805436217539369  0.3958691076546711
  0.9633133751131467  0.9025053307672918  0.5103037586760203
  0.1791247810231044  0.9802459991304765  0.5059525081101024
  0.1500141649498671  0.8132199043989785  0.6522727597267455
  0.1408775744495669  0.1905798312382741  0.8890355678829061
  0.2643275729908245  0.2961189048913167  0.8630324658739971
  0.2430628122352995  0.3096630568101466  0.9687675694416533
  0.1969063109328751  0.6558052343202959  0.0331843145516772
  0.4595473091702024  0.8970756166305310  0.6839715835184017
  0.9039474223694425  0.7958418596403908  0.5742427347531527
  0.9208907523333730  0.3934807335516955  0.2478669539703136
  0.9496944511079207  0.7174970163089510  0.3289572849496780
  0.9123050605433137  0.3331403825913544  0.2676904390703172
  0.9605137928374773  0.3031904721083206  0.2965066724399566
  0.9562642020945772  0.2562696330261647  0.2528187414619528
  0.8950683638272940  0.7480778831682475  0.3032972388386956
  0.0163636467457809  0.8471001166890778  0.6053388474634429
  0.5482591732478792  0.9840194721005208  0.7515603730885975
  0.5034328616820676  0.0487060603833471  0.7036865323188657
  0.7279901020356413  0.5950927089431717  0.2870351717043949
  0.1142140703342215  0.0968037590844460  0.8428703865902210
  0.1740202765697885  0.0552108728084139  0.7582283867692807
  1.0147872890763430  0.9876584126784813  0.5691463740615810
  0.1825610997337743  0.8762021108315361  0.5910508157226624
  0.0062164118532965  0.9059028453672248  0.6315889880275443
  0.8698717260562635  0.8242810563520798  0.6684596132902545
  0.2951173448495694  0.3889398401771949  0.0293658894985931
  0.0648913800565783  0.5273069438307557  0.8070383847435024
  0.8213043624256883  0.4537131597208636  0.1924242602944974
  0.8199731959159265  0.4380851173459991  0.2537318831993448
  0.1753999668047204  0.9194913424314861  0.5302955845815284
  0.7876034838334952  0.7366017821223844  0.0985766594347419
  0.2529892549587956  0.5924117366985676  0.6926532303981873
  0.2138285841055347  0.7777129077440164  0.2894760321773607
  0.2918308119422903  0.6087864981357174  0.5880952720076111
  0.0443628022752595  0.3004862000591276  0.8962018132981857
  0.6991915332179687  0.9199139918385401  0.4758645626157532
  0.1547515226234484  0.5956719107016131  0.4914111272037581
  0.3200987077026628  0.8748871060617374  0.8690834930700592
  0.4981741075479276  0.8250529496211957  0.9912402501918191
  0.0565021673182307  0.6399567360802951  0.7628877521261528
  0.8448711835780417  0.7477045021193524  0.4000928401059637
  0.1461668318812832  0.6640810144409209  0.6220962550965274
  0.0668690972179234  0.7308474643079904  0.5860210412148353
  0.5026715014093444  0.9645899669824523  0.1319183878624973
  0.4464061065165530  0.9364053921058672  0.1258393187220779
  0.2956495789743230  0.5107248378183695  0.8347007534551419
  0.4350471672742101  0.9422003383364121  0.0652330313991407
  0.3237368143878198  0.5735022893674440  0.7763874322426577
  0.3496019621439024  0.9345648401239365  0.8090869690785192
  0.2247785490164475  0.5292718360555926  0.7509661695440958
  0.7460641663401821  0.8271561058701932  0.5146381432266721
  0.9555168811424903  0.5940704543966787  0.5420288682873206
  0.6435613296725476  0.2549353810442451  0.1402527745649058
  0.3000771205951930  0.4843556522612395  0.1152558658783392
  0.7607225905283282  0.4061978598774075  0.6740071610736749
  0.8160560942681966  0.0004435283533145  0.8765338940993616
  0.3989891875340322  0.3464691470979285  0.0191376663632828
  0.8677239100358293  0.0057127367711615  0.8336247324678908
  0.3106683932230631  0.9189312216909874  0.9138052800624591
  0.3408663077042076  0.3460645189490660  0.1162239598314282
  0.9708158681297998  0.3490127486484849  0.9202845218011267
  0.6506885406906847  0.0421416320864695  0.5331810315774467
  0.6625415079892020  0.1080886214686118  0.5189168461577037
  0.8384751272863408  0.2586003336742232  0.8952897929986252
  0.1855489380046577  0.3589539028276650  0.1166486861373187
  0.8094733771415685  0.1066114557066513  0.5737362367299131
  0.4035253158096210  0.4864596019517834  0.1522067809148361
  0.8012385535436046  0.1412332201492729  0.6734945125164850
  0.2497746094996220  0.5468576793364620  0.1968143976355949
  0.8878084423437811  0.2300961507909209  0.7468719663551753
  0.2555732731162962  0.6258690607272216  0.1196778770036825
  0.8008938235131144  0.1758325014324714  0.7791016728031992
  0.6278069779658185  0.6607002360503167  0.0103161018088342
  0.8393062988850530  0.2246063300846794  0.7861231585309715
  0.4473193412455557  0.7905865515397341  0.0188715475446998
  0.6403786272501183  0.8435478954767855  0.4180689962287081
  0.8415510368206737  0.7334400926320688  0.2315787415253233
  0.7963702732415332  0.8462248112826504  0.1292904876947097
  0.7936630101299953  0.8124331696387592  0.2506613299264905
  0.4258795743708443  1.0172763744224582  0.9116608029106953
  0.7528829290347999  0.9511334077134984  0.4822165452756468
  0.3892152743765561  0.8899194937143400  0.0601657353642196
  0.9565480664062311  0.5291356796006010  0.8262365749165904
  0.0528807807424028  0.7493282308328154  0.2440196335838103
  0.5606636770349304  0.8313951368157466  0.1132032405241068
  0.8535978422243706  0.3314859331970496  0.7730754081940062
  0.7438192392567529  0.3340498246247732  0.7914161906128345
  0.6447726420623332  0.2908696837430233  0.7645178245426304
  0.2247159038721455  0.9055194707095896  0.4876318896903896
  0.6343947258045679  0.3027828088145389  0.7037783309376383
  0.5859382410268672  0.2640450983731707  0.6367845445836586
  0.8690252254601530  0.0740553557021611  0.4833589662108602
  0.6901961106691595  0.2757368672255687  0.5598901660833558
  0.5748109384991199  0.2757449813127792  0.5747477112849254
  0.5655506944203483  0.5063611418535088  0.4812225775197635
  0.8829957448760961  0.5618965386532326  0.9447143228937850
  0.5433629493286180  0.3970445498649985  0.4604743999923405
  0.9149234232565139  0.5128786194736247  0.9263047644329606
  0.8579833335959564  0.5182432885347829  0.9063525037132716
  0.8187292810518297  0.1042782506928403  0.4585773060628547
  0.6985612416670548  0.3320563692120587  0.4245515453612217
  0.8960463976794075  0.6912327877610938  0.5437697237623149
  0.9528569351637013  0.7647884615539889  0.7050856031930762
  0.7787184583510517  0.5165467745707917  0.4983366715430954
  0.6110633795864114  0.3321168182450288  0.5140614066914926
  0.9759360029813874  0.7729795392923133  0.9336084563267601
  0.4684262892459293  0.6249213907116015  0.4148600074476366
  0.8216244528979980  0.1653738241924509  0.4440263539781749
  0.5645957844623193  0.5186148762454339  0.4231462634003446
  0.5136004479930715  0.5497325349713368  0.3964620848470706
  0.5678849125748824  0.5652668504007569  0.4676165752904606
  0.8244798229967168  0.6188037347688435  0.6411294350747251
  0.3275996541375393  0.8715651034379192  0.4161628992456914
  0.8113183571085633  0.5648833263006265  0.6646820575973611
  0.5893224727355288  0.3193461057622381  0.4519146777172960
  0.6388268887436304  0.2572370018652318  0.3696439659225149
  0.8655502291302197  0.7066835526136765  0.7459001238024155
  0.6852639968802628  0.1788014916989135  0.3519897202400144
  0.8623396035878476  0.6763580915297234  0.6435165963144281
  0.9677251344077391  0.5735539303394457  0.6048056527446921
  0.8134744855037408  0.0285956997011745  0.3085610941426859
  0.7651109516654080  0.0904838219315547  0.3877260306146125
  0.7616726492899107  0.0441987604415187  0.3431007186165477
  0.6103610953480364  0.4415287002290358  0.4067013623417530
  0.6930950209110590  0.2727815163125343  0.4427540835599752
  0.7433869774395859  0.2563614896691820  0.4078129735384323
  0.7922105712227178  0.2233850517159333  0.4345548564032279
  0.3594085833225745  0.5949798343519216  0.2748697067136266
  0.9015800504161647  0.3695757929078179  0.8389619124952322
  0.4099417887321922  0.5637151191669816  0.3008997106649494
  0.8043712315715337  0.3267566788948588  0.8138899766791174
  0.3597383685228119  0.5788846890891638  0.3353814805229095
  0.7074391087329990  0.2500315990575552  0.6788154459572230
  0.9123017568023850  0.6247142612602975  0.8856411237123568
  0.9919260758158365  0.3943329321645160  0.6952760056416136
  0.0345417211349668  0.1920824754743319  0.9070633070162643
  0.8518744759702377  0.3644292379836132  0.8795867483752242
  0.7200044842353762  0.2045682456163438  0.6301193633220088
  0.6532533147843429  0.2195701563621689  0.5524950886797493
  0.6700676375676760  0.1619014336678497  0.5670452496523155
  0.4520632673512728  0.4261139298882628  0.2996873281114644
  0.5466817033038018  0.3334477731193629  0.2508284642553865
  0.9873038488938634  0.4598004646882413  0.9061215007172556
  0.9285984627464756  0.4667254873946365  0.8837957654253473
  0.9778055739568775  0.4721930084151679  0.8438698310039602
  0.4909157416327540  0.3025919380210231  0.2429419568341099
  0.7292415436624070  0.1944629270340143  0.6951467570384317
  0.6584863372369901  0.2113717279202845  0.6132915994908910
  0.9096244496115869  0.3560247175021444  0.9004042344234804
  0.3162966712274553  0.7001590249316935  0.4028444050166824
  0.0466010714359285  0.4515873217300025  0.9269805690577153
  0.7718372480152050  0.3949044253650521  0.7334752009794100
  0.7390012307073975  0.1941388833427130  0.4235915469441264
  0.7238120858566679  0.3568474522092875  0.6668852161918265
  0.6016704852326984  0.3710903977472073  0.6240192266882605
  0.7133620547717980  0.3684085583132011  0.6048624996180317
  0.3470780581786201  0.6512457984000769  0.9170668450591631
  0.7110505100821960  0.8912065596688956  0.0429836497244116
  0.9183065545597316  0.0128513416150076  0.4025961445699815
  0.9329491193640537  0.5693187372623050  0.9028090669284587
  0.3258950446306441  0.8576099584399359  0.4743818348523018
  0.8571422397799623  0.4853287550679860  0.8017985571634579
  0.2732621011412708  0.8224144270546505  0.4708790999563333
  0.3676999924108328  0.6862190452226191  0.3653445425946917
  0.8683762487165934  0.4729825639791266  0.8630541851758788
  0.6189294404344677  0.1947023905549072  0.7160742979999509
  0.2697856481173186  0.7936379793180561  0.3623169069930352
  0.5918089272138833  0.1015260739464185  0.6673958408368149
  0.6207651891684411  0.1604405126081306  0.6074685547654569
  0.2140280354902154  0.7625774708069213  0.3486619139925580
  0.6926255375938379  0.1097049679182593  0.5860749285583527
  0.5237781311258436  0.0779465849102950  0.5375058112884058
  0.6672333352145963  0.4380638625833212  0.5354378794440650
  0.7487743238010159  0.2665759077651250  0.5766790259312620
  0.6291698611641796  0.4327908966032536  0.5733124557046156
  0.7864198591423289  0.5038527826786391  0.7195616245243431
  0.9239083244544553  0.3131081784378879  0.8563289921279601
  0.3863406897740975  0.2694510966371846  0.1011512226253129
  0.8933779985850310  0.3497357888369634  0.6698885022157561
  0.9499233156114311  0.4302045739611688  0.5113254668214817
  0.2508037606772319  0.4657316190164792  0.0505650225511853
  0.8736896425194337 -0.0519749201377455  0.9757634784054429
  0.1078714098368774  0.2762567706991884  0.9798697190312423
  0.9960669411104615  0.1934297170400702  0.9472759897029501
  0.7776255210568011  0.1662253009662958  0.5441639669361037
  0.8738783865090154  0.1804291475429211  0.5184951795098741
  0.9243722009402637  0.1020622110776000  0.9494717529978743
  0.8735015364687120  0.1229015604605687  0.7564665298812894
  0.9047240507818890  0.0535738525963768  0.8386763508421006
  0.3611342548246745  0.1665784176857695  0.0776237001957241
  0.4091755093325901  0.1108740169972841 -0.0033961659480213
  0.4628776049713417  0.1096898817934525  0.0201885876644016
  0.0005482335205779  0.8136724642686913  0.0964171501850482
  0.7850663190924435  0.0331945604819761  0.6902415501563031
  0.0478983831949896  0.7332659015972279  0.0759854759804724
  0.9366245284049740  0.2680316141543063  0.8117284368083675
  0.3431068882443702  0.2497688989685594  0.0229433768147931
  0.9703139025415380  0.1649406887130903  0.7823230605360130
  0.1663620524668492  0.7073737041204118  0.9533716828244957
  0.5365607816486095  0.2405271109460614  0.1650063965553885
 -0.0030877145175981  0.5617392077294180  0.9291360875878607
  0.0715463427682382  0.9474771216560680  0.3605050740639425
  0.9448492671779298  0.5096420790064664  0.6606205667019082
  0.9189316506778165  0.4447767412756352  0.7189443020859754
  0.0599567197941036  0.8404176670898176  0.3346158886586271
  0.8708655186548809  0.4058852763025720  0.6518526861769057
  0.8601872022689812  0.4177061156459155  0.5928503379065675
  0.8343038826445353  0.1065845734463047  0.8587149700894449
  0.6944440379079196  0.3199190958107430  0.4925480085002514
  0.9850367444694674  0.5042036501952969  0.4026022864460289
  0.8700626093771984  0.4070471557961166  0.2809270069640336
  0.8462954502391670  0.5851287316196169  0.5594748484445311
  0.3046550805638119  0.5795169028933256  0.2048576455184140
  0.8855189756740228  0.4965117974338970  0.5369699961475147
 -0.0124997450919647  0.6626215326048367  0.6760327292175518
  0.9325116877193941  0.5390313084231166  0.5438974603934549
  0.3977503203997843  0.4094811580508074  0.2298111255227152
 -0.0368578700143007  0.7328902220243247  0.6634351423617015
  0.4454719216447266  0.3465106405093322  0.1515769335356782
  0.9507025993623360  0.7322603471112084  0.4957201325352443
  0.2098445709055154  0.7170729171149760  0.3040999248476718
  0.9340129182695098  0.1153206114149839  0.7789273965810912
  0.8621655766866757  0.1333592750163908  0.6941229041454100
  0.8240144262830665  0.0849455298704036  0.6930055405601837
  0.9413660387351681  0.3878629375363901  0.7353496736499431
  0.9637485128760669  0.3311109278170200  0.7536181586009894
  0.8654988802153657  0.2857183712956030  0.7284434124698055
  0.5074762079967144  0.0429608512682222  0.0417489645918118
  0.9151110877995398  0.2916671025441532  0.6874221626434731
  0.8176069215540038  0.2484519888203992  0.6612701471900942
  0.8455068921146249  0.3113801669285859  0.6030636951967140
  0.8372603013021604  0.6585092307819075  0.0761769580893445
  0.9895676599742471  0.4255577367343446  0.8005447547679160
  0.7868468979747455  0.4705000301770662  0.6158101023619231
  0.1933083101215083  0.4831394435106002  0.0846662627663939
  0.7611032112881185  0.0578699840714479  0.5083723923799967
  0.9434553361180761  0.3551620635465822  0.6269840795284291
  0.1522786984790309  0.6703660911348758  0.1274857106336013
  0.9323728056363205  0.3702809054557679  0.5643843644567212
  0.7825950380409283  0.3241346683190321  0.5174333128639910
  0.8600626384238866  0.2681657435701244  0.5600293283292036
  0.5740142804401075  0.1026696098506095  0.1676698179962872
  0.9293113217095065  0.4331988132804308  0.7797168866427187
  0.4896127901524379  0.3723163135699445  0.4688499842498152
  0.9796585621352829  0.4385286012935874  0.7394297582532614
  0.9991446269878836  0.4160754783058813  0.8617086625414325
  0.7113145105220380  0.1393761067997416  0.5272609228207549
  0.6182265090540594  0.0259910787294205  0.1483751245981605
  0.2046276408587272  0.4894145974304229  0.0298268256464260
  0.7515021652779760 -0.0060929468344491  0.5885072357471579
  0.1881184712876797  0.4330295185304552  0.0339124254087420
  0.2446456317145656  0.3622968197710431  0.0154368507053884
  0.9363520693583051  0.2349091865203016  0.7054663821347374
  0.6598832408521677  0.1218859667304987  0.4583753094770069
  0.7130247685058353  0.1052747992258695  0.4222035423590513
  0.8150892710583950  0.0964281709115444  0.6322820144138365
  0.9346327720716922  0.1477172440170641  0.8833665633792647
  0.9955741817277497  0.6882438982058944  0.1262316970547444
  0.1464449004152553  0.5646922728453346  0.0993455024689931
  0.4387452854629151  0.2475738613628133  0.0634829739628845
  0.9346422905459189  0.5221871467848911  0.6020999926809709
  0.8778022781567333  0.2417244273194181  0.6829599741376414
  0.4107444052261042  0.1557435288579900  0.0388451856401821
  0.8998952584940603  0.1839804572847850  0.6993167363600208
  0.5194675118321330  0.0990881492583948  0.0372041237649042
  0.8310706098674586  0.2033639668162600  0.6158420604782903
  0.4224185589975848  0.1820820404782543  0.0944946842659628
  0.7116817218088385  0.2162464988103278  0.5686500585902042
  0.5686840421464635  0.0755165204349882  0.0603435258778490
  0.7754862054565990  0.4836348442615387  0.5588022666122474
  0.8794193928898336  0.5158358659963933  0.3067872326496262
  0.5587294637498803  0.9097161688554716  0.6010573461929845
  0.5096259623692684  0.9361342839112119  0.7494120491787463
  0.8917717493046604  0.7517886882252431  0.0757489925298233
  0.8868983332167590  0.0870020111434020  0.1067220588226180
  0.1915247038795606  0.9310559573130195  0.8650941055335216
  0.3082083591126691  0.5070417525308516  0.5090441684776392
  0.7664250933483552  0.9186645474346909  0.0602821469645644
  0.9484045639850045  0.1767420574999296  0.1035960081184472
  0.3670198473713263  0.7326694736557889  0.1833870149200963
  0.1024520607114424  0.8771472564744894  0.8993428874443973
  0.4152119005928245  0.7822567440384099  0.1254894037761491
  0.1528349012811937  0.2280182583259957  0.9914540408352547
  0.6314103009415249  0.7380396554188683  0.1574376507712896
  0.9042783502465650  0.8727989229279554  0.2699503898510950
  0.1197541248965372  0.1807372331269763  0.6632825690722186
  0.9984674855700728  0.7181044296843748  0.2321380170284399
  0.1152191506193475  0.8675482958478498  0.9597440127996535
  0.8348743412159694  0.5084918725111749  0.6827863129358822
  0.6926526413137475  0.7009226671692296  0.5828508192033370
  0.2210030565538044  0.8571089315988391  0.4416088507777066
  0.7306359266453789  0.0865804241594787  0.1689346658690727
  0.8120261224141899  0.0915022131707965 -0.0312725721356052
  0.5275565215207297  0.1651594865035934  0.2469939286900069
  0.5273921106286837  0.7350328222106306  0.1230195746816098
  0.8919677991521053  0.6390240660324035  0.4983141600928963
  0.2052905788956527  0.6885576376810464  0.7492445782910124
  0.8353046641120065  0.6413796064738929  0.1393720142140543
  0.4363271531886959  0.7055730641078051  0.8793615217767463
  0.9328818238702439  0.5322341421022749  0.1495533042452785
  0.0220326492569459  0.7097350235505556  0.6819663389829529
  0.0546891896121839  0.7256162855627720  0.5327349314872943
  0.3880185064741449  0.6679734249799218  0.8148702062039719
  0.4511790403898527  0.8385599051474611  0.0565034254977615
  0.7350487215846326  0.7042453609394500  0.3152798802525708
  0.6300486547731734  0.9549779806392903  0.9005846153576621
  0.9110319590596161  0.9357715080476651  0.2558170346806553
  0.6117663255010151  0.9828103304004260  0.1028177925061914
  0.9577654172812023  0.2706108366149047  0.1919594185106682
  0.9897661071937047  0.0564385426640800  0.0367660220381782
  0.2887530485443409 -0.0036771926950112  0.4792122422652190
  0.7095821217370407  0.8458628799087038 -0.0039084761437772
  0.0645477463600200  0.0568845327155887  0.7766247245482920
  0.1959589135921527  0.5647488524931392  0.5711623798336567
  0.5142484895311167  0.0406255936090738  0.2833834659241916
  0.8654927361450558  0.3623552646109535  0.2388701846905733
  0.1280603365116024  0.8827167899997572  0.5718984700598498
  0.0931219003399662  0.1508431116337919  0.8262698751918816
  0.9195034646192434  0.3624428629626546  0.1407220445451396
  0.3506026227861512  0.6184321797040282  0.8121474771278320
  0.7850958982763303  0.6571998456987646  0.1743357802854351
  0.0285707575963154  0.4433122702829780  0.6993237423992590
  0.1027650670252740  0.8432433443267532  0.7954099769562594