B  Cr Ni
 1.0000000000000000
    38.7315947344316172    0.0000000000000000    0.0000000000000000
     0.0000000000000000   38.7315947344316172    0.0000000000000000
     0.0000000000000000    0.0000000000000000   38.7315947344316172
 B   Cr  Ni 
  50 1596 3725
Direct
  0.0929347365209198  0.0281723360371081  0.5553005803417649
  0.9544616835819193 -0.0024675835719309  0.8154843625406352
  0.0081518846487810  0.5898489992010369  0.5685167900072433
  0.3723441527300687  0.6567718509729967  0.4749989965613906
  0.1759185119776911  0.6540512933061152  0.4751721693918897
  0.5384283423284828 -0.0282947190855102  1.0142107568730487
  0.9879279107768413  0.5900964934348386  0.7002019960634275
  0.1620263824442182  0.9291836286229748  0.5857266576173035
  0.1256219020055432  0.7761093130238285  0.5295403105114459
  0.0205268249725111  0.8714396389859012  0.6541733959303043
  0.4304393173827519  0.8936810538416319  0.3306031633232153
  0.6851915638482829  0.0461139572629690  0.9245235614900108
  0.5849783212706803  0.1923055643207110  0.0392079808925491
  0.3884188702226152  0.3654709296485517  0.4118596351274247
  0.0682777015007281  0.7738553993424162  0.6352266902979855
 -0.0132409969630746  0.4372782016254245  0.4743566383370618
  0.2494623946411578  0.8269841137671912  0.0690345725117472
  0.5033005164431560  0.9322733335997870  0.3434248163354481
  0.5176060569806767  0.7892214365913334  0.9506341174809045
  0.6894455611324579  0.8319402315936592  0.6063185096756983
  0.4319219625656932  0.9634540682640291  0.3840311547838401
  0.1639796455101495  0.8546276860667373  0.9678871656664342
  0.6332338566304756  0.7523968137655718  0.5417492162744438
  0.9551135619732921  0.9307397517385029  0.6119418416359022
  0.6749400419563828  0.8960655366750189  0.6578530573080722
  0.7384185883284370  0.9018405375050859  0.6122089797357079
  0.2208572279045999  0.1887432578263196  0.5968795286725190
  1.0130577814504258  0.0894529974012793  0.9171350123543210
  0.0531619348744921  0.1964389782107575  0.5955967105700485
  0.6713619614089124  0.9490665125998869  0.5561966689792569
  0.8888942265181807  0.8321769500260729  0.9493900747558854
  0.5314705579612895  0.8560248054010933  0.5376124154639339
  1.0067800426643829  0.7707440004488854  0.6804343739965052
  0.4749600899386893  0.6571712980534138  0.5130609177331377
  0.2468928451078845  0.1308138358663930  0.5269462931257396
  0.1102032613873411  0.0695494580025560  0.9565696165831582
  0.9952857024764872  0.7898086062818088  0.5983192042399114
  0.9346111982098524  0.7733752921317693  0.6561827895596180
  0.5678615241211896  0.9729095723400796  0.0476323058258445
  0.6100067952933437  0.4223857841700576  0.5214327076140981
  0.0166287827114729 -0.0195438537069639  0.9019863338785448
  0.0261957685651875  0.8958710830170250  0.5767055479221894
  0.0235445508252555  0.7088453330456314  0.6196136203843889
  0.7113051465390450  0.5248727344501108  0.5862139916499005
  0.6798919765168552  0.1062746124141096 -0.0203666538467309
  0.3616100928130330  0.2454981395940000  0.5203013491022324
  0.5694599448409029  0.2696178553431037  0.9619877148213840
  0.6318739672407023  1.0035405198019172  0.6190351626740261
  1.0660416362957366  0.0453206633834966  0.5896624257352409
  0.7266997798550010  0.8348216864599607  0.9412929028919583
  0.0923827620039537  0.5893264354873198  0.7507852163633609
  0.0319620072353076  0.5968422640411306  0.7325978110147631
  0.0808733367674404  0.6008854247500157  0.6905854305365403
  0.8386349168786281  0.2250412993825539  0.7838864027445906
  0.4452423817136437  0.7576394019415247  0.5979112343453195
  0.1348803377064382  0.7414396285564977  0.7698718885956958
  0.1767848056240590  0.9122246736388411  0.0589184748134994
  0.6287247564178450  0.6626657410329558  0.0105146120490657
  0.8003237112458094  0.1759854374634298  0.7786464772235622
  0.3747440992108765  0.7141067904218750  0.4724857639641221
  0.4258707850739413  0.7172904933984963  0.8200527027068449
  0.5979330746766068  0.8975094504833804  0.9574596693248277
  0.3613067751608233  0.9576145763885475  0.9809990603436389
  0.4637342402914535  0.7670367606369318  0.8239157188430268
  0.4153000024250860  0.7277407064131689  0.7601798116947310
  0.2944226423672029  0.7427629974453880  0.7148726660424454
  0.6679558952092457  0.9795053614321462  0.2361160534629412
  0.7899814444347779  0.7049082599919843  0.4452917671896429
  0.7923700500221335  0.7813010315050444  0.3716279598989475
  0.8880846013796334  0.2293373168426635  0.7442635590315743
  0.2549377808614589  0.6255722217796305  0.1200229301234189
  0.9586662158171295  0.2377815399103695  0.9318527131603046
  0.8383833613270900  0.9605854347100971  0.7948666936093383
  0.4812039843615241  0.8739402524079241  0.8105374852594427
  0.2496248315154691  0.5469163245421704  0.1973243100114891
  0.8013296515690429  0.1416406727627549  0.6724969679645517
  0.4039326152745244  0.4865310588479178  0.1530993538410022
  0.8068991340607098  0.1096978323352208  0.5700656308627153
  0.1858374618206813  0.3588706625232795  0.1168489584048333
  0.8397108091111792  0.2575743152624447  0.8930246066963132
  0.6633992951230602  0.1086228757910575  0.5196312994400357
  0.6507781301035419  0.0423664639575299  0.5321806813809256
  0.9713762122744070  0.3490742936245972  0.9210192408521444
  0.3411625276829778  0.3463405460026208  0.1169741975669272
  0.0559025846259135  0.2543942964490075  0.8505404728548509
  0.7443494952249875  0.0200109725812332  0.7906271205020378
  0.6039296922780403  0.0442148943097634  0.4044627298323034
  0.5157154639055421  0.8046628077763235  0.8926763774246587
  0.9004353651749392  0.8276507187442276  0.2261933346420710
  0.5101317361018961  0.8459750737227435  0.9374485764397500
  0.2558505544452082  0.7599448075899901  0.9210244419407768
  0.4596885425811563  0.9301671666269637  0.7907423267745574
  0.2834474690612306  0.8234990305530906  0.8636376569847414
  0.4308232165639098  0.8347646947153644  0.7441372147192363
  0.7456087946079080  0.8437647162299995  0.4541844005783274
  0.3071736757245096  0.7963181158975989  0.9950030343856190
  0.8323037467245855  0.5786749045833436  0.3849834369676718
  0.9279021983165633  0.4869445809018760  0.3337606081348713
  0.8141955325063852  0.0005509511104062  0.8747410135122839
  0.3000986950432865  0.4838025449831809  0.1172438989361219
  0.9362501753727784  0.5793189821760969  0.1937717212080801
  0.8519526950419827  0.2561403042868116  0.2156189320108030
  0.8720490453213933  0.5604381994035300  0.6838733489562243
  0.6920828157013669  0.7007687781038504  0.5835744842306586
  0.2212447239967677  0.8569942059940293  0.4421874167630692
  0.7307965412650095  0.0881933989943795  0.1678065033657846
  0.7799107830027184  0.0597782617140580 -0.0424364287530076
  0.5770215571102297  0.1350645720185142  0.2739913970288656
  0.5261070557143247  0.7354570056193300  0.1222732149544082
  0.8912118024950215  0.6389847316601915  0.4974192309546878
  0.2058083168098557  0.6877299203702858  0.7498033823830038
  0.8347439811341492  0.6421524515914886  0.1390463188670544
  0.4361750732034109  0.7050251491845437  0.8795893088761428
  0.9838919368135005  0.5019587356592191  0.1763573316547583
  0.0225395120738215  0.7100062014111698  0.6821414190725488
  0.0495900704245332  0.7248295102871766  0.5323189528858105
  0.3875016551840593  0.6664326932460595  0.8154420081605073
  0.4510377922586589  0.8380061618936900  0.0573418550297888
  0.7345168027144732  0.7049514995513224  0.3152629101100001
  0.6311444707320106  0.9558539490401550  0.9005752950279888
  0.7607743492762109  0.4058342015230859  0.6739625822608015
  0.5697418562457766  0.7999909415922355  0.9264239340132648
  0.9218807985665979  0.4084001941019059  0.4159573735304653
  0.2666987539806077  0.6497386257365620  0.4533752328099433
  0.4229261193286463  0.1656954708560867  0.4421866286650944
  0.5658006260071394  0.4745483891681247  0.6565966007654847
  0.5902611277802998  0.8708210760125984  0.7908595685105336
  0.2060304220927254  0.6850170596202985  0.1992561750232547
  0.6833014282141276  0.0261528915809669  0.7705201906327704
  0.9113150310910360  0.2039584905036567  0.8721460257157897
  0.6746145584984663  0.0739398003989589  0.0957425901751808
  0.7528018875127844  0.2021095252947434  0.9204884620620264
  0.0162895304111859  0.9315148424824220  0.2886458473411526
  0.7823476146635218  0.0685316101897303  0.7935639653135256
  0.1119382209276749  0.8554248571864390  0.1737777263757705
  0.6632285946980326  0.0472016932607571  0.6449810343256713
  0.7127570206464627  0.0880948457779590  0.7096171845878487
  0.6532351448229335  0.0483977890272039  0.5880757465684890
  0.9364646794433309  0.2121862348172535  0.9830560032274533
  0.5120190659788849  0.7477757762113979  0.0648539662104545
  0.3277496362386954  0.6743059374279646  0.7939176124587430
  0.8777471574858394  0.5005927863417927  0.3686437233126879
  0.9898971140961528  0.6099453819690993  0.2030821649588832
  0.0999587626058028  0.6716286735343130  0.2227882570661098
  0.8831400634276259  0.5275414852147555  0.4781813276254290
  0.3995614853691021  0.3461221246656355  0.0197019241152172
  0.9812557521716687  0.4422296344611741  0.4195203111664944
  0.9100282321619243  0.9368961863760378  0.2549478691347354
  0.1783350042399474  0.2066285970067030  0.7896146678714547
  0.2164347163584750  0.2568049521493478  0.7951489275399330
  0.4533084920857912  0.9689088712475260  0.2293924808052468
  0.1180647937620294  0.2141884212931014  0.7682735081741605
  0.5344556897403471  0.8770538478710749  0.2588247963470277
  0.1793219224509956  0.1740068648227208  0.6835307593187665
  0.8376124757130157  0.7209955418107076  0.0632979321567305
  0.1673974676164874  0.2528421823068713  0.8344191852490480
  0.0579609754681691  0.2208937175074775  0.7472469451120179
  1.0032720904214369  0.1937944825029237  0.1769201714770071
  0.8914004553385434  0.1174610362081539  0.2136103717935342
  0.9722822339176748  0.1340459698592945  0.6741347468688021
  0.9376226110675279  0.5617018484775473  0.0247925494193281
  0.0422785598577727  0.1132969197544037  0.7583143296168749
  0.8603144885182680  0.9653126897607007  0.4567528032884711
  0.8589506305259685  0.9352699241454666  0.3504854568522384
  0.9625187749100512  0.9010184062117950  0.5100589092479202
  0.1815328096433509  0.9815421921128623  0.5048685062163755
  0.1513556595600945  0.8133797493402702  0.6524666090154289
  0.1394924254015309  0.1900102902942061  0.8901345017220393
  0.2646818383347182  0.2946857103079346  0.8633557861960065
  0.2422245673557552  0.3068042490254621  0.9688518751900946
  0.1976790996204177  0.6556604903330160  0.0337258358349402
  0.2532576490882545  0.5916568901966373  0.6935008034976785
  0.0516863447062299  0.7491344558157924  0.2434264938222026
  0.9209192700614414  0.3943129857951549  0.2477384814637163
  0.9488415578909248  0.7183571780419985  0.3283230976197089
  0.9128812420025423  0.3333068927126198  0.2676845224433416
  0.9604682499816031  0.3039259386380859  0.2964795738121865
  0.9561177430401837  0.2566202659495847  0.2534541684006090
  0.8943474604093941  0.7492922605458751  0.3027894511840665
  0.0142689139270273  0.8482997181163917  0.6032991724315914
  0.5479555029788926  0.9839317821729041  0.7517498575801608
  0.5031194114216296  0.0482186409084271  0.7043940540857772
  0.7274313662164935  0.5962164149397102  0.2869886520121648
  0.1123404116787889  0.0950705694278828  0.8423098621351356
  0.1728432878049405  0.0549130000200753  0.7596390754693590
  1.0232791315647807  0.9828133534422298  0.5693260396838302
  0.1814903822861307  0.8757921803660600  0.5910955445878733
  0.0073359247048746  0.9193712935643522  0.6219016027243217
  0.8688286357755292  0.8239993220718154  0.6680198373677562
  0.2954020569716819  0.3887319039265938  0.0294274855692038
  0.0648713683343541  0.5270094530802768  0.8077212692418662
  0.8213112688735819  0.4542319250236395  0.1918634629142381
  0.8201528454272381  0.4390740900454310  0.2538486681822791
  0.1752229880072185  0.9208720138816480  0.5302359559242873
  0.7871982452526117  0.7376956550819120  0.0983394377302083
  0.4596647264312274  0.8968884075604686  0.6833603870848418
  0.8701458617204547  0.4082301428402995  0.2808325558637179
  0.2920925746969057  0.6080423596324149  0.5897137663941572
  0.0194166205901514  0.6241977689174222  0.8651830106243639
  0.6985505052489477  0.9200406143321487  0.4743367540160732
  0.0958192515564186  0.5537461121436770  0.4887821066469885
  0.3209930826895850  0.8743226498231244  0.8685252875904319
  0.4973740510338702  0.8266997556184621  0.9923275821318968
  0.0583480128485892  0.6404831552759989  0.7635990165481821
  0.8439687262771820  0.7482620495297191  0.3996765390468508
  0.1462365627318990  0.6624163408243017  0.6248649505463559
  0.0662601569262469  0.7313934861916384  0.5854859708499891
  0.5049349647049378  0.9669649498685716  0.1287024328854646
  0.4473674898883425  0.9378067292822813  0.1260559582251266
  0.2960406644167051  0.5099176402828060  0.8354451531721070
  0.4367927580275888  0.9420892300695261  0.0651274912220940
  0.3238675011070142  0.5728101201535398  0.7768933398438836
  0.3493330699146037  0.9336017928786320  0.8101099943437423
  0.2249124184309929  0.5289126232745410  0.7521421022748251
  0.7449612812751464  0.8276245692073623  0.5124395697197326
  0.9560188347799541  0.5938562794292888  0.5407678730510753
  0.6431958044856820  0.2568297347085937  0.1412156090307184
  0.1715301441239627  0.3898931508993723  0.5248147662480546
  0.0968449920225479  0.7246068258202206  0.8704676973003104
  0.1775280915116840  0.7040877806163190  1.0149804815182375
  0.9035766850253201  0.8738929795685503  0.2689153366055658
  0.1203193337964078  0.1813834246899434  0.6627851014357923
  0.6129628443726859  0.9830655661052660  0.1033566189693536
  0.9060258828803722  0.8899043526667365  0.2103778489530971
  0.8899052939561996  0.6885418145884556  0.0899168650333345
  0.0049048915886997  0.2085954443156744  0.1160799637714328
  0.4347305980913282  0.5686277354719209  0.7589328950113817
  0.8431410612299639  0.1633851496635571  0.1243234956034262
  0.9476280380696108  0.7809918782867024  0.0863045351315962
  0.8690595186988302  0.8725777650765633  0.0490579192878366
  0.8422798202521725  0.7513076923293969  0.1717342631270092
  0.2468831920581781  0.0309752687578018  0.1477647425810749
  0.1022856418911675  0.8426706595001169  0.7952555189748366
  0.0284347937314812  0.4430148376482431  0.6993695836864721
  0.7846951679681903  0.6580292969748115  0.1743370986900510
  0.3507274166130706  0.6178261642032560  0.8126058002446304
  0.9199704009513109  0.3643412103648422  0.1421044395217647
  0.0911876745051460  0.1504419593949874  0.8245875859529406
  0.1261656263180077  0.8813863518266796  0.5720432936620438
  0.8658657820965626  0.3633062692722162  0.2388872529857131
  0.5149535255096248  0.0418946478199269  0.2821691306953608
  0.1959320097764943  0.5633632288407268  0.5718596449271225
  0.0637614776719889  0.0562339141185130  0.7768564151910384
  0.7099267771118329  0.8446930772821368 -0.0048003636362902
  0.2868168752222871 -0.0033020115296052  0.4817120223079017
  0.9584572040141396  0.2714447082932124  0.1924674655278143
  0.9566759565810705  0.5291872046573136  0.8262885820891117
  0.8363632866762662  0.6585823267408875  0.0757713980147609
  0.6898282989672397  0.8316873877818477  0.1538567254918327
  0.4686668902154655  0.6243090512818026  0.4139623999673583
  0.7435488085175601  0.3335382804275016  0.7918567561443800
  0.6443724331372227  0.2906692442760822  0.7644489348601715
  0.2243777791272181  0.9063197528981110  0.4885031017595665
  0.6341063667712430  0.3029942346446812  0.7040166875472584
  0.5845865219752239  0.2654988267355552  0.6364541354510107
  0.8719196730906454  0.0728652560872826  0.4833427645932020
  0.6894321650551940  0.2754463147628610  0.5600823223661209
  0.6136559446500627  0.3268835489878104  0.5777186450115410
  0.5654611161108583  0.5066405077227057  0.4823897770781134
  0.8836274280862403  0.5603445904698688  0.9458284497652537
  0.5440502136513750  0.3994054488227604  0.4608171893009906
  0.9150121144199616  0.5121947541224433  0.9269969279233901
  0.8581241824892504  0.5174184972413219  0.9071005476990404
  0.7657044173587417  0.0750212436974168  0.4478378201127397
  0.6986909496038456  0.3328054139050163  0.4242826331160423
  0.9479131687646927  0.7150782542239331  0.5588294828071210
  0.9543179320456301  0.7620943084891361  0.7067789679429294
  0.7752070634316244  0.4475250575858596  0.5132740096035212
  0.5862451977757576  0.3792966429613043  0.4915874448421677
  0.0250882546537746  0.7778831019685961  0.8931617420610810
  0.7065968478137492  0.2503493884985121  0.6788116265105559
  0.9122066270522543  0.6246625536402146  0.8859314928907579
  0.6148834947510945  0.5036437763697363  0.3885856083089837
  0.3589037851730723  0.5792645656273645  0.3350626301521308
  0.5132796818400168  0.5503226514896298  0.3966791529702157
  0.8258204101685529  0.6201155152654464  0.6414568158864412
  0.3278427630177703  0.8713884648749519  0.4165271120195278
  0.8392552539429762  0.6108684779613215  0.7007215991323883
  0.5888641534206747  0.3194748577461049  0.4514667266257191
  0.6391240729102384  0.2575589601230819  0.3699234864231583
  0.8655857463499325  0.7066922811828774  0.7466235340188115
  0.6858166866931245  0.1790963430401281  0.3521862582977588
  0.8651045417161628  0.6758841315388011  0.6427850881176935
  0.9674411653995907  0.5730185850641266  0.6022594899643575
  0.7626092138895079  0.0452965491045816  0.3429921662442768
  0.7662552281260077  0.0913474073161356  0.3889693125997404
  0.7328154835324713  0.1013828806626201  0.3348604078728242
  0.6583131590753718  0.4108324775833855  0.4358272173821382
  0.6928380896307700  0.2732284312735978  0.4433475744212804
  0.7435883209701180  0.2569190599665838  0.4078898313786297
  0.7919980757702365  0.2237901640445812  0.4347445670855463
  0.3589205094492370  0.5952682880563166  0.2753066553070124
  0.9013433983936842  0.3694423820395664  0.8388414976929575
  0.4095416532933246  0.5640985029679205  0.3009600340320234
  0.7658455946061490  0.2773070152932002  0.8087077562113328
  0.5686770904686067  0.5657428861231819  0.4679402476876555
  0.8263688432222107  0.1682840786545753  0.4437683656446640
  0.8532622160207528  0.3315236676403484  0.7732947570458794
  0.6798509678690761  0.6576851303814005  0.3662204925129439
  0.2560321471604915  0.7272725552054060  0.8154113901551446
  0.8520082205426074  0.3636388125756139  0.8796901424170147
  0.7195705603315035  0.2043609435997957  0.6302786052927642
  0.5889280851369564  0.2325828510312954  0.5323174104952616
  0.6698871987132577  0.1635472005431577  0.5669846595582894
  0.4515093387375090  0.4268664372453950  0.3005210389414814
  0.5461836687564937  0.3338147260721893  0.2521364226524762
  0.9870469989601908  0.4594552480821295  0.9060224174841698
  0.9282591188262000  0.4664874130471538  0.8842443465528766
  0.9772755288237464  0.4721949356101269  0.8437283400539473
  0.4933685876891907  0.3184764183029956  0.1809259818316248
  0.7287988081179585  0.1948997843020796  0.6944270470693463
  0.6585160569499798  0.2116770654497990  0.6126621489210059
  0.9098679723706509  0.3555588490053505  0.9002617909343001
  0.3155988778972106  0.7003967661139358  0.4025911181279339
  0.0468949897796492  0.4518588522292459  0.9272119438933855
  0.7605367215677448  0.4400395420897233  0.7785864681463773
  0.7394284558267482  0.1949812370453969  0.4238721696003114
  0.7233303060024551  0.3570106476015506  0.6665758723347776
  0.6018956407975674  0.3727787606245032  0.6236592551408422
  0.7131242495617246  0.3694441535873536  0.6041407415555232
  0.9920392258713628  0.5365861272859331  0.5649090741248222
  0.3552428684419244  0.7026127759743354  0.6322367238170327
  0.9192343713765577  0.0110550951438740  0.4032547320592184
  0.8750778339924853 -0.0473991592375099  0.9729364041029196
  0.9329594693092894  0.5690912280727378  0.9031807570178778
  0.8955562858406552  0.5362694722788874  0.8050934829092184
  0.2728226711392785  0.8215813958848461  0.4716557302432166
  0.3677750759801339  0.6869422323827704  0.3642765223070317
  0.8686724032678824  0.4728200195892284  0.8646205211580392
  0.6176660089466683  0.1951555619352006  0.7157804620759599
  0.2697228484729550  0.7939931491038812  0.3616981136204608
  0.6302848863587837  0.1499031680413533  0.6682460916588178
  0.6200863508801575  0.1621754907712832  0.6073896904339283
  0.2139406866998487  0.7624547043075488  0.3488846638351069
  0.6910324401665550  0.1088709869887651  0.5845490431199530
  0.5242095145713395  0.0797158650717493  0.5372738416280237
  0.6664095642657006  0.4398149705763195  0.5361710217959920
  0.7481068707550105  0.2666277866252231  0.5766235589280675
  0.6283040124133221  0.4375326923688179  0.5726024059208763
  0.7858129510917858  0.5032573753574406  0.7212102270460223
  0.9241718010705999  0.3136091648754881  0.8557232574198027
  0.3877400408003547  0.2695132619780369  0.1018601244251180
  0.8928465564633788  0.3494256067823985  0.6706426951930863
  0.9489316994126292  0.4306774443563092  0.5118173964313442
  0.2501777126116091  0.4652320712536405  0.0507068985015908
  0.3264435865217505  0.8564442180360908  0.4752966776504317
  1.0166038618396336  0.8647188052810167  0.5346093061423253
  0.9931378341445027  0.1893339974934071  0.9492299094625335
  0.7623096797667617  0.0584823041895326  0.5066018355270627
  0.8597374843499833  0.4181163097346883  0.5935050106223119
  0.9359967074448430  0.1137734749479072  0.9426837879078112
  0.8723631180425809  0.1221624932233700  0.7556850874947960
  0.9034818261747714  0.0532246315399586  0.8357133398304402
  0.3670636382392648  0.1656634205668702  0.0794748707908177
  0.4073113290627585  0.1085667484502294 -0.0030123715364000
  0.4625401533362261  0.1033891581589715  0.0204479595037103
  0.0004576327066921  0.8129345791747006  0.0960133142912376
  0.7853021616207482  0.0333809135498769  0.6888641069202786
  0.0466194437019385  0.7341068141668449  0.0762213592224897
  0.9965764014129530  0.2610081854756195  0.8321333074673442
  0.3445088936842354  0.2497643291532540  0.0230133671277205
  0.9699188537221026  0.1650665763591155  0.7813362540650732
  0.1666160409608472  0.7071354859990473  0.9538818444722912
  0.5368075173878926  0.2421134763225002  0.1664831390551683
 -0.0027085474242339  0.5617628188958139  0.9286837314240717
  0.0721515219537538  0.9473775136918410  0.3593444103145461
  0.9443413754514128  0.5088456972718699  0.6605491552860587
  0.9191162314467897  0.4440013412725826  0.7195049074555685
  0.0607029025690192  0.8406111493176505  0.3328761336683665
  0.8704066765514287  0.4054652372287589  0.6532263844357191
  0.9894478925822581  0.4256013437961948  0.8009888254722595
  0.7884556291283246  0.4695420687380512  0.6184833659083816
  0.6937700894629454  0.3198776438357815  0.4920807952695572
  0.2135045011112169  0.7778318561265105  0.2893747450837265
  0.9014454883499013  0.7969334048571919  0.5723163228654200
  0.8455542852606528  0.5857344648835742  0.5585912646285064
  0.3043492976644600  0.5797814974122104  0.2052603905937290
  0.8860268809730629  0.4961488556315984  0.5374293017118187
 -0.0123351420034170  0.6608546931948290  0.6796272398186753
  0.9325457877087495  0.5391934276497956  0.5434876778348403
  0.3975657844928697  0.4098078531693296  0.2311453955518644
 -0.0323827406951920  0.7283744977102455  0.6641104517117843
  0.4455558602030468  0.3473554524915112  0.1539226119875318
  0.8991876646410799  0.7643128919789764  0.4673168775537445
  0.2093561282246410  0.7172374191167770  0.3044588256533943
  0.8832562430476580  0.1100949309497484  0.8175064111863253
  0.8616608407500895  0.1335122805400816  0.6933921301846386
  0.8237032202902073  0.0851926441120743  0.6916462269432193
  0.9411687104365980  0.3877192922127415  0.7355955578369568
  0.9636251049837891  0.3309110768666044  0.7535649018596241
  0.8653453993556595  0.2857428223824769  0.7281249272552454
  0.4982826660805689  0.0420341002792852  0.0460346178721321
  0.9147528103804019  0.2916737091672669  0.6879142161718539
  0.8166646225777593  0.2482975064674870  0.6612475608867080
  0.8446519938131858  0.3116632922668650  0.6036852530338473
  0.8376498872409361  0.0984912374915280  0.9165671437687475
  0.8331834266362717  0.1060889484972106  0.8564801545176249
  0.8742021339859152  0.1798267018359680  0.5156821486769703
  0.9704673413019238  0.1964553428561562  0.8865246168873954
  0.1931898206527139  0.4828506158060668  0.0854193909811961
  0.9428091195989784  0.3550368045699341  0.6273915612177402
  0.1544528350853561  0.7164132701406789  0.1732697398033592
  0.9310709495552842  0.3704475380241699  0.5650429824397929
  0.7822311368412608  0.3243223001953642  0.5178948672101372
  0.8596367269944506  0.2686061738208730  0.5612220159942336
  0.5736744725384676  0.1039845008512699  0.1678047269824686
  0.9293224322773862  0.4330176235986856  0.7804642298477226
  0.4875991222015066  0.3727084429640694  0.4680908999148101
  0.9796967490880475  0.4383688445095598  0.7396165962414640
  0.0222845877915943  0.3565197583603386  0.8813093844941874
  0.7111765941703156  0.1419471768686894  0.5268608470746776
  0.6240697899779410  0.0883929811404059  0.1310164262324304
  0.2045560324345304  0.4884505418889905  0.0304027195981799
  0.7521321830614097 -0.0050892917145176  0.5877130615163277
  0.1887829833500313  0.4321199403378095  0.0343443943597697
  0.2441775891872202  0.3615437126698905  0.0161636285259800
  0.9366945318626806  0.2346353056285323  0.7047445716344471
  0.6609826146900752  0.1225116708570866  0.4589910034313618
  0.7148346208702134  0.1061317986695471  0.4226680230276239
  0.8142387551447599  0.0964900876889298  0.6308406607586901
  0.9952689981199914  0.6875892348696062  0.1271681423290514
  0.7779389429191057  0.1662148516432375  0.5442668229488781
  0.1461183305608657  0.5644274847332181  0.0994550395245125
  0.4150628615496789  0.7829474420449148  0.1260569930850128
  0.4334426198099459  0.2406718971605958  0.1291144194929797
  0.8283463370493356  0.2367380673157977  0.7224536461098999
  0.4135134812708062  0.1570724977511642  0.0387464173144168
  0.8998636484269225  0.1845832177315991  0.6976812027044222
  0.5200267300709516  0.0961030336822759  0.0389474306619397
  0.8917205218542889  0.1961280231450160  0.6329483708364458
  0.4172465393620254  0.1354676681367821  0.1055149099786374
  0.7127088912418260  0.2161653619031375  0.5691701713948601
  0.5738877061938177  0.1187665707412068  0.1053651860421389
  0.7183315646829108  0.4793411183546227  0.5412851288128571
  0.8796307558024236  0.5163769448385575  0.3067220923850494
  0.5598370204409111  0.9097903330331367  0.6016423724944225
  0.5093454981549166  0.9352522533081429  0.7496492975374259
  0.8918115232562260  0.7522741917826035  0.0754020432630648
  0.8882162055579377  0.0873936532920231  0.1057085770264832
  0.1913532098726823  0.9301152665288173  0.8652917841517316
  0.3074065143693766  0.5073833709862987  0.5104378747099749
  0.7661139523562993  0.9208398628971501  0.0591832500203726
  0.9488087138368912  0.1775450107860140  0.1038297626315790
  0.3665824870969031  0.7335030600261055  0.1818423477886350
  0.1012371491392369  0.8769049120176152  0.8986531255953473
  0.9345783216169122  0.5217190268934814  0.6019422355254355
  0.8769116964945898  0.3524486153695829  0.0055830634394444
  0.1008497039455349  0.3904014860629941  0.6759002945807558
  0.5431945692946804  0.5788061628594753  0.9479215424770989
  0.6040606600992582  0.5731533906599873  0.9647752881056727
  0.9977907379771048  0.7189049017538475  0.2324132913527093
  0.0764232661728456  0.8175069561457858  0.9551245166266272
  0.8828365490475329  0.1407356088492891  0.9227455798715457
  0.1839480264908580  0.2939192380897367  0.6122139284399802
  0.4127730223700329  0.5929707402320353  0.6356151800776728
  0.3116312010468775  0.9543221249664648  0.0210194699146796
  0.9062345158761959  0.9072930226810436  0.1483408805558254
  0.2821052814773190  0.3688650802038473  0.7437230960186899
  0.2403212523946899  0.9698155324400985  0.9345462690002803
  0.3969838827296021  0.9387996181842930  0.2283524335693019
  0.7716304613683046  0.9839925548636040  0.0420538245477181
  0.4163115683079537  0.4936832989308084  0.8776729331649723
  0.1856066873302481  0.8125099788635929  0.9373470994738690
  0.4555047600577695  0.5452840408852883  0.8825574894069418
  0.0452328738366496  0.2666888304484065  0.7919499248595880
  0.2298956906151957  0.3967725334923373  0.8905537534017647
  0.2657774718716637  0.4472489364934670  0.8915348965912518
  0.1987551207921721  0.3365393577916796  0.9491550722376828
  0.1922382869394656  0.3470924271304650  0.8859371078394203
  0.8257704239401509  0.4864751705288608  0.0702707419527102
  0.7218437332390285  0.5186019933712823  0.3641747563391745
  0.7735839400520748  0.5166799471520327  0.0432755649466681
  0.8291083303171225  0.4424505603918342  0.0280113975930593
  0.7802030898767782  0.6375249486906132  0.0069684116334349
  0.1443005224315104  0.3085746330863665  0.8192827357586544
  0.9753754846976670  0.8881375568145686  0.0260345485788380
  0.2797508407123677  0.9255550810454699  0.5568059303578373
  0.0244047672919004  0.1404235793762257  0.6295826421313853
  0.2811480641419083  0.8540808441543420  0.9767396958821989
  0.9938090265798194  0.7033148878252201  0.0668060479293680
  0.3484538555163142  0.4347235914193971  0.9761252301131383
  0.1590285220385683  0.7637563001269525  0.2184560482804649
  0.8772914653583005  0.6942063727742568  0.8070409718333282
  0.8392193131687392  0.4079375413586204  0.9230366410604964
  0.4213557992536279  0.3937757607271205  0.5644236047476002
  0.5286271761534161  0.4255358164470547  0.6489580991901857
  0.8973350629240908  0.1784827387207745  0.1986752833672542