B  Cr Ni
 1.0000000000000000
    38.7315947344316172    0.0000000000000000    0.0000000000000000
     0.0000000000000000   38.7315947344316172    0.0000000000000000
     0.0000000000000000    0.0000000000000000   38.7315947344316172
 B   Cr  Ni 
  50 1596 3725
Direct
  0.6730645991481774  0.3565809425669612  0.4998728828698045
  0.0043467071763366  0.8549980828383309  0.6588736613231432
  0.2826596632210627  0.2031528101728933  0.5504309347256378
  0.6768669779415499  0.8961210769100902  0.6599387222049852
  0.0454573631987041  0.8667761579621912  0.6498218253923324
  0.7398710035150584  0.9021162378983399  0.6100575432651423
  0.6151314957563011  0.5958593844396174  0.5428955601613373
  0.4735261741803263  0.1063273114985525  0.0039699643045330
  0.2029047665284721  0.8327378987059180  0.5668555831341201
  1.0149731238078026  0.6270901299874023  0.8177826156725623
  0.4300790889877437  0.8893288720475045  0.3307749908393735
  0.1720652298946593  0.6434722127963646  0.4754792732130727
  0.0981980130372722  0.7055423166254381  0.5588443659157033
  0.3984901162746567  0.3263674299410984  0.3620441851357815
  0.9692764572589804  0.7163874126395758  0.6700245487545432
 -0.0250644917909542  0.6718432137831336  0.5976487969134952
  0.9261081953222036  0.4071210270157889  0.4618859802182924
  0.4995454326574314 -0.0686675968544425  0.3427621518326067
  0.3706851327315456  0.3068446419709163  0.3910998338214986
  0.1785070707870052  0.8701958364814968  0.9678799637051740
  0.4305963098528359  0.9531150671419488  0.3896668686258567
  0.5818531458775800  0.1672664834616661  0.1539920671652005
  0.2870791238862927  0.9862131191193590  1.0114410528031557
 -0.0159581507877993  0.5276915558834480  0.5701582982580237
  0.3247377683207849  0.0982456579467777  0.4728047635770076
  0.3669132592243493  0.2474403001279077  0.5203664907978175
  0.6220900638683007  0.1220174402147905  0.0191658121408069
  0.6918169094389337  0.8348575438091618  0.6052532328867742
  0.3225751635374246 -0.0239764693235751  0.4087178293132393
  0.3161412559411309  0.4168838737883330  0.5320426795462646
  0.2684719128516138  0.9480387085496635  0.5063508707158176
  0.0541728256373176  0.7760672148600900  0.5641900730561882
  0.0978357627951583  0.1450353481543107  0.9485536049499734
  0.5985673535613384  0.4190732846326007  0.5211450042736913
  0.2174427618645488  0.1535371308592031  0.4364756542114061
  0.1564819561134638 -0.0288011555817287  0.6312899495494322
  1.0473829903450147  0.6446019047920295  0.2134263762811755
  0.5592376260645977  0.4094934961452581  0.4482507073624624
 -0.0058444057097251  0.5897410145728083  0.6992168424249404
  0.0693691166437055  0.7762725459241100  0.6389121906036208
  0.3956224020980992  0.0595618481430859  0.4723558613829481
  1.0054830957692715  0.9386880078033498  0.5870582508769984
  0.9587691260474543  0.7115007299778894  0.6182169381643445
  0.2615878821952591  0.8600428481682405  0.4969696497363115
  0.2112088969223995  0.9936486088376095  0.5657942041355498
  0.8420222225690558  0.0937941506505634  0.9879236610911483
  0.3423317204629295 -0.0199740810630556  0.8549719232684625
  0.6352761042960642  1.0042290084614947  0.6192582432957379
  1.0274941594351326  0.8994127311647815  0.5779811208063044
  0.9141906504475100 -0.0067180426377759  0.8615859849690065
  0.0928520250684902  0.5889014139100922  0.7501684950654575
  0.0514583558339482  0.6516909871999120  0.6987593745966426
  0.0817477711839553  0.6011873215372451  0.6877188688594478
  0.7479997743285062  0.0520601998719210  0.8976857486116558
  0.3949138985688872  0.7531231463802620  0.6378476807615295
  0.1362990375593343  0.7410395208323224  0.7704231598534569
  0.1724565994195096  0.9114855120594311  0.0585400412569274
  0.6272862154088318  0.1185729230489151  0.2377855059918773
  0.5105554741334867  0.7500478034673373  0.0608428369934016
  0.6060870784377674  0.8879196537300602  0.9630561963336405
  0.3661827175736686  0.9582071833776651  0.9804236515274189
  0.4653117848491529  0.7676294346774556  0.8257638731504717
  0.3656836027942303  0.7245502265563439  0.8000763950558204
  0.3554829637265041  0.7366299990394871  0.7381910971642265
  0.6668781069793076  0.9796828742256970  0.2363137819250989
  0.7899372462136740  0.7054764601194614  0.4455949593483127
  0.7854296506495363  0.6565542047387249  0.4009077539677823
  0.3751110887943593  0.7135550028362408  0.4728950594121252
  0.4273249677625945  0.7175722036482717  0.8216802889516290
  0.1860009201558152  0.7449888853780232  0.7319105039453433
  0.8944558518731026  0.6342323902979794  0.5061215862792039
  0.3089881154673619  0.8024973914549439  0.9903067833021730
  0.7076942136823324  0.7825785650759139  0.0184233382540497
  0.4929421761378071  0.8293178419418303  0.7660416428728061
  0.8847587546979263  0.6273730152744912  0.1052895221286039
  0.4374550313055817  0.7052870633943762  0.8808575055910850
  0.9316144196286481  0.5336858110353172  0.1475624314051715
  0.0752345779186539  0.7150141055326233  0.6454300299516869
  0.0557827445914974  0.7279950676997099  0.5302868855318162
  0.3882627412710494  0.6686127108695987  0.8167358793107096
  0.4438554335127115  0.8930139538054517  0.0158591066252207
  0.7330583800269477  0.7054114706326723  0.3140516124066209
  0.6323888526430707  0.9542065235231083  0.9010444344720099
  0.6131045178385313  1.0020360888729822  0.0422590178491878
  0.9582195534195864  0.2711088154630144  0.1899684225143476
  0.1718301148695895  0.9580474895217893  0.5790741590001433
  0.6023466077324160  0.0431889653366577  0.4043900375131158
  0.5066388092628649  0.8491022527630756  0.9340369187457872
  0.8468277807643131  0.8612261427832761  0.1986480780707164
  0.5549448701340910  0.8541326809329796  0.8945877504825529
  0.2558514254902957  0.7623751678860405  0.9250303645207639
  0.4621632339077635  0.9310644298127062  0.7924571148890284
  0.2939946103414715  0.8130221281242916  0.9283626466042730
  0.4337005878989810  0.8364953266099223  0.7456358856877172
  0.7417028294230629  0.7839197393919177  0.4662674984976150
  0.8308144984723880  0.5790946499068893  0.3844508572943154
  0.9600581157488709  0.2388687383054685  0.9295491432112143
  0.9219129789705853  0.4257559788927572  0.3489515998570984
  0.1968773174100855  0.5625742248643171  0.5687372538880069
  0.8635177501824446  0.3621944485037737  0.2363701206255637
  0.1233364448676529  0.8797817151488136  0.5719050988528327
  0.0930920333774038  0.1514361446765257  0.8252660954959735
  0.9185561672231839  0.3635596006872135  0.1384934291598264
  0.3391308340851528  0.6639587906996934  0.8561478888566395
  0.7819729437513776  0.6590122985906283  0.1741848067386054
  0.0290680909997805  0.4439094563491600  0.7000743365768639
  0.1028269594765960  0.8426214031638916  0.7950581004345134
  0.2939058917714818  0.9950557067227670  0.1731444452033246
  0.8435237260155325  0.8148173952206220  0.1549892683734669
  0.8665884626076135  0.8722613625106121  0.0498696629799162
  0.9461234234060967  0.7832305144316077  0.0843423697975263
  0.8429738894241691  0.1635436406343593  0.1271387259464780
  0.4351822786736401  0.5692754297177718  0.7574776825042326
  0.0053895262459620  0.2083746850628330  0.1135218731735736
  0.8367659703033914  0.7057285877517036  0.1235817009645468
  0.9038953352912978  0.8901824593289477  0.2098832654655286
  0.0223578089055597  0.6233624392733345  0.8722216412449699
  0.9082338447130686  0.9362787379948611  0.2555555775574939
  0.1210407325102246  0.1816123305578391  0.6617031275288617
  0.9017421770403732  0.8741127007880986  0.2695178512875916
  0.5076231251208743  0.9787076171817118  0.3042764588603055
  0.4233698230069965  0.1638615416273942  0.4411953545851901
  0.5083329593261136  0.4847236851063296  0.6346928318662809
  0.5839959679112869  0.9497738610050145  0.9427140610028268
  0.5923140940838858  0.8717060131738094  0.7918147207025681
  0.2039634095828435  0.6839828246906877  0.1989320309102816
  0.6876008791040195  0.0259361864264899  0.7719945080267663
  0.9361585535485827  0.1745254440443362  0.9312674392584778
  0.6177633670621502  0.0453081237587462  0.0855889422210949
  0.8130128141876828  0.1960825917716820  0.9448411796219597
  0.0142886758930842  0.9317291388488134  0.2913772728593797
  0.7855005000773346  0.0685629371595643  0.7945184600006832
  0.1084117990981841  0.8404917451090368  0.2366926784086526
  0.6763142762209787  0.0383847851713226  0.7095088151869969
  0.7247139721583423  0.0404821385807224  0.6670397046471586
  0.6941667168895352 -0.0025927954858050  0.6242440838967361
  0.9403966707299540  0.2128083630306020  0.9797828464772310
  0.5037131376565994  0.7178548453718102  0.0089658330956843
  0.3280624443258365  0.6742755883028625  0.7948315787214395
  0.8766396704720257  0.5021142172755420  0.3645206415439720
  0.9902258053097153  0.6115677285212144  0.2029521639912252
  0.1010432036761517  0.7326057082897555  0.2078340370866344
  0.8810012902771387  0.5477381250579093  0.4119988630194289
  0.2711429859365262  0.6449451539451937  0.4565790495789381
  0.9279785077343689  0.4881972380478505  0.3308583677516133
  0.1044741316637235  0.1075223853624165  0.7795160771509763
  0.8695841871093405  0.4077424111406461  0.2765631081048358
  0.1460172664091030  0.3099449601947141  0.8185722182966297
  0.1579264565948250  0.2639972408076056  0.7719398980149468
  0.2187258205977037  0.2578627678865517  0.7951312833271817
  0.4557602808278376  0.9678446246542268  0.2285977552255576
  0.1208277038075690  0.2151750939661352  0.7677453351782358
  0.5313074128511843  0.8758910205252699  0.2611071347827078
  0.1926188941230658  0.1599085445029644  0.7458332877494233
  0.8364342785507861  0.7213356803866940  0.0636639926376278
  0.2287942722871546  0.2463213226511980  0.8549419899265686
  0.0715781894155811  0.1766748317151871  0.6987961282405355
  1.0037257909748754  0.1926201277523757  0.1759881598584012
  0.9408974533151361  0.0854011122849438  0.2414555968725687
  0.9354089158661253  0.0840374862965080  0.6712444905481794
  0.9336355658970905  0.5695946555554872  0.0223663740935130
  0.0432078603789738  0.1149758665413961  0.7567076354105582
  0.8592343888756607  0.9661311455255354  0.4586701104926492
  0.8610072183284705  0.9812540058243304  0.3963064891502245
  0.9631652552078938  0.9027056763222829  0.5115207691222795
  0.1762132711990160  0.9812870383824603  0.5112058378020461
  0.1530242807515000  0.8139731376158729  0.6521247934368832
  0.1787214441410381  0.2400954315887598  0.8996959740385727
  0.2658156102926976  0.2956090740741603  0.8637162099313033
  0.2420886959640642  0.3072656855285928  0.9693944590748629
  0.2280540980003363  0.7021777956593043  0.9784373239082008
  0.2544662598763238  0.5915851236014963  0.6923353689752074
  0.8639004317909391  0.0797293786376838  0.9364062683346119
  0.9201052248463960  0.3946352613792198  0.2449369264016151
  0.9471460071882866  0.7182444759989892  0.3276100547767080
  0.9111078345595612  0.3324338018442574  0.2658219074276220
  0.9593294733217265  0.3027110683958701  0.2936917963770251
  0.9550617005867433  0.2563358229488024  0.2517497824057105
  0.8982665213739441  0.8120539713359308  0.2867676595236356
  0.0156239236504867  0.8487481056629597  0.6038822450581416
  0.5507325646808761  0.9838368014392423  0.7539415457988200
  0.5051878809703572  0.0484900809334698  0.7065326272370690
  0.7254853698964596  0.5970416258185388  0.2865456177550951
  0.1144757536149986  0.0963649920576335  0.8430418918264992
  0.0742980449534965  0.0465623357880472  0.8392800851968722
  0.0238189386712288  0.0460775580729322  0.5455304333316623
  0.0639236653145842  0.8335585451345519  0.5671069003032472
  0.0100031004448860  0.9059973959657044  0.6307661206656188
  0.9286554615271256  0.8195235536773550  0.6868076056705638
  0.2911959984068714  0.3363656097995672  0.9852002786143838
  0.1143839280562695  0.5327429152136884  0.7678516144647797
  0.8198185954052607  0.4550897668234001  0.1907420775187414
  0.8702675929647342  0.4258896804676621  0.2148613325805679
  0.1226591641533443  0.9499602585348017  0.4948986584641129
  0.7837632188190907  0.7205400895582715  0.1586034651869842
  0.4611913847896866  0.8991208821915574  0.6854197825514557
 -0.0001099826181666  0.7968781258691784  0.1564394719065722
  0.3034687744895295  0.5965993244721537  0.6522328463331911
  0.8742271260672314  0.4559525706550506  0.0922943222013848
  0.6969078076669328  0.9197772179631700  0.4750486081092913
  0.1893394704876872  0.5492634756051444  0.5172965622326670
  0.3240591989932466  0.8746169143776044  0.8693214663943077
  0.4951135898394000  0.8753443846005847  1.0387492418556332
  0.0633825110533003  0.6393580204488747  0.7655894124677688
  0.8435271949426030  0.7478207059369515  0.3996057736899633
  0.1596490720563882  0.6501820166846728  0.6832666639500231
  0.0632049525159374  0.7303275656425076  0.5935375378381532
  0.5030586858050698  0.9675043981784741  0.1313793038765606
  0.4447191021715478  0.9372892853721643  0.1238613627496743
  0.2749928274260262  0.5674410096642233  0.8157656821623344
  0.4316685482674477  0.8941754424565009  0.0726703518704005
  0.3251817234801831  0.5724061120361196  0.7768830084660895
  0.2920352331244743  0.9406054349569368  0.7859385302038427
  0.2269338849260643  0.5287158239153339  0.7516088556866123
  0.7954705755328693  0.8148743780288518  0.4755078401254003
  0.9834664686098977  0.5367193298548980  0.5116576733699338
  0.6356958830859454  0.1958166045754211  0.1609278166605551
  0.9919069498740920  0.7057307342514172  0.0647459674141026
  0.2849431209652042  0.8587509783508543  0.9715525694516951
  0.0231444931929184  0.1400542901013192  0.6302528045033136
  0.3676115570461069  0.9743841708903429  0.5793922701049349
  0.9731020809371692  0.8881925577904840  0.0241395590478040
  0.1842416628499805  0.7124917137580100  1.0149162897397284
  0.7743444954241251  0.5186690004531403  0.0421637447924144
  0.8254241828110501  0.4874701670743237  0.0692204313409402
  0.1335959240995206  0.3539757073460379  0.8614770558426389
  0.1975037178694716  0.3363015369631421  0.9489687198288791
  0.2745455387649804  0.4403241772615392  0.9499667180298086
  0.1803557065715822  0.3921203765074525  0.9290344022886027
  0.0376395385045403  0.2788632234684307  0.7299888632235423
  0.4576656406763276  0.5450517592279858  0.8824661966495965
  0.1402782628221911  0.8158751487805632  0.9758808492017537
  0.3965266197400131  0.5540668788786129  0.8588075631760598
  0.8243790922559192  0.9679269929679386  0.0086051852070450
  0.3320315950035844  0.9173999362239591  0.1482862027926050
  0.2397289231699684  0.9707163162684599  0.9331745892488367
  0.2839364403456792  0.3690917619008777  0.7442972500021728
  0.8700052795764599  0.9198379263407909  0.0966568902737487
  0.3292503458472181  0.9500912727505259  0.0224395879609574
  0.3528770032601349  0.6025616542332815  0.6112769724698759
  0.1682223498809889  0.3507761158008630  0.5937441104017271
  0.8357581237451516  0.1383248573145878  0.0217419033543688
  0.5756855995698575  0.7699899744461840  0.1303878439394228
  0.3863554534663793  0.5328346996970724  0.6938891122835372
  0.1705785151595484  0.3869759316243173  0.5223282328742609
  0.0866981236578721  0.7710621104166790  0.9114200998174583
  0.8837545176539375  0.5489078475510417  0.7434909745722057
  0.9817031696921744  0.5024603982635755  0.4045519889623019
  0.8042326776692220  0.1427267716604069  0.6746413797813007
  0.8543928849218911  0.3316944419327665  0.7724867592570122
  0.7441604703730386  0.3335192684160531  0.7912101528102472
  0.6974616107181640  0.2953823903307093  0.7258901423723267
  0.2257751889653643  0.9028805060034896  0.4922854356598891
  0.6360235421192407  0.3036782984217467  0.7038856666857645
  0.5887852228239789  0.2666140501023734  0.6377051370568128
  0.8681812037891706  0.0749991018840129  0.4848489549153288
  0.6920185158972247  0.2783776415067175  0.5596762092461878
  0.5761123917122825  0.2778429701469630  0.5757888299763402
  0.5647916517966830  0.5071171418210675  0.4825071082329924
  0.8881860639143533  0.5588841888740913  0.9479153663257955
  0.6669529588588937  0.4544115801233574  0.4745712162561064
  0.9173220370079489  0.5110916434872468  0.9257700893801354
  0.8598339447561908  0.5181092802854244  0.9085458213990110
  0.8175949289226920  0.1057012676767056  0.4589938411297139
  0.6960777135339200  0.3344918699094237  0.4271298729961343
  0.9000346045556433  0.6885911004357927  0.5466833400232941
  0.9512494954135011  0.7616010126074602  0.7024553208564444
  0.7411368436270146  0.4324734350291189  0.5562833443372988
  0.6139276533903889  0.3361770027303235  0.5152871348850118
  0.9764915460529754  0.7716571786306980  0.9338771931156324
  0.4684242294015129  0.6238835180711256  0.4158781945862010
  0.8198036253748696  0.1671173641415027  0.4450663626536818
  0.5171990465454765  0.5931426453921111  0.4433721361757778
  0.5133618010021544  0.5492440825524105  0.3965334821862300
  0.5683217122728037  0.5658013283671793  0.4660764907731511
  0.8371471520800996  0.6107784936363021  0.6994531551326285
  0.2768770695754956  0.8838288988139797  0.4497513585934730
  0.8116562611086449  0.5675069218915243  0.6640354992787787
  0.5843690344482779  0.3210401720161524  0.4501230019394718
  0.6383257833924957  0.2567502008425316  0.3707849684230383
  0.9146481642538182  0.7133141616221346  0.7072400539662084
  0.6844117119252657  0.1787885127249798  0.3519094650774126
  0.8649949802220648  0.6782265836946604  0.6436466032924523
  0.9385171815846115  0.6251400798874970  0.6221263412828819
  0.8127438904762996  0.0295635760354567  0.3085512446685371
  0.7636506591520692  0.0907615392787691  0.3878558179463124
  0.7606576886631294  0.0450513693222817  0.3424651247332357
  0.6078037294317740  0.4425412733709324  0.4038358565959358
  0.6878651376230351  0.2691872425217426  0.4438194492879429
  0.7419413244443621  0.2557698219841111  0.4076474663881688
  0.7910481883012065  0.2247231142059206  0.4350262756795252
  0.3573590349268487  0.5942124050352685  0.2747836520779244
  0.9022728653665549  0.3700328507403582  0.8390162835043908
  0.4081487986309140  0.5634811048955685  0.2995036477000416
  0.8050604396353942  0.3262721309869842  0.8136835093002469
  0.3579956675126130  0.5788033466895476  0.3347617351118567
  0.8069495529595135  0.2949019339676620  0.7053955150078417
  0.8986322926325161  0.6380218169420219  0.8249598140929284
  0.7548738168218315  0.1025079940987553  0.6099162528513635
  0.8428860872813543  0.2575246713925147  0.8938924503096819
  0.8526726422231928  0.3644505281113097  0.8793755478716589
  0.7223917232630701  0.2052733378871459  0.6316095891264373
  0.6508818287605297  0.2201458746529504  0.5523655622105710
  0.6704437425500150  0.1642790137402282  0.5664611792789347
  0.4504267075060254  0.4244492004354750  0.2988952485586749
  0.5451173505399568  0.3331246321709644  0.2512629397143497
  0.9890408513410878  0.4581836053615872  0.9047320400110146
  0.9291606277180492  0.4663892955488080  0.8832344935544650
  0.9784903252309742  0.4726011370406467  0.8445720110983540
  0.4895937417210021  0.3010135501024958  0.2422150537724679
  0.7313145673721864  0.1940305715889066  0.6959931865629322
  0.6609170679468432  0.2123094916578563  0.6123777069827467
  0.9116578150447218  0.3563885049376431  0.9001070356496601
  0.3161786183361562  0.6982994654250497  0.4023303483972165
  0.9970973772725449  0.4434960019591132  0.9671185988715593
  0.7728108576905430  0.3964410789066132  0.7343953602376554
  0.7890634646059080  0.1784304668306194  0.3897411751544944
  0.7250970473441851  0.3585981625418135  0.6663305243092227
  0.6044337405754118  0.3735123756953393  0.6245003725155108
  0.7155382131930210  0.3725153919616220  0.6014928939443349
  0.6610499914241460  0.1055588517734404  0.5194318841065931
  0.2947968635416111  0.4217050578811308  0.1350665169322872
  0.9161509990649930  0.0134718480232157  0.4029313147975473
  0.9379065218969981  0.5704652167800913  0.8919832179455026
  0.3222851423125124  0.8533844745784451  0.4759879931778134
  0.8568150817611381  0.4849320965016177  0.8033758703740000
  0.2700182521785960  0.8131279653578578  0.4721552335701979
  0.3668825361811137  0.6856344401012391  0.3657509888415882
  0.8798831672565646  0.4278244815514825  0.8210114415630761
  0.6207644289315276  0.1952075882949273  0.7159040027437237
  0.2673371746256791  0.7906305415723297  0.3626187259828784
  0.6338467888097300  0.1513468536916091  0.6693644518564140
  0.6223891030157510  0.1615126117296398  0.6082788505851178
  0.2124123839205124  0.7619846251656511  0.3490703147862189
  0.6025202479137537  0.0559749709207960  0.6230269467476343
  0.5208701646901693  0.0780725254932955  0.5376308140091337
  0.6818009352618514  0.4449861366762620  0.5306671906338390
  0.7509203416366269  0.2692038893814652  0.5756250531577165
  0.6910278648025193  0.4283902875455575  0.5894111235867139
  0.7863771681806166  0.5057054638529201  0.7191406680263097
  0.9252748287446105  0.3129683487924333  0.8557968331437729
  0.3854256796691185  0.2679831257129984  0.1019142951982311
  0.8827282455643841  0.3950718375556221  0.7154182770467206
  0.9388276947862736  0.4429370446999094  0.5090136293428312
  0.2491790792248908  0.4644809403478440  0.0501908324466768
  0.8737823701569489 -0.0435358984372851  0.9741041285698883
  0.3483287846217744  0.4537575586123822  0.1426842772938662
  0.9965565479877476  0.1928313462191244  0.9459492727967242
  0.7750362887095529  0.1678651759833600  0.5452542275961285
  0.8755916598986161  0.1821799695615107  0.5174963351517716
  0.9348122303027333  0.1068230072482195  0.9443142652668044
  0.9458731181399165  0.0998516367028342  0.8373039146702169
  0.9065074549133234  0.0514304106136606  0.8410577316339291
  0.4108229557174269  0.1571768681951632  0.0406429111823335
  0.4149893151780655  0.1115989599068039 -0.0008408927935674
  0.4374632204199421  0.0615408104137999  0.0215101642594235
 -0.0003946193666347  0.8141663747605559  0.0963745954272846
  0.8518458815205745  0.0292036310880873  0.7124236714096899
  0.0970890207441862  0.7028572713289969  0.1006033568398054
  0.9609401964593575  0.2111597808444135  0.8255264301188077
  0.3452382282993523  0.2491873302208704  0.0207719288150329
  0.9727332240645782  0.1655047737188164  0.7798014443789801
  0.1675606496701800  0.7091114154394231  0.9532033370002624
  0.5354347041508137  0.2403893057530575  0.1660158057240610
  0.0210020190469596  0.5513622237619713  0.9534614361605487
  0.0681118152644442  0.9474367169735710  0.3621229484018211
  0.9554406149667946  0.4954188319624783  0.7224551048303955
  0.9174687837085834  0.4458712244216723  0.7185764420065484
  0.0583792156653672  0.8406761571644594  0.3351022730910470
  0.8716425544568698  0.4079548728552638  0.6544969305560202
  0.8617019562864703  0.4206279391194147  0.5966830748826932
  0.8371307844113884  0.1053542902707540  0.8608857476664235
  0.7323325246693568  0.3478602895465855  0.4948751446717129
  0.9040604797642565  0.7982952974406231  0.5736893777228770
  0.8335639999466241  0.6602671345775840  0.0758568328309372
  0.9096646555739867  0.5873003835809317  0.5801063372963795
  0.3036864079118085  0.5784025378075428  0.2051607337348371
  0.8529407099091756  0.4368141003555664  0.5364770236453213
  0.9485953323793461  0.6134425807378584  0.6783814977824071
  0.9659885462122174  0.5753117827411739  0.6026204487521629
  0.3962634340159728  0.4094159905060017  0.2307188850400693
  0.0242168845829472  0.7049502853264656  0.6844799523297358
  0.4452933773432081  0.3450005247774179  0.1520703297957215
  1.0025982495811965  0.6995126892198594  0.5180609436786361
  0.2551353447918658  0.6389793228102787  0.2860840139213711
  0.9345918956119745  0.1164145644816744  0.7766338460748496
  0.8634924957321075  0.1352185200655841  0.6953252327325185
  0.8255262088415141  0.0848059833307410  0.6941109244651529
  0.9424504426743150  0.3872854289403022  0.7357839306027912
  0.9647939279477913  0.3312213808276055  0.7534270593660154
  0.9056055103037181  0.3378392750800890  0.7314398823568536
  0.5030389998845967  0.0380529028711490  0.0514604634375617
  0.9168302032955161  0.2914498016909500  0.6871421017859803
  0.8190292304056765  0.2501710115755150  0.6594273112730542
  0.8478429492432354  0.3129343007488722  0.6032801362073753
  0.2120428442953123  0.7770322265673889  0.2896980336988738
  0.9908235467478498  0.4259434285459233  0.8010850707216244
  0.8122674224763993  0.4149653008756828  0.6334201956128744
  0.1921085118621641  0.4815600244558221  0.0859785897165045
  0.8148797128201740  0.0893502665646117  0.5171432681072023
  0.9448416246697574  0.3548534233422052  0.6271700831760733
  0.1505354957971747  0.6696304371172599  0.1271195813152337
  0.9367853815714599  0.3705336178052273  0.5644231321818023
  0.8421195942280151  0.3277592132415772  0.5427364861896139
  0.8618006198869754  0.2692452052771284  0.5579390418388045
  0.5734596595792532  0.1048992141180546  0.1671825554122402
  0.9298363025495114  0.4338367859342435  0.7794030351652644
  0.4769460933007326  0.3686017775452098  0.4662429103673640
  0.9792398202736834  0.4387318802008193  0.7407752336133420
  1.0011847670527607  0.4146312806883000  0.8608441365694987
  0.7090288866249730  0.1356039434371395  0.5272737317942773
  0.5659585337512830  0.0452765926624818  0.1842704608081948
  0.2051579050184237  0.4924254986853480  0.0317563601945857
  0.7490079474410329 -0.0004764330917802  0.5902365885998062
  0.1887502433810735  0.4329404014679049  0.0341423364262043
  0.2448384692719462  0.3606188293027767  0.0145781889856775
  0.9386925341819560  0.2359559155286437  0.7032979381103953
  0.6600137490058119  0.1218294994696254  0.4592133349083277
  0.7120641540984678  0.1057727158824401  0.4220424638659989
  0.8523848888091550  0.1466567903907110  0.6332806973080588
  0.9348819368106144  0.1449088406741074  0.8823015197893123
  0.0463232155013452  0.6724371360434643  0.0927506583574384
  0.1447479537387956  0.5636575280395550  0.0999564577553759
  0.4829443582465554  0.2213940009006489  0.0940444777843520
  0.9518711757439671  0.4820216894478112  0.5547999432156945
  0.8889279542232469  0.2307194392567968  0.7441097284641852
  0.4686343994312289  0.1911056228253849  0.0453821226422885
  0.9016041157867364  0.1860416643267998  0.6974941200868291
  0.5191359851403333  0.1481783662863035  0.0786287963394453
  0.7719416872299133  0.2109176376437732  0.5920321710494645
  0.4742531585891667  0.1583937162797292  0.1098211683350222
  0.7314784835676034  0.1587037796531139  0.5867390762489032
  0.5679202186305694  0.0771171237538662  0.0612864824950983
  0.7523772007504419  0.4212777237263292  0.6120226529544739
  0.8780605590911910  0.5181587132536937  0.3042499800591388
  0.5630456910289613  0.9091072782188192  0.6018742788770577
  0.5714098918976181  0.9274656499360217  0.7734939748140854
  0.8904128084035788  0.7533775200468333  0.0753921174347606
  0.8913038238379012  0.1315200781309845  0.1536075300813701
  0.1914583029052337  0.9309166030195631  0.8662073523582774
  0.3065758276137885  0.5063457596369813  0.5103753964743823
  0.7629682103931259  0.9190464990820770  0.0592677682290528
  0.9499438342803573  0.1770274294660535  0.1022133555880766
  0.3604989664388593  0.7513945077539202  0.1215279102606490
  0.1017694782296335  0.8776388217574166  0.8978509752771106
  0.4107981542755192  0.7823728210805316  0.1283102122144371
  0.2481080094778798  0.5455658932471984  0.1961565598908613
  0.8526095726987246  0.1803291118570206  0.7385100802354414
  0.2143793967302791  0.7746483000953824  0.5067126375627483
  0.9455559331926544  0.6854418356520501  0.4501519384776867
  0.9417316521529410  0.7042943633467245  0.1611504892423020
  0.0997531494272055  0.8395637112074750  1.0128140719709899
  0.8163686996058851  0.7016181883573233  0.7886293677467976
  0.8393769771563014  0.4090115813641607  0.9232192942343527
  0.4268882668075835  0.3947287358474386  0.5655062724233315
  0.5318288908557330  0.4253824734864711  0.6497456730237925
  0.8962182295274501  0.1776304140266516  0.1976638233531738
  0.2777251394629017  0.3438290123950274  0.5739349477682207
  0.3366552906831414  0.3411405005837655  0.5958548533261061
  0.3240490408333681  0.3846734764786437  0.6437624135363482
  0.4221698206659541  0.4300551994988687  0.6702021260887950
  0.7610580235049496  0.3935830092552651  0.3057110472848439
  0.4087282494834432  0.4741367895704950  0.7140910263270381
  0.7636694325345704  0.4091092754469823  0.2432804623820955
  0.7131138519663882  0.4252554940985867  0.2766859221577228
  0.5172150137469351  0.5038319130929656  0.7970968318007792
  0.6664776308507051  0.5039643412252817  0.2921585381487310
  0.7210077840953913  0.5193129132603432  0.3633873861632734
  0.6038342037995620  0.5710196758501849  0.9660726510539156
  0.5458360528070275  0.5760546738555327  0.9465921325139526
  0.4047922000941437  0.6421593911908023  0.9378903034766766
  0.5646674885571320  0.5500950645363606  0.3005732953559689
  0.3068569256797329  0.6397900920472144  0.1881954470328129
  0.7787719830016125  0.6396583022116150  0.0069032858600588
  0.9121553910188913  0.8155878680559204  0.9644780846385834
  0.4185677235052310  0.6547739438569569  0.3907455438566080
  0.9840249242929600  0.5337449679526564  0.2798886349252891
  0.2121177614403290  0.6167340399962218  0.5091079971991234
  0.6597875649959636  0.8907238876175432  0.1451561184329919
  0.3558202540662997  0.8047920051032236  0.9495813462865647
  0.5576103454502418  0.8850866725379212  0.0018879668695108
  0.0270979175064570  0.4758567522752318  0.8045500105740602
  0.6759948140057989  0.6603688729613996  0.1373876862362456
  0.7301708676195591  0.6911261234918953  0.1477451694663590
  0.6276419161966897  0.7393869505419235  0.1556750122264690
  0.1540474472513679  0.2270897540212674  0.9915590566495368
  0.6286893876227565  0.8029485847390092  0.1377625222097020