B  Cr Ni
 1.0000000000000000
    38.7315947344316172    0.0000000000000000    0.0000000000000000
     0.0000000000000000   38.7315947344316172    0.0000000000000000
     0.0000000000000000    0.0000000000000000   38.7315947344316172
 B   Cr  Ni 
  50 1596 3725
Direct
  0.3163136741070465 -0.0281274770760133  0.5684138875605274
  0.6129195484187248  0.3769661250709430  0.4740044334142489
  0.0565375560183612  0.1990880905081925  0.5927779675093486
  0.2538764650951889  0.4028275657099083  0.5739168525240986
  0.7269192505831683  0.8348055070575052  0.9417824050240916
  0.6398807051915871  0.7525760776019796  0.5420069700075785
  0.5247989107029100  0.8056434679428606  0.5703279463395883
  0.4019556116594459  0.1322838311863801  0.0906683989826464
  0.1649301262642937  0.1837865080061904  0.4635332114790556
  0.1049630906006563  0.9731538382155133  0.5856082675641513
  0.0496042961530814  0.7806910009417866  0.1222510913039619
  0.4728437181462095  0.6557139449275048  0.5110000080680247
  0.0808433769842376  0.6492011967373593  0.4902082006001033
  0.6841926100215161  0.1015588472956382  0.9760113649912197
  0.9486622747342777  0.8002989224920178  0.9640930392161997
  1.0270975886642699  0.8968912156003104  0.5804027881305123
  0.0085613505606069  0.7681348235057051  0.6771440887797200
  0.2582603392726999  0.8198779614951426  0.5863776518677689
  0.7635582140971965  0.4050504296567399  0.5225633152404775
  0.3646555754647680  0.2451231148131528  0.5218076851460642
  0.6171722462478049  0.1189122869174868  1.0214546177018189
  0.6352866355243131  1.0036071037983996  0.6183596666015679
  0.9042517231542070  0.0083909676121854  0.7993982811730691
  0.4297470932805280  0.1366917518259288  0.1253918574545110
  0.3881826008839156  0.0598216204609886  0.4674658874178168
  0.2204718640973564  0.1877766985298565  0.5968313945102035
  0.6887484818717842  0.8323055557584187  0.6068610963189446
  0.3710203964545066  0.6569584408544215  0.4757115011112200
  1.0316962124804716  0.5601688688666492  0.5021988311267208
  0.5072451423233685  0.2691271956189246  0.0049759760362527
  0.1744550047014654  0.6474542221581380  0.4747589676720084
  0.6750538172481327  0.8955541262602801  0.6598983932815874
  0.5796687171861334  0.7962300669490457  0.9006011157727910
  0.5130413086854182  0.4195042579659457  0.4879836802053548
  0.0015148900875321  0.8448840690233360  0.6598914197401082
  0.3793317418982699 -0.0105919712980560  0.5082063841697954
  0.4301055919367450  0.8915190446310841  0.3309318062857987
 -0.0039437382320505  0.7858196502853917  0.5978804023836617
  0.5137485353834929  0.7856558220441117  0.9489729341406080
  0.4013254315458437  0.3309492193001894  0.3646783775578483
  1.0002864246333087  0.6062788500978703  0.7648039928906780
 -0.0103761862273245  0.4379778503752866  0.4712448640940838
  0.2498683247275273  0.8318799059952497  0.0665405835255262
  0.5036320148855350 -0.0675766822181237  0.3453658655374268
  0.3730956146164691  0.3105397073850022  0.3925112289758907
  0.7369945145622742  0.8996192960206649  0.6136364814063360
  0.4344526043387742  0.9510505675999563  0.3893435057065606
  0.3101765648028444  0.7683860129672826  0.1058464778883324
  1.0042630283342528  0.9351183755692174  0.5892567504045287
  0.5323451510451983  0.0595057388539390  0.9910215140312316
  0.7142291294029789  0.4091007176202738  0.3390322453727280
  0.5339541461520200  0.1760545463526069  0.8594434481903647
  0.4814782728289233  0.1371629550607434  0.7930875442087459
  0.2290539560384857  0.3355174862577581  0.3756975986181716
  0.3916354064597606  0.0492873297597805  0.7235880349691112
  0.9203438110848289  0.0431042590181500  0.2851648224626168
  0.2859365974485670  0.9632601624552909  0.3699012634821979
  0.1293056025948691  0.3810496979103283  0.3799566443482627
  0.5075590747623450  0.4416376793160692  0.3716799116061733
  0.1670797013838368  0.8427601678473400  0.3684730046454807
  0.7398922264473039  0.1942330545509200  0.1958620178990170
  0.4479998363153291  0.1724892196775100  0.6104032849822771
  0.3429787651775418  0.1423620496021767  0.5214246718625468
  0.5931531607510943  0.3196039265499473  0.9141456859529892
  0.3238767710228612  0.8078362689045785  0.4317686531181841
  0.6571557279505917  0.3787952074403135  0.3301188730247980
  0.8583869949724043  0.9490410322384261  0.5209739650484174
  0.7164008403341404  0.4416652923306043  0.4418594677304262
  0.5517205111298640  0.3682925507756634  0.6646994225406290
  0.6147422897268915  0.0773524751582358  0.7940146047396701
  0.6254279734811502  0.0327193860993316  0.7516697029205837
  0.5084917060359307  0.2305927596183956  0.8498695107368697
  0.3297126839300539  0.3371009459584809  0.4161713189715873
  0.7912774625001927  0.1938572349962890  0.3282986403018865
  0.6748132344196283  0.1041683084488007  0.9200927795750484
  0.0911337487627317  0.5189189637457750  0.3769972680859559
  0.1452829534150340  0.5375298282945462  0.4485006936522979
  0.1380125295483811  0.4420211024908210  0.3593751165394186
  0.2504376831888122  0.0616291670273366  0.0178787154084793
  0.4589939646799863  0.0435812703890374  0.1475314097107882
  0.4244045503587458  0.1823072382310469  0.1551724626022212
  0.9875070513488046  0.5499934794231638  0.4447178087180279
  0.0953424354847762  0.5949379926291812  0.0719720415391807
  0.1404298965112927  0.5000343387464122  0.1154683792525353
  0.3166155381332839  0.1695600212889994  0.4070567122462096
  0.0816295862416858  0.3938665188754892  0.1859078234544040
  0.9278521402438921  0.9831938026547645  0.6513191577153272
  0.6750960515363440  0.4729849084125756  0.6384183889341418
  0.4850749673231495  0.1753788233456720  0.8966753524408345
  0.4456944765861922  0.1249207813117099  0.8930435515581048
  0.5095948324768832  0.9688880749488470  0.8576913381566833
  0.7492006911732778  0.2864074662219627  0.2821012441804640
  0.2553448856824652  0.0250740250513616  0.9094966029863013
  0.4148649617230279  0.0272616362365460  0.8498503726568072
  0.7939115088975363  0.2084800433485099  0.2676728716825481
  0.4977778847709077  0.1663871709375562  0.9561828553013008
  0.8301769042857808  0.0406409367427947  0.1589229112676419
  0.2737282950993390  0.8544802365303267  0.3445662259759900
  0.1216653130705919  0.2838171685556851  0.0732195484331794
  0.1083649046870758  0.1947428250209226  0.2129383620384178
  0.0100135534363736  0.2747639861318403  0.3247571942647060
  0.2073826020390845  0.6267840193737038  0.4428422479991774
  0.2065418065367169  0.1988732852777770  0.0171978451422166
  0.2159258945354223  0.2116803699363870  0.1861459117738899
  0.2707297502211406  0.2285413136609248  0.2570274763714744
  0.0400258674024195  0.5142597497305769  0.0246427538355537
  0.5121771715176656  0.4540215305361066  0.5316069903142325
  0.4794230227290853  0.2492552891600542  0.4896392779808026
  0.4817859695316277  0.2614049862896886  0.4306222413657561
  0.5831079961028992  0.1945328071429062  0.4839716849811401
  0.0375962584663417  0.5180272938847419  0.2462439066848560
  0.4017880431110714  0.4266825465953202  0.3953676779185481
  0.1385362744917975  0.4559378402069051  0.2980801765520181
  0.3740374540018647  0.2170457266381526  0.3557714683062652
  0.3776380124884157  0.2572185890533413  0.4052534027354432
  0.4684716292400763  0.1196208756497782  0.3009377245360674
  0.5119326560659436  0.0240180036271369  0.3439558919247389
  0.3689933004293685  0.1703999226803142  0.3104431848732451
  0.0132574786555886  0.8856392168939433  0.4783635835664741
  0.0665509900942419  0.8531239530897172  0.5018431938113228
  0.6625480457725124  0.8178018508778060  0.7703643496994504
  0.4533569947070493  0.3244088594013002  0.6407863023446804
  0.5251339022965387  0.2729447965530443  0.6146793262628372
  0.8603217597007685  0.9955663565956960  0.5663321834095576
  0.3189519823667010  0.7788639785841097  0.3253621267003888
  0.3703983700669468  0.7638116008112638  0.2895303337387175
  0.5086590438864852  0.1989594222922903  0.7374332151190417
  0.4221664257491115  0.7184019030328529  0.3757185387513498
  0.6216575075298798  0.5657029005520373  0.3712715517037992
  0.3737400642277001  0.7948044849636133  0.3961441894149235
  0.7684878529210339  0.9427108383272331  0.6055366812881042
  0.3234361354477522  0.8254216446036781  0.3706926461018091
  0.5783767879806434  0.2122954427261428  0.9391218066134132
  0.3934552310968133  0.3316081978561103  0.6197553675061654
  0.9232903009506379  0.2292126217509490  0.4680377308129565
  0.5309509218745738  0.7639054602373782  0.4567332986489945
  0.8041787814543168  0.7793661065950912  0.9356205678305448
  0.8859478831139798  0.7158245094576398  0.9711749542355701
  0.4336711999416580  0.7734668471503986  0.5369947309885804
  0.4345421491319764  0.9158086574546302  0.4994918475065736
  0.7698381945294236  0.4285722518191088  0.8382049721245667
  0.9294549069726833  0.1364951820971713  0.3732757784312501
  0.3309563226557784  0.9005439776274514  0.2899562765241207
  0.2228421859425622  0.8865163712953185  0.3188356218762372
  0.6015057594499066  0.4056151576160835  0.7325143229721675
  0.1125703747779500  0.4365644462111518  0.0082931400082876
  0.9106151991958268  0.9009656752097744  0.6059778987132319
  0.5793038708656755  0.1470791934371924  0.4390871402041712
  0.8523984127389396  0.8659074221339793  0.5945216089521981
  0.4021209305339220  0.4388572669343425  0.1080488802786066
  0.6541456517880710  0.1604613611456907  0.9006750852510484
  0.7236023433396522  0.0578623006483638  0.0591661879436102
  0.4056629770573034  0.5016726911488540  0.0928991354546546
  0.5147237317328934  0.0698068495658283  0.8739758962506738
  0.5844879275138888  0.0169933267634843  0.8540643215271392
  0.5858545245305047  0.0528374772356053  0.9596311144387508
  0.5477874812117871  0.0039685879160927  0.9588881140822779
  0.4777139675426764  0.0582911936512747  0.9801536051077641
  0.7578774168965010  0.3616684919755355  0.4303776653444785
  0.7846514511288373  0.8022386177355003  0.8093997874895090
  0.8898899723688601  0.9341062878883954  0.6481251502484024
  0.4425706992623380  0.9975275041748360  0.4213205443159436
  0.8994553104676164  0.9207137933859629  0.7123727029152825
  0.4786454708925806  0.7330580669402063  0.4475086482640516
  0.6901317126536946  0.7736557572911216  0.5656053282052469
  0.7691783690249960  0.7792548957853922  0.6450417457172573
  0.4800253350715166  0.7945061545004951  0.4330735314431615
  0.7462868510928574  0.8450526183018173  0.6223994826581699
  0.3893779494132443  0.9189762228865230  0.3630888064735278
  0.7991515028335071  0.8767980915428657  0.6872022614812403
  0.3998223670596988  0.3931198397599756  0.0639111831737262
  0.5503754044246147  0.3133356957023746  0.0779987984809059
  0.8343571456623283  0.8409973314458216  0.8755230099988254
  0.4497608753272868  0.3623269011790820  0.0909896243343551
  0.3547922067481460  0.0440580298083943  0.1167552151454164
  0.3083032137988736  0.2201649581756321  0.9946846897431623
  0.9806480297270870  0.4545824519008037  0.1313825848765362
  0.0822196771479695  0.3573486888487685  0.0764718594859426
  0.2403611036721166  0.2965073589451420  0.0401489108029742
  0.0305210215045181  0.3738840078168909  0.1108816143845784
  0.2334336858021723  0.3312094680671591  0.1442623834328619
  0.1396546005837224  0.3956469411102118  0.0289742877965289
  0.2507747867886719  0.2409605359742658  0.5842009744306085
  0.4191242142493796  0.0788499995035727  0.5604222437524278
  0.2886540162443945  0.1380679594564004  0.5593624417978028
  0.4943279326797048  0.1273509629606615  0.8527414465159290
  0.4645761756269224  0.5484795994351469  0.4947995542236708
  0.7826045959182102  0.7109965817884164  0.9934196144141377
  0.5134700645239155  0.2862337808785798  0.5472183073135537
  0.4539882393885146  0.2936916186022132  0.5324213007863124
  0.4175152472592528  0.0097921018228285  0.6436140293233914
  0.4415968026227766  0.0534601030587483  0.6833206827673617
  0.4824378639236068  0.3268300064268150  0.9323691382062678
  0.4461753729257059  0.3167425543291397  0.0440160465991774
  0.5539521457475809  0.0841778722555449  0.7709384817134899
  0.3356917755056997  0.9811884544585666  0.4461201239664496
  0.4792360174555261  0.0030894321851569  0.6676322486331019
  0.8608816347270282  0.9040872766749347  0.8133173044566703
  0.0379720287671690  0.5328205035878899  0.1845418608347927
  0.0148393158792550  0.9302848335893547  0.5327744012341872
  0.6288208011911348  0.1657417964316978  0.0572793262267963
  0.7814796516004821  0.1690504803555314  0.9949044498857008
  0.6663923075525834  0.2675682985166931  0.8914367626429807
  0.4792000559544715  0.2364305394607511  0.5514322134834624
  0.2596514686949442  0.7324380241234471  0.1453422286967073
  0.2129398751229715  0.8092392744890197  0.1669176289595397
  0.2669686797032008  0.8248374937459844  0.2366922843906860
  0.1756845368159169  0.9320489730023831  0.2255673170939576
  0.1241531274269562  0.9478054074637433  0.2619300773602068
  0.7753952970431549  0.0114255143469476  0.1492470051508474
  0.1409700788837432  0.6430642095889284  0.0155003575178394
  0.2598554272122150  0.5885403882405423  0.0146648380198750
  0.7281537166241049  0.2266070526708985  0.8048967003432891
  0.6668575144212776  0.2340234196809066  0.7835425791417840
  0.9710318837875166  0.8895236621976689  0.5745915911859607
  0.0581277028954909  0.9433853792791248  0.5921882972325007
  0.9624602328585572  0.9520606059881875  0.5562820089997749
  0.6339707267000333  0.3601749804640411  0.9806629038115195
  0.1787613695369391  0.9618050350437390  0.3341315261058327
  0.4428963944237345  0.0886820261639506  0.7900943606172779
  0.4683541301606970  0.1841149848684428  0.8387990411842147
  0.4017379067557375  0.0165132100488737  0.1422164774517408
  0.3201280905486243  0.1985465681470751  0.2837160633638293
  0.2534256052761868  0.5458016016590359  0.4259502910920672
  0.3802461737302890  0.2814030682371068  0.3431834809858423
  0.3251694399665574  0.3269819919891135  0.4809574820596120
  0.3266243077700640  0.2895462007463787  0.3718448293163978
  0.9980202616857188  0.6905037047121876  0.3527733082462270
  0.1930104822585876  0.4720620946709545  0.3705326200496601
  0.2483630681398688  0.4838748438574794  0.4450189040453091
  0.2988275324265497  0.4723840083114154  0.4064328473161915
  0.1456434311924350  0.5492256924995047  0.3877481268673269
  0.0911225337015320  0.5333578502730062  0.3162055720895296
  0.2491073606004212  0.5182158887055628  0.3173254694950771
  0.4879212335002278  0.1906404906659031  0.5092591348553651
  0.3434630398357009  0.3268230664624332  0.6595720397461970
  0.3188991583598434  0.4183708563784209  0.7484287027672010
  0.4344631342600349  0.8897559990886640  0.3913757562802700
  0.7516928384742335  0.5884602081518372  0.8401031528599404
  0.8120881685798346  0.5816312510858203  0.8614085989408654
  0.6686013977185415  0.4204603005016531  0.9176017476812518
  0.3443249642893105  0.0212242954685414  0.5535626158410614
  0.2535500983781690  0.0924722521760653  0.1273147762841334
  0.0997652077947213  0.6268784620928662  0.4044376846375047
  0.1076688109311690  0.7136332318859582  0.4967439739300795
  0.0622660979129839  0.8092143958263812  0.4577957950646662
  0.6934042272378456  0.3615175712863931  0.9384106187190585
  0.7374496781411963  0.7193282543241362  0.4816473639963270
  0.6756141073250623  0.6281688433090376  0.0267692297385699
  0.6871143208141177  0.4594952374337612  0.6968738574152634
  0.1856657994617272 -0.0111212288837739  0.2045523911190801
  0.8896382533868776  0.7677774033609523  0.6848027078349449
  0.8826402729364998  0.8133409026991797  0.7269886087502835
  0.7196995252869151 -0.0022518876184413  0.0761572259098647
  0.6689208668449752  0.0885882572007610  0.0308941760450998
  0.9307941518192338  0.8849319236108998  0.8958437127017989
  0.7482757366873430  0.6865179933348502  0.6020456810163621
  0.8660415809300265  0.7389413721632335  0.8492454049692264
  0.5873402097214009  0.2340558087596032  0.0739429571370437
  0.5011093196977034  0.3774417316668473  0.1582222891022126
  0.9530254680441695  0.7953248563675028  0.8100583589132143
  0.8328039105465661  0.8084635670359070  0.7698170655013654
  0.4524053415603275  0.4087616120909751  0.1343834649017198
  0.9424031551101510  0.8404315597020620  0.8545364667365425
  0.9174610848498262  0.7763137258370569  0.9182296820545003
  0.9922116089165781  0.8762274648739722  0.9198473355954024
  0.6198929462448893  0.5352789519784652  0.4947422256128504
  0.4594750572814899  0.5198023127720588  0.1618566395615277
  0.0578017398053925  0.8270562742189963  0.1639523612810031
  0.2130139056650061  0.7941471706858206  0.2270722675172382
  0.0679267386828480  0.9342086909861852  0.1915272218826994
  0.8035844623214061  0.3014073310555249  0.3540090391171714
  0.7907376818765084  0.7378739827019936  0.5495589191658393
  0.7313884492362015  0.5973144457353877  0.5150196432680499
  0.8115197950787947  0.3621539467290928  0.3341741661599618
  0.7676591523592952  0.4392476494021522  0.3478772292126556
  0.8230517572823114  0.4695642985673015  0.3572501915178034
  0.3996139982421433  0.3884722090672760  0.8918448621305880
  0.7782238170280077  0.5485858083441777  0.3743941286186035
  0.4485921942120809  0.4277140730958657  0.9574297265742330
  0.1878927463323010  1.0272182605485478  0.6148402607425292
  0.1323761362199840  0.0566935031897860  0.5205304120398316
  0.0756704198933283  0.1436578047654152  0.5912323879200886
  0.2828459036364819  0.0522785794470521  0.7415604216820220
  0.5355068491109940  0.8055506500404486  0.5090629519406155
  0.5861593151853906  0.8129849295419646  0.4062907090146572
  0.6125183308492711  0.7802270243785003  0.7033628487361741
  0.3001808012667305  0.1932279813789251  0.8319759272917685
  0.5386703201124309  0.8715383559025389  0.4896051875015467
  0.5904197205885129  0.8578271130815711  0.4536753252479410
  0.9890806389266762  0.1623323894951854  0.3724758164012970
  0.3709147805067525  0.3274418275119702  0.9540503059029115
  0.6137431159005031  0.4720056695412964  0.2825665864550287
  0.7156366148700265  0.4404192728286617  0.2145178570951871
  0.6859834510258017  0.1775036792758508  0.1266031543889123
  0.8515427798937294  0.8233444146114238  0.5492851964287657
  0.1669717132672061  0.8717769929424211  0.2444591562087573
  0.4085200169705756  0.5205120220299377  0.4854313561471981
  0.2943686974259007  0.2324360222031172  0.5494614030240378
  0.0502868706713153  0.2103540214212594  0.0198359641087959
  0.4830388590457015  0.8764395218971612  0.3556751945536589
  0.4273630717074972  0.4502587649526910  0.8343620203588994
  0.3778725503143556  0.4451187643874061  0.8745941122509840
  0.9862085468707548  0.1162573084082537  0.3334781828893589
  0.4559827871079336  0.4419096005255088  0.0107474633939317
  0.9465455499015180  0.1800037488387597  0.3316095615559325
  0.1474454159988246  0.2448584692083887  0.6066095345653177
  0.1864754535912486  0.1432026477497430  0.5712736523589116
  0.9023104011837800  0.2567987675554065  0.3487463071955630
  0.8771484409571457  0.6599321408853329  0.7021044170293663
  0.9461906510160176  0.1474528442636432  0.2265269460329105
  0.4937454098078161  0.5613440263363053  0.7817561883206704
  0.7989900684252057  0.2409064069441823  0.1435866138761683
  0.6743427695875162  0.8060133943042901  0.8304288394757724
  0.7048651332853272  0.2978798885982347  0.0847781684247742
  0.7129676804888030  0.3931640269490075  0.1709385985874042
  0.8700197525623875  0.8915217729176641 -0.0098861540349751
  0.4120342133469435  0.4666920681433595  0.4984702647874380
  0.6642718726586383  0.4557257409648295  0.2496862976033125
  0.4731667813903480  0.5533658896755215  0.5516563947313498
  0.7755637322587212  0.2264861540766674  0.9825234566537369
  0.2084146198115041  0.1825680588833019  0.0793526036924119
  0.5768300693563341  0.6317717713535898  0.9417062757772383
  0.3530459401292971  0.5015865689053954  0.1862806091301644
  0.6911560713473722  0.2240424000195438  0.1685314398687504
  0.9929845328844513  0.7189163698324681  1.0062762771573204
  0.5529930676696911  0.3792486827681633  0.2931184072285523
  0.6053582228260241  0.3780733159423005  0.1953078512539228
  0.5383022916705517  0.3903035939810954  0.5293106577271366
  0.5599477466195426  0.4559648492031231  0.2131852053219679
  0.4067175982508471  0.5183587266218204  0.2568660468212645
  0.6506910655023594  0.4099601260279829  0.6911078911168599
  0.4625178014523689  0.5648708760858980  0.2036813669318978
  0.1034435273336082  0.8107024843299950  0.1318421003336306
  0.6382307364548125  0.4544675205256539  0.7355237295432864
  0.4150803715298154  0.6261688524275504  0.2843039073993490
  0.6860410166731359  0.4926976684017858  0.8005103595076131
  0.7478359561488285  0.4865648604404082  0.8206457577958238
  0.3117328404983705  0.6867378899091734  0.2327765011895204
  0.4184030657963892  0.6877357378266092  0.2694576217303785
  0.7629552953695072  0.5782259962666082  0.9004718007418645
  0.8322882616487568  0.5592784379694886  0.9875048513909787
  0.8226585158477220  0.6176263177415093  0.9702400761488524
  0.8413896102443253  0.6763926044073758  0.9101177490009763
  0.6838118807954884  0.6061864225613123  0.5495765363892151
  0.3595501739720860  0.6102545100069502  0.2139444772517760
  0.3606970062629257  0.6450387919410177  0.0863498035422193
  0.9333962342605647  0.4506845114110939  0.4551860988967518
  0.6805062236258529  0.6396719028674790  0.8653142890285346
  0.6077474382973855  0.6599453204899275  0.7811652811485232
  0.9107672681883300  0.3526411409174836  0.4405511934805365
  0.9672833710444538  0.3880909562292779  0.4519301435960180
  0.8713048293144008  0.4200042172466211  0.4431945705680854
  1.0139321954634117  0.4063325440405033  0.5122048114366233
  0.6751831435148972  0.5799038123793975  0.4435231728770393
  0.7865725927042637  0.6424413367706407  0.4613478219885761
  0.6793034315804313  0.9247375252630275  0.7538697777328164
  0.6681232525729740  0.9701054751318622  0.7963168872989828
  0.7295107548002433  0.9629049839339480  0.8163058179927007
  0.5611525066647857  0.5033636607172918  0.0319124633906426
  0.4293519101782222  0.8071628127935192  0.4712948272941662
  0.4504175617942907  0.8481920413637394  0.9791168677523987
  0.4774549679166065  0.6569707345099389  0.5685386649617589
  0.5845051102744386  0.8129833500963619  0.5745781776593694
  0.3948341234666329  0.7425704409331898  0.0250177020993014
  0.5405468976929764  0.9174890280279542  0.5357386268942435
  0.8316104988094600  0.5629395916220482  0.4455042422484244
  0.6146363731298746  0.4868708131908773  0.2223250006783671
  0.4764094106693654  0.7670676175167259  0.3234751381909216
  0.6745083547205387  0.5802848500120031  0.2154089899443989
  0.5415367748679052  0.9324925649670948  0.4750350536909749
  0.2830173663049679  0.0855627386893648  0.8477628592219436
  0.4600173923491264  0.8640538242244397  0.5806814511089040
  0.7359352683510763  0.6725899488651370  0.4365645303224230
  0.3589797389924971  0.1177295333121453  0.6436335822736448
  0.4104372342180524  0.1567060137401183  0.7103619454202666
  0.4592185858329759  0.1606325710777549  0.6699179882719780
  0.5173201724107004  0.5810031824724561  0.2747813005866023
  0.4693921876447709  0.6583125392300250  0.2936454657611891
  0.5181874392760720  0.1853964734145067  0.8004316304821785
  0.4439255321002017  0.3368230142126856  0.5783899444844648
  0.8603023692712175  0.9326907633920593  0.5818746245077536
  0.8529860671358398  0.8832173192560127  0.6462738088107350
  0.6320611047172691  0.7035905343116695  0.5056048594712054
  0.5961632789276473  0.6399689663943714  0.6164060125619959
  0.6243778686860818  0.5947494225157178  0.4777345421985928
  0.6457838654001997  0.6777445621698274  0.6810888827146658
  0.6567798493034380  0.6644250982361051  0.7406621338054377
  0.6954006656885642  0.7151066688963486  0.7444780488004956
  0.6230360326440212  0.5205146376894476  0.5576528725102972
  0.6897413867633294  0.5805056095752580  0.6207528995833007
  0.2304626597235571  0.9279754990420461  0.1218649297457439
  0.5873455754925520  0.9996721598237852  0.6520548504553544
  0.6585868287951252  0.9460803512194732  0.6272999792904810
  0.6461936823176868  0.9199207586594208  0.5718710914996622
  0.3027360925288803  0.0754873635358345  0.0908707268108346
  0.5908134667282605  0.8843997498356282  0.5631391997364722
  0.5697546287950392  0.6108491960103006  0.7784912053427825
  0.2602058648486573  0.1766949587942870  0.9301890295569510
  0.0955942966158364  0.9752965477251164  0.6487821981138789
  0.4146077432561017  0.2190151071701960  0.0082118509420343
  0.2209067977071760  0.9908683911236698  0.8073410534948158
  0.4553450567065699  0.4774269445587425  0.6721731773506624
  0.6463861704822464  0.7101726364360764  0.7835688097198104
  0.5152376622727004  0.7380927173294347  0.6804944274868514
  0.4040984923393668  0.3202284449558445  0.6817815418755718
  0.2177147836881171  0.2229749967923841  0.6879406856258662
  0.4151800911870738  0.3090419853155742  0.7439215642838959
  0.3516584234369911  0.3495523492027042  0.8274913946112505
  0.2582949461592203  0.7963839449765018  0.0257256536477295
  0.4524967190574891  0.3578850520103004  0.7468048196552705
  0.2132604009932715  0.8248402547227290  0.1073239606111978
  0.5007451603541985  0.3965430773904522  0.8111712726436862
  0.2243434290105329  0.8823851855033730  0.0778069231411718
  0.6098072923011084  0.4265359757447216  0.8965526681717406
  0.5387871977447261  0.4796459672601969  0.9218188333989952
  0.1764577427864235  0.9467305152917980  0.1600022516172939
  0.3006389623961860  0.1597196995270242  0.7270282004597547
  0.1041015108989986  0.0742154546383851  0.6725585867403160
  0.9970477824507005  0.2042993697747353  0.4118903908105259
  0.6575511786265907  0.6989531031163942  0.8460100650367323
  0.2728257122779581  0.1313065042270286  0.8911156751284722
  0.2142381748195660  0.1373781357020870  0.8673972597153242
  0.1538919400507290  0.1120236090660258  0.7398113795469538
  0.5855709650550724  0.7521120124909377  0.8660637795518548
  0.6076386100055065  0.6963178753772321  0.8869425376057279
  0.6455269202588941  0.7438909175817828  0.8888590490326013
  0.5239412157961972  0.6890004706343721  0.3039627478276860
  0.7107814173625167  0.7267909314427127  0.9730448446800218
  0.4263025794644887  0.7963806520302987  0.2988678651693811
  0.2451547834921571  0.0705253668614370  0.9522541627314126
  0.4285688715623645  0.8598531239077205  0.2837774997191304
  0.3953141281558437  0.4854862247804461  0.6518451315293283
  0.5151952725887140  0.5043922064808992  0.7984379686641101
  0.4816503524756283  0.5738431334154267  0.7202739503911398
  0.9880402234699985  0.0251292445252823  0.1615872892392869
  0.5321801827813905  0.5939554757845661  0.8826726227031132
  0.6848819015082710  0.7607945283161774  0.7874025615338536
  0.8979689814887000  0.2102457123272167  0.3055798845482637
  0.8530756505360302  0.2855843347493505  0.3204247935394669
  0.2945703501179911  0.0753861208407461  0.9115071106200562
  0.3475148732043183  0.7683501066262037  0.0603673167298287
  0.5312351268852386  0.8447446981925093  0.6652810719446596
  0.7770451265913999  0.5336877823866092  0.4367856833845511
  0.2526946588826682  0.7554683368335445  0.0794935490866427
  0.8645360497026330  0.3756347789874684  0.4074674712627300
  0.2960291565546435  0.4547537772134401  0.2395738732685964
  0.0043963063427382  0.2298688425513225  0.0482418934074403
  0.7187809890995969  0.0161493489782721  0.0108631608866779
  0.1544635391787446  0.7504714738041943  0.0543277613424766
  0.6754726687034671  0.5393894811376263  0.8436320786323606
  0.3053271493379667  0.6301589993557613  0.0213652935028230
  0.5251825087248244  0.2144914410787131 -0.0170645707674801
  0.3922663420967692  0.2745705280622656  0.9740513159513058
  0.4598385938128677  0.0271509898898948  0.5376796676302020
  0.5064680911332244  0.1312290808795786  0.5220302035842177
  0.5204190420672498  0.1203765579916986  0.5850409708105981
  0.3014768388461445  0.5007266229611599  0.0545882384636340
  0.5704309541925999  0.1569589906860306  0.6525092768991871
  0.5482831773282987  0.2160455466051480  0.6346321199718904
  0.5359672516059396  0.2617322883743856  0.6789910882739604
  0.1994443575469119  0.5444118997768626  0.0706338010111075
  0.5962631842849671  0.2525718040562153  0.6998639952685832
  0.9892866211857183  0.0086701543884948  0.7750604258096638
  0.8023136674086361  0.3609070279969328  0.9217742239410373
  0.6718999849268752  0.3850914431845312  0.8145821796785624
  0.9851225380569861  0.1474190600346304  0.4364654781322829
  0.6634753625590545  0.5173860319999174  0.6779557042137756
  0.8773160112561562  0.1522245320511790  0.4085979823109608
  0.5910382535725645  0.5695565927141281  0.7007396447665535
  0.8813126301784234  0.4371319884890314  0.9864441070388820
  0.6795214828635245  0.6078346313700651  0.7573455955909120
  0.4262197309988534  0.2639864606171687  0.6991172074990214
  0.3602852670199866  0.6060252032895136  0.0404083262252570
  0.6301850006712488  0.6032985380349420  0.7984695579650083
  0.7297963998896480  0.6455652631432472  0.8240766500283325
  0.8549978013888067  0.3001942252675552  0.4934002948835593
  0.9050400854156371  0.2885448607926251  0.4578802909606257
  0.8025088133560399  0.3357326292104682  0.4629274816588535
  0.7284623970150218  0.6796844683131265  0.9278857003835808
  0.8295366042458996  0.4860749895099176  0.5182663651767370
  0.5727469597839243  0.6119731783276731  0.5145275413554905
  0.8066516235762144  0.9048522661110736  0.5680187445293937
  0.5894779689103110  0.5380187383061157  0.5951525772788067
  0.6331908127319079  0.7189322445785685  0.4450469447087061
  0.7562416454716485  0.7413570104469887  0.8715927538659938
  0.7783794169680163  0.6503212722804266  0.7843197712286434