B  Cr Ni
 1.0000000000000000
    38.7315947344316172    0.0000000000000000    0.0000000000000000
     0.0000000000000000   38.7315947344316172    0.0000000000000000
     0.0000000000000000    0.0000000000000000   38.7315947344316172
 B   Cr  Ni 
  50 1596 3725
Direct
  0.3164824299359147 -0.0256106637581286  0.5688300837177344
  0.3704497088354612  0.6569652175180858  0.4758679058630505
  1.0326659787980119  0.5609111249952974  0.5021819591716910
  0.5063088491511047  0.2694663654203443  0.0066625922437664
  0.7283385503310521  0.8951826618077490  0.9893194750281316
  0.6747302863524651  0.8951015700401447  0.6601220346887822
  0.5642127661269560  0.8535990794751300  0.9443554349046246
 -0.0034628420982160  0.7858607099710616  0.5977386946684012
  0.0019774951678433  0.8448342717676162  0.6599472212785918
  0.2386315476929327  0.9589663884667192  0.5161571708783232
  0.4302597297776530  0.8915886137082248  0.3313139969914410
  0.3869610561229677  0.0585999244617847  0.4656362904976939
  0.4017396899446364  0.1322008868528119  0.0907582809021931
  0.4014978988526984  0.3312294920076110  0.3646827686325179
  0.9994802856242172  0.6073233601245381  0.7655936236231236
 -0.0095885335317493  0.4385545430390919  0.4714529259003487
  0.2495188549668426  0.8315720260539311  0.0657650479602570
  0.5036370247097425 -0.0674185110556111  0.3456771095148707
  0.3732364333395232  0.3111147915638443  0.3925945496174086
  0.7371834785855989  0.8997290984064272  0.6138968694073690
  0.4346031509215170  0.9512354197911416  0.3897409740430448
  0.3125470865007610  0.7716098169704576  0.1084383608895532
  0.4353696726662860  0.2058200659608551  0.0448146308963090
  1.0060010439168214  0.9359381502149948  0.5892554277248900
  0.6888175513698551  0.8346010129954450  0.6099699676404062
  0.4296232414530695  0.1360542489505693  0.1258194366897374
  0.2203126101832178  0.1873226564854698  0.5969750223301579
  0.6128635155503583  0.3769913843101712  0.4739005379819617
  0.0564820163188324  0.1985072968327830  0.5927147109294634
  0.2537401405176176  0.4028414711558217  0.5737565918311487
  0.7261501258438591  0.8333571754720059  0.9426780196230017
  0.6369249204051995  0.7516435376888424  0.5393258407328557
  0.5247143677876225  0.8058195911837707  0.5702474099909652
  0.4730424604433669  0.6558859803855283  0.5110787504414237
  0.1647151794235517  0.1835676999061471  0.4632706254189127
  0.1542604353807345  0.9704767432669493  0.6319888074583052
  0.0497055739302784  0.7805507416701359  0.1222227228731447
  0.5129248883090798  0.4194705865880000  0.4876458479735190
  0.0870771347386440  0.6522266210928350  0.4922847822194180
  0.7919804298857284  0.0972939482696260 -0.0519412927744289
  0.9489597295966249  0.8002435460643698  0.9640105938243173
  1.0283607161025636  0.8976703794893767  0.5804099243370663
  0.0088052894931677  0.7680261005115397  0.6770955661064181
  0.2573055404979206  0.8200517369573286  0.5868706188317770
  0.7633884776524376  0.4048065898574735  0.5226011933123592
  0.3646442961349659  0.2445067559952439  0.5215570905710746
  0.6214177347966571  0.0977274733273402  0.9488067678085401
  0.6347488838255758  1.0032126014930078  0.6182503803335427
  0.5167533614976250  0.7868435712275698  0.9533780581226182
  0.9037975698343312  0.0084308907791465  0.7993273162375732
  0.0892880160891250  0.5889115119317181  0.7499389661311145
  0.0464096158182338  0.6513759099032761  0.7002383929497403
  0.0798146729727906  0.6000810251733559  0.6892206641781041
  0.1809786216861195  0.9072236911095948  0.7004844202284803
  0.3936685291257743  0.7504176963974138  0.6388675921441151
  0.1341394373091286  0.7409707749931220  0.7687122901432375
  0.1761632296254360  0.9113731102612302  0.0534281850595046
  0.3951355843409738  0.9695721109644598  0.0985528044558605
  0.4033240812099385  0.6429591729626296  0.9389041836877278
  0.5992748121256076  0.8963872253880150  0.9589225817478245
  0.3601912622115232  0.9585601804883966  0.9813614183135256
  0.4643050722980921  0.7669705900021719  0.8248378694806044
  0.3651232646478025  0.7235370671836030  0.7993914697948844
  0.3442977150040266  0.7463300603379256  0.6762727102033151
  0.6676691370065314  0.9787426550820028  0.2361962688571415
  0.7894365200208258  0.7043518205239439  0.4459441360498430
  0.7939372585747443  0.7809743990245770  0.3713390130453332
  0.3746322992017340  0.7156654163442266  0.4732889657773475
  0.4261703353631746  0.7169349618806025  0.8214348921344456
  0.2193984028957538  0.7857639943049792  0.5109947220024041
  0.9475670380477730  0.6846466344108880  0.4512722493795275
  0.3067922647060660  0.7970142107004933  0.9978040052593914
  0.4805677392670416  0.8961543617851432  0.3008947205580564
  0.4807843125535772  0.8744169823143166  0.8114692013391723
  0.7363223891172710  0.7369879182012300  0.1933666719697056
  0.6891739642033404  0.8147065106435898  0.2141767921043212
  0.2744156150116820  0.7659028107869160  0.5931732260403081
  0.2218292689013876  0.7722697842646997  0.5718034962722981
  0.2229154503751128  0.7598922921153242  0.6322949898639610
  0.6367687951032037  0.8302654387996092  0.2505989329642963
  0.3376161369682110  0.7348432101195318  1.0067027456612074
  0.3226582128378996  0.8035309589491600  0.6575285512986183
  0.2918616217607851  0.6899077285139270  1.0008209236724175
  0.0445492364990131  0.6123993435520509  0.3332322228779423
  0.3371061873010022  0.6952521668135313  0.9608794194955607
  0.9893745721919912  0.5648321942225546  0.3862144907535606
  0.6028587981018927  0.0427587461409989  0.4040613536234114
  0.5088971805374710  0.8485653478388039  0.9342566642468833
  0.9013667734672240  0.8280428938096391  0.2259521585903550
  0.5530065945693327  0.8538511579227916  0.8918612346822059
  0.2555654194760976  0.7599638134310008  0.9217107289030740
  0.4595299384140589  0.9306519615291228  0.7925142590662982
  0.2831339506296546  0.8229076547411039  0.8654653223848704
  0.4312455407149359  0.8348951388410910  0.7457849879520574
  0.7422346942913028  0.7820804863859612  0.4675113658855514
  0.8327983187545259  0.5786060237630203  0.3851607444838210
  0.9579922746627542  0.2390331292240855  0.9304289812040342
  0.9235901438944536  0.4091114546762904  0.4146956394790828
  0.1980970379803224  0.6040924561512478  0.9290429929838456
  0.9524678640700012  0.8297352634969074  0.1288409827415429
  0.3640068636534344  0.5538443646667809  0.5712475296020233
  0.8232360088077036  0.5534416477705567  0.7244430370365682
  0.8766239266579049  0.0160883646988111  0.9510463606941388
  0.3499522815911402  0.4709066090665889  0.3090432604312670
  0.9819501872683513  0.6068722040542238  0.9711686739837692
  0.6970821643627065  0.2613804234085657  0.6161260359400735
  0.6737497580794367  0.3211257017160297  0.5983127184995594
  0.4882638089090223 -0.0411103515679023  0.6241814423726855
  0.3538747081411688  0.6705460588824750  0.0250445203382286
  0.3466513047647156  0.9974171318611436  0.0712925636027729
  0.4588742760879301  0.6781300033925085  1.0043869823155889
  0.6627356620077839  0.9505605934512008  0.1295858586186900
  0.3860525592785366  1.0046470861118513  0.0196425020110193
  0.8895495134549316  0.2422681604564893 -0.0009318039766060
  0.0757737612521998  0.2957085498910123  0.6276070629361746
  0.6090107361783855  0.8584455589793097  0.1371395869669127
  0.3893356830509290  0.9827919019015374  0.8136209711385506
  0.6605147408255738  0.8428703692776061  0.1001522736997256
  0.1011561505271003  0.3889556994435359  0.6749195700584585
  0.8758836396346069  0.3541551401803891  0.0054902423787276
  0.9073772785419812  0.8870357608213073  0.4378467700974624
  0.4242055823781902  0.1650509722344153  0.4414327427614722
  0.5036066455826399  0.4826658137889362  0.6341380526098579
  0.5307028500128491  0.9115392434431111  0.8754469233413160
  0.5906811087113896  0.8708002350503491  0.7903213582609144
  0.2055591519532215  0.6861448191594183  0.1981733454713892
  0.6847338392380298  0.0254627631544715  0.7722980609293475
  0.9357147027489179  0.1728876289257988  0.9329916572549957
  0.6181637292797023  0.0420977842728661  0.0855502366607726
  0.8118622483081854  0.1960896043071099  0.9437095571282297
  0.0168313807573354  0.9333461928044475  0.2896593776950650
  0.7838812364395075  0.0677918782605779  0.7956006488722681
  0.1122681726793459  0.8423321782025157  0.2358053728981156
  0.6646205444753990  0.0482043751895071  0.6481521209588691
  0.7144543607365249  0.0875810671666649  0.7112761311449217
  0.6460313312413524  0.9814615137536389  0.5671898098343661
  0.9377423488383664  0.2124877952508439  0.9805448992144709
  0.5088278132669720  0.7039095337865950  0.0198157806717351
  0.3266423535555898  0.6736447754953422  0.7933699535155424
  0.8793123171150867  0.5008602486976610  0.3672023902102099
  0.9898680170988462  0.6107016217387929  0.2021439644921677
  0.0995283250982920  0.6716705727518530  0.2229495845860848
  0.8840451333719387  0.5267354015233809  0.4794091129533212
  0.2677778780769501  0.6509935715558637  0.4542983033260629
  0.9294421957842635  0.4871650065720046  0.3327334677965376
  0.2226035471784459  0.8729414706474697  0.3788791239263430
  0.0525754240240385  0.7505539285681260  0.2420388461265145
  0.2509516425507033  0.5627703627654894  0.1378844547034687
  0.1563772987619504  0.2630711926467689  0.7725495641170087
  0.2168376195170648  0.2570938670665843  0.7941138758463117
  0.4520109471812180  0.9686649460321888  0.2300172663740838
  0.1191044133634763  0.2132351971521007  0.7678900167392021
  0.5339045378185536  0.8769147708181488  0.2600709893195041
  0.1909366017073150  0.1592340751476922  0.7443528982329344
  0.8383248348999852  0.7205297371813064  0.0642547131708310
  0.1675115326109677  0.2531248766563455  0.8329649920280036
  0.0704224388731627  0.1742402050670823  0.7018387252952637
  1.0036209869213588  0.1943278578150235  0.1750771578222788
  0.8912229886734561  0.1172075090915072  0.2150721021500119
  0.9346138358201802  0.0815319871393179  0.6728800482787055
  0.9379258636605095  0.5635899838634814  0.0235619105068317
  0.0427013875060117  0.1115609153167166  0.7586373774311465
  0.8599752992239887  0.9658231070391424  0.4570853285117992
  0.8624791790613149  0.9808031389057034  0.3960956605404011
  0.9628663126321524  0.9014135210163854  0.5111669466662973
  0.1809392992793437  0.9799407441323379  0.5048595499036810
  0.1497342423988917  0.8116457597961740  0.6513287428372000
  0.1787855450392170  0.2395982427060409  0.8984934121091565
  0.2645163292781706  0.2953181927702518  0.8632891912424263
  0.2419715132423479  0.3090670469185746  0.9688137987477347
  0.1970436189690380  0.6553341301034497  0.0332454758578331
  0.2523477831348402  0.5913614069267545  0.6927700617489718
  0.2139280953870834  0.7797547579715288  0.2869717175199587
  0.9216210865036957  0.3943115865904929  0.2466500633371112
  0.9498696238605601  0.7184432545495841  0.3280276338217955
  0.9124996133779176  0.3338381536827678  0.2662898253785048
  0.9614449679560433  0.3040745928469052  0.2954408554169917
  0.9566157230706103  0.2571298805452502  0.2518316451271032
  0.8948204758498024  0.7494338336359675  0.3020986495223163
  0.0175006048839318  0.8446653966689104  0.6057669354584032
  0.5479570650541107  0.9837506506911669  0.7535893095185211
  0.5030768428352513  0.0479321332254760  0.7062220038578807
  0.7280155132309361  0.5958938610253379  0.2868394536493351
  0.1148258499953189  0.0957831369499744  0.8427143158385142
  0.0753751796590137  0.0447492470012946  0.8394523622991394
  0.0238814330329851  0.0448597409492661  0.5448081620194867
  0.1790171708069652  0.8809662497476489  0.5906527294038016
  0.0094092914272814  0.8981130779756777  0.6331347064835444
  0.8707976222521144  0.8232830924660038  0.6676195862525602
  0.2918107336615822  0.3381817173562400  0.9840997335449418
  0.0642002486510566  0.5257032942614456  0.8073790438157450
  0.8215837292528817  0.4545553492793749  0.1916866468593594
  0.8208812501841241  0.4387619664484923  0.2526267493029959
  0.1753321425113192  0.9235791908119581  0.5271547765393871
  0.7864775419781815  0.7200295184515263  0.1590019807245367
  0.4592264250392967  0.8970041498894492  0.6858383233035965
  0.8729229720958238  0.0786725962019489  0.9364398674554767
  0.3010195804661681  0.5951297363109664  0.6513950716781035
  0.8017547186638119  0.1754016696470868  0.7792004538701069
  0.6988504675376236  0.9199562408790136  0.4757574321542258
  0.1922751283970297  0.5536544887813866  0.5175732065011494
  0.3197991540092955  0.8741954220995934  0.8708024569100663
  0.4967592121923912  0.8747375009505671  1.0346511268878837
  0.0555975907866440  0.6386187027337297  0.7627634316488963
  0.8457125807985393  0.7484895527938789  0.3992491265906055
  0.1448164336787935  0.6621268835575731  0.6223873457502582
  0.0670430894380318  0.7281657410363419  0.5853610132661050
  0.5035824126132127  0.9659996701625367  0.1299234087275523
  0.4464332234050952  0.9379574907390814  0.1272245339181661
  0.2957971489570148  0.5097624092196502  0.8348781980868464
  0.4356539892111365  0.9402070423576765  0.0653214626584749
  0.3234608287930860  0.5725160875941476  0.7760826458471272
  0.3494835392734259  0.9338596623481172  0.8114157712739047
  0.2240615001411425  0.5284280910439736  0.7515688060540747
  0.7450776847210927  0.8283362146542452  0.5149972596343514
  0.9575263226186650  0.5939823696483897  0.5412285387550523
  0.6436341182192298  0.2554270613708234  0.1417585369856723
  0.8085505902202790  0.1061293102820878  0.5726955753532743
  0.3496133946499813  0.4544105867356617  0.1420784851342414
  0.8021804404519817  0.1417854302950645  0.6744835127253989
  0.2498393444745213  0.5475391637007283  0.1962316067747679
  0.8507902558900089  0.1791148481703271  0.7389381512748212
  0.6888627826322129  0.8315876725152807  0.1532502170614594
  0.6282490861350210  0.6619313671291052  0.0106742024112511
  0.8392822097448128  0.2239002982463477  0.7849891886204392
  0.4467106826923414  0.7903539574682665  0.0206090800387503
  0.6400025642223077  0.8439810688903276  0.4181642724717105
  0.8413206337174217  0.7346194081987127  0.2309745642343687
  0.7948461853515094  0.8475287048699984  0.1286415500948339
  0.7934611691944256  0.8137519789875940  0.2503532683689617
  0.4262802323902569  1.0166047850389952  0.9119436231077829
  0.7522739489187068  0.9514270160882408  0.4820306967243353
  0.3888322916157950  0.8897116578699718  0.0606680535358112
  0.3097048994821820  0.9184480449286900  0.9149912652365142
  0.3140238118399227  0.0202318355984649  0.9327890302567633
  0.9823778282523309  0.4692183130477321  0.0707955742709166
  0.2402651600853466  0.9365784965864865  0.8272399608470226
  0.1281651894343350  0.4515944526597557  0.6231546684706128
  0.0587688984630232  0.6222836158517727  0.5683554210963168
  0.3663792654714493  0.6905285318743611  0.6932426571598530
  0.8411539717116182  0.6873236634704135  0.4140530709188913
  0.0297573038054943  0.5642114575207272  0.6206868610067815
  0.2554818226168162  0.7268305306667836  0.8157934039625003
  0.3535726237380404  0.7017542563527979  0.6315248575662658
  0.6814370776671128  0.6573661445467975  0.3660839798002533
  1.0161547428270743  0.8647563883712827  0.5375415395290204
  0.9561312564514600  0.5280786456522036  0.8265325220283628
  0.8713116333026779  0.4074124215671619  0.2793588188032499
  0.2572880692060789  0.6568269486849553  0.2241453130276822
  0.8533315210994448  0.3305839648919791  0.7715981265997853
  0.7436831576817116  0.3338055354263827  0.7912117779092059
  0.6453261859842300  0.2906469931276393  0.7645659473794643
  0.2236153855247239  0.9086936923258726  0.4888983514598989
  0.6345504472572279  0.3023964210310622  0.7029654039695290
  0.5865733141730640  0.2645939935477704  0.6375429661364642
  0.8687971099000447  0.0737904442215377  0.4846521563154437
  0.6888743640590181  0.2766921394733330  0.5581079811102837
  0.5743463476219846  0.2759501427381294  0.5765134947211862
  0.5678901228525507  0.5062788781089165  0.4828796325680659
  0.8829617752231144  0.5598047870705622  0.9466520054758041
  0.5586953472695736  0.3907663501414557  0.4682428843947181
  0.9154666277077168  0.5114939754753143  0.9264400735546681
  0.8576755162025432  0.5174459987336993  0.9073641428797935
  0.8186400910252379  0.1051022826065063  0.4586203651568436
  0.7010816190898760  0.3318044568972712  0.4220751609421073
  0.8978420596951795  0.6908538776873230  0.5435152315596168
  0.9524207056948133  0.7633830994023622  0.7028867043517175
  0.7176755835329297  0.4803278815050828  0.5415609763174736
  0.6027805312589029  0.3447627305108434  0.5158795407738848
  0.9773312252971639  0.7685410619136358  0.9306242077612149
  0.4692470054758152  0.6253944859381352  0.4152420054775182
  0.8206295188514500  0.1661544957868946  0.4449125970448040
  0.5707616486433811  0.5804112150364269  0.4060900118108536
  0.5156672018311452  0.5494967636131741  0.3968624339791306
  0.5697271708044727  0.5655473297458757  0.4678332729621792
  0.8391150413961649  0.6098708873962423  0.6999620420584671
  0.3275771604660249  0.8718645759223511  0.4165331741432263
  0.8110821945526825  0.5638241186523071  0.6647796943193747
  0.5902864716733478  0.3244455876948247  0.4538297361949764
  0.6394556120374519  0.2567504777776022  0.3701574532987130
  0.9263030534473934  0.6985728507856784  0.7654341270143018
  0.6855592735569545  0.1789444555963791  0.3519640413664418
  0.8659019443286242  0.6752312535027798  0.6435766326848450
  0.9706907227112020  0.5704712695987604  0.5994189336665741
  0.8142126865380149  0.0293058166369474  0.3083276534161548
  0.7646319950046073  0.0902461487888755  0.3875907545497874
  0.7617034586859930  0.0445139237443347  0.3428031047685242
  0.6121804361814988  0.4425265726759167  0.4045700107968210
  0.6920866239486744  0.2728331981996135  0.4426662677952192
  0.7438359082568222  0.2561321102765146  0.4082846005999643
  0.7930948792331169  0.2238049651012654  0.4345843968766460
  0.3599203665717432  0.5950682113298560  0.2754509931272272
  0.9009554615268655  0.3695118048818097  0.8375680563314281
  0.4106026315096733  0.5646107588616216  0.3009328582166664
  0.8035268852823475  0.3258044068671556  0.8136704594545470
  0.3599380482434608  0.5800023634545184  0.3354948743661842
  0.7073195009643852  0.2495053129130102  0.6783848962282585
  0.9121963727999349  0.6236279728319802  0.8858280388097947
  0.4189235387455421  0.6382043525947523  0.4501784824894969
  0.2102530583273759  0.6192769326568475  0.5070013187960209
  0.8519939954810678  0.3636917769551189  0.8785548444345964
  0.7203295282255853  0.2044400153094635  0.6331271049774801
  0.6516037123600102  0.2208326592105832  0.5515236097595967
  0.6701029093454199  0.1627704235785532  0.5665477448259880
  0.4525188091823299  0.4265524532156681  0.3006424862142843
  0.5474079812634638  0.3339497015054028  0.2514123219067069
  0.9877778444700031  0.4595327808223170  0.9065459108202305
  0.9286594155713960  0.4661271465390188  0.8836349620344669
  0.9774073146622856  0.4713639867646705  0.8446688965303670
  0.4917743251760106  0.3038938020271995  0.2431824617008595
  0.7289432133493965  0.1941346311935986  0.6962844987092760
  0.6595082440064286  0.2111952614295804  0.6126056191277228
  0.9100789765565969  0.3559444030593922  0.8992270979437849
  0.3164491764966104  0.7008118936624760  0.4027359121229478
  0.0469788980330270  0.4510483164668768  0.9262978790064802
  0.7714901663034519  0.3948662972791085  0.7335339128060437
  0.7903883839618526  0.1773582573747330  0.3897974662197256
  0.7229809270817263  0.3574210330960355  0.6661022375750100
  0.6016691966473815  0.3717393798802164  0.6274153585679862
  0.7122205722329596  0.3691369519969965  0.6032151838517577
  0.6604469026782727  0.8884804459304592  0.1454172565926093
  0.9859285392218899  0.5343020930193685  0.2796333104653626
  0.9178926821990411  0.0129359897377992  0.4030808774252082
  0.9321798294810356  0.5682723795793797  0.9028215368616588
  0.3258875632458169  0.8570290880583475  0.4755003122466854
  0.8563766977234645  0.4837600922700571  0.8025506076843362
  0.2725945730859610  0.8232267279369561  0.4715676091422468
  0.3672087545106075  0.6877925818010336  0.3656242500689503
  0.8787487449774127  0.4263688273541906  0.8196041993979576
  0.6191247327349508  0.1944442404478170  0.7163623876946007
  0.2695497685166485  0.7946652313256786  0.3624719081444959
  0.5918361764085870  0.1011794241965832  0.6684051385473816
  0.6215327080849811  0.1604681141368001  0.6076914325659100
  0.2139176641814261  0.7642916546436797  0.3476918705226371
  0.6919774921311754  0.1088782842644613  0.5861381553343863
  0.5251831283994195  0.0786233276459527  0.5383872843870290
  0.6702847602460987  0.4387697946564100  0.5356850613826069
  0.7490372699408301  0.2666566081979294  0.5754335787516000
  0.6056156711100603  0.4058068189222130  0.5209246334952626
  0.7862077765232248  0.5038136785970034  0.7185682339141986
  0.9237912395731582  0.3129517510290560  0.8549767936756824
  0.3867227325533962  0.2706903691702400  0.1014481987980875
  0.8812554748958236  0.3933275667425147  0.7126171930683732
  0.9523331750686915  0.4321082508765951  0.5095170534751614
  0.2496287229982701  0.4655834730948528  0.0498014852919510
  0.8744362447708982 -0.0438225120133305  0.9739985477498200
  0.9432663084610703  0.8006669667064288  1.0228156048238368
  0.9946742352476449  0.1942402709657521  0.9465308163662338
  0.7749655032079397  0.1662017163157423  0.5446840008841689
  0.8726670111803501  0.1810424247299636  0.5174864265703973
  0.9305386418007233  0.1082126238165533  0.9489744284581126
  0.8735671012339947  0.1220331746162458  0.7572750292362614
  0.9052680925559969  0.0521702204564263  0.8389233031420925
  0.3609008258667608  0.1688677465919726  0.0786377138754367
  0.4081789296453953  0.1102033055621702 -0.0043836506582487
  0.4613775793405520  0.1145943157328367  0.0194291286157763
  0.0006967004803304  0.8153926791588514  0.0950634598893597
  0.7869828017873347  0.0329683905683288  0.6901787257072590
  0.0985065749777967  0.7033907172549496  0.1005897820977456
  0.9366506849722449  0.2673579698592737  0.8105477151111578
  0.3419923613913696  0.2505410965708417  0.0252298410095788
  0.9711258810928970  0.1642957225111681  0.7816170818443630
  0.1666746583578486  0.7073768116013676  0.9530810422212114
  0.5363039565268570  0.2413341187917922  0.1658976774742106
 -0.0017433547777499  0.5598989272211985  0.9289269127355386
  0.0713174569260348  0.9488313188335827  0.3597675166251562
  0.9547016223063959  0.4931900411205815  0.7221196400745477
  0.9165127893032390  0.4437285991806439  0.7171994455081585
  0.0598793770789223  0.8415421434387563  0.3340771503695774
  0.8705921502908847  0.4060600931644571  0.6512405680072740
  0.8597590490475668  0.4171082050407153  0.5918728379771430
  0.8361731396013773  0.1047330673242102  0.8612669539803560
  0.7456691815237986  0.3549954170754082  0.5001108264599829
  0.8364676839523080  0.6591721955247173  0.0755406777042724
  0.9845254682075572  0.5047043945520603  0.4018133976301224
  0.8466204909665737  0.5861815677601363  0.5594140630997952
  0.3044837201132383  0.5795307653681805  0.2046370456038585
  0.8499030014364534  0.4288733021150335  0.5309972855007649
 -0.0147895798211518  0.6598861333265574  0.6770261317186547
  0.9303166108029129  0.5378867808324707  0.5436261029935324
  0.3982254834690963  0.4102043358207318  0.2307148363891970
 -0.0334446646573537  0.7265439205743932  0.6651618724727686
  0.4466571403837983  0.3472716266074381  0.1522262293350698
  0.0051252890893676  0.7609908014511929  0.5056171503211353
  0.2062127312279011  0.6558211973991962  0.3212147451685055
  0.9343263601301677  0.1132528761018614  0.7786846417634067
  0.8630358863392269  0.1336490471063904  0.6959501965292647
  0.8250186844517313  0.0840324005194692  0.6940503112333527
  0.9411226205569885  0.3871505857580764  0.7339039918868200
  0.9635829990374194  0.3300553841274109  0.7526362783475851
  0.8649368486450355  0.2856550990634522  0.7282370065117775
  0.5014294358882239  0.0360420670842587  0.0506151269361172
  0.9148646597491158  0.2902312201308100  0.6867203005823598
  0.8170341001246022  0.2486904504038630  0.6608173473591269
  0.8456265684782361  0.3101794494714856  0.6037079061110043
  0.9012913178309483  0.7961638488269855  0.5723654578500459
  0.9893447742779088  0.4245872502606258  0.8003548628129883
  0.7866452753675923  0.4694183396517555  0.6150859985730555
  0.1928499341261582  0.4829667019376249  0.0858613462339934
  0.7607337746578856  0.0579404024099845  0.5084665870455840
  0.9433091000590336  0.3530554728321944  0.6258358433784875
  0.1517921014812837  0.6703790489049670  0.1276601471060421
  0.9325564348814588  0.3676214317288430  0.5638608970366200
  0.7830864951021924  0.3227022585243682  0.5186562696661337
  0.8606411662288583  0.2661072520024132  0.5605529106649132
  0.5742629447738027  0.1027571793981747  0.1679465661750945
  0.9284446350542922  0.4327137026262758  0.7789155763641697
  0.4910212008316460  0.3705608684176951  0.4682995282923408
  0.9785243679352165  0.4368299727890761  0.7396190625008005
  0.9994287119897086  0.4154476057709812  0.8609715379795920
  0.7109043970352484  0.1401288056596052  0.5265756291518728
  0.6177541856933728  0.0262080297844673  0.1483341501609183
  0.2042000035078123  0.4914920833460160  0.0308283308167456
  0.7500841767591349 -0.0057154989694503  0.5888069169466968
  0.1889764408174567  0.4338035886646698  0.0333342018164732
  0.2447575665104383  0.3610089697420467  0.0146868725268542
  0.9374811751642449  0.2336423143524251  0.7044046313318049
  0.6601637339131669  0.1221004043085749  0.4586666936512764
  0.7126440061992783  0.1054912812675884  0.4223802995860791
  0.8520049533799584  0.1451132615763642  0.6348670848800052
  0.9338197429242383  0.1467819088191516  0.8832290618659309
  0.9950717632080721  0.6894391928949176  0.1256082619636829
  0.1462755189736224  0.5655352712438263  0.0988046727466728
  0.4825943016685862  0.2223127978474242  0.0942341900266342
  0.9331496191465714  0.5206568192014457  0.6009401620680743
  0.8879940735077551  0.2289050859655639  0.7451530654878276
  0.4738595654488335  0.1709895281804661  0.0578980856306692
  0.9004444939609189  0.1837118879932938  0.6987374113560456
  0.5140334063657223  0.0958562359479256  0.0389435115078019
  0.8303194306252475  0.2018330642198770  0.6152088072033756
  0.4237890157815818  0.1828012241781984  0.0958385049941738
  0.7309081765681640  0.1566566252956225  0.5889080671983381
  0.5642464550026121  0.0757029725368962  0.0608493779235280
  0.7757228524165977  0.4852299165231280  0.5598100197932271
  0.8802482981095687  0.5167088710773502  0.3055373755674741
  0.5585261940339190  0.9056806008689976  0.6036194528274843
  0.5097457263815959  0.9359882718086695  0.7514463535408562
  0.8920281120874201  0.7527779991391546  0.0752909269227369
  0.8861018657585962  0.0877912654065041  0.1079119012079194
  0.1909316184327969  0.9299599947614814  0.8663487838572324
  0.3091319248846491  0.5088289527115549  0.5092541675868835
  0.7650627793939832  0.9194653303358655  0.0599697171739159
  0.9484996630376675  0.1776230329403898  0.1031674789048226
  0.3649449153514187  0.7473375330204093  0.1224726979411343
  0.1015716305078819  0.8768757045810589  0.8989252624463330
  0.4137986571775975  0.7833836166344739  0.1258993355827923
  0.5675531156918925  0.5499064560938525  0.3010087114043027
  0.5437218310761927  0.5784280392571820  0.9483093444149714
  0.1021752850114431  0.8429865231157261  0.7943267168953041
  0.0277938132631191  0.4416930652624736  0.6993028731159929
  0.9982715697299783  0.7192759711644884  0.2308616356628846
  0.1138982669821888  0.8671175664269800  0.9575288319806070
  0.6620568319983245  0.1070923897052255  0.5186467821943325
  0.5827762997891084  0.0079006536955531  0.5870325985539918
  0.9709846912849214  0.3488204488994473  0.9193107452902044
  0.3413477805886784  0.3473229685177904  0.1163859367146795
  0.0441882098882054  0.3000334354640323  0.8946336283260231
  0.7453076806632675  0.0187434886819045  0.7926770850215138
  0.7552885679372847  0.0057514048195182  0.8564409832042430
  0.3983953781041937  0.3465779306968250  0.0189270071719894
  0.8161742440144951 -0.0007358446863311  0.8787628922952767
  0.7835144337541694  0.3502750916489158  0.6879272494354831
  0.3477514111589886  0.4088070403289003  0.0991611011274428
  0.9361605245606313  0.5803541046143788  0.1923615049017699
  0.8031537416196873  0.2863311783977568  0.1858246161164732
  0.8335469136227848  0.5090378587972041  0.6801556804226065
  0.7398334839872202  0.7025541462755400  0.5420833154702563
  0.2204530560334622  0.8588308899328518  0.4417137263072931
  0.7300930971534861  0.0874154430071757  0.1685769356527638
  0.7627026387777286  0.0479481684987354 -0.0362549215909442
  0.7849115403081799  0.6581503726098618  0.1739874027624987
  0.5788457083727083  0.1493867214749899  0.2100266829701382
  0.5262284820496325  0.7351693051643993  0.1241078181588876
  0.7801723212779093  0.6382084646723362  0.0072368500148587
  0.8928408956075121  0.6389464163166518  0.4970054394339601
  0.2050728895519301  0.6880096608821050  0.7489160934572059
  0.8356705478409729  0.6430996047761492  0.1384012143698764
  0.4361551684844004  0.7050069734469049  0.8805241913090568
  0.9323493041668122  0.5335887802252470  0.1484114598048830
 -0.0236092630158289  0.6877813363364031  0.6203609651063422
  0.0564678250205622  0.7310810867876697  0.5304936666735095
  0.3880219794035004  0.6673806152011759  0.8159492045453280
  0.4398756260153932  0.8926458901271447  0.0225429570425478
  0.7343683494011071  0.7045512344234339  0.3148784416319353
  0.6300276568990396  0.9563881283887057  0.8998834302090223
  0.6116399909733494  0.9833949457092207  0.1035812992797714
  0.9581217204567379  0.2718508404525750  0.1909571179441419