B  Cr Ni
 1.0000000000000000
    38.7315947344316172    0.0000000000000000    0.0000000000000000
     0.0000000000000000   38.7315947344316172    0.0000000000000000
     0.0000000000000000    0.0000000000000000   38.7315947344316172
 B   Cr  Ni 
  50 1596 3725
Direct
  0.6683675413262784  0.4085510768311330  0.4873779636373181
  0.5882687187041227  0.3675751377675382  0.4697308930309713
  0.0549487817256954  0.1987655727902694  0.5936628292268262
  0.8273711269186953  0.1055946173830286  0.9255641442165978
  0.3138837208527526 -0.0266475079729375  0.5739565137170821
  0.0460243138661294  0.8664195698210569  0.6485619361731036
  0.5300875200910192  0.8032035260411919  0.5638741335642483
  0.3687436254735391  0.6558947513746225  0.4754677089411741
  0.2193466563623353  0.1578324523028290  0.4353456075695672
  0.1591481819051212  0.9705638904862851  0.6271292689551402
  0.0492968248889631  0.7868720818646002  0.1262528602620353
  0.3678625184541456  0.2484630235828641  0.5215100450954216
  0.4044367147848744  0.3646413184414253  0.4635516689617797
  0.8501604422028834  0.0244655420927278  0.9191112149873616
  0.3224566732964539 -0.0003987847811646  0.5096123839281469
  0.0301523310186546  0.9006577124515940  0.5777424271899110
 -0.0562926080986539  0.7747271167908673  0.6566832978733540
  0.2769776835362167  0.8846667045587564  0.5156306901811152
  0.7586702868259708  0.4031541669193122  0.5206023379118405
  0.2214506655898489  0.1871698374694875  0.5976307216313194
  0.6753728622561860  0.0971004909766382  0.9717818395503914
  0.6349940369255318  1.0043824998310289  0.6200446494217234
  0.9055862472836793  0.0054565475614725  0.7990782261510239
  0.1196967895356742  0.6548640213485695  0.5120887806771619
  0.0040939575757034  0.5886974932220576  0.5663113229817460
  0.6855807386957866  0.0888510424218135  0.0493407160459927
  0.0073580615379053  0.9393770607232655  0.5864794349377757
  0.8683297834127314  0.5385762647613350  0.5356863984236155
  0.1617946374758343  0.9269218309666915  0.5871761581240589
  0.6759750468427357  0.8939590384067535  0.6592297894801862
  1.0001195277529926  0.7932881150248803  0.6048470342801904
  0.7404361749507814  0.9001760560264677  0.6117933956729162
  0.6225057476635036  0.6970275351889409  0.5692683217746299
  0.6924257643254236  0.8301931101881335  0.6026772779520563
  0.0045714263216724  0.8574528983431770  0.6582168775299533
  0.0080831822915219  0.6404447855648516  0.8057239771017602
  0.4304516133223614  0.8910935220594869  0.3317257440785414
  0.3876194679666488  0.0602919710959956  0.4644624136945997
 -0.0420212678752613  0.7128804293788706  0.6019226623242190
  0.4018483599219422  0.3292858027147559  0.3616533476300460
  0.9628635640225033  0.7010039121202333  0.6792785649465717
 -0.0105301880147147  0.4392470852983985  0.4726755243454150
  0.3163532933470655  0.7925558884452505  0.0372397958683009
  0.5021598343982886 -0.0681716575275957  0.3439898819358874
  0.3738294158117669  0.3111373737587015  0.3918434294870979
  0.1752039346094860  0.8608406088584016 -0.0301829382802677
  0.4350521684512406  0.9521609866088355  0.3894018094811183
  0.5786741759601173  0.1690810264129492  0.1501723449265629
  0.4683601156986291  0.1075115100147068  0.1325659579469430
  0.4211505472108847  0.0543778412949451  0.0034155100475502
  0.2848855530182010  0.9622448160316723  0.3742102911582865
  0.9204422914811669  0.0445282884836453  0.2855377036848093
  0.4320050262505241  0.0981359606713924  0.7277497985874434
  0.2095409281088822  0.1814529804717186  0.0800825704341257
  0.4816711353879337  0.1358904976442006  0.7927465554508289
  0.5346443551344742  0.1748789628194176  0.8569645059824890
  0.6640462152577534  0.4422076384395466  0.3112236466100682
  0.0500344729973747  0.2091312991183588  0.0215699380896177
  0.7748784092495852  0.2281760143734668  0.9833133649906779
  0.5516724087845549  0.3674976727395799  0.6643944835182058
  0.1676857161928914  0.8424489021911920  0.3701869507050979
  0.7410085666757400  0.1960742082808706  0.1959946432625195
  0.4476514015621436  0.1718548082533609  0.6109083493954767
  0.3950192806165998  0.1027906152984860  0.5043431001094277
  0.5920278166305847  0.3176379413516833  0.9131076439857359
  0.3253606594378442  0.8060876741186257  0.4320219843727532
  0.6567314405859556  0.3803420393237849  0.3300676847649928
  0.8592806281124330  0.9504634571956828  0.5187700637852296
  0.7165774720727890  0.4440200881280111  0.4400975442849208
  0.8118887159249922  0.1619285324574285  0.8404350405081705
  0.5904233406513714  0.2581857239282379  0.2365323529093901
  0.5066559853477585  0.2288407246770113  0.8507920927345010
  0.2241744975496068  0.2914318583915971  0.3339076893110663
  0.7917184627457026  0.1954869818561416  0.3275114452863859
  0.6909085159940022  0.1770638909925453  0.7982171364008367
  0.7126065734545753  0.1206664169436582  0.8158016270283083
  0.6419610512783382  0.1390221956517893  0.7323954021440411
  0.7524375778957793  0.1358927646153515  0.7146320113650015
  0.6878002845002116  0.1958507110113920  0.2924801306118534
  0.5525904381721147  0.0510599763050771  0.6653244938687956
  0.4687506706173242  0.0138692675942481  0.6022319082319812
  0.4839890824838126 -0.0289182326882429  0.5632029597574302
  0.7393904650898753  0.2160505603921476  0.8651515936325286
  0.4048354484653346  0.0284994226529723  0.0785385152618066
  0.0473200599141279  0.2684856974421803  0.0113040663284048
  0.0352946260636308  0.5943414594233450  0.9943206118098132
  0.9276912130280655  0.9825521120969902  0.6516111952207302
  0.6759179853140449  0.4716902952550591  0.6368319829974133
  0.4864725009083816  0.1736490529179944  0.8946185409046419
  0.4464519557613028  0.1227824701877577  0.8925123391576464
  0.4761004969161132  0.0183767098406886  0.8730204256057695
  0.7494683641571205  0.2883459638527542  0.2819063111804483
  0.3047664974862472  0.0263782193312588  0.8697782410320978
  0.4160617290951926  0.0253421531205003  0.8490334458156994
  0.7940651351063386  0.2097809068808856  0.2673040958509627
  0.4985817482145470  0.1631806345006138  0.9559239384851179
  0.8310747414818767  0.0410139982818100  0.1592949048532224
  0.5328160064790373  0.7639132974894555  0.4571584027125641
  0.2292440549463500  0.3348203450681164  0.3758078287862476
  0.5066889250096694  0.4433421879603067  0.3696030318268234
  0.6259442385471869  0.0315702170690970  0.7501697962444599
  0.6143742698447604  0.0761141321484477  0.7927401268927645
  0.6739869362311064  0.1043111170670988  0.9160756509501087
  0.0860912935628280  0.4579608515736186  0.3956312787831366
  0.1453688069140696  0.5358012493008778  0.4475930838539278
  0.1380552582455575  0.4424258821143978  0.3598978719780163
  0.2504326608051411  0.0608445811060037  0.0172984795141892
  0.4615597150027148  0.0509390440541572  0.1504360803064830
  0.4241450245322240  0.1787131152954877  0.1492209472245092
  0.0437073173586051  0.5814515367520582  0.4606501166381177
  0.0960031916854016  0.5948147062040395  0.0736605436620719
  0.1403036542938357  0.5001124116318687  0.1168755276327579
  0.3180909559968059  0.1707705394207023  0.4059806216043099
  0.1368798155547859  0.4245535398153017  0.1944280517914923
  0.3301616970567874  0.3373763108474452  0.4146694416514523
  0.1135510643681270  0.4359961260245764  0.0095333398268902
  0.1235780272197412  0.2829070865543676  0.0737181658729228
  0.6627184316802461  0.8169458512633568  0.7712999689117226
  0.1089071915027081  0.1951248883865034  0.2130779910993906
  0.0089982721854446  0.2755435012529075  0.3236539291884089
  0.1301441739892088  0.3803765317235461  0.3797418040326250
  0.8043116160669471  0.7794453430151642  0.9354914767536286
  0.8857124772112397  0.7160887429987907  0.9717005455814525
  0.9188379270449121  0.2304937135232079  0.4686404565390989
  0.4342088762956903  0.7752937080738409  0.5360774203603345
  0.4361285649339629  0.9152689777501442  0.5000829904777060
  0.7691561916404663  0.4279077209498573  0.8383641011446137
  0.9801395748165298  0.1034634275209595  0.3961594387905657
  0.3273166252393588  0.9002261329101173  0.2964648018594614
  0.2205321318966728  0.8862954941467358  0.3231128491642397
  0.6008542342091363  0.4046541504266891  0.7317336926407541
  0.8596338700139797  0.9987544165146520  0.5664645818768188
  0.2732012457057526  0.8537022308280432  0.3483511855920717
  0.4531768514917319  0.3238583127281943  0.6405631277425619
  0.5247323838727411  0.2725378420953549  0.6144733401078684
  0.3191907679176086  0.7783972271679466  0.3257589181598228
  0.3701347286179075  0.7651971072053139  0.2896737219443836
  0.5085792947338897  0.1985511837796294  0.7372334062485741
  0.4228790928945948  0.7187837749685853  0.3753736430691624
  0.6216734186605244  0.5670505621666010  0.3706821787267404
  0.3748010562803046  0.7935481278186708  0.3966992301049183
  0.8057581444084768  0.9692063332014261  0.5558431115276063
  0.3235300894760594  0.8246049718048162  0.3730529149543959
  0.5770907015967154  0.2118706938796339  0.9432170265466385
  0.4021951091797498  0.2876380775202697  0.5738161121029831
  0.1734429109370043  0.3056254680215658  0.3681101434732605
  0.9128434914309133  0.9049849082799730  0.6055827762064461
  0.6675859344119308  0.4194755380632365  0.9180871260647450
  0.8556494008980732  0.8772703398888655  0.5937028612509520
  0.4027603776691848  0.4391279668238263  0.1078690770356792
  0.6536760389406969  0.1598371576681478  0.8994345088130589
  0.6766443949642723  0.1361394220845732  0.0214057669002427
  0.4058791997531493  0.5020759599984713  0.0932577873464638
  0.5253847497587394  0.0217881090224182  0.8323178854584604
  0.5848900448257381  0.0149637164614358  0.8547203623245675
  0.5861613214697881  0.0501234613282999  0.9585974921257960
  0.5467676395134135  0.0008905137381088  0.9612356603177125
  0.5263431232321419  0.0573472548048414  0.9379166021563276
  0.7576125956744140  0.3628811977430932  0.4298362622109108
  0.7729082992391948  0.8146557338131263  0.7493912897672635
  0.8885358455107631  0.9320784169786761  0.6481165555418618
  0.4439837964657291  0.9979527121639252  0.4217497117657022
  0.8906005572919926  0.9644009619250283  0.7555849678896875
  0.4797206699885279  0.7331703715788712  0.4476699657792317
  0.6933174816277961  0.7776039702963849  0.5652770306793754
  0.7451186561864112  0.8120801766718017  0.5739025852620945
  0.4809516909001291  0.7945582493476797  0.4324355276356742
  0.7466609805531070  0.8435821314016524  0.6228326255919606
  0.3887763940589409  0.9166092341525582  0.3648556218029246
  0.7986288204293058  0.8754397398842801  0.6885178663640372
  0.4003342346709390  0.3929857572379140  0.0643022860134338
  0.3371272052740914  0.9804654606972428  0.4511468046686378
  0.8354396504291762  0.8399612292519905  0.8761914331057327
  0.4496484811278275  0.3623943457887020  0.0908470711055205
  0.3540970505156448  0.0396946191754074  0.1159204278208720
  0.3088341281500431  0.2172697162727065  0.9952666290321950
  0.9806755531793574  0.4554639198810573  0.1312969549176876
  0.0818750088496133  0.3585158328741239  0.0768388293320258
  0.2409856265082038  0.2957210702454782  0.0421975493052982
  0.0298288564910721  0.3763159091564929  0.1106697529248615
  0.2334748845570015  0.3315228365822697  0.1453359412298854
  0.1406906158361980  0.3957718753601188  0.0293437633512042
  0.2508494951888203  0.2389220187884901  0.5865021542182633
  0.4186641778955187  0.0797622073098017  0.5600909279065793
  0.2894468972739017  0.1361877773990289  0.5603954480246160
  0.4950858648228350  0.1248637500943663  0.8527206193038267
  0.4637510597364153  0.5464070839865117  0.4943149760546812
  0.7822354440375680  0.7127850834497558  0.9932867033371948
  0.5121167448637786  0.2864205026100182  0.5486422133367773
  0.4522702051853350  0.2944651083302440  0.5310876925807693
  0.4179608124747897  0.0092791233603887  0.6429416784558289
  0.4416474247035947  0.0522259562893528  0.6829152823540909
  0.4825710262588902  0.3230902099930712  0.9345310342452152
  0.4473302032863068  0.3163376271985081  0.0432726305904630
  0.5549689232557560  0.0827282042822389  0.7705309663249373
  0.5510148920101786  0.3160036829114710  0.0806801421407495
  0.4795943901579455  0.0018879356595148  0.6675688197702381
  0.8603279995945198  0.9019751593944106  0.8148317582020795
  0.3418391872437036  0.0221636617059945  0.5584995588382065
  0.0175512937040979  0.9341071793340290  0.5311113479262641
  0.6306572293176090  0.1707873488965767  0.0533106281598426
  0.7085591783382242  0.2003170344112729  0.9636949076928244
  0.6727471202750579  0.2545049218430113  0.9513709234083573
  0.4796462800365529  0.2367287835512364  0.5519407793569517
  0.2589022844962596  0.7335622871512562  0.1457914988382842
  0.2096131275182437  0.8091793232633633  0.1673196218121972
  0.2646873815281080  0.8245835315196037  0.2394154593939854
  0.1735562613670747  0.9315897485611682  0.2288641438229971
  0.1226205358568252  0.9478335180855065  0.2645171048984632
  0.7761336602677348  0.0123564600789106  0.1490188751679125
  0.1420294978798997  0.6429399163830668  0.0153459188471574
  0.2610497551404148  0.5886551520588562  0.0158443314387176
  0.7051836207709359  0.2829074703036929  0.7873135883622586
  0.6673138991431514  0.2348707881234849  0.7817412677241948
  0.9724783107587195  0.8941299638209604  0.5736391731770262
  0.0627853807389241  0.9477645425607325  0.5912159907749571
  0.9634362961714659  0.9554967574376074  0.5556552918521115
  0.3420000232830747  0.3264329613458834  0.6602894942539682
  0.3190204276680771  0.4174056331650230  0.7488722247177813
  0.4334533387971116  0.8902149100679384  0.3912762982629253
  0.7511330207743002  0.5874102499525951  0.8399933016439231
  0.8124946815515810  0.5805217172407310  0.8613733060182885
  0.1552282860180440  0.6570591095581071  0.4145408677234135
  0.2554071059067745  0.0898042968851193  0.1275048525848260
  0.0971856862912448  0.6112836413774867  0.4679345585568050
  0.1100787991361855  0.7109085206931034  0.4982418544252351
  0.0630160858515396  0.8101651561936312  0.4575335586080058
  0.3203634733783229  0.1974299784389283  0.2830356877805296
  0.0682252357384052  0.8559623415251111  0.5015635072355429
  0.0145497606662297  0.8889834934551164  0.4774818381231966
  0.3693338604123529  0.1682752418379017  0.3087705634668286
  0.5105922576758457  0.0253135603203086  0.3427062956255195
  0.4691556412696005  0.1202208051412872  0.2999390339751147
  0.3775006414764219  0.2580451890445263  0.4058930442001826
  0.3741469635128310  0.2163894673549032  0.3550506849021751
  0.1388741449506654  0.4575343024970274  0.2994329475736908
  0.3495237982488668  0.4438631159445245  0.4276804059620393
  0.0371615440046002  0.5185458895034843  0.2473454079398457
  0.5833923407521489  0.1940901974203302  0.4835677163625379
  0.4826792325117341  0.2614635122165939  0.4297880437821646
  0.4816754384352480  0.2513633210854135  0.4894034548198408
  0.4098551693270728  0.4640523533597992  0.4948344475277833
  0.0399265781651412  0.5192696600596436  0.0228346726716880
  0.2660387241202607  0.1820356029319142  0.2139867873353868
  0.2169135375651752  0.2104629096491403  0.1864106332007330
  0.2074954365217171  0.1980224930274244  0.0194220533078141
  0.6914553514750439  0.3613447569594389  0.9376228599899969
  0.7403908975723920  0.7209483591549932  0.4802387866706143
  0.5585533158787089  0.3263000665123945  0.0168875957734564
  0.8030369284814802  0.3031637193356739  0.3534134410301668
  0.1859323752508042 -0.0121352187332456  0.2070778981529075
  0.8925836726761922  0.7627156548863553  0.6867172242533018
  0.8820296156499237  0.8108822274468754  0.7285676594174971
  0.7208798347716109 -0.0004641756837014  0.0764219440278316
  0.6389043769731587  0.0868139310156985  0.0171395493548694
  0.9708873954465891  0.9326707194258916  0.9013260760380135
  0.6831578590316776  0.7034193068822097  0.5774862715224455
  0.8657088020965654  0.7382825248205184  0.8503843959285720
  0.5897728272841577  0.2397709693014690  0.0685877258683819
  0.5012190620874037  0.3783127082438199  0.1583881058620097
  0.9529601535386737  0.7937308707572560  0.8117381759481529
  0.8317391170290980  0.8067045808421230  0.7703704558132520
  0.4531272748361033  0.4090800002656779  0.1338876886331001
  0.9430085765297107  0.8383105174324446  0.8544830126664485
  0.9163798907610644  0.7756621742891571  0.9179368737945333
  0.9927380902009604  0.8755734375511725  0.9205676157956988
  0.6195613093957553  0.5336405127690796  0.4953773591356080
  0.4594547822811296  0.5192413292597350  0.1615314695019032
  0.0549931197913034  0.8284426359112084  0.1666386580148275
  0.2117245831114365  0.7934289580595210  0.2289064700487177
  0.4084250367213044  0.5195288255660366  0.4839283435704733
  0.0664094288754096  0.9346480310762961  0.1936388518923529
  0.7962933805370237  0.7413876486501098  0.5517538192971195
  0.7308545122546033  0.6014609721690507  0.5150936768477108
  0.8113061909696377  0.3640976633076579  0.3331915405926189
  0.7685402354417368  0.4416843886751932  0.3473982465950666
  0.8226727644671445  0.4713650530862586  0.3563908471235708
  0.3994244987032180  0.3864901144307362  0.8921592636098690
  0.7783759208083114  0.5502508025689606  0.3744413663511667
  0.4480829070687263  0.4244385642019821  0.9562342821867780
  0.1299643999540193  0.0476585610229873  0.5830412080359150
  0.1323236598755815  0.0624538885977277  0.5194939432053273
  0.0759252038580387  0.1430021924602702  0.5900207329666332
  0.2838786206036947  0.0513639111597455  0.7425491092485438
  0.5871195642853327  0.7961428974756579  0.4673083866347533
  0.5864193566985605  0.8128049422567255  0.4071742638931553
  0.2392855675496693  0.1990763670686702  0.8114372519871824
  0.2989585546738511  0.1916865134346835  0.8325273984917978
  0.5399312281256389  0.8714619716876155  0.4901541881488688
  0.5904927940486948  0.8582989967207487  0.4540312091090720
  0.9897134022998583  0.1618707556421713  0.3709819990200656
  0.3695062187978437  0.3265963196802009  0.9535199201385519
  0.6128224825392727  0.4733507481757868  0.2820359629429505
  0.7156960953509415  0.4420603439991407  0.2136871334744814
  0.6287123152690658  0.1528866137613876  0.1189775472117062
  0.8499781082441091  0.7630416477881601  0.5701572849171261
  0.6866884556754279  0.4591388990600363  0.6959007888633476
  0.1643903985918662  0.8715711521215660  0.2474086580256124
  0.6408860176304880  0.5901621222033554  0.8610802719210069
  0.7144545534594851  0.5718081437950201  0.9447620225692189
  0.4831255392432650  0.8769236363283921  0.3553789807076525
  0.4271467469594377  0.4482057656466503  0.8339597078107952
  0.3777768493674324  0.4436470103989327  0.8748087844604586
  0.9849045492992310  0.1175494620109995  0.3338805185581656
  0.5079003884885832  0.4739496371788825  0.0206997141774484
  0.9467611159529631  0.1815946634942861  0.3305970623714702
  0.1858765031053050  0.1433851455329882  0.5770650795414058
  0.1683324019739210  0.1842930516366673  0.6212044116051724
  0.9017197971194101  0.2592463441249998  0.3479829447343507
  0.8734872007573726  0.6583905593795972  0.7037498011538763
  0.9466797354303146  0.1481809925303025  0.2258262100155132
  0.4935983059097132  0.5599657511196711  0.7806213405105417
  0.7996417577834088  0.2419812691268499  0.1435359984139661
  0.6742187912244447  0.8048549504119331  0.8316253460123487
  0.7064846363494335  0.2989765263216234  0.0852630135958543
  0.7129889888870823  0.3948516320609904  0.1706119055169230
  0.8156880213495146  0.8586346156600468  0.9794032494661851
  0.3709503834442833  0.5087384749457664  0.5300336282193708
  0.6645705894439405  0.4566582894744982  0.2487408421797339
  0.4730221224008594  0.5539677929703808  0.5508023781318737
  0.6921963112466903  0.6260269723636094  0.9299308763100262
  0.2026385698209625  0.7165487116316037  0.0739662965307467
  0.5761126641824036  0.6293635654196791  0.9427419788315469
  0.3528067157111013  0.5021767888112537  0.1863289597566979
  0.6925781059520911  0.2266217452849676  0.1683844673937911
  0.9932644832384555  0.7186376624737134  1.0075065813977488
  0.5526447382429033  0.3801897059472992  0.2928069187358822
  0.6052146876048232  0.3793813633754397  0.1948790511135261
  0.5285892817006076  0.3940491541491700  0.5403408857679415
  0.5599935051507562  0.4570142786743056  0.2126461341872175
  0.4067787941406032  0.5192833126277806  0.2558796318578050
  0.6505510999385868  0.4092860575230873  0.6913349657037756
  0.4623558923778449  0.5666027789759844  0.2018450898701994
  0.1561415651162211  0.7790859090386199  0.1574370137258490
  0.6376574229012379  0.4536603477416942  0.7349241421540235
  0.4144694161890192  0.6273452659209775  0.2834725211891174
  0.6853131434603866  0.4920699133996938  0.7990112181858181
  0.7468769315742508  0.4858308524547193  0.8202075079200946
  0.3116576076442884  0.6882947886351736  0.2319948626418694
  0.4179262992243002  0.6901887897688382  0.2678853065095191
  0.7629822094658739  0.5771549823827610  0.8988164953518095
  0.8314032434334544  0.5598494251401286  0.9870399183927331
  0.8194885834024460  0.6173959176390473  0.9696067985116287
  0.8416243798342111  0.6749168953505064  0.9118407949279286
  0.6806447099826322  0.6058533960205081  0.5508468948797575
  0.3590804271511788  0.6116553179452776  0.2129989337762185
  0.7013555866853614  0.5836937709272125  0.8814121412598840
  0.9825120905535036  0.4435827135104877  0.4173009340917666
  0.6571011209276957  0.6977810140278207  0.8458145475420958
  0.2348155630880954  0.0806829942349698  0.8897761893654208
  0.9101418654186366  0.3554245090747495  0.4403135984637248
  0.9666034988932158  0.3903517818568176  0.4508920124293741
  0.8733031372106554  0.4221489994510870  0.4427452183729310
  1.0137146092724492  0.4056088614871136  0.5114910328994329
  0.6748659310530744  0.5817199641544011  0.4425374505592702
  0.7876384018234488  0.6447588565813577  0.4614782529404489
  0.6803011501485758  0.9235069382978573  0.7546656863452128
  0.6691904104817675  0.9684303927877341  0.7965115034969864
  0.7297679214015078  0.9618604022371354  0.8156642337544682
  0.5607716486757385  0.5023792999547776  0.0314255293509946
  0.4310889284618004  0.8064396995622561  0.4704591668196926
  0.4845251756436617  0.7815761308311917 -0.0052821563147051
  0.4650171363051637  0.6994740725618268  0.6132655229252980
  0.5895250280300585  0.8085742150532509  0.5763838857930144
  0.3911780157789456  0.7377964440984210  0.0245622754256910
  0.5928031517884899  0.9037618818374313  0.5000050997304097
  0.8319450833861709  0.5656824308279821  0.4441113461113064
  0.6143549655239589  0.4882416168320430  0.2216349658724552
  0.4764015730756777  0.7683181933870490  0.3223290273650510
  0.6740448396411896  0.5821747434913137  0.2143492965293486
  0.5699257181962607  0.6097546179906316  0.7768913279626930
  0.5423684612327352  0.9330667305310083  0.4750879882336495
  0.4790345868204112  0.8060401465837348  0.5993733781043993
  0.7365444502543136  0.6745025400166268  0.4357601270997699
  0.3587606005842887  0.1171395019792815  0.6439323357093778
  0.4101105815965776  0.1558333592814452  0.7105459522836611
  0.4587438444839739  0.1598566061344177  0.6699290039454578
  0.4656972064486737  0.5964090591650634  0.3093116491134623
  0.4690385710772779  0.6591509183650645  0.2925154269231476
  0.5182282517325154  0.1843229746058237  0.7990030615596728
  0.4437046604380524  0.3368796969214549  0.5758319877301703
  0.8617973267108217  0.9390736520259528  0.5792781809730789
  0.8510384691061560  0.8788728225954042  0.6488641107411421
  0.6365342213623987  0.7002770358948058  0.5127426550774994
  0.5957879154409101  0.6402840078370403  0.6145375906447429
  0.6236022725249264  0.5942221865702316  0.4773133738348498
  0.6446933142363066  0.6773673337315553  0.6810102821470473
  0.6560418790092439  0.6637741593902529  0.7408306951570985
  0.6943233068031971  0.7134337155242562  0.7453206921819270
  0.6288208482698832  0.4360076489045343  0.5689937068801021
  0.7102483961288188  0.5223833005855490  0.6342894359278003
  0.2281174434984183  0.9293049442717232  0.1273472637355096
  0.6091838006820797  0.9414670675204473  0.6698481691935582
  0.6594432924997340  0.9444549078189857  0.6270021669871323
  0.6473160091229683  0.9193853930152166  0.5717836160474555
  0.3040764480787520  0.0733973854938109  0.0903728049036766
  0.6077410408034983  0.6604674465985684  0.7805226187073170
  0.5935756376647259  0.8862574580912881  0.5632070218605734
  0.6797431786710585  0.6385239509804670  0.8648721309241810
  0.2728818727691590  0.1296467274820748  0.8916381180381305
  0.3585702797552819  0.2202743490672831  0.9645411287150573
  0.2193855370851669  0.9901939627369714  0.8082807279966244
  0.4558833293854871  0.4766503749557088  0.6710714747539297
  0.6455458750061596  0.7101408328901528  0.7840159217191229
  0.5728894549583559  0.7301330691521188  0.7015601889294838
  0.4042192899492463  0.3190155306754925  0.6828052186152527
  0.2169417985703543  0.2221972877908739  0.6883117333821299
  0.4150881698060427  0.3077945805854601  0.7444642551123449
  0.3754871285740867  0.2911650645833335  0.8477449989059129
  0.2607514160570562  0.7965029417775688  0.0317967213511587
  0.4515827836283602  0.3558781137296549  0.7468745881330903
  0.2141390098174422  0.8267418163950070  0.1091561388311137
  0.5006928890388100  0.3948784547293297  0.8112133884606211
  0.2241033331383068  0.8834711815294929  0.0940544170791704
  0.6087519965832499  0.4251233500895070  0.8966522250523805
  0.5382935565094851  0.4774674511188274  0.9212582622356947
  0.1747380016221626  0.9478845161430377  0.1638165849228284
  0.3215591789806131  0.1004667445151474  0.7457104179069333
  0.1031407090428487  0.0722690108924563  0.6738377299506185
  0.9944560987728509  0.2049774036704143  0.4100920171094600
  0.1370137227490423  0.0209348080226233  0.6582428703005142
  0.2596824679566376  0.1723791459938421  0.9311251639497135
  0.2142266115722831  0.1355954476886743  0.8696338611514790
  0.1531756828383079  0.1107295564731031  0.7412961668821081
  0.5852445107585393  0.7515315769411629  0.8668344321309632
  0.6077074935015074  0.6944812577820236  0.8859089920988374
  0.6458763475706506  0.7432451487465493  0.8889037540814789
  0.5237369451452917  0.6902997565214040  0.3029638481120169
  0.7117172555757649  0.7254935065023845  0.9712409639116076
  0.4261479337224802  0.7983224004903439  0.2984914863005103
  0.2460045074000273  0.0687598320145357  0.9542026156802875
  0.4280833473705811  0.8621076658311132  0.2828526211334674
  0.3959074296104665  0.4846440813727311  0.6518090628227576
  0.5153080354977705  0.5025794472779189  0.7971938285734423
  0.4815855293063196  0.5731243619539366  0.7191631254075239
  0.9884362368891275  0.0253757425427703  0.1618504440516718
  0.5317945426319968  0.5921229275635156  0.8815022098951187
  0.6847125046238038  0.7600109397282673  0.7879671290785544
  0.9045832034210917  0.2728718764150076  0.2856035293492132
  0.8541220382056228  0.2869355468441595  0.3188763929561713
  0.2229556951000926  0.1222795770865358  0.9359467467981434
  0.3553700635170816  0.7660225601946558  0.0646327057993179
  0.5311714923292550  0.8433440682799300  0.6642811462444106
  0.7767639186593052  0.5352138292292622  0.4371633741479573
  0.2506265090380089  0.7549432827009731  0.0782185903551477
  0.8644718797218658  0.3773127381746956  0.4062334154016840
  0.3465991686546908  0.1161752581027885  0.9749619081761347
  0.5240339852796133  0.7248507587002275  0.7411771301405217
  0.8247457325838320  0.4369549266900373  0.4779867846067004
  0.7283575913428001  0.6787470434350205  0.9277850562853350
  0.6748335378535659  0.5380790668429748  0.8439683809722518
  0.3068733290966460  0.6311896137057347  0.0219157590923342
  0.0903681079476462  0.5340214694664683  0.3178389543147923
  0.1460949364786753  0.5492800259932008  0.3891008295961343
  0.2978083265218635  0.4724628776744185  0.4059969608279068
  0.2478013190630957  0.4822857416500653  0.4469379058391779
  0.1928840337919660  0.4722566329909884  0.3703598527200846
  0.9990085091933395  0.6907158200379994  0.3539369836235691
  0.3269535462276761  0.2894821737269962  0.3721632493494172
  0.3231461663292318  0.3267865762014701  0.4819703610179816
  0.3794902420315950  0.2794764762940273  0.3430883019766474
  0.2525656530939497  0.5455324276429777  0.4273100157524256
  0.0375740218385076  0.5333833487048248  0.1855135932912982
  0.5794881450554069  0.1479236930221622  0.4389541006371356
  0.4031291999310977  0.0115285502079215  0.1446315905625608
  0.4682925667359357  0.1822193261936189  0.8370178008396623
  0.4438442560128996  0.0869897286431980  0.7901977128110863
  0.1775714956032162  0.9619870666793933  0.3374124911588085
  0.6367947099077518  0.3566883030049910  0.9774448771457712
  0.8355055250082020  0.0717982949455577  0.2665470445898297
  0.8028773860926554  0.3372257367702117  0.4618655856376351
  0.7081582323428572  0.4694031906418238  0.9220185444143665
  0.5259350475113650  0.2097367347223667 -0.0147044437342715
  0.6261807660170391  0.5339182412494277  0.8837271268937544
  0.4452266519989818  0.2673263119151369  0.0005313490093335
  0.4597270863931197  0.0273721813513782  0.5363392773441070
  0.5059404827497397  0.1313227884970277  0.5215937797105493
  0.5201949460905139  0.1198934572072381  0.5845345048620021
  0.3011647717025828  0.5006326594804612  0.0545875862526289
  0.5704363491581981  0.1560459432677095  0.6519253163438925
  0.5480025983887292  0.2155289096629647  0.6345726413536926
  0.5353961637618813  0.2609664844802371  0.6787938247549515
  0.2530490756774839  0.5328223840114148  0.0366246881610881
  0.5958000569323073  0.2519377791151031  0.6988735013065331
  0.9475949911240710  0.9609411439406375  0.7788460550023907
  0.8018440762551664  0.3601241385928048  0.9226894287314688
  0.6710191885575914  0.3843657321518864  0.8144405847097888