B  Cr Ni
 1.0000000000000000
    38.7315947344316172    0.0000000000000000    0.0000000000000000
     0.0000000000000000   38.7315947344316172    0.0000000000000000
     0.0000000000000000    0.0000000000000000   38.7315947344316172
 B   Cr  Ni 
  50 1596 3725
Direct
  0.9217890735639245  0.0217161057673471  0.5636594476511742
  0.9763727047671769  0.6094290701522711  0.6444355606264378
  0.0570231991381577  0.1993386557159536  0.5928604144051016
  0.0860587901906300  0.4215212371850841  0.5733760903411983
  0.7259256327883736  0.8346487383944372  0.9411114206118442
  0.6380401234857228  0.7514695018881262  0.5409183960116406
  0.5281991427597740  0.8015862835140553  0.5611649385497096
  0.0637285641893658  0.7755490791023887  0.5602522716461537
  0.1632765827283028  0.1826324183611870  0.4645781893752377
  0.1542432515602205 -0.0291193038162177  0.6285544719851339
  0.9948170833922370  0.7844232518923341  0.5996098014932554
  0.6181255918820341  0.0195815174086113  0.5755115259331627
  0.4023102908915214  0.1320513181185126  0.0896706629583068
  0.6417166166351643  0.3853322137256412  0.5402827322997683
  1.0366009468046511  0.9255555910798868  0.9128110067928871
  0.0276720301467373  0.8956971738903440  0.5812187395013740
  0.0085848563948976  0.7651185048779708  0.6775140789178071
  0.0628403744047438  0.4257329121285818  0.5001721165781188
  0.7590634379754918  0.4660503488075409  0.5048560422982339
  0.3637730724813717  0.2464004654701084  0.5205035462114300
  0.6195620170606219  0.1201129956652266  1.0223444587311170
  0.6389784038597843  0.0032818694077454  0.6154378704876564
  0.0435945670200219  0.8586069351735880  0.6480428352316785
  1.0054850692135231  0.9335615392038956  0.5900815636296791
  0.6891914602395505  0.8317000322938305  0.6067946260328220
  0.4288772947138538  0.1371658064646113  0.1246621444027027
  0.2197498349308460  0.1876259540320852  0.5970750140681145
  0.2174237352791467  0.0542596495703580  0.5345621466642838
  0.0060528603645998  0.5911608039554160  0.5675742430466089
  0.4629524748854723  0.0788323860725271  0.0400927069078647
  0.1711289954234615  0.6473893652630699  0.4768885707420684
  0.6746495721076754  0.8963755134830050  0.6571991882775070
  0.5774254360169826  0.7966286605867487  0.8971873693076360
  0.4759196633185677  0.6547948939192549  0.5108625051509963
  0.0019184378219179  0.8443174323738538  0.6594270266578069
  0.0567473506683198  0.9931800634238035  0.6130569709819482
  0.4298610666106404  0.8944111261571018  0.3309034191979202
  0.4454552573598570  0.3865006929413545  0.4776135343282081
  0.3179453325781224  0.7926636509900619  0.0361338006050367
  0.3845442748683459  0.3196492107962646  0.3718230900848338
 -0.0109157926740761  0.6027671224962003  0.7032886976191620
  0.9861596780400260  0.4386602760073948  0.4728670616693381
  0.2553871385716202  0.8161801762536651  0.0781758665555010
  0.5037127008502426  0.9327239757269853  0.3455267614865063
  0.5649700250358480  0.8567709053141135  0.9404679346711126
  0.7387264903910790  0.8997597659657008  0.6123307715322958
  0.4306028235073378  0.9663358142612178  0.3832624111334911
  0.8872726475879956  0.8429755058283358  0.9538876587169999
  0.5141396917641432  0.7876758679693974  0.9497426750269498
  0.5768308077334254  0.0174140720443314  0.0079742072846115
  0.7138115117393194  0.4088029020317068  0.3385010682158507
  0.5332416819840623  0.1759064605283276  0.8596859283915789
  0.4817827440395702  0.1375619557916175  0.7926968730446216
  0.7558972835760271  0.7425514375144711  0.8714571665780445
  0.4044984232059759  0.0389009480875180  0.7867614175627519
  0.9207223377831092  0.0426058514865771  0.2844900490430941
  0.2859064748014050  0.9616813068377117  0.3692376604993464
  0.7776480534048575  0.6509213582476696  0.7849911239449808
  0.5795218876415097  0.6877556230211522  0.4335923888209767
  0.7160799321799141  0.4423875437145082  0.4410524973730326
  0.5513823566533660  0.3681770565673900  0.6637384147833354
  0.1672622681016586  0.8419125276819583  0.3691032103888174
  0.7400133406157416  0.1935781447771600  0.1949909492501163
  0.4473080015981468  0.1725341685351377  0.6097472945989986
  0.3361795314340401  0.1488589021778581  0.5268109986835784
  0.5935691315689857  0.3202384153927892  0.9137670832784585
  0.3242053128621181  0.8086540704762198  0.4319281020025597
  0.6067912047322881  0.3953337980081649  0.3649719844650884
  0.8593208784477016  0.9487324401074104  0.5189698748328108
  0.6169375277719482  0.2293261588075586  0.8238747817408699
  0.6962113355741620  0.2704786280736701  0.2114579170552020
  0.5085736595266289  0.2304542131897625  0.8479265330938922
  0.3568748144997385  0.5809441819767234  0.1057815607885032
  0.7919732139887810  0.1931231371246540  0.3279047801962942
  0.5731052863237996  0.3435007529023874  0.7890656014731711
  0.5816606058165977  0.1471944900615433  0.7126737007647190
  0.4813016541920050  0.1027343668154442  0.6870770417250567
  0.4308391099363363  0.0639951691070351  0.6202605006346158
  0.0245520457722794  1.0096577048391568  0.2109702158694912
  0.0646482374835494  0.9061950129699013  0.0870348441591099
  0.1537633929395662  0.7317793731392269  0.1141692689021567
  0.8815292976310536  0.4381511024424513  0.9866339816280097
  0.1567868741537731  0.7497259938641057  0.0553873243908653
  0.7180185625324380  0.0206844693421300  0.0085985612378992
  1.0219490312076334  0.9928297626993750  0.5067085990359922
  0.4716266747825287  0.9532302265275102  0.9614662458693957
  0.9286862752059860  0.9828896932762429  0.6529352980396341
  0.6754346011307425  0.4732264439316572  0.6387516333620722
  0.4841646612957568  0.1752331305636135  0.8975355874946191
  0.4460033528908414  0.1245247030466118  0.8928739532637171
  0.5096005744219220  0.9692153086693301  0.8562888209766639
  0.7488769228439819  0.2859319688661460  0.2815814280295137
  0.2549487284218189  0.0261136141791323  0.9097896975279006
  0.4153677800218972  0.0278309853193629  0.8487336278527949
  0.7941159156359342  0.2079661197563454  0.2672536278164916
  0.4954559102590655  0.1651777300641486  0.9587188445368140
  0.8312757139142140  0.0403766492905292  0.1585058660116211
  0.6012105107980547  0.4059183733313978  0.7324808282761536
  0.7432995551640365  0.7194524081327536  0.7053027252335491
  0.8443361902007483  0.2090029220588275  0.4001673938772319
  0.8976654300846263  0.1934337373814555  0.3657523759850306
  0.6353052964469748  0.6988128083083964  0.5585749536570352
  0.8713660892859540  0.0577228188305762  0.3191983423492344
  0.9240027459908846  0.0702612000532127  0.3869880090618374
  0.9018793382393220  0.9880047950889099  0.9391420781562703
  0.9697609733578849  0.0099788104099686  0.3093671371033593
  0.5440156588948671  0.0976606497909913  0.7081822370160482
  0.7936559151012553  0.7597736850164929  0.7692157012617170
  0.6114713410061818  0.0581159594100950  0.0230132176759789
  0.9301711402513589  1.0014633782542102  0.8443121167036047
  0.5817968493147537  0.1801696825031615  0.8196803453453685
  0.9611735180933800  0.8406654223930855  0.5279000269568399
  0.8480823733443418  0.7797542663960856  0.5042506791586204
  0.9578049292044631  0.8651858662305201  0.6314305981747880
  0.2604043460131654  0.1355866965742754  0.1694727853340399
  0.7110657122697541  0.8225228104377376  0.7273534627346290
  0.2411717108134221  1.0041067333897040  0.2758770326932508
  0.2963159294906331  0.0244956850092582  0.5984733662408336
  0.3151436634579025  0.2659898886422440  0.7163956213085183
  0.3374365182967152  0.2097086516068936  0.7321732970300865
  0.6824592510543648  0.7271280395968067  0.6826689403974158
  0.8637723912536203  0.9972232591134275  0.5653706182006775
  0.2737982000829749  0.8540832639853394  0.3450659296109117
  0.2232271253218114  0.8856795813974430  0.3188071304734966
  0.4529695961081491  0.3247735549676954  0.6393306758922859
  0.5245535225180697  0.2729967443867915  0.6138970927838457
  0.3201815603245488  0.7780206938974403  0.3252840638530261
  0.3703627323315370  0.7637364765915849  0.2901672902293732
  0.5085204893110257  0.1994042842894529  0.7366083984818204
  0.4222098069218813  0.7176217443151010  0.3758521821718058
  0.6213470814219628  0.5654521172742885  0.3709785642067757
  0.3738693678758740  0.7945778689848532  0.3965455877807592
  0.7698817103939990  0.9431810495670043  0.6046485738000448
  0.3235027657304905  0.8253136214059659  0.3710704743310251
  0.5781221420170444  0.2124938214867090  0.9386760741966331
  0.3926619708419611  0.3328481926181036  0.6204624717221560
  0.9231944995421725  0.2283313391636806  0.4678897223885635
  0.5304522406002018  0.7632880791725937  0.4559756378159223
  0.8038310113266147  0.7803229487369007  0.9349528790655437
  0.8876543800540817  0.7174974290936846  0.9715876577740841
  0.4340748391764452  0.7724792918080350  0.5366880336566715
  0.4358485899613505  0.9178754602335639  0.4974268534566377
  0.7695206123101163  0.4293646592793186  0.8390682606063313
  0.9305216202923998  0.1365026532576498  0.3726268845895390
  0.3314896393277955  0.8991697418413153  0.2893439050425143
  0.8280272009142418  0.7755193500735210  0.6648328784094878
  0.3032659509259452  0.0740621341307779  0.0903191773004229
  0.7332032360675352  0.6733765899793074  0.9856772101993088
  0.8527771742503895  0.8711046383266887  0.5938576324652258
  0.4028701770864465  0.4383124824671233  0.1081143421543636
  0.6539782580023368  0.1604055824700797  0.8997357661779549
  0.7228351327729490  0.0580863339913255  0.0573598265115088
  0.4059891635290797  0.5002349890086859  0.0943325045347554
  0.5153397785903998  0.0699380825285645  0.8746370296776036
  0.5841169719254702  0.0173477903754356  0.8536301688612856
  0.5888320957731547  0.0532591804756542  0.9610023437384464
  0.5475947331890029  0.0016258429304091  0.9606786825374871
  0.4775517525410801  0.0601003322461506  0.9847453462810137
  0.7471485949815047  0.3043400424613640  0.4552281577920156
  0.7837551655870953  0.8033735206553860  0.8096872508032635
  0.8898358493078472  0.9339582755794649  0.6476167845144556
  0.4094507059626604  0.0597860925034701  0.4197298736566853
  0.8988211847252469  0.9203358375110716  0.7126164081848212
  0.4784622581903382  0.7322392482325915  0.4470605136862574
  0.6896704180076270  0.7728308070427061  0.5653188988497655
  0.7689147058355562  0.7789527801809882  0.6451841551449152
  0.4798994325836918  0.7939286072032965  0.4323033346581374
  0.7456092023477948  0.8449634674336796  0.6213547557472409
  0.3891914430141779  0.9207636440654072  0.3637446768438179
  0.7985815242309168  0.8767950430400420  0.6871340654193787
  0.4001310500782089  0.3919075028085656  0.0635136608229199
  0.5501591967154948  0.3136851984361818  0.0793883618090654
  0.3586792917978009  0.1185306901934905  0.6441978810214878
  0.4497003623148299  0.3608011677841301  0.0900392854141942
  0.3552217253610813  0.0431311567123503  0.1165578842369485
  0.3072832704707602  0.2211444817025603  0.9941055615074331
  0.9812948763002087  0.4540892793543601  0.1317361746374403
  0.0819140663735546  0.3571817616413296  0.0772523908549705
  0.2399848228910068  0.2964194344050894  0.0406561249758865
  0.0304997099282177  0.3732943627766349  0.1113307230409043
  0.2333830811973865  0.3306945726054581  0.1442446465227850
  0.1394988502877662  0.3949159593439793  0.0291419467379150
  0.2482145919769930  0.2409712915830600  0.5847977383372067
  0.4165705170983826  0.0786020166015990  0.5585495127809784
  0.2879609787375222  0.1714039995071600  0.6647848075345840
  0.4943506034366029  0.1273761235170436  0.8525689878157724
  0.4644443801065956  0.5486477228392774  0.4945876076331999
  0.7836249176112717  0.7111239735999058  0.9938428053761851
  0.5162297175928413  0.2857167641208568  0.5467408217813334
  0.4172181946227699  0.2474006654158768  0.5313608657116250
  0.4164585103720108  0.0096274740851236  0.6423513795575820
  0.4410734640490555  0.0537965033865159  0.6827953080093772
  0.4837789219390345  0.3256232600309247  0.9330913586839863
  0.4469927890492368  0.3141479336586870  0.0413915323325427
  0.5538746452602354  0.0847152726667640  0.7701181111999409
  0.3354474981065908  0.9818556179739039  0.4475537896985436
  0.7358588545036345  0.6728893208623374  0.4359434225092690
  0.8596429788483854  0.9042617213413046  0.8134529806052864
  0.6925125502639546  0.6277793053788586  0.9306441884332064
  0.0152770154377077  0.9283089148635397  0.5332787187948480
  0.6294348431436129  0.1659109897541416  0.0570905258392611
  0.7276192334610353  0.1441472397822231  0.9823266626969845
  0.6663154628373004  0.2678070876874508  0.8901489708089889
  0.4295379241518620  0.1496571419916611  0.5016859200531518
  0.2605711545947578  0.7331362599577304  0.1459363495698972
  0.2123333379038851  0.8083985084089635  0.1689287179205730
  0.3188798138451358  0.7931235807298275  0.2644636963605979
  0.1757736327972326  0.9313131574291545  0.2254683082521709
  0.1242596716125473  0.9470591824209936  0.2625600062209256
  0.7192321577341817  0.9800460571304482  0.1383485850940232
  0.1406277709649233  0.6434774165613881  0.0156433797565831
  0.2619982092168675  0.5879609427770638  0.0151228580355292
  0.7281338832886595  0.2274239392977732  0.8036367184999255
  0.6673304916843680  0.2343638497532430  0.7820342596803699
  0.9711224756368690  0.8890295433064818  0.5756209125358593
  0.0604856077387695  0.9438160489793495  0.5884203679982231
  0.9646561499880112  0.9517148511996292  0.5563161499601604
  0.5147809034571167  0.5658192615790507  0.1097526891263423
  0.5607982975072088  0.2584917471541929 -0.0248296045937167
  0.3865848631324951  0.2979641480476874  0.5122589330410794
  0.0817725108855179  0.9018104649282239  0.0001423080018218
  0.2062808153634335  0.8009121070856767  0.0602209627306330
  0.3871190164194285  0.2478423429302285  0.8004739244776826
  0.7150364661757396  0.5717467311859599  0.9451045941815660
  0.2028819453738861  0.7167049820600050  0.0758922960924813
  0.6415105119219644  0.5917158837872777  0.8615052619046752
  0.7020412322305455  0.5848001614523844  0.8822091498252799
  0.5553059059604917  0.3205855705949682  0.0180583957790588
  0.3443353620072224  0.1171892998402461  0.9735603817747447
  0.5248154873567266  0.7260752308992600  0.7402886794153648
  0.1944915530977054  0.0322394395809432  0.8839889411931994
  0.7187028224091541  0.4524102755783979  0.9814314365205693
  0.2943243637069118  0.7383427715017795  0.0470997366433171
  0.5192633854086552  0.6280309782800194  0.0932297417580827
  0.3537905097851020  0.2826668092989683  0.6156127510506989
  0.4148729513900735  0.6409538410203987  0.2256365356560296
  0.4632986341902383  0.5503481790402693  0.0418551147478727
  0.6261339349544484  0.5013556767987013  0.7802604350236930
  0.5628848815381547  0.4878155792255232  0.0912818981401746
  0.1775246361002786  0.9486178906980496  0.3971519019313874
  0.5101800700067389  0.4567104266615952  0.0812682335895756
  0.5207756056070878  0.3732207216082299  0.9344564820556782
  0.5602694962696265  0.4440977322485420  0.0462770728096532
  0.5195304094182918  0.2211336113690284  0.9135729593276560
  0.6611491560264252  0.2890763967342344  0.0014663054055636
  0.0056041874613768  0.0958085608889205  0.8634176367979106
  0.7279454612965848  0.4118527161306304  0.9394048742243033
  0.8331615747395338  0.8430206585665166  0.8746244676685465
  0.1999015773699892  0.5439238170504869  0.0712102084525222
  0.0683280560350780  0.9334973948536802  0.1923154388223368
  0.1853042593113762 -0.0114059925949402  0.2052381793923891
  0.8898623619195012  0.7679824945799203  0.6856605418319593
  0.8823733087996370  0.8132529795296844  0.7278106496700855
  0.7194889009238518 -0.0014466643928950  0.0749980969018289
  0.6657757183756591  0.0874548939699925  0.0339819907081441
  0.9314923309582808  0.8870267502605604  0.8954355607981453
  0.7480462053286649  0.6861289660676853  0.6019150576630843
  0.8655027410300387  0.7403435181934021  0.8498532724812689
  0.5870971883542413  0.2370183238655776  0.0720460398085296
  0.5014563317161862  0.3765651274726222  0.1586617160984314
  0.9530828195008842  0.7954768203521360  0.8108911908092937
  0.8321326399810400  0.8087921007574317  0.7698876357087531
  0.4529256530536622  0.4076749191097340  0.1346935747803264
  0.9420805885721428  0.8411917534723092  0.8553178714665262
  0.9162885158994529  0.7769940211251699  0.9159917987230263
  0.9946085609167921  0.8753739271962971  0.9223075132737817
  0.6706237738252494  0.5205206910797722  0.4578630151378708
  0.4593920603310193  0.5187211860117074  0.1619747556407194
  0.0592588531100394  0.8272945107276751  0.1645706193391262
  0.2138191659863246  0.7935669801997184  0.2273349931974011
  0.1678382741840183  0.8712809626072703  0.2453407499170614
  0.4080250917350598  0.5214319188100277  0.4850219855614823
  0.7912947827286660  0.7377533976162877  0.5502391046497627
  0.7316820360948588  0.5965346088457809  0.5143686130896260
  0.8115738909451540  0.3617757310954802  0.3341245350880379
  0.7676673959565660  0.4394366443390677  0.3473284992588460
  0.8233704512872234  0.4695736625156735  0.3577087953371267
  0.4000207022974047  0.3881051778642673  0.8923137133987312
  0.7782230184230944  0.5481681709008313  0.3741222730659802
  0.4492590835301812  0.4261899332883922  0.9580682378795840
  0.1847613413771273  1.0242424040067979  0.6145877350451713
  0.1325148621406456  0.0581173174088544  0.5202012812648922
  0.0760587598256276  0.1433598996618355  0.5901987733450628
  0.2340711817662751  0.0471796643216252  0.7815357388477460
  0.4822988610430247  0.8383778873407376  0.4782331198493172
  0.5864156368332430  0.8124183753423597  0.4053090577203162
  0.6122257930343545  0.7806781737106815  0.7025609513189776
  0.2996385647767829  0.1934421149192574  0.8320420835167167
  0.5383090686667259  0.8698820962979290  0.4887432809675584
  0.5905773253244559  0.8569105309618830  0.4531887945548205
  0.9924117451998432  0.1603071489280711  0.3712943055449068
  0.3712493572009553  0.3272117989180605  0.9538991489734393
  0.6132431276194054  0.4716729928530265  0.2824348479101744
  0.6607031136939875  0.4088534540732396  0.2051390560544458
  0.6860982788826563  0.1774434619601064  0.1258360992364478
  0.0114157557323645  0.8048729814576593  0.5511490563751972
  0.8034606419883407  0.3010017247830215  0.3539055354525067
  0.6870843779283227  0.4597535582223817  0.6975277820633692
  0.9836489237721605  0.0088294551737383  0.7812739962358103
  0.6713534996929076  0.3851739886078820  0.8152535852801336
  0.4826622719284488  0.8769699865766608  0.3549042379562666
  0.4275575022597923  0.4502519102347632  0.8347092920977537
  0.3782611718794979  0.4451561272978272  0.8754091919981284
  0.9860226733556351  0.1146195152288437  0.3325253994066026
  0.4565528865710159  0.4415359667751544  0.0111485105615827
  0.9479768881157311  0.1789506690605139  0.3324661320538145
  0.1461323445948812  0.2458863140900139  0.6076206109449893
  0.1855396308800745  0.1429369822192259  0.5729737561757541
  0.9022710516073372  0.2566184427723568  0.3486004866880589
  0.8766122363248794  0.6605551083889303  0.7033400830419517
  1.0023874732606151  0.1785353448457470  0.2364465650820369
  0.4938391057027575  0.5615152341627235  0.7813380551909843
  0.7989481056975613  0.2395982709525397  0.1424258240352782
  0.6739239457704899  0.8064412054864037  0.8293791856439500
  0.7046408410828363  0.2972893165966450  0.0852339047677187
  0.7127942865494395  0.3932352630641747  0.1708394429061315
  0.8702891749618541  0.8861996777329779 -0.0076378093052164
  0.4101129082695764  0.4678890911362749  0.4988546358573012
  0.6638202636159891  0.4559960757876038  0.2495290210768026
  0.4731229305123326  0.5532842116551645  0.5511202701543114
  0.9839671733180503  0.1470389766273446  0.4358324324317359
  0.8015457506433481  0.3612223270875790  0.9225153279982937
  0.5768554323820130  0.6323888336791245  0.9413785769056454
  0.3533644673557765  0.5008316244093605  0.1862788644817960
  0.6919300291441666  0.2236918246695321  0.1680487056672628
  0.9942596352007831  0.7173561389909515  1.0079599466795210
  0.5531618632881226  0.3787419727634317  0.2932905478647492
  0.6059730469295951  0.3780346675957660  0.1951078216699748
  0.5383137489745793  0.3899050607558284  0.5261320120033697
  0.5601639458434180  0.4553369760630999  0.2133596634785387
  0.4068372098088347  0.5171165953452631  0.2575066576699034
  0.6502915357847285  0.4106218226180057  0.6923866228530897
  0.4628913836279979  0.5646818187123351  0.2036557718416173
  0.1050611762697885  0.8259677249508216  0.0764570988437624
  0.6381624730590134  0.4550265830434436  0.7361699743860837
  0.4149071245310376  0.6257963007130349  0.2846139591911652
  0.6856905365676776  0.4931022649775960  0.8008510390464258
  0.7470655494104820  0.4871331412849296  0.8211060394431045
  0.3120446125118521  0.6863209536102139  0.2326368730409041
  0.4184253356442815  0.6876784719740833  0.2700216283811052
  0.7626120037671807  0.5786968468856608  0.9012450632141589
  0.8324557008497503  0.5594619972385675  0.9879383770455498
  0.8225069988561396  0.6178862411251117  0.9709798861908887
  0.8408163289306626  0.6773331338005558  0.9110857036172384
  0.6841035639640360  0.6068052521463922  0.5491391132877301
  0.3597281917595251  0.6092001543899859  0.2145818215498396
  0.5732137803095328  0.3105984043380531  0.6811714456116080
  0.9316935378299117  0.4512334561714580  0.4566332836779641
  0.0944655348504823  0.9725446923101918  0.6549090533462909
  0.5419920527549018  0.9325772501385272  0.4747862392897319
  0.9114966568333011  0.3514176916928720  0.4395550893468426
  0.9678015555360300  0.3881126863516892  0.4533111069594958
  0.8714791415980939  0.4203313365590097  0.4439996673343179
  1.0112058720464927  0.4055344631469031  0.5106471666543857
  0.6750996020505620  0.5800000896957587  0.4427864945193452
  0.7867965643175309  0.6431000688139344  0.4609394764368230
  0.6788917805617659  0.9248430159418864  0.7527614819332026
  0.6679246148800585  0.9707606528987266  0.7959121290431413
  0.7282602769747736  0.9633853203726683  0.8152925531102555
  0.5614231635430317  0.5039226318613987  0.0317844536519828
  0.4296484457252831  0.8080434524505055  0.4726856515277746
  0.4475889746425705  0.8468983664946806  0.9776966961295654
  0.4774666279095671  0.6570769485184476  0.5680940816109663
  0.5425590455827737  0.8015761733838882  0.6214782820343321
  0.3930956287711215  0.7404514134716211  0.0237652329419339
  0.5410713259986493  0.9158896006386230  0.5351251105467386
  0.8331963925794822  0.5471273931494717  0.5063600590478039
  0.6148447430288707  0.4864830428037428  0.2220999428959639
  0.4767801622428474  0.7664895841523458  0.3236757659242922
  0.6748726261585513  0.5802452588832482  0.2149628152684304
  0.5899825108498796  0.8822136277538037  0.5625985099593007
  0.5701038661240588  0.6110301262366958  0.7777833206131241
  0.4615810977373647  0.8623152348084621  0.5799127556830238
  0.9112198292986057  0.9020557245833281  0.6061872982608015
  0.4772411599014925  0.0034177426237116  0.6668883907979849
  0.4102865879567253  0.1568098068275459  0.7102591027925605
  0.4587291005704940  0.1608508499124525  0.6693613220049585
  0.5177784952915898  0.5802123377661217  0.2750040761169046
  0.4693166820567041  0.6578117964497304  0.2935807451764864
  0.5184004684107320  0.1862409116040565  0.7997651613274686
  0.4434978493930171  0.3376240420068641  0.5779341021418765
  0.8606864105070129  0.9367001986176773  0.5794049664432743
  0.8532303182807307  0.8814548435799918  0.6468202692421352
  0.6325745099759820  0.7026593628562859  0.5048392327783278
  0.5960809743562067  0.6397016327806567  0.6160122426334477
  0.6244138234748772  0.5945445217707986  0.4775226975333647
  0.6455796049616570  0.6779129642839691  0.6807317870990447
  0.6565677970430329  0.6649287221170803  0.7406436742557548
  0.6948099618064160  0.7153190832252628  0.7445391110069157
  0.6224674402114851  0.5182557658219201  0.5569278147022337
  0.6895108119874638  0.5804932936509747  0.6206073142873860
  0.2317453523577152  0.9252861437097729  0.1217218511589287
  0.5873346382562811  1.0022785186210321  0.6477582811772706
  0.6597631158286292  0.9454137354321500  0.6260361067112613
  0.6221291350578840  0.8999442173490488  0.6258500087588632
  0.7377761586559684  0.7195390564102030  0.4812318649238446
  0.2342683201150941  0.0794793472113683  0.8873229013791440
  0.6079098698578994  0.6604257781527747  0.7806757509249861
  0.6573739186598898  0.6994801159046512  0.8458440899148778
  0.2601126378143876  0.1771504421752141  0.9304896177696196
  0.4051941268245093  0.2219244698985550  0.0043819564866518
  0.1857205377285772  0.0434879270197119  0.8209830333188910
  0.4430701431768146  0.4898309678418696  0.6105108072087519
  0.6461508531497929  0.7107959033568134  0.7833339978698672
  0.5151881952742982  0.7379720731398548  0.6799716874250886
  0.4035523513471618  0.3208292329099207  0.6815191423199161
  0.2169387183482962  0.2232332256900335  0.6886381031215619
  0.4146772554811353  0.3094676280352504  0.7433184511492685
  0.3515301644653130  0.3497698169887660  0.8273399366976516
  0.2615454652747318  0.7953352897771722  0.0280582539733990
  0.4521251496260416  0.3581539450702723  0.7463658482022131
  0.2115405964358085  0.8264696653803594  0.1088547126132912
  0.5004508681960429  0.3967729298616478  0.8108709107389024
  0.2283255469999680  0.8738012376526508  0.0693895110983914
  0.6094480792339150  0.4266970729230051  0.8975670260769334
  0.5386716746750080  0.4795954329439750  0.9219700744547668
  0.1775392349279789  0.9447307694062986  0.1610434063605473
  0.3000060648554939  0.1599558573657210  0.7273657434405425
  0.1033393568681577  0.0741437772576784  0.6745472837936070
  0.9943945462313638  0.2027517153636200  0.4115306585445359
  0.2727727023401950  0.1308968004906958  0.8907438934221271
  0.6804121510638280  0.6401566144522385  0.8653072059727092
  0.2143749188988763  0.1373353414292678  0.8686650152399608
  0.1528407085959962  0.1118960597497000  0.7401144991740117
  0.5851716873695633  0.7518789127793579  0.8651690836445715
  0.6076421927027932  0.6964423179051630  0.8863605489639881
  0.6456225521006111  0.7444407909805902  0.8885259864532358
  0.5239784693112686  0.6885135996273731  0.3037333410328878
  0.7107049669176422  0.7279222167416980  0.9731087491864115
  0.4304154822926268  0.8410838619143797  0.3452752552666185
  0.2445379084462277  0.0702997593951490  0.9533684861284943
  0.4290914366382436  0.8597800706741471  0.2854392253520617
  0.3946146641249149  0.4861392130079770  0.6518152900882723
  0.5153228802778885  0.5045170424541582  0.7983626272077179
  0.4819385891504082  0.5737825105783346  0.7192342649703160
  0.9883646013590905  0.0241957257743387  0.1618145219913432
  0.5322949637356118  0.5941961758843232  0.8822165845997357
  0.6844352807803075  0.7615411237333146  0.7872705278972598
  0.8984120484604162  0.2097016055026844  0.3060603130434836
  0.8529993648154557  0.2852196495530906  0.3205744258717002
  0.2959377561246755  0.0755549934716113  0.9104192809726716
  0.3523829785657295  0.7595590432868419  0.0633782468450254
  0.5312734549719821  0.8449731592491948  0.6634313297763053
  0.7773123377477705  0.5333653301909805  0.4370969232021716
  0.2508946155060350  0.7552106899900848  0.0794240779908743
  0.8646361582189372  0.3754387866212535  0.4075828203330373
  0.5359095007212612  0.2620444128823939  0.6785363659779272
  0.5475345092174329  0.2157562157798530  0.6340158217860586
  0.1132624367556745  0.4366095021757748  0.0087507364200938
  0.3361304493972281  0.3340604722053754  0.4094605027727705
  0.6752732617263322  0.5396903712305992  0.8438319787291313
  0.3064625414642569  0.6319137834953185  0.0215720002763943
  0.5272759827160159  0.4587077810103662  0.7551007718977606
  0.5638391130292989  0.5080116279977253  0.7592105006243174
  0.4202424211042586  0.5746721707494034  0.0153484013039282
  0.0042153010186035  0.2285643395014995  0.0489986868618075
  0.2962689022773173  0.4545328252825237  0.2393167047351113
  0.6758450764637784  0.6286015247267129  0.0268022649503473
  0.3621214547603701  0.6414003900871981  0.0867895958115415
  0.2897607749205765  0.2347692032385452  0.5506349780349381
  0.2085276354543227  0.1818000989513718  0.0798706398099688
  0.0501346305863209  0.2096146049100518  0.0206015665067489
  0.7746319014092733  0.2263950521090536  0.9821506983902518
  0.5901050026492375  0.2566007929751181  0.2374254613998044
  0.8123685557314967  0.1637995991374226  0.8385208695221256
  0.6910475341864285  0.1800053320170449  0.7982714646982939
  0.7130031790664597  0.1209380990639883  0.8164195219102990
  0.6416920920731586  0.1402095411405526  0.7328884635952688
  0.7509542659888483  0.1361976216901808  0.7137360826765772
  0.6940309868933908  0.2558925108275850  0.2725519379509908
  0.0814106598446318  0.3933561513062865  0.1866408339506554
  0.6030836196904525  0.0506782478463556  0.6205111824990182
  0.4658713820059635  0.0137289811403326  0.6013000479557459
  0.3611952145903892  0.6090554575055915  0.0375885212524158
  0.4565982615450396 -0.0227179170002060  0.5506099773496185
  0.7391619606438905  0.2162384393357401  0.8631953699561541
  0.4112227867422711  0.0829628573731646  0.1216182936436088
  0.0465224278784723  0.2688095252557923  0.0106811524215120
  0.0347286312048784  0.6007876768853712  0.9907277178715326
  0.2244321394783088  0.2907551590880129  0.3339683303377861
  0.1729919114794991  0.3050123640662609  0.3671368468063543
  0.2305444644651269  0.3351566826172415  0.3747590035935600
  0.1302672779207087  0.3794142356195441  0.3798586996123364
  0.5072638012292505  0.4410108527992286  0.3718806445612509
  0.6249005353556349  0.0332042462528538  0.7505245328273548
  0.6142898846559299  0.0778885783094432  0.7931173959373902
  0.6363282537749584  0.1006127481870639  0.9723741964036057