B  Cr Ni
 1.0000000000000000
    38.7315947344316172    0.0000000000000000    0.0000000000000000
     0.0000000000000000   38.7315947344316172    0.0000000000000000
     0.0000000000000000    0.0000000000000000   38.7315947344316172
 B   Cr  Ni 
  50 1596 3725
Direct
  0.6708550179066126  0.3586716759083501  0.5028732016318094
  0.2581342548437563  0.9919541069389118  0.5521126161803104
  0.2751170215139782  0.2144237317047605  0.5343935396016816
  0.6771420349375582  0.8942547077023513  0.6599251731477138
  0.0147942696129354  0.8631262139763554  0.6603887054249500
  0.7388803577417149  0.9012157641084162  0.6094525498921759
  0.6156653132995493  0.5980596584492576  0.5464301642198530
  0.6200963977261335  0.1212899701705461  0.0202190320775416
  0.2033525634018163  0.8333551295595939  0.5663684218207988
  1.0145954105444215  0.6280216502801423  0.8193499506710556
  0.4294574047123188  0.8894873643550432  0.3312631777160458
  1.0294734412534705  0.9017884557963112  0.5766431344507227
  0.3258237770467204  0.0948432834116384  0.4729697079461681
  0.3988071334006348  0.3264768259957940  0.3627925049908391
  0.9692582505230584  0.7072231176380817  0.6755692752059798
 -0.0110154371256423  0.4399324567791236  0.4724105103666562
  1.0679724970071560  0.4255140499125125  0.5002030616854618
  0.5002344225694736 -0.0676636935436939  0.3429668544703735
  0.3710050729311800  0.3069535247662867  0.3919119572707854
  0.1741196237266005  0.8639781316685173 -0.0336314991030492
  0.4300079084321399  0.9522600614699136  0.3895654078738989
  0.5799306620887056  0.1679039720244383  0.1495496355667203
  0.2870380952508303  0.9859518268752937  1.0120273621504476
  0.7360161873277659  0.0746756788208409  0.0091650386953602
 -0.0071939577699194  0.5898281188920901  0.7031420720096122
  0.4728178987601813  0.1065456194506366  0.0035761584223210
  0.0956368141498287  0.7070643598218798  0.5613981599154998
 -0.0281132560788448  0.6667334273241884  0.5988279419183198
  0.3261696415141495  0.9763958234361764  0.4105988785973253
  1.0209688618551087  0.2440956979879323  0.9360782373806777
  0.2752716389566228  1.0007825743208996  0.4662046464467896
  0.0537065249026140  0.7756893062705242  0.5645921611989948
  0.5299173093685299  0.8042845944403517  0.5641512107334359
  0.0262055702979232  0.5743736001074182  0.5789515098911734
  0.2215583407115750  0.1548025976043643  0.4384423427310317
  0.1567016240121681 -0.0285449064844218  0.6300544024132464
  1.0515098133138352  0.6973640270458129  0.1990564824051090
  0.3659778499296359  0.2507335275998384  0.5240248903625043
  0.1715698203261415  0.6441534695335809  0.4776564954691360
  0.0648916498061640  0.7735009948767434  0.6418326194995519
  0.3233445504713850  0.0031685474035406  0.5161636451073703
  1.0070703388414100  0.9408155237295587  0.5850054837856837
 -0.0476394122472009  0.7782613933686321  0.6553903277133896
  0.2635710748145418  0.8634286500449624  0.4980000916678439
  0.8644570253968731  0.5298578293843144  0.5302621710470309
  0.2219534320253624  0.1891312838229870  0.5990543720096960
  0.3395574880992788 -0.0219374857839361  0.8533623061791286
  0.6351766721720649  1.0047398778723229  0.6199896889385837
  0.5961927710059484  0.4178573213232942  0.5201969352999922
  0.9690151880105951  0.0489797542551029  0.8435909187771710
  0.1721146446340793  0.9113310451935872  0.0584134818079964
  0.1360609435294980  0.7411919294617121  0.7713685519003304
  0.3941513558318592  0.7523972262743154  0.6385399702233686
  0.3128276754823699  0.9189690810112654  0.9148017561049692
  0.0817634188310073  0.6011181869082979  0.6891912042937182
  0.0517748354748111  0.6504437676125312  0.7012558255145213
  0.0933016576330273  0.5888586717673625  0.7513863283923434
  0.3826908179750169  0.9335300586399035  0.0490012492267366
  0.8051989242518737  0.9376220421805893  0.4464617692589357
  0.3655950278631151  0.7244832848309328  0.8000230671914146
  0.3551381577622640  0.7366144059586521  0.7385458072245129
  0.6673374833054698  0.9795316185785139  0.2361678995055133
  0.7900687365701353  0.7060710301806191  0.4452865340298218
  0.7853457451931406  0.6571709914237184  0.4004334535509596
  0.3753634816852442  0.7136736934289460  0.4735665366889598
  0.4273419726632958  0.7175438529321493  0.8217716060543083
  0.6054680471558381  0.8891225766990192  0.9608562081473151
  0.3661999674021905  0.9583595407295977  0.9807668389650666
  0.4649376957344399  0.7675833281378552  0.8257599845324157
  0.7917377097688264  0.8141409311622145  0.2500998947693534
  0.4290762814611023  1.0166006428927949  0.9128986259657226
  0.9613485132644121  0.2383327530223498  0.9294249337737041
  0.7545221764013550  0.1013851138026065  0.6103584247584076
  0.4829085749603548  0.8747380491709036  0.8114261275272742
  0.7933750119100784  0.8478477817236575  0.1279406962218221
  0.8395883781827342  0.7350477866453082  0.2303298018546037
  0.6912064166885645  0.8122943099967288  0.4421985934762484
  0.4447796141492736  0.7853087713622559  0.0283667775806935
  0.8402352418837229  0.2245101696134937  0.7845959239738989
  0.6256471911012238  0.6649446273561742  0.0088429640872611
  0.8029722259665047  0.1755392521814319  0.7794604995235220
  0.2498628509745152  0.5619988854401520  0.1383434657327412
  0.8521728518685123  0.1799505125136654  0.7382447014295561
  0.2482974319475368  0.5456095836897301  0.1965513011736813
  0.8037869248970392  0.1419393027631747  0.6751530887184853
  0.3484490782374220  0.4537098453397529  0.1431730504586898
  0.6028158302464326  0.0429467892731612  0.4039824085905486
  0.5067764834470788  0.8489336726460750  0.9344662528142145
  0.8470055865201787  0.8616143956455425  0.1982341927394189
  0.5551084617771176  0.8540214384175097  0.8946798248943854
  0.2556526168085793  0.7627727695688444  0.9249042906008254
  0.4617060489985829  0.9306143090329695  0.7929108905212867
  0.2935969945263822  0.8132888425264181  0.9282355948555906
  0.4326345909559535  0.8362556026604910  0.7459959088916508
  0.7423313357567093  0.7837130781657524  0.4665289566621668
  0.3085719211657159  0.8037571900181244  0.9900596019647497
  0.8309052895964303  0.5793315877687001  0.3839145495180337
  0.7245040853681142  0.0395192959032408  0.6669974401906720
  0.8428488114557385  0.2575257616234449  0.8930468103491309
  0.5847892321982400  0.0092898523808831  0.5866680237586808
  0.9723479117323529  0.3495059776181865  0.9183898555734250
  0.3406064737606365  0.3455531828351867  0.1176676226630673
  0.0452017846091708  0.3004310576888835  0.8952213372414098
  0.7483438999263694  0.0181955532360774  0.7929835698052841
  0.7578305793378379  0.0063681073060887  0.8569461806065745
  0.3989394931573257  0.3463277356531893  0.0203574560761985
  0.8165051612317098 -0.0005935985381906  0.8775821981448608
  0.7838606528801469  0.3507563402195770  0.6876400230186469
  0.3471120091989116  0.4074449708697400  0.1004732927485431
  0.9341111730945543  0.5810369647460381  0.1918917982751036
  0.8574439308516052  0.3172546132763295  0.1939338375409310
  0.8348021968843132  0.5105277534764666  0.6799399129094882
  0.7430274136789099  0.7064227019816216  0.5422773269533708
  0.2234629977718236  0.8558808271952648  0.4503633830060171
  0.7240709793421221  0.0263453279523024  0.1836003604419210
  0.7485220160489653  0.0525708554265982  0.8987378280016720
  0.5787860537746653  0.1498547897102170  0.2098005213767372
  0.5108065666095604  0.7497716188522393  0.0611602656469010
  0.8916744061848261  0.6390233515367724  0.5004023283639235
  0.1852682279812424  0.7455323748071107  0.7321788155391138
  0.6622147217193899  0.1057982057456989  0.5198065058461122
  0.6942461793604003 -0.0034350151305916  0.6244969731081436
  0.9416209148809599  0.2126025505892359  0.9791247920730419
  0.6759079356962562  0.0384110023705493  0.7092178781150860
  0.5040240018461288  0.7179915421302601  0.0091924252012292
  0.3279180661313437  0.6744677258398259  0.7947252354849835
  0.8771133864533441  0.5014292912799839  0.3648767243317629
  0.9889542369856582  0.6112038722094917  0.2024767574390815
  0.0988364898670040  0.7318229513203612  0.2080687847937898
  0.8814731104815959  0.5465879624440424  0.4126132047375112
  0.2701293225357677  0.6458808155753668  0.4567583233751241
  0.9279644161028585  0.4878305904119343  0.3313422551935651
  0.5840942314841565  0.9494401980034819  0.9422110124602359
  0.9220163705349400  0.4257074006139093  0.3494315531033597
  0.4235661001486845  0.1614491846954195  0.4425027201133206
  0.5080554747466126  0.4844911844466587  0.6341747354101318
  0.5922919653963965  0.8712787095528175  0.7917193565362993
  0.2042713470989446  0.6839762148467720  0.1993052697288056
  0.6875830688808391  0.0253751140313301  0.7718519823715536
  0.9386499819260636  0.1722430764148433  0.9317529150933227
  0.6174021917527971  0.0451797489621593  0.0860144502956973
  0.8133764200114854  0.1964777802954749  0.9442735115202694
  0.0146074771056711  0.9319645101880016  0.2912696189503945
  0.7858149178920677  0.0680910733465379  0.7951486092238553
  0.1086452274485446  0.8401894344778648  0.2368065342801014
  0.2949194939899132  0.4217112089111695  0.1354270648317030
  0.8335860092622589  0.6605603559776982  0.0754853988854893
  0.8436441436008103  0.8152253825527189  0.1545540103843859
  0.1574065587409061  0.2642399219565248  0.7722613912260350
  0.2181268805134893  0.2579519153486211  0.7956611689152441
  0.4560178447597839  0.9680537166690191  0.2281155602574539
  0.1200678865224176  0.2155078005516449  0.7678126487688859
  0.5329749171020741  0.8754870748897582  0.2604011006073997
  0.1917489963812511  0.1602377106816952  0.7462930498577581
  0.8364330395467685  0.7215383164535781  0.0632327700727058
  0.2282387583512439  0.2461898650211988  0.8553045864961338
  0.0707946691168073  0.1770724285401569  0.6981800826847021
  1.0037234477931116  0.1927557713682508  0.1757280702286605
  0.8906210302379114  0.1175800378708594  0.2146639876232740
  0.9348566139744082  0.0835671416122336  0.6697179546999368
  0.9337998761411671  0.5694588735048102  0.0220340098597246
  0.0430730485475242  0.1151413709549482  0.7558423072689733
  0.8598790335832293  0.9667880100174226  0.4578962100743512
  0.8613708894997052  0.9818313567582048  0.3958879873014822
  0.9642355964889303  0.9037507086695170  0.5108402740030679
  0.1755196832609702  0.9813079536503891  0.5076242173225582
  0.1514287975610809  0.8143661718540129  0.6514018101144197
  0.1774445654253077  0.2394756391173379  0.9014687556683874
  0.2654985592048421  0.2953448394012467  0.8637003124724676
  0.2433192405173215  0.3083310152149074  0.9697011609295209
  0.2282945873342814  0.7025060648991093  0.9790832040998083
  0.4604684293834094  0.8984329939688246  0.6865417501348898
  0.8696787483648446  0.4078488077596210  0.2757773274575935
  0.9202596860046125  0.3948010999583645  0.2444285020900393
  0.9474269568101586  0.7187678441226711  0.3266317279414624
  0.9112498858777490  0.3327122360662327  0.2652249641052884
  0.9596919650620592  0.3034838347753348  0.2939211096644962
  0.9551001331074863  0.2570202226820913  0.2517182463399985
  0.8984219211517782  0.8125631766784224  0.2862095695377923
  0.0192894567277724  0.8526052418882666  0.6045241168723714
  0.5503591960016355  0.9835529961350044  0.7537176406349899
  0.5042697921539163  0.0480554824826378  0.7057846589365084
  0.7256532313639257  0.5970358344674620  0.2865923092141405
  0.1134000979070791  0.0965713120065110  0.8430438802610867
  0.0727173405795274  0.0469795693083384  0.8393173080333494
  0.0241031965817805  0.0474658957631550  0.5446829500642230
  0.0667615081341461  0.8337173655871588  0.5673827500451871
  0.0136548426195231  0.9094902711796815  0.6285799394957128
  0.9302222309617570  0.8179350863813770  0.6859378477630822
  0.2921202148445474  0.3371707405459432  0.9858386525001470
  0.1151577454319625  0.5323431319645390  0.7698487940644700
  0.8198040415069411  0.4552190280961642  0.1902507032753645
  0.8704764221474928  0.4259848050873597  0.2141566099621098
  0.1232416686759816  0.9506060413169022  0.4944253000787677
  0.7838586154077906  0.7208422106311402  0.1581932123097530
  0.2542683275725655  0.5918940739036029  0.6927045553449452
  0.9818965948956587  0.5041529153492084  0.4012152541581113
  0.3031556054944426  0.5967848778399880  0.6524604004090965
  0.2942590521456417  0.9951434770059515  0.1730331241680239
  0.6980709722904621  0.9191489790021601  0.4750072371180139
  0.1899312729112935  0.5510916104213324  0.5177390238559714
  0.3237519139634148  0.8746199322786810  0.8700711598143374
  0.4952946208749712  0.8750491516171950  1.0387767745538454
  0.0639389076533104  0.6390776976033236  0.7667576275697109
  0.8437213566101471  0.7486827023838153  0.3987205789603477
  0.1591787656861199  0.6505642974058016  0.6838766133554913
  0.0573787826830492  0.7296089364600611  0.5986693705101094
  0.5033801683325148  0.9673082035501068  0.1312581613230121
  0.4451174634943746  0.9369697982502684  0.1237976623643192
  0.2752272763868434  0.5673571945526369  0.8158998353730680
  0.4321970740419365  0.8936912212594751  0.0728972123509665
  0.3253405711483263  0.5723492550227086  0.7768981685635591
  0.2913086427977080  0.9406775883038344  0.7868354636144287
  0.2271390743160688  0.5287895740818773  0.7521817969904198
  0.7961978453747651  0.8148558734075777  0.4756739325221149
  0.9856560914278846  0.5352959836272209  0.5089178975381758
  0.6357840621513933  0.1952796496092452  0.1610426208656513
  0.0054488117700255  0.2082528661140686  0.1134535191820088
  0.4356694247395822  0.5693638438875824  0.7584187119447600
  0.8430471768236143  0.1638518681494663  0.1263383191519823
  0.9463535137036923  0.7833500859830769  0.0843636836995400
  0.8668388375047227  0.8727052693039323  0.0496020253684371
  0.8840413038160840  0.6272999765714036  0.1049866477192237
  0.1025240330384099  0.8428315820851621  0.7950674886368637
  0.0292671683229293  0.4432326714144228  0.7010214353648597
  0.7819920237669856  0.6592391037940636  0.1739483354243820
  0.3392624253704115  0.6641153567012243  0.8557821186910736
  0.9186711267455491  0.3634545764404763  0.1376762288531860
  0.0921772299347617  0.1520979642597328  0.8251691752816203
  0.1247038206321769  0.8820381861469493  0.5712340536741369
  0.8635942482028380  0.3622129713195207  0.2356426693692270
  0.5082786776824945  0.9783924808202458  0.3038880627901543
  0.1970431038265783  0.5633385827419112  0.5694353786393852
  0.1037897936262997  0.1078763619871570  0.7792598016342459
  0.7081179174337743  0.7826337774336262  0.0179032839733731
  0.1765925478325548  0.9687968293286912  0.5751553795167985
  0.9583136740503402  0.2717177191201636  0.1894856224280385
  0.6125436361551384  1.0015825651353600  0.0421301378853378
  0.6324359476863189  0.9537600806853980  0.9008460062930921
  0.7331748326637253  0.7055056166556205  0.3139630836541809
  0.4440762733298659  0.8932295217961768  0.0160557510142477
  0.3884051687631022  0.6685664800711147  0.8168303594753077
  0.0548453472999440  0.7288014575066123  0.5316933552206785
  0.0736295622078489  0.7151154341660759  0.6470370907906219
  0.9315524682806303  0.5337933021713033  0.1473908037458417
  0.4375599925852313  0.7053177414334555  0.8809567570550761
  0.8834990031207421  0.5479336657538879  0.7434341191579753
  0.9060957451390775  0.8009056757141054  0.5725855423049003
  0.6620491914148356  0.9521535444134023  0.1288832459323366
  0.4687618664400772  0.6245486199991885  0.4167355627928501
  0.7443269920330023  0.3334610480908428  0.7914259881040193
  0.6461433217388703  0.2907345719358685  0.7658493785102916
  0.2253839780695442  0.9042558686717376  0.4913899319505998
  0.6355708254779336  0.3030043247097137  0.7038750512395766
  0.5879449663701398  0.2652835851423970  0.6376206820986940
  0.8677680563206448  0.0752679885227185  0.4846200387549182
  0.6911686929513913  0.2743520635328054  0.5597058474101364
  0.5751579381785541  0.2772409616398713  0.5752624208574425
  0.5640111416821488  0.5077412933767601  0.4828673075354049
  0.8881610192347100  0.5588942248592738  0.9476718746033074
  0.6654557085755534  0.4556587027995692  0.4744261415475773
  0.9173647934831302  0.5110508767389697  0.9258861079317273
  0.8598067975698673  0.5178596641345897  0.9083604352213458
  0.8170983701097710  0.1058300172857075  0.4589934510010027
  0.6972040410080518  0.3329674724254842  0.4242148698875017
  0.9009007512636845  0.6909819118328697  0.5465046070527677
  0.9543017638328185  0.7573348395732014  0.7056875884846981
  0.7239434841558990  0.4892847034495032  0.5388849308466379
  0.6147500427581754  0.3339081182832283  0.5166374278170618
  0.9764231456771832  0.7719814766369784  0.9346198569902965
  0.8062874796245058  0.2943146132075892  0.7056409423161846
  0.8985461860679911  0.6377937998843648  0.8244957007686069
  0.5173967002629116  0.5930708514902564  0.4434506536464284
  0.3579546187505704  0.5792248350916914  0.3352839361372578
  0.5135657876958710  0.5492980966723082  0.3971634215274091
  0.8382342012867559  0.6097848119139553  0.6985649572459133
  0.2776912373171422  0.8854115162285832  0.4497087015699163
  0.8121107435098800  0.5660369761854666  0.6631771438392718
  0.5871012835603088  0.3192408151850414  0.4506185643151657
  0.6385452051245548  0.2566109959031356  0.3704015422233541
  0.9150584346476979  0.7112774366276872  0.7059601478030069
  0.6847881727695480  0.1792344192299647  0.3517777873089818
  0.8649181276069426  0.6751498707093919  0.6425403911604579
  0.9725660095274384  0.5716036911506974  0.6090820946035191
  0.8130360726574726  0.0299778135349847  0.3084182636855186
  0.7637848870120088  0.0910867760562155  0.3879437607714329
  0.7609564304356835  0.0452839231016948  0.3424970806595120
  0.6076828767079483  0.4414977380305545  0.4048238690497038
  0.6906506596643563  0.2721298695398249  0.4419328864386361
  0.7423129226584566  0.2568081859529714  0.4082330663504417
  0.7912894854428788  0.2253619779210518  0.4351140985040665
  0.3578343515079375  0.5941274311781832  0.2754458522119562
  0.9022392247424890  0.3702252464891384  0.8377286808830214
  0.4089699701266926  0.5641167572934833  0.3001096294225504
  0.8048013994530817  0.3261331116969009  0.8134868340679237
  0.5687217982849028  0.5658716708779168  0.4668597510792539
  0.8185176777899765  0.1675240573566890  0.4456039242843992
  0.8542463726239315  0.3316553872359325  0.7715837421482148
  0.8914586901280980  0.2424244276106680 -0.0012520770970296
  0.6113052174578251  0.8636899740140576  0.1258307044371819
  0.8530456374316326  0.3641592953616303  0.8786564188315537
  0.7214875258976005  0.2043395885103216  0.6335771844666616
  0.6516854903469804  0.2194354872246496  0.5513660102420059
  0.6695146844513400  0.1632466288388295  0.5668338563449774
  0.4506278092274261  0.4249621705183879  0.2996628861476748
  0.5452362376070318  0.3330205312735174  0.2520139461144522
  0.9892596873372727  0.4583337755249278  0.9051421431332496
  0.9291878837252042  0.4664462381756224  0.8831035946397892
  0.9787255159171453  0.4725676806894789  0.8453017482017554
  0.4896821796048823  0.3011576542072221  0.2425330676816299
  0.7306217714079785  0.1934090335036572  0.6968722777988120
  0.6602097493992062  0.2113753534604746  0.6123673003308916
  0.9112643646239234  0.3562424174291688  0.8992879924375975
  0.3163598986605788  0.6988402964738235  0.4029516635728994
  0.9973681261819953  0.4437682110302564  0.9673607153050781
  0.7725514352499278  0.3955325297870467  0.7338859562591226
  0.7891862254281036  0.1788620878433849  0.3900162305432108
  0.7243934786623369  0.3577595735461069  0.6668208951868553
  0.6031726772042197  0.3729392333094134  0.6246056609773896
  0.7140218255099340  0.3703258956209716  0.6034934106351884
  0.3891381479382535  0.9835552918780111  0.8165320082184678
  0.0769886958069645  0.2977529115731130  0.6280731367100564
  0.9166813432409516  0.0137174587568134  0.4029660499146210
  0.8747653545994123 -0.0416552595902899  0.9731784739655074
  0.9379321886670973  0.5705883790382456  0.8921292053388452
  0.8567091174219270  0.4845732696514033  0.8028574670642371
  0.2708068550504097  0.8154240450730263  0.4726730647930422
  0.3670106363529651  0.6859256969264754  0.3663855372836710
  0.8799503072169418  0.4277698588438534  0.8200685370451994
  0.6209528036599842  0.1948731654347198  0.7160653718338057
  0.2678422283408934  0.7912073287668587  0.3628537331753269
  0.5931584868558323  0.1015895232517161  0.6674357460742885
  0.6217775954893614  0.1605403115417449  0.6076174054698674
  0.2127303227577216  0.7622665583205860  0.3492658694195149
  0.6015122192016215  0.0554859361332318  0.6226047105220847
  0.5206509985680243  0.0776939700511324  0.5371110142086905
  0.6776556568567376  0.4446750806844199  0.5356682532194473
  0.7498526564057547  0.2674975940372891  0.5763169690164583
  0.6902833008268979  0.4274049213716045  0.5922774226405825
  0.7864116798940177  0.5050010035202902  0.7182191185953316
  0.9249563143762344  0.3136395565796094  0.8545435073089078
  0.3855504814305479  0.2681155399848237  0.1020782932852739
  0.8821952227457609  0.3946536231153353  0.7133989962562224
  0.9510134542151669  0.4307525308308020  0.5098979618299823
  0.2497051333563091  0.4645155718457621  0.0504547487793937
  0.3227448609995917  0.8558165632768036  0.4772035403227010
  0.3874711192953105  0.9987320785168916  0.0240924933803631
  0.9968555109655761  0.1910448998022793  0.9465176473250634
  0.8146011399989320  0.0893067724027345  0.5173502511507668
  0.8608142917391680  0.4193311346368138  0.5923449556744462
  0.9364632699122534  0.1022630405356328  0.9414808695942005
  0.9457698413862077  0.1020591334648907  0.8336906729535752
  0.9105714310748644  0.0508016803293493  0.8429454404487690
  0.4106593214604257  0.1573683055947800  0.0405765337820879
  0.4146244737805549  0.1116698059484700 -0.0010331429223652
  0.4372682187340927  0.0615606725920686  0.0213433888016040
  0.0000904731207291  0.8139357888887422  0.0965770429186720
  0.8518408556370660  0.0284286021321762  0.7123087033589949
  0.0978806060667776  0.7027037524885034  0.1016578314564561
  0.9610233534935081  0.2117231287316011  0.8255483179608292
  0.3455406363419310  0.2493764899513076  0.0206569660302067
  0.9723431328455699  0.1658502670911208  0.7790349825347371
  0.1678906360308193  0.7089688928755026  0.9539842273236517
  0.5353885559716858  0.2406056171040164  0.1658398488534765
  0.0209848523823775  0.5515619533955689  0.9535680415298786
  0.0687333479890432  0.9477323453677683  0.3612967234857214
  0.9555953393868584  0.4946331402781304  0.7231280235270213
  0.9173080358658033  0.4450694440421716  0.7178395501310488
  0.0587508555728816  0.8408185828400088  0.3351979347002905
  0.8714612606178767  0.4075791611491186  0.6507243239461180
  0.9911033769013690  0.4257706470540626  0.8010949725613992
  0.8113862577710214  0.4140919921500290  0.6307917525709406
  0.7432991085854334  0.3568897078948755  0.5008517945065581
  0.8631575719894981  0.0851777667573778  0.9329543366895824
  0.2123692197335416  0.7771271562506707  0.2896408201272763
  0.9140623021568230  0.5842651594289234  0.5790458705049903
  0.3036710740920903  0.5786920280517941  0.2054533251972131
  0.8499553446662627  0.4298696633343097  0.5288761870054842
  0.9483115742134482  0.6123091150576724  0.6782022714339206
  0.9300955810865361  0.5411929490004111  0.5411747430799702
  0.3962928350247931  0.4093154714087752  0.2312042994710546
  0.0041306838012936  0.7601614627097034  0.6622402181574479
  0.4453499515626780  0.3451030746601154  0.1524307230699291
  1.0024922756777046  0.7012744862134006  0.5178855733111866
  0.2553988441271648  0.6392521871237520  0.2865088959763946
  0.9341526784985279  0.1165321379711076  0.7748292321970620
  0.8629647982114053  0.1346396843434563  0.6948362604891738
  0.8252612896775424  0.0839547469882579  0.6941708851939081
  0.9421994295101598  0.3875544816389866  0.7342014082848705
  0.9646041547274010  0.3316375648297561  0.7520143251083176
  0.9049491366549246  0.3379702805008014  0.7297926812005762
  0.5027687949818886  0.0373750413544510  0.0514650015896893
  0.9159681745729991  0.2916400892351471  0.6861228391815816
  0.8180425700051680  0.2494981771201583  0.6602504791189086
  0.8463773026680246  0.3122817014510479  0.6031340211655057
  0.0505837120155714  0.7614054736555951  0.1841496741490954
  0.8372548812434942  0.1057355987476488  0.8603569844886919
  0.8724768691088552  0.1824209479123473  0.5178463090445191
  0.9356203578762753  0.1445242143571188  0.8810278864999702
  0.1921950904477404  0.4815518889091671  0.0861893373676053
  0.9443047577808307  0.3546882503542392  0.6256856935304274
  0.1502021167062256  0.6696060418130739  0.1278171903434051
  0.9334478104302339  0.3689358595499957  0.5628959604636731
  0.7818904999596564  0.3259364048657143  0.5188142825014980
  0.8601229618490928  0.2682968517608977  0.5593349616825033
  0.5734228885402147  0.1073793639064713  0.1669598509827804
  0.9300305069642519  0.4338557905651915  0.7788428693586920
  0.4848080052087663  0.3714504600470839  0.4659684560320293
  0.9794036518585230  0.4388818234249254  0.7410175254401640
  1.0013649445392225  0.4148995754215521  0.8605827774365452
  0.7099752670651827  0.1394219620571857  0.5277565997106817
  0.5664870824153974  0.0452048816000071  0.1843352738673778
  0.2059402968203875  0.4927587665008771  0.0321930983716130
  0.7492408810541843 -0.0014112855548641  0.5903606599742213
  0.1892686606696652  0.4330200261319800  0.0345137262606141
  0.2451130274726242  0.3607127370966628  0.0153468503273807
  0.9382296471185750  0.2359333623866909  0.7026664021072228
  0.6597204357213043  0.1214902415827185  0.4588913449579854
  0.7118578516783458  0.1060445644061913  0.4223656677422318
  0.8519884998575036  0.1462331898632686  0.6336594441173991
  0.9923315108369161  0.6888034518028815  0.1265887767387666
  0.7729068250908068  0.1670528393697412  0.5466384420479115
  0.1449563537610114  0.5634991295091287  0.1001676164350607
  0.4111685857581286  0.7820811469931044  0.1287089213236866
  0.4830299121692649  0.2214686703513250  0.0939428647404656
  0.8885595151145462  0.2306332319463743  0.7439073726012616
  0.4685078584836313  0.1913546008457285  0.0451278947156667
  0.9010688298201824  0.1858213778300314  0.6971429193012675
  0.5180991663828238  0.1480983903198585  0.0785694485542295
  0.7711422969394817  0.2096658446130617  0.5935539465957861
  0.4736424466124021  0.1590421943545373  0.1099746657059337
  0.7308115872042761  0.1562504201848434  0.5893445835544650
  0.5662810930565693  0.0775158928185969  0.0615131372185216
  0.7512981844569113  0.4197419793348727  0.6127665150467602
  0.8782757729644732  0.5179922537405534  0.3042318685862837
  0.5593230418173573  0.9068315884646725  0.6043934202310346
  0.5709423369860455  0.9267466344606969  0.7733160928237880
  0.8901818862805445  0.7536411310336804  0.0749555204069595
  0.8917347234551573  0.1317019979897456  0.1537868614511430
  0.1916011579832404  0.9318255787921128  0.8651898827321417
  0.3053202474824473  0.5057986556786658  0.5109000715420212
  0.7631930582358725  0.9186556691250511  0.0588119114378277
  0.9502523575041156  0.1768640606675550  0.1016533024890574
  0.3607764924675587  0.7511550770266792  0.1221056840097568
  0.1018311570209904  0.8778893910782581  0.8980016205982660
  0.9465022815965765  0.4787678087900105  0.5590713342936661
  0.4586725433540040  0.6760003635208724  1.0055338402728007
  0.3447436134247442  0.9940669295638948  0.0689016120244937
  0.4218081535187631  0.4295808177958045  0.6696204837817400
  0.3235395517981661  0.3848786442322704  0.6427499073392198
  0.9962621781043085  0.6755138108811004  0.1850494781586632
  0.0994291862850459  0.8391326467250858  1.0131813183040246
  0.0226815580524047  0.6239237983375214  0.8728398631530740
  0.9084610371883115  0.9367397445188066  0.2552489093712030
  0.1200151551989477  0.1816929158241723  0.6615354909017432
  0.9018980007521491  0.8746178587261885  0.2691127945834210
  0.1842842840505987  0.7121221805182544  1.0155640721695975
  0.0867514183852452  0.7709752836500431  0.9122511174717118
  0.1707732417391727  0.3886104862711850  0.5227964194813614
  0.3859163536238631  0.5321234162337538  0.6932603286097239
  0.5758700640017662  0.7698203843301284  0.1307080074559299
  0.8362799396987176  0.1324794398723269  0.0187195035702491
  0.1681676650308504  0.3512809280862291  0.5941628628837303
  0.3523839959086956  0.6024483517200047  0.6115911314720635
  0.3296404296228552  0.9503024100570876  0.0228832479554214
  0.8705341257605671  0.9202341050067416  0.0962370590504061
  0.2837747325424537  0.3689561559539097  0.7442963875575209
  0.2396707632311742  0.9712264034209650  0.9335885985897906
  0.3326533206781377  0.9173384363796042  0.1486156545568621
  0.7694121765922061  0.9826004688887024  0.0434593737673077
  0.3366628100866875  0.3416412880521357  0.5958770540002517
  0.3966739242262967  0.5536062274700788  0.8587722768368838
  0.1389223306952335  0.8141834269312042  0.9767480653060989
  0.9878369056312279  0.0579744948056992  0.0386399653248422
  0.4578003530940627  0.5454825244085471  0.8828047767999967
  0.0371000778420940  0.2789694078499990  0.7291115934485819
  0.1808266028371079  0.3916355214302626  0.9296802092789548
  0.2751142717894603  0.4407510776447681  0.9505442140797871
  0.1974927452442861  0.3357812671056704  0.9495626754107482
  0.1337942886831543  0.3538118983243944  0.8619965044646135
  0.8254074485880429  0.4875029916829383  0.0688527741803439
  0.7744346563756525  0.5187746962173171  0.0418862750863937
  0.8741550572757951  0.4558819007590378  0.0919061800860119
  0.1459056045599812  0.3100211643090341  0.8186997214986451
  0.9736917720277328  0.8875158294289551  0.0247008989942835
  0.3710964441737055  0.9726012111855609  0.5813338210890788
  0.0224254856854186  0.1405107820717432  0.6294728487304242