B  Cr Ni
 1.0000000000000000
    38.7315947344316172    0.0000000000000000    0.0000000000000000
     0.0000000000000000   38.7315947344316172    0.0000000000000000
     0.0000000000000000    0.0000000000000000   38.7315947344316172
 B   Cr  Ni 
  50 1596 3725
Direct
 -0.0072220227034613  0.6283193550492920  0.7089367487908371
  0.0149494942771937  0.3081008167346660  0.6172351994049973
  0.2853021478282093  0.2001490151067369  0.5466005235615399
  0.6752379232509578  0.8981978341061227  0.6559549320825191
  1.0134583646367736  0.8630177536110925  0.6596213962627234
  0.4779377355572695  0.7826104007505010  0.4867723069415584
  0.0994634218779550  0.6551660165014759  0.4979854677053657
  0.2009961205071351  0.6672797951207459  0.4730322390052668
  0.2082006337929850  0.8311011588729285  0.5550842668244549
  1.0122278110731506  0.6346800622978612  0.8075013324002555
  0.4238411473820376  0.8914069621623811  0.3315492199780757
  0.3612031488707131  0.2433538181194062  0.5205882544292062
  0.5997198547803870  0.4195492747819915  0.5214413387111140
  0.3981349503113212  0.3263862677386165  0.3617632612800639
  0.9742317257537748  0.7169415683295490  0.6781590095555697
  0.4199656428986422  0.3152930903388172  0.4910850898814567
  0.9257742777600134  0.4071399845956927  0.4641590434436684
  0.4995107188200105 -0.0689378185361313  0.3423236629863968
  0.3704423422858676  0.3069109459335674  0.3911462235777257
  0.1842104816290663  0.8742712886227957  0.9702723644411800
  0.4312462339357138  0.9524954344250229  0.3897270114431401
  0.5623273321703662  0.1006776374985869  0.1477817601537394
  0.2260147514758337 -0.0004364127160981 -0.0117929959159701
  0.5840924979893862  0.1087073140795982  0.1853796516304426
 -0.0186354939755666  0.5282964433408622  0.5703887200693926
 -0.0082124444616544  0.5839808256998436  0.6997766454788703
  1.0279910460036947  0.8987723557141946  0.5783403774561140
  0.6955553744158577  0.8353633359204555  0.6062193735792387
  0.3240234454152854 -0.0218645993036223  0.4085725925965811
  0.3131387120240555  0.4203573865176517  0.5294058015274908
  0.2779750460338888  0.9322476020040150  0.4914347199100207
  0.0542087150540659  0.7738933471946527  0.5650426911797606
  0.0962145913458340  0.1453360466471844  0.9484465131675640
  0.6268145113503840  0.1251128406795263  0.0168615799752082
  0.2165093836351490  0.1531531670300770  0.4334294161000940
  0.1519636811316019 -0.0332461756987095  0.6311441136321815
  1.0473990392831773  0.6440318977226854  0.2137798792713905
  0.2163546254996209  0.9876262080718808  0.5891424535394856
  0.5596294103167514  0.4088531558534576  0.4483107958132738
  0.2053692820461095  0.7548394211828287  0.5823407260260155
  0.3269477813875398  0.0957683044609426  0.4728270549762705
  1.0064185571439763  0.9389611793509931  0.5841076843130620
  0.0514606972776677  0.7338351796156232  0.5901763938609278
  0.0399988430944671  0.0282478207070310  0.9309433416536100
  0.2207343992449742  0.1894523316348792  0.5970917128423611
  0.8406648842448063  0.0926433100222813  0.9879273986040320
  0.3690940944873181  1.0243087964711919  0.8889681197849052
  0.9710535974508024  1.0498371675644906  0.8453238906447319
  0.4717661171140907  0.1095852473568993  0.0031794871500588
  0.9094833093889120 -0.0093941165696646  0.8541730332398035
  0.1730045772496825  0.9115625644566435  0.0570306420602300
  0.1369238216116079  0.7411975173083538  0.7714576024166911
  0.3959813992303381  0.7523182047766309  0.6368631010209539
  0.9976524358223776  0.1477601674064956  0.1310475221375091
  0.0800505454254237  0.6022437145090264  0.6884453289690807
  0.0454112554659127  0.6536646594472075  0.7021870551836288
  0.0919397957303280  0.5892312643159024  0.7506994358126819
  0.8371416637607528  0.7048595662697977  0.1239560398929719
  0.9033410464915850  0.8889701516543885  0.2100994884867645
  0.6678122949162824  0.9798716950441622  0.2377935435455371
  0.7896063122530380  0.7039477765568823  0.4461894618935824
  0.7849789893908524  0.6560806818309881  0.4016191850690257
  0.3715711356710616  0.7158667594248944  0.4720807793553723
  0.4276855972573205  0.7170223232652060  0.8218438874167484
  0.6062266635971766  0.8895067217611852  0.9634184975642444
  0.3663061058908170  0.9574411667969156  0.9805474436819358
  0.4659484167641024  0.7674032123178911  0.8254496058960582
  0.3661900067925999  0.7242117738560341  0.8002744838187682
  0.3558901661942492  0.7358797281797038  0.7379563409948700
  0.9074770507132716  0.9345808599433780  0.2552201396223350
  0.0201017921207280  0.6235295218431778  0.8649638605872768
  0.9589269825914097  0.2381573714034300  0.9294986825574610
  0.2835623570216597  0.3685453430283956  0.7442947867982549
  0.4935263116264370  0.8291873528400642  0.7653739922726169
  0.1192336052873891  0.1817855351178825  0.6612498211071390
  0.9013750516784562  0.8726014270915994  0.2703035683234670
  0.1856863015841076  0.7140968091871802  1.0156212517858563
  0.0873147091477535  0.7712020949460866  0.9116120250446282
  0.1690182244122250  0.3845321200104692  0.5217087303525785
  0.3868561559152995  0.5321675049504471  0.6938065871155801
  0.5762567861864479  0.7701138240542611  0.1310460902935587
  0.8353656563364142  0.1375084198880760  0.0218263751190696
  0.1673575116239185  0.3502756156007455  0.5935356502141975
  0.3536976338687270  0.6027881256445414  0.6121175975194886
  0.3232634835943676  0.9527935846179506  0.0198865695997283
  0.8697461667998522  0.9198859609841282  0.0969347465281088
  0.6037678718293271  0.0430777243278971  0.4051890298615519
  0.5076516635421555  0.8494290748302387  0.9332955925311719
  0.8469645427115192  0.8604608560226699  0.2002331282152221
  0.5555361835987109  0.8545419454936545  0.8937569666209089
  0.2579995318530589  0.7605703491216245  0.9275328943429552
  0.4624725255125892  0.9309791366474055  0.7914154377847233
  0.2956467929402380  0.8113346934644503  0.9294330595593642
  0.4343816812468717  0.8361713373268979  0.7449576404667902
  0.7412265643577567  0.7828488748732878  0.4668121384836042
  0.3123565345534952  0.7989200141027423  0.9922820092261397
  0.8302909127302291  0.5791860086470605  0.3852521968375874
  0.7853441581377184  0.0693501653367185  0.7934384506092527
  0.3326633403940177  0.9179983497309987  0.1470097223006958
  0.3957344651094964  0.5530239776039901  0.8586447677574708
  0.1401074577652228  0.8159668883844345  0.9751939265208713
  0.4566067535546238  0.5447563195240031  0.8824169776726399
  0.0366342621437896  0.2786929947795172  0.7296310864968557
  0.1797806849900624  0.3911768777530749  0.9293426380406382
  0.2730964986406378  0.4382176900671402  0.9488885047844412
  0.1964391960146069  0.3356859965676449  0.9490080729847729
  0.1331751612588266  0.3542112572571733  0.8613987278411734
  0.8253824840432551  0.4872965059527934  0.0696758717537318
  0.7739848380282028  0.5182717810091236  0.0427712017572304
  0.8739772865848554  0.4553481604900645  0.0927549966896428
  0.1453952170777755  0.3097817828334004  0.8183859772482507
  0.9733419791705820  0.8867421065712805  0.0267176904466488
  0.3683462964212183  0.9737544327950034  0.5786774507438881
  0.0217044984426773  0.1396958049116309  0.6295066137561822
  0.2878776651691846  0.8562631898617760  0.9711147635598089
  0.9921867634378101  0.7043424540822462  0.0645776200256872
  0.3663817045353956  0.4878182943984560  0.9200597309228207
  0.2589371137565211  0.7150628478034933  0.2087370631040636
  0.8176431999367394  0.7022192610571761  0.7883477478493127
  0.8389703872772877  0.4098224387244516  0.9232900509770158
  0.8255504280786744  0.9693420567629156  0.0079194567304285
  0.1084342770616551  0.8397051515995438  0.2362362438010246
  0.6755448473144158  0.0391597096215150  0.7075997043675970
  0.0138203637286023  0.9304221532037880  0.2901783729763682
  0.7231301762571528  0.0415398912809534  0.6663130322312607
  0.7002341484769784 -0.0027874014087745  0.6268731745058510
  0.9398260041963358  0.2120923353840090  0.9799103407182103
  0.5066037311807031  0.7188603798802795  0.0092569287019374
  0.3285383589205603  0.6731176850357756  0.7955831482177247
  0.8766787746585142  0.5023719379680863  0.3653762977080604
  0.9900151019842111  0.6109211709284246  0.2033456487038854
  0.1011892038279812  0.7318382274718261  0.2078688884083843
  0.8804874534100794  0.5481476256578557  0.4124923708187592
  0.2598807562966244  0.6521757554439874  0.4586177448350895
  0.9281169757724125  0.4884699896987356  0.3319461926585404
  0.5846953178843429  0.9497729787170214  0.9421406445466128
  0.9220958385553381  0.4266271495622604  0.3499231842886817
  0.4228610944115665  0.1601760041080865  0.4418662487222219
  0.5082804099272911  0.4852622349541881  0.6344007896959494
  0.5925506310696098  0.8717636148828340  0.7912261389342123
  0.2040379328014153  0.6839802667523822  0.1991484929223882
  0.6870805919715811  0.0262972916997638  0.7706581657599580
  0.9371013985691016  0.1727237473698786  0.9323230992921661
  0.6179809298394383  0.0448226590154272  0.0863183401790200
  0.8126414198051032  0.1962119136337729  0.9450514562513112
  0.2411911196479674  0.9709112704218337  0.9361489248197604
  0.8692606547586537  0.4083944399454033  0.2765767868524935
  0.0269182965437092  0.4755547749498120  0.8050510981555455
  0.1570151073657341  0.2638362917233104  0.7715755240362192
  0.2180706432703920  0.2575231552883649  0.7948097286534723
  0.4565621761639913  0.9688503702211975  0.2272043758490659
  0.1199104034450338  0.2152546380604904  0.7670668987912348
  0.5316462300650386  0.8761008865349440  0.2610147854710302
  0.1918674970363600  0.1596824710859344  0.7453889250641204
  0.8367028325840850  0.7199610114712942  0.0642677731323594
  0.2282027152999642  0.2460213852901512  0.8543982652297891
  0.0702606644072399  0.1767767767770994  0.6980858511014685
  1.0028903290306188  0.1935023819396965  0.1764952379904962
  0.9404161708308956  0.0864080567599895  0.2437890133812517
  0.9347496457886028  0.0828385744847271  0.6688438223946145
  0.9354725264463023  0.5649129180961929  0.0265499466203058
  0.0429356109602891  0.1149754214834453  0.7556983036179306
  0.8593809729028128  0.9646864018062058  0.4596945396791796
  0.8607076115675850  0.9798686564606892  0.3966953670410128
  0.9611684724708202  0.9025637869428192  0.5118648518457249
  0.1762037289597476  0.9836572646152222  0.5050245758418440
  0.1431271825521803  0.8587547010313828  0.6935077896410626
  0.1781073431143238  0.2399084317598684  0.8989316131520569
  0.2652283222055613  0.2950285042814184  0.8632951692127353
  0.2415617249426869  0.3078413695025923  0.9690938122653899
  0.2306760477548280  0.7053170805678024  0.9789208449999971
  0.4617789418678788  0.8984825683937637  0.6843437905533990
  0.8598927140018781  0.0829426873498141  0.9347177934045361
  0.9200148581284774  0.3947849579720221  0.2453811995886270
  0.9470404875275706  0.7179168462660321  0.3284014903158757
  0.9114126139976612  0.3328520739678211  0.2658904729302705
  0.9595326221562023  0.3041159918972592  0.2944240846112852
  0.9549782786909004  0.2564372425116850  0.2520683969474272
  0.8982709501118231  0.8110110756647865  0.2875282038698483
  0.0874917816524588  0.8209309204652843  0.6309550336468752
  0.5510274457845961  0.9840606447366808  0.7523398158451635
  0.5051037680336438  0.0484970593949668  0.7051860934381132
  0.7251513375491208  0.5964076652956616  0.2877379923909834
  0.1140566485794522  0.0962963138084604  0.8422694337496941
  0.0740668388262296  0.0468930512849733  0.8381268491771756
  0.0229339499434382  0.0460585181124102  0.5437488140070696
  0.0682766070671247  0.8290781779517908  0.5703505465836074
  0.0129801371471296  0.9108473746476701  0.6296794104405330
  0.9295229758917783  0.8202558779426679  0.6874092579201764
  0.2902815405957163  0.3377293252391717  0.9850285768182004
  0.1141065170677750  0.5326398636141682  0.7683611260252395
  0.8191879861465656  0.4550319697022587  0.1909283256339513
  0.8697495791428739  0.4259924513514267  0.2151563725932157
  0.1220191541864415  0.9510635986065762  0.4928547939602543
  0.7841726309248527  0.7197692906811558  0.1591153982510288
  0.2539548492677537  0.5905928223912376  0.6929904641458181
 -0.0001821312897096  0.7954471451906769  0.1566384784580303
  0.3035981600133249  0.5959071836056274  0.6539179823183062
  0.5578734836708069  0.8868889882787638  0.0010653911297884
  0.6967834998756404  0.9180275876887016  0.4753570160789408
  0.1903992822518900  0.5464004074310349  0.5192313807039555
  0.3249693118173333  0.8729384244687696  0.8685007747861596
  0.4972464580643528  0.8763776723852608  1.0384331995888010
  0.0607887257332188  0.6404650755839143  0.7665556830967732
  0.8433299269624696  0.7467509910940204  0.4009429884917670
  0.1477115308955098  0.6592134037333873  0.6212425776140985
  0.1351494920944672  0.6667925968669469  0.5495713252904825
  0.5038247512140545  0.9674654133311992  0.1311555101792710
  0.4447143559126658  0.9368250363417884  0.1219205401605545
  0.2743401733529088  0.5665201675358469  0.8156121608848160
  0.4314714723203764  0.8939399861575358  0.0711237785903136
  0.3250245962319862  0.5715715993970392  0.7770272799058050
  0.2928737573499345  0.9404548271263160  0.7859671134921110
  0.2269271501983759  0.5283914878630636  0.7521699821260691
  0.7951014178276901  0.8155415484603331  0.4755569258274017
  0.9814488318301073  0.5388783624962223  0.5116884685224423
  0.6350273061971994  0.1947162364304499  0.1611497063126967
  0.6291281785553747  0.8026351483031505  0.1380704797464645
  0.1530178137133927  0.2272830462898233  0.9909741495769582
  0.6273046087910846  0.7394763633496482  0.1559990394203251
  0.7306157761490867  0.6901904107274330  0.1480267882585640
  0.6804878813906040  0.7059147181136769  0.1835185211354449
  0.4265684450828540  0.3955833066284883  0.5656396095385628
  0.3562836739208377  0.8049707126317064  0.9493211297013455
  0.6615356850312881  0.8903827930140742  0.1459444176091618
  0.2166819800079362  0.6266867555886672  0.5092820075424230
  0.9838330743401654  0.5336988505297018  0.2809713742993159
  0.4163594094819008  0.6563223938060612  0.3899722702507319
  0.9146769953972755  0.8128206210099842  0.9663148036741629
  0.3067037200077322  0.6402895126293654  0.1888072761501444
  0.5640404849026354  0.5500593804926543  0.3011576196312161
  0.5444852225104397  0.5762832700129632  0.9467498696109864
  0.6034504723866950  0.5719138186988242  0.9663223416259260
  0.7203731444903414  0.5189187155282362  0.3647875172477180
  0.6658737460643452  0.5038558348482722  0.2929630197317477
  0.5172443685301168  0.5036748648670282  0.7976125467273755
  0.7125153214532335  0.4254678640889994  0.2767816645107839
  0.7632089492516653  0.4092257757555060  0.2432561825931686
  0.4087362869246589  0.4739182687807856  0.7134318451939284
  0.7605371481386813  0.3939738168060654  0.3054070644262518
  0.4218901580316046  0.4303036371992715  0.6704496374721803
  0.3236097046646096  0.3843821119128050  0.6433516645036064
  0.3360175830615618  0.3414987328923332  0.5958090242819158
  0.2775790905948154  0.3424763674363321  0.5736163551363536
  0.8947608373356304  0.1775591268390724  0.1989621797686630
  0.5315756111732758  0.4259696235969043  0.6497803908712125
  0.8850340570455931  0.5493619202396862  0.7448718520411972
  0.9835045455412873  0.4887520405157134  0.4707398512832903
  0.6328828473785006  0.9544420095960705  0.9004192552426168
  0.8535297600234053  0.3322268597109799  0.7735777614651749
  0.7433207179776730  0.3340928555125574  0.7918524457198666
  0.6963397047049517  0.2962484153732491  0.7260280325832150
  0.2255292537164156  0.9074901250971065  0.4933581606389168
  0.6351144041041050  0.3043910256832898  0.7040650585515039
  0.5867171137479043  0.2665633119251521  0.6379373324326914
  0.8696900553345877  0.0757407845545605  0.4831554537348329
  0.6906058337517438  0.2794557699998431  0.5599137671711112
  0.5763832347916175  0.2796680170154998  0.5759466704450239
  0.5636985278929012  0.5060961886335124  0.4824877336486693
  0.8809411691161008  0.5621388147786812  0.9470557448877661
  0.6660459223112452  0.4525829072621450  0.4751007435002247
  0.9161349791298192  0.5127718268938334  0.9271625320503546
  0.8580952877181228  0.5194602367312193  0.9078920326422332
  0.8201585936699936  0.1088116941589695  0.4618099782365556
  0.6946886157725629  0.3362300906826023  0.4257501801474222
  0.9035302077660557  0.6900104664677338  0.5481009657561545
  0.9516752163066586  0.7617966894012308  0.7052040911824312
  0.7400362854833020  0.4345156558615457  0.5565234792863601
  0.6115629467544056  0.3361204002093808  0.5162342940078377
  0.9759068993929330  0.7725278505557422  0.9330098798532700
  0.4662354782472809  0.6253714832633923  0.4153006588346550
  0.8251806383575423  0.1736483022658368  0.4467659613659520
  0.5145306444896991  0.5927718650715159  0.4436525296007364
  0.3571920718623103  0.5793667571231410  0.3357704294452846
  0.5126171988770102  0.5498424540804839  0.3973677181600130
  0.8398626138396682  0.6117447602076463  0.7007827833853050
  0.2738038616009854  0.8869714972254742  0.4534401693330240
  0.8131833492396136  0.5683265678024771  0.6652403941573251
  0.5840238301011098  0.3203203784356493  0.4505451284078360
  0.6381619082320308  0.2570999853739354  0.3715252466070174
  0.9191528556429377  0.7139147245318396  0.7047018047303993
  0.6851055063226167  0.1792320822575690  0.3536329999420484
  0.8659362264354107  0.6772254563205284  0.6448782646196303
  0.9436240357791584  0.6250645214637679  0.6253663210628581
  0.8131566136490770  0.0298764236873509  0.3099236096834083
  0.7651464309202406  0.0925806171495585  0.3910860464488493
  0.7611988523769473  0.0456763688846069  0.3445280118261177
  0.6077752410539847  0.4423687911592175  0.4045869555502160
  0.6875564871710829  0.2720839470837518  0.4429937671111516
  0.7417991960985040  0.2575730716040734  0.4082461704665917
  0.7908816941590653  0.2271277555422243  0.4371602032902005
  0.3569269004028677  0.5944599240989922  0.2755446465836289
  0.9017513836236807  0.3705652692816503  0.8395497104719829
  0.4074991966246620  0.5638747606957244  0.3001782581363713
  0.8044085555568959  0.3268093189718820  0.8145570505764996
  0.5662419500634985  0.5648090708947840  0.4664662018836583
  0.8057992739663984  0.2958812422790948  0.7064388384098436
  0.9620306404256369  0.6317115368333424  0.8450246004508678
  0.9577693674477558  0.2704006565524363  0.1910332251768790
  0.7089063297329841  0.7828561650434993  0.0182873697403683
  0.8518263751055576  0.3649518266684389  0.8802406255464347
  0.7206648523462776  0.2063640807588983  0.6331472497843184
  0.6509495243934960  0.2223411591561036  0.5520127393771500
  0.6690936641220426  0.1660954492301785  0.5667147602033097
  0.4499001049263050  0.4245989222113791  0.2991291493559279
  0.5448208118301661  0.3329820891859464  0.2514162740948085
  0.9878866319703526  0.4600247963907474  0.9059309194048094
  0.9282594300146305  0.4671639033213129  0.8842703410247530
  0.9780009569894753  0.4725903019731688  0.8453933807568939
  0.4895429108579758  0.3011907012030557  0.2424260104035977
  0.7297406479436168  0.1950003490534673  0.6965697361050195
  0.6596868906248996  0.2135302523433664  0.6126313950504646
  0.9111373239494160  0.3570553971521495  0.9004216930877142
  0.3150342734313119  0.7000707453001175  0.4006883935382572
  0.9944420224311942  0.4436087040483082  0.9672728434023999
  0.7721390064804712  0.3970981090218436  0.7350987086680290
  0.7898164496256909  0.1801236680800627  0.3919213577508907
  0.7226970922572656  0.3597812967685392  0.6660536912792604
  0.6646709536473485  0.3671801376857224  0.6447908252237599
  0.7155886008597141  0.3740995536414700  0.6019882198798563
  0.1040932523180817  0.1075321104989315  0.7786713129657784
  0.1681494209458685  0.9685693739589905  0.5755963121519426
  0.9156764270544689  0.0106219283521183  0.4018602270834727
  0.8732855732336893 -0.0460751966678025  0.9737303034998041
  0.9299456695415036  0.5692344454543630  0.9034156204727560
  0.8567540649422448  0.4854421157849791  0.8040434033166665
  0.2738248464447327  0.8224673460496299  0.4737857629238931
  0.3662760288255552  0.6867764812746596  0.3653181333624657
  0.8795474750106879  0.4283886799201622  0.8216168537720031
  0.6706526256854074  0.2026286695748783  0.6739224869180594
  0.2671979808101083  0.7932752185545894  0.3613990494435670
  0.6323699803191092  0.1522892491679894  0.6703575326605365
  0.6211065447634317  0.1633001066120095  0.6084418901507875
  0.2121973701939440  0.7626539241397577  0.3493608087758364
  0.6240759623546129  0.1139661961326102  0.5644263846337110
  0.5192313368063209  0.0790513959408812  0.5364426376668949
  0.6817791288928263  0.4446782470340453  0.5299278585281331
  0.7495011577505339  0.2709065930448687  0.5759243410646264
  0.6903674749323064  0.4302461867283163  0.5900252477467727
  0.7869118237449448  0.5061730245640923  0.7207016137763069
  0.9247689598181141  0.3134550016574197  0.8560684828351962
  0.3847889298601386  0.2682856450930748  0.1013313722389650
  0.8821116772017686  0.3957711222653602  0.7161509563303970
  0.9368210760468433  0.4441411152075241  0.5100174459385289
  0.2472841979538336  0.4649746776189027  0.0493556100568101
  0.3260131800463019  0.8550643057514230  0.4754833735550890
  0.6156709999242512  0.9945089355202267  0.0413295512337443
  0.9963267803806954  0.1921542170306811  0.9457496314505800
  0.7649937378958074  0.1721371406165272  0.5452884176698529
  0.8729659962097200  0.1879423483259910  0.5193929508946009
  0.9349325924330550  0.1032933002312880  0.9426679279104281
  0.9457125124569954  0.1013061128963930  0.8359360674995334
  0.9116794372661818  0.0506769449184258  0.8462499114221649
  0.4084656495976355  0.1587521959324894  0.0388293153142274
  0.4139513988119460  0.1125018892627100 -0.0022763923215136
  0.4386500616820256  0.0628743832283580  0.0193654304084111
 -0.0004555591521284  0.8124286145305775  0.0968194318753777
  0.8511674331903856  0.0285099890174809  0.7083646286357351
  0.0977298213196670  0.7020637318120287  0.1005786637338121
  0.9604052158124965  0.2115525311782372  0.8258475965605006
  0.3441189521662638  0.2500750367273846  0.0192409272117421
  0.9721818922646844  0.1658572472161354  0.7797871365392870
  0.1676857635104953  0.7116947900942270  0.9525149904788900
  0.5351388473673139  0.2398867794312203  0.1659620738684561
  0.0310173591077267  0.5495074300360765  0.9577051748482821
  0.0681470243050575  0.9470785370151033  0.3607360020424760
  0.9552696941520979  0.4939187224473964  0.7230860211176199
  0.9169494779847533  0.4458632161648258  0.7191027752724731
  0.1135154173516928  0.8701512908449850  0.3435442268431658
  0.8708573737384465  0.4088418906709119  0.6556180331030239
  0.8609204353902428  0.4216408780655499  0.5976048517631165
  0.8363682263872237  0.1068518097777024  0.8592285933149124
  0.7337465426251568  0.3514491735437532  0.4981406894011318
  0.9101582426473217  0.8002395065459630  0.5759495477988658
  0.8340285884639715  0.6593064947714171  0.0759986583656612
  0.9100173905501826  0.5876073203661667  0.5806829873666556
  0.3031887445167348  0.5790631723636760  0.2063042722887425
  0.8528913481941497  0.4376974066992159  0.5378637825116642
  0.9477187648189218  0.6110171299059545  0.6808033646602014
  0.9655714808602041  0.5764018379546600  0.5987049023315638
  0.3959132566945690  0.4096206738189855  0.2307295349235902
  0.0296889257071478  0.7107999884229720  0.6847741479239787
  0.4448461503060162  0.3453383094724936  0.1520226532041425
  1.0049746629634204  0.6988965894714890  0.5192866606914404
  0.2548642910901502  0.6396643227766281  0.2869034527277922
  0.9341701974267677  0.1166484202712589  0.7751889166313737
  0.8629836997288447  0.1343901559492582  0.6937658199277131
  0.8245636357879916  0.0859078966911348  0.6925223038989721
  0.9420154177842271  0.3873945617310091  0.7358730179915423
  0.9641083599841552  0.3312550678790848  0.7532792881230176
  0.9050993999945076  0.3382633689872315  0.7322502747781789
  0.5095307995813461  0.0318482745263056  0.0488288818064044
  0.9156819470839425  0.2924522960692338  0.6889094061587453
  0.8174597610026479  0.2516045249329262  0.6609554975564678
  0.8460531650538109  0.3134365652877264  0.6045956837534949
  0.2121373159762379  0.7772972487596740  0.2892317692900200
  0.9904256558369995  0.4257878321526965  0.8013488567610412
  0.8115526927768217  0.4158888923838354  0.6344073568977283
  0.1921208533595725  0.4820888999379758  0.0853471183176053
  0.8132425322038593  0.0882309645239030  0.5156227315908470
  0.9444343142840772  0.3554232378163464  0.6262653453340724
  0.1505564617895346  0.6694668557807211  0.1273486815598877
  0.9366197317076165  0.3690747724177555  0.5655320142261466
  0.8411455518293757  0.3277836695021965  0.5444763088141223
  0.8644584381016083  0.2656087961938386  0.5489186111779863
  0.5779708110831575  0.1580444505621124  0.1523244348565599
  0.9295129571088445  0.4341105194279903  0.7800224355617487
  0.4804389664901033  0.3678541584908132  0.4610367193995999
  0.9789733573150964  0.4381466802887332  0.7409065658299691
  1.0004960960294007  0.4153826828228213  0.8613793055827704
  0.7112755319463382  0.1406467970075831  0.5295560516416943
  0.5676741528746134  0.0527716297159550  0.1807022556537501
  0.2027908925529144  0.4965833695555000  0.0307783190029066
  0.7556823508197663  0.0375015694826239  0.5698794456635903
  0.1906231200068505  0.4342215016944114  0.0338040219578226
  0.2440657316083509  0.3598279358013427  0.0159539046819568
  0.9374259605017624  0.2356378370695015  0.7045856730830368
  0.6616201401834525  0.1217557571535130  0.4604486214135308
  0.7142294768567694  0.1071625607646525  0.4247380089729929
  0.8523381392352243  0.1480885565833940  0.6347308254342963
  0.9345096788511903  0.1448404397826958  0.8821372999792750
  0.0467553399577731  0.6716221230289231  0.0926852566469616
  0.1446229873344735  0.5632850377595704  0.1006232656046559
  0.4120460739101185  0.7829886766457660  0.1278793575673366
  0.4822018900338556  0.2236169105342511  0.0928034948570326
  0.8876794581968184  0.2309146359407594  0.7452752503801541
  0.4673470785633394  0.1918375900235474  0.0441052613131473
  0.9002361449909033  0.1853731742708561  0.6982451078219157
  0.5150512268675411  0.1416862599070089  0.0786439959697107
  0.7699567176139190  0.2127856301318728  0.5938201112321094
  0.4724398981501543  0.1640766341502561  0.1094673504082603
  0.7303972619041224  0.1581983753061019  0.5889701137068425
  0.5620289620049704  0.0764235424679171  0.0572220483983616
  0.7518915086118908  0.4227162093247062  0.6123771269222086
  0.8777583247081608  0.5182910646632132  0.3051001917303450
  0.5634074427050333  0.9086303898418118  0.6009258216378890
  0.5717933434015000  0.9276695206856040  0.7722673501996025
  0.8908946974823706  0.7521139130334331  0.0759186203134746
  0.8904956658520126  0.1313342990946708  0.1549047027461302
  0.1923568572629794  0.9306344551941655  0.8666866594141641
  0.3024783023657132  0.5011225681772710  0.5116073187529181
  0.7641442939137677  0.9193185011070676  0.0595370013613102
  0.9500962828925522  0.1765834578614469  0.1035305245384495
  0.3613489866555231  0.7519710765932720  0.1195257300782988
  0.1024689221270787  0.8781255698195817  0.8984437325570096
  0.9517384242029375  0.4820939193983651  0.5553736847926841
  0.7328095870057479  0.7042761489058984  0.3155642548774872
  0.4455624782673140  0.8934744323350808  0.0151309202067535
  0.6616846454202355  0.8425353881192482  0.0983968582277258
  0.3928047382530314  0.9827696460804110  0.8132424234595145
  0.9418862192756871  0.7032127915885906  0.1614361509160725
  0.0998866507528759  0.8392131533046017  1.0124138576460884
  0.7082430815128017  0.8924084596037644  0.0438051939948738
  0.0318795454079388  0.1925227332658047  0.9044663105158139
  0.3493094869238026  0.6483242376796328  0.9195416233019648
  0.7802844835951450  0.6101425872302381  0.3584592027262005
  0.8503699848244319  0.8729334258761768  0.3688902666209467
  0.0835383449672054  0.0390185548718349  0.9012452160896197
  0.1834863167265503  0.9072783311320400  0.7002440967260910
  0.3933495181065417  0.9703222890231916  0.0934292836833562
  0.4045418590122791  0.6446011402826833  0.9411226909055806
  0.9468472667831078  0.6847253685906938  0.4515909350398791
  0.2208367128006046  0.7907878996568525  0.5122961085983571
  0.7334264796374993  0.7366396346092537  0.1935442125395786
  0.6859569384247763  0.8152805143943792  0.2136622612283220
  0.2685895036957384  0.7664579201134541  0.5920600364065518
  0.2103985289625600  0.8058913181183874  0.6078956636835126
  0.2267870635418049  0.7589155958646551  0.6344161962580267
  0.6358101583226557  0.8304923521635275  0.2487718572764936
  0.3403543110101999  0.7352117256490830  1.0067075100127358
  0.6138871528695855  0.8634921214867205  0.1257865089364445
  0.3251346496416490  0.8057327396151583  0.6562652020836379
  0.2976144733737361  0.6875177151862911  1.0033027323342600
  0.9867535579753645  0.0578387155379889  0.0392227165272673
  0.0433505211947770  0.6114541595709957  0.3342136434377689
  0.3408306547078772  0.6915554469394337  0.9626544094553722
  0.9883749854744049  0.5652090208468035  0.3868579756296345
  0.5345892277855342  0.8595230619235736  0.3209662103769976
  0.2215692743430381  0.8713007626367022  0.3804314646768217
  0.1982804235805267  0.6043877667034946  0.9298039941621481
  0.9072341552121924  0.8860863074329137  0.4386515538709735
  0.9500145428892084  0.8278170720097081  0.1303632389737789
  0.3648628210079479  0.5590829662107119  0.5707743876349245
  0.8242629373175997  0.5561512213947670  0.7253430054104675
  0.8742354036579680  0.0143026068399666  0.9561743222228741
  0.3999675567170489  0.4559959268247720  0.2733557409365151
  0.9828394594137163  0.6060815533848555  0.9717202705356149