B  Cr Ni
 1.0000000000000000
    38.7315947344316172    0.0000000000000000    0.0000000000000000
     0.0000000000000000   38.7315947344316172    0.0000000000000000
     0.0000000000000000    0.0000000000000000   38.7315947344316172
 B   Cr  Ni 
  50 1596 3725
Direct
  1.0019219430994621  0.0135983952458125  0.7898151570668873
 -0.0489169277226301  0.0976245643734665  0.8896626235102697
  0.0536743142546893  0.1990180539122054  0.5950266323496599
  0.6719299164285625  0.9543560615940676  0.5507880357456136
  0.8901477356018417  0.8305340603858162  0.9473389942324663
  1.0118836505731093  0.7699843596558221  0.6802202961894901
  0.5086569203403256  0.4226523625614849  0.4860409917555291
  0.7376330337045912  0.9012499231546480  0.6122373621227718
  0.2472211448194263  0.1300585201424766  0.5266965957813541
  0.1087878495954259  0.0690730657100564  0.9551592203142112
  1.0008020203959986  0.7889048677914936  0.6008839992932442
  0.5654996355866994  0.9698004522852177  0.0420389226290288
  0.2211086299918689  0.1886308931397935  0.5970707043586693
  0.6094617974857250  0.4225068455621122  0.5210814626309984
  0.0163058902565820 -0.0199278736657718  0.9003268292115260
  0.0290102528643928  0.8954553680444306  0.5824130452686356
  0.0243170751090083  0.7109020295868939  0.6214385513458338
  0.7105280077353722  0.5265534518248500  0.5893208371818106
  0.6808806240134480  0.1051623985031804 -0.0208447373748433
  0.3623526629658728  0.2450904202723435  0.5189297763231107
  0.5688932646332894  0.2702673346475161  0.9620061303653547
  0.6312125139846922  0.0034616459501354  0.6206571867294902
  0.7281415415912295  0.8347262675938965  0.9407723549859307
  0.4772088496116167  0.6566679871351159  0.5123077331597971
  0.5797131068808652  0.1895697080815446  0.0348451909728057
  0.9353761364175927  0.7789527497675983  0.6512654796406084
  0.1623659972706991  0.9302552076082177  0.5868139324754265
  0.9626339451198990 -0.0068862355281989  0.8040093054221753
  0.0080550661505744  0.5889028489591356  0.5696011600724611
  0.3732238717589477  0.6569404848416818  0.4752917261903258
  0.1717433858324080  0.6494646706108785  0.4796467815971317
  0.5578585855967958  0.9102982620063798  0.9868921881433982
  0.9622927238813752  0.7030591363058873  0.6748182038551237
  1.0609577940785666  0.0520955184951419  0.5922678272513338
  0.1250174249834064  0.7732654924480250  0.5264164897076610
  0.0151534886825556  0.8566435116345231  0.6582498267990520
  0.4315638367848287  0.8923946254473829  0.3307915369776599
  0.8412544661486345  0.8937184247355814  0.5972048688061623
  0.6746098847525802  0.8939200465449615  0.6597203617643617
  0.3862116726525792  0.3648915431970959  0.4110919596320443
  0.8986788691397102  0.7719486790234723  0.6258206337694536
 -0.0131446292368541  0.4378284180175173  0.4742704847565701
  0.2488591679273618  0.8270458128251442  0.0676050026034899
  0.5043116387811425  0.9311327333332845  0.3440937379565359
  0.0272214692123302  0.8899541965253904  0.6303722002301247
  0.6889737196395660  0.8312737118254927  0.6055348980868508
  0.4504825657715467  0.9577413372712209  0.2860163224827269
  0.1413923431703451  0.8901375609072540  1.0096836789833346
  0.7947446449847312  0.0493950613844995  0.9019754351408421
  0.6332327545666765  0.7536230687444503  0.5415309773272952
  0.2865879362406292  0.9619883473735256  0.3699007804138903
  0.8898886547280968  0.1017108058062014  0.2762048698502948
  0.4034857564025808  0.0381909482617812  0.7875470776853772
  0.0612881415614661  0.8108405813111783  0.4545058871325146
  0.4808571317313871  0.1373180150268415  0.7928724161655037
  0.5330412907729168  0.1749711708537265  0.8605999277796260
  0.7109538312985590  0.4103892473897596  0.3391120579862943
  0.1056045359165575  0.7194324660235748  0.4954154965866370
  0.0998836796946021  0.6272304269971716  0.4060368374241451
  0.9148697035948490 -0.0172434399418224  0.5273588732957568
  0.7157745767311652  0.4425274461375354  0.4419113247451393
  0.5522437942744778  0.3685854196574523  0.6617869551989188
  0.1671866853154419  0.8407270762956076  0.3689555045570539
  0.7398859192519184  0.1949799027748951  0.1950788754212676
  0.3880100649876834  0.1810498552238114  0.5908253645148616
  0.3364437510495500  0.1475835974583481  0.5267751597252115
  0.5929425092169036  0.3199526820498194  0.9121855493382122
  0.3245884584381984  0.8083839175170056  0.4323172100228596
  0.6047554328263053  0.3959048228527283  0.3640224044645250
  0.3434015301518987  0.0245362962010909  0.5572792536867708
  0.2545706308206319  0.0902904646030443  0.1283539837148485
  0.8312190701300685  0.0410961890141397  0.1588729258447901
  0.1925610944412005  0.4718965463141926  0.3710491316090041
  0.7922481248900961  0.1945690946006159  0.3267982947310242
  0.6201397881065815  0.4146393501024759  0.9589350652043660
  0.8124005287250645  0.5815862776917687  0.8629236520738329
  0.7513966918379481  0.5881048666664825  0.8416190577276248
  0.4351381077959769  0.8903167119207359  0.3894275393293062
  0.3196126613586620  0.4178982880840013  0.7489214242531416
  0.3435432121871452  0.3268667704033975  0.6592682388399210
  0.4858649209345002  0.1886441522926110  0.5087318245059214
  0.3031310909663982  0.5488089162884386  0.3282824043552756
  0.0906952820959959  0.5333807953964684  0.3179233781380462
  0.1453901539960267  0.5492139573930733  0.3882595563047230
  0.2984846817404058  0.4718947202146538  0.4065507215581187
  0.2477415091116889  0.4827201793284099  0.4452239933980611
  0.9275113975106705  0.9813523037869973  0.6501485777482391
  0.6766256549022087  0.4726232350388958  0.6388849822167953
  0.4834613339852594  0.1739176655618298  0.8983332167147849
  0.4448430152163717  0.1240079037415368  0.8934979392248332
  0.5091964958338095  0.9686553749879393  0.8574481465114805
  0.7571512956077177  0.3485376693030809  0.2627851313902035
  0.1941710654648299  0.0314648183038906  0.8849860370373533
  0.4629247869672509  0.0305710809140064  0.8093125641768402
  0.7937757291276220  0.2097909149627875  0.2672537190726475
  0.4479298349105105  0.2398566597469118  0.8241332307200832
  0.4972405685850325  0.1635137844400697  0.9577494409544304
  0.5243507717199700  0.2739938427935070  0.6135106340345147
  0.3292907493329497  0.2907706853274355  0.3702920319925141
  0.3806728489165757  0.2748639289899424  0.3364265306373132
  0.2510765184871114  0.5461211544497426  0.4256467760263841
  0.0383717125792371  0.5326571885857814  0.1848238213082243
  0.5794768217399339  0.1472852716189333  0.4388611795766019
  0.4044278050670814  0.0139766598904297  0.1426047513276783
  0.4680306382265665  0.1821421666546242  0.8398777699997725
  0.4417511568941123  0.0867495510959908  0.7902363173979126
  0.1799834276526396  0.9623975062188895  0.3334676048385875
  0.6410592738847644  0.3581562120880734  0.9805012878845952
  0.8386126225930832  0.1169723316894505  0.3099490685966028
  0.7472519680047006  0.5217884503896707  0.9253542755441777
  0.5122388593018633  0.2083951387565320 -0.0089152913284430
  0.3316027791733591  0.2786580777064205  0.9561018695962031
  0.4529474142154371  0.0291774332927955  0.5354551029411134
  0.5059135540710066  0.1306283938659309  0.5218988927394249
  0.5190651904072824  0.1218270180009651  0.5846751960153134
  0.3093403701474977  0.5661603074425783  0.0443642460400390
  0.5695994198714476  0.1577866003225969  0.6520516021573070
  0.5468883591557411  0.2169331310263121  0.6339700319584153
  0.5347655744754543  0.2617485160074415  0.6784347905516070
  0.1991686689830543  0.5430782133280997  0.0717878155739191
  0.3265347595957451  0.3262010125850434  0.4803172523112170
  0.3198723958696192  0.7783502532203540  0.3253975229584787
  0.3698022520633598  0.7645079560611574  0.2896875227906717
  0.4531096513620038  0.3255068187358862  0.6386359430076884
  0.5076199992456218  0.1988843028303516  0.7368497062094270
  0.4223761539372615  0.7174699752671013  0.3757659760122971
  0.6211326041072499  0.5653161058583984  0.3712420994254430
  0.3746943259227086  0.7945672190772453  0.3964689758903790
  0.7696856280404853  0.9448878261603837  0.6050597101935756
  0.3242568206434830  0.8249564784219825  0.3713452673326990
  0.5728101514194797  0.2151476813074006  0.9481414896298574
  0.3938557152824951  0.3330250290784679  0.6192739878196533
  0.9444938211835245  0.2232622294503369  0.4453911097594763
  0.5323120096283003  0.7642023098557930  0.4560479049124407
  0.8040624435277655  0.7791244974975836  0.9349655722324092
  0.8887334265947396  0.7170923656215786  0.9710247313282004
  0.4802914602917741  0.7125415489060042  0.5071206600568707
  0.4346477780703109  0.9164283999297708  0.4988026974590922
  0.7705758900498489  0.4287534130975165  0.8383428307514814
  0.9335909333058212  0.1313638865091664  0.3650627495508817
  0.2728512181491197  0.8693106559583192  0.2834151879019768
  0.2241573621066913  0.8857429537236110  0.3174031635683017
  0.6007600743667142  0.4054552095848704  0.7322800228837190
  0.8602802167616816  1.0001222515029442  0.5649331822082372
  0.2738996770066701  0.8542945571215016  0.3455512456748015
  0.0519882608960134  0.7179338900859524  0.3651056466736070
  0.3588138184058019  0.1173117170165597  0.6458657070748242
  0.5561543371899677  0.2348896561114927  0.8058378200523425
  0.9000394392870784  0.8952121418393785  0.6052607925347943
  0.3512087825185402  0.4859915509908163  0.0170175032925152
  0.6527051085804288  0.1600687834244144  0.9016018768913960
  0.7254516606040412  0.0581451352192192  0.0587441955533448
  0.4058689876560401  0.5007341818386456  0.0943339741668674
  0.5139897564555458  0.0699498819345633  0.8743626318768465
  0.5837731286788421  0.0167316158616696  0.8542337530695334
  0.5828298048949123  0.0501456180481662  0.9590089378240430
  0.5462885316668449  0.0051042479514294  0.9583600778949093
  0.4774444348147031  0.0573373202483932  0.9805433314544522
  0.7455593802573345  0.3053594071216739  0.4558399839541534
  0.7834862657048351  0.8027814825963236  0.8087454910447913
  0.8893298120329866  0.9321054755565796  0.6472143876520183
  0.4105450065601083  0.0581537565985967  0.4196249231153485
  0.8989206085100904  0.9187751564872310  0.7104830320352822
  0.4231138442931355  0.7007047642807910  0.4352072156923468
  0.6884708188766719  0.7701899529200256  0.5636785206633526
  0.7692915862025662  0.7780913028317973  0.6440208250659870
  0.4800686826413674  0.7943887653099003  0.4321751281647113
  0.7450390675481623  0.8450987296189372  0.6199626580723934
  0.3879090580960730  0.9180932693030096  0.3599582730553978
  0.7989734703603877  0.8763795517078941  0.6864923447357353
  0.3996856959274296  0.3923518498567614  0.0642497771742838
  0.3854145078867512  0.9689187912454313  0.4167583756550052
  0.9470724604663965  0.9310622191667693  0.6108057554898697
  0.4494048419762824  0.3624178505876717  0.0899393540394681
  0.3557367778126441  0.0413229059045037  0.1168252070016497
  0.3087197388666526  0.2196986709003944  0.9960660023726304
  0.9802667883833236  0.4536953383340606  0.1321152919835652
  0.0815099789629775  0.3568352940859764  0.0778136550757724
  0.2398244522979222  0.2959030055621574  0.0419428909609817
  0.0293620421807181  0.3738087247836065  0.1125180492993553
  0.2332017351338060  0.3311616722954060  0.1455414783477657
  0.1402116502584101  0.3960103544754289  0.0294089008986571
  0.2477937398683935  0.2405719566196725  0.5846116206940997
  0.4179175532623765  0.0784639741007263  0.5611775365831037
  0.2878052976779480  0.1706510817721942  0.6671649403931398
  0.4930539940786107  0.1263650501364701  0.8527055284579691
  0.4670773057973071  0.6112346833057640  0.4790361447392150
  0.7837222936090541  0.7118158779357064  0.9934160330128234
  0.5153856585426168  0.2872092335422251  0.5468392418096816
  0.4158815713501463  0.2483715563703407  0.5300411318895288
  0.4169549285613966  0.0088524543898801  0.6427288774633385
  0.4410087303749275  0.0530541197212226  0.6831559839033692
  0.4838823535905116  0.3226890701639663  0.9342435734700307
  0.4477209251549076  0.3148873186305658  0.0432780782287785
  0.5529174447484351  0.0843009701982481  0.7704026164855662
  0.5509139842873875  0.3141530613736587  0.0740284775886978
  0.7379420570242166  0.7191160492740298  0.4800416718817624
  0.8599764233986644  0.9045602493673167  0.8123938362554952
  0.7519713263653163  0.3023417657425991  0.2200259707750983
  0.0171708868473056  0.9302086436848421  0.5351833387506413
  0.6257602128861169  0.1249285168283581  0.0072274086618775
  0.6656508296456310  0.1565812639730906  0.9616479521695110
  0.6656696758170890  0.2673205295934750  0.8895914848254329
  0.4287214366885380  0.1500931628352647  0.5009031058727584
  0.2599935289482553  0.7329132758784032  0.1454575853976492
  0.2122141665888377  0.8079973827541111  0.1682437965156173
  0.3186010995182265  0.7931043385413508  0.2639412744911797
  0.1758441418785539  0.9307390642736798  0.2253101452179063
  0.1249494206746766  0.9472495486830971  0.2616473434957780
  0.7194957758565965  0.9814189769249134  0.1389570496720458
  0.1405584700930730  0.6424341170163683  0.0155769965215379
  0.2617038704830613  0.5864041480449756  0.0168450660760489
  0.7273354387510325  0.2279375210991555  0.8033944849328231
  0.6659506130281320  0.2343982528141660  0.7817572647270483
  0.9725971653001044  0.8897334621976594  0.5708846494652726
  0.0619630588817713  0.9448005539013710  0.5870669784527067
  0.9667702169848765  0.9539538036620459  0.5553682819748847
  0.0244434614828867  1.0095269342061164  0.2096700402319584
  0.4313639162162787  0.0641700513170863  0.6215573523562190
  0.4810332910166138  0.1021735478709960  0.6876479919446207
  0.5795026189129041  0.1468559103494823  0.7126539611031878
  0.5729740202369400  0.3431132666641399  0.7885089551246104
  0.5730379817592185  0.3104595909257334  0.6805445823603045
  0.5805382308968984  0.6883049425267008  0.4338671328285313
  0.7782141558855619  0.6501611967479385  0.7848671858075053
  0.7555394541434275  0.7420258969134547  0.8711104522690771
  0.6847610393605271  0.7333083692558985  0.5219191021243763
  0.5916417169443112  0.5391458619907908  0.5949229267567613
  0.7469685736884174  0.8766448373877169  0.5640140185852831
  0.5724670390126567  0.6121329482145478  0.5147490373333899
  0.8143876804652407  0.5311886725324423  0.5603091946507869
  0.7283349311169475  0.6794597870580038  0.9280244380736291
  0.7999306634577877  0.3365826918887857  0.4645638854077482
  0.9043153816324154  0.2842657607385464  0.4602828088950374
  0.8530924412875358  0.2990661914445332  0.4937671444528555
  0.7288191257015049  0.6460276330196972  0.8243526890736662
  0.6181041554479351  0.6155596444405054  0.7376744518410021
  0.4253445843171633  0.2627909802704634  0.6977508042384751
  0.6799112045425536  0.6075516519407795  0.7602305304984956
  0.5924143484997332  0.5706136590231550  0.7016052118970337
  0.8725614695535689  0.0897265519392380  0.4230612871761155
  0.6637497593596349  0.5171824804287651  0.6792877898500891
  0.9893125881445383  0.1454066135162357  0.4341907849569346
  0.6718857359505265  0.3850388331756769  0.8145051419096317
  0.8021249891137887  0.3593240594526887  0.9225764366833841
  0.9666915362274434  0.0104683516048864  0.7482679793150614
  0.7295799666076860  0.4124143839952544  0.9389496199361220
  0.7363196824271351  0.6735425558204190  0.4367335912874457
  0.1083512883830166  0.1953607766257838  0.2134189760208478
  0.4085854704147557  0.5206881592819523  0.4845432952994956
  0.1862078343027780 -0.0110261842511372  0.2047742112924302
  0.9234270128425992  0.7243765276102540  0.6433426654216848
  0.8811396637327638  0.8116604039260460  0.7273231275357425
  0.7188252037266022 -0.0020999550913023  0.0762282326070420
  0.6735491761749234  0.0880186391462799  0.0319855720682749
  0.9308444008305173  0.8864130479551970  0.8962268304960157
  0.7489757212164320  0.6865470557078336  0.6026951318137018
  0.8653923734988123  0.7393516446729156  0.8481950581829938
  0.5830370657840032  0.2376451562828388  0.0687622773102327
  0.5018069079615858  0.3788837959483918  0.1597598199383752
  0.9317901401946468  0.8503799228109845  0.7918237204883336
  0.8313208424878770  0.8086835412949055  0.7688595948274201
  0.4519695608663734  0.4083619547564947  0.1349074964533711
  0.9420864725754480  0.8409118101640862  0.8538814118485826
  0.9150720926256329  0.7779302072046711  0.9143845302597741
  0.9891617806029158  0.8782119655741256  0.9178343510879938
  0.6708692734911383  0.5204955100882200  0.4588752681646990
  0.4586208245336273  0.5197436681227231  0.1616225876362606
  0.0528000255015066  0.7647427476287846  0.1829656447660515
  0.2133809936790850  0.7929667364032248  0.2270401126995553
  0.6875500954739869  0.4593851036264193  0.6970918762266879
  0.1680211475642696  0.8710590578634954  0.2450325214622527
  0.7916232536739616  0.7394922889692513  0.5492015674907602
  0.0630769700952019  0.7940841590901192  0.5186187649321061
  0.7330361853689891  0.5826836767913913  0.5811625903936850
  0.7649281327807408  0.4261990918104491  0.4097239364336484
  0.8230818330715065  0.4716362304398574  0.3578304152144923
  0.4007630464063936  0.3862674868719874  0.8929859911611406
  0.7773557231022121  0.5492239432952652  0.3749006425107297
  0.4495767154167257  0.4240582010101802  0.9585180374416096
  0.2391121414311950  1.0279195982133378  0.5753902654756610
  0.1365855399118434  0.0601797218098650  0.5196831500921801
  0.0756610839689055  0.1440571069650237  0.5905911285786343
  0.2339726541019775  0.0470652777886391  0.7825827099537702
  0.4794668909841082  0.8197763547922601  0.5365636299654173
  0.5866458913578372  0.8124524113723051  0.4057229848514999
  0.6122714392677332  0.7808350600171327  0.7031277320507952
  0.2991990055483784  0.1924329608099611  0.8333798559382406
  0.4833587806736842  0.8391490174405012  0.4784985159089796
  0.5898900309397552  0.8579987018780184  0.4546708033281149
  0.9949158400071405  0.1585903367012695  0.3688537261865438
  0.3702354425658737  0.3255716715157317  0.9538167605147145
  0.5574737014268589  0.4420048157100037  0.2733126127537599
  0.6619958019840545  0.4238006561115574  0.1436085749994262
  0.6851447254792102  0.1785324002378572  0.1230959566582437
  0.8105269039434885  0.3632120069207970  0.3346371977322646
  0.0686370531143059  0.9329704148779422  0.1919640784055792
  0.8019515371857032  0.3022643494529833  0.3549457774125114
  0.2100693243016733  0.7023342054626120  0.3640755158988753
  0.2165903421825348  0.2112495908389515  0.1875438825787965
  0.4830868180087832  0.8770627265334726  0.3543263071280400
  0.3683269416617416  0.4562759394344311  0.8138947449110883
  0.3783918461265960  0.4441175441559899  0.8747330887361785
  0.9877481116263149  0.1132086687145174  0.3288274676348703
  0.4561982087387104  0.4418662969119710  0.0111632345241996
  0.9474377970035014  0.1813398778864089  0.3348038412788559
  0.1676989546307949  0.1851055394013588  0.6234364618259355
  0.1916847727998838  0.1436959340341490  0.5698597937655780
  0.9011552883289308  0.2589779761023193  0.3490462308691816
  0.8771551148043483  0.6594504757650946  0.7034365812128811
  1.0013548988146979  0.1804876240955207  0.2377512471715219
  0.4934772399123908  0.5608940401696503  0.7814170947971280
  0.7980577069618997  0.2412046588587969  0.1429807038679277
  0.6630432972510067  0.8523946824111235  0.8724621966344054
  0.6571222041614727  0.3286857729578366  0.0510922566731222
  0.7082070562275439  0.3474143901833132  0.1260510928707040
  0.8719864818515672  0.8893380474700966 -0.0083711243918725
  0.4092402800826945  0.4665420528910704  0.4992327663855699
  0.6633343721753749  0.4570941108075701  0.2495810657885414
  0.4734766853918259  0.5531704634360696  0.5531367066602719
  0.2684603730992455  0.2137749427014561  0.3193926645252392
  0.2081017803156034  0.1988114359632507  0.0178313947749948
  0.5764037421096044  0.6310322857271637  0.9413074535218182
  0.3591294472493473  0.6100858940173836  0.2137444035933569
  0.3525496128587081  0.5017148039262219  0.1867737849060081
  0.9953463045361634  0.7186564707345092  1.0090115853354140
  0.5512037011066402  0.3786561430923515  0.2927807189286700
  0.6060631880584785  0.3791613549422214  0.1950669989499992
  0.5346194341310367  0.3914433710138955  0.5282476578879801
  0.5586894731204548  0.4567792536464007  0.2129545231633761
  0.4062429591897817  0.5184134703193419  0.2572816380662238
  0.6510749097333099  0.4105815656851277  0.6919637329346900
  0.4624316831676831  0.5665882532428013  0.2034379354790066
  0.1067315839368531  0.8255120141264900  0.0737549517164005
  0.6379940797697486  0.4544444713572323  0.7358625110005459
  0.4183446704510632  0.6721302950608362  0.3287274591760834
  0.7370517187075495  0.4981806474422317  0.7609278879660173
  0.6986977948309803  0.4818453871954392  0.8608336225793398
  0.3119524567722061  0.6867650420277668  0.2323372221457574
  0.4179154845171921  0.6896229747638335  0.2677232346605218
  0.7370245134339277  0.5322353411319292  0.8654456879403281
  0.8825071659846537  0.5357876719682717  0.0179968038019755
  0.8217514756328830  0.6186950834085088  0.9706434362732672
  0.8407825914218199  0.6770767496071169  0.9101022983785282
  0.6822494537983984  0.6083808777411933  0.5503439088736048
  0.6912897657697885  0.2256372179628338  0.1680829386847307
  0.0607795122820885  0.2584625068058871  0.2907064398719818
  0.9336278600956666  0.4512120455246470  0.4556827015750197
  0.2718732636566528  0.1298067952508150  0.8919791793865669
  0.5701525497885722  0.6107149110526343  0.7774909133660013
  0.9082518336707717  0.3519486460242461  0.4419290670022671
  0.9663561044615515  0.3890781463964075  0.4542041208140449
  0.8699547134453917  0.4198148862277881  0.4441292908832561
  1.0109466130954055  0.4055116341407886  0.5131724029309852
  0.6753485191951116  0.5803628139335648  0.4434637044421743
  0.7868970991304638  0.6422596024852133  0.4619576466928526
  0.6782924383623635  0.9247039461703608  0.7537802264164049
  0.6676746127521025  0.9701163269027813  0.7966661605355952
  0.7556576207778367  0.0069682883447835  0.8537804295698138
  0.5611670378309039  0.5046352396498086  0.0314607938742953
  0.4307440700095894  0.8076109013189299  0.4730620996050650
  0.4669936301783443  0.8416788832159384  0.9882645319331664
  0.4522351994974200  0.6101218809147246  0.5315538762026030
  0.5422910362769041  0.8021410617521907  0.6203781311829519
  0.3964913587446568  0.7415149697198432  0.0264373056941259
  0.5405553025471924  0.9146922351988354  0.5363750110256338
  0.8348809815481151  0.5476581035119854  0.5092499869393363
  0.6131370682225840  0.4877854542790781  0.2218988493248246
  0.4770833308776521  0.7664885899960071  0.3237136580899615
  0.6742799656431669  0.5813732678098453  0.2142203243592112
  0.6075323265988670  0.6597328211318999  0.7812729839794119
  0.5885438259379614  0.8827127514674650  0.5637831750377240
  0.4614773045773766  0.8631122847398549  0.5792931207984946
  0.8319620879034990  0.8419155889682478  0.8735852414886762
  0.3051868554635137  0.0741784013895002  0.0915933980547275
  0.4091259311865899  0.1553359187097930  0.7114632902079980
  0.4367913544850076  0.2183969436584265  0.6536372384880226
  0.5165884934792939  0.5817846679335557  0.2734471074307479
  0.5208413098020240  0.6281529171814191  0.3184353379624967
  0.5175658860583199  0.1859276317028844  0.8010486544973123
  0.5048811028977087  0.3310760769091498  0.5951493414171435
  0.8608413472445032  0.9424433746750012  0.5807829079317588
  0.8495928821977152  0.8818046043830815  0.6507173000986975
  0.6336446621472817  0.7033076328345447  0.5067804115166752
  0.5959793723741721  0.6404833654817694  0.6160283453983506
  0.6240835960262012  0.5963989500776689  0.4780943905410068
  0.6453304325173403  0.6770879018904752  0.6829976554138263
  0.6562614756544874  0.6658802254953464  0.7424739359523199
  0.6948017718984565  0.7154133172896052  0.7442155182246553
  0.6195878101885516  0.5166837126887028  0.5571370300077627
  0.6917620194511457  0.5794101040040294  0.6201250495482752
  0.2307972585988790  0.9251059856628790  0.1221406991386388
  0.5800832598404506  0.0102046618055464  0.5865823997635536
  0.6583043455181745  0.9447464224875093  0.6282633295637731
  0.6223671716042393  0.8982481511342182  0.6280592926285646
  0.4777276311656478  0.0028158650659320  0.6672741841177247
  0.5419296248891353  0.9340445746828279  0.4750371279630876
  0.2336341790530116  0.0798982826860927  0.8886322529176712
  0.1001707739530095  0.9738634000448555  0.6543917956605219
  0.6797594116421442  0.6404076315578974  0.8646022228957422
  0.4125401896605909  0.2170416927574072  0.0039683665166433
  0.2202515298144575  0.9908012022288269  0.8076823108360256
  0.4445294419032824  0.4903721072745321  0.6107947567282874
  0.6678811770633012  0.6530549922187108  0.8029919180334609
  0.5152666159779283  0.7379887474903073  0.6795063408781021
  0.3936567218735538  0.3649732152076569  0.7258841424361941
  0.2165923972535656  0.2231269366925238  0.6894523273006667
  0.4741577193556759  0.3005534432650167  0.7657596988942073
  0.3520800917778433  0.3486513465541071  0.8279561966809381
  0.2605864328462564  0.7932775482666284  0.0270876235574458
  0.4523218795005292  0.3576141494333889  0.7459384122092947
  0.2116044462937509  0.8253367561352768  0.1070613782114263
  0.5111626522581255  0.3839657849666277  0.8736180359155613
  0.2265136129718924  0.8798702990394844  0.0716846286018146
  0.6099494204873755  0.4265355997917303  0.8974816860219530
  0.5382783971057021  0.4791967243535367  0.9224734394950957
  0.1204005706115797  0.9167366926353563  0.1562635486180551
  0.2995091741052087  0.1591896604255088  0.7281291448298099
  0.1031280905471177  0.0732580081441117  0.6746953517122649
  0.9988722811295266  0.2022241292978262  0.4096063528060045
  0.2592581546831291  0.1765238207794970  0.9315451885393226
  0.6567846578640676  0.6992180315515976  0.8462444609273501
  0.2009326147396723  0.1491160590895964  0.8082220597886924
  0.8626382306052597  0.3761679962618441  0.4084406362195519
  0.1524927444312080  0.1106163858812911  0.7410115334931147
  0.6075172697670618  0.6946075808163708  0.8862921088007309
  0.6453198922829925  0.7440597461099684  0.8891574153935278
  0.5240991755076658  0.6897437895614200  0.3026310137434751
  0.7116082564011600  0.7276223533810779  0.9729716086457956
  0.4308441271723217  0.8404715453614116  0.3452616643347179
  0.2456239700751623  0.0705036742110614  0.9526445914672099
  0.4292897378562385  0.8595927633278470  0.2843430941874279
  0.3469774037957007  0.4806680450169179  0.6921870790588122
  0.5161936834451482  0.5038993764060569  0.7981188431067927
  0.4827329139731019  0.5733998952547914  0.7196397917728484
  0.9876477648492256  0.0258516747603027  0.1624192929529117
  0.5319161877248101  0.5924525727952662  0.8817765853636155
  0.6841032686679225  0.7616092670161131  0.7869000018555090
  0.8430979697737764  0.1795200513030729  0.2936296209659894
  0.8525222150657077  0.2865566061848696  0.3211509433009874
  0.2945672046868272  0.0743936017300866  0.9115226986807058
  0.3449187101269363  0.7667849607916372  0.0607055029068479
  0.5310102599021043  0.8447877596028860  0.6642125636067001
  0.7770842076253313  0.5339973634399418  0.4375024448407233
  0.2189989543320802  0.7474429764064807  0.0221345635637256
  0.5855123585244556  0.7522060260012956  0.8690060187585735
  0.6621040449936435  0.8178439426939211  0.7689558386939752
  0.1210573485543669  0.2831862088091320  0.0740898302299821
  0.6670324724106514  0.4523865687432039  0.0224509425796889
  0.2965940009111597  0.7387186723847732  0.0436962442345283
  0.6751401375680718  0.5376768265132095  0.8451014165631443
  0.3060491540062751  0.6297118382254184  0.0209439361736905
  0.8843606787728059  0.4409303156021425  0.9860244297671412
  0.1556230516481450  0.7497654871768898  0.0559373432516207
  0.7191012520248069  0.0162006498282112  0.0140268768214465
  1.0235727519602695  0.9938505589949760  0.5034715054579789
  0.4715149578765159  0.9550300383643946  0.9625203511003123
  0.3565983789953869  0.5814734946403927  0.1063350148472304
  0.8264091077725272  0.7726971562692945  0.6651992992332633
  0.7435255075349290  0.7191027759869008  0.7054068840694693
  0.6826268431289744  0.7267007116148443  0.6833118661731036
  0.8455687286605126  0.2096655517369511  0.4010877116457499
  0.8968837604103091  0.1968889391497951  0.3656749748426939
  0.6388848048041318  0.7035878197408080  0.5629964429215573
  0.8716928112103672  0.0600604889329280  0.3171238007563246
  0.9273222812434962  0.0858254090304477  0.3251153489191305
  0.8834121053853720  1.0112453726852173  0.9584909332838391
  0.9705760674664331  0.0093142161632783  0.3083949907944759
  0.5422740760011057  0.0965844267303748  0.7085865245614797
  0.7937555782664579  0.7588523828247700  0.7686547932476631
  0.5179150469195106  0.6325613958592943  0.0885056096910432
  0.5563332338276227  0.0238544603516895  0.0141996717148579
  0.9100867700416337  0.9429452432179890  0.8784152243663153
  0.6369817575929649  0.4882381100428163  0.8412058215650227
  0.5804240628250837  0.1797343417206319  0.8202441732321307
  0.9604755088744391  0.8431750690461410  0.5240652499719440
  0.8476909155035208  0.7792996576008002  0.5032368166822786
  0.9706508545994554  0.8757202198757830  0.6316154974945974
  0.2600063590548677  0.1354873591634209  0.1709011166475239
  0.6984019000463013  0.8372024344423523  0.6622096756643329
  0.2418915202630381  1.0014824518799053  0.2755712176952073
  0.2949298407950415  0.0238209603998038  0.5987662581735969
  0.3151146363763885  0.2654918417686490  0.7170734604616975
  0.3366298563228319  0.2096130771782184  0.7333752690053476
  0.3865110529894739  0.2474115077539166  0.8005565485816648
  0.0026753924066716  0.0975435259068721  0.8613616468578292
  0.7108688968829849  0.3065767434500333  0.9574047069722117