B  Cr Ni
 1.0000000000000000
    38.7315947344316172    0.0000000000000000    0.0000000000000000
     0.0000000000000000   38.7315947344316172    0.0000000000000000
     0.0000000000000000    0.0000000000000000   38.7315947344316172
 B   Cr  Ni 
  50 1596 3725
Direct
  0.1958470919486671  0.8383841544618609  0.0448604650780158
  0.6124141571914167  0.3772038973085886  0.4731725026245671
  0.0576137843298835  0.1994163993272720  0.5922250233776379
  0.2540863557218788  0.4034606229383045  0.5738564447359586
  0.7266778328858312  0.8345543344376116  0.9412622899260490
  0.6380497143929525  0.7515967427223798  0.5410469214774697
  0.5282257422096845  0.8021234722556959  0.5617756807995152
  0.5124453710212897  0.4194405142609580  0.4878011988344545
  0.1650467924890619  0.1823204287830015  0.4649599074525037
  0.1550297101946889  0.9706160228801051  0.6277161704962461
  0.1100743270384181  0.8080904385599812  0.1352201352665558
  0.6895144507518041  0.8316153100934126  0.6069663757208107
  0.0543406428641640  0.7763204283129803  0.5637054182178741
  0.6418402709429752  0.3849204149885551  0.5423740805822331
  1.0475137572101239  0.9149667334681703  0.9205314248291128
  0.0297153991782045  0.8949586798164478  0.5803738244403923
  0.0109154460529918  0.7656451589236826  0.6740622664252962
  0.0650107461212489  0.4253024000345951  0.5020395253251950
  0.8584099404068486  0.4046103107012921  0.4955520295803920
  0.3643225855342807  0.2454684963456934  0.5201916941688529
  0.6188682837613614  0.1187139991068055  1.0237160075871556
  0.6392279739229213  0.0035702320219311  0.6155354711401012
  0.9046763521996346  0.0098371557873092  0.8000637679965455
  0.5145266857244609  0.7876881617687204  0.9499496868161491
  0.2200426696803216  0.1870610969073482  0.5965297866297704
  1.0066083538207469  0.9327355482065087  0.5890670914283133
  0.4284262663751293  0.1370444460079324  0.1251137348855073
  0.3164021885407847  0.9717695962313673  0.5689209175621355
  0.0054684762090132  0.5900043605056596  0.5674654237190079
  0.5067340163222652  0.2688714314069996  0.0053956550605401
  0.1808691948753835  0.6575120159202588  0.4677479708390015
  0.6754225280314107  0.8963513840339465  0.6573411895457879
  0.5779152614568277  0.7963656271304608  0.8973092596326078
  0.6201023224494185  0.0225230510989999  0.5756454063652042
  0.0004604672981981  0.8442406519144895  0.6613059026196246
  0.0616575733682187  0.9932550843516763  0.6099224750981951
  0.4294979403823758  0.8945344006337193  0.3309093305083588
  0.4757179271834001  0.6549193266806426  0.5108642263807771
  0.4017913098409557  0.1316150292468034  0.0904075519956039
  0.3842101353690441  0.3197400448142074  0.3716578997079831
 -0.0123218562575056  0.5897609061658865  0.7013342380262031
 -0.0130106051113007  0.4380652981273817  0.4726772493539886
  0.2545056583884089  0.8112366740510376  0.0791075822138920
  0.5035290820945361 -0.0672793840709602  0.3457037914197444
  0.5651433581386675  0.8565027069641795  0.9405288725241224
  0.7396067195941476  0.8999551643037026  0.6103750610516713
  0.4305928195576054  0.9646878418830243  0.3842277825007492
  0.8858586088873950  0.8418263611529628  0.9576968064860005
  0.0882717127474219  0.6532063071182201  0.4952694308844953
  0.5761756834588645  0.0159529813094460  0.0091936830335378
  0.7138687901120229  0.4089723361717952  0.3386189961080478
  0.5342990666994871  0.1761303174924045  0.8591002729091797
  0.4821931739135699  0.1373627577508189  0.7930311484094891
  0.6107750073530560  0.0572409830020262  0.0235964124808181
  0.4053438192888708  0.0388862221772713  0.7872122489766572
  0.9202957725451798  0.0426780215072039  0.2848397652976507
  0.2857065023263454  0.9618724267464551  0.3687733426080275
  0.9272007263220703  1.0015781075149122  0.8526727605746771
  0.5827346360604041  0.1798568549022558  0.8197886672880365
  0.7159600547616588  0.4410323761991050  0.4415111443802182
  0.5516840503783994  0.3677234547548557  0.6648268042990948
  0.1670136920470719  0.8424433324451733  0.3688158355002297
  0.7397295319486291  0.1933076025894591  0.1953930752180464
  0.4475478670514160  0.1719814761274427  0.6101317654764629
  0.3365371414951309  0.1479118291974811  0.5263173255218623
  0.5931530569922595  0.3204297603048856  0.9143707555226623
  0.3242332251239713  0.8091782982266750  0.4315176271599297
  0.6567378376207059  0.3782661560337710  0.3301501412297038
  0.8593773638081675  0.9475128826287067  0.5216368216449750
  0.8480242331954987  0.7789979509193926  0.5041174785062016
  0.9599639005763322  0.8401836254872881  0.5284304207332027
  0.5084720266735235  0.2306181044645608  0.8500105422888788
  0.5202521310071073  0.3742484718308211  0.9354600187329466
  0.7914348017360124  0.1930388388926991  0.3282876219343529
  0.9594368405901775  0.8680179094509332  0.6324019000179144
  0.2600485611650658  0.1361254589407303  0.1694603177299799
  0.7120394309374273  0.8226497610941782  0.7271546317654518
  0.2407634682922529  1.0043324167775478  0.2754941918214294
  0.2973656447101805  0.0209285362626685  0.5977647068686861
  0.3156399547068787  0.2654587275448955  0.7165373844723744
  0.3377918837747245  0.2095283066535563  0.7320656301637604
  0.3874415888723240  0.2478471178096249  0.8009987435035727
  0.0059474880552181  0.0953799542586445  0.8627527914075328
  0.6598658029689293  0.2888647598148861  0.0025628487184350
  0.5178642235254959  0.2212823359858273  0.9175440418579689
  0.5598763106286647  0.4419309322559327  0.0434996382479649
  0.9285669252654403  0.9833218848687728  0.6513866726453748
  0.6755059356317686  0.4728961793700254  0.6384807281922662
  0.4858407062880151  0.1750398517373470  0.8963562043420172
  0.4467721322282597  0.1247642780486829  0.8930001198731410
  0.5099207489858806  0.9691810061447226  0.8564525506795410
  0.7487170688865649  0.2856640178420688  0.2816449163821537
  0.2553519074637780  0.0265918757658208  0.9092906162099107
  0.4160663125876288  0.0276184565599985  0.8492952649994692
  0.7937944094127823  0.2077586292766380  0.2675929539908550
  0.4978291683664887  0.1662415349904972  0.9561698738282088
  0.8308016564880037  0.0404003182819339  0.1590626750328187
  0.3200368555849791  0.7783763570221017  0.3246489035485779
  0.1773299900059213  0.9488757581089248  0.3967226010551346
  0.6261761427399756  0.5013063858988449  0.7803121074180076
  0.4623900384945373  0.5509755061476063  0.0413327841123378
  0.4662221417100017  0.6283037763330911  0.1878516610723004
  0.3543297249310132  0.2817711295246849  0.6157827009649440
  0.5188882580716350  0.6280633850888870  0.0929818728588303
  0.2966588260235624  0.7389061741758622  0.0447022229985795
  0.7187917903781109  0.4516971596667774  0.9816640380759616
  0.1943077888139411  0.0321346114736701  0.8838365487249310
  0.5251638065362931  0.7259878776728146  0.7404999068864881
  0.3452963230477095  0.1177229771458374  0.9739699400131331
  0.5492210396817080  0.3137652556273216  0.0185269086114245
  0.7022702562874780  0.5847035362265485  0.8822676688181685
  0.6415856993826368  0.5916893291997271  0.8615079991945148
  0.2034502837348647  0.7166466195753404  0.0752544340442550
  0.7151959655861124  0.5716757378623306  0.9450397370794781
  0.6926641028419914  0.6277211743589742  0.9309387464632446
  0.7332374255031630  0.6730572748546245  0.9858617206313077
  0.2065920067589088  0.7863434151114490  0.0628709117114858
  0.0809741880749424  0.9024308176799588  0.0014833199324655
  0.3864710391348920  0.2976028955652753  0.5123785030882853
  0.5603100912082614  0.2591444140665206 -0.0239663510430437
  0.5622433942094219  0.4875757332103040  0.0906945567453967
  0.3701221452072923  0.7639794117483106  0.2897734974548053
  0.5088878629700523  0.1992168650843614  0.7372921656533384
  0.5248116174469014  0.2724497416780014  0.6143602245399464
  0.4222449204515360  0.7178777274137610  0.3757155115860949
  0.6212790469820056  0.5652746663313795  0.3712452765203136
  0.3738706755194977  0.7949151085576923  0.3964294515206675
  0.7700051190747248  0.9442917640379842  0.6059443339485161
  0.3232495704278103  0.8257017370635914  0.3706768540072065
  0.5778765715746261  0.2125837594122234  0.9394881194158485
  0.3931780565079898  0.3323030100305522  0.6206856277279916
  0.9231691032172654  0.2284449839369737  0.4679229803354411
  0.5305476751030983  0.7635502945915776  0.4561111165559336
  0.8039487216155405  0.7798042840070994  0.9356247802634683
  0.8876353871582335  0.7169679279932967  0.9713038199448578
  0.4344769329926663  0.7724605296898557  0.5369484216176439
  0.4357378405157583  0.9182526019545297  0.4981212467372544
  0.7696432953756566  0.4292299594340475  0.8390051353842267
  0.9299405281625359  0.1360698901687131  0.3728526774734661
  0.3309632371680334  0.8994474305470112  0.2891002889454595
  0.2228332207675470  0.8861067893163781  0.3182895024279078
  0.6013969023305500  0.4057721823335818  0.7330776144180958
  0.8616786075484337  0.9943401922757178  0.5658149573699125
  0.2734573687970415  0.8544596714424124  0.3446888020271214
  0.4532279425087112  0.3244369529190013  0.6398689842982531
  0.5104564568702196  0.4572239575721050  0.0806288831578717
  0.3588130220504320  0.1176937475873620  0.6442264501719989
  0.4102699600382497  0.0825537576920559  0.1222867901621322
  0.8531543288912974  0.8646269988727431  0.5962603385516440
  0.4025918182206631  0.4389391632849446  0.1080978397622545
  0.6545722204912701  0.1602124848160960  0.9002587232772140
  0.7226767514173066  0.0580198808597280  0.0577849851444311
  0.4057880622387947  0.5009621087520275  0.0940521243176240
  0.5160229806724147  0.0698491853682124  0.8746516240059234
  0.5844675249616457  0.0171511753308962  0.8539309326394959
  0.5887749572533214  0.0528958701322833  0.9617938923846380
  0.5473373052961410  0.0011060652359198  0.9612549739194908
  0.4788239069197964  0.0587863135395398  0.9801322283393586
  0.7462350478328220  0.3047848014802314  0.4557232436627310
  0.7843242885595957  0.8034065001782236  0.8098177643609059
  0.8906570848752837  0.9348418570419266  0.6485655642132624
  0.4087743284271772  0.0600921889314016  0.4196884143391890
  0.8991656076475539  0.9218886472506543  0.7136723348083520
  0.4786939665874366  0.7325607069568183  0.4471097707193034
  0.6892008836293111  0.7731200664577234  0.5651004980223640
  0.7697382975355238  0.7799093701267305  0.6439242826972187
  0.4798302849760697  0.7942790361593725  0.4324528049850431
  0.7460027353188731  0.8449336946592872  0.6215115670362492
  0.3888766840038384  0.9208589366360126  0.3637109520246924
  0.7996844339313897  0.8773977277982948  0.6867634578185180
  0.3998382055554468  0.3925446441848561  0.0636677137771301
  0.5505214860292048  0.3130860369887248  0.0780748750138118
  0.9112261238382631  0.9001946757814354  0.6067264075907485
  0.4497590527134565  0.3620734000635015  0.0909483843748879
  0.3547845678831323  0.0432217460522361  0.1166188583190053
  0.3082083078635325  0.2213737615896624  0.9943438700897407
  0.9811007635545606  0.4542125204243654  0.1314172481728439
  0.0815870594782565  0.3572338096113931  0.0769577418063609
  0.2396940296751364  0.2969990879440118  0.0400408732493443
  0.0303243215009674  0.3734753344136711  0.1109349645789716
  0.2334717751396618  0.3308794881138686  0.1445369751737825
  0.1408126101400948  0.3961166083031674  0.0283823566130162
  0.2479167323668013  0.2408758066121117  0.5841313030726457
  0.4162425809523400  0.0779912099352636  0.5584262411977378
  0.2883955873025192  0.1710945667586819  0.6642664643346796
  0.4953750882561632  0.1270387799443581  0.8527153382026147
  0.4641195749537441  0.5484818725481134  0.4945236355221255
  0.7836659414366344  0.7104216671602831  0.9941569385419460
  0.5162704193340251  0.2854437650485643  0.5464544699517586
  0.4176104868200995  0.2469279334943722  0.5310032702971362
  0.4173919153428798  0.0094218371433344  0.6428903942635029
  0.4415457723593668  0.0535351761061570  0.6832685876743019
  0.4824332409155033  0.3270182490583340  0.9324944225620734
  0.4463287606138208  0.3166924791740857  0.0441617276495925
  0.5543993824956125  0.0845281767459228  0.7702827423174716
  0.3350812035977104  0.9819070545391908  0.4474888146705231
  0.7374447175239885  0.7185133454617432  0.4815859834431475
  0.8603151554114156  0.9048093406234976  0.8142987103096238
  0.7398341690825045  0.2159827424105115  0.8645215773740719
  0.0165210879492174  0.9285357696098718  0.5332456979397999
  0.6293429899287716  0.1660948532615034  0.0571590596639489
  0.7275523417879466  0.1443873289415373  0.9829500357037578
  0.6664294164576575  0.2678722843624469  0.8913230744124802
  0.4392143606161317  0.1864159110329070  0.5512248349266213
  0.2606701460953963  0.7326881714181018  0.1458468564156029
  0.2118541968561934  0.8091145121702031  0.1664819680909028
  0.3183766707034326  0.7934576303227613  0.2637464193892197
  0.1752675006184130  0.9316893950028912  0.2249954556377011
  0.1237069169062237  0.9474863291838833  0.2625761863843453
  0.7186510267465751  0.9798198350074286  0.1391066006343757
  0.1404826275861212  0.6423536725249608  0.0155973248227712
  0.2606275327507561  0.5880246514707015  0.0146241144700947
  0.7286924534270072  0.2272073262648865  0.8048049343317325
  0.6677224451491701  0.2341998310231253  0.7830555686992823
  0.9729719275307740  0.8885135286362242  0.5751523865484783
  0.0610230502278209  0.9416450235371474  0.5910427136205179
  0.9653338378657446  0.9517692862580520  0.5568514183685974
  0.2300453507056788  0.3354414789039216  0.3751425592118439
  0.1729229465062207  0.3054000060196295  0.3670380004208478
  0.2242082576308513  0.2910607627394100  0.3338006195969469
  0.0344916263330031  0.6007925563455678  0.9903499584042360
  0.0462032430756616  0.2685576278986078  0.0099758955613955
  0.5144068742833871  0.5661775909252909  0.1092862272651732
  0.4548282521766060 -0.0223926330225730  0.5503753767182127
  0.4666014012036916  0.0130887032699471  0.6016290409450146
  0.6033991893871903  0.0508302634070223  0.6205023349424861
  0.6935842453042900  0.2554957776566398  0.2727897008630478
  0.7515826112773097  0.1361185395591517  0.7148136671666195
  0.6422991327197943  0.1401063626763416  0.7334796245571604
  0.7134923749106896  0.1210590413330169  0.8172853053466720
  0.6917976854528480  0.1798306214601630  0.7991119267719961
  0.8128908456289006  0.1635682638806490  0.8395056701530196
  0.5897347543443380  0.2563116607451850  0.2376783950447034
  0.7745142781932113  0.2263154018944807  0.9824113030409832
  0.0501420008824601  0.2095562958120721  0.0200539385136697
  0.2084226682763871  0.1824925246411125  0.0793381501735386
  0.2892393332121047  0.2328691940974888  0.5509386360017733
  0.3611098836063092  0.6442127603511295  0.0861655598536952
  0.6756422663737701  0.6283037824671092  0.0267336989651148
  0.2959732596591774  0.4549381294138917  0.2394588316282044
  0.0039997614029538  0.2287492367637299  0.0485019395365717
  0.4186400628669412  0.5759149863184828  0.0152857005532906
  0.5638415777940772  0.5079968582865299  0.7591669167881773
  0.5273851806333213  0.4586759735887538  0.7551860716564603
  0.5377638534923793  0.4469343417381574  0.8156137641074428
  0.2467057752934409  0.6959712781662366  0.0390019147056572
  0.7276025839456788  0.4116700871130610  0.9394956249503257
  0.7359520016680088  0.6716944505506591  0.4364385162284902
  0.4310040604665397  0.0635125761777839  0.6207466710698536
  0.0674915675343188  0.9342293010453353  0.1925766525395030
  0.1845513144988544 -0.0105864766411645  0.2053782282257066
  0.8897766459220626  0.7692821713992665  0.6850157974776574
  0.8830917429126890  0.8142791030202859  0.7277722549244902
  0.7188324317069932 -0.0016575935153608  0.0755974393746059
  0.6654803327866605  0.0866217997518439  0.0345966029664718
  0.9300354467584100  0.8854964112866542  0.8960177588670543
  0.7465448117475973  0.6853706665679833  0.6018532823087742
  0.8659347827156535  0.7402319910990726  0.8497719821020592
  0.5873526078328596  0.2335848386746718  0.0739846982757836
  0.5009385125820655  0.3766167487691377  0.1584672185799164
  0.9534010077234366  0.7958122263212731  0.8107138402941129
  0.8328197142952025  0.8094435972082894  0.7700087973588567
  0.4525658175650812  0.4084161436761053  0.1346479200320476
  0.9423793588563115  0.8413356406385899  0.8559022454992264
  0.9174776364725961  0.7763283254580992  0.9155206962105586
  0.9966875087341160  0.8775454127321659  0.9234543125725915
  0.6713526273261075  0.5191131296837821  0.4585442271590993
  0.4590438133019861  0.5190687520795376  0.1615375452001786
  0.0601515251788534  0.8273559671686328  0.1622722134811887
  0.2133403662626662  0.7940145661617052  0.2264291933438331
  0.1673002414691188  0.8716309352180027  0.2447820453549433
  0.4078210225078473  0.5211986444904506  0.4849773539587166
  0.7919459313708499  0.7381190789364188  0.5503946504170191
  0.7311139946374990  0.5954814453362226  0.5148008032637812
  0.8114574369616099  0.3614472540461516  0.3341597341785814
  0.7674960204352523  0.4390122814282396  0.3476743911953801
  0.8230673984518420  0.4693748470981753  0.3572890817585546
  0.3995409816968312  0.3885433195420818  0.8919182288745410
  0.7779105896698539  0.5479344349630206  0.3740839448424125
  0.4484638306670655  0.4278578970574821  0.9574025993025150
  0.1848168688318489  1.0236257834988927  0.6137545306912300
  0.1337577450461890  0.0585756266106107  0.5192719638268072
  0.0766910869610826  0.1437756719516331  0.5897558458297520
  0.2835598032214798  0.0524863697135235  0.7412401341293361
  0.4822761422215599  0.8387954103897191  0.4785711127135495
  0.5864310535451884  0.8125076367007136  0.4055527044505183
  0.6127568079187102  0.7806430775692662  0.7027648782720201
  0.2999135743318127  0.1932913462200157  0.8321157305895465
  0.5382826643938514  0.8702670535700981  0.4889716869420340
  0.5904842740136520  0.8571899638148656  0.4535157178348471
  0.9913392478736877  0.1607040980766168  0.3711704390057391
  0.3708653584198492  0.3276686863076043  0.9542009467508081
  0.6130073295844237  0.4716889755349407  0.2823440233975194
  0.6604745429091289  0.4085745655256242  0.2052142231654328
  0.6861997016895772  0.1770959917110473  0.1264473149531891
  0.9114414056970026  0.8562509629359567  0.5606136797739549
  0.8032638012400733  0.3008407337623543  0.3540895366371736
  0.6872295408566476  0.4598016802163346  0.6973719046836544
  0.0634659753162824  0.9078754781786146  0.0869193255883784
  0.8812235476816294  0.4369688035128367  0.9865035089915564
  0.4823625395707532  0.8770280446763238  0.3551177179646024
  0.4273539076126702  0.4503464917806119  0.8341720559949053
  0.3778862888039035  0.4452144301617649  0.8745195846404714
  0.9855684988922071  0.1148517589551538  0.3326775541626448
  0.4560693918350062  0.4418312033949206  0.0108573770251963
  0.9473739346010376  0.1792324714157067  0.3323383752607404
  0.1467334316556318  0.2456695260413227  0.6074916489844583
  0.1859815713955197  0.1428004136956621  0.5725243892036652
  0.9020828153798496  0.2562049011642363  0.3484737994769979
  0.8767401597086443  0.6608386494220344  0.7035654093995941
  1.0020782358580047  0.1786485566947038  0.2362741070912472
  0.4937818206235794  0.5615476546824383  0.7812427935312807
  0.7986691606502885  0.2395827233911562  0.1427043554472250
  0.6744330322414769  0.8062480704381821  0.8294615270211270
  0.7042746784095085  0.2972735475463527  0.0854598583337780
  0.7126325939478135  0.3931485654146768  0.1707715917985134
  0.8692462267731496  0.8905062246567841 -0.0077679779110688
  0.4115154992248161  0.4669838792790161  0.4982972764320167
  0.6635877016280971  0.4558130935611686  0.2496959679165001
  0.4730621895013679  0.5537808110414663  0.5511918522365933
  0.1561958560274138  0.7477296618127872  0.0542285172265467
  0.1558690389367962  0.7933299920195086  0.0979465385959302
  0.5767987497052474  0.6324233155867798  0.9415059194865919
  0.3530491091299659  0.5012783666835998  0.1862023680943132
  0.6916564635286664  0.2234606878645178  0.1684546301619932
  0.9944985126354556  0.7181973126274811  1.0075602131435912
  0.5527361163807853  0.3788000130292442  0.2930512771498411
  0.6054613536751234  0.3777617819509348  0.1955198329868986
  0.5381096795115420  0.3901819863410612  0.5301758565419797
  0.5597830919823975  0.4554476567720294  0.2131719392025943
  0.4065663679299306  0.5180627270032472  0.2571737808700678
  0.6505711749007498  0.4105651842480004  0.6929753645027033
  0.4624068677969316  0.5648529164957402  0.2036352184396832
  0.0552921867729666  0.7837263917739410  0.1206730215579809
  0.6383020981391148  0.4549096768387815  0.7362491239192718
  0.4149729095980453  0.6262205655350621  0.2843818550160763
  0.6857974864124897  0.4930405747529492  0.8008764973555700
  0.7471550857665590  0.4870680935624075  0.8210815601154072
  0.3120168817110147  0.6866065758593366  0.2320504957543097
  0.4184421057278974  0.6876746052527040  0.2697545418282866
  0.7629021378805410  0.5786021326967338  0.9011453310589442
  0.8323906609308093  0.5591931387719478  0.9878792229620664
  0.8227253473649779  0.6177188789029937  0.9708473730612449
  0.8414153531013603  0.6771921541898771  0.9106687977926026
  0.6835216627409957  0.6065745460026776  0.5492958222398260
  0.3595142582077412  0.6099473532800931  0.2140981382609455
  0.0237695268259228  1.0101420730775306  0.2112868315861793
  0.9326288604317317  0.4500754019980714  0.4556419701520487
  0.0959110918374185  0.9734881282809602  0.6543120267123665
  0.5418302955218954  0.9327549432554212  0.4751170224941542
  0.9111771490628199  0.3505469832579797  0.4389201768360069
  0.9687004163855019  0.3876717220578386  0.4528403354763003
  0.8710938456831108  0.4192495757784780  0.4417642110532044
  1.0123945680559512  0.4052979703808531  0.5109424297730044
  0.6750893830204530  0.5790654563280575  0.4432819765147119
  0.7865679419832230  0.6420722732463695  0.4613672112500866
  0.6796029257453756  0.9246734314722582  0.7528854574684273
  0.6681732739552378  0.9706198558594789  0.7960945501827584
  0.7288859525864811  0.9632969553062645  0.8154898227958974
  0.5611991419176225  0.5032264035738826  0.0318776993307449
  0.4296364378816766  0.8084689923114221  0.4729229521029095
  0.4482171145705075  0.8475814686601687  0.9778879559698127
  0.4773523694046332  0.6571381136008079  0.5681407877201045
  0.5427777188661023  0.8013863662003230  0.6218563289774867
  0.3956719759872276  0.7421598409624689  0.0250980777620335
  0.5413805745402105  0.9163489828654621  0.5354400735505548
  0.8335074042418927  0.5481276252612138  0.5076998603519355
  0.6145980167748424  0.4864528777828081  0.2222557404339987
  0.4766536300929852  0.7666883532893234  0.3238053028226435
  0.6746345696489910  0.5801097297939799  0.2151140414306978
  0.5902169910167320  0.8824111654015169  0.5630507327035652
  0.5701074751996829  0.6109900457402210  0.7778368024099097
  0.4616884204858601  0.8622508640568757  0.5803914053534008
  0.8335754857200511  0.8425767061019258  0.8753682283288757
  0.3024902427759780  0.0747240146787553  0.0904328076476805
  0.4107481256944600  0.1566261742964624  0.7103131202584534
  0.4590597501303397  0.1604346142871583  0.6698972353944199
  0.5171716153266266  0.5807524272959178  0.2746299902265541
  0.4692953858312200  0.6581202183657674  0.2936913170146269
  0.5187538000488120  0.1859924319056825  0.8003427653498100
  0.4439189733087691  0.3370353726373238  0.5784307828845218
  0.8613373011067408  0.9308779716579226  0.5827470303158679
  0.8539785126131109  0.8841604189312360  0.6466519718805067
  0.6323264952428715  0.7026293956237314  0.5048355250868397
  0.5960054554616587  0.6397847955303066  0.6161322010937216
  0.6241573060245061  0.5940670545136716  0.4777690977302123
  0.6457549928434638  0.6780468777477362  0.6809043531442388
  0.6567717497367912  0.6649727271789871  0.7408865378244615
  0.6952670691524401  0.7154383346378500  0.7447051482219976
  0.6224384960520258  0.5178700156541978  0.5569610507127174
  0.6893467080818174  0.5802582264763665  0.6210628750077705
  0.2304715189609982  0.9264951212258731  0.1214300051935274
  0.5881573592008377  1.0020230764295410  0.6479070639123586
  0.6599746077080652  0.9455676929918380  0.6264937762472063
  0.6228305518427920  0.8995013432910968  0.6264427980034343
  0.4781511993826737  0.0030750533254299  0.6671196356652919
  0.2344469567330504  0.0796340158904572  0.8871720044043623
  0.6080798969363980  0.6603078452168664  0.7808533369829237
  0.6576195009854715  0.6993207305144399  0.8460781154753331
  0.2601988426368419  0.1772348891777989  0.9305323809251194
  0.4137417148208646  0.2203379720500027  0.0065560100637932
  0.1858423444458247  0.0431822832946628  0.8223236114347950
  0.4432321122152068  0.4899165061977467  0.6109627654453151
  0.6465030483905582  0.7106656733046027  0.7834865998204013
  0.5153851454483682  0.7379017192598082  0.6801362607314563
  0.4039769115056854  0.3204433211453527  0.6819860228244117
  0.2174692318740168  0.2230116628064739  0.6882790995499725
  0.4151363630932871  0.3091327574195025  0.7439366895413639
  0.3515984754089722  0.3496133537789076  0.8274544351906546
  0.2599553424875451  0.7959089982050220  0.0274921248417575
  0.4523869096084436  0.3579470474367203  0.7465895021907973
  0.2092985559461520  0.8271119183048063  0.1034368935938520
  0.5004677860876562  0.3968151948205909  0.8111836068345227
  0.2257655044024010  0.8792855812607115  0.0701279855951208
  0.6092468649340892  0.4269099376409449  0.8972746486335866
  0.5383121550733350  0.4801882012073428  0.9216550130733605
  0.1764449604638568  0.9460064521049225  0.1614523714916774
  0.3004513275080289  0.1598030796235102  0.7273663015901397
  0.1043915786778900  0.0746141675512075  0.6738513313370113
  0.9957745140951189  0.2030186887393275  0.4110735304727407
  0.2726108121475233  0.1308609465214454  0.8913002590556710
  0.6805862725857759  0.6399910192886036  0.8655308969112470
  0.2144992051753926  0.1369940081503492  0.8683549454803812
  0.1534318323384405  0.1119131865654441  0.7397644824662146
  0.5855350866006588  0.7516260219350419  0.8653178142814156
  0.6077568747847492  0.6962868435591699  0.8865341589222515
  0.6458592636225624  0.7442106279603615  0.8886990806408355
  0.5239475713249973  0.6886544040136440  0.3038462993705850
  0.7109779860180856  0.7278551530591651  0.9733779073967531
  0.4302182115408759  0.8412982987895116  0.3453827981782386
  0.2450651771663072  0.0708062606999868  0.9533544985495215
  0.4286321348226345  0.8598571793298508  0.2854467422250214
  0.3949721165618458  0.4859085532157034  0.6514814336900095
  0.5152481743086548  0.5045915523531532  0.7982395984313939
  0.4819095206316694  0.5737705641545092  0.7192272648796666
  0.9878243901728526  0.0245486144620525  0.1617509349610727
  0.5321026644246108  0.5942828923558556  0.8823108638168997
  0.6849630506045709  0.7614910990739919  0.7873880236014646
  0.8981669765097010  0.2096851401686983  0.3060870652508758
  0.8528589350387921  0.2848419504135524  0.3205118014566135
  0.2964218844688096  0.0757844843074253  0.9107766519482310
  0.3502064473737490  0.7655902431752736  0.0612594863798863
  0.5317196956821937  0.8447610683453334  0.6638123464633122
  0.7766886686583859  0.5329833983319231  0.4370267196262887
  0.2543172078612541  0.7517026281997047  0.0808482436959561
  0.8643503010017706  0.3742242555156737  0.4069443079958076
  0.4816107641385977  0.1024365679688621  0.6874302768172452
  0.5820802639253256  0.1470028893965103  0.7131540231523233
  0.6192172164656332  0.4166752204713751  0.9566093502682828
  0.3428462269073094  0.0240199669920204  0.5561746361944102
  0.6752990390283129  0.5396494608762428  0.8438990207659890
  0.3057898280473861  0.6307265975553189  0.0218219829111818
  0.6253761494964969  0.0330483137448942  0.7508138915684633
  0.6148461088552583  0.0776618518270984  0.7933690776830961
  0.6360766538519848  0.1003015143760181  0.9730350111682053
  0.0906324890525287  0.5184926767246419  0.3782675604011946
  0.1443981788720485  0.5356671686168870  0.4496350394628825
  0.1372421139099886  0.4417296388156455  0.3602191772212556
  0.2493025422855652  0.0610767341808568  0.0173101164845188
  0.4694701401785543  0.1025405170658007  0.1377002059716228
  0.4243093909546927  0.1824096503044192  0.1549121772102587
  0.9875347100987469  0.5500812316760133  0.4462540873065210
  0.0955909962433805  0.5942577687963418  0.0723946988546538
  0.1406746514464424  0.4996095258305126  0.1158707583257303
  0.3175265888915128  0.1706407505143038  0.4076237436040023
  0.0815143018094296  0.3935306522753114  0.1861348721420275
  0.3349058666061868  0.3347709302515626  0.4101912585896147
  0.1119544820582317  0.4365944252042355  0.0081314579722370
  0.1215898234471686  0.2834888720607310  0.0733938376195123
  0.6625163510803976  0.8181868609554488  0.7695642719740109
  0.2533422168192844  0.0915066935583037  0.1270154093012031
  0.1086472487706422  0.1942566884176643  0.2120862461416412
  0.0616672653906481  0.2574451389887917  0.2894721673196439
  0.3606702825338931  0.6065387611730280  0.0399216895601319
  0.2121326981976396  0.6867158109150229  0.4258773213928063
  0.2068735988750527  0.1995140870885375  0.0159752577079613
  0.2161663416134642  0.2113990700716885  0.1859598018067222
  0.2707466907799754  0.2280914206432836  0.2562198027194916
  0.0396763633399644  0.5138728127168218  0.0237350145217058
  0.5113918403205755  0.4537977129038944  0.5316347276807736
  0.4830805874685165  0.2500338169780075  0.4915409100319567
  0.4828243713209766  0.2609836119150979  0.4310508288725021
  0.5349112997846432  0.2382772154424142  0.5118693768757943
  0.0375449051199844  0.5172793795803350  0.2468296344597307
  0.4012988537846170  0.4238364358245369  0.3947732110826125
  0.1385968298034577  0.4556196718957426  0.2988977787236735
  0.3741075189673401  0.2168273883321405  0.3529200531690395