Cr  N Ni 
 1.0000000000000000
    21.1326370199527886    0.0000000000000000    0.0000000000000000
     0.0000000000000000   21.1326370199527886    0.0000000000000000
     0.0000000000000000    0.0000000000000000   21.1326370199527886
 Cr  N   Ni 
 259 173 605
Direct
  0.4951670226139703  0.4161552343825776  0.5820393922318878
  0.7518243993445420  0.2493943207841839  0.3359382676428587
  0.6620815734297578  0.8320194908075836  0.1639692402100743
  0.9156236007236498  0.1654760578356285  0.2486359084827459
  0.8331649647001602  0.2457177765604344  0.5783523119225359
  0.3196139795013126  0.0022547771371833  0.6651169882708229
  0.8347023338971814  0.8299307218988805  0.3340406387594853
  0.8321133592956980  0.8239565363499812  0.6637422772736724
  0.6688972823810193  0.7497014292513915  0.9158376862051204
  0.4218959669932885  0.9971391936664523  0.0737711947442625
  0.4140420496416111  0.9166641127059756  0.3429902926522258
  0.3368321117264741  0.9958541660770945  0.9912834655873598
  0.9949227891206134  0.0033726866973793  0.1670325155145319
  0.8314705678669330  0.2457187853174417  0.7498669976238245
  0.6639940375474168  0.1603633595019874  0.3360919482909329
  0.8399642345471087  0.2473482669626306  0.9210102791613476
  0.8354089442458126  0.5057204372924978  0.1694947089527644
  0.6662055908759377  0.5001251572286551  0.3326521577817412
  0.5818713943360696  0.1607896863024562  0.4154383648421973
  0.1620679617205735  0.8329639706597434  0.0086914140919513
  0.6605913701851940  0.9171135662753088  0.0746486979562233
  0.8370561473274666  0.3284856060172042  0.1695620667082103
  0.4149546698748238  0.1660271908806346  0.5822080670093319
  0.3259505433414487  0.9950028208557905  0.1691516605064773
  0.5795890335196705  0.5956762579576249  0.0008829925790006
  0.7420169782779923  0.8300955569207216  0.0735374232944102
  0.7474623880892518  0.6676885260089644  0.4179353623862820
  0.6671044613705489  0.4182519925942094  0.9152311974327392
  0.7523711368339779  0.4910953411584743  0.4174726505209347
  0.8394940462381832  0.4179042676944271  0.0788121553046054
  0.4949568233538323  0.1643757783279983  0.5002697878333807
  0.1645895761248992  0.5774079840188794  0.7501414529539605
  0.4911949386994279  0.4995647696522853  0.3400300540555850
  0.7451716331149713  0.8341149930678383  0.2478659712731281
  0.7368134190113147  0.4162687279231440  0.5022184978403711
  0.8330834323590907  0.0062849065494147  0.3308024205184966
  0.7548181453534937  0.5059293921652147  0.9155000539730201
  0.7473762357420458  0.7569656918676998  0.5009246305067440
  0.7466919337661582  0.7511291363197602  0.3373914396226423
  0.8295166754709709  0.9219338915785692  0.7596693343093969
  0.5827664195986686  0.7532223268550292  0.8301419458503470
  0.8247619855649622  0.7537075432092741  0.9179477769106260
  0.1689049567155334  0.0010859321945308  0.6672354190750367
  0.2410012033318465  0.4990790329026664  0.0774986520300638
  0.8305807498923189  0.3318908883198027  0.4945915742922020
  0.3370561894729587  0.1696106236082573  0.3304515318850460
  0.1578633468303874  0.8343636469566093  0.6640767054379211
  0.3301079904747635  0.0866586490094333  0.0754238624023769
  0.7493181220619806  0.9155811137777233  0.6678761551402085
  0.7458361188971196  0.5829479995922290  0.5032134391510146
  0.8339330451887781  0.0038024956230508  0.5006608477328982
  0.7472300930175998  0.6595540671716282  0.2463670978532052
  0.1651387770274741  0.5781895986134777  0.9266805978922548
  0.7443278475471983  0.6697712961517577  0.5920845667326775
  0.8368228891636547  0.9146763673282389  0.5849265401833483
  0.7460168565778444  0.9246065567077181  0.1668997553216380
  0.7439612835189804  0.8325549525074165  0.7572664261267817
  0.0724698954871141  0.5876326289286153  0.3290533123541514
  0.2493760094199073  0.5786253854977129  0.8377013980670486
  0.8236357167904078  0.4172343325604939  0.5841315300126972
  0.0848430763804097  0.5848950367359674  0.6600306356208597
  0.9930919162199153  0.7450099231851646  0.5807814022346126
  0.4046988951340546  0.9186270092702581  0.6683128480207369
  0.3319621392447605  0.0799094541600764  0.2491870813691051
  0.4107863117886251  0.1677127977119605  0.9230660188628436
  0.8324928527049609  0.3359504503596370  0.8373050249993462
  0.4109594651469312  0.3322518851193026  0.2505105978660129
  0.1618274453926878  0.8323115342607342  0.8355916692324441
  0.7444150921339338  0.5068399233314984  0.0777436695418408
  0.2482033600576586  0.0827478316842395  0.3300893229726081
  0.9093588560305171  0.4154281442488581  0.4947446533238509
  0.9126353886290537  0.5850500851688971  0.5023638751877546
  0.2437190136198700  0.7492464149591940  0.4965960728368337
  0.2472534638271221  0.4984284313319037  0.7494138439976017
  0.0805935377924932  0.4125850791311935  0.3316698815003193
  0.1533519174016119  0.4148156282597573  0.7517974631081589
  0.9106115892195903  0.5812857971144132  0.3292283777382966
  0.3317848943291050  0.6641282097837310  0.4959203203145973
  0.5078122270126842  0.0823539489601632  0.0788567135259857
  0.8269329719437164  0.3393785868059171  0.6613973665180554
  0.0733887269361477  0.5830377645053446  0.8374149800869740
  0.0771149306264402  0.4918658952770680  0.9162541663737857
  0.8294452863119787  0.6719029144132406  0.6673025001748654
  0.1583669621359324  0.8349833553730466  0.4938670204810924
  0.1620000391087861  0.0845723093497366  0.2492302919431758
  0.0108747598931216  0.7409863263590841  0.2563196848607747
  0.1622428934606895  0.9976962176314269  0.0017900031628998
  0.9161266698158369  0.6647083006017035  0.9219801299848529
  0.8298107889936351  0.6674201917259677  0.0042469925561338
  0.9981031019072066  0.4124571238960948  0.7542450007756514
  0.7442032454914846  0.7441644622591048  0.1597683035392399
  0.0001611490521344  0.7488562477496739  0.9228960444160775
  0.9179068449050393  0.7475139929640093  0.1639525598746802
  0.7411664970766961  0.5832335513444794  0.6750497054741662
  0.8341876573281499  0.7502849420304203  0.2509244888702079
  0.2499349240642408  0.6719627593262905  0.7472406014479496
  0.4896608870398078  0.5076247579506935  0.1630054831435077
  0.7506544249411992  0.3321052860139659  0.9172250968016252
  0.4954889607236547  0.5011131837374817  0.9976524204211470
  0.5762093734083540  0.3309697959489661  0.9205047568014862
  0.3277997600966458  0.7483207394582149  0.2388517693532477
  0.1564319329479723  0.6723712311519190  0.3270579132564675
  0.5822170747391273  0.4148507753593185  0.8255806334566417
  0.5784143665033450  0.5034957232022940  0.0830415599465437
  0.5772027601888646  0.1666206957294581  0.2400508784226204
  0.6692084767336866  0.5052115037302943  0.0021731626042336
  0.3299710149422541  0.5813674076484604  0.9246624886608221
  0.7463358922157629  0.1568309233804180  0.9181829917899880
  0.7437472535341595  0.9253597055173644  0.3329902270731676
  0.5077347159593014  0.6684016568579344  0.6664789810238883
  0.3359973176942343  0.4953714383380625  0.3342981650748538
  0.3311937037004371  0.5002498192470932  0.1695788646335044
  0.4152935031958805  0.3334303702687509  0.7488811548820936
  0.9126726704319356  0.7530179517191899  0.3383364150600825
  0.6608880467681358  0.2508140444892648  0.2457560915156675
  0.5813880080522749  0.5040773174168849  0.2533010781809736
  0.4907510406022676  0.4182738149118129  0.2532651606395724
  0.4209472011628004  0.7503452490932515  0.4935954458004846
  0.3394557156070359  0.6707505738350104  0.8363767594079485
  0.4171599602849704  0.6641137026455292  0.5806993725415122
  0.1623288625069940  0.6637810862319367  0.6577191525068236
  0.3368215821422205  0.7568314067075068  0.9167343955228657
  0.5030035249255497  0.2527013899309885  0.5849897580906263
  0.4161055628416036  0.5740621932603774  0.6661781774176739
  0.4124883248560505  0.0014324574496772  0.2521385642024112
  0.5777200408934122  0.5008443723333189  0.4270758585234489
  0.3328339681912396  0.8392430435100902  0.4964331080388120
  0.4147209284462825  0.1602366169422763  0.7494181428443299
  0.2550672601729861  0.8331918924031121  0.9175877511272027
  0.7448361397707481  0.2485715832510612  0.8265834971820473
  0.6640604585307736  0.0006456481875807  0.6691500144178048
  0.5002077191605891  0.9162894210744768  0.9135681876945523
  0.8344478678028208  0.0757268583494600  0.0837519929812409
  0.4954205955447315  0.7534388515683343  0.9175998289851184
  0.7528154209681787  0.1584499648617551  0.2479042158845618
  0.4191974654683924  0.0900726067693826  0.1653794104272188
  0.4091492186797384  0.3346436956097925  0.4176062171256103
  0.4891928939530281  0.1683361493875142  0.3287051628158104
  0.7488637420117716  0.9959928416228998  0.7628104784808749
  0.4161228293442678  0.8247170134053290  0.0826089825627098
  0.7469304722552481  0.2443164400731923  0.1613481416624188
  0.5850709303060566  0.1571104821442808  0.9158183785041151
  0.2498812721669111  0.8343504650030974  0.7547991325801182
  0.1667411147040730  0.3315558803481272  0.4994824393668846
  0.5876504704020433  0.1681402537842473  0.5875151900117755
  0.5028467687664059  0.4189515831541015  0.7482846454107834
  0.8306557197858141  0.1676716777046640  0.6678234187327173
  0.5795736767782095  0.9145081806535998  0.6701152646611133
  0.5762872519637370  0.0895356413599295  0.6676079526297171
  0.3289004659326588  0.2537793917779050  0.5815183827851753
  0.5838944267763729  0.3286000906996084  0.2454685475077000
  0.5816598287863658  0.9967951066350725  0.4129489224199076
  0.5051804322455374  0.1630308805063286  0.8311967651316148
  0.7477940866841020  0.0907354610327872  0.6680816414020699
  0.3266662499641050  0.2443372470797981  0.7482504396080406
  0.7427025750543375  0.0798830932661246  0.9957271947347218
  0.4941018639830485  0.4185887453113597  0.0769234944768361
  0.3284699158098773  0.3384149599728686  0.8406538933059293
  0.1640498021867049  0.5033770886490637  0.4972226196550662
  0.5783813302452795  0.8350292935766482  0.4204126247676224
  0.5034004650619821  0.8268007077175280  0.6705595754126777
  0.2430739054409625  0.7574501835539077  0.3302041598016303
  0.4130736449827704  0.8398158528838648  0.5798528577703573
  0.3268829890328590  0.4087317571266005  0.0808328244625137
  0.3284633336653445  0.4201800772770423  0.7485244146975226
  0.4936509577922216  0.9111509579677578  0.5777175364926448
  0.5820724633257566  0.4984779402114183  0.7403614930151853
  0.4145124168845357  0.5758253725837214  0.4940736765994411
  0.4968952314215102  0.3305054783026329  0.1585637445152092
  0.6648541563030552  0.2436699778042814  0.9177851990895481
  0.7472833807533675  0.3282802693571856  0.0777319763183663
  0.5856438227485240  0.4141357127942266  0.1609728111709386
  0.3384974006850098  0.5807958845314879  0.7500386486839475
  0.7413320255313778  0.4182885175285009  0.1712841303692707
  0.5809327788121204  0.5048716674092398  0.9126014122122214
  0.7443615777097827  0.2443754721810571  0.4998961269466433
  0.5785361803739323  0.5912272629709265  0.8357169562601285
  0.6674301138871538  0.4166763155032788  0.5868587020192115
  0.5817445090146743  0.7414984152701092  0.1649954765474558
  0.5790745550929851  0.5851542669899581  0.6624505521905042
  0.4991118137318396  0.9145310673578136  0.2508749336408588
  0.2482463366255863  0.5832205993881013  0.3286679010630238
  0.4903066803057083  0.8311065865635545  0.1663838959675860
  0.4163800964453310  0.5072266407139258  0.7507573231671379
  0.5754215731732646  0.7535811565809403  0.4973728550987430
  0.4909066347863659  0.0023490947881001  0.6655208663534932
  0.4136721583465619  0.7463104152627049  0.6688291659048742
  0.3320832230916651  0.6704864811665915  0.0123886687336212
  0.4150267692184614  0.9107844573737239  0.1666559239774387
  0.3234186108606779  0.9154909935810875  0.2464489484311403
  0.5728697073574665  0.9168988687276011  0.1643290837279816
  0.7436157476042158  0.1596669873995055  0.0727864708109685
  0.4176741431668958  0.5034317768280366  0.0818584840429958
  0.9869288894275984  0.0839325632476859  0.4161333842809882
  0.2446331172209658  0.4953976994400500  0.2486149078609567
  0.3247405116574965  0.4978076129065392  0.9942198554772140
  0.5058618531931254  0.0017743651418164  0.1626650280629111
  0.9184798728989807  0.8322033248989943  0.7520136235723351
  0.9946496794918113  0.4189980473221817  0.0805718045829769
  0.0779688300208589  0.3296286950918583  0.0832245225068541
  0.4112110760839394  0.3394015554614154  0.0802071905279318
  0.0761331455992930  0.9133538409422388  0.6698287530599708
  0.0766321941797854  0.2438233194418477  0.1708345862878197
  0.1647104317093715  0.0846114229260850  0.4222353364356349
  0.3367697640292919  0.0798903841424935  0.4219860090869729
  0.9968020063521752  0.4166063008890903  0.5783838176303110
  0.9970473267815434  0.3231408504874115  0.6655489113889574
  0.0866956591827887  0.4105889271196320  0.6646815642898350
  0.1608642341818324  0.9967560769002431  0.8322869925657727
  0.4127474629439354  0.3428370607338127  0.5812991483194399
  0.2412691864834256  0.3340573640930442  0.2480791388851545
  0.2535942226139170  0.9991172550364251  0.5806440474966467
  0.0848403924203003  0.4162152555465766  0.1697612872246128
  0.3354485572731130  0.9915264212080944  0.8358205700425548
  0.1649779493608990  0.9947002472871439  0.1689741681659658
  0.2494122864076644  0.0892707233650457  0.9988954968003798
  0.1632720195087070  0.4973833771925704  0.3326227643198814
  0.9908640905698625  0.0000591655577291  0.3283848331583896
  0.0791528135629554  0.5775884526008204  0.4981605234903588
  0.9955606709317329  0.5833074012224922  0.0839916603529717
  0.2424321001557337  0.1676288806510064  0.5852704642122589
  0.0810136205921093  0.9119432312228813  0.0061310767152411
  0.8395861774310698  0.9986839367527977  0.6665588564897208
  0.8433471550697675  0.4173563133224201  0.9165297656616174
  0.0746455879453234  0.2435520544378413  0.9987949024323838
  0.2509085201327496  0.1694266991651198  0.4195572981708151
  0.9881877905687392  0.9979555072050490  0.0006967645865763
  0.9101600298440529  0.8394096024290829  0.9186138379355895
  0.0767188012467169  0.1768769003953100  0.5855837905607308
  0.2460264711914120  0.0829138818832856  0.8309358130098508
  0.0778181226864759  0.0039242875066638  0.5789068062751441
  0.0766116388428178  0.1726433180343113  0.4128875636641281
  0.0747196156336235  0.0894332383368950  0.6717248265126240
  0.0770939659492512  0.3343227417828225  0.9109047670395948
  0.9869644905794882  0.0001023735245038  0.8337916564764063
  0.8282444396344770  0.6662551090319756  0.8300358474801582
  0.0834499480439519  0.8313035974969467  0.5789480174433356
  0.9857402797590659  0.5863656048552035  0.7515594652591894
  0.9939414526637917  0.5848478168201408  0.5730821642189013
  0.2373320671480268  0.3277610862467152  0.7482800297886174
  0.9895322669633969  0.9178798996444492  0.5811851370449465
  0.8353280020041283  0.9172040612637610  0.0769028422969016
  0.0804687147426629  0.4938924601248563  0.7527697468503546
  0.1544812669257675  0.1711769179779355  0.8318142089966801
  0.1609746403608899  0.1722980656336488  0.3311264794404457
  0.9946604275568283  0.4987691200890561  0.6636068037979658
  0.0718650558249798  0.0827708836403977  0.3261367190611029
  0.0806805865401678  0.9937783727866977  0.4156307917707490
  0.0727194968395347  0.6729563046143926  0.7510157964174510
  0.0727401024845524  0.0863125306594065  0.9992372877997602
  0.9996926985066554  0.7487356808241424  0.0811161716252412
  0.0740913584627107  0.6674388373293646  0.9258826109928177
  0.9943797614227552  0.3278014763028143  0.4964719603005576
  0.1646449232705001  0.1712728567734496  0.1589916371855563
  0.1628036136133791  0.6745047716471066  0.8349367434062533
  0.0768280830388752  0.6723418080930276  0.4056493381814508
  0.9960423642380106  0.5106907752641011  0.1675961621757257
  0.8353641148740760  0.1646968029549300  0.9926117100638702
  0.3277708403282492  0.1649019829586014  0.8357574727095469
  0.7440528678739516  0.8269325285079920  0.6688811653732823
  0.5799552557735665  0.5074975344313439  0.1673909238735591
  0.7580651342552192  0.4191407093103940  0.9111484532726386
  0.7508638191291346  0.8336860224222593  0.1599884802082256
  0.8283599567495191  0.2542583584276609  0.6623071623183769
  0.0734971868055626  0.4985360626962988  0.3306656090481557
  0.0749280339364487  0.0930561536989891  0.5847935157651218
  0.8304251685654218  0.0762362151047774  0.9959470264232031
  0.0837376972213485  0.3291318682765143  0.1734468679106993
  0.2499890067568440  0.0020706646482335  0.9993481714458380
  0.0795095550417042  0.2464993469445667  0.9096556994199887
  0.8366704226808324  0.3297912143983723  0.0803887728295351
  0.6579110648138942  0.9226615459369665  0.1653497141699374
  0.5753605493781607  0.4171508493123742  0.9137237148114009
  0.8381587338338251  0.0841047443869548  0.6708362557695088
  0.9881501858589313  0.4989580700523990  0.7550143173703630
  0.0800906940834330  0.7449668871765999  0.5827526741936382
  0.2440633227675460  0.8382726103159135  0.4961432732301431
  0.2485756704822522  0.9927758489582351  0.8297484365453708
  0.7526676149244609  0.2495473502891760  0.2492438987648340
  0.5764452781795061  0.8313371180912189  0.3353037735129194
  0.9944655860484265  0.5880567994228921  0.6598818671049466
  0.1602800702981359  0.6691751020256528  0.7430243721554894
  0.6639499503324613  0.2513204696345001  0.3356785235008941
  0.4136694206284032  0.8321964991871407  0.6725217393192013
  0.3390337066575764  0.0799199624475967  0.3360004998298293
  0.0639199653444240  0.6835759269953222  0.3125119553393871
  0.5767659579167161  0.0032748375943397  0.6721345312626681
  0.7525479860353785  0.0038674239930642  0.6756052432761136
  0.0079733327116728  0.7456270393625289  0.1677621712756807
  0.5758643454896094  0.8289581134061628  0.1606820261420602
  0.4947941178664322  0.4185813174371684  0.1630659308343182
  0.3374551140952973  0.6699821093738962  0.9274166412941327
  0.0812146310305928  0.3283888658453409  0.4961192401745507
  0.6649885873479809  0.4957991991608213  0.4220709106656002
  0.3293649384484534  0.4979155982505817  0.0821150151553120
  0.3380283591179791  0.5807699084021130  0.3304954526761421
  0.1667142992586403  0.8362393077517850  0.9221412598892756
  0.7462794681202837  0.8394447822214872  0.3376135336365870
  0.5823455973742611  0.5078798519223175  0.9989342116505620
  0.5831664482155718  0.4147014028486892  0.2513090523170081
  0.4172338980594674  0.2563798811634297  0.5796216068411388
  0.4901207081759805  0.5084137358467347  0.2534146499811603
  0.4154345842724926  0.7526892217708782  0.5813866591369178
  0.8351137782391054  0.2442314977341981  0.8356781930027856
  0.4216323456440848  0.0873910840959560  0.0748031938841313
  0.9975500338842538  0.3229344004677400  0.7540363064731804
  0.3325540817982347  0.7523378720902614  0.4959672585506158
  0.1578656111800895  0.8384172420599806  0.7499893372116392
  0.5021828790730778  0.1618097856626041  0.5913884896379419
  0.0748450123809890  0.0832179624198241  0.4164668642604887
  0.3331748955920324  0.7551334332484985  0.3237722618667472
  0.1553929012633106  0.0844171153429541  0.8267422188648262
  0.7481661478158078  0.5078093489487356  0.1692363014162301
  0.0716648027858140  0.9952209513327398  0.8353378809806592
  0.9962961227488741  0.4089337097684931  0.6660200665168537
  0.4975612400533215  0.3268545912593481  0.2473597330065853
  0.0829687550848650  0.4192307601291356  0.0819140129833072
  0.2519500418285308  0.5838630536627529  0.7413044693163727
  0.4218882243528890  0.6590023854477849  0.6704547703026436
  0.2522835352652689  0.8321558774815427  0.0063921279729318
  0.4955927912435124  0.3347789334929678  0.4184247353054681
  0.2510531578081677  0.6698155222353476  0.8369103681606782
  0.8337496559332038  0.5067976967076688  0.0809457157521670
  0.3302060035951291  0.0893774557096102  0.1631440027411577
  0.3384755084117397  0.6719874419323556  0.7475722046081746
  0.8334639048368607  0.9147726534110718  0.5007904187468217
  0.1606463142673784  0.0781931753823797  0.3350327999485150
  0.8269824906181465  0.6646507184653769  0.9170169087312711
  0.6635685243852216  0.3308138981491153  0.9184552081420471
  0.5822439071014326  0.5029051638883502  0.8253394502416527
  0.0775201876740447  0.9177667519019993  0.5802369766096037
  0.4226277541278236  0.6617851234088901  0.4906469956111029
  0.2454309687907272  0.6599959146588232  0.4979056510076653
  0.8313836536122130  0.4172992975903713  0.1715879216160326
  0.7530151850702611  0.2429343630625884  0.9173027203310069
  0.5021137662079191  0.0025070945914043  0.2530050696076120
  0.6603836430675222  0.7528968552791174  0.5025914487905550
  0.3356098495064390  0.0766793872251307  0.8308577122004767
  0.5048345575314594  0.3327977312226492  0.7512948109406111
  0.8321321879062220  0.2429819061065057  0.4905292124167566
  0.8340062586336000  0.9206881547723309  0.3324105680715537
  0.5823062675888360  0.7541072435635972  0.9173194542139796
  0.2413609452654328  0.2544741322751522  0.5806038884216270
  0.5816994666698929  0.4159101196466891  0.5815329737931023
  0.4158544519689692  0.4228315449922637  0.7516309338015512
  0.5836566342840926  0.5885785170363654  0.7478841388071381
  0.1637451600472367  0.1760664501868537  0.4225811763338561
  0.4116941227704237  0.2550978413441263  0.0822345040076383
  0.0708731851834954  0.6740602273149999  0.8389550438303945
  0.2386041764084167  0.4135206195297483  0.7498723632789135
  0.7445467702900403  0.5780269271638546  0.4164589380879266
  0.1582494076659318  0.0812821468835036  0.1631972987805303
  0.4918876382278439  0.9143069138550417  0.6670782219236262
  0.0835862796925632  0.2400053757469333  0.0857650113422847
  0.2516610253638068  0.0782678395956477  0.4236439414302399
  0.2396209763021285  0.1716560156158003  0.8332729034678777
  0.0745310953846400  0.5839284453764347  0.7481589522313862
  0.8320946410784654  0.8311061902926529  0.7553773911339905
  0.4973097452199782  0.1587517930731902  0.9197846393151069
  0.6637140420250205  0.9109687991584230  0.6670036150542685
  0.4913115729428326  0.1612887492818560  0.4142982675163400
  0.3310413230770237  0.9970612655785968  0.0787143527632741
  0.7479204090380509  0.0020470366312325  0.5002239420374194
  0.5781247581245741  0.5049486175833664  0.3419117255042898
  0.9984623455436585  0.4234279491566754  0.1694809981624640
  0.7472902371037705  0.4174749815569512  0.0821843659201181
  0.6700178843929334  0.5091226602562834  0.9129406263094926
  0.1574238148616199  0.1736615607334649  0.2436714769710603
  0.8399638174919709  0.9108622124947361  0.6735222377225463
  0.2512940525305727  0.1748869227484598  0.3306371287682976
  0.6614306027970316  0.0916847285757946  0.6697480317995684
  0.5746781762090446  0.1619430720802393  0.3263494951803496
  0.2505359571460623  0.4913352050193516  0.3368847068047760
  0.8253081504240546  0.3377697499219670  0.7491579673253428
  0.8268313631575328  0.5855536077157568  0.6717591566520631
  0.3249911660469515  0.3323027370611261  0.2499499691164720
  0.4936664249100509  0.7439449005473658  0.1669188530338283
  0.7405977560026373  0.5818872286887738  0.5900648614214702
  0.9126480805266519  0.7519383941637404  0.9176992207979618
  0.9881302144501828  0.1721397826237542  0.4172875113871898
  0.0808758689358868  0.3321719206539449  0.9954488669094924
  0.4176774773738918  0.1632403623887995  0.8361168176630419
  0.7431142847683927  0.7460460410938441  0.2486142262068478
  0.1618778815814704  0.5792053733136938  0.8389907921478326
  0.0733915305983183  0.5767722247594153  0.9272753217642280
  0.8321512023756326  0.7441306823009171  0.1594171607256307
  0.0733783389711239  0.9983500535595963  0.0058617462985767
  0.5768533914208287  0.9962580519673628  0.4978372585024491
  0.3405248156262372  0.5771166464901943  0.8388265986239107
  0.7472894272794374  0.6707995739309223  0.5056390399126802
  0.9913914742370422  0.9927020246271779  0.4165471889693813
  0.5770999867874965  0.2431763467111689  0.9170192990205551
  0.1619897908464485  0.6663046122147775  0.9278163320555528
  0.4101252804475458  0.5063487828190197  0.9923793271413055
  0.4099542563291531  0.9097778405495478  0.2570542490374552
  0.7460504037514065  0.3311128998746173  0.1676407783373310
  0.1590947729305172  0.5847217592063335  0.3271961915487261
  0.2445360805249693  0.8316614495077534  0.6669927527886329
  0.2442839261311189  0.6716663162327058  0.3254187462786867
  0.9963330958031467  0.4162193686830074  0.4896633215994750
  0.1684391619479880  0.0017676256175698  0.5799844687010762
  0.2424414123390963  0.5006721342882756  0.1634504790425171
  0.1605072424705363  0.0894453696035427  0.9968419605189388
  0.5854991725772449  0.1678107320354361  0.5016174335414343
  0.9234705932611539  0.7483807079433794  0.2529014085724945
  0.7483469861660786  0.9189218066806231  0.0731693964396509
  0.0764271283687783  0.6626119349481386  0.4898863290738377
  0.7482110994991984  0.1570192245921105  0.1590323684115991
  0.8338723765635309  0.1615305402552178  0.0805755939530313
  0.9965563137083645  0.8362446077597520  0.9186508847165080
  0.4169319891692078  0.2456020399772464  0.7503040414777792
  0.0033869205493122  0.9186245403184073  0.1678248268241011
  0.7533507934608059  0.1602189286219668  0.3375698918121042
  0.9159872205949517  0.5839580841780440  0.4156556431785712
  0.1700731155814793  0.4181313609293489  0.4980213465982339
  0.9097322668685426  0.4172995783728842  0.5832663649545674
  0.7402268232039306  0.3297885827242111  0.4944132137231703
  0.7453693399748230  0.6627922844339483  0.3314343052606270
  0.4168553353776142  0.0002941298828016  0.1634205034421340
  0.3277129371866697  0.1637628743225492  0.5825923656792391
  0.0853286095858548  0.4968550852195668  0.6619820705684376
  0.3248848278013097  0.3324291079070392  0.7493178238223447
  0.8216739897151738  0.4228700168726006  0.4907380066765524
  0.4153494903143177  0.9082048861110191  0.0769207428626210
  0.4147840694219062  0.5732345444350860  0.5795085071931700
  0.9921804252021460  0.8311025130710005  0.5798353065974776
  0.0795811415197711  0.0016842955315739  0.6684240211687439
  0.4036059864217597  0.0071950349997865  0.6664658469420519
  0.0783817681194401  0.9911765614335116  0.3277496191253630
  0.8346023674106068  0.9205132468335619  0.1624932129013381
  0.3258791978772135  0.2535223412397057  0.8381024680254249
  0.6632996899062160  0.1600915759446075  0.2435483647386625
  0.9130614668510370  0.7508292421003584  0.4977821306506853
  0.8321335681834101  0.5865697383689142  0.5801984528267506
  0.2455647834821869  0.6681122513046923  0.2396705867759476
  0.9926317857727776  0.7501070183921162  0.7503478048126914
  0.9136290440503244  0.7476784968372144  0.6675057474450691
  0.9103834341447488  0.6676161143452793  0.7507043480849772
  0.8300338609993592  0.8338159440589220  0.9991107933908104
  0.9959911899381877  0.9216706956055549  0.9177441610273483
  0.8399804730334631  0.8322546321224377  0.1641166377169871
  0.1617632245387887  0.6653646801925159  0.4964126026164088
  0.9160434324864269  0.8323093674217774  0.0813233710351086
  0.0807019662484218  0.8351687129502394  0.9218417722965170
  0.5020787138451914  0.9966707079235599  0.9961580695892277
  0.9108543909024920  0.7496516026885297  0.8302847301457422
  0.9140988995522424  0.9146038286524276  0.0001621530989158
  0.3252994527769153  0.7480276949715210  0.5861181018251448
  0.8302252266158195  0.7474848815112859  0.5831798656588402
  0.2463768232088012  0.8330966816862436  0.5819670424645306
  0.9106736662883745  0.6720273387096634  0.4175088351493910
  0.9106618951537769  0.5836573738191004  0.8351242418704994
  0.2470478046192079  0.7447329722885505  0.6646353739275561
  0.9961567219773906  0.6662238500304489  0.0053167525470553
  0.2458876937317546  0.8324484985063294  0.0910563234938384
  0.8300589964943605  0.5001972966525022  0.8332123717538243
  0.3347904611572004  0.8346894733753935  0.8343327865023470
  0.1635640224891373  0.9160654765890137  0.0847221704126784
  0.9143878786655488  0.6661543859305251  0.0834708192962464
  0.2504528230482899  0.7564264343899616  0.8363514756348911
  0.8321112657000662  0.6596899665276321  0.1675142975310256
  0.9132946241238914  0.6603486757823431  0.2496463391711272
  0.2488092777796557  0.6671187268287057  0.9273889169520892
  0.1634172264375993  0.7504953267867829  0.9219775411944244
  0.8296058985055723  0.7509582034999503  0.4170770580035470
  0.8342984853914380  0.6677056944623482  0.3330697045316221
  0.2453729386332469  0.6665036181499698  0.4121327544474648
  0.9164629987022355  0.8359047541272664  0.2507038283259562
  0.9150283136550316  0.9988221821242717  0.0832670479529450
  0.8307470145241738  0.9166316414793171  0.2476618380643950
  0.1619000263452151  0.4146764407057360  0.9173732090735510
  0.2461700817040891  0.5801347791415751  0.6565236527590281
  0.2475208398124470  0.4165850659203627  0.6615079192009864
  0.2460493301200338  0.6644034142859312  0.5843773816667808
  0.2479172573304340  0.4973682753747086  0.5800107775464663
  0.1646074253506225  0.5800064950535042  0.5786320315797827
  0.2548518576777967  0.4159373012443599  0.4990175025406308
  0.3291358808960557  0.5859303223393587  0.2430428884908584
  0.1626731354589133  0.5832032528407213  0.4167280673237773
  0.0801576066708114  0.5026843239899279  0.2440588258232434
  0.1576463512975598  0.4984453805646583  0.1649573110083924
  0.4103857001150808  0.5864921285694351  0.1641979013518710
  0.1670796985290037  0.5815762962506148  0.2401564215398567
  0.1645788501737712  0.5817098177475920  0.0838398258208880
  0.2465733359340560  0.5827103156726889  0.0038545550717450
  0.1614099103413122  0.4925984769111940  0.8357006066101054
  0.9101430253195331  0.5868050788572216  0.6641381973291139