Cr  N Ni 
 1.0000000000000000
    21.1326370199527886    0.0000000000000000    0.0000000000000000
     0.0000000000000000   21.1326370199527886    0.0000000000000000
     0.0000000000000000    0.0000000000000000   21.1326370199527886
 Cr  N   Ni 
 259 173 605
Direct
  0.5787341435689209  0.5006346226895095  0.5890652431788773
  0.9151717130047455  0.9994530449161284  0.0805621532822311
  0.7613434404148149  0.0672405333278417  0.3472180442569747
  0.9201961099550208  0.0839546396463427  0.1651301938078760
  0.6607911596453727  0.8353374459213424  0.1657227901182617
  0.8353421502546746  0.2411631030647703  0.0762639987521693
  0.9183372587056309  0.2456856699714099  0.5028774120997539
  0.4114112503601126  0.0037690212652955  0.5870297873805325
  0.7560998468248340  0.9240087716024390  0.3324048374447908
  0.9168724972016655  0.4089704024877575  0.1727034625716236
  0.7428581667536561  0.8335386137983837  0.5875455175191089
  0.5793714176783301  0.0882101373978370  0.3282484213127819
  0.7431156001450026  0.8400778710122526  0.7555035436021078
  0.8285077888438059  0.0828440262814975  0.9200538403133802
  0.4115052133344562  0.0007971759341923  0.4223971244142062
  0.9162138502183541  0.0805878522565990  0.8338972635865184
  0.4171093605140705  0.9998662950634231  0.0746961074321964
  0.7444777837436294  0.9117258683524461  0.9969484258291242
  0.3387501655084769  0.9971937214894397  0.9988855461277507
  0.6673949371411804  0.4147475077206424  0.9214191355256024
  0.9147036646163976  0.2497036640088041  0.6752179620130361
  0.6606206473731222  0.5858732814475484  0.0782721333601613
  0.1735587376710039  0.7501838978285181  0.5832879343166039
  0.6573623407469189  0.4960884001334970  0.3311548018033293
  0.7456627103594332  0.9156370656430242  0.6698669211127412
  0.2533996269747039  0.8346525192655135  0.9146150254533957
  0.8318888720327969  0.9234779996025210  0.4090728505811524
  0.9184569456620263  0.3291598828007425  0.2500193327052259
  0.1664124180275083  0.6723664224949722  0.1633470196090308
  0.3250323336223866  0.0021360722124015  0.1649049617832462
  0.4089582461262475  0.1719232778960028  0.4155664836406154
  0.8283524196274201  0.9249086631430983  0.5819869570174580
  0.8290192539774817  0.8354337679231272  0.8278622921310640
  0.8334124333897698  0.4209412777230822  0.5854852113200897
  0.0861712323104620  0.5903796983628630  0.6671662627583687
  0.9120026516037590  0.6633648075841446  0.5826637927316339
  0.3267825622272022  0.9990393829696532  0.6691629558629191
  0.8383317262441877  0.9184833036357677  0.2506006364843869
  0.4109188142767781  0.9971438466030800  0.7516190309900362
  0.9180560939058418  0.9151668709168360  0.3329377659419220
  0.4123382685468560  0.1621113406375270  0.5835257466074552
  0.8308205133060519  0.8351515072916649  0.4957440788229027
  0.7485000155336970  0.5817479203250185  0.9965797831980057
  0.9175023580407231  0.8365168756508989  0.5845077147697032
  0.6601519489516778  0.5881829392634442  0.4148662123468879
  0.9119515299114453  0.8335082408183593  0.9190440891228461
  0.7537731307599356  0.4980954467078440  0.4195591142787715
  0.4122875290827287  0.2473538780278528  0.1636361930568045
  0.1566401309500264  0.5866314137462415  0.7518717726358732
  0.3298338752986010  0.2463124375458609  0.2481038659534940
  0.6667758856263190  0.5022870459054308  0.5068192132554702
  0.4147867220854967  0.2511594110101157  0.0047783309122976
  0.3343970058132630  0.1683441452992453  0.1664642084919480
  0.7478075976640304  0.5821918663684320  0.5069458253350576
  0.7478271724278913  0.5089217441702752  0.5853514185593927
  0.7452081033300988  0.6664681107697520  0.2541057166843197
  0.6646100269970526  0.5066429714154903  0.8351101157779882
  0.7493373233525450  0.6646847241985598  0.5919032589653300
  0.7421666391055434  0.7557722093842151  0.3389238689470853
  0.6594108241461903  0.9170879617096461  0.0778510632232733
  0.7461260884098551  0.7502124225539644  0.6610452392644643
  0.9161785554716848  0.4067483413778499  0.3312417503681024
  0.2504805373940260  0.8319222278373922  0.7497994356498305
  0.2441520820831888  0.5863593196956643  0.8369096226690524
  0.8313111944462633  0.3289805566361558  0.5001152062939414
  0.5029232063388656  0.2538136952759464  0.5874729505580206
  0.4953150794745936  0.0052826091283720  0.3298308936933816
  0.8377234731317785  0.6674631976689187  0.5045747127528439
  0.2451091089487660  0.8337971360243537  0.5832067588307835
  0.8304654900762997  0.4979882157608367  0.3288484420073391
  0.9167237649127497  0.5799199881196404  0.3324238258380287
  0.4980092491262385  0.0844031897025891  0.2490605457085674
  0.1666668680845769  0.4125330768747382  0.9197611526587457
  0.1663574095885534  0.7510803443289077  0.7490772921931589
  0.2490880788882484  0.4169289228369680  0.6579740669934337
  0.8297995757679576  0.5837252067113776  0.0783415362050223
  0.1544259345949421  0.4160429106514295  0.7527850246061278
  0.2377233659554636  0.9168543178894837  0.3350224360456563
  0.2429575666615187  0.6667875448063746  0.5821582046397700
  0.9111641652321837  0.4212799001658161  0.5042006683563393
  0.6602201660659750  0.3277845520069285  0.8356465140317267
  0.8324692905812733  0.5837427994778005  0.7537459962930861
  0.8325599698798263  0.5842146064576674  0.5863322157238651
  0.1665746448692330  0.5854732607223505  0.9156481772958035
  0.1601719889993048  0.9169066187919888  0.2468646881740326
  0.0835849673091366  0.7443481424807102  0.1640187029169666
  0.2489629241690371  0.9142328091505616  0.0049955992021557
  0.8341095499849226  0.6696835017080000  0.9986346314817806
  0.9146527170690107  0.5034861473579253  0.9100255568201340
  0.9141263658731265  0.5835258126377956  0.8350639509651663
  0.8346990587523551  0.7534616085687377  0.0761669575925911
  0.9117394598633290  0.7516797516684802  0.0000250684083525
  0.9151312823490823  0.7564868858314705  0.1596972175697803
  0.1625121856715652  0.8347546137985231  0.3364784655368001
  0.8250010724483746  0.6661717532264572  0.3316382581025673
  0.2455533317212132  0.6777430746336686  0.7502685810028684
  0.4066200204125257  0.1658041627804061  0.7535134478806614
  0.7441689707775615  0.3295023360967755  0.7472487904424120
  0.4964750126435546  0.4144810295988359  0.5834561396299183
  0.5740467550807445  0.4111988185263287  0.5062457652949630
  0.3285588118221605  0.7418040854347483  0.4194017914207970
  0.4978531352373245  0.3305720095658656  0.6653293535667508
  0.5025308860922777  0.3250813055025499  0.8346523610643749
  0.5816637391870626  0.3277457489881929  0.9189208969268680
  0.3322556791979470  0.7505248395381152  0.2452150933933633
  0.3348651901293184  0.6636013838600321  0.1569573668701796
  0.5762382673242428  0.4145521667525920  0.8329231547236504
  0.5777393889289490  0.5821846313924587  0.1614844021708789
  0.4084759395437555  0.5007891042371599  0.2468353272953042
  0.5818730685242413  0.3272728131078002  0.0836087344210193
  0.4116017835102919  0.5055747829255376  0.9185584146541240
  0.5762041186381940  0.1665081697919644  0.9157924915188170
  0.5813608882579261  0.0014255549171463  0.2439498841932926
  0.4113976629093948  0.8386681483431278  0.7518889393474789
  0.2534248093338065  0.5009615023972138  0.4151842329171305
  0.1677608967607935  0.5860242110634112  0.0759545365583559
  0.4138494129416248  0.3279466571116055  0.7456410129895775
  0.4956317114391505  0.3290252425591040  0.1570313293608130
  0.9160899576542851  0.7562834431778713  0.3353275884305765
  0.5792973572571789  0.3287318952622263  0.2516702552577059
  0.4944718746862162  0.5017055577439299  0.1609039871955850
  0.5818155505336463  0.4951849500211530  0.2514853202229746
  0.4964078632983012  0.4125760590830813  0.2461087910306290
  0.4115900883863499  0.7479174409481849  0.5001089158861373
  0.4160031050276940  0.5841164222667062  0.8343439316343291
  0.4055564534160668  0.6644769424207839  0.5851041273223531
  0.3222325497704867  0.7499354549885139  0.5798632004312905
  0.3306070286366036  0.7485350587740340  0.9178319573799695
  0.3291453638339038  0.9181830475298549  0.7500439993508242
  0.8313501144649569  0.2449000562030300  0.9144718812326791
  0.6635049979493520  0.0065747667159904  0.6691848104152778
  0.3276926934436586  0.3268301022415149  0.8359832533158790
  0.4904510532449410  0.4992110575258465  0.5002779672191726
  0.4982282503167579  0.7472759297616477  0.4178337349032519
  0.5004433045139035  0.8403830919532653  0.6676669262994618
  0.3335447213899753  0.5765827132397336  0.2484335901811240
  0.7471306298707830  0.0845835923276423  0.9956753606292787
  0.4118540994958729  0.5858461631883117  0.0012384430997063
  0.7504442763643353  0.1548447459815073  0.2506872943103322
  0.3312201343500786  0.5855977507337455  0.0788716641601394
  0.4152695535423636  0.3320490503425797  0.4189947984987064
  0.4109384336155798  0.9134369274519857  0.3266510182334979
  0.7448233877728937  0.9994692692034843  0.9082965705101663
  0.7477399482437774  0.1652130949539633  0.9171050154046214
  0.7442801423787173  0.2470676511841534  0.1586337043254617
  0.6648877960749551  0.1612336503845025  0.5085549312647414
  0.3249060983017246  0.9174362968155406  0.5852836376355627
  0.4114181615406007  0.8275141214566956  0.5795175475710953
  0.4975988562413956  0.0753812266511651  0.7511182072683494
  0.3238796941737699  0.8315788850664412  0.5080405867011250
  0.5788525641648636  0.0785330365142047  0.6691388629956652
  0.5774320750999702  0.0030898142372013  0.7540568335620232
  0.5776147941671037  0.0805006443115572  0.8349334180610407
  0.4985024899153399  0.9193014457069474  0.9172746701077277
  0.4946790236334845  0.2416589218349764  0.2480589946709674
  0.4941089097897423  0.1662715121533097  0.1652270654796203
  0.5814844643700856  0.1620454938120262  0.7494073917389875
  0.5774431898487327  0.2472162782451387  0.3285011378215986
  0.4993643063351627  0.1652007241364405  0.8405119032812332
  0.4202006635441877  0.8336484258568621  0.0810926598906729
  0.4983285738173289  0.4138833760574695  0.0929922805884000
  0.6612902834892043  0.1707353484978463  0.9941911241329635
  0.6642656108070216  0.0804989851510814  0.5882702504164647
  0.4102779457447859  0.4119822909617414  0.0090359743153887
  0.7406723475612683  0.3314597619116767  0.5895311598767307
  0.6649478006414976  0.4178119287455803  0.7455632035133563
  0.3258858110209988  0.4138707785658365  0.7458494263241303
  0.5807061612108361  0.9118943377814944  0.5043349675841234
  0.5798039754231864  0.5062473605155458  0.7486077457173914
  0.4113884946442047  0.5764692939963360  0.4989858245389978
  0.4111846170837745  0.3281666348761349  0.0851424635682595
  0.6628802714916352  0.3269593831690186  0.9979430448563780
  0.5820077572811306  0.7547238163745831  0.5003949380711391
  0.7426251679759983  0.3252152696220991  0.0766834627431623
  0.4131177159820859  0.5837784095896101  0.1610363779909630
  0.6634725537929309  0.3281325895187517  0.1588902700498921
  0.3282715941359262  0.4998707373974400  0.8370316299463899
  0.7446191175019409  0.4121567622630398  0.1658663017555688
  0.5008446426941386  0.9142805405263416  0.5843340962215295
  0.3283052068583659  0.4988475309943302  0.6597528352897539
  0.4961911599695434  0.8297056804800406  0.1650341600519068
  0.5837658276875981  0.5060321938175442  0.9176054709976708
  0.5877337850492989  0.9183442841375088  0.1665910983884307
  0.5808457248425410  0.5778647665185640  0.8341396883678942
  0.4148875329858740  0.5000167613904138  0.0842440553169222
  0.4974618864891381  0.7507562041279277  0.2433330242959249
  0.4990195460412498  0.8310602659352654  0.3275944905929481
  0.4171458395911097  0.5042184543393193  0.7508921058445481
  0.4885269752338643  0.6680550994129971  0.1627812431349403
  0.5730738220955500  0.9218450036079454  0.6702468972986043
  0.4970684852245760  0.7520050019823008  0.5793795777099251
  0.3309786516810795  0.4160191297073630  0.5855319929059857
  0.4917086744271811  0.7527694137332042  0.7534798247586042
  0.6648038430280337  0.0030169052063235  0.5089282980734411
  0.4998839647438572  0.2500557758454474  0.9188126540727556
  0.2521456620615828  0.3323521800938782  0.5841219798350036
  0.9888515707022393  0.9180643342167852  0.2492461010963881
  0.9180155175470136  0.9163331104229250  0.6615137365827419
  0.9946216169788269  0.2478104171560925  0.9136233220584381
  0.2490646066791823  0.1666887493938703  0.4136827563864192
  0.0796548884296897  0.0841839492715085  0.9949906094641663
  0.0032454292623029  0.9148480292748968  0.7501719224707162
  0.9966615308768524  0.4146840649573910  0.0777226610633983
  0.1596903104843461  0.3317632410707504  0.1647329702252942
  0.2463846823213148  0.2561828936486868  0.9983512701472896
  0.0809873428041216  0.9085131968816436  0.6674884386680601
  0.0821818108632287  0.4192041524157469  0.9901657106016724
  0.1683381611697696  0.0811684724157352  0.4167791530281632
  0.2376751648184163  0.0002825947647620  0.4165206684078311
  0.0060222433585027  0.3351138143982619  0.5002290124553771
  0.9995840114889307  0.4188216995986544  0.7540686324752731
  0.0852153420718020  0.4176145297726435  0.6698636718826546
  0.1661945729627618  0.0845681833461301  0.7447396732851960
  0.4135490419403267  0.4155584013480674  0.6581715760073664
  0.2473896092107335  0.3308928372623320  0.2514446969455155
  0.1706702249371886  0.9966946818371940  0.6636910357844529
  0.0069653454544382  0.4134362368246337  0.2496488706310627
  0.0771867246395840  0.1705539584914053  0.4156123030787454
  0.2512663753528717  0.9971155215862519  0.9101124067163915
  0.1646992499159713  0.0003036083824361  0.1647589151306960
  0.0912616167323940  0.2497416448501094  0.4973584776048706
  0.2491565036043402  0.0850981548997294  0.9996807557388715
  0.0857502263552693  0.5003028721401824  0.2491977442804494
  0.9933192890005365  0.9126794801865499  0.4133350436182646
  0.9990351884753141  0.4958508776561591  0.5020567596032992
  0.0835433564094389  0.5783203600235171  0.9913103003767494
  0.2467959629665822  0.2524276173006436  0.5029970615460492
  0.0829940399181963  0.7490024613798878  0.0007238862091430
  0.4995875095602617  0.0045097781525823  0.1668196823897926
  0.2517345179187280  0.0813443445444909  0.8366245904194723
  0.9998179824385972  0.7548589516800432  0.7439681759858738
  0.0836331323403602  0.3377216881157974  0.9160085317700264
  0.0817432579254233  0.7488466194316077  0.4959714407487571
  0.9987829159968432  0.5828644724280767  0.7589774201702904
  0.2473138095155099  0.2508306319923935  0.8351447601250863
  0.9983335378162639  0.8408662082821694  0.8292984843083533
  0.1646565948313426  0.1695330610972002  0.8362499617985091
  0.1622648186144178  0.0818067473467248  0.2494438410055088
  0.0825311705321223  0.0835303241147792  0.6701083420947961
  0.9980734882714628  0.6680677664399614  0.8384625805581720
  0.1694458082162608  0.2511363488449724  0.9161172593422824
  0.9950950580369914  0.9992475956827862  0.5065669817664550
  0.0776980226802331  0.9982022939963865  0.7534650869495425
  0.0834363625169037  0.5017260795266036  0.7556049235158803
  0.0808311116147914  0.9960430270002578  0.5774140493621465
  0.9942587964918739  0.4982463280188956  0.6744095401983110
  0.2478378083150664  0.1665185376693473  0.9109380031274483
  0.0860658059215251  0.9967238743949118  0.4166198269046800
  0.9979592461004189  0.6708123536481185  0.3374372729955916
  0.0847240765714908  0.2487548190851356  0.1680389616286874
  0.9932447938207161  0.6684175401285271  0.9928478298451162
  0.0842394044910306  0.6673011315419674  0.9084987597338079
  0.0796102034730410  0.0056102859456035  0.2519361558529347
  0.0838817192295897  0.5853707022165657  0.8355128999770682
  0.0862016443929521  0.5778194908133948  0.3311743288344429
  0.9969286601546755  0.7512536033247319  0.4174255389396536
  0.9964631182557367  0.5842171267075625  0.9111619045609817
  0.9906667153039131  0.9992262472758531  0.1631427969696764
  0.0852426515575476  0.7531566070163220  0.6709685171507014
  0.5003894920098306  0.9175787077223421  0.3314879048386966
  0.8173912689114207  0.0131447324729904  0.4022289488372332
  0.2485676992291656  0.9989866103739963  0.9970107139755724
  0.9964909273300391  0.3373422746745436  0.9161499579562931
  0.3363499295566457  0.8318732260061611  0.0858583476162958
  0.0001171540924656  0.5007559754065979  0.4177360782657370
  0.0869710980145053  0.7479918645753080  0.5845698445546808
  0.5809182346853299  0.4168906299123620  0.9209003658581760
  0.2497441721369085  0.2541965087318597  0.4170357623618566
  0.0786863816353793  0.2497436200092785  0.0820476483236076
  0.4086365645291553  0.0043879793037771  0.3318889496747721
  0.1685365482245701  0.3350551893149994  0.5814674197732564
  0.6581703564698862  0.0005731970438850  0.0839589816793034
  0.0794723130394678  0.0835112414810801  0.4137184084056883
  0.9194867325768978  0.2426717922315910  0.5908748794794534
  0.1659732475305468  0.9947205156109299  0.7500512964217866
  0.1697198657089903  0.5856366425893614  0.1625646647513126
  0.7489515620359352  0.2457811707501307  0.4179884832842554
  0.2444153186741079  0.3347564627815192  0.1637299362444665
  0.5792491815593414  0.4189268491203199  0.7446826692461552
  0.8293219385824268  0.8354815265730171  0.5842305667393605
  0.9983706869415512  0.5867966300217863  0.6695662107669329
  0.4931566273723707  0.1697459367261806  0.4164589872596668
  0.2482603322872209  0.6614724629205401  0.3385243607458096
  0.8272657393324511  0.2432914506081024  0.6773069585542291
  0.7493373435433560  0.2392003097470581  0.2439560838313538
  0.0810907477666057  0.6617738424038622  0.9966191351437184
  0.6658622098213538  0.1607242427687877  0.4219930876897480
  0.0834197426191765  0.2489610349949483  0.9128961993205355
  0.7432002412410635  0.6670499937629955  0.1680652217170462
  0.4957046693649169  0.4165088753918709  0.0088340789167408
  0.6595518658252986  0.5026306026791472  0.0793570262203314
  0.9174404491303020  0.7487294745523796  0.5858472548560095
  0.0798697296342869  0.3333760243359903  0.6697830923630030
  0.6614864704421948  0.5010214105784616  0.4190033066596276
  0.3291034885238571  0.4982247621695598  0.0823254631850998
  0.0781929051664760  0.0012536873247639  0.1645247799853944
  0.8251853447336511  0.8376660511337297  0.9129039763842837
  0.3325564333341479  0.6619185956169347  0.2432397000721294
  0.9188723692790812  0.7548092603089224  0.2467882190689426
  0.0842037573893062  0.0824240729478493  0.5824004849103703
  0.8283067025426227  0.0822934308934536  0.8349032110704264
  0.9981799631338512  0.9982406390892428  0.4198502016341139
  0.3301923922556128  0.5046146617435877  0.7464509625373763
  0.6682755435247328  0.1665711580949015  0.7511456615868484
  0.9159987035845106  0.4927682346870375  0.3302362469254658
  0.9109944414966334  0.6674420006622771  0.3340518796181513
  0.4125771051764509  0.9143899125128145  0.4138967994372302
  0.9986677887212257  0.4997370824489819  0.0757127484260854
  0.5797381063099616  0.1689381147933907  0.5067860703158747
  0.8317539948075585  0.2403166211846303  0.4973339581021035
  0.3314612364060476  0.7448918463616035  0.3330540305150028
  0.4077751152993768  0.6619482093967676  0.4950056878146437
  0.7416551058154257  0.7507236408067069  0.9150712120503546
  0.4917391588660897  0.3264930709254786  0.2447515199600831
  0.0775338712122710  0.1681174843304885  0.6679968836424758
  0.2521028590515176  0.8281466724116493  0.0010431828848575
  0.4024440543907874  0.6580492375005825  0.6730894267079992
  0.9941546270270576  0.1604329300711733  0.9154946156506532
  0.3254235913566730  0.4127951804323834  0.8367273979990617
  0.7492335709094824  0.3271868578071018  0.8331669272438399
  0.8312239173169588  0.4111172311397749  0.1691504574101089
  0.0867740032752065  0.4182387976262957  0.0746857245756184
  0.6611907950477347  0.8279616988622748  0.0784420084090789
  0.7552296535121150  0.0031143404462455  0.1695216414348236
  0.5849264577861016  0.0036182477466785  0.3301681642542863
  0.7549450218360677  0.0881762253984626  0.0810480874627089
  0.2456386192823130  0.9204445142758475  0.2461432359460115
  0.3240500988435691  0.9170772018301601  0.3307285762601708
  0.7434954133408603  0.4981149672735197  0.3319175669765042
  0.9966185589832001  0.4981749189006693  0.5878004338591212
  0.2427807390202054  0.5914642275657234  0.7486439027805981
  0.6643136236736557  0.3304158958108400  0.2441457442800406
  0.6567194263828331  0.0867290990037513  0.9967269767997884
  0.6681055677247919  0.6644187985436030  0.7533144693989641
  0.7434924057650988  0.4223480971254605  0.5816695178925519
  0.5840670802244935  0.6700933832745483  0.4935387155571738
  0.4940072566996869  0.4992111001282701  0.2498108791192614
  0.1640913247719875  0.0818215530163636  0.8340906718246789
  0.5729969481075516  0.6697814559921632  0.1626082489428376
  0.7484182252724775  0.9956627560987352  0.9938576541583994
  0.4935659779545316  0.6655653232943169  0.5824260976514661
  0.3231332249758717  0.8266509467077345  0.4219874520892826
  0.8278148338888576  0.9226240586353767  0.4944412252664684
  0.6670114012768574  0.4180952167947499  0.8340099940367255
  0.3313379981468023  0.5897165971446259  0.8356869441153919
  0.4190079534059503  0.2488655856815674  0.5804194567551064
  0.2493985757770113  0.4180036251036883  0.2528142715413127
  0.5802920033746315  0.1647579709335189  0.1616057872087625
  0.7526795938710276  0.3292091691280750  0.3310459871393228
  0.8319858848654470  0.9209966960654425  0.6697005680937178
  0.7460612098921187  0.5867639912942049  0.4192869311640205
  0.0081950680863500  0.2455565766681083  0.4991353811593617
  0.4944071684897057  0.1630730518288449  0.7524216139407063
  0.5789074079637008  0.6642323676877764  0.8415317681173969
  0.4108884469960962  0.0880818510378494  0.4190638582338676
  0.2445778703440397  0.1722175163359061  0.9978259110169387
  0.0036006139149060  0.4073071882185367  0.3354017992296109
  0.5757583023356215  0.7581169719713774  0.7551387383248453
  0.4164599075662144  0.3307096307550347  0.8341456958328355
  0.5016515144655243  0.9157802875945932  0.1596703982669917
  0.0011786492043824  0.5844923920452170  0.1691160735178851
  0.2377545804256535  0.4125412337351217  0.7440658849460235
  0.5034977123730485  0.7407367592720806  0.3298210481036033
  0.5772252705815060  0.4983520393435056  0.5021131216132271
  0.0032664184191730  0.4083365211120800  0.1632436318842187
  0.9968952137979139  0.6691509419543447  0.7492172746331708
  0.7531873336311521  0.6732064017677459  0.5062301700761555
  0.6575375360082956  0.3320985834125390  0.4187103790678827
  0.7495069111660189  0.7549635213045669  0.7454707034662690
  0.9174543137898314  0.9150235343849201  0.7504352997666662
  0.4114721035053632  0.1589732586439494  0.8419072233166827
  0.7474555046020339  0.8372642934264659  0.1677443671738600
  0.5782533393840745  0.9969550127072926  0.5010883270821679
  0.1631295311922720  0.1701208446550554  0.4162566688210164
  0.1658503229064130  0.1719447510679183  0.7489018276915776
  0.4135426140608059  0.4180479009146670  0.4205457753767731
  0.7422457704606261  0.7524835406276135  0.2529097333182798
  0.8358156429966770  0.4171615584713382  0.9930351700759388
  0.4136437064055587  0.4154675248378833  0.7449611090745248
  0.9148561321308544  0.0856660728894207  0.7469800560658031
  0.6581272670023083  0.9189480280453709  0.6696477046556707
  0.0820582473193299  0.6638486521958400  0.3329738978521867
  0.4156997328003901  0.8340000745258602  0.8367766794716296
  0.5814366972008906  0.5827755573780633  0.2483942251644254
  0.4117669359629100  0.8333251640073261  0.6657862419220117
  0.9969375923694063  0.8425366357671783  0.9160019207616404
  0.0763518936903020  0.9993109955228283  0.9897095463129925
  0.4082512782667000  0.4187115337170335  0.9236613503715790
  0.9983522077394348  0.7556795044308554  0.8310490928963814
  0.9166941330417058  0.6716892996795372  0.1617689904803754
  0.8282778358721762  0.3325795599564795  0.5887640620684191
  0.3265855105617441  0.1623986344795930  0.5815437434323858
  0.7549292320876334  0.1500856439090190  0.3361137405078112
  0.4101430392045439  0.0017237341661851  0.1606300325836179
  0.4949089122421717  0.7518716168499134  0.6668878038666423
  0.0781333452944746  0.8322022296806607  0.9991503217406655
  0.0796735165578838  0.9934824834767338  0.6653281293015074
  0.8278683518681638  0.7535547347434040  0.3389777594956315
  0.0814503923286652  0.8344095842130980  0.4976425665145858
  0.0801768266137889  0.8277134260021639  0.1692390092686796
  0.0729859019761904  0.9171074984620624  0.2533895098325408
  0.8330254674027004  0.2393097470379789  0.1625484131311569
  0.2480751911288087  0.1646776182167169  0.1680326160301304
  0.0840474972860866  0.5048241586338866  0.6675232171241535
  0.9172323475395109  0.5848566555590707  0.4189776785934256
  0.7419737757215970  0.4964625764211833  0.1644662696838316
  0.2510166491708685  0.4996283147284769  0.5003617705986046
  0.1635974845076180  0.4986644644986449  0.9184802186698985
  0.7454991353944567  0.4107831462938211  0.0793702804506485
  0.6724719528717668  0.9158977235710193  0.3364086321109665
  0.8278993102074348  0.5835520518369421  0.1645262662026627
  0.3219906608379619  0.0021030639789466  0.4213810110081424
  0.4974469155096595  0.7497756827421110  0.9968923026053628
  0.9134694696938565  0.5822644075253138  0.0740235102727393
  0.1686366443003637  0.4993381797335155  0.4133041577092523
  0.0813756400785201  0.0828954505287461  0.0795357579343708
  0.7426971706070806  0.3320939313612075  0.5033373271407051
  0.9198366123623497  0.3360401469663025  0.4967014216482613
  0.4102826735183431  0.3294932059905212  0.3343157852899361
  0.5004649520042463  0.8323196668042306  0.4158553945494011
  0.4130995892265187  0.9175055379905632  0.5826455145448677
  0.1682460194687073  0.8319085959904849  0.9114774614364727
  0.8377399856340543  0.4221103194017525  0.6721055452836502
  0.8312967720193327  0.3254558376777607  0.0758095541483157
  0.0812823425005586  0.2481059384979563  0.2541448585376020
  0.4114018194993627  0.1609372201848232  0.6683481796137577
  0.2448858698959993  0.7499375071171912  0.2447233274252457
  0.4974312576764087  0.5036876694740455  0.9177676560499554
  0.3376694578323182  0.0841482536010083  0.9996904839466558
  0.7522167529774868  0.4160431842799990  0.7533282593348399
  0.5806990087648238  0.6639586749107484  0.6667935465297146
  0.7474904022778096  0.6676861253654283  0.9964550021542300
  0.8322627868563404  0.6655428677481972  0.6682454845390225
  0.2393248469184791  0.7531751602180754  0.3366370610061609
  0.9101841921577419  0.6670922970140938  0.7524548729308886
  0.9132334882149151  0.7497028307758270  0.6721271178209635
  0.8328077268157759  0.6654012230581851  0.8329086565726651
  0.8312392631802042  0.8375239762262686  0.0007435816156933
  0.9127263608913035  0.8362936727473771  0.0813597558711767
  0.9104354130627264  0.7522395388557128  0.8339291467434278
  0.8344558134561129  0.9182618903413735  0.0805425266175429
  0.9132321166005720  0.9185404810112650  0.9979227450476629
  0.4971941605367051  0.9996366883733870  0.9961073480419459
  0.8343652914559330  0.8371848487851942  0.1633975584043753
  0.9152946077571368  0.7542788057104105  0.4979742319795252
  0.1638348795001708  0.6660731165810524  0.4999403514023989
  0.8319687817190003  0.7476747691561456  0.9155265748029605
  0.9172051447990105  0.6701583548527827  0.0754680485965802
  0.9146729667077292  0.8395913028783821  0.2483977091733388
  0.2435313330301107  0.7482037218282137  0.4978847105461490
  0.2484782838693105  0.7521701840223117  0.8343839215807900
  0.1667767239168446  0.6703750399326440  0.8333383040859039
  0.8309846744085907  0.6744422838635017  0.1630232565269326
  0.2485165627199764  0.6675925013902717  0.9163592569161182
  0.1669356355894384  0.7463807571367935  0.9157374781851582
  0.8307232819401220  0.7549663053007089  0.2454725415527960
  0.9143218282557514  0.6727271946585764  0.4236967506351099
  0.2461130496750682  0.7528712100777455  0.6668114615002519
  0.9124694381941792  0.6688778251529695  0.9139879841959039
  0.1652420770970068  0.6700615709363237  0.6671065815748464
  0.8313278562621631  0.5843015666035507  0.9137435191171611
  0.2508519640056741  0.5011080908885192  0.9183751156149780
  0.2464901621951476  0.8318864803435776  0.0887399083733799
  0.1650082056353408  0.9169316394127851  0.0830197162404716
  0.1659032059759115  0.7481584481716055  0.0818541234371054
  0.1651484425321557  0.8325924173281201  0.0038228357915960
  0.1618158695484804  0.7493121558913372  0.4187159638644568
  0.8307691879352623  0.7529836499826460  0.4243585710811017
  0.7480898490009044  0.4126450059338100  0.3323020719049657
  0.8309031510624800  0.0090678390263940  0.5014042267226905
  0.4144618035532883  0.4992140168405816  0.5831874765101066
  0.4960846808037812  0.7500768977745355  0.0839308524898729
  0.5741839128167692  0.5005378598779805  0.0825825658015556
  0.5820177234000647  0.7519509281534582  0.9984568660015597
  0.5796705446273136  0.5831169941083444  0.0004070595862740
  0.4143794606468632  0.5782774933907464  0.3322896814338854
  0.3304478166450390  0.3327859209372452  0.5003382958470383
  0.5800119403325399  0.6711583699101141  0.2538686610844245
  0.1664672133763712  0.9183329941627834  0.9167327534445677
  0.5862039683564377  0.8328775026335044  0.4188990777055223
  0.9147121120061803  0.2494714482646381  0.8336468772807728
  0.5882703878150100  0.7518118190211337  0.3336675598740090
  0.9116161959398552  0.5855502233877924  0.6709791568023711
  0.4119258995595288  0.5026254524039244  0.4144449554433082
  0.4953500116340620  0.5888243112146189  0.9179917430081358
  0.9166408725227421  0.6627950822553358  0.2474414548260400
  0.8278960760369618  0.7472715896698930  0.5853194748236724