Cr  N Ni 
 1.0000000000000000
    21.1326370199527886    0.0000000000000000    0.0000000000000000
     0.0000000000000000   21.1326370199527886    0.0000000000000000
     0.0000000000000000    0.0000000000000000   21.1326370199527886
 Cr  N   Ni 
 259 173 605
Direct
  0.4956139624846492  0.4154574603336795  0.5800474282839383
  0.6699971613638576  0.7503515866890259  0.9160036766808025
  0.4143328197754889  0.9177091319711567  0.3436449175096743
  0.9944883349672273  0.0055669032220242  0.1674399576391445
  0.6627284143798385  0.1593714601703805  0.3350701831948148
  0.7515009419375857  0.2487129475307401  0.3353739370175200
  0.6643755598384993  0.8333071948543507  0.1631952202431661
  0.9157841091073300  0.1644866906344422  0.2489009063939384
  0.8326988354737078  0.2467481455465259  0.5793174049637965
  0.8401757852784874  0.2477106238275826  0.9200130114351651
  0.4120682946188892  0.0049575082344191  0.5801320249507959
  0.8370692257620961  0.5032784349392363  0.1695740621220853
  0.8334615928904562  0.8363979162250370  0.3339564054343628
  0.5818488154856319  0.1604286164845789  0.4147041873503721
  0.8316585999951120  0.8254311861714158  0.6638265040200344
  0.7452578089648119  0.9194964920135930  0.9880212008074334
  0.7446015083579856  0.2473511939197654  0.8269896098758875
  0.6678038396027018  0.4174736944233368  0.9160785992111543
  0.4204876191474932  0.9990741252623787  0.0770208611618898
  0.8392817728196619  0.4172331170941572  0.0788720869331695
  0.3360795945175125  0.9972117363920527  0.9942880830088624
  0.6674352452903420  0.4998722594038487  0.3341424399463862
  0.7432837372671295  0.7514194879590940  0.3374963256686803
  0.1599470573394813  0.8341907633880296  0.0082284069635193
  0.5842091164515137  0.7534992171744460  0.8298244105594897
  0.8358034087723212  0.3263183209551694  0.1687863085439342
  0.2463802663629340  0.9971563672516430  0.7426245994539351
  0.3234676555370951  0.9979398340269743  0.1713039066103193
  0.8295679653437906  0.3335121238169716  0.4933565848261695
  0.7469052160787076  0.8320641534436087  0.0722343609321843
  0.4950386028642150  0.1644879559420457  0.4993948113445190
  0.1689826076610493  0.7488356767876527  0.5813752308173976
  0.7419484836852197  0.9147884455768316  0.6682264506634902
  0.7454839345500502  0.5837677851136618  0.5023975457895018
  0.1630345098651380  0.6693899082092655  0.0121519426285958
  0.7499122118670007  0.6610012522695227  0.2461542477249720
  0.8357351002712690  0.9154658142400756  0.5849946907580514
  0.7438047963806761  0.6702563245918779  0.5913487318687057
  0.7427679617561743  0.8347550185008920  0.7579706001423009
  0.7535605898480271  0.9235370119762891  0.1645793632259178
  0.2480603152131762  0.5832232184161817  0.8362074178597981
  0.0747086469735596  0.5881618783434981  0.3288638640087811
  0.0845088647184547  0.5832890359901501  0.6579869416368669
  0.8218753060118068  0.4176769029066993  0.5795714765307610
  0.4091945043318351  0.9165317093666704  0.6670169016713490
  0.9956125147894694  0.7456307030963247  0.5816058606386275
  0.4181922840695548  0.0694469824889296  0.8356549044966528
  0.7491970367459699  0.8359636059622993  0.2475082174772216
  0.4140100669931974  0.1658045513475546  0.5805350168922183
  0.9194395101401752  0.9145112780698668  0.3335005245111428
  0.5809453985568485  0.5938207713846142  0.0006362699367254
  0.7461999743854698  0.7568484290221466  0.5018785466807146
  0.7471258295800335  0.5760994642045748  0.3314716672207444
  0.8299106987996863  0.9243678300166900  0.7593567977177332
  0.7552053091879791  0.4868502641071073  0.4213598832749094
  0.8273279437421069  0.7546800434118531  0.9141047539905988
  0.1671663026895156  0.5817325542124386  0.7483875796130335
  0.2405232698955813  0.4997389175877727  0.0751609731407057
  0.4914459806414109  0.4993216066769504  0.3395197937491671
  0.3381746586862587  0.1672148679059016  0.3319147056548963
  0.2447943690282492  0.1695438837636453  0.2416563127656447
  0.3296114061453059  0.0875151266778044  0.0817534960563383
  0.7341003030473586  0.4146281590769513  0.5030980343090431
  0.8355466367397187  0.0048035239460780  0.5005392399634547
  0.7543628943184756  0.5056674734998564  0.9154155038589210
  0.4911403312350450  0.4163172655737354  0.2525215082836091
  0.3375422842213614  0.6771201174946663  0.8365000053650541
  0.2410543250159764  0.7477719485777228  0.4984131093420601
  0.9945531851369359  0.3298087651300839  0.3291181063796441
  0.9110940322284433  0.5790986391554939  0.3282681707889982
  0.5777506660469036  0.0819078273144085  0.1593533091880311
  0.0719253059891692  0.5856879116696528  0.8364159353729930
  0.2472479622805368  0.5019678372706244  0.7470968018305344
  0.7476074294259045  0.5071314241785417  0.0796466249428524
  0.1552772443550344  0.4105082951952669  0.7505472101660196
  0.2491418282530889  0.0828704930289279  0.3298774808164444
  0.2472227059516582  0.5797260094451545  0.4974868008752898
  0.9069945050535826  0.4157073146576399  0.4931439789198002
  0.8293993890553666  0.4217620913453624  0.7505691033061913
  0.9141471567198615  0.5844965140087228  0.5015924555239475
  0.1599432240898207  0.8381040179310456  0.8344090921471213
  0.1600039764525170  0.8352617052892922  0.4984703131014461
  0.8348461541650405  0.7500817208240277  0.2481953149405507
  0.7426075697997268  0.5827476986729790  0.6739844874690860
  0.9148213070817919  0.7489519195896196  0.1623317276028139
  0.0027942940258552  0.7560431904853080  0.9192602163265677
  0.7487629842547482  0.7464285421864418  0.1597359154959530
  0.9882563792315524  0.4979957410032212  0.8388162180249807
  0.9168542915321882  0.6659433814320712  0.9202087046980413
  0.8313585370572896  0.6670380449132445  0.0062458551480922
  0.1597931239212669  0.9982205165456570  0.0008354419029770
  0.0116240950191721  0.7416634979809346  0.2573741153445027
  0.1625478965653561  0.0867583256482221  0.2491144374570287
  0.0784565844119038  0.4954610183997166  0.9235662144384532
  0.8313876276554344  0.6715496334462916  0.6613464078785977
  0.2501603322430722  0.6770707531803342  0.7471523451909122
  0.3342607154299927  0.7604757011178969  0.9166075431690127
  0.7504894991330008  0.3306194900308707  0.9172112807791575
  0.4188898507059570  0.7502203073561664  0.4939984718646768
  0.4144275130572133  0.6601726691635702  0.5853133656019980
  0.3230965489588865  0.7507462766040397  0.5851794556554597
  0.5026940743088678  0.2532942093130670  0.5836568879948136
  0.4215804916891017  0.5720820814912380  0.6638590227088439
  0.5794649545303009  0.5011555661682688  0.4268339938502246
  0.3327153168786616  0.8373556922202153  0.4971852995738164
  0.7405777209187049  0.3299848113618807  0.7481675987825180
  0.4970205488060607  0.5041565664580253  0.0008420105807227
  0.5763576433702929  0.3272492927048420  0.9215743655016462
  0.3294321989426292  0.7462729790005262  0.2390885017379032
  0.2444133394172437  0.7494509072955849  0.3335589719226498
  0.5847886636083360  0.4154096389300152  0.8260953200536845
  0.5831776119093147  0.5048898692927887  0.0834711740628983
  0.5811330591776622  0.3311433005778795  0.4165998787733488
  0.5798972197850517  0.4155344373198774  0.0040337756991134
  0.3293687054660819  0.5858820830045401  0.9234355350796942
  0.7441692026556217  0.1552416172749364  0.9154397349409583
  0.7451566439728611  0.9265127209041678  0.3328133308488052
  0.4133058777303174  0.0018154904753185  0.2550169471537579
  0.4982128209682433  0.6699456788443604  0.6670598163529974
  0.3363779268435567  0.4950976508774476  0.3350695639931723
  0.4176025370833180  0.1576400992157063  0.7514547149512124
  0.2473649219743539  0.5879269967529633  0.1622777264440165
  0.4170059520866913  0.3328757017681572  0.7500818476185327
  0.4969168509540282  0.3249530729226839  0.1573108115058099
  0.9188010657680501  0.7536611226089844  0.3366982350454105
  0.6606545043490583  0.2486440825344996  0.2441293783154374
  0.4928046115859178  0.5029479040384287  0.1629611819432603
  0.5813567713652152  0.5023416820618477  0.2539412000946313
  0.2506506386596943  0.8356621311636366  0.9178920238696147
  0.8312528827967364  0.2453911556565216  0.7494086868306268
  0.6653740711698898  0.9989326321295980  0.6679409552790806
  0.3284224507083770  0.2540495911235044  0.5799349051596303
  0.5777774707304819  0.0872256021657869  0.6669442025750786
  0.6635279902465323  0.9957778732878417  0.4999334538244646
  0.5832493483642611  0.3271360235674255  0.2444178043934272
  0.7486902467953334  0.0896810773289780  0.6672732552998584
  0.5091766655173707  0.1620706530108543  0.8351888995877708
  0.7433396979413440  0.0804123408544211  0.9948286342027288
  0.4165907272021868  0.2450347013267512  0.8384176715129090
  0.3288703643946638  0.3323490502792250  0.8370726117724788
  0.4986858244718399  0.4151558316943912  0.0743100670044253
  0.5756076267291763  0.7458840373306840  0.3334095157184004
  0.1652351584621717  0.5039798065823111  0.4963391390916480
  0.2458964347381805  0.4949594908317215  0.2473634106290394
  0.5009242213368866  0.8251828074202577  0.6697714695435304
  0.3261443337052764  0.5012456059301810  0.9920002981524927
  0.8346600069488522  0.0735036578172082  0.0841227690858142
  0.3399156583074560  0.6792569107781512  0.0152611000572179
  0.7515491154977790  0.1578155905577852  0.2474238391238660
  0.3225624039311741  0.9166994168106013  0.2471119404489400
  0.4088420822764812  0.3340119531639441  0.4162574477097827
  0.7451804940159847  0.1588346003006217  0.0727951764881444
  0.7468051627330384  0.9951818601680423  0.7618312947217600
  0.9066550760102827  0.1650955478689248  0.4151924084618763
  0.7465483579256856  0.2435594386353630  0.1607970856381523
  0.4109278802430097  0.8347643158403660  0.5816769456374762
  0.2506275383344631  0.8352040610265615  0.7498460611556798
  0.3311269959553032  0.7477637748475566  0.4119917589844779
  0.5868674614918619  0.1661403967791311  0.5871810001318262
  0.5006492909264111  0.9175506941724197  0.9153963303331594
  0.8304253278433863  0.1683731386776988  0.6671986263278672
  0.5852540248469800  0.9115318309993174  0.6679984912835791
  0.5063041754959534  0.4175293719002381  0.7486981831452000
  0.3242488120048715  0.4100685652692306  0.0812358548222697
  0.5845809448817938  0.4142145824762890  0.1598455930775893
  0.7416136827802563  0.4174963215220354  0.1712432452748880
  0.7444192490555275  0.2437005632857072  0.4990285852997308
  0.6673086443861882  0.4165477034860237  0.5869773415825472
  0.3302448271674893  0.4202239971618407  0.7503856343961521
  0.5810294306267645  0.9977259474820779  0.5832757037118103
  0.5827110796287894  0.4991204813455353  0.7406487677594700
  0.4142176649098195  0.5761456907599634  0.4931864381555132
  0.5746231547773556  0.7417453944753205  0.1654795864035686
  0.4969697472446061  0.2461864836766073  0.0795962730469904
  0.5773398437602848  0.5866127771550363  0.6619490941155408
  0.6641039490120684  0.2417501513508110  0.9188600229681689
  0.2476194739751993  0.5848822870632019  0.3299924505105275
  0.7460879960429284  0.3281503908801742  0.0776498801368029
  0.4211929954351700  0.5071140778362550  0.7500791319597772
  0.4945049036638765  0.0009350919540743  0.6667880589055242
  0.5834542674297551  0.9173947531962499  0.1597195486080412
  0.3442955635942658  0.5988020091474296  0.7436941989284478
  0.4166681093829990  0.5044718516691571  0.0848523986939309
  0.5802114721631974  0.5030039217229929  0.9134123116596810
  0.4986082671685799  0.9164051174367027  0.2553610646525357
  0.5799417881529927  0.5916729502462982  0.8352883885729548
  0.4895467570023230  0.8254056385077551  0.1645451168765058
  0.4889885817513087  0.1664646687153415  0.3279320714782224
  0.5023002916801358  0.7516082682040975  0.5873848951602150
  0.4148215777901845  0.8251794135482212  0.0835339168769074
  0.4107345205938153  0.7441822295819679  0.6721399013600196
  0.5791940274641945  0.1546664143008551  0.9172371560771652
  0.4075325542662779  0.9141953120184620  0.1675045879599917
  0.1662920253561595  0.3319290875290108  0.4983771853942939
  0.4978438309202208  0.7545193700735707  0.9147176627946824
  0.4176447001482779  0.0933313407473673  0.1608361446528861
  0.2466218361227649  0.0895197220007143  0.9992330215208000
  0.1632368791965088  0.4976413649390961  0.3305476068205849
  0.8349215452330708  0.0100749657678686  0.3306348616543172
  0.9957438340985137  0.5845322657596566  0.0776650620415466
  0.2409293865989987  0.1674363150373483  0.5846567233054283
  0.8397921235800028  0.0000973355633065  0.6668745892985287
  0.8425944649251154  0.4157555758344915  0.9166892921378640
  0.2500242229891432  0.1704602739596743  0.4167024322078949
  0.9867608126365550  0.9988529055015628  0.9988700417222817
  0.9183703957561183  0.8338630138152685  0.7529083448664630
  0.9951174586097188  0.4158583528650698  0.0785312000992318
  0.0793516404046736  0.3297210318449281  0.0794096787795903
  0.2460718602982625  0.2515791086063692  0.0017270654130192
  0.0756277689338376  0.9156340590212441  0.6717823670152825
  0.0778970047481317  0.2430106800932488  0.1707425348606674
  0.1605391455255371  0.0827348478376701  0.4216142380785594
  0.3364246690219235  0.0819227688618572  0.4167017645683227
  0.9950368798225177  0.4161542332476403  0.5775902591674675
  0.9974501895549817  0.3229865342823562  0.6657658153468716
  0.0874725103916596  0.4098904438424635  0.6634489710766411
  0.1588761354092731  0.9972384288287396  0.8317365077018272
  0.0757836792206362  0.2454756771545481  0.9991393426357607
  0.4121300337744210  0.3425537577826313  0.5800555720384624
  0.2403360414607824  0.3329066696896645  0.2478391380823207
  0.5049558821332636  0.0044189954705797  0.1637376216745605
  0.2504053995900071  0.0003978395970152  0.5831119212745250
  0.0859680344566937  0.4162801035991293  0.1682163782592444
  0.0767390507018861  0.1667407168044599  0.4135436201433969
  0.3364716962686866  0.9938792721006918  0.8353918359534583
  0.1604283366059623  0.9971366823400263  0.1687968858034404
  0.0768944558099714  0.1757336913735173  0.5841526178422720
  0.0731280403443182  0.8388275684959148  0.9193645793832286
  0.0858887509486120  0.9159575074947479  0.1667895025568222
  0.2458577453612590  0.0820103985946912  0.8311887735716753
  0.0821146715475869  0.8315587547028170  0.5796110322072927
  0.9946058252847617  0.5047417599569020  0.4970124493538630
  0.9881796828988064  0.5872323491928646  0.7510616286596501
  0.3271088696368850  0.2465347894408304  0.7485914003700131
  0.9174153444762962  0.9167070092130108  0.9977867359921387
  0.1563472723135055  0.1702171678581245  0.8308545174613041
  0.1619713122013074  0.1729190503799507  0.3281590439939462
  0.9948906415120401  0.5842163943590595  0.5721934535416158
  0.0787901996915214  0.3346531039583451  0.9180739015208698
  0.9899909550989632  0.9185913112177151  0.5832550017537630
  0.9922137854502610  0.0003223704777203  0.8336718931355301
  0.0855081704305595  0.4940722744530916  0.7495715307853335
  0.8280854389623483  0.6661009900754484  0.8334592421158653
  0.0776075231109839  0.0043576922213021  0.5825510891143407
  0.0745516211422615  0.0888634843049398  0.6707069627050111
  0.0802748049812398  0.9995097960832677  0.4182414671362935
  0.0748605178184845  0.6740228430039323  0.7495464518012788
  0.9958675555473356  0.4979509304934982  0.6620196783370715
  0.3317666903167395  0.1582190097791036  0.8359125113993823
  0.9207834070409564  0.1640183840478110  0.0838754788386381
  0.9943108513176703  0.4999055332011375  0.1696584337631163
  0.0771154064038244  0.6695781012585231  0.4070415490761169
  0.1623558553584128  0.6745682417780849  0.8358599621997992
  0.9942619048157894  0.3289275457821973  0.4963937407073479
  0.1642208322378800  0.1721891929853117  0.1667779594757022
  0.0721094689041463  0.6702453818434450  0.9235116178476596
  0.9185345551713440  0.7537791920994650  0.0063342116697528
  0.0717678184422912  0.0865704973481754  0.9973989527829749
  0.0737869366442088  0.0873720645873518  0.3307176616671066
  0.7448480484596510  0.5744539980356327  0.4167853466555607
  0.5819823373546704  0.5071471125384913  0.1680592279267825
  0.0813758643786086  0.2410973019102349  0.0851800135669438
  0.4981373432010647  0.9125059522960727  0.6722885134302956
  0.1571191583529210  0.0850089826650880  0.1640562453954958
  0.0749949811361491  0.4989794669495354  0.3301002958875413
  0.3976865043151003  0.7363792132201633  0.0692223923983194
  0.2392107653746260  0.4151367449425698  0.7471412352619669
  0.7474940123832384  0.6709377183435882  0.5040855434680126
  0.8277137045117960  0.5825372865191539  0.6691463106958205
  0.6627049089821397  0.0900797701165461  0.6708564120711852
  0.6609769275102103  0.7432894951846214  0.1610830295745146
  0.7397638148542780  0.5824302234733340  0.5891721049888560
  0.8338537801488671  0.9125444603270738  0.6727473862328448
  0.2508319153755159  0.4933553836449297  0.3352316854023970
  0.9167859995998511  0.7551474310583934  0.9166463698081415
  0.8268429604459705  0.3366352247643285  0.7480702312471573
  0.2460844561201962  0.8375954536066118  0.5004075160951692
  0.3401261306203798  0.5876220968134138  0.8354201666808921
  0.0709655536955797  0.6771130322448969  0.8364795723871152
  0.0777372830962873  0.2488308145952469  0.9119230772930459
  0.4948416177324306  0.4134721939248822  0.1619324261081747
  0.1619511239721224  0.6718662262655449  0.7421916335507017
  0.6697273314597850  0.5074819409563466  0.9129251582667096
  0.4202382789329789  0.4217027721677137  0.7483251252743668
  0.9921139692330833  0.4978959736972131  0.7519051582760541
  0.5756726712572134  0.4143652554138315  0.9138962390544518
  0.6679527197220223  0.9239869708411943  0.1666199588032847
  0.8356799120278509  0.3291034458196190  0.0801264391664151
  0.0034705120488353  0.7516769473745233  0.1683755663818148
  0.2475438206077740  0.0021022343247033  0.9990751142547267
  0.9951854532130600  0.5882824255402245  0.6592019491715357
  0.3369942435256105  0.6738678508574530  0.9294138610599991
  0.0807824186453238  0.3280241840377957  0.4947384029412532
  0.6672115697025413  0.4945120269532969  0.4227513919147696
  0.3270974202098245  0.4993693465317510  0.0800035287504352
  0.3371435585415810  0.5804654517551970  0.3303328143822896
  0.1610133898566931  0.8388155909896939  0.9217668218725370
  0.7436683865904787  0.8408859471451093  0.3373494669884329
  0.5855486421737253  0.5065764210559620  0.9991318241587400
  0.0832264416271051  0.7437360938722342  0.5857878064369910
  0.0772553241186453  0.5853080099514880  0.7456400371468788
  0.5843248698635503  0.7541497642334694  0.9176391192724831
  0.8313852154344585  0.4150894849191590  0.1720190696822005
  0.9981676249462408  0.3228231658583208  0.7542825231614170
  0.3347835670843958  0.7492312713874251  0.3248544757062617
  0.8350309176649688  0.2433733654143153  0.8354743092624896
  0.3249870249707965  0.4184253591247789  0.8406529273576835
  0.5849583418561591  0.5035192516096227  0.8259042952748258
  0.3292079074439497  0.7473996825907689  0.4985382959787568
  0.0790431304567620  0.9174014606065941  0.5830318239268777
  0.5011206441443626  0.1638975929858016  0.5903257783144197
  0.2409396938362940  0.2542950008813861  0.5807139594817695
  0.4184193842960111  0.6614487800940730  0.4944986249220538
  0.4043104085287790  0.6537473729462313  0.6820685375047219
  0.1569927537983688  0.8324696478798352  0.4116000961082562
  0.2506723597969423  0.6749199632370828  0.8357070586092095
  0.8276395544077833  0.6659886538677823  0.7476446702550242
  0.3348786404524419  0.5097617170776230  0.7436059989227082
  0.4973001771579007  0.3244727820180950  0.2462046108870463
  0.0836331875679546  0.4179828455628495  0.0796203483187747
  0.3303630505530248  0.0898989000613774  0.1701289434146705
  0.2492872585401640  0.8336860444316145  0.0074543359356657
  0.7530587354661801  0.2408960853067982  0.9182708429962717
  0.6634813367158073  0.3289550073593113  0.9166287736615711
  0.8282894100039905  0.6639103004541507  0.9206064530802116
  0.5074354790382708  0.3310876606489728  0.7468880084267944
  0.8338576016945487  0.9253898706543442  0.3309327939884173
  0.4898353259496773  0.5067477340115207  0.2527190737216361
  0.1543071985841163  0.0833261695373982  0.8271595203347460
  0.8358540336091250  0.5068602335906290  0.0811861880698333
  0.4140354286732603  0.7474001789396367  0.5832295713572321
  0.8330408646342997  0.9161061110885121  0.5006350090372776
  0.1607213453896605  0.0813801565460590  0.3349699630722948
  0.6598790099323639  0.7536099599523008  0.5025130218153385
  0.5026068400617483  0.0046417089914363  0.2558340276479964
  0.3258929161998980  0.9191130977008806  0.3363079906036072
  0.7498932302050353  0.5072937792392247  0.1692052036998036
  0.9989908304571614  0.4083383824641347  0.6649420067554833
  0.3259448025710421  0.2449928116575434  0.8406564179809420
  0.2554279547739282  0.5907106866224852  0.7406892251447466
  0.8322569313446750  0.2448717826027692  0.4911165995263729
  0.4955487541315056  0.3344923926299442  0.4174510558505373
  0.5817499539366590  0.4156526299025253  0.5819126393508058
  0.1629768243892556  0.8394104766886257  0.7475816652400019
  0.1619198392219938  0.5826281890669766  0.8390153955872266
  0.8388531418289584  0.0850679857859150  0.6703118058778664
  0.7524404030623113  0.1600509922267915  0.3369238872600366
  0.4103919688982773  0.4121854980492404  0.0815048532235817
  0.5837381094738046  0.5891205437688523  0.7471915330434469
  0.2525151951219485  0.1748664325618330  0.3278085547444648
  0.0741955719942625  0.5815213962118284  0.9257789711045237
  0.7446426818373038  0.7477575891040255  0.2478129372331841
  0.4228936270580401  0.1548756762881360  0.8433049305423117
  0.0770280092348176  0.4933720897849796  0.8385201467199125
  0.2512881531521528  0.0805676108557874  0.4206754097989059
  0.7469069545699515  0.4180962451558358  0.0820057419215511
  0.5748785439673900  0.9945726282200055  0.4973817816834087
  0.8314892142293689  0.8353404746373791  0.7562651796917302
  0.4180514690571641  0.3329087951996664  0.8419055043282810
  0.4961353628833950  0.9138496505653899  0.1650468042968774
  0.4915717282417418  0.1608658269248464  0.4134163952364858
  0.3295309825386699  0.9980908770248298  0.0824973334028388
  0.7494694416182712  0.0017023522196692  0.4998291327439918
  0.5786626871999203  0.5051809708760637  0.3419510756990036
  0.9987814049196603  0.4126377257394837  0.1671956066322475
  0.2417302743260653  0.1690456447452343  0.8344055438532287
  0.8299284244387499  0.7558617746201252  0.0030348374443956
  0.9900753782753239  0.1692089067935323  0.4164522369450914
  0.6636294417930330  0.2497871472581552  0.3339064246385901
  0.0835472208632220  0.3286486329701146  0.1701891458357844
  0.0623332145755670  0.6820763343942371  0.3139214508568700
  0.5737241853673500  0.1593031405986118  0.3251906257677628
  0.5746603785940565  0.8330934682705053  0.3353980511317732
  0.7525922511475824  0.0023621574428791  0.6743910496844170
  0.5801045794687962  0.9997343572336667  0.6743678215679869
  0.3244642041604624  0.3322048868797625  0.2485008185911934
  0.3279154241630288  0.1560565635981624  0.7481746196353343
  0.4104553913379929  0.8300307485946119  0.6749615742279195
  0.4167043058637740  0.2560972769888807  0.5794628755892125
  0.8296425008985843  0.2554489100870787  0.6628402821158729
  0.7423153453112618  0.8280590550090227  0.6694173325564007
  0.8294197606166758  0.0757615750704858  0.9970021687659065
  0.7522909384467905  0.2487972845942517  0.2486705113016909
  0.0747778485358610  0.0922887456466463  0.5820775727067697
  0.2485205050974456  0.9937715967167844  0.8283559879353329
  0.7574069380584275  0.4182117525734799  0.9117634696430308
  0.0716059909468651  0.9987495938708592  0.9999119773799450
  0.7559021830429662  0.8348584026404868  0.1588070794851101
  0.5835203306465117  0.4130815474912490  0.2501342312123966
  0.5763342712860762  0.8288848576392904  0.1598507038644505
  0.1672143247450046  0.0011615981281078  0.5797813847151682
  0.9991855081558736  0.9208343875527257  0.1675299163014211
  0.7518290405473055  0.9194806122205149  0.0736352397649242
  0.7468817138558869  0.1559299303762259  0.1587570507498175
  0.0863559615270161  0.4960992904740216  0.6582866754023328
  0.9159756361876766  0.5849889186566960  0.4143497724242493
  0.9943122387161381  0.9968320223012409  0.4196300809485665
  0.5751246826341333  0.2393250366288362  0.9158823760687840
  0.1612039812705343  0.6679729551582329  0.9271700028948857
  0.4117975927440646  0.5039786389579842  0.9943108087332486
  0.1583589303485193  0.0888053545565050  0.9973065428498383
  0.4143879515534312  0.0057404201905266  0.1661524073922702
  0.3241244753958637  0.3324308091422574  0.7458881746210269
  0.4121356792108781  0.9104099436308455  0.0770818329635902
  0.0760676756062368  0.0024185573775446  0.6726652340122425
  0.9240134943267463  0.7500271456995512  0.2501218482018500
  0.8330969233254042  0.7477015155382477  0.3390613990518836
  0.0798560463111360  0.6641357744446443  0.4901648101512304
  0.1627928829981906  0.1743749461786629  0.4195434300455154
  0.2438163445636282  0.5003707446675698  0.1616979197542640
  0.4105317854829490  0.9091400538387102  0.2568331398158120
  0.5852310083647373  0.1665714445748340  0.5011950915539907
  0.7448991964900551  0.3303924018638428  0.1674095010822529
  0.2416709755850636  0.7498762408617110  0.2471661033370060
  0.7399587926724425  0.3288980531984479  0.4933947900829471
  0.8180895000493159  0.4265086516214335  0.4842491310679825
  0.1702379956250666  0.4184569454143600  0.4959959799300181
  0.9074737300111314  0.4155476275373266  0.5817457068499152
  0.1609809169829433  0.5864036016034994  0.3278044720077075
  0.7427654822306545  0.6624767484245220  0.3326720581500271
  0.8346871409929399  0.1602492897657388  0.0811730086894374
  0.4103890129827251  0.9206362315701070  0.5755244037727362
  0.3263109320150338  0.1639197624814402  0.5790694661700622
  0.9991492051132138  0.5840443499774047  0.1637057129738085
  0.6617233611285379  0.1602811876043850  0.2439881161728069
  0.3366543368589301  0.0881458436642948  0.9943266059908719
  0.9951204925380306  0.4175282021369961  0.4882668696443813
  0.4140456841958274  0.5714970854459664  0.5783334020323225
  0.9921251674308400  0.8314510554191243  0.5823764436080262
  0.4200003763979722  0.2437015056492108  0.7491756203558372
  0.4072192500841184  0.0065009145008059  0.6690953549719724
  0.0776884843882139  0.9976777449659893  0.3318809849116967
  0.5003923906012745  0.9982424270728453  0.9973198020649786
  0.9140770468747550  0.7510031922603929  0.5002856581619852
  0.8323117125150021  0.5862767341601920  0.5797527826493603
  0.2444705437933551  0.6621988287768724  0.2457003241749491
  0.9945532750009978  0.7528342726771142  0.7510981435209753
  0.9150224512250881  0.7498407926687574  0.6666028459555883
  0.9153815954238554  0.6695137469677557  0.7492919118581762
  0.8383415142947054  0.9177712388050687  0.0821816232929744
  0.9964284368361370  0.9191298598071824  0.9159005750349997
  0.8404789059622405  0.8339485946922854  0.1660227304459126
  0.8322594171656184  0.8419425993698262  0.9967895723695781
  0.1674139898149035  0.6632583451008193  0.4967345508164950
  0.9159985672519730  0.8357819499749359  0.0827503247517117
  0.9166532377694248  0.8412926569585194  0.9167316650367003
  0.9133395534327698  0.7518421206094275  0.8306010414219877
  0.8330642291076364  0.6677976030216207  0.1652641225281195
  0.1674686050452603  0.4941866771255933  0.8344540819280725
  0.2461591483212164  0.8332937474800630  0.5866355745915183
  0.2484245684440493  0.6712177261530708  0.9272999815714792
  0.9111547205283222  0.5850667205731773  0.6631393365374318
  0.1605295791030567  0.7530672610146980  0.9207812956484552
  0.8355403697649397  0.6604630389034188  0.3319847615135201
  0.9110056539371558  0.6725089519110653  0.4195688052023853
  0.2454531138051663  0.7521433119544368  0.6655498936947618
  0.9957096713971275  0.6692685704652217  0.0035594825986804
  0.1656216071813638  0.6656041921796605  0.6572323962812312
  0.8317898466018052  0.4981069052953895  0.8339684832975933
  0.2406082993625671  0.8358250593316758  0.0927257573779981
  0.1598161910776743  0.9185778071111498  0.0840756644045550
  0.9162381729404740  0.8382005835802644  0.2504304760846010
  0.3328363809597618  0.8357010949168258  0.8330984157490042
  0.2481605328942065  0.7608306273371594  0.8356901215252387
  0.2443309143428543  0.4983337124216743  0.9201710629810905
  0.9155154075924259  0.6679183918938606  0.0828509952741234
  0.1617715787630570  0.7515085086104473  0.0830758097069399
  0.9134755876078253  0.6619981725966604  0.2481159805853889
  0.6632222563067919  0.5037091969057463  0.5078272028299071
  0.7470666286992792  0.4169263426299976  0.3323806840890745
  0.5012094702400223  0.5878024800056741  0.9170226576999155
  0.8317317815170315  0.9185393529170800  0.4172782927137691
  0.5780017176434273  0.5835237767317994  0.5012611519740585
  0.4971661106141798  0.7462253247666125  0.0803968954622081
  0.5790389265997055  0.5921812965230432  0.1662840169072546
  0.5796362714434398  0.7482761475351959  0.0025932112551514
  0.6650587358013653  0.6677512442300657  0.9994848426078589
  0.4213898472856640  0.5846397243745870  0.3341410138830040
  0.3308650260729317  0.3338086580220460  0.4970472364334859
  0.5781670583223519  0.6673693106732899  0.2509538358360294
  0.1591021142813725  0.9254173888349027  0.9158813429315791
  0.5781521127295256  0.8333246077514410  0.4209959096937728
  0.9198306202476342  0.2475194376180900  0.8318314732433097
  0.5763940335229725  0.6682772204966080  0.4167888845871656
  0.4131699103875540  0.4977507256278241  0.4174029717354267
  0.8302146137296136  0.7495079932906348  0.5825894127193385
  0.9120092647294791  0.5833099751105105  0.8353946326947344