Cr  N Ni 
 1.0000000000000000
    21.1326370199527886    0.0000000000000000    0.0000000000000000
     0.0000000000000000   21.1326370199527886    0.0000000000000000
     0.0000000000000000    0.0000000000000000   21.1326370199527886
 Cr  N   Ni 
 259 173 605
Direct
  0.4959082768043466  0.4159308863920929  0.5813644096077112
  0.6681628996529636  0.4167649467023381  0.5863181562789698
  0.3287704092313565  0.4191436020415867  0.7486619280795868
  0.4999626272741629  0.9146583646292379  0.5822534931487082
  0.5827569010370937  0.4985416643347785  0.7404906505774081
  0.4144945327528225  0.5731832764564798  0.4944088787326749
  0.4964359727792759  0.2482046481514497  0.0782532991306462
  0.6640364220661021  0.2421388302616838  0.9169418058544442
  0.7460663092646138  0.3286874117691890  0.0782991004565187
  0.5799902618488217  0.5850212418127367  0.6627065626025886
  0.5837104927338597  0.4144285835122125  0.1601663582091142
  0.2482373904632547  0.5848115317468929  0.3287639587547935
  0.7416585645712789  0.4174846045820598  0.1707726802729914
  0.4166124183793872  0.5079046958653013  0.7509345552208401
  0.7449750555386815  0.2443151143789556  0.4997840938098575
  0.4941247227474181  0.0040653996210813  0.6669250461589868
  0.3389763965233387  0.5817911022320943  0.7492087833047625
  0.5764005113762842  0.7521077335473830  0.4977990983190991
  0.5799754403266039  0.5027849274225036  0.9130214090428227
  0.4137956451199297  0.7471258107836395  0.6701339346922395
  0.5790923304557239  0.5913151117278329  0.8360450370582126
  0.4051554359610147  0.9138468363733672  0.1691875626067807
  0.4142624488696592  0.8269605002936136  0.0826572267654280
  0.5798983253309333  0.9161414521649621  0.1603416635110971
  0.5806182564456553  0.1549023252987433  0.9172481076662933
  0.4167691070444364  0.5038615256258256  0.0838116600076477
  0.1667436913634786  0.3317434922067533  0.4987273255357525
  0.4968310948629288  0.9163267870405635  0.2557252969864334
  0.5038410769854803  0.4191479326663324  0.7476993160772677
  0.4892614806267597  0.8292445792578131  0.1640906275454477
  0.3233101322225456  0.4099548656044490  0.0793373157778719
  0.5863641757415392  0.9129993159395766  0.6704774211920098
  0.3285505229641765  0.2546859443419529  0.5812876075069316
  0.4089990779307517  0.3349985383219867  0.4168404702579910
  0.7488455681680874  0.0892830024364598  0.6686849420565334
  0.7469669585540124  0.9944748055221310  0.7623648249473940
  0.7432580207416576  0.0802393846104319  0.9950387226877881
  0.7491323200698604  0.2439140545311060  0.1592983135076549
  0.3260900000518372  0.3321660546880255  0.8394598730402636
  0.2511366035041878  0.8352233476899743  0.7512339563763351
  0.5798152182477296  0.8351829282908929  0.4201622458424967
  0.5870087441374642  0.1669145587688816  0.5874929501839283
  0.2444411089998881  0.4949071015130899  0.2484971241372761
  0.8306303893284520  0.1675027863937949  0.6678695724435501
  0.3245817534952728  0.4987133871466425  0.9929368490058579
  0.5778770047336160  0.0884750962291791  0.6679321999239614
  0.3319885837440963  0.6710918222489278  0.0114173458307878
  0.5821421238104438  0.3268999832877253  0.2448291149108308
  0.3207269849745458  0.9158686420985025  0.2493456338152594
  0.5103040310964964  0.1649938745573489  0.8355626347625011
  0.7446337785023470  0.1598076539463462  0.0730142208954382
  0.4132195332799690  0.2480978176651371  0.8389326590761697
  0.9929415301267105  0.0841837648376544  0.4166934542295647
  0.4991501374222319  0.4157721982182193  0.0739278680187279
  0.4138759789850545  0.8342565724719568  0.5852217816949398
  0.1642937209982421  0.5035696207091243  0.4978184812020780
  0.2413195597924775  0.7514038164171567  0.3328258786820630
  0.5030438622356780  0.8279268361946565  0.6706580304725427
  0.4998413839083248  0.9169592334287445  0.9156704949580785
  0.8350210747599840  0.0744423814058354  0.0828464610020919
  0.4955312936339785  0.7533347089107084  0.9187381968274901
  0.7520711436026909  0.1579380220985827  0.2479959760638147
  0.4190415765357342  0.0932504615832789  0.1600965454384378
  0.5848141173766929  0.0805346269187988  0.4986552856313380
  0.4883188481231305  0.1700290412308636  0.3282719873393281
  0.9954092146973990  0.4172309048720889  0.0802545611129478
  0.0788193082926141  0.3281365487461162  0.0832853992945518
  0.0789463922087068  0.3332252088535030  0.9103347655688265
  0.9875405051381628  0.9990063443199136  0.8337644629334076
  0.8261219687107259  0.6680827201268525  0.8294564200680029
  0.0836381003701100  0.8311758804672854  0.5813209237885902
  0.9863762284375759  0.5873723528493930  0.7503892041144195
  0.3265207235923634  0.2436405473627946  0.7496879012501860
  0.9887344718173225  0.9174877676839136  0.5823985135578580
  0.8360058235599843  0.9178329497968694  0.0765137637334418
  0.0826871285183559  0.4944395465853220  0.7518217192571452
  0.1571469939873484  0.1706882615132271  0.8310199295620461
  0.0766948788470300  0.0041546663066911  0.5781679501364089
  0.1601327116836023  0.1721354045705289  0.3305350368684813
  0.0741813579437514  0.0887112307043558  0.6696458045608397
  0.9940106402745807  0.5851670401665934  0.5720319313143069
  0.0746514942599952  0.6741429817701190  0.7507859710272767
  0.9950912618371481  0.4987894054040650  0.6637302841562427
  0.3305990950588920  0.1693767625056646  0.8343603054521519
  0.8365026546062337  0.2448738685052469  0.0818566405635764
  0.9947199874864346  0.4994443913679081  0.1711270102407322
  0.0768442197058748  0.6716373284727382  0.4073231702355146
  0.1638576253482786  0.6754498300856454  0.8347344335490945
  0.9946306788084353  0.3275077932474483  0.4966197043834906
  0.1637736694094129  0.1709905298743390  0.1571250423566119
  0.0735917516883514  0.6692921424817789  0.9253713373351220
  0.9144552592743873  0.7514279823433622  0.0064354011585717
  0.0713301903190682  0.0854385970066419  0.9980668865624973
  0.0703328735731543  0.0855180549964989  0.3331372189306705
  0.0811540135992512  0.9987158529690526  0.4178642305159338
  0.2469054783338170  0.0828240057419663  0.8280254113175241
  0.0775880851139449  0.9120358503773668  0.6700325436503709
  0.9147797163974356  0.8414040502821417  0.9176316939173299
  0.2513722031424430  0.9996485313065778  0.5823171825948497
  0.4120030071591849  0.3255322008777853  0.0797495665544771
  0.3359819682653577  0.9910385480437345  0.8346235468220174
  0.0775294478282735  0.2420825275483170  0.1715828021449111
  0.2465055800902442  0.0895485786040964  0.9977593736306017
  0.3337783455640345  0.0814908768482712  0.4216090833432082
  0.0791804549582657  0.5777232096107385  0.4986548129308161
  0.9972569887862842  0.3235913887090814  0.6661458222176173
  0.0790716457831849  0.9111590601874032  0.0032355204892866
  0.1613082758855180  0.9964972944209418  0.8307042354835258
  0.0749636875122019  0.2428318110714192  0.9988713487702692
  0.2429086485112460  0.3347315918934081  0.2482696427520654
  0.5031560478988704  0.0063039425562990  0.1635341748342708
  0.0855270402462666  0.4153257566625230  0.1692945525827242
  0.0755069734467404  0.1688258521272692  0.4133144013320320
  0.1643976474719626  0.9952091678112298  0.1693007413708315
  0.0770280153116855  0.1759051293286041  0.5853013472878832
  0.1632996018458613  0.4985205067710918  0.3326690599099957
  0.9914815842046318  0.9999390310468104  0.3296914017684196
  0.1584140223724944  0.0829695343166126  0.4210177106354988
  0.9951071823478009  0.5844843392000394  0.0781010817520381
  0.2413880164385361  0.1678778007929544  0.5858314427006277
  0.9969834521426540  0.4161867850666417  0.5778209610819749
  0.8394812284168670  0.9990157952474142  0.6664076688141235
  0.8431980087494828  0.4168800670694404  0.9156478967069098
  0.0869932450343395  0.4095068141248203  0.6652594148716247
  0.2492990430874944  0.1705295079165331  0.4186106395525136
  0.9871823778714220  0.9979335473081867  0.9986111937772008
  0.4122542158388325  0.3432750718671072  0.5808509443917343
  0.9176493539964260  0.8324899722843649  0.7524726468476531
  0.6653050607902102  0.9990740769043209  0.6692533951779907
  0.5815253949475823  0.7406391108652014  0.1645920349065968
  0.2529114970767699  0.8342672657340875  0.9166331049891077
  0.8363629255363992  0.9142633357797861  0.5847237694923086
  0.8290013795582668  0.9222064688450229  0.7592154831785538
  0.7423373326085484  0.8342781125987412  0.7574216301127854
  0.8259735075961698  0.7545131172888991  0.9176360702903136
  0.2511028676296665  0.5805647286324039  0.8358747139687300
  0.2396531620644702  0.4990815790626684  0.0770103280180192
  0.0843777478799297  0.5826610860011163  0.6577032347137334
  0.3373433086383033  0.1706780389361614  0.3310869123581180
  0.4087352240794942  0.9186169538007452  0.6682675476482191
  0.3302529940214109  0.0879374859553336  0.0805958457736567
  0.4232633716436907  0.0745806173789841  0.8365238737009839
  0.7463375274014080  0.5829814589921463  0.5028487191105585
  0.4140765606206446  0.1665638400625620  0.5810467781782694
  0.7469372560723165  0.6600641765012623  0.2465613785644396
  0.5805825925738766  0.5935731757222298  0.0005936270633665
  0.7441431768896444  0.6700239384896666  0.5921962535692897
  0.7479027919234110  0.6679050833927848  0.4179834889984713
  0.7487229743649835  0.9251997346263918  0.1664831565898224
  0.7522935896991663  0.4912811512965358  0.4170506519840513
  0.0740874170951671  0.5871355841950843  0.3302830530875919
  0.1654466070742208  0.5792643760046244  0.7492940375739049
  0.8243339700681253  0.4172969865833762  0.5841744792458914
  0.4910888361917123  0.4999848654933040  0.3391900413286615
  0.9935616739981445  0.7447705888576155  0.5816299466098976
  0.2472142258069518  0.1728666619350784  0.2425391744319983
  0.7459283699574687  0.8346104338918288  0.2480385981564809
  0.7373151493648230  0.4162979439705671  0.5016733970617911
  0.8337084180360907  0.0064176572710008  0.3316796568020106
  0.7538805392789032  0.5058503618830632  0.9159354784508802
  0.7478016653734519  0.7569073059483492  0.5006967880940516
  0.1673811107907432  0.5794924516456041  0.9258668411995631
  0.8342137112201207  0.0037577604354182  0.5007028015469752
  0.4948656407366954  0.1650012250599548  0.4996872387266230
  0.9954468489992768  0.0049683919659465  0.1675559920732374
  0.6634310745530257  0.1600476351782456  0.3355917045226413
  0.7514788072266982  0.2489443676080322  0.3355105481146017
  0.6625717159170018  0.8327164343993324  0.1638739412766531
  0.9155265971062863  0.1647115142430855  0.2494504920434500
  0.8334350080771080  0.2454491965683426  0.5783078954766555
  0.4121703763816709  0.0069618643254413  0.5811631013357319
  0.8350576015873850  0.8302663629809086  0.3342428379811155
  0.8400883911607713  0.2474746880107080  0.9197876251879759
  0.8312370792443540  0.8242029817748221  0.6639023605553456
  0.8362823533970565  0.5044905524718903  0.1698120266934676
  0.6690101938088753  0.7499877984670441  0.9167291061406240
  0.5815396172831030  0.1611206789943439  0.4149011374310684
  0.4129407309250950  0.9179131219140184  0.3453249592118663
  0.6603996687762897  0.9189760752245080  0.0744506094784988
  0.7447385885068821  0.2477907789000580  0.8266717842362363
  0.1608766126512666  0.8339803247183987  0.0065877160964249
  0.4210887200467249  0.0010551599023274  0.0783048908203085
  0.8353613287941135  0.3269241218658759  0.1695840253260391
  0.3370247790224776  0.9984619826083200  0.9939546183779530
  0.3222902481244384  0.9969098183837051  0.1712813010981249
  0.8316542058062323  0.2457855086703592  0.7495400984719111
  0.7422630033987859  0.8307178274214001  0.0736278042465005
  0.1676259783272591  0.0002767463960511  0.6677891254793432
  0.6678092223405727  0.4177248479492750  0.9144606443641979
  0.8310449631299848  0.3315156599565492  0.4945259545663224
  0.8379992128934854  0.4179555627336489  0.0795142821707673
  0.1642409737413143  0.8342220695511704  0.6619548979382938
  0.6662895133358303  0.4997424033506638  0.3322746131148763
  0.7418751481590147  0.9143592384649610  0.6684471764897859
  0.7467906429965798  0.7513259010137138  0.3378334525017168
  0.5834748969678246  0.7535117193968324  0.8309923642918862
  0.5770255597710293  0.3273650971170767  0.9190728981384079
  0.3304790340737082  0.7470159047712418  0.2423383444144311
  0.9134701434269535  0.7531791518298162  0.3376391212661192
  0.5837404719750752  0.4150662769862901  0.8255653114383725
  0.5816053572030360  0.5022084845986161  0.2532605038014755
  0.5764900595464949  0.1674227107695839  0.2396522004855300
  0.3402434728349753  0.6717254975841839  0.8355487459619976
  0.3291244348703730  0.5826702627830715  0.9236756037358105
  0.3360656545708182  0.7580592109454667  0.9164307448005434
  0.7439860235258962  0.9255000930540861  0.3332356465211524
  0.4131910469678191  0.0014146289858275  0.2564118210699411
  0.3362114975371904  0.4965997972711234  0.3341933350626219
  0.4168280504254426  0.1601426453695247  0.7506057126976435
  0.4164700724968720  0.3346400975619361  0.7495043044369228
  0.4951559938099313  0.3268292639437488  0.1568778053359963
  0.6605907567394844  0.2507651114046780  0.2458588134019302
  0.4915554315139283  0.5054842892149118  0.1622170415978132
  0.4907701879808029  0.4172179002813939  0.2521459919457641
  0.4224213393136759  0.7467966897435503  0.4935640351193404
  0.4161344010298691  0.6607487473034926  0.5803666057123877
  0.3248973467067097  0.7498493256478613  0.5875900015430501
  0.5793620717286979  0.4157050891315228  0.0031892605150062
  0.5026283107957537  0.2544931553838137  0.5840988035653798
  0.4167505430401940  0.5741950239091815  0.6662442219034517
  0.7446775652917578  0.1554662819844831  0.9154566453505769
  0.5778200268824718  0.5011427681232647  0.4267028627276219
  0.3279412264655024  0.8389529626042395  0.4959759891074678
  0.5097031083810878  0.6690709977119960  0.6672217964584242
  0.7405999763350001  0.3312385980031615  0.7489863585003891
  0.4957373789937374  0.5035245384012121  0.9987777130454462
  0.3300614406510387  0.5016220032445072  0.1695073094698893
  0.7508694927674332  0.3309473461528942  0.9167346363584049
  0.5810127437783378  0.5064613206448185  0.0829144050125285
  0.2498726207619692  0.6728186990417421  0.7447998305722675
  0.7469899695245208  0.5072985795352003  0.0797503679547282
  0.1596553818229222  0.6732868376774245  0.3302973753660448
  0.2461566797235421  0.0822667622552352  0.3303384129383454
  0.9097622324162775  0.4152338622358723  0.4947954710299228
  0.9126101902008414  0.5851923370896073  0.5019588470037513
  0.2421783982122398  0.7495188382012379  0.4977016216998780
  0.0807595827822400  0.4123376681571111  0.3317520121484616
  0.9100585069096717  0.5813684760358413  0.3290140701454347
  0.3314230292513387  0.6621205299619944  0.4967661098294511
  0.4987173500013302  0.0849665217142133  0.0794247415890751
  0.8277318547606136  0.3392920750117846  0.6610442036848264
  0.0765799084091592  0.5814831874681614  0.8353411925490711
  0.1610116833132199  0.8331383113633345  0.8338529726226563
  0.2477408510052187  0.4979338055963072  0.7490202525986974
  0.1551628985813677  0.4123597302734759  0.7525225748813702
  0.8343741794254195  0.7512563840817359  0.2513112478171788
  0.0771836193825189  0.4923875167396600  0.9150313242743336
  0.8291604512724089  0.6721705846545833  0.6673299186349402
  0.1556156202296029  0.8348233830722165  0.4954931787765200
  0.1618073453058566  0.0853216144932200  0.2489131872804919
  0.0112808052674860  0.7425335677353797  0.2566699637873932
  0.1613468335625127  0.9974880041998713  0.0005491557390361
  0.9159629365688052  0.6668144469520539  0.9242103134105022
  0.8299956545080719  0.6691773716693884  0.0037188923240063
  0.9940211639554429  0.4949863759884878  0.8405463204459080
  0.7433444062690576  0.7446202734284815  0.1604856215207737
  0.0021064640460128  0.7548596119261823  0.9219889995015584
  0.9177457891703118  0.7505683123385373  0.1617426312356155
  0.7410956462969032  0.5833831547231669  0.6744746791314912
  0.1551497872461745  0.1756992117486172  0.2423854275595271
  0.5738575598086608  0.1605041933106434  0.3258257498481174
  0.4165878838025456  0.4238810465012385  0.7496474353304766
  0.6693149206490258  0.5076857435976687  0.9130275670048548
  0.0760142941436462  0.5850477890691722  0.7453307985539743
  0.3264480454580019  0.3332964411576038  0.2487643342210267
  0.9906929200555125  0.4961657527494459  0.7534958758948012
  0.0838965230639277  0.2385792079779757  0.0862520062080306
  0.7446788107891312  0.5781981883881822  0.4161079692747746
  0.3421439519973004  0.5784480542079904  0.8379478730841267
  0.7479186480073508  0.6708102939598459  0.5057478052588663
  0.2506352500314568  0.4932818267959226  0.3367530506438345
  0.8264801764703527  0.3379956130767878  0.7487724798963304
  0.8270126686629129  0.5857309246864378  0.6707842713001759
  0.2396537215965273  0.4121974983229610  0.7492880803075833
  0.6628267163073073  0.0902201014845665  0.6706211249084069
  0.0726601082838961  0.6743182342798146  0.8380567246690849
  0.0724157864207470  0.9975345301890350  0.0051482929368862
  0.1576327374980610  0.0813754523232140  0.1625831030475312
  0.4984201910012148  0.9154392958613196  0.6733158897262581
  0.0846845052780813  0.3275436908871766  0.1735070246173594
  0.2433794829582165  0.1721255640369803  0.8318830566781341
  0.4105389089294618  0.4123052022367547  0.0800011439718217
  0.6630401211917091  0.9244230666574872  0.1666004946556120
  0.8362606700067649  0.3307336249508086  0.0794092810441834
  0.0803663451068719  0.2456583376930092  0.9100601591697195
  0.2486045149542194  0.0016013321929810  0.9990301798080023
  0.0806203033674747  0.7446573546066555  0.5843678905841405
  0.8389632558514607  0.0841574175866036  0.6710011518605118
  0.2476364202823627  0.0800318446381052  0.4228048836029733
  0.2491940690798099  0.9930251633954524  0.8280916810493381
  0.7456576015421786  0.4186543263219900  0.0814300309438730
  0.8308775380438403  0.8319230510397393  0.7552915642262729
  0.4134601202002458  0.3347437302615180  0.8417037035188736
  0.4931430586483483  0.9181046959577351  0.1647548601245008
  0.4905223026827347  0.1621764480381311  0.4136697105885093
  0.3302844740333689  0.9989124318920899  0.0821665340629879
  0.7483731504027836  0.0016732557091027  0.5002447616755323
  0.5780975693106074  0.5047918380641843  0.3416015631807280
  0.9983917326020509  0.4120069779930342  0.1690347560905525
  0.7521499666058642  0.2487764144303380  0.2483373777004265
  0.5748936068975207  0.4143040801846327  0.9134754288870782
  0.8366981933455336  0.9215852825858641  0.1622804796405706
  0.1581403084059779  0.0893275637844447  0.9957619064474882
  0.7407536971829387  0.3296996714602938  0.4943173775181637
  0.8222353345402179  0.4224615695222704  0.4911497201378132
  0.1700173887203424  0.4183542808711871  0.4982609241350259
  0.9103402094925767  0.4172882933731674  0.5834773067890977
  0.9161044247450101  0.5838671058539862  0.4152553484358008
  0.7452724366192349  0.6629113943958542  0.3315564828602167
  0.9932093235852953  0.9945690433340295  0.4179003273038711
  0.3267129364745076  0.1651344413930029  0.5824243630091446
  0.1615629540698237  0.1745012540735525  0.4216929774391430
  0.5744617175495945  0.2391974407533854  0.9128391406826117
  0.3369275156151952  0.0905903942164510  0.9944809599244367
  0.1619858600258177  0.6675606166531018  0.9270617855258161
  0.4160340154920495  0.5709721528496555  0.5799504906709645
  0.9921159982734734  0.8307127773840086  0.5804116184363269
  0.4103390299681882  0.5059706953796377  0.9933911931469953
  0.4061638958547368  0.0087071549394264  0.6707841808412032
  0.0785770549714583  0.9943723092586331  0.3303483719873386
  0.4069806475817370  0.9103301804454379  0.2601225461151951
  0.6625216663556832  0.1601945576634352  0.2425449754799531
  0.2419394078582100  0.5009242864190596  0.1631745750386085
  0.0857052320148234  0.4956694512939701  0.6607284448223782
  0.7459287538933056  0.1565894755273473  0.1590207944952143
  0.5857094166528849  0.1697661060040536  0.5012931278328223
  0.9237347699915760  0.7495850076264745  0.2516653458971521
  0.0762781501078389  0.6627174160529402  0.4919915175081520
  0.8340532339032611  0.1591253857532255  0.0825595910381457
  0.2434075348643155  0.7502009945441415  0.2446201665909284
  0.1671347765615837  0.0014274758735277  0.5803682458703545
  0.0044824670716119  0.9210087729609606  0.1673193699815229
  0.7488900555633701  0.9192111434841739  0.0730927034172103
  0.3233510016170948  0.3303020041345330  0.7510454481703338
  0.4124369044434774  0.0056097594594691  0.1679227382010096
  0.1610892214502082  0.5870750703076180  0.3277600126588209
  0.4112497751567780  0.9224638214151115  0.5768041271756248
  0.9989419510496562  0.5836450880196162  0.1641903053857293
  0.4129002804197662  0.9110327232876704  0.0784101551883482
  0.9965698459928014  0.4159663132143124  0.4890460994434577
  0.0780623879855864  0.0008246213664544  0.6674552546220085
  0.4167296717282421  0.2453666741728554  0.7500798132933141
  0.7528668453541388  0.1600103382252152  0.3375783042877271
  0.7438640965293858  0.3304446007064040  0.1680701572376090
  0.4934127740964682  0.7422604989754025  0.1664408754681321
  0.8299087757409450  0.0757421820644042  0.9959623446492508
  0.6639962131716111  0.3293135988409042  0.9169673860430438
  0.1610948179004826  0.6696179259124005  0.7422394048669561
  0.4235786518633604  0.1607043109856290  0.8412555562092827
  0.0804792131077381  0.3314835397842795  0.9952395495014783
  0.9887902680732851  0.1712697846381054  0.4187603999922225
  0.5774208148787332  0.9960520878166050  0.4984031856899707
  0.8313735263063349  0.7455206425174383  0.1609104701190716
  0.1649778283541922  0.5795796769659460  0.8382450109430520
  0.0067222020261952  0.7512293407007711  0.1681290949531757
  0.4942266178257960  0.4155068190210762  0.1617321713139643
  0.8336698407150542  0.9114850409612095  0.6726306102114770
  0.3374622338038878  0.6712715137153018  0.9264554186947127
  0.0813179216192318  0.3277387765222671  0.4961470539225779
  0.6649836379683555  0.4957518593865463  0.4216940339328573
  0.3268529101364752  0.5010662868413882  0.0811246898284481
  0.3371216136649224  0.5825320092279094  0.3305557825817708
  0.1630550273182123  0.8369056914781594  0.9200391891643828
  0.7465078091330895  0.8395506801084616  0.3378691704995874
  0.5845090163981561  0.5063082411407629  0.9987353591328545
  0.9948021377442303  0.5884840345986136  0.6581468677775684
  0.7409776993874546  0.5819681668845582  0.5895578033638260
  0.9152508060951435  0.7548297113796575  0.9165558812610350
  0.5798114777690507  0.0011188512845884  0.6737110094431215
  0.7420461946781215  0.8275932496823063  0.6685389245263115
  0.5766520244002431  0.8275382720634079  0.1609304856694527
  0.5811827974814796  0.5072951295144936  0.1674804362144743
  0.2507095425086916  0.1754945305737010  0.3300485275325980
  0.5842406134140674  0.5888877652254668  0.7482098198628701
  0.5829195503837163  0.4128002222544285  0.2506347661418777
  0.0737937862660228  0.4983391412313331  0.3309649670955557
  0.5763842036976841  0.8328546379261212  0.3349640432173974
  0.7526023874368853  0.0018741883522611  0.6749930572627177
  0.0661969726369007  0.6820690907174193  0.3149066482994577
  0.4167629362883091  0.2568830075857803  0.5800844372780639
  0.0744506024949397  0.0924973005908655  0.5810837998546261
  0.7578958612088682  0.4185159456477636  0.9110857388625905
  0.7512876860686251  0.8340921959647188  0.1601020315815813
  0.3370687891776093  0.0815680603579537  0.3352755863114530
  0.8291377322380282  0.2541622698829801  0.6621847851429024
  0.4119310171211483  0.8325120998928862  0.6774692446472780
  0.2396623993903906  0.8385350713202159  0.4986957310187267
  0.6634964476281221  0.2509480529094504  0.3355383828721217
  0.7429732846179106  0.7465953818268710  0.2492257403426120
  0.0778188852625134  0.5775930230624183  0.9262534492878475
  0.5021511243118529  0.0053300751392859  0.2557723578274013
  0.6609970092460828  0.7531327827156497  0.5034725310208764
  0.3366308423813522  0.0786415276096885  0.8259235935765245
  0.8327798836943190  0.2426630972278258  0.4906062629980931
  0.5823581352582309  0.7540608131052722  0.9180626527455029
  0.2410701441325611  0.2548253533132758  0.5813628082360072
  0.7527771331118602  0.2411505231405061  0.9179052091704020
  0.8311660486766752  0.4163113682551859  0.1722901241495421
  0.5064549003748683  0.3329430404301330  0.7478436430092557
  0.8341640060465993  0.9208465787801463  0.3324944591602794
  0.4158505344302260  0.8363804809690732  0.4948090187796299
  0.5835537015159997  0.5031454077279128  0.8256466941099276
  0.0769234151445911  0.9175983698804884  0.5806902930155995
  0.4226314362065378  0.6580334383969474  0.4898127068190586
  0.2451762908897503  0.6599671193896295  0.4965151868111650
  0.9980164321877705  0.4089562508423082  0.6657317381457847
  0.3394033954631979  0.6729347138737873  0.7469198779334093
  0.2526810843831565  0.5838680757152861  0.7396095833148721
  0.3308579924761370  0.0901605671051343  0.1673330846333131
  0.1612771914149611  0.8378724796471444  0.7467285576591891
  0.4904127364372013  0.5073879980711457  0.2523505833843677
  0.7490981912922623  0.5077977493744187  0.1698418709441372
  0.1565296395941115  0.0843186047401149  0.8257434548827119
  0.5824334392709901  0.4160963928841657  0.5808809980464452
  0.8351331928818224  0.2432659881128483  0.8351821546157996
  0.9863448481657123  0.5825587840732809  0.8397484482999531
  0.9983759731225155  0.3218434581603882  0.7541189807729577
  0.3314072445614087  0.7504062285232878  0.4989121518889074
  0.8354339650716445  0.5076998971565668  0.0814700533351074
  0.5012129955097964  0.1652184603654225  0.5907604309967834
  0.4955600717240943  0.3353819511278038  0.4175137973959365
  0.4159487311124833  0.7475245756393846  0.5825093337096953
  0.3316767786028901  0.7529194733757140  0.3286439734512447
  0.8333801796602277  0.9146868631461554  0.5006278395846246
  0.2522214676111975  0.6714206262242792  0.8347388400334154
  0.0723765596916295  0.9953099844630531  0.8344397887094054
  0.1576955230425117  0.0790182578261706  0.3346914366503825
  0.4951741721877322  0.3266873850376765  0.2466527290668255
  0.0836071003008574  0.4180263777009637  0.0813241805557185
  0.8273924526727964  0.6654322894728580  0.9162677794262527
  0.4242514814252045  0.6590594341002233  0.6704726953751420
  0.2508353758487095  0.8324374546105052  0.0051446059915548
  0.3245769106672919  0.9155311057705553  0.5826160995393160
  0.4990645064085318  0.0791900363606100  0.5799687439527709
  0.5790895737157969  0.0850492086821439  0.1611158184360859
  0.5797176574036949  0.0015943275456670  0.0783374357097564
  0.5806073971019649  0.0809912132766341  0.9984274677673862
  0.5807261408947663  0.9984824533099887  0.9162126028750051
  0.3336151506768442  0.9153690132072391  0.9165228584997516
  0.4120632402601976  0.0021134101117809  0.4153879727424477
  0.6640206853554632  0.9958397826135115  0.5013517990468623
  0.3224031437321803  0.9994121467244297  0.6651557169793076
  0.3304408154719868  0.9160597323109212  0.7503423032462904
  0.4971714291541473  0.0764356307362045  0.4192967137365634
  0.5750479644511846  0.2522941732846912  0.3313536360352100
  0.5823342953430894  0.9966912433467441  0.4128873924802782
  0.4918154180232652  0.9994208366353182  0.4989149268871341
  0.4128652649101848  0.8301876976081503  0.4098411407224199
  0.4971616081312007  0.3301402255854764  0.0003161009944538
  0.3266952896777238  0.9180990076866290  0.4148087387628118
  0.4997960633517721  0.0792654277736802  0.9171518164608619
  0.4181492753571033  0.8355006250664436  0.7610471993159889
  0.4985046705923358  0.1642138084093451  0.9981928274926131
  0.5826741335233352  0.8331768486698370  0.0738114604552365
  0.5788002383872055  0.1647688243080115  0.0785135498015383
  0.4108213021153289  0.3310593767681185  0.2470240374588268
  0.4123496983757030  0.8255059020538480  0.2487341022278045
  0.4906959684722866  0.2476948157408157  0.9209124715792386
  0.5791142633458912  0.2484197213212929  0.1591552885798123
  0.4109796009805357  0.9231494353212775  0.4893903810183634
  0.5793644035101353  0.0749570500925188  0.3332119647571687
  0.4262630162319732  0.5870570519455052  0.8351540618112099
  0.4943660015652763  0.3326289072806013  0.3324231412814884
  0.5806702130410319  0.9987909842932081  0.5848159358313136
  0.4189323866218479  0.7541196824567505  0.8362359507464109
  0.3286556524453937  0.8389563346929020  0.3333888369719042
  0.5775614249662789  0.4131992803269802  0.3386056724433297
  0.8322914546406149  0.0798220698147008  0.9112854710890699
  0.4174779533059827  0.7479612775898784  0.3308112752475718
  0.5832948754710523  0.3291427180148327  0.5848910393035079
  0.4158376569895569  0.7514975428135909  0.0003512402887220
  0.4148632704330074  0.6671111229546083  0.4069711283465240
  0.4901366953487423  0.4153275550582597  0.9181785000032426
  0.3297735715046810  0.6666442448860955  0.3303612308451816
  0.4978185291894803  0.3347064825629738  0.5040671092011993
  0.4117401281034838  0.4209682758318031  0.8391078248039064
  0.5003301602929424  0.1680900486679457  0.6754586835089440
  0.5825559263352078  0.4150874054470939  0.6683256710091953
  0.5013694540931659  0.0815947511923133  0.7531491302905102
  0.4983831827594725  0.3344533904040899  0.6612377253166047
  0.4171150818989323  0.9152194759525565  0.9928599887431908
  0.4079562140292368  0.7471994604382346  0.1643346587253579
  0.3238821296900144  0.9105718613309081  0.0855986937801504
  0.5022070135975850  0.3309041510181113  0.8367708605790718
  0.4122016574214865  0.6665119994053190  0.2478164669426705
  0.9144362972697501  0.9968195057743469  0.9157114392082536
  0.7467729152202776  0.9997042536160620  0.9144677692535572