Cr  N Ni 
 1.0000000000000000
    21.1326370199527886    0.0000000000000000    0.0000000000000000
     0.0000000000000000   21.1326370199527886    0.0000000000000000
     0.0000000000000000    0.0000000000000000   21.1326370199527886
 Cr  N   Ni 
 259 173 605
Direct
  0.5788139474523060  0.5003131050299274  0.5862561843834297
  0.4039174007921769  0.3295962548248296  0.2474490536832238
  0.7477740281966581  0.2442189928837890  0.0051551443073722
  0.7441011755378496  0.3321384755750319  0.0814599671108445
  0.6654386610781635  0.3296789268510735  0.1613053342914359
  0.7426646495531130  0.4079252947129288  0.1650239599858569
  0.7420703660616474  0.2421046645109777  0.5027672657557934
  0.6729224936784487  0.4210855283952689  0.7490923311982114
  0.3320811658939672  0.4162931027388044  0.7445498568020129
  0.4131528505944797  0.5876871505203025  0.1642339809689782
  0.5790971769053734  0.9121242565467323  0.5000684922878558
  0.3368889199079018  0.5014168257030176  0.8310585381229166
  0.5847274372883592  0.5072359527081783  0.7500326477785354
  0.5018768728168878  0.9140714206792808  0.5815390919859946
  0.4155898587727718  0.5783391077348918  0.4965553168386573
  0.3421371694553599  0.5934409481552136  0.7398091365963961
  0.5812577814491299  0.5075836332207703  0.9170930003423168
  0.4894638303536220  0.8285617361697940  0.1658873174075164
  0.5801030949708944  0.5859553925536215  0.8356649738526024
  0.5858394541163963  0.9199372996766294  0.1655871292026440
  0.4955479761827610  0.5912416045737801  0.2467044273948298
  0.4157910100357149  0.5010173648180370  0.0867759813587922
  0.7499188403222388  0.1580984771968896  0.9156939966941118
  0.4971794990185993  0.8342432053439583  0.3367826394488982
  0.7460881838701867  0.3322844058294430  0.4095422705736524
  0.5783693137046557  0.7433544255606810  0.1660196946726592
  0.4112096317558438  0.8354215848587341  0.5775206722450191
  0.5000092333186267  0.7518292983522915  0.5800146978689756
  0.3257949466941347  0.8392571346460147  0.4985261842613292
  0.5017302421290085  0.7537760029854800  0.7542396519279924
  0.4186075265686922  0.4164109573881156  0.9978927073273282
  0.4999163040635792  0.0002440915283247  0.8349262356651573
  0.5002558377941330  0.7526809219686852  0.9129313390867838
  0.4961761737269600  0.4160502321329895  0.0769237745221898
  0.5806917778337644  0.2523412114641651  0.3268311726153718
  0.2480798303655938  0.4199533962388604  0.5005418950719590
  0.4140674942943278  0.8289552507300643  0.0852989134008080
  0.5001073088824353  0.8370108411050973  0.6664219710669309
  0.5806862603892735  0.2466000450184498  0.0035429649700991
  0.7512115735207732  0.0901325009799347  0.9986237638411611
  0.1683576796722491  0.3319293548446643  0.4957837514186846
  0.7493871450270267  0.1557828391614806  0.2422769348352953
  0.4238668535764406  0.4180483774146083  0.8375810653810277
  0.4097066317940705  0.3282026343293624  0.4147362956784814
  0.5715002489997348  0.9163747149356445  0.6679732741012493
  0.7467529108002577  0.0052377277223775  0.9086289365882009
  0.3323385507708494  0.2471828722662174  0.5854692883782079
  0.7477353521505762  0.2497443119183159  0.1574376594510144
  0.6675758788201090  0.0012084020299809  0.5044915268378473
  0.3223297683724743  0.8353186437666216  0.6668088771648834
  0.6644609822822481  0.0811436572211112  0.5855379883991317
  0.5004782134323656  0.0758482087971951  0.7523846039099209
  0.6663440697392400  0.1712385581916178  0.0016000212673038
  0.5835256835118222  0.0806215007043095  0.6677949587593045
  0.3308273515006309  0.3271617234418084  0.8356041459709126
  0.5801843028910296  0.9982078141112896  0.7511675528645656
  0.5792362887068442  0.7528519307527437  0.3384564278435895
  0.4935655620999049  0.2414625144386474  0.2479181237312358
  0.2556154369755068  0.4958068099751538  0.2480285040096393
  0.5834106369567983  0.1627181111145440  0.7487588867583200
  0.4148096162129511  0.5901985758381771  0.0068417442203626
  0.5002803278700593  0.1621308368784560  0.8400731045752665
  0.3317474312721823  0.5876971480202771  0.0840940285420260
  0.4949210268910385  0.1743250984797849  0.1637899591913080
  0.4171050232059357  0.9100264228298867  0.3358936961298893
  0.1759790931148627  0.0834083955025342  0.4165194963790930
  0.2483073639200327  0.2469687463199443  0.4959790160306959
  0.9997295695576254  0.6737834702882992  0.6625198258465355
  0.9940417458538051  0.9981139009526502  0.5042014445327040
  0.0795409859118005  0.5014128268048923  0.7513761010317636
  0.0807515793065116  0.9930926099452381  0.5848062899109547
  0.0789017139856983  0.0833555964875962  0.6726353575509758
  0.1626525892820249  0.2458228132322752  0.9162008401640301
  0.2458492519441609  0.2411879223710651  0.8344157104796234
  0.0773643013538516  0.0012719671114929  0.7585039014090995
  0.0042565933699407  0.9325445552122825  0.9232084747600614
  0.9999552513794874  0.7581276509761605  0.7508877577163809
  0.1622179751675366  0.1701282853969117  0.8362311271666216
  0.0800405663612408  0.7558848700513904  0.4967238794730739
  0.1665413034176408  0.0869447962972440  0.2437534047385676
  0.9932552745589347  0.5813454998137574  0.7531251651347970
  0.0752853492783461  0.7568537016203317  0.3336406282966120
  0.0832791790152419  0.9963797122506723  0.4131205969998807
  0.0812809899390990  0.6689013485942932  0.7496276957002039
  0.9919026598766448  0.2455997321423742  0.0821215937218593
  0.9174877709675883  0.7521009477181071  0.0029269078549016
  0.0811100551188526  0.6694068766428967  0.9259731102666383
  0.0893938099128741  0.4176578353947367  0.4948483177031828
  0.0789674572513649  0.9968139369251301  0.2493445332948795
  0.1703281910247983  0.6733722976564611  0.8360173319289600
  0.0777646696991558  0.6698972081717620  0.4241447852183102
  0.9928710496298857  0.5854356835854786  0.9196502905965332
  0.9932524711543769  0.9981564623233196  0.1641598130637109
  0.3250804878155915  0.1653137826444600  0.8347775453362524
  0.9901274301505499  0.4988173415795175  0.6673456694862264
  0.2514400871570188  0.0802634912081183  0.8345889399247642
  0.9075805438390253  0.3297310986600142  0.9176633145812669
  0.0837774428840323  0.8399890067601893  0.9160212308627810
  0.2452140822115498  0.0000696096810457  0.4183424974364272
  0.0002361536982627  0.3305889437661420  0.4946684053595759
  0.9920470254714573  0.4124727333892447  0.7557598024699370
  0.0851284315313564  0.4116439419928929  0.6651971761594787
  0.1660460134763079  0.0808806918018935  0.7458914525884348
  0.4130820796584416  0.3366476543487010  0.5847884760405657
  0.2515812618813278  0.3311449886776641  0.2517023409388757
  0.1719203924473898  0.0007358267688710  0.6688429512409357
  0.9992203171131008  0.4129190554042295  0.2547690712489432
  0.2490218899390289  0.9998908105770612  0.9091404684133322
  0.1687496041444330  0.0038056405388434  0.1653490619325289
  0.2465905202428565  0.0849931321643327  0.0012889532468784
  0.1669313103234062  0.4988919143261010  0.3362419273856767
  0.9973071381248563  0.5045816644236140  0.4948413891075185
  0.0780618793549925  0.5817993052111651  0.1657681357300857
  0.0751597005047767  0.9111069262569427  0.1613711034819103
  0.9197961659176553  0.9162391919056903  0.6644513110769014
  0.0803159890285830  0.3275937966541297  0.9105689403168102
  0.2478500414469521  0.1689227581463977  0.4159913837813069
  0.0765769169656354  0.9967850493222851  0.0737177370520689
  0.4970686446517444  0.0007632732046929  0.1651563312742203
  0.0048041098282436  0.9168250839799466  0.7529090753887259
  0.9934753615512009  0.4161110540301995  0.0823015328756194
  0.0843305790928344  0.1694046193873832  0.4136542875056866
  0.1621769289910226  0.3307773432894978  0.1654514944550977
  0.2467652932872668  0.2536604631279190  0.9991616065252936
  0.0810358364167173  0.1664008065890372  0.5812327664020810
  0.0801945376982601  0.9090699177346646  0.6686340699551853
  0.0794517598939688  0.4183060373053650  0.9988942733384392
  0.9946443322991270  0.9092320314188295  0.4143811955126971
  0.6603659805841020  0.0038427749995475  0.6674327597246864
  0.4978143655692657  0.6681663575398246  0.5008440392852812
  0.3282615363532678  0.8346277481035175  0.8312162184152712
  0.7397335013018085  0.7557323409758956  0.3405831781265754
  0.8336195658384170  0.4150964696261216  0.5859051251151085
  0.7431562045723200  0.7533158137266117  0.6611113089836200
  0.9113633879840078  0.6673224514322273  0.5827591838271047
  0.2487777856927064  0.8370447915424312  0.7494067420320626
  0.7483016271537204  0.8411374836833004  0.2536120730263267
  0.8280418853724024  0.3288982780336721  0.4979185980768969
  0.9107644913608782  0.9165741289113950  0.3343411102414272
  0.1695999179455736  0.7562389753884531  0.5825429209995101
  0.8274163971839649  0.8353649650919731  0.5031434140056099
  0.7442916913837675  0.9123471969485732  0.6699868370607591
  0.9139846782808040  0.8387413324796302  0.5841587211908111
  0.8297968303002871  0.0064694950436714  0.5011337242557627
  0.8261915842823662  0.7548447715020690  0.9147130863353172
  0.1688878368282710  0.6693091221925662  0.1641527212112720
  0.4131993591165348  0.3307401765893202  0.0873420876832613
  0.8296134984832551  0.9160714012558446  0.5833416815745199
  0.2477598448574996  0.1671303265530578  0.2451515372603380
  0.7416607627105367  0.8389187686163857  0.7544828347400577
  0.4145754702904281  0.2424266166027045  0.0017086616473141
  0.2537130761033282  0.5898728972409144  0.8340954187071321
  0.7461096536275492  0.5852347510404941  0.5044759430610114
  0.0847067588652578  0.5858367878289215  0.6647068755945473
  0.7453000215785802  0.6651536042122514  0.2546616571535777
  0.4138294819657251  0.9186114923592215  0.6696812877068924
  0.7416306434328839  0.6729765644233304  0.5894777700977046
  0.4150765015847499  0.0017014619132565  0.7552121029903911
  0.6620045417502701  0.9207310222511074  0.0848469471211038
  0.4154187494508440  0.1616822547579584  0.5854576052140198
  0.9974249396678332  0.4976611525516164  0.3279080316363595
  0.6668472525102401  0.5100562860258580  0.8316701170752359
  0.7428914269531871  0.4173668974953698  0.4962782611279524
  0.4066514634791655  0.1696253177176485  0.4146250558179301
  0.9157276583951715  0.2393095295942481  0.4987672588603488
  0.4141849804884479  0.0065484863852471  0.5830321973190901
  0.8275567752246271  0.8418569974469372  0.3313555545402677
  0.8290344969179936  0.8276717389072900  0.6653818889470340
  0.7396322927798323  0.6685965312659733  0.9114881242953209
  0.4116077912986128  0.9977729721482738  0.4226409203015218
  0.9129425309288163  0.9220665064502578  0.1610375447060816
  0.6644047545831712  0.1592892742524890  0.3317327922795247
  0.8335704571481415  0.5016597240215291  0.1661878324738306
  0.7462422976245470  0.2492273443761023  0.3294595868740319
  0.5799055930311302  0.1616033885774172  0.4208309383551950
  0.6643324867207715  0.8350119754378623  0.1687554118687156
  0.8408438032211564  0.0024024590331242  0.9985940232574121
  0.8321873185336651  0.2425066843940194  0.0812243721455876
  0.8334604326256424  0.0832332805761191  0.7563426430141572
  0.4129109358676277  0.0002151108147785  0.0745083293708162
  0.3215598469394322  0.0026643446485264  0.1671005347775587
  0.3329068132484078  0.9966313882063789  0.9970674969031933
  0.7484594753290496  0.9169478487543931  0.9948891312189453
  0.9125741772441560  0.2474859740129179  0.6733831973785582
  0.6702419725151029  0.4123645927141560  0.9241408417309986
  0.8405017530580445  0.2456347358926854  0.9161573887867136
  0.7475594672175672  0.5003447505939963  0.0754748529584905
  0.7473176937246558  0.4953275642724758  0.4178667647553866
  0.6561501731712167  0.5010975220369154  0.3288016289631447
  0.1624468733569820  0.5831215402039408  0.7466848724291371
  0.2582540692251521  0.8353496128006250  0.9150063799844947
  0.4971556251717889  0.4177990321401735  0.4155902720445516
  0.8339042597040449  0.3260873454561267  0.1696638018493152
  0.2478109429967612  0.0866526013003256  0.1663785488556606
  0.6533110880465699  0.6669256496916287  0.0020527734318186
  0.6575135165091749  0.5864490269102888  0.4118138140381332
  0.3207737867638693  0.7549692005972648  0.5858109866375150
  0.5835376319410255  0.3274755086474568  0.0795132662583245
  0.3304852934569574  0.5889426589333605  0.9204460915719860
  0.6644980761382178  0.0818771832278374  0.9118469291301973
  0.6660588225673760  0.9200223844950139  0.2470424801616224
  0.4164548921880285  0.8353871422778258  0.7524119403148659
  0.3378642023660762  0.4948708208000600  0.3362319980499195
  0.1673307288863070  0.4963023529295297  0.1621370642252291
  0.4141529301320245  0.3268977801569194  0.7447618720879573
  0.9162956775019742  0.7554055236974675  0.3316581954192035
  0.5824436839842652  0.3267337333941908  0.2455359027084612
  0.5813817814441061  0.5011304907535302  0.2522160073493526
  0.4918177917365986  0.4167554985891746  0.2509415466918062
  0.4287518068555875  0.5870436801427181  0.8335882233914227
  0.4120301763095820  0.6617422924347739  0.5902389271642078
  0.3308287499750706  0.7513987315374974  0.9179657168783043
  0.5059029313394749  0.2503327443327912  0.5858259147754218
  0.5012998503954845  0.9982245354050172  0.3362172783657109
  0.5723632957491126  0.5008357385246177  0.4147086664463807
  0.4086992685489950  0.1649149482127233  0.7492926238284262
  0.5822045757464210  0.3285043505212449  0.7501167076455409
  0.4952825834838062  0.4162665776544051  0.9189660066698647
  0.4981928659747747  0.3280470884164839  0.1546464115674912
  0.5823208589915277  0.3315339157023990  0.9203770364894999
  0.3359342741815979  0.7509682095000539  0.2440814219805043
  0.4912154912771217  0.5043901993060429  0.1632718111043707
  0.2453754642661390  0.7527408718367762  0.3348832643383544
  0.5839054753189302  0.4180865324928935  0.8348302067243419
  0.4160877980845646  0.7530044172053545  0.4945173870945732
  0.5780871322318408  0.5920441336271517  0.1662160351623772
  0.3304680249099477  0.4124007459590537  0.2486216683751148
  0.7524837732215272  0.2476715765677241  0.8311395761338048
  0.4177387900660098  0.8347191287317567  0.4168891012410594
  0.2511843507309597  0.6763779161499331  0.7504001098725208
  0.2474975037570153  0.5008569223255777  0.7418536578977194
  0.4264222669660998  0.5735141479098625  0.6668352844462094
  0.1640357003260496  0.4114568829828648  0.7521095636443921
  0.1635233854336282  0.5833151058271588  0.5828522459279999
  0.7553372181741536  0.3266460315845390  0.7512621148850719
  0.1686490153483073  0.8387252639192543  0.8270511040659705
  0.8277707569921923  0.5815537384275948  0.0817950565380481
  0.3295560754643675  0.9144561807421405  0.2457684320966679
  0.9131624591995334  0.5805217790221686  0.3289929480008557
  0.9139888887188818  0.4140620413947078  0.4972924216175151
  0.5851545290675605  0.0784087838164824  0.1639693103149700
  0.8348364739356167  0.6665519798925934  0.5051025917947978
  0.1605351267687400  0.4966184542126373  0.8314749808418157
  0.2462124175434657  0.8378891637886324  0.5831000370244989
  0.8279477314743006  0.4982005683402988  0.3267714291301816
  0.8327350528783203  0.5864433517872519  0.5827869949448794
  0.7379592930888157  0.5777695265356086  0.6799091692900895
  0.8234094571033691  0.6672896977609565  0.3299941294026965
  0.1684949085659697  0.5864226038302657  0.9256503524914814
  0.9099935825313366  0.7515818620108514  0.1630783504797986
  0.9986047050102885  0.7553872812986845  0.9200952967267002
  0.7484401332049296  0.7519837889785901  0.1647617380494509
  0.8281292941850481  0.6652157816602560  0.0041565713966108
  0.9045230746003561  0.4969476816248424  0.9189386284215955
  0.8313684662238803  0.5772607969720011  0.9154802199693368
  0.1563755840058100  0.9989567541975303  0.9956805991103462
  0.0815176769106762  0.7555920724535781  0.1641457479818558
  0.1568222069906676  0.9160858697853843  0.2505209098947973
  0.1658721254177540  0.8364825901872560  0.4997073878145805
  0.0799486704978266  0.2524773131724647  0.5825022935726916
  0.5755604779932992  0.1663563872903873  0.3314617111774106
  0.5783541604258758  0.4120891171127998  0.5796680981607576
  0.8248198451947470  0.5844799731986365  0.6728916323387970
  0.4955369648993022  0.1646745421630917  0.7536440983552398
  0.4099821904456616  0.4162687258997301  0.4164836078029935
  0.2537670066845580  0.4934659692162072  0.3373470786906855
  0.7415665322898420  0.5853740776280780  0.5935929194055928
  0.1637677568286472  0.5859066990663890  0.8367907814935974
  0.9981658450420651  0.1694665629696527  0.4187166518347314
  0.1646642954923576  0.1686137281652694  0.7490386742476582
  0.4113383686424700  0.1614284138132549  0.8375141485336089
  0.7459216611716697  0.7531374822430718  0.2533034168838249
  0.0793430072650892  0.5827056686545231  0.9219418851724813
  0.1648162631557301  0.4955942148344804  0.9212211470915577
  0.7396110583373048  0.7499934127538277  0.7454194706079140
  0.5818525133636719  0.9980547784125645  0.4982561209594632
  0.0640297847454429  0.9849586859036004  0.9816159482818735
  0.9134201593340645  0.7540488811206142  0.9134233644278851
  0.8330843036395901  0.9145730688689432  0.6702858608044897
  0.0776285235028411  0.2475912176499933  0.0807197512703736
  0.9910941713217120  0.6721428571066518  0.7512145316101820
  0.5841894549589186  0.1651362724820562  0.1609594567383328
  0.3427421226271603  0.5929363826887516  0.8305949407857250
  0.0813430657608843  0.6720497539042872  0.8375557415509701
  0.0872749243857019  0.0836978678415598  0.4118829523321933
  0.7434284872479201  0.5846194553642433  0.4171114018087380
  0.9934609858781039  0.9942886453972581  0.4158301552736445
  0.4146077490960002  0.9996432845146571  0.3363956802428609
  0.4085598654654130  0.0835760806201099  0.4183048739282576
  0.1675503994796100  0.5827503032274179  0.1631784408538555
  0.2404168729662073  0.1705690520639545  0.0024810014713397
  0.8281736621012747  0.8336782952517194  0.7530547631215447
  0.4206464411466943  0.3297569637435480  0.8317563354443036
  0.4975519209356097  0.9137905195261209  0.1635432453174125
  0.4919201923564430  0.1633828947262616  0.4161675469915572
  0.2471926561058350  0.4111723643777012  0.7410946399386423
  0.1673153861660760  0.4952846542463856  0.2482550521634091
  0.5767279853778187  0.5006507937774244  0.5012243756921135
  0.9988977815731684  0.4152895552520652  0.1697153067911455
  0.9116803874693892  0.2422795452720850  0.5884018705814635
  0.7503939112835367  0.6759440253152834  0.5020950156350098
  0.0808333642708695  0.6688757716944540  0.1644090963663568
  0.7478700362443397  0.6654765025481354  0.1681205426032349
  0.1652028011230084  0.5848468134328488  0.4984276073838435
  0.0793445753368538  0.0813241208254519  0.0750357022579340
  0.7378283419215831  0.3299731549492150  0.4995344716566269
  0.9144492642694877  0.3263139909942286  0.4949942392192798
  0.5798926003869975  0.2455725396072516  0.9166419342605572
  0.9073953963840299  0.4148465206150226  0.7561025209320450
  0.6627228101070808  0.9195761662162637  0.3329344298816954
  0.8288722402511315  0.4215351470189610  0.4944607258621340
  0.1595746801651138  0.7589183435549468  0.3346502442396045
  0.4174761618429094  0.5033002313611761  0.0002033363877100
  0.7384580112316549  0.6639721574649519  0.9993897764923499
  0.1675800433120864  0.0822579210892322  0.3286794181633086
  0.4110336866825152  0.0059652188422762  0.6698415106607309
  0.0797027329530433  0.2479846769492115  0.2517865950781875
  0.7460927860921036  0.4966826126260051  0.1605000680768626
  0.3351263624158391  0.0825144720545600  0.0001165021017524
  0.4120700092088837  0.3281458950801402  0.0018865445262838
  0.3338814592856635  0.4142021481806906  0.8369434094410236
  0.4142472382307356  0.5728743482611671  0.5822454137840495
  0.4959780317770918  0.7502462846212256  0.9979378192735250
  0.2554398269941056  0.3350700610509272  0.4938584471271122
  0.9154521652517686  0.5815069028908871  0.4163039876647592
  0.1720234561246786  0.8371642380500904  0.9136104451809371
  0.8310612693913634  0.3289340177377904  0.0822144111641063
  0.2496310178451472  0.7490713031952293  0.2444030527589601
  0.6696381677349237  0.5043853821955824  0.9204593051909324
  0.1632741919574685  0.9151103441906385  0.1640766475867732
  0.9168365636338068  0.1633308966030650  0.3288274027512850
  0.9894974456214253  0.0849779080123931  0.1666188560632093
  0.0822603781427016  0.4989404020115058  0.6626345523714137
  0.0833547008083638  0.9939549760294393  0.6737546344739456
  0.4126243359198519  0.9135738518979789  0.0747218157083252
  0.9130138745002129  0.5815687127804082  0.0849055124534806
  0.0022844207331103  0.4187276319785036  0.4908699278838654
  0.5051072922045799  0.1626550084488896  0.5847274998664173
  0.8273838724726156  0.7554931807206385  0.3356403191543347
  0.7494615873820561  0.1563310056561475  0.3289186996122184
  0.3414049238786915  0.5789518863077484  0.3337951702505619
  0.4059882497051879  0.0042508430182804  0.1614914251478417
  0.4990337393173291  0.7469449905199278  0.6683317291325659
  0.4133389338905664  0.9226514119622226  0.5786970877068054
  0.4196723740035055  0.4139763720360179  0.7465338920381158
  0.0786037142367301  0.4122233068691464  0.7555128292649826
  0.0833244331620013  0.9931296889105755  0.4989315362594983
  0.1664124060512837  0.6756032843236550  0.7436749250092379
  0.9196633757503255  0.9207868998700700  0.7532912968330721
  0.4098359965327384  0.8297196016116518  0.6665430739180030
  0.4168843174211472  0.8372381271112826  0.8385826017369644
  0.0780125135411468  0.6686553028630642  0.3380440144201138
  0.6561685340601110  0.9148614953564228  0.6686238365016997
  0.7463223353786891  0.0009322783406833  0.6726546149296060
  0.9941700537400571  0.7536096770145719  0.1662429620337242
  0.9958982582434929  0.5878923938606482  0.6643371923489227
  0.8303633014201292  0.7562549739446923  0.0038750106547505
  0.9122990468529270  0.7529066855333185  0.5891966841703744
  0.0849963172583329  0.3291269494052285  0.4929612608984858
  0.6588140845885448  0.4956638504668084  0.4174702797445625
  0.3285362190317218  0.5003124007028219  0.0851254354474689
  0.0810593893862741  0.9995253533126509  0.1623999950884752
  0.0876223992687437  0.7551540740469774  0.9222366429945436
  0.9151329500056243  0.7551020590601222  0.4175424309353172
  0.9139085126399527  0.9185581050938364  0.2474729222522683
  0.4950189869650757  0.4155660868780719  0.1620781755686404
  0.5821521451711864  0.4135804281992941  0.2496868114943701
  0.2482996115585852  0.4997227364323831  0.8321745372695739
  0.2466837164320851  0.2480240884524842  0.5847984527989079
  0.2460842001045452  0.3318943171373685  0.1651140775165579
  0.6661031507647973  0.1600861824002333  0.4204697844786286
  0.9954803698865385  0.4092768238586699  0.6675848410454162
  0.2432959257336667  0.3253803802539804  0.8346021121857753
  0.7536184239016334  0.8401269991717573  0.1663365379277632
  0.6700189125982636  0.3316819388664190  0.7480449771833413
  0.0815492355946401  0.4961293817423794  0.3355019479242046
  0.9964715120262921  0.8475429695280529  0.9191300262118755
  0.7504854909342049  0.2438075465472178  0.2428068321678061
  0.2505734233141771  0.6662070647356423  0.3383024376284320
  0.9928718243165989  0.3263423130792052  0.9130315422967131
  0.5749422107640147  0.7482532343700321  0.2533708110352952
  0.5767417109035525  0.8303943212331866  0.1656808438574611
  0.5810698778459470  0.4199978251789618  0.9238076375851396
  0.8344293481687308  0.0870532667306257  0.6708448602237685
  0.5845226707799596  0.4184020921701302  0.7473463687191179
  0.0842851006860346  0.7513482312814898  0.5839091554969140
  0.7475713954985953  0.2464964707660819  0.4147941264328072
  0.2431613378611681  0.9973787630968473  0.9969070911385808
  0.4202960055536067  0.2509422824999396  0.5827973802541709
  0.0812965508450812  0.0793145853547438  0.5842996841700995
  0.0815020690476829  0.3329346205305463  0.9954329886355002
  0.8286223264111527  0.2379690203724555  0.4996267817634139
  0.7369509662883074  0.7574487915499482  0.9148469889345664
  0.0772777064379613  0.1696867419228583  0.6688539737632236
  0.7530928888683291  0.2473106836106056  0.9181299358292291
  0.8296279903017272  0.4142895419723651  0.1692385662858931
  0.6734162508919094  0.4194153285923101  0.8370138498603710
  0.5817617574682574  0.6734625776097575  0.5005691110870534
  0.4918178752026857  0.5061508081170860  0.2537478931721948
  0.1626173697307998  0.0800550342523529  0.8343993153005197
  0.9950374467836950  0.5048043898406217  0.5785157727476670
  0.4096413681724377  0.6636945131029456  0.4964944651424429
  0.6663258936041988  0.8329542669024139  0.0799780608952132
  0.3402113178656440  0.5049138213215275  0.7403622332735128
  0.4965661407790287  0.0890518190579686  0.1617867368295470
  0.4973571182953433  0.3322718110829556  0.4182897832048593
  0.2435503985160002  0.9206895600557804  0.2498682378347684
  0.6593293604002872  0.0869432339662488  0.9990611489750681
  0.3300999619571324  0.9191811643823274  0.3322660153942979
  0.7415482967077530  0.4923528052971712  0.3294498979059312
  0.7543171236593763  0.0030026221779741  0.9963933731346369
  0.2525586419583399  0.5901379010198358  0.7394604603212651
  0.4111089054595590  0.7487259355491650  0.5858938409582484
  0.6607786056694717  0.9151132594815341  0.9955460897921986
  0.9098768831540961  0.6676999348591948  0.3267388485559894
  0.3261415447573640  0.7525708479219614  0.4990462826822492
  0.6695348854199086  0.1610410867334300  0.7495790295886232
  0.3298870547893550  0.1585779546936695  0.5843376378671641
  0.8285312523465643  0.9207786134205260  0.4957725200237644
  0.3382430896371706  0.7500458533979182  0.3296858885406024
  0.5024495671044044  0.0025035486662319  0.2524057290893822
  0.7479072418562105  0.4141208585463946  0.5868308808528060
  0.9118335882976257  0.4900322755164047  0.3306591858751690
  0.8284033603419239  0.6634386481110661  0.9145452741614734
  0.4915002629103045  0.3269034536533572  0.2445166460785337
  0.0821364467365939  0.4221686328470124  0.0840859037226021
  0.5791287128688923  0.5068648114198812  0.1626770335123406
  0.3898580460930500  0.6491952051164904  0.6836903515400308
  0.2510162819098088  0.8285967682414261  0.0029318862631770
  0.6760491902941123  0.5154385390623504  0.7389323684382383
  0.9891973881700450  0.4985729319538416  0.9183549409932270
  0.4187365857678864  0.5920010674620108  0.9197204413206571
  0.4994185095996320  0.0772121422607115  0.5849014919818326
  0.4962403916871188  0.0805471678990187  0.0760714571245232
  0.5809447556951907  0.0005962875827207  0.0822096261087669
  0.5742108019614541  0.0795833767707200  0.9974480036792723
  0.4963753949366944  0.9170656812173682  0.9143884037133242
  0.3321063926909477  0.9183592144562581  0.9130289593132900
  0.3302454083426326  0.9181211876566906  0.7505863395535760
  0.5809491230697993  0.0841511596859552  0.5035727219407110
  0.3245371821918586  0.9994249631183408  0.6683493296311328
  0.4999103031061856  0.0755092299980824  0.4168477360709277
  0.5837055981805737  0.1648715194686871  0.2465813369277532
  0.5822871417724121  0.9981984190094606  0.4125826968038047
  0.3250214117775752  0.9187891252355440  0.5828719293927729
  0.4941469973630416  0.9994351938080313  0.5008667413738318
  0.4134324571270205  0.9158627094381451  0.4934737264135026
  0.4968800881865007  0.2463619338656017  0.0798447747131797
  0.3364918061899291  0.8330768552668655  0.0027663485445770
  0.3306920734973966  0.7523519358741428  0.4146104051375605
  0.5799446323608359  0.1631703788116432  0.0755871079842740
  0.5827349058805366  0.2488598196651207  0.6682820452802070
  0.4932119531908406  0.2471485400673601  0.9177993791131860
  0.4136218811686839  0.8323992244643064  0.2506417104260567
  0.3245023276179171  0.0066603987326701  0.3340434896644582
  0.5829665973332008  0.2513490822047239  0.1619460354548632
  0.4882717543526860  0.1678827338773352  0.3277735177349398
  0.5807999549482300  0.0789628485385395  0.3318218204179160
  0.3285674171481081  0.9178655072809511  0.4194344877788753
  0.5013145676486588  0.0002086622181769  0.6674766282587359
  0.3295099922717369  0.8343086524507065  0.3349757177604602
  0.5819324359114189  0.2468042457417200  0.8302920549286965
  0.4972595512090540  0.0807096595427222  0.9161432351269981
  0.4972460801693858  0.1651335247602054  0.9990987208626834
  0.4167399253917263  0.6770702519768483  0.9171813287314307
  0.4070957046455964  0.9128225445992362  0.1693297512741087
  0.5819620525170301  0.4133973909132915  0.0086875224632697
  0.9923917781439781  0.2411619228183080  0.9146529089628950
  0.4122667949186021  0.7482739278574816  0.1658042753823080
  0.5067563715509068  0.3310656872857845  0.8349687700449080
  0.4164290031664741  0.7496778627768768  0.8322122965998302
  0.4144467811532063  0.6671662960171300  0.2481573582653996
  0.5008699030300934  0.3306060894866356  0.0007946090403810
  0.4109057838428558  0.7489446523991584  0.0037358261828613
  0.3325318028598599  0.6777643501980302  0.8330702600338691
  0.5033615770669719  0.5026231193445977  0.0003108804004421
  0.4030291041870433  0.7412670259016709  0.6775146956986222
  0.4984674297535605  0.3290491550200655  0.5051078607056837
  0.5788221667968363  0.4130418202388133  0.3361549024712248
  0.5890819710663838  0.1647667156229651  0.5855894554166332
  0.5800902124349525  0.2455802818869072  0.5000092084247175
  0.4998776755298378  0.1650707852681731  0.6689673631726684
  0.5000173957544419  0.2524161987140854  0.7499015881010630
  0.4145965476419207  0.9159470567417984  0.9897184406226711
  0.3266759760916389  0.9177177670723251  0.0822740828664088
  0.2458126670828272  0.8340740084137127  0.2478939092003963
  0.8327756302710095  0.1621581526313891  0.3301794395966360