Cr  N Ni 
 1.0000000000000000
    21.1326370199527886    0.0000000000000000    0.0000000000000000
     0.0000000000000000   21.1326370199527886    0.0000000000000000
     0.0000000000000000    0.0000000000000000   21.1326370199527886
 Cr  N   Ni 
 259 173 605
Direct
  0.4955851726173035  0.4159925182762761  0.5817437539045875
  0.6651131437392092  0.2436149119530967  0.9181684058236138
  0.7472217490354668  0.3282529495115538  0.0774648734877373
  0.5859469909478071  0.4140547300616487  0.1608017924226117
  0.7413018504240855  0.4183878319593500  0.1709325042656669
  0.7442492871075274  0.2443957868028052  0.5001321022899105
  0.6677930902351168  0.4163784701280031  0.5872846606732623
  0.3280965193551123  0.4150181999498844  0.7504256426241532
  0.4936575413191948  0.9112169122511781  0.5779272528311585
  0.2484370454077897  0.5818233723056710  0.3276491176453138
  0.5829095043512367  0.4983217121387806  0.7402452198214516
  0.4196489261380846  0.5059708618944745  0.7499122902850580
  0.4144289879214271  0.5756379739664311  0.4938327478568871
  0.4909380616706508  0.0024406465733739  0.6653046993499455
  0.4972615581049357  0.3301301945909108  0.1585813404079565
  0.3378393813879824  0.5894256299625182  0.7498180696696068
  0.5810368841557128  0.5044706899161441  0.9124814735301411
  0.5726953845241818  0.9172570990270638  0.1636346749248979
  0.5789359403495913  0.5909834395919145  0.8354877411166851
  0.4179377159459103  0.5026621851154612  0.0817217760602595
  0.5811368494655734  0.7419784263688413  0.1642932994429543
  0.4998458709546195  0.9143144053169316  0.2512220539450382
  0.4129155234980552  0.8399709875092850  0.5799808495489159
  0.4906604300878643  0.8339014603056725  0.1647731831005593
  0.3335386116855752  0.6665495399906186  0.3295222850814651
  0.5755154070908199  0.7536355890108521  0.4974305025410620
  0.4998779268449232  0.9157606572417554  0.9151825131270171
  0.4136489026112123  0.7473249939475712  0.6689979721400223
  0.4945967330101055  0.7538696023679999  0.9177409981943596
  0.4157984965232541  0.9091879637463083  0.1651083247735174
  0.3275048121677132  0.4080438533815958  0.0805712783970171
  0.4190363193503731  0.0888084754733269  0.1662099162103675
  0.4892973219994027  0.1681955004547720  0.3290461312326017
  0.7469333074443177  0.2443848986491313  0.1612219999840295
  0.5853024338778553  0.1565886264538195  0.9157857219605966
  0.2488791789822322  0.8356712525621414  0.7548907924781515
  0.1662097122808232  0.3313533649052141  0.4996103959747503
  0.5871852353021251  0.1681371815937895  0.5876686377152893
  0.5041524733120251  0.4179993993611280  0.7482893420838151
  0.8309730490953077  0.1682135524165364  0.6683759132769768
  0.5796519236569910  0.9144500613300096  0.6700988583837371
  0.5760001673565971  0.0896064385464293  0.6677305087190559
  0.3284847309568022  0.2537363310321186  0.5813886619843178
  0.5840965827629500  0.3285265738778413  0.2455281399207431
  0.5817449756370089  0.9967383611851021  0.4132245154856216
  0.5054854203726168  0.1616205193776608  0.8316122822205693
  0.7478253671203623  0.0908108839175857  0.6681466306235236
  0.3283172507227551  0.2409990203074886  0.7475896619507031
  0.7428094039931668  0.0796523763781858  0.9960102902802798
  0.4945116330080923  0.4178353080566841  0.0767666136678221
  0.3286523612436284  0.3386470882537484  0.8397182448226322
  0.1633629673917294  0.5029016612186286  0.4972821471465728
  0.5784364852910812  0.8351055575936961  0.4205878967867017
  0.5032437707341735  0.8268391399875465  0.6707238362707767
  0.2449215842994237  0.4949562669109977  0.2481682298780592
  0.8343091371507868  0.0758114726610976  0.0836210387109754
  0.3250421946265871  0.4968391764237081  0.9934440680178508
  0.7528269172236529  0.1586112665515985  0.2479613597994292
  0.3329051900681140  0.6703618441488945  0.0126782126720290
  0.4094142888142215  0.3343211450162878  0.4176825104032376
  0.3244493321806071  0.9159515681411746  0.2483239669094774
  0.7491048384365921  0.9961055206972576  0.7630572113135218
  0.7435552455722657  0.1595986787831440  0.0728019723894925
  0.4071019280137909  0.7477717822753623  0.1644689519912549
  0.9866532656999355  0.0841347510188770  0.4162885398419303
  0.9975688347720474  0.4179266465679009  0.5795011357964809
  0.8425703127307569  0.4160833274940278  0.9145608657910748
  0.0829074286987894  0.8312134315605316  0.5786798777550675
  0.9856093365328246  0.5850993748454164  0.7519652265196720
  0.2370903392915079  0.3274500077884684  0.7479628431649749
  0.8352483255176456  0.9171229184806883  0.0766838787355631
  0.1547162831409449  0.1715529994130178  0.8312776932338098
  0.1607555549112072  0.1730900509183711  0.3315376457803476
  0.0732682441083465  0.0905504533755955  0.6722216940686706
  0.9948186906580960  0.5832966141219991  0.5736788228633558
  0.0755749937278094  0.3343895867533441  0.9102096664166026
  0.9888704095310886  0.9177995992367065  0.5812355389348053
  0.9867712074592969  0.0006300073014888  0.8338809397238589
  0.0809887101572714  0.4933687994373187  0.7491031363922434
  0.8285294541704965  0.6661304301285389  0.8298650101847059
  0.0771066610223524  0.0041533985977933  0.5790458195131156
  0.3290612332576465  0.1642621504427497  0.8362174689802935
  0.0802015094065535  0.9942046688694963  0.4158751912630544
  0.0714990605099725  0.0831291919703691  0.3263511188378650
  0.0725881798480685  0.0864810266783428  0.9990683527703831
  0.9994738826536608  0.7483447779493508  0.0809503360183949
  0.0739632243229151  0.6672325359827844  0.9256348318103909
  0.1639304529725968  0.1745648238964204  0.1593562023079001
  0.1630742424092950  0.6737298360724705  0.8361434793366427
  0.9938529095637861  0.3280250988203480  0.4965271342418949
  0.0775028707878272  0.6717634621548759  0.4057376028010549
  0.9959147472887530  0.5108920987656741  0.1674526790499394
  0.8356931511858358  0.1647046179608986  0.9927597325356128
  0.0716564501752211  0.6716491066537251  0.7508906577310276
  0.9958345925207878  0.4973011819263676  0.6634621018576558
  0.2459922145615720  0.0830732780921589  0.8310029209917079
  0.9882689576621999  0.9983371957216239  0.0004768188996350
  0.9102286820972374  0.8393521531422367  0.9185422978517814
  0.9974657788331791  0.3226968842593576  0.6661899039853412
  0.0857481294703649  0.4152472421907075  0.6645822998948010
  0.1607351294892051  0.9970445724807365  0.8325088640237184
  0.4130443113738023  0.3424732446389077  0.5809571595229683
  0.2413433996504327  0.3339780179301385  0.2478647489615821
  0.2528412337982928  0.9996490344565093  0.5802378295738897
  0.0846462639556995  0.4163377637099461  0.1694085849100099
  0.3354863716295703  0.9910704351017846  0.8366196484407780
  0.1650966822518957  0.9992764799455313  0.1682782909741989
  0.2494827511010848  0.0894704349375959  0.9988663524573871
  0.1630547416101540  0.4974855547030165  0.3322604988482021
  0.0794157989474335  0.5759919427217626  0.4992291594344029
  0.9954674904189025  0.5831406938607105  0.0836281747544766
  0.0803136983317404  0.9118478312941390  0.0057705875960313
  0.8397520547102987  0.9990740036714896  0.6668290777946528
  0.0743633126121729  0.2434531656693055  0.9986795392864669
  0.2505021956463840  0.1698814001895914  0.4198363520851989
  0.5059548095470187  0.0009491390671929  0.1625417757381497
  0.9186242302854180  0.8321233754522440  0.7521142870233584
  0.9943176722867848  0.4191211860495825  0.0803004965513637
  0.0762942033127131  0.1730986174286878  0.4131620833862301
  0.0779500809729006  0.3295545747769835  0.0828831534221366
  0.4118603548202646  0.3382678095974744  0.0802108635740608
  0.0756042935685343  0.1773255489885355  0.5863268776850047
  0.0752536216633478  0.9140695580944391  0.6696668968509761
  0.0754808178972415  0.2442771914660525  0.1708192691704201
  0.9907326073588906  0.0003147794724484  0.3286186034861343
  0.1643721142843068  0.0850713437318712  0.4225804548630666
  0.3365668617146551  0.0800222852207595  0.4223395050412028
  0.2419797368871703  0.1677890161992068  0.5859602295963625
  0.6641535450876794  0.0004144117213141  0.6694947460714286
  0.5792238711017589  0.5853203528242132  0.6623258740313221
  0.2554570932439725  0.8338492404642748  0.9180493146077475
  0.1677118656719226  0.0017995161303223  0.6672670217870359
  0.2410916716871742  0.4980996070567276  0.0770863352734250
  0.8305576812694836  0.3320393382379996  0.4948822367542207
  0.3369908664629196  0.1701232646717298  0.3307942825351922
  0.1565052531342567  0.8352486048977136  0.6641136895859671
  0.3296743079818484  0.0867410864889432  0.0756072387406477
  0.7493502729834546  0.9156052882396970  0.6680734012533834
  0.7459120291430141  0.5828528929737198  0.5033505216866462
  0.8340252040784067  0.0038657308510607  0.5009078681860809
  0.7470964963895570  0.6594217169287950  0.2463993021895261
  0.1651005074615199  0.5782506715822814  0.9265663049475097
  0.7444692420805676  0.6695860464264237  0.5922350132891544
  0.8370690266194524  0.9148087879156740  0.5850664352835396
  0.7453714577387678  0.9246071517386344  0.1671683053122389
  0.7439569408694863  0.8322723377738814  0.7576415896451973
  0.0731651243804596  0.5875632659015755  0.3289991490639791
  0.2487529278087386  0.5793191301278556  0.8391639107924177
  0.8239440807438415  0.4169615578295248  0.5843337235263362
  0.0857311217849099  0.5787622279863743  0.6595498583692254
  0.9930018070781866  0.7447018461161503  0.5809499372417612
  0.4047779856896959  0.9192105493240932  0.6681608488461122
  0.7450627167663688  0.8340004896917099  0.2479231493152225
  0.4113970570159847  0.1664570995069683  0.9242984703783556
  0.8328854608003212  0.0062504287300092  0.3309918963327814
  0.4147107690577401  0.1657251296707533  0.5817439436204267
  0.7474984630210814  0.7568578300519266  0.5011226090680229
  0.5794696351793598  0.5954640517472175  0.0005560320090710
  0.8295389720042807  0.9219000149219542  0.7598645317119256
  0.7475022354381590  0.6676350221402381  0.4180296235907711
  0.8246503958818260  0.7538196122091693  0.9177479453250714
  0.5834574201706739  0.7531775423605335  0.8308330759513542
  0.7466613927734502  0.7510416369964013  0.3375637942143264
  0.4950924949598684  0.1642745669138579  0.5006914872882018
  0.3194823861191723  0.0030158063760635  0.6649302084166735
  0.8346561062887646  0.8297973201230573  0.3341863922698730
  0.8324668472919465  0.8239633707282101  0.6637801579030314
  0.5814912267710464  0.7498817616941568  0.0028525395742471
  0.4136943023777194  0.9163669039512317  0.3422509362172965
  0.9943028409161752  0.0039868040457063  0.1669905798990661
  0.6640076713075663  0.1603588736343348  0.3361993645202894
  0.7518999478062877  0.2495856789772349  0.3358923666876730
  0.8354196394668272  0.5058667849299354  0.1690868536956958
  0.6621812661328017  0.8318958894280162  0.1635171975589994
  0.5819692796155654  0.1606820075260615  0.4156025407433442
  0.9152911412611106  0.1657306045948958  0.2488083321070087
  0.6607415081754173  0.9164270184806123  0.0745138352584161
  0.8330783862612146  0.2461553741517164  0.5788314979296635
  0.7435673343858973  0.2467010686049662  0.8274530913750535
  0.4215924550616552  0.9946934073097623  0.0743402688437328
  0.7424608338155780  0.8297636218553649  0.0735411040906076
  0.3375245861389835  0.9948517583944125  0.9918546562489587
  0.6670127881675099  0.4179969669023975  0.9154109434883458
  0.8300766970110428  0.2473964819378364  0.7499784458640243
  0.8397766283363076  0.4178376416621640  0.0782112632654874
  0.8404416021107231  0.2466487993991367  0.9218755508626462
  0.6664246646372373  0.5000639295664642  0.3325491305252649
  0.4916487320170329  0.4988521359518231  0.3398774884119419
  0.1628223997013495  0.8324259362628089  0.0088686623703964
  0.3320877502435849  0.0808802768165855  0.2496452802910596
  0.8370869239698401  0.3286407182125259  0.1690024251371094
  0.7368811288053034  0.4162383194706457  0.5024056158310998
  0.3275929627983298  0.9965211867773661  0.1692209720315085
  0.7548810054357046  0.5063027447032648  0.9151491623195225
  0.7524803107429402  0.4911456516384285  0.4175313666104420
  0.1635784636481820  0.5761180422382524  0.7490989856988594
  0.4176047884807556  0.5749291628288693  0.6658575053913721
  0.7461058593472200  0.1564976376418262  0.9182982077921804
  0.7436035575952019  0.9252607290160040  0.3331279896747588
  0.5078682518354196  0.6686874013490619  0.6663324403281879
  0.3356091759665260  0.4944854609695696  0.3343995125445808
  0.3313470776847292  0.4991226009264226  0.1687160339827438
  0.4151842618368424  0.3324982097744746  0.7484936827472808
  0.9127055886223482  0.7525788064343859  0.3383428019185586
  0.6609656715569355  0.2507487259631545  0.2458041473480595
  0.5813588093358634  0.5039448789422503  0.2531177774842957
  0.4909122884592785  0.4181858781325088  0.2532603686633683
  0.3395478458904482  0.6719337672469087  0.8368138108622236
  0.4182634424674721  0.6642778750922053  0.5802976400209174
  0.3374219005183101  0.7572143892657526  0.9175184004691074
  0.5028816957680534  0.2523895820735682  0.5846705141733334
  0.4128889509702179  0.0021529277313222  0.2525609013281722
  0.5780063427011043  0.5006742805765472  0.4269126016056992
  0.4146306706219821  0.2535468936060769  0.8388678793820813
  0.8340185705415124  0.3354633529428240  0.8362285470784193
  0.4111756196231510  0.3319995591031201  0.2504985460668026
  0.5769052002933353  0.3304133856872383  0.9196611740676256
  0.3276443782066795  0.7484126059424677  0.2388713722603951
  0.4899502891592468  0.5070498260310662  0.1630183731494243
  0.1586445764945271  0.6731257163106646  0.3262235121079288
  0.5831160220846383  0.4145905846908846  0.8253401392987246
  0.4204923350366442  0.7503190043602316  0.4935129941728991
  0.5787103309036539  0.5031786906445405  0.0828418985754905
  0.5772711479073216  0.1663795473720001  0.2401837971850872
  0.1564798996801831  0.6646864155949479  0.6595271102248731
  0.6694144157479233  0.5050188595386073  0.0019737861348061
  0.3296915130596753  0.5811221554207144  0.9249501593174205
  0.7528271892827580  0.3319756433670191  0.9145130113630680
  0.4958761032069582  0.5006263262686574  0.9975904540666551
  0.2511745939025556  0.6774253033133678  0.7503261081249325
  0.9129539985361740  0.5846026927832894  0.5024999762324224
  0.3325997408573679  0.8394032106193836  0.4965684176329345
  0.2432392801720582  0.7492448615473264  0.4951627100839626
  0.0802563229317789  0.4125527124356680  0.3316590005138813
  0.9106529741293190  0.5812914514158550  0.3293710700100960
  0.5075041826675274  0.0819574898777493  0.0792506434896805
  0.0732341818294772  0.5830693477790221  0.8367062050569805
  0.2443694127648827  0.4985205345406108  0.7480757514428353
  0.7444139356040999  0.5068111382192358  0.0775636205595665
  0.1511709098085034  0.4136750673429280  0.7499636381599555
  0.2481169162029836  0.0833593247126678  0.3304947157709657
  0.3319737811913064  0.6640463176891795  0.4945554177007891
  0.9092968553755755  0.4155625689831228  0.4951085848722925
  0.8266416276615168  0.3397020667473786  0.6629429111535263
  0.1613425710833830  0.8331072225792975  0.8358649285036481
  0.8299347004224189  0.6716098887518507  0.6673732176262529
  0.1578804266461337  0.8349897702155515  0.4934746477144754
  0.8340810869110401  0.7500900934879257  0.2510045149870371
  0.7420269810564656  0.5831521696489010  0.6751227231853525
  0.9177138786184039  0.7470280893309380  0.1639297900476122
  0.0000193380072355  0.7487985985380999  0.9227316675437492
  0.7444248496799167  0.7440360711393503  0.1602061787641374
  0.9978155761520013  0.4103070968336314  0.7540306208848034
  0.9157228175326002  0.6646380790966807  0.9218149588996233
  0.8297127839527161  0.6673150233643589  0.0040685339301573
  0.1625655845552138  0.9985053108666270  0.0012160732421050
  0.0107437354902242  0.7403197040634502  0.2561583988761433
  0.1620689992013659  0.0846091661959064  0.2493293759515219
  0.0770588720381091  0.4915788963338201  0.9157823055920881
  0.1613895698316307  0.5783810515453884  0.8386809186388376
  0.5747251960585283  0.1617646826291565  0.3265117112702752
  0.7407198660252374  0.5816214084719188  0.5901933753318228
  0.8397961648682823  0.9110895102667634  0.6736666963851223
  0.9125240578779144  0.7518579338452817  0.9176446374738787
  0.3251167846870656  0.3320767060886275  0.2498999156313636
  0.4926892311468318  0.7449349498208325  0.1666024779228538
  0.8320877441085524  0.7438612873302947  0.1593853763302384
  0.0810314332456745  0.3319185760302713  0.9949522022788926
  0.0732910848464422  0.5764604582275535  0.9266855666606117
  0.2511934904762986  0.1753644186471102  0.3310391873634569
  0.5844045975332121  0.5885661439995752  0.7477017073738349
  0.5833360144971502  0.4146331560371276  0.2511580454212705
  0.5761035760662065  0.8291772673875344  0.1619592169232106
  0.4187364236205665  0.1621551385010225  0.8369586619078387
  0.5764312678261740  0.8317376495428329  0.3354301553163067
  0.7429077480020362  0.7459350880719162  0.2488706801415310
  0.0736417757937307  0.9982512771746658  0.0057406208890371
  0.9878403031496135  0.1723442822578765  0.4174265000627461
  0.5769247610455741  0.9961241108755949  0.4981362317435812
  0.2368649614676611  0.4129621368851035  0.7495370973061772
  0.7474626660793812  0.4174555090899008  0.0818525610976803
  0.4118956970351617  0.2536810295726730  0.0822867376701424
  0.8279449530896090  0.5853247997670625  0.6717935070579591
  0.8283295454201928  0.3391489714723350  0.7498748040439566
  0.2501745611917595  0.4904884175226863  0.3366296329187417
  0.7474671140528349  0.6707013481087643  0.5057697014846103
  0.3399837479688386  0.5788440607624944  0.8392029529906840
  0.0706309290495068  0.6738363121289479  0.8388332979813001
  0.2514092421748223  0.0788128083650781  0.4238943715300648
  0.7447104858750969  0.5780483018224366  0.4165286976303208
  0.2400858333950233  0.1717414081576692  0.8332481155531094
  0.8322547948560016  0.8310430977740716  0.7552707017577639
  0.4978810551508768  0.1576718654967170  0.9203086103344456
  0.6637766463953916  0.9108062040835897  0.6674594991724856
  0.4913685776825853  0.1611522649277024  0.4147485190537604
  0.3319782162566218  0.9961628714916499  0.0791950735620440
  0.7480222863439988  0.0020602136210291  0.5004427694692172
  0.5784516042982700  0.5049990508669491  0.3417177350709307
  0.9983165906043356  0.4236880905064326  0.1692722006909661
  0.1578113010740036  0.0870868032821487  0.1629956847280298
  0.6613179001969776  0.0913083090082957  0.6701780842975992
  0.1616511202714310  0.6664464604902223  0.9289191397312009
  0.7461725409949692  0.3311955157701369  0.1673811448220852
  0.1698647555841596  0.4176304009507564  0.4981954675072873
  0.9100400291875494  0.4175188332199393  0.5835705748148556
  0.7402676157673146  0.3298063120504229  0.4947348169302314
  0.7451400228893782  0.6627172348655622  0.3315080452709795
  0.8330791982535551  0.9204555669628492  0.1624735044225076
  0.3272724264588366  0.1637774076851788  0.5825993543054778
  0.1633890127935777  0.1764741541149487  0.4231507329791069
  0.8216706794286411  0.4229528781491135  0.4909593130937407
  0.4105176909142003  0.5048210919215589  0.9924462904846830
  0.2425897637141164  0.4999610783190502  0.1630287327286642
  0.4035327167902626  0.0075929103859461  0.6670581191577362
  0.1604867808015082  0.0898514245344648  0.9966519271478896
  0.6633559358948650  0.1600843412887874  0.2436122130209644
  0.3251260744466850  0.2530678799663222  0.8384202038653016
  0.5855626499356775  0.1676196047687016  0.5018263920720728
  0.4146932644088215  0.5732282378275103  0.5795057081160663
  0.9919296250447439  0.8309153398535529  0.5796645388265556
  0.9233943542285000  0.7483869122857770  0.2528805753280635
  0.0784008867825411  0.9912821756009522  0.3279700966601974
  0.4109910779691267  0.9107007378841837  0.2554112681538337
  0.0785396318853805  0.0025850052580296  0.6684343698831129
  0.1676364327050641  0.9127820157580281  0.1684625392405404
  0.1597174968003458  0.5852484223591186  0.3265870664134685
  0.2435452398240489  0.8359981616559178  0.6664225122962718
  0.2460535175724624  0.6718250477550567  0.3229837494105916
  0.9962623312198756  0.4162475681753087  0.4905533849229739
  0.4179036472971013  0.2432797438352121  0.7509226346071304
  0.7533025749765696  0.1603798204823132  0.3376749947920221
  0.4177306416190777  0.9980370022670391  0.1632885236811534
  0.3242986772967310  0.3274712123308709  0.7473950548537703
  0.9162985718486738  0.5838402904564122  0.4158337316138752
  0.2511019538968774  0.6705818365196737  0.8398687863070744
  0.8337792937809169  0.1616194839017354  0.0806600235510063
  0.9966070698174267  0.8362693246733847  0.9186449576637706
  0.1676668085618201  0.0024310310544056  0.5799788892649095
  0.9910809878414626  0.9927476869756215  0.4168525410622819
  0.9995822434539600  0.9187294663896043  0.1681337658619114
  0.5775055918636709  0.2426471249573222  0.9174148649962311
  0.7482914600102417  0.9186751358209612  0.0733037883932064
  0.7482254206853075  0.1570935345718208  0.1590651610096311
  0.0760129111295419  0.6610806947296224  0.4898528685922503
  0.7526646149717308  0.0039389208034796  0.6758572817663094
  0.4919358106528189  0.9143432332858565  0.6673592803786973
  0.8319225955652152  0.2431601719602550  0.4909197913205545
  0.1595859265848749  0.6687101861527869  0.7462048976480912
  0.7508842060763732  0.8335881851081431  0.1600424924269817
  0.7572637525541664  0.4199142083890242  0.9108874074411084
  0.0741992058084714  0.0934291951320724  0.5851410312554185
  0.4169254291916374  0.2560126869975649  0.5807105642077944
  0.6640298624858472  0.2513372972736842  0.3357289024674540
  0.4130338227737734  0.8329086314251747  0.6727757442485123
  0.0076704473600991  0.7455628635218899  0.1675988470987674
  0.9965285246578161  0.5857754103766878  0.6602186262834490
  0.0646653505704990  0.6826670829350137  0.3127147758473152
  0.3374924812474921  0.6701346698707412  0.9279462893474563
  0.0806470684615972  0.3288393515435767  0.4964860975737280
  0.6651743348498618  0.4958493949414303  0.4220742972603551
  0.3294563918323961  0.4973278005914341  0.0812164670407566
  0.3389910166900716  0.5798536564858061  0.3290802139968497
  0.1668688182599278  0.8364312107427221  0.9223903408974230
  0.7462617085005975  0.8393412327751577  0.3377309936259092
  0.5826159873298810  0.5077259211671301  0.9987815343673351
  0.4951314609473228  0.4181388519342227  0.1629798961016527
  0.5767590903039893  0.0032557036319609  0.6725394755253128
  0.3390566452056192  0.0806353921889523  0.3364266311133854
  0.2504843897391425  0.0022623029858634  0.9994766634536456
  0.0842394203453424  0.2399618267927505  0.0858176303562609
  0.0834943097444198  0.3294307020429144  0.1732049452586934
  0.5800663125268700  0.5074914482148136  0.1671943746506958
  0.8305250053358237  0.0763460371062693  0.9957129714042335
  0.7526504566069960  0.2496888379880013  0.2491460345382024
  0.2484993946904230  0.9930401170007314  0.8298622579567115
  0.0734299920096979  0.4984921428741029  0.3304105662905722
  0.8381187539844297  0.0845264137202661  0.6709370497955034
  0.0799871700124201  0.7443603689831613  0.5835323916006883
  0.0795956319875291  0.2464173708071522  0.9096924019921538
  0.9898512440869462  0.4965086139930278  0.7539698375982397
  0.4176996315348413  0.4200449076395914  0.7517225541141977
  0.6700374359076703  0.5090550849686192  0.9127317670544857
  0.0740085597738331  0.5823818766540864  0.7469488478306894
  0.8365391963236307  0.3298622436631156  0.0795003377957147
  0.1574308440527238  0.1742198985017276  0.2443739575110270
  0.6575630538111841  0.9226172552418356  0.1652840386520452
  0.2436418459007540  0.8382801215235502  0.4950170706754031
  0.5754528836220887  0.4166595787304578  0.9134172832634821
  0.8276921885131507  0.2546903378552555  0.6627759949106854
  0.7443609386172620  0.8269080221960190  0.6691562179850984
  0.6645154780935650  0.3306113164642611  0.9167106222570798
  0.5828718777792254  0.5026964150929328  0.8252266625816206
  0.0767192120926470  0.9178306316012753  0.5800568913916008
  0.4226713988079013  0.6617065300280187  0.4908099099451963
  0.2453136259983571  0.6590291385510354  0.4934225172461460
  0.3401815645255216  0.6784220630083888  0.7483062184669962
  0.3300769092316952  0.0897832169994870  0.1633271977066945
  0.1571368731450875  0.8387427493643846  0.7501494571769644
  0.0745492430572347  0.0836393343463797  0.4167474899917262
  0.7482132796700984  0.5079480047476826  0.1690066080944557
  0.1553290585963318  0.0847463102736780  0.8267135712718406
  0.5825412692243025  0.7541281448063615  0.9170459287286182
  0.2407298081583147  0.2545504831869448  0.5808857811996044
  0.7534479134985662  0.2425184211550847  0.9177272155379979
  0.8312887189711561  0.4174316850260463  0.1711875481528953
  0.4151019807422751  0.7527748425183296  0.5814192654584692
  0.5050771221684978  0.3318284788577005  0.7504695728890275
  0.8334735013333404  0.9147452540038191  0.5009487114769683
  0.8338311335414578  0.9206163905431960  0.3325648421066337
  0.4900841844694844  0.5085545401575915  0.2533600741237517
  0.9972540632875869  0.4077597660989684  0.6670588079400386
  0.8336877596504213  0.5067344881593151  0.0803338349888357
  0.2501753988680566  0.5864210668841950  0.7448349647532807
  0.8261877917885864  0.6645806140360624  0.9168621672248174
  0.2435971903982050  0.6640864964591063  0.6614487350840847
  0.3320631207296194  0.7523457265124928  0.4952605942174863
  0.8352577072491707  0.2452724187976086  0.8362224001671110
  0.5017726316062335  0.1614858895597757  0.5925471255985801
  0.4958628810644972  0.3346065023998452  0.4184084553575871
  0.3345687649434814  0.7557067723227866  0.3235607579650405
  0.1603209630792299  0.0794821688102618  0.3352724800398884
  0.5821054340064712  0.4157174192460848  0.5814395396365926
  0.4212669606308859  0.0849343294709287  0.0758253371890145
  0.5025303191754656  0.0023135348325278  0.2530843077358580
  0.2532250475923261  0.8322329717333266  0.0059462910824720
  0.4219460942818967  0.6597910079349266  0.6707720901451327
  0.6604871503495476  0.7528308362641976  0.5026989943985486
  0.3325096047219456  0.5015917215099100  0.7485557181451978
  0.0714903164531731  0.9960192224688706  0.8353100562118044
  0.3357715053792900  0.0762420894888945  0.8309684140292700
  0.4977604445599744  0.3267363293078427  0.2473988068661376
  0.0826769371645650  0.4191161485811218  0.0814992068044829
  0.5756023843100015  0.2525854687601436  0.3320200792351557
  0.3287898961570656  0.9165135081679271  0.5811695110357216
  0.4949529496846131  0.0765110801334374  0.5803844869997002
  0.5805721394069848  0.0833292240388136  0.1625658280117309
  0.5805598108565326  0.9975474260749632  0.0777033870597432
  0.5828554672674781  0.0786654328000765  0.9970094437118454
  0.5824037828560056  0.9953754724002125  0.9152537379028667
  0.4908965362278039  0.9963634786487543  0.4996770081645898
  0.4129595761035819  0.9975224608083803  0.4168785001314269
  0.6635727321639081  0.9975321669961159  0.5013443242795701
  0.3348609435467763  0.9139484686279670  0.9173086828701965
  0.4111955293092405  0.9962811948827084  0.5785576159514109
  0.3295621058270977  0.9169867963427317  0.7521077933278508
  0.4960990511460764  0.0745369282747243  0.4191556015797747
  0.5816396035399889  0.0809153937556635  0.5009860943573075
  0.4126228376786925  0.8251902846077326  0.2497869234594555
  0.5031301978530621  0.5830353576637639  0.5822962825027690
  0.3303513919615916  0.9166862085407510  0.4155296342032400
  0.4911675568969808  0.2527315892901069  0.9189602452655132
  0.6603528486351385  0.0067350598770231  0.1612852642691924
  0.5799851458490223  0.2492209549588768  0.1608270451101957
  0.4122307805270236  0.9165551816278985  0.4961836672228552
  0.5788086511718776  0.0750900201248637  0.3338032623417713
  0.4943522312670304  0.3327394255416088  0.3332629169412420
  0.5780114043810881  0.9978780361586931  0.5839583569772564
  0.3303144030219579  0.8399204167000045  0.3328580426055077
  0.5022249025388413  0.0722891295098895  0.9164527272039519
  0.4137904485212172  0.8333115838302267  0.4155777243316944
  0.5813671427627927  0.8332841526568519  0.0745686633863384
  0.4970786262981359  0.7469325288326125  0.2530278191663445
  0.5009804304059208  0.1656815705957763  0.0042998931275799
  0.4999950854654325  0.2494411207181675  0.0809699296327345
  0.3328686260030281  0.7528037261476983  0.0848672652857911
  0.5811189937705579  0.1652353574864450  0.0807158528626574
  0.4989239276706832  0.5839445660025113  0.4181361816932889
  0.2482754540416061  0.5743998196155963  0.4986422165611163
  0.4180814773064808  0.8360411968822375  0.7580573634952046
  0.4965439763176644  0.3336553260771692  0.0010057067249022
  0.4237252766403042  0.6701136927244653  0.9176166063695899
  0.4246179640843229  0.5855801490201549  0.8349799714351858
  0.5805260777563209  0.3322260416504147  0.0807212262391411
  0.4186295190493680  0.7549409136228005  0.8358052372177251
  0.5830217661665775  0.0787989173740749  0.8339859262737466
  0.5778264004028619  0.4130329125842717  0.3391072478888829
  0.4970039596570759  0.9152595635083475  0.4179928952905688
  0.5785231104740277  0.2533998018628880  0.5003342297346395
  0.4977981447313453  0.0882606921971356  0.2460892643779543
  0.5061193183466070  0.2445787912848817  0.7536758032775728
  0.4952180835863421  0.2489486802177708  0.4165810614853067
  0.5822191023725424  0.2503438910413605  0.6674409352789329
  0.3319745312392787  0.8330521516298524  0.1664063825375845
  0.3390105280661198  0.8331857228472314  0.0005803851476368
  0.5850501905439686  0.2481650178639775  0.8309153702840720
  0.3316246297356904  0.6620660444189735  0.6583236609219794
  0.4946892645356041  0.4208049774640638  0.4194974652611995