Cr  N Ni 
 1.0000000000000000
    21.1326370199527886    0.0000000000000000    0.0000000000000000
     0.0000000000000000   21.1326370199527886    0.0000000000000000
     0.0000000000000000    0.0000000000000000   21.1326370199527886
 Cr  N   Ni 
 259 173 605
Direct
  0.5793688137045414  0.5025632161471537  0.5931479847421637
  0.7430730752645107  0.3235629236904190  0.0793975738344312
  0.6634814411550148  0.3283614695652810  0.1628697272682283
  0.7410646355547884  0.4086776888746136  0.1659313684061322
  0.7470532742353694  0.3251323565417692  0.5917962319118298
  0.6708517117363932  0.4123789748428658  0.7458323575572304
  0.3279024326677448  0.4180065316129855  0.7452234873860011
  0.5753867100172748  0.9125941930116871  0.5014201971520870
  0.5798129826284160  0.5062325008295103  0.7507086865764454
  0.5050034248607003  0.5950476915971765  0.2422650634780328
  0.4132033553534780  0.5791293930047106  0.4968779714668238
  0.4973267465727280  0.6682635640787145  0.5010588772613189
  0.4033615471784266  0.3285093473188544  0.2466524801602412
  0.4136938128885728  0.5837937521916067  0.1605007036706711
  0.7474881429272704  0.2418440081161194  0.0020895203239073
  0.3299359076336008  0.5011397512117585  0.8339451048148745
  0.5017929657551222  0.9142922944399916  0.5843182338672582
  0.4913937442046483  0.8272994692839482  0.1658193026544960
  0.3384682801575446  0.5957623452773345  0.7390492366865313
  0.5855974993605131  0.9179526496616088  0.1653590498908091
  0.5803560284939087  0.5037734348874366  0.9172916903633628
  0.4151618920808742  0.5020421494021448  0.0805202808581223
  0.4995212404366526  0.0005560329846244  0.8347734935095660
  0.4975907719490488  0.8371664280207702  0.3357022128567033
  0.4979883581777008  0.9187782613917793  0.9152005129876630
  0.5759451481310813  0.7425638822570177  0.1683209674028691
  0.4949232856555491  0.1744874679820215  0.1627830045467923
  0.4973874177663807  0.7521388175717033  0.5798848618044845
  0.5775718924033343  0.2494535841984581  0.3250833172609356
  0.4953830162136548  0.7521336288692514  0.7530047707195113
  0.4146859654277760  0.4178801830156380  0.0069094669131737
  0.4190818603410977  0.8331344825344060  0.0797882381389963
  0.5019336859431134  0.2470259382779408  0.9163805459845586
  0.7526686907929587  0.0876603722941662  0.9980662876494649
  0.4210689136916939  0.4210769318718193  0.8347568913820446
  0.7500659836973070  0.1588102068081468  0.2425806022908619
  0.5724281942336310  0.9176712521943942  0.6693777232276966
  0.4069214247670443  0.3283138483235923  0.4142245194779208
  0.2476525711557784  0.3316427274143728  0.5868927471503070
  0.7492034205756386  0.0036942262028262  0.9097240860265312
  0.6668599019059778  0.0042230256658317  0.5034929477328901
  0.7471432652910738  0.2472411813296154  0.1588182980019413
  0.6653973501767405  0.0792506257465713  0.5891916621371119
  0.3240704059381243  0.8351135022533293  0.6685756905205359
  0.6645779774597727  0.1721364350143524  0.9978443545686274
  0.4999225167610490  0.0750730809458068  0.7526692520440955
  0.3320629404850352  0.3276097691550192  0.8340174617959519
  0.5818122214662309  0.0792872113670120  0.6685050280615058
  0.4979150914356360  0.7540399151077841  0.4215659194906562
  0.5791328887816869  0.0812010578136265  0.8342844332707389
  0.3341938675939917  0.5805791758174504  0.2480801762653032
  0.4934857222219132  0.2413914016078156  0.2486833004705965
  0.4151888134799989  0.5854452700599981  0.0064740327617445
  0.5828437423121207  0.1629863366310364  0.7487178762251011
  0.3306763620534036  0.5862133403457160  0.0786872976092043
  0.5000937668095504  0.1636096338671442  0.8390962349617384
  0.4161649362943433  0.9111216220372140  0.3343614672593441
  0.4981403600022216  0.4180149985118858  0.0756173351215640
  0.7507944451046972  0.1573644178950636  0.9140738072463911
  0.2444051602398752  0.4167770561427552  0.4953735298162996
  0.7518160976940441  0.3309982365240524  0.4138201162251855
  0.5004399716921075  0.8366256338933158  0.6675409052368310
  0.4121774047487400  0.8310612044761324  0.5799066005204535
  0.1701310557013130  0.3299888413476100  0.4961404373646585
  0.3270637050684129  0.8392762627470003  0.4990544078132661
  0.0010628412485915  0.4152635030219749  0.2521159400533929
  0.2493214587244131  0.0029959008778995  0.9119107873005056
  0.9995663392992814  0.6720069868058089  0.6647102928421287
  0.9937508574583899  0.9994653047033132  0.5036812303488090
  0.0809465730221170  0.4992580031629261  0.7537892078317870
  0.0815559607427431  0.9961473278580483  0.5833672513134224
  0.0812702641781038  0.0848163881609014  0.6724917057340830
  0.1678624621860209  0.2475621939926375  0.9164696327464706
  0.2458483075467189  0.2435458032949283  0.8324940092728045
  0.0758951601566809  0.9983313470187645  0.7573909019174131
  0.9960345014621177  0.8348487571257385  0.8300329898966730
  0.9982992138936614  0.7559772707826945  0.7510259990273985
  0.1625541585412573  0.1717931864655323  0.8345776255125930
  0.0745271249378903  0.7522144487115512  0.4950602996223997
  0.1632656362656174  0.0822105387439328  0.2432253919159447
  0.9948801509873811  0.5815412621954021  0.7550958823644863
  0.0813227662468672  0.7563324398997752  0.3363434981810976
  0.0819113382465644  0.0031126336572895  0.4118675873240465
  0.0820024185880389  0.7524841017104894  0.6704215714634586
  0.0835279968054449  0.2484068076085438  0.1681700087778954
  0.9201210295928874  0.7531779532141158  0.0006920815054539
  0.0821777814595207  0.6683079685957215  0.9150131553520223
  0.0898065196187845  0.4204324347239087  0.4940158151514231
  0.0779436266320066  0.0044860560848289  0.2517610404146396
  0.1662924027612370  0.6721136096156822  0.8315706249602378
  0.0784266734955019  0.6675185245150883  0.4228512729099992
  0.9933827191072340  0.5869631101771462  0.9163004641268262
  0.9896054548237860  0.9989099131927461  0.1641176434258061
  0.3251628687539558  0.1666559081312722  0.8345399027901643
  0.9919648508872346  0.4950766845969841  0.6702342207416178
  0.2528923013475349  0.0817108739778909  0.8338393968155010
  0.2474276289233801  0.0862519774676577  0.0018371199497960
  0.0785580927582826  0.8383177061917017  0.9166604733655388
  0.0727467221162350  0.1787060991557818  0.4235639614322583
  0.1649597252018570  0.9984477452305026  0.1660299760410341
  0.0813700618702371  0.1695136347567492  0.5825510383445814
  0.1603713785181899  0.5003427587521730  0.3315010901709619
  0.9934702226743114  0.9106412430290199  0.4130360454986371
  0.0825791537443848  0.5846591205942533  0.0064730787528760
  0.2491306987694845  0.2427141474695741  0.4990750793871562
  0.9176334714529698  0.9158646897721771  0.6632022753536156
  0.9920879737510552  0.2433870801693696  0.9123689941346831
  0.2485745036937400  0.1671057587435253  0.4170818107975843
  0.0772867833535530  0.9953251044342057  0.0786141981776146
  0.0024262549693463  0.9135810731242279  0.7533019776263629
  0.9920520361720756  0.4155525498873697  0.0778875289465867
  0.1599417279585063  0.3318138433446044  0.1660325398316956
  0.2468354255442113  0.2562734051868653  0.9988542821220657
  0.0788848831244895  0.9095835023698517  0.6676818456436685
  0.0825432737769392  0.4223907222450862  0.9960660551450020
  0.1708840730496652  0.0890671909957891  0.4163485871686604
  0.2551612845213401  0.0017489550128181  0.4192062145655051
  0.9992566025996248  0.5026894135376901  0.4969692216338628
  0.0035836086446830  0.3221249592363730  0.4906574716074519
  0.9968622566691047  0.4162180472864129  0.7505648546761475
  0.9944745972793970  0.9163838025678446  0.2496938852568119
  0.0816697814116740  0.4114345810260902  0.6695249654697080
  0.1657045147487859  0.0856793138244850  0.7451837253870095
  0.0821928804938231  0.3348901479792842  0.9104634481779920
  0.4095231237218954  0.3326730012940866  0.5882314301773791
  0.2492057128224797  0.3277650044534550  0.2523692275694913
  0.4988221359410218  0.0008227444921102  0.1630018681902728
  0.1711988222170770  0.9992136422027443  0.6620376332157540
  0.6641940778621979  0.0053568033062470  0.6697181326440929
  0.5804804586366880  0.5838036194643919  0.8345687401320077
  0.3281433267979033  0.9169896489489399  0.7496444802689747
  0.1702724411070098  0.7558346072769592  0.5848120138694852
  0.9130394435788235  0.9165222111647879  0.3359305444599393
  0.7452088485551895  0.9152053216662832  0.6689917299164387
  0.8310407647670953  0.8334985236347143  0.4952455207506082
  0.8301650360080295  0.9190944247194083  0.4088944333460924
  0.9173099751554541  0.8373800112130445  0.5847351588273698
  0.1707444816774198  0.6687180588405675  0.1608876657947445
  0.8303474983557831  0.7555316434255134  0.9123703427239160
  0.8285659444198986  0.9240602081799174  0.5822206833604539
  0.4132814984286264  0.3291084763433658  0.0891572970192455
  0.8311537387320481  0.8358533485582594  0.8335845721983102
  0.3321769637765296  0.2490412125612168  0.2507887761536188
  0.2508761581004861  0.5860360412787775  0.8336920050280312
  0.4160471371876405  0.2435475692803489  0.0004920651901935
  0.0887872542982218  0.5860806438609981  0.6653819517660233
  0.7464039091121586  0.5837841962729881  0.4975789803069672
  0.3250697116707723  0.9987206159655282  0.6687597518968345
  0.7431657721067643  0.6673176456858201  0.2570096950366818
  0.4135064908710199  0.9988878732590813  0.7550074896045647
  0.7438705763660812  0.6707008746279821  0.5884562201979759
  0.4120115415072600  0.1586590381652717  0.5855848611891854
  0.6625395404124697  0.9177856059530737  0.0845806488463492
  0.6532454435633678  0.6665915867754413  0.9995525791876433
  0.0027826940102956  0.5004874870662614  0.3347713094274606
  0.6642723243613949  0.5900538173128811  0.4173627518509994
  0.8366785138822000  0.4144112664506424  0.5887999506814569
  0.7508231376691646  0.5022500853751970  0.4210162624051402
  0.9134709625018131  0.6652722393043002  0.5831475051285375
  0.1606841695590453  0.5855278211809340  0.7467393028305371
  0.7470289606978217  0.8427094575418914  0.2485407855309841
  0.8334901136971229  0.3269858152064272  0.5019925553056206
  0.2480594445574004  0.8333509927126387  0.7497959853541371
  0.4107306220405405  0.1705869875678193  0.4158733911744601
  0.7500242991765503  0.9210816778984789  0.3340676655195329
  0.7421260204404773  0.8329284822258410  0.5873102830763492
  0.7423610112262758  0.6658547722020824  0.9084925792791990
  0.4125112414647417  0.9992458960299856  0.4229332030855101
  0.9124866373183812  0.9213498405899133  0.1618865384989546
  0.7499191579067696  0.0716117431237001  0.3325320850569695
  0.8330723710292146  0.1628011127822306  0.1627023223745026
  0.6673533907092482  0.8335488494379601  0.1672298760910793
  0.9140411914540170  0.2503880773019470  0.6737466508975354
  0.8338113530935131  0.2385571562824531  0.0796449786157280
  0.8391852471085698  0.2460866002778270  0.9148100582249949
  0.9225334031801584  0.2382314114989911  0.4996073793987204
  0.9133740023675967  0.4149201970568836  0.1647902545449732
  0.4143430428405863  0.0040101968175218  0.5825942297171067
  0.5792667524408658  0.0791561050400312  0.3304027340502725
  0.8308157287576806  0.0831429571205359  0.9135989057809449
  0.3243369765434591  0.0016295706676463  0.1642234555743151
  0.8287948116146316  0.0825726523369390  0.7540972671859898
  0.7494022529675664  0.9154182395339900  0.9950504006863040
  0.4161616780783563  0.9992376002572945  0.0724930427241254
  0.6709293313070888  0.4128518582388304  0.9207617696315163
  0.3372522404866664  0.9974097312696363  0.9998957087416189
  0.7475287944004183  0.4965427216673115  0.0771891923126408
  0.7479412338415893  0.4980769053569116  0.5870870847980945
  0.6577580455064302  0.5032008609308768  0.3311047586728499
  0.6658193482794564  0.5044754458083602  0.8340252742641117
  0.2522095966528609  0.8295256368509824  0.9155568360469888
  0.7416573981228251  0.7553469679013116  0.3402853568748782
  0.8329673408148301  0.3215255023369147  0.1663318340999611
  0.7428549622627818  0.7502284738370995  0.6623201081754161
  0.4931899740892171  0.4180471274059884  0.4134027071327497
  0.2447134547802600  0.1670400735034529  0.0843465583733555
  0.9151764170418819  0.7565855240604527  0.3349131589323263
  0.5815475610462187  0.3276119840795604  0.2459701677477942
  0.4945010755048570  0.5051937608713922  0.1610416942778174
  0.4932438503693192  0.4180174147001290  0.2496252312505576
  0.4173644794371577  0.7537380339471348  0.5007424756847101
  0.4100380189078932  0.6665090155552522  0.5911136231948890
  0.3207609468288738  0.7564457149149920  0.5871407129496740
  0.5016206628980012  0.2452102536335378  0.5890158622106044
  0.4960628315899188  0.4193169814468665  0.5852930152302089
  0.5788441333027297  0.4150537408315749  0.5097709096019449
  0.4174301647267711  0.8349113100258995  0.4177080679302254
  0.5810140592945681  0.4156498499167417  0.6572747171285324
  0.5088010159678787  0.3264689879500803  0.8347051416211539
  0.5814819296671472  0.3260821244900332  0.9168869297183430
  0.3338757866922979  0.7519736243651072  0.2445146695504697
  0.2421254649453717  0.7549128233228211  0.3353392566810746
  0.5787336078275072  0.4146718229264040  0.8321098493492709
  0.5812825459318577  0.5747651490485980  0.1602734468042299
  0.4099287581741167  0.5028578815295029  0.2462181478502080
  0.5835481142181360  0.3262314819108947  0.0801873821285333
  0.3279497186676428  0.5857170427481131  0.9194243804235245
  0.3302559532625353  0.7488371540353267  0.9164936351994130
  0.6653374499484223  0.0826534024664618  0.9099193814183284
  0.6661139414650932  0.9166861957368491  0.2447194044575525
  0.5012968097074376  0.9989057863824342  0.3361148022602573
  0.4135087931692312  0.8375046125798620  0.7528970638361917
  0.2487059786628269  0.5007306682629391  0.4222529118020925
  0.4081092647524417  0.1640960424481518  0.7480324979767866
  0.1659527105764075  0.4979006556752905  0.1650941969766522
  0.4124274833632024  0.3285619894278994  0.7441664108117398
  0.4983382335585215  0.3287299828732006  0.1533248288673540
  0.7505013518440560  0.2509009935104998  0.8293893243295736
  0.4251817280780197  0.5868587239330229  0.8336321038753839
  0.2419002974246770  0.6770578266958995  0.7507381845209014
  0.2467440332304551  0.4154726504145606  0.6649468507141119
  0.5835867225824565  0.5024297637067275  0.2512537557476134
  0.1544498205541578  0.4158336141167085  0.7518014115092524
  0.1615173019263375  0.5866393662436499  0.5806164251317545
  0.6656785481890066  0.3253147009415705  0.8329044663347367
  0.1639296636516796  0.8330094595553303  0.8263692644685651
  0.8307557887416812  0.5828802005988954  0.0788036271484495
  0.3254887130096253  0.0051343906832434  0.3330639442906749
  0.9130860378717350  0.5823003597488356  0.3321596645457424
  0.9167108678738192  0.4146670676315490  0.4982887551682026
  0.4964096143221710  0.0883522300447722  0.2517016008331210
  0.8369504843424420  0.6675523520875718  0.5031647512137464
  0.1598304452983489  0.4968105602416427  0.8341671717252683
  0.2469458349646169  0.8372325968640890  0.5846481533262934
  0.8306539761192638  0.4984135763313950  0.3296256098947051
  0.8350723423562484  0.5854799766645916  0.5835615211567912
  0.8306228543958294  0.5833257868866162  0.7570398926607748
  0.8236935182025716  0.6657806861309007  0.3320952023817542
  0.1691823357669689  0.5849307100519388  0.9229483790077515
  0.9114486474644657  0.7578585653657083  0.1629352902378660
  0.9904647421619596  0.7505204297037298  0.9185926376246285
  0.7461974654348300  0.7573372627167216  0.1642780515402842
  0.8282658299447349  0.6664752401262412  0.0001732731412247
  0.9053113877630299  0.4961618904362214  0.9141352796908726
  0.8336562795166843  0.4971134817502560  0.8300976838394949
  0.2459463614430819  0.9140510188772747  0.0029274127895685
  0.0836672765590884  0.7574126764914310  0.1633372957351980
  0.1641261129094408  0.9174385151324307  0.2441382444484410
  0.1612547674535734  0.7548232666759127  0.4113036797763394
  0.8343301357330198  0.7554540767203456  0.0014823206215302
  0.5756169137933231  0.1645149463571094  0.3308756078925664
  0.7489196730716854  0.7510539440748016  0.7460382707502780
  0.4160101116795124  0.4161061805425544  0.7444855383758753
  0.5833626740671722  0.4154131861789176  0.2490312165546513
  0.4058281113369983  0.4163603112718147  0.4158418019196659
  0.0805477498387107  0.5816497278715790  0.9211898267924772
  0.4127777871518230  0.4189092835338055  0.9215214721864052
  0.0789362505612888  0.6693291977618568  0.3362875448042110
  0.9168655164360332  0.9152342158076772  0.7519406515232018
  0.4153457632238867  0.2442863582444081  0.5843075408794631
  0.0829319789114660  0.0838971600051941  0.5842698759169362
  0.2448011052902185  0.3278758408684912  0.8345250306490295
  0.8284039605439972  0.8351712206869374  0.5833782288358649
  0.4154776365168237  0.8351203738832196  0.8378070602231862
  0.0815070314916520  0.2446498776546286  0.9100900471666346
  0.4113063285407728  0.8296322443292149  0.6663410974619770
  0.0738677023056437  0.9954017270278717  0.9906707999812691
  0.6576427545423134  0.9170960350053237  0.6738781035543084
  0.9147735339860313  0.0859300448733293  0.7529158018887596
  0.9958348066780076  0.3286515205442710  0.2509749016727707
  0.9969105617669825  0.6698474241384816  0.7530150993541036
  0.5835297646358518  0.1653263359882195  0.1581667897158645
  0.4110605186042534  0.1608566010636985  0.8360202094971206
  0.1659897038363248  0.1738499276114301  0.7481617041489292
  0.1713635126587068  0.9980526154157409  0.4161547806374369
  0.5789656973612154  0.9980122374037051  0.4989891226801284
  0.9134733534882320  0.6722670967981830  0.1630994791613093
  0.1617963752587962  0.5845995480020240  0.8351913194266075
  0.4148495523509962  0.0863555773200690  0.4190358903662811
  0.8313402166136780  0.9159255651257383  0.6706228581506305
  0.2409789671139172  0.1730011138794185  0.9971484491197760
  0.5797050764723661  0.7524529988125812  0.7544254537221239
  0.4229373741329004  0.3308663346565398  0.8313780975376801
  0.4978290141032579  0.9127286098441272  0.1611965690018286
  0.7434517624752526  0.5821967875164394  0.0771180175202711
  0.2390186257568711  0.4153664289451890  0.7513196387533330
  0.5030047494188409  0.7503984746058302  0.3337628769042872
  0.5768992363220061  0.5034756194685905  0.5086697275998356
  0.9990823629872144  0.4135372624405557  0.1644197179430953
  0.7448438478597953  0.5842294001423919  0.5874369632890282
  0.7441485041935748  0.7561464806837581  0.2523872788427166
  0.4144716151515769  0.9182714514356837  0.5787394249596773
  0.4975304279819599  0.3331911736333001  0.5887630150705540
  0.1616576450333937  0.4975488236072174  0.4185671590728815
  0.6625374633964083  0.9154607598995295  0.5011050062812833
  0.7470665417297037  0.3273175760686683  0.5044024959798471
  0.8310208159659048  0.4191048543212034  0.5000640411171123
  0.7396114251505643  0.6706182266139027  0.1694730673617674
  0.0780345073292457  0.0810977591815096  0.0786523470817618
  0.1654237874883160  0.8336155745823982  0.9125775604028599
  0.9192024508900174  0.3271321346688740  0.4991795119244345
  0.9184452382829883  0.5804349180443903  0.0775743440019438
  0.8313523966104084  0.3246034937455294  0.0790817896297636
  0.7386083314546814  0.6660621611923367  0.9964685861496249
  0.2452370493741108  0.7511145521092472  0.2455328345222499
  0.4122230023484579  0.0042719498824696  0.6694338103515256
  0.0822981069498242  0.2454616391957157  0.2541749022357795
  0.6702570893419588  0.5033173168661222  0.9225735176931358
  0.3365510529929336  0.0839311836825395  0.0000915818703954
  0.4128625956658273  0.3293290165512615  0.0039552380838457
  0.2488552505361231  0.4138297281483420  0.2489767187443075
  0.4117619951150093  0.5791126766270043  0.5828380215802001
  0.0042429144156391  0.4152606264685608  0.4975742237839289
  0.4952849853305877  0.7493967309549006  0.9961128989585508
  0.8296988834846162  0.5824023398569768  0.1659769084435435
  0.7492689088943186  0.1554700224650374  0.3305278766714481
  0.4080680067601626  0.0016089948478988  0.1583019019652064
  0.4951969896637717  0.7463089457084652  0.6657081808143716
  0.2517530989392892  0.9171369044416298  0.9132291824719020
  0.0792212626190187  0.9952874558377542  0.6713395290992994
  0.8285098320600708  0.7539857948577749  0.3366120466129945
  0.3385067996931945  0.5772076434972966  0.3350345793310834
  0.0856410633659785  0.6704246566185901  0.1641881674520801
  0.1666416112942791  0.0877704597240875  0.3272623212112525
  0.0789806607024878  0.9159816501999433  0.2520460832242837
  0.2460315479163504  0.1644658705246425  0.1703260198834656
  0.0822261795553289  0.4974761993848855  0.6664265411186102
  0.9141233215823497  0.5856709233392259  0.4186004208799943
  0.7408906165192022  0.4964752840255078  0.1640660400284234
  0.2575614681164818  0.3299732036333070  0.4949657778328928
  0.3292874154603535  0.4149601413171825  0.8370035876435498
  0.7461945263691624  0.4093116400941114  0.0761875767557241
  0.6632889600488455  0.9181424999126300  0.3304189390734715
  0.9180401437873228  0.1654637771253254  0.3319110553178467
  0.6639456307565530  0.1598327244255681  0.4230818022815004
  0.0137516111650100  0.2293208752811043  0.4766119529181596
  0.6717153912490301  0.4127718061269037  0.8333989987940771
  0.5783910359768802  0.3309040076214825  0.5039195723770206
  0.3348223937695966  0.8312901900231667  0.0852543755412305
  0.9933065911086715  0.3298637655028961  0.9110019370497064
  0.2464748945223669  0.0005534697649899  0.0008926104513335
  0.0831767736783887  0.7524352537357162  0.5844082711240013
  0.8283217529116128  0.0868283766851396  0.6669675654289754
  0.2480298389389728  0.6688194727302132  0.3380112694456505
  0.9977033000200835  0.7584433038374804  0.1670714237868299
  0.0004247099926100  0.5847554406790996  0.6669670001002501
  0.7479228562653614  0.2464019920562955  0.2440319384114778
  0.9142298291170518  0.7499721772906777  0.5854611845411861
  0.0876450914733739  0.3342814041743079  0.5014147346493669
  0.6628132841461466  0.5051729552088561  0.4194396951190546
  0.3281683440539075  0.4991146780804283  0.0811806678671825
  0.0772984550129220  0.9976111337213353  0.1660540823115153
  0.0793600636680407  0.7524811933762624  0.9193744628426812
  0.3347479676470373  0.6656849592951775  0.2411980249389574
  0.9072247128019110  0.9178754318856994  0.2486733554095720
  0.4955191921411248  0.4170290971925456  0.1606826641812696
  0.9910585154169917  0.8398157559318358  0.9179864644256823
  0.2453358595016839  0.2422576665466484  0.5873996513326559
  0.4136741762835043  0.0014380197532338  0.3354668271942666
  0.4946936455673689  0.1628198539812248  0.7505511066812209
  0.9174743432423662  0.2428832975727069  0.5893131072018808
  0.5777757391976212  0.4199723835905802  0.4215633984211272
  0.5829264042980589  0.4153454605007492  0.7426826251403643
  0.2442318747089420  0.3346396640329447  0.1639772755710849
  0.2473064377029051  0.4217548583363117  0.5797174531796084
  0.0007891310082230  0.5059472107566870  0.2479776628803476
  0.1686847048330038  0.5819681994439229  0.1655181992815495
  0.0770031566059404  0.2476099329640186  0.0827134158776832
  0.9927796064393763  0.9962266888827950  0.4153911771433584
  0.3391973853311409  0.5915299379841192  0.8300521107438367
  0.7519117416515451  0.6726271687757578  0.5001733003668807
  0.2465196907961115  0.4968716689887825  0.3349145571741995
  0.6653561781153929  0.3319153483756365  0.4110953856728912
  0.6635333058311461  0.0029655290021048  0.0872528420354173
  0.8289723523355909  0.5823114290167268  0.6719173099240359
  0.0809512881130101  0.0949610151422997  0.4127023085217000
  0.7530052573780877  0.2452058259472704  0.4162215661986618
  0.1648063695767621  0.9969006932476342  0.7488896283181267
  0.5795432294546686  0.8287579850708159  0.1681468911752020
  0.5827045289308004  0.4141195859954681  0.9207816674148598
  0.3355682499218869  0.5072105666004957  0.7447474483795977
  0.4977510428881328  0.0889961681547402  0.1626523265541023
  0.2489040822813109  0.9208460017933507  0.2479160437357756
  0.3285252401373938  0.9200593066807811  0.3338234602220440
  0.7440806717595104  0.4973012531661105  0.3329627756667185
  0.9955208141900480  0.4998315509953347  0.5817283532952112
  0.2488142177705068  0.5912676101807738  0.7419645955878424
  0.4921562961081246  0.3284669915344319  0.4143086361959711
  0.6614145703461942  0.0876274605782981  0.9963421808854103
  0.5014179422254167  0.0011189204184151  0.2506338572963129
  0.8305176704905207  0.6649602791455551  0.9122472737879501
  0.5819852947644285  0.6731048256124290  0.5017932094503552
  0.4957570436615443  0.5098171770768876  0.2527822111475670
  0.1649105738011882  0.0847070839529646  0.8355312142484863
  0.7540740123819929  0.0007440083136100  0.9972994603898241
  0.6683525954909915  0.5041800365491741  0.7466485869609611
  0.1610754449614600  0.7531119060716175  0.4970942297090473
  0.0825627996771054  0.9934367504051425  0.4979415927476298
  0.8333157984322925  0.9218797523753507  0.4939987337660957
  0.7491295223900741  0.4114055986875146  0.5898043971957402
  0.6624261234437073  0.9124748085307918  0.9939123581557110
  0.5656019111812011  0.6539792848877097  0.1857086283536123
  0.0803566551425568  0.3368486830521043  0.9962641273753176
  0.6703665782227166  0.8278923453838233  0.0800296311627803
  0.9110534393527961  0.6700011084688167  0.3334362365932466
  0.3314379323459937  0.7521883942823477  0.3321072153053645
  0.6687538642739389  0.1643194243916892  0.7501168862606540
  0.9167955470034578  0.4927336207106563  0.3336763493771917
  0.8349535348134467  0.2377160393214301  0.5010393717554212
  0.3294080520251135  0.7523137819527934  0.5022188347533518
  0.4086110151232106  0.6658193363904381  0.5010427861790021
  0.7414350268829232  0.7548193210514896  0.9161545907394067
  0.5759371991547755  0.1647435289782674  0.5064627720147193
  0.0781434795858296  0.1736458988703375  0.6673893346899176
  0.4909935725545848  0.3274723021772442  0.2426115511441997
  0.0804401653168166  0.4216058734928096  0.0818293947153986
  0.7511701461472226  0.2460954322081743  0.9157018418727690
  0.3872815450887645  0.6506492129629838  0.6835569058123948
  0.2470685161234016  0.8271784047131919  0.0034075091233227
  0.8277879493530379  0.4083031631436702  0.1681575403202961
  0.9907569980314058  0.5003634707090001  0.9169691771282099
  0.4173916067513013  0.5893815556081534  0.9209409268244525
  0.5752160815988577  0.0820479417479806  0.9950197277054461
  0.4149182996770264  0.8325604459563661  0.9211254728849556
  0.3377001804322733  0.9183780126471686  0.9166310826144440
  0.3275708906571731  0.8330558278719220  0.8330082075395154
  0.5866636189556281  0.0777613215853759  0.1652368219788657
  0.3270145818037148  0.9179220743343346  0.5847268003142275
  0.4963132298331586  0.0824301074541961  0.5858834981268299
  0.5785647083572891  0.0815301171439323  0.5047056980200511
  0.4148770863971561  0.9174607319168212  0.6719003391377920
  0.5006258568550814  0.0807217155196352  0.4165498442830063
  0.4967597722018619  0.0827971761268042  0.0764938738437855
  0.5813468944527324  0.9992411749009779  0.4124031623588534
  0.5773320589282247  0.0006303431639377  0.0794675642489811
  0.4925252271641571  0.0007088575993001  0.5014487462006991
  0.4143872902814410  0.9159689519616319  0.4939568470442697
  0.4980619185388067  0.2464481627464797  0.0786845317741633
  0.9148974620194702  0.1624934097264863  0.0804950877200187
  0.3315787255439920  0.7528991961560035  0.4169338325145528
  0.5794555470762485  0.1648323552631618  0.0739460668809491
  0.8342520890965829  0.1635291580739685  0.9976345363034249
  0.5810007912831543  0.2475558560080910  0.9982055646305225
  0.4155147935671689  0.8321163088129618  0.2495388895479307
  0.3352576976954301  0.9152655629123005  0.2440286679392238
  0.5817639364882610  0.2511884519308525  0.1625916765030992
  0.4890114705781358  0.1671600314344184  0.3331160068970993
  0.5750714219787002  0.1636063037464469  0.4188719756378796
  0.3300028796673114  0.9180306216118768  0.4208597866630891
  0.5005586186762374  0.0006431949618846  0.6677753543038122
  0.3299066422072506  0.8361351156888078  0.3347501042351174
  0.9133184878453269  0.0817603245478912  0.1637806138570489
  0.4982434204638631  0.0821567112542115  0.9148282062734071
  0.4985207651201020  0.1665488446689001  0.9967631883640802
  0.9140052400304632  0.1614370841139517  0.2442892374238965
  0.4104224656899511  0.9127064825478178  0.1637159279279650
  0.8395053666804526  0.2462474899678333  0.4124079400354899
  0.5805937988082522  0.4142259433537368  0.3354173724913671
  0.5777600506456718  0.5859203612118917  0.3348990934618107
  0.5007094046876714  0.5833225497301369  0.5830715383703599
  0.9951797218787148  0.0010155351750400  0.3285759720889305
  0.5822159344635573  0.5870621988835928  0.5012889622662690
  0.9947265875844030  0.0820591174205288  0.2459358830021268
  0.9917619087527892  0.3311073455579798  0.0013318582075453
  0.0759585750908517  0.0844762805651808  0.9919983856729346
  0.0767122319497605  0.0839882427690306  0.8324377857722290
  0.8279436689641703  0.0011218750538762  0.6693719916009896
  0.0781046864457042  0.2512927931429624  0.8253719331932723
  0.9148890530716035  0.0003673484334763  0.7520545222730198
  0.9944469521004957  0.0822684716301494  0.9143784498529512
  0.8303964729287033  0.0015803732423077  0.8339912164363419
  0.9927448284474992  0.9972377461387492  0.6663611665322693
  0.9127368718552302  0.0009801995914850  0.9148168008412177
  0.0844122898581600  0.0875280064089246  0.4988419676088240
  0.0769523726574369  0.0842159064658563  0.3257042080086093
  0.4030020656899340  0.7428857607572413  0.6708238699673238
  0.3294184612281956  0.6762660023808408  0.8320208550916794