Cr  N Ni 
 1.0000000000000000
    21.1326370199527886    0.0000000000000000    0.0000000000000000
     0.0000000000000000   21.1326370199527886    0.0000000000000000
     0.0000000000000000    0.0000000000000000   21.1326370199527886
 Cr  N   Ni 
 259 173 605
Direct
  0.4903497873955636  0.4123830510502813  0.5831099998804364
  0.8339285887145702  0.2429726909482113  0.0810184075971226
  0.9183013714691559  0.2424968188620643  0.4997474473381641
  0.4142089191293996  0.0066476120348679  0.5817066433233159
  0.8348558342116603  0.8382134673198571  0.3322472027486489
  0.8266644444501035  0.8250177714098977  0.6644549980185115
  0.7393925174502801  0.6669122915694757  0.9177056504249308
  0.4142877394798933  0.9991778182141734  0.4240061867477921
  0.9135123953601793  0.9219679332728468  0.1621729662934094
  0.8346281024123509  0.0833043755826791  0.7576557614713019
  0.6665557546305261  0.1637972867749905  0.3309273739472395
  0.4147644407168929  0.9987317700007681  0.0743377984078904
  0.7516729869661467  0.2503409220039554  0.3222065664730406
  0.3354380042365699  0.9964393831141307  0.9982392992638390
  0.6644814823133950  0.8312326424176164  0.1692751351306112
  0.8304509639112228  0.1691304648395596  0.6694239048296142
  0.8409784637513060  0.2458390749870689  0.9205968327229659
  0.7489912302922268  0.9160997948838980  0.9925362865450038
  0.8323973753255837  0.5014473353439542  0.1633539009107627
  0.6662310456721693  0.4170193438280039  0.9267677779351190
  0.5802396300916406  0.1636138602977152  0.4183386944462106
  0.8355748808142353  0.4183784461279573  0.0796741724364125
  0.4150554590183474  0.9975661064198068  0.7551695414390650
  0.6606572705799717  0.5012549213547354  0.3314968844816301
  0.4129032526819874  0.1622221635600646  0.5822515792280448
  0.2550720336623384  0.8373748854389225  0.9148948470853505
  0.6620471949494401  0.6656162852346037  0.0021683921774227
  0.8284177114534603  0.3228521386320682  0.1759957060116896
  0.6551917339285847  0.5869074318487295  0.4176719277285764
  0.3222547438465053  0.0026125147903234  0.1674903879342041
  0.4062018733152766  0.1671219580452950  0.4157420213326431
  0.7544461868715531  0.4886137687744280  0.4241546712228391
  0.1619227274022105  0.5855909875175838  0.7466988996223912
  0.7383089054697047  0.6738471725142923  0.5898285146593891
  0.2472173299140939  0.0854935171248221  0.1652905586469025
  0.6631594948410565  0.9165400680435366  0.0821326852031922
  0.7345826680502664  0.4125547648351571  0.5026422289937051
  0.9981176121337677  0.4987214167375507  0.3301782969695645
  0.6651609223212552  0.5109591829685959  0.8325143926841799
  0.8258902097319590  0.4192358365016344  0.5799084404949324
  0.7416455391606119  0.7486546181634511  0.3362136945877715
  0.9978015945767319  0.7496417669807047  0.5806714339580499
  0.6616777300678744  0.7496723871496008  0.7524345917783777
  0.7464588369063705  0.8378968758471561  0.2505286111050153
  0.2493342476291029  0.9185188539020888  0.8312996339818280
  0.9148223111155919  0.9161425068926538  0.3346051369990835
  0.8246995753711358  0.3354834575331923  0.4955783931682251
  0.8292865836789814  0.8290852738864615  0.5062013218007801
  0.1700469576748553  0.7554462061600546  0.5815581047312688
  0.9140115601114943  0.8358091757248950  0.5835345561551115
  0.7397811192281821  0.9114255115613275  0.6646506642604120
  0.8260030511262551  0.7538599729914710  0.9185172849516305
  0.8300401814000781  0.0029537371281521  0.4944412620114302
  0.4057498285008838  0.4143207985736762  0.1637065917570347
  0.1677421183455335  0.6683282586519063  0.1621903713346558
  0.2460247599881363  0.2450987252603763  0.1630834481690271
  0.8310870932374040  0.9128081632432903  0.5843890241084772
  0.3322604997579690  0.1689005884371012  0.0010163099527442
  0.7420640015664188  0.8282017621190060  0.7535318262262252
  0.7413963978754712  0.5862375502151073  0.5062406541051303
  0.2529358807387126  0.5876409216791483  0.8383524858443343
  0.7458511063696517  0.6606643765399006  0.2481632141112880
  0.0841869959748903  0.5865904159954980  0.6651961368312068
  0.4886051874060654  0.4986162354811097  0.3384580923061538
  0.4140257284743003  0.9180168285292364  0.6681482752064031
  0.4163181197730084  0.1659235233932072  0.7485518322664955
  0.4145518320524311  0.3280250809230761  0.7435494719266383
  0.1627940691904615  0.4074315604169810  0.7518269894692666
  0.1660931958600131  0.5857775349040215  0.5770672628705050
  0.7586500583790098  0.4133568300102222  0.8337136145090805
  0.1646086669231810  0.8435968959010144  0.8278846341830519
  0.8286844140047406  0.5834902469790333  0.0799437082786084
  0.3322826740062376  0.9139605011108805  0.2460181184173243
  0.9160448792825560  0.5798513413192776  0.3299551310296684
  0.9070606005952631  0.4183939932624224  0.4948572071343585
  0.5868926305588635  0.0874134787347726  0.1649293997033547
  0.8290933795651210  0.5880416817668789  0.4152444382226335
  0.1581383766770291  0.4975861666391018  0.8406886847849272
  0.2398420945480994  0.7527867607265150  0.4988260427394027
  0.2485621590407146  0.5004942288962797  0.7473798505562530
  0.8297258457361060  0.5069518638174281  0.3288773809898114
  0.7378455175888495  0.5785451178735971  0.6818261488121794
  0.8259891063975517  0.6619825591262302  0.3321781812365292
  0.0815994589564760  0.4953731405664968  0.9197029557220329
  0.9095685612023907  0.7503093541749518  0.1589292495879092
  0.9979677925866965  0.7527158376835529  0.9220832451256377
  0.7479737491517771  0.7429940066636761  0.1605673024434453
  0.8294109179888521  0.6647279873607373  0.0078172961217781
  0.9081938325964624  0.4997671457705526  0.9203240360089704
  0.9136498294234471  0.6627238969097564  0.9207609897805525
  0.1607411648672283  0.0011961469118573  0.0008989994561826
  0.0825895788549749  0.7573673764517992  0.1620914506967349
  0.1597838319378377  0.9144982069607186  0.2543698578488302
  0.1652377398690393  0.8351342150285995  0.4991191698401208
  0.8292813724343419  0.5864347581908790  0.5863994556981357
  0.2498043490890228  0.6767758600093710  0.7503314644058877
  0.5851298162267684  0.3284527104912006  0.2427467749344308
  0.7467731634692999  0.2466907444590902  0.8299321885101415
  0.5835978113918050  0.3275978232220295  0.7475282186559197
  0.4991676576270976  0.3273460531907126  0.1546364998887068
  0.5785968375758829  0.3314216646639573  0.9198804183607019
  0.4918038234661457  0.5059337835433974  0.1620476362119277
  0.2478661738907435  0.7497682239858798  0.3368310419148371
  0.4169742788704356  0.7544898136061207  0.4948968419492153
  0.5773043262857421  0.5942352108233507  0.1665899086542025
  0.3248258124090668  0.7565530979632219  0.5887235285998300
  0.5813590686973450  0.3307886289805251  0.0848090003173613
  0.4262063971245577  0.5738838840435411  0.6689329000915180
  0.6648102907677124  0.0832016618729028  0.9112953161109948
  0.3326745479967215  0.8332243210793397  0.3380202694725891
  0.4180618445267473  0.8339999999644034  0.7527267785290329
  0.4910607850123945  0.4167194103380326  0.9187248521350736
  0.1659362516765921  0.4945261451698332  0.1622008323739084
  0.3350647433255507  0.7512250041888615  0.2449735031703240
  0.9194731348831291  0.7542479268667127  0.3340186940322589
  0.5830626161680383  0.4191471076574684  0.8357278770132606
  0.5818014047676392  0.5044109045525049  0.2492694923877621
  0.4912299833766851  0.4180179940902883  0.2517228225276735
  0.4953859005581839  0.4193119245104673  0.4170214416458272
  0.4291831759638889  0.5879770956354863  0.8364178778102421
  0.4104485368922219  0.6622162855670327  0.5912045399489381
  0.3321454881933181  0.5867469626356407  0.9238220901558013
  0.3298852690670410  0.7506366403940404  0.9160660940432942
  0.5009309002071439  0.2512181461403463  0.5858880772282066
  0.6666260975662224  0.9163066783847370  0.2477025782308120
  0.5025787121168468  0.0001176667406330  0.3381395395331720
  0.5770755412253044  0.4990863390037140  0.4234448567382254
  0.3377781272702813  0.4962404366877043  0.3362787925773679
  0.3284235674780280  0.8356417578675024  0.8321169063203665
  0.8429873129081235  0.0033448042588967  0.9978324177703921
  0.6650526768663184  0.0024993242795019  0.6658224411982073
  0.3307091676143085  0.7516378690503626  0.4167813208034346
  0.5907397402047773  0.1653777339924038  0.7494728551661620
  0.5011956412344187  0.9978782666323744  0.8340181815422916
  0.4128114804840432  0.2454713966184122  0.8356409487980707
  0.5018968795650551  0.7507880680076654  0.9145813333907392
  0.4933614266943428  0.4181289338288399  0.0749532066548442
  0.4958689789858153  0.1744789707914164  0.1618268172411114
  0.2548990783627572  0.4168457304277463  0.5008515749827332
  0.4935929299589666  0.1656925609560380  0.3272417659280321
  0.5017064500399804  0.8382685309712788  0.6665329815653351
  0.4132933273965629  0.8250511275809097  0.0831987967844040
  0.7532344408825228  0.0899264097815723  0.9989696471560211
  0.5815171877058339  0.1597957207708521  0.9147936142099757
  0.7527604259838323  0.1663192549228977  0.2363378782567093
  0.1662171199332915  0.3306269076686056  0.4962562917379384
  0.4087383093989531  0.3296355814745434  0.4148744741062735
  0.4199339278276534  0.4189802516354439  0.8384025204577207
  0.7492648677674690  0.0063798153163019  0.9076053765299810
  0.5815884133076584  0.9096227741176131  0.6678754468719533
  0.7461087706325673  0.2479777485534657  0.1510167197904420
  0.3248337187374819  0.2488764130658180  0.5836333165103370
  0.3236025961754643  0.8365630551228336  0.6664589334551545
  0.6694311293384274  0.9996259876590992  0.4999645026285227
  0.5013852445226604  0.1649241649018786  0.6674258480101360
  0.8310701750421186  0.0891443219182291  0.5820385930249248
  0.6641646111323350  0.1662479010700691  0.6675977774932540
  0.6668810981675736  0.1690329530126139  0.0054997260590333
  0.5811416632774206  0.9991039063934452  0.7591506091865047
  0.3263111028549787  0.3298889540798114  0.8324546940950310
  0.4957710181638949  0.2409737396280200  0.2460151236347238
  0.4161467502777297  0.8354421002616255  0.5793272626233744
  0.8370847488845938  0.2492095557186765  0.4059794357967605
  0.4163399545710935  0.4160928316580259  0.9989298552877455
  0.5833178964669057  0.5056061437752760  0.7511955414556918
  0.4136895037032318  0.5810226673887222  0.4989226885312353
  0.4075584591911153  0.3348401325528258  0.2458896431675020
  0.7488625441619874  0.2439484205313448  0.0076411091792000
  0.7465171141760966  0.3324592262225323  0.0824168446212475
  0.5841899840281000  0.4153024898989902  0.1558648155626285
  0.7420459496179934  0.4138757311122326  0.1627532644691020
  0.7429728371306455  0.2412644762162202  0.5005978487483426
  0.5041202270324916  0.9132824432694032  0.5820031480023357
  0.6712734079090658  0.4184299028144302  0.7474844665675675
  0.3424589627499933  0.5927781801020334  0.7420824406684428
  0.3260626564030781  0.4130780063293324  0.7476777960912859
  0.5795005035819702  0.5090365259454980  0.9182343694534235
  0.5799087824226040  0.9972948566012010  0.5844911434395856
  0.5793390868790318  0.5858892493859843  0.8368293081085412
  0.4973297238866781  0.5941108059274588  0.2479205393706891
  0.4102262955211269  0.9127303975441243  0.1674289326215303
  0.5852302595663514  0.5869774918538810  0.5011525541175701
  0.5867110498326069  0.9152611281042458  0.1664377429677219
  0.3326382327222384  0.5830368049998700  0.2475269655224119
  0.4157287659944486  0.5043700028582891  0.0850812973879747
  0.3343809738005766  0.5017392453933531  0.8343268709072973
  0.4966894642342333  0.9116186036092856  0.2557233928378193
  0.3293467569466327  0.5019135153949836  0.9933139747111245
  0.5775080934252529  0.7398756747746460  0.1663170500465055
  0.3334026116157740  0.5900263300771567  0.0809676266934459
  0.5034879224622795  0.7525673394614664  0.5813061815738677
  0.4209495040014012  0.9111371476710156  0.3348084371278469
  0.5022555766101636  0.7533772034797822  0.7545631746894361
  0.7493729626087814  0.1559591201789956  0.9160054570745063
  0.5789111954343762  0.7491763149223214  0.3346980402860382
  0.2549738959391340  0.4998494272051407  0.2492093705200490
  0.2466297056420277  0.3323131068858327  0.2512816637972043
  0.4988045762419861  0.0012951852114426  0.1643022779273581
  0.9171886224189650  0.8348455567672743  0.7525976676302273
  0.0820497383940909  0.1705519594411128  0.4119945189744811
  0.2417484306396106  0.4977079077342634  0.0789724556380952
  0.0791163908937529  0.1655350348610913  0.5818827986267807
  0.0777004625941934  0.9054008263012807  0.6671399044168508
  0.9073089462216318  0.0014257689209237  0.4119477426168676
  0.1656892039278320  0.0820591720053705  0.4174504733922804
  0.2471808990990087  0.2440174842099012  0.4982559898743599
  0.9973515054065212  0.3314957949265998  0.4960029719048627
  0.9115088339542404  0.3301003886855413  0.9179383589525969
  0.0802472059650118  0.4112491516951659  0.6663780237234825
  0.0782099497044141  0.0045534551863823  0.0797430316584501
  0.4118705875444471  0.3374757618248989  0.5856924655082143
  0.9940023181779947  0.4139987518287009  0.0801638300031132
  0.2448900040009727  0.9967245330652869  0.5839501148001539
  0.2419322353167156  0.2555766144725384  0.9980139388788138
  0.2478254219982596  0.9964779153797748  0.9092514297424795
  0.0817141440271722  0.3284144194628455  0.0796941143808641
  0.2458169464871970  0.0847645723181789  0.9988792050947768
  0.1676090380321995  0.5016548567011442  0.3367115367305936
  0.2460186162934844  0.9944324848225716  0.4206013177755161
  0.9966540630651367  0.5070054816371409  0.4929464343671359
  0.0778320933606027  0.5827051285766751  0.1612177249238601
  0.9872858823796045  0.4144490617719703  0.7571006421098149
  0.0765602362578080  0.9148564177435312  0.1602131665577340
  0.8368094348350263  0.9971388188072400  0.6710378134821321
  0.1634167108825661  0.0781140318925982  0.7448711595801379
  0.0840975977115280  0.3298711457949273  0.9175498246784660
  0.2459029879022875  0.1689488511079122  0.4165186246743952
  0.0813830408182660  0.8404348391334798  0.9179115209129715
  0.1680037297941463  0.0047439243322610  0.1632056269343833
  0.2483303976046901  0.0745644480481349  0.8356086265373026
  0.9983199130381671  0.5925262738802545  0.5785615405229860
  0.0845215745044184  0.4123090648453016  0.1687728820996944
  0.9922134493439362  0.9968802910971030  0.5016101271635356
  0.0724837645009966  0.4994390248145131  0.7531673947452240
  0.0796834208072775  0.9908069605677935  0.5854473593317380
  0.0767894897541485  0.0792744201147672  0.6736760104494041
  0.1610610027023534  0.2481445085711970  0.9177396533236472
  0.0781848662434328  0.9980579447609410  0.9090217110366342
  0.9946712760623013  0.9274246287305909  0.9162103059210590
  0.9957164519252694  0.7580704688632777  0.7509413646822795
  0.1604785976561953  0.1686234510228899  0.8368252750584346
  0.0797996532039010  0.8377997198163866  0.5827224598836133
  0.2489792821465053  0.0834110267992690  0.3295380785658846
  0.9917515484685205  0.5810050428467846  0.7541494988729716
  0.2367176788081715  0.2504319988235991  0.8364213761762198
  0.0804092126379950  0.9953430105649610  0.4122232680443965
  0.3263907054809878  0.1564417234805299  0.8352539177550247
  0.9897927636915269  0.4991021665473194  0.6679924221812219
  0.0773405294485703  0.7565068220142285  0.3345640933079368
  0.9917590369254587  0.9993158266746189  0.1658094370622242
  0.9914078138042270  0.5863538745235884  0.9214700171949600
  0.0815427797942291  0.6671346700014765  0.4229718095601053
  0.0800136911724030  0.0911620339508952  0.1657648233842962
  0.1666399816365920  0.6721505361696307  0.8345064465289048
  0.0829428297933589  0.4177187120256825  0.4936265396966910
  0.0789742636459809  0.6676534569648559  0.9265624147872131
  0.9104590780710281  0.7500576166461674  0.0056841338381954
  0.0807130750439239  0.1584417078302896  0.0807171919516561
  0.0789232655298224  0.6691275466341555  0.7502396860614097
  0.5824324628364211  0.4145549719970014  0.2463077778256248
  0.9904689258399629  0.4097937508503829  0.6706209941108709
  0.0803546747124570  0.5808171495520413  0.9240208651264694
  0.2496976921762778  0.1708207431859155  0.3295445389106872
  0.4146103947628900  0.4154879333337041  0.7482679969959662
  0.0822673280979708  0.4946927426675841  0.3346647602399733
  0.7409835241603577  0.7468081161556458  0.2479163523115515
  0.5770594333483465  0.8243945077848873  0.1671522815628949
  0.5794363771555762  0.9975604654166109  0.6733705353075766
  0.4107643084464058  0.8292971114058364  0.6669672353735688
  0.6638264386677167  0.2521072736428405  0.3246117659412218
  0.4131640855783959  0.2513656554632341  0.5812065082106477
  0.0797498142114478  0.0774125598805498  0.5853135177780856
  0.7552255172122876  0.4175423287685782  0.9203360726261300
  0.0822368610420391  0.6682220488916297  0.3368731590901726
  0.7533240660023044  0.8302425374320971  0.1635153614955303
  0.4154370854900247  0.8366320828551159  0.8383182912001708
  0.7505223286685528  0.2478099119667645  0.4111198347670560
  0.7489978417361400  0.0004881792647756  0.6700221564863567
  0.2460946103035064  0.4966102874011234  0.8383216482994921
  0.8318604274997722  0.9097206401385728  0.6730956143494219
  0.4929793440958703  0.4161757059355486  0.1610545081773397
  0.1643132162143556  0.6788781792476244  0.7432196592279480
  0.1600754424162733  0.1655758325012264  0.7495054822559163
  0.9949911991978254  0.1706246194025570  0.4145182138376926
  0.5839051417048258  0.9987063024984547  0.4976621845000157
  0.5014551780288198  0.5806334710413090  0.4978898413234162
  0.1629233682440566  0.5853217874547869  0.8389110092702050
  0.9121397261410107  0.7519729425681280  0.9178011887083616
  0.9957980255772054  0.7566574974214719  0.1611146424364493
  0.7394590597317539  0.5862050396785297  0.5956343701900019
  0.9951931024180221  0.5901109451353181  0.6663932540705462
  0.9099416824260125  0.7506909831203098  0.5850136165442675
  0.0820180957847145  0.3284024788301398  0.4916379393593515
  0.6643954345409882  0.4948655801005372  0.4227678541018284
  0.3269794386834559  0.5014354096005720  0.0823536944132892
  0.0797637374150613  0.0031225948446697  0.1689623313256312
  0.1690533063771315  0.8359351001355972  0.9137699328668898
  0.7452718478576146  0.8378687424174719  0.3378130583733706
  0.9167701118242328  0.9218378732468947  0.2486664826609939
  0.0805848844822844  0.2507655495594454  0.5824810972011037
  0.4153602137260768  0.1575703687116395  0.8376779488017271
  0.1608396544486843  0.0789592523360889  0.8330292068824289
  0.8267167973444736  0.9161540645370448  0.4968069278290486
  0.9132609621174242  0.6663737429042632  0.3308048637018830
  0.3409305645485420  0.7474404171323984  0.3300433694339765
  0.8347033644749033  0.2477247404713070  0.8342228972179616
  0.9125976857299055  0.4887914053737025  0.3270115432921544
  0.3325531063276044  0.9183271451424760  0.3342860757914971
  0.3264774859151907  0.7547788943546520  0.5027484780197232
  0.7457111711330294  0.4965108059175810  0.3338147055561161
  0.3252944935419106  0.1616827768176989  0.5797484918200270
  0.7567063426960330  0.0031756819250817  0.9940748914797696
  0.9957497495723933  0.5062858009251998  0.5780489406275611
  0.0820969688594966  0.4163433363345012  0.0813640145895082
  0.2529250727573628  0.5892958147453715  0.7425606313904802
  0.3891001272448488  0.6491006461595212  0.6855183416401119
  0.2502396165018200  0.8298025992887257  0.0028895679850450
  0.4963489238209943  0.3325082391201245  0.4175371564615705
  0.9937101124777460  0.4975939776096244  0.9196531306842313
  0.2552860174592961  0.6792140227852803  0.8403311649087352
  0.6638295207578829  0.0831146526770601  0.9987143329326468
  0.4970530589377771  0.3281829222291184  0.2452820229257787
  0.4149231235164272  0.7486109753846502  0.5863565646730096
  0.2457922962234645  0.9193856318988614  0.2506203244422108
  0.4991221241711215  0.0908552156272319  0.1613097700519611
  0.7404872386226650  0.4143244759428485  0.5920215168439389
  0.8257669484334572  0.6630536518866550  0.9195685865923243
  0.5800487623728174  0.5085482003909763  0.1590764142612437
  0.6756491671747665  0.5131528505868960  0.7402174378128823
  0.0801443471477657  0.9932054831025973  0.4986716802761202
  0.4140477447862370  0.6668905768213494  0.4981133536171610
  0.6629362805653313  0.8288697494900384  0.0800994622133306
  0.3385309580999930  0.5031993750137087  0.7432006275509762
  0.6716385045815787  0.4191022633094940  0.8353700403619674
  0.8290147352328017  0.4122103917173491  0.1702891212692500
  0.6603706015713364  0.9111106744822293  0.9924392252894222
  0.3229217402119731  0.2429750559789070  0.8362871660289138
  0.8311536903024461  0.2427459321742630  0.4949531449342008
  0.8318635954572525  0.8313960830640658  0.4201002393004122
  0.7378880151808279  0.7548654130432827  0.9191235759401443
  0.4888331763964481  0.5085322269380818  0.2509954876707866
  0.0756241470671224  0.1657812961479100  0.6696833827980347
  0.7518351533709634  0.2429636662112309  0.9201110944626884
  0.5022619490805246  0.9990321910081660  0.2533059088489773
  0.8303656944934774  0.2557508827924317  0.6648683090889851
  0.5058562676329383  0.1646820480022963  0.7531645699689274
  0.0797086119088243  0.6709930312126436  0.1643473630668426
  0.4082746716611860  0.2473511532842661  0.2461849503286499
  0.9978165570362020  0.3261692387712584  0.9166519505257782
  0.2475876703085097  0.9975877310864880  0.9973085555813093
  0.0848842163189483  0.7509067282151775  0.5853282890812618
  0.8342756338802275  0.0843972754154064  0.6711372756792537
  0.2535275141740571  0.6686757740390753  0.1618412843420012
  0.3296751128668735  0.1596571433780350  0.7481734461047920
  0.2539880807338867  0.0807804440017182  0.4200069095365541
  0.9894833367356226  0.6717839901625092  0.7508345139975757
  0.9942462709289250  0.8425973977631964  0.9190739952609177
  0.8308419991796530  0.8283117248418126  0.7534938099387423
  0.4183846469067438  0.3312338789527545  0.8312459666712506
  0.4979191270623494  0.9101068179837509  0.1670071070213940
  0.4904678494711330  0.1619057184972087  0.4145462722139927
  0.7438065403339258  0.9147134018735444  0.7535686418519197
  0.1673033385003662  0.4958850596776124  0.2490077305649661
  0.5733408900038262  0.5053528110309589  0.3377773918227365
  0.9976914341396135  0.4095230683890663  0.1681535934186280
  0.2437897401782332  0.1716460455895004  0.9995065346575418
  0.6662215093792675  0.1606217334323715  0.4206836324709337
  0.7661094192210529  0.2587086065701190  0.2326619572108262
  0.0795783435257007  0.2425416618122816  0.0841277024775484
  0.8247609987235409  0.5849333451362151  0.6751403081780363
  0.0741653380847589  0.4077066526557736  0.7573173370682446
  0.5784895280825342  0.1629293232171817  0.3275627505814789
  0.5753837490938445  0.4215247946090970  0.9243327938503211
  0.5828526959628830  0.4155798458791485  0.7481406104817599
  0.2446744008876725  0.3311952184640813  0.1652608403376406
  0.4086596545872575  0.4177526654201840  0.4159934007494449
  0.1684095481748857  0.4087977304656680  0.6646703175230582
  0.1657958506789034  0.5809535232107294  0.1623590438667880
  0.4153337569696978  0.0003862724307785  0.3394410178983726
  0.0786132775674904  0.6717091032810688  0.8380925622582740
  0.3443108544593959  0.5908565231294044  0.8360566624510954
  0.7450195260630659  0.6732655338286530  0.5035373482044055
  0.2537861250788572  0.4922674275804548  0.3383358186960582
  0.9919052509207674  0.9932289858872948  0.4120811408604735
  0.5739075944574321  0.4136285873747769  0.5795403864386535
  0.7424767640393273  0.5793240340748601  0.4192507917768790
  0.0725934486750600  0.0010716907436484  0.9934851935644113
  0.0789894677963027  0.0837808036227615  0.4117777461594164
  0.5776700236256287  0.1630279195743149  0.0009678634998476
  0.5901996758075393  0.0021873119272730  0.1603341658763683
  0.5747865785465441  0.2453213989893143  0.9119417587402899
  0.6615152210771106  0.9208528972497135  0.3329977098805400
  0.4164708957366666  0.5050195654854585  0.9976116363439340
  0.6650746951187658  0.3296523596888263  0.9190202993943695
  0.7469783664095407  0.5026481595314460  0.1631503701838513
  0.3286407239023227  0.4151452758611244  0.8387440883605273
  0.4148415022900955  0.9225443815072235  0.5767476103531182
  0.9905218369973684  0.5809801152158836  0.1657336759383780
  0.9952540248593543  0.4205424020613692  0.4886560874964924
  0.5029839336271374  0.1629262103280216  0.5818382355835056
  0.1634360129469318  0.9164815422302424  0.1661090748913372
  0.1625465656779014  0.7546939325000674  0.3348491988022254
  0.4965334585048994  0.7503007222456283  0.9991045719052705
  0.9164703816921252  0.7490220591490261  0.2455950956086498
  0.0862471884252890  0.7541680556187352  0.9208695118793334
  0.9916693428949998  0.0874234666145862  0.1651200063308579
  0.8342107868542044  0.3299005067513773  0.0868666749838552
  0.0812913148144180  0.4994818406325716  0.6635604658149800
  0.2493718706429148  0.7484708860183746  0.2477487011648055
  0.6670155869368841  0.5083102319964572  0.9217384855357408
  0.7547769543418339  0.1597165089519272  0.3223436789898637
  0.7503864818617895  0.9193411786168161  0.0807435501581637
  0.4070816550024501  0.0032272934736917  0.1618027544158617
  0.2542435434956606  0.3296321625556722  0.4984703429972895
  0.7354364881454939  0.3272332442619788  0.4973100435415134
  0.8174467688114190  0.4295671992299260  0.4822762236498068
  0.1701372443856879  0.4219890747347699  0.4935195378125823
  0.9104123316620348  0.4165354964009481  0.5836031859214253
  0.5011760554665279  0.7481919799949561  0.6690841802393752
  0.9109794474447475  0.3290487971216123  0.4941092226001783
  0.9157753593297102  0.5843214077608556  0.4191588873977097
  0.4126096084225993  0.9105308381224760  0.0759420694445622
  0.1608914637219693  0.4961155022790481  0.7495168204384527
  0.0797625908454773  0.9897254665376422  0.6745439539838010
  0.4090745828996489  0.0059762863778071  0.6694553541451552
  0.1627011227064748  0.0801323477119605  0.3284159150034275
  0.8303741582664046  0.7489663028645567  0.3371304396577931
  0.3363959620429655  0.0830470692894607  0.9993258506689287
  0.4095169843577758  0.3296588123295832  0.0013008930068555
  0.3352813974019869  0.5815310574891702  0.3342212436949669
  0.8342030810669278  0.0024621629192612  0.5812789731565399
  0.4112368021859995  0.5742200026176388  0.5852439029308768
  0.9122821807379499  0.7495961899196938  0.6725585419500208
  0.8278430921493156  0.6671175187469137  0.8325890862162918
  0.8318505201720005  0.8352592732467182  0.9985714908726616
  0.9121490486319542  0.8362100898201168  0.0805996577263374
  0.4972914891809468  0.9970898193541691  0.9944629541207743
  0.9149159845985183  0.7503017591967033  0.4982699781137685
  0.8241067813968694  0.6719166163579295  0.6695787683409471
  0.8381296900600861  0.8354733940261456  0.1640205135889984
  0.1649709338428923  0.6682436209096195  0.4974586819396417
  0.9080298096146325  0.8403652955677539  0.9175164634787614
  0.2484487965947834  0.6606041603427908  0.2524874256583419
  0.9126459625440353  0.7513861148787099  0.8306165499760121
  0.9055231162451733  0.6673839867111433  0.7527966871578639
  0.8358673599370644  0.9193086304912979  0.0805072611137004
  0.9127406082425173  0.9191205618670905  0.9985729588841711
  0.2457509385307978  0.7629055580170867  0.8309688835080257
  0.0714063224547318  0.5783722820643513  0.8304432777586567
  0.2456612472678856  0.8376800148515473  0.5830229600922175
  0.9116079336828345  0.6664559057918880  0.0819880501465690
  0.9097558298156825  0.5861772625396375  0.6697964588460068
  0.2500774799936855  0.6663174183754996  0.9248705266409750
  0.8294325813129145  0.6652932723768377  0.1611292871092518
  0.8298691695474009  0.7492307659390861  0.2438193251107094
  0.1729003605266294  0.7473126596032982  0.9193276748402056
  0.2430458182866519  0.7570294462885537  0.6666180437694541
  0.9163998895968177  0.6730347390614208  0.4215406815575943
  0.1641498335946507  0.6699189025109727  0.6583079080226980
  0.9933324964447983  0.6668645898096529  0.0024448034711136
  0.2487591506726745  0.8335303013145295  0.0867420015910138
  0.9162036691073284  0.8350480999492880  0.2478935267172008
  0.8347639457106081  0.4998286578041776  0.8372364006504566
  0.1606418395553831  0.8346764632921899  0.0041980872274707
  0.2460335809657098  0.5006400899174016  0.9238039488706953
  0.1635473584729489  0.9183771826023610  0.0789076139943996
  0.1640449703767053  0.7518795564506028  0.0821742501784720
  0.9107017977911113  0.6608412225827937  0.2419777105092659
  0.6618918350637225  0.5016376371417576  0.5078002194610586
  0.7455949280849251  0.4113498336409463  0.3299312942855573
  0.4994615062009228  0.5870933642729380  0.9189369448814897
  0.8302519385172322  0.9216435916514031  0.4103368994430401
  0.5781933808886872  0.5014245431289829  0.5823735201020341
  0.4961981281135844  0.7468071938520608  0.0849731086063188
  0.5781857292700191  0.5039223156790450  0.0751837319354784
  0.5830296967254421  0.7473686181160969  0.0008052132679526
  0.5802649320595916  0.5876952821029283  0.0010178390137275
  0.4206967918036506  0.5869525341394083  0.3344458393480855
  0.3377353103335670  0.3300595949678599  0.5000776405797293
  0.5791874497689209  0.6685665915777929  0.2508047721291067
  0.1637948706039728  0.9229330875240810  0.9166719144610198
  0.5805540050753510  0.8317938089534125  0.4173847337879447
  0.9198231492017264  0.2461008898743492  0.8328882191241289
  0.5797159876428155  0.6702752090343032  0.4165913601677011
  0.4128681812299900  0.5040998746563959  0.4199462787788326
  0.8233684295948774  0.7484819513610543  0.5857226966926317
  0.9121568342923537  0.5839396723130489  0.8364399668432565