Cr  N Ni 
 1.0000000000000000
    21.1326370199527886    0.0000000000000000    0.0000000000000000
     0.0000000000000000   21.1326370199527886    0.0000000000000000
     0.0000000000000000    0.0000000000000000   21.1326370199527886
 Cr  N   Ni 
 259 173 605
Direct
  0.4923629281813938  0.4199004902510756  0.5805543968376978
  0.3284909698948042  0.4183085766443352  0.7459579363633957
  0.5775907604998932  0.9977662662202800  0.5833962607917922
  0.5805315109085463  0.5000560908288538  0.7390816994577821
  0.4146138471824111  0.5777909540459174  0.4936400214691014
  0.4114372371202066  0.3299339265343589  0.2497766542580450
  0.6638352964576737  0.2415564843272038  0.9183353371200956
  0.7475744542517946  0.3270624111095155  0.0771840622744299
  0.5845189063183696  0.4166474286026995  0.1664066815174977
  0.5791323339585828  0.5030807981291653  0.9111338982807293
  0.7420297595688664  0.4178054695328113  0.1723491017297946
  0.5795480159864745  0.5933496581494042  0.8347778582928529
  0.7447062295022632  0.2413018068646188  0.4974654494782445
  0.5743566207724884  0.7419411759430264  0.1667800088494946
  0.6614733049903603  0.4176627786763815  0.5890238400404599
  0.5774128638153349  0.5872054784445613  0.6619319944115358
  0.2486214330406540  0.5853222473332832  0.3308954048256768
  0.4932184784586715  0.8259564086081420  0.1680551114096301
  0.3238948650925254  0.4924040438449402  0.8355462642281871
  0.5026501437719880  0.7511039451609477  0.5876887300694318
  0.4944718849130476  0.9987800377206237  0.6699992327510175
  0.4130542245640633  0.7458192766777383  0.6730757025899331
  0.4994031767989836  0.4199091954175791  0.7472583181930351
  0.4068316563765864  0.9156556620177767  0.1668842438798751
  0.5788853746057607  0.9084719153962132  0.6705770934897279
  0.5838982732841218  0.9183200934703399  0.1600596949559574
  0.3283448685431032  0.2512527862451047  0.5821547933490383
  0.4163308994693269  0.5035203719376807  0.0852849107606796
  0.6665186559339249  0.9983512592197222  0.4951491590565517
  0.4985412191212090  0.9166810720951302  0.2557632968291269
  0.2405427024208593  0.4983377454115677  0.0757254323312181
  0.7480447913358974  0.0898489148525563  0.6688070333103183
  0.7445021594605968  0.0818346563527430  0.9944920167480201
  0.7474467219011502  0.2439999465374340  0.1608021972768226
  0.5761715098388877  0.7460816805706451  0.3338755371317362
  0.2525655913179257  0.8349055452320568  0.7502195442893532
  0.2453610548786230  0.4960822857983552  0.2490976404223215
  0.5816823459262067  0.1663136077147921  0.5882371900101416
  0.3238526919990278  0.4990551965299763  0.9947041725180062
  0.8308412235795850  0.1678064393070786  0.6675759929639615
  0.3312759499199506  0.6719199969749112  0.0111600779820035
  0.5760119597864577  0.0858628306070136  0.6678652839192134
  0.3216098920055716  0.9180093090922865  0.2471647210429295
  0.5844658475059316  0.3264853173789867  0.2452727114317135
  0.7476884110981131  0.1593411745384003  0.0740267127169173
  0.5103261112075050  0.1646106838270216  0.8360332705290892
  0.9064813979532753  0.1638181608574414  0.4142302643899768
  0.4165765478702027  0.2470790805301062  0.8389717640219360
  0.4148825438708023  0.8354728013859491  0.5844153992862073
  0.4947109551991913  0.4153919169966518  0.0738395269337811
  0.3307807846941220  0.7493950560199628  0.4134606756925560
  0.2531098560399981  0.4186424277301901  0.4984650854357378
  0.5802964371523951  0.9988870690073461  0.9166481594467403
  0.5025313774577441  0.8323312208874858  0.6700861214317941
  0.4951292444715216  0.7539554862126615  0.9176158354901218
  0.8350712649614110  0.0816252219373000  0.0847745122221630
  0.4137633606453026  0.0952409247401000  0.1650029078513975
  0.7482847817554678  0.1569463669503617  0.2464904670034619
  0.4894405360528271  0.1662536867128453  0.3303305759886108
  0.4080964423117389  0.3326362004829714  0.4146360855943365
  0.4162789216954263  0.8273042296528320  0.0785406598081317
  0.7477797256319997  0.9954742690647813  0.7619007518864199
  0.5800425360264719  0.1545317146085392  0.9180452733017180
  0.3273499018428935  0.3378177731125122  0.8377229490571975
  0.1632372390771575  0.3296677925559891  0.4993387654005021
  0.9957270191422354  0.5053609659282261  0.4954171305675249
  0.9971703713983263  0.3219880100453074  0.6659772096361072
  0.0750477930205744  0.0877339539624561  0.6725922090016290
  0.9908314795443075  0.2440530224819407  0.9168543988456642
  0.0691634170722791  0.0836504918835881  0.8329991983759464
  0.8252580366385935  0.6666669587882496  0.8335772548063531
  0.0824821421228561  0.8316277260280459  0.5795036297409705
  0.9873977364591605  0.5863500264922762  0.7504591160358389
  0.9967714679980594  0.5859613304817847  0.5700708076593903
  0.3276825894405353  0.2470651036540669  0.7481651814351169
  0.9899006684797608  0.9198147896487394  0.5805915759289380
  0.9168001578992435  0.9175617370735382  0.9967239992369089
  0.0773908652485600  0.4975441431263271  0.7499896158518239
  0.1571399657964131  0.1708939113629005  0.8310754977263740
  0.0772999789126433  0.0036144405313635  0.5819698699337139
  0.1613998422606692  0.1720212105293163  0.3315849178451605
  0.3325371193795020  0.1613956951979354  0.8376880653377141
  0.0764918679646144  0.9955816680727341  0.4180734313355212
  0.9885162628353811  0.0005309752533942  0.3301662481799673
  0.0714818290240897  0.0855908310917414  0.9980661088449416
  0.9172594944554228  0.7539211381107940  0.0052456292604568
  0.0716267648660460  0.6702980219153696  0.9230092464948427
  0.1637035811561418  0.1708896284370126  0.1604548376041107
  0.1640331394308935  0.6729964971284529  0.8352316374165321
  0.9919148906335201  0.3279066101526024  0.4958543495437757
  0.0800578637145216  0.6679742255717385  0.4193514097221647
  0.9942579338710532  0.4999751578793467  0.1711964780942328
  0.9159389861497086  0.1627029327618716  0.0835388624882924
  0.0787074887220217  0.6752135807191462  0.7483468704629362
  0.9969854215502998  0.4967563627541115  0.6604790975796702
  0.2463830655232190  0.0829497758426048  0.8324814880675777
  0.1600953401894903  0.9960139797617105  0.8322530924780095
  0.0744103319257403  0.8388752261277566  0.9197393669852356
  0.9952273648885496  0.5851648281691516  0.0777098351328652
  0.0857191855452497  0.9155188440885961  0.1663458955580192
  0.8396318896354703  0.9996003389872342  0.6661398264089080
  0.0799828446882203  0.3352909774062895  0.9174593717299262
  0.2508256107600667  0.1673734333932795  0.4157826972329151
  0.5029401823314655  0.0023771569472408  0.1644295033204771
  0.9174816450403874  0.8357428432388903  0.7527360820825325
  0.0775574981353441  0.1698365396915376  0.4125135373631967
  0.0788137978363577  0.3295336433640039  0.0791680229770118
  0.0766496363656016  0.1757349755517244  0.5852177596516805
  0.0768082253031839  0.9147321393789712  0.6709389886801527
  0.8346161971988412  0.0091939214091266  0.3302426575501617
  0.1646360761199590  0.0821724441714993  0.4145719796006198
  0.2434749988671748  0.1640018285218574  0.5858481410873718
  0.9998379469977660  0.4151188342266541  0.5769838530311042
  0.8422153170000264  0.4157003463567020  0.9169143304244531
  0.0871133506300320  0.4091346010939830  0.6653634897986133
  0.9867338777567178  0.9989915867498451  0.9989517203917774
  0.4092430682584782  0.3383441727347359  0.5821591038365178
  0.2407153100867691  0.3331381136828450  0.2482587386835391
  0.9948753570764797  0.4159963326657056  0.0788986237523800
  0.2505963699650955  0.9996619705696899  0.5833691253087936
  0.0861228985256974  0.4162668486107197  0.1673614464588206
  0.2465533105680885  0.2505912939032816  0.0012922469252373
  0.3374977431082194  0.9946918200939756  0.8365318013832314
  0.1606025780270059  0.9956309392135619  0.1679740989323114
  0.0766865878717744  0.2424181697974074  0.1690321056232821
  0.2456582085519048  0.0891837066597508  0.0008022222002545
  0.1629255167460071  0.4953686899692498  0.3321836900355190
  0.3383709482676855  0.0796736825107291  0.4181003630313250
  0.6644511896003685  0.9983172824780718  0.6691560528783403
  0.3468100840264948  0.5928348086674594  0.7443102025400929
  0.2509426982682633  0.8347014871384441  0.9166954654956059
  0.0849636796326113  0.5826734693551439  0.6546629950211402
  0.3315998712059493  0.5019542382206231  0.1706157922971467
  0.4130426646891927  0.9173147305568365  0.6687795042691891
  0.3319519108712897  0.2448929169485869  0.2473804775241248
  0.4177848083460791  0.0715131354933393  0.8367371775971558
  0.3305410112572165  0.1726772710363697  0.0031843527721598
  0.4182837993104199  0.1614572080732375  0.5827650096552512
  0.7455757315536188  0.5841636777292727  0.5022917678932735
  0.5809954335783074  0.5961104067055445  0.0021942454498993
  0.7488428722671612  0.6619748843881832  0.2456570412487188
  0.7461247740079660  0.5760578820052235  0.3318207716409168
  0.7434776796868482  0.6714339253547794  0.5913859696654306
  0.7553846548671451  0.4865272453861080  0.4213292280008860
  0.7543374061438242  0.9231730870405388  0.1636161408195219
  0.1676028821602067  0.5807472332457925  0.7456544291164139
  0.0755064854050932  0.5830602864317057  0.3308770319420901
  0.4930439368915645  0.4991763089005246  0.3408115349590476
  0.8298665612142618  0.4183157379021334  0.5769834478456711
  0.2499444638663359  0.1712795732455358  0.2432765450307432
  0.9957023396466770  0.7465998428998456  0.5782253939989718
  0.7368798068070384  0.4121262547510106  0.5009494169586659
  0.7475818126269145  0.8367295336109813  0.2480537384497377
  0.7545543486697556  0.5053028650458082  0.9156680590959138
  0.9218728626072137  0.9177771098996247  0.3345887268640089
  0.7443195244615268  0.7525675812666609  0.3375657411380774
  0.7473056703734801  0.7576018949518747  0.5011850014924788
  0.5795535551939860  0.8357457586264202  0.7543317939848343
  0.8300629925985650  0.9252107032460076  0.7590058544526597
  0.2472921101061955  0.9970728156956604  0.7433680304513196
  0.8266092584231469  0.7550282113148973  0.9133603822060520
  0.2482447662163717  0.5817028920480823  0.8366282369368814
  0.7417806721296303  0.8357404607891747  0.7575389319399457
  0.4941594954134311  0.1645286149454700  0.5032320460175013
  0.6622912656839136  0.1589215833896024  0.3320268016705113
  0.7499558447935106  0.2467721708545400  0.3348260071234166
  0.6658360404956080  0.8336135293439610  0.1632525422224681
  0.9149488637362958  0.1640801517454803  0.2476621515622978
  0.8338968691016028  0.2448140037223846  0.5788074300336092
  0.4152974632082588  0.0049591775701674  0.5814238100427283
  0.8336425008016310  0.8359914697845525  0.3336339122842763
  0.8318035437886013  0.8251329823343436  0.6633544593163223
  0.4173142950882350  0.9999989629251897  0.0770070993159471
  0.6672870176503699  0.7522566508298340  0.9158517046078271
  0.3351652023387982  0.9970841238915412  0.9952987056478516
  0.4148583350927023  0.9178283843110783  0.3437648994035138
  0.8288468467310538  0.2453477404362452  0.7491211419757632
  0.9942895221313606  0.0065755962027957  0.1663046752052186
  0.8394224209414484  0.2456162377773300  0.9209985927153669
  0.8367706023793384  0.5024027760501207  0.1698027237268546
  0.6682588050579481  0.4998988026985898  0.3344546917390979
  0.5826080743156113  0.1606603683219207  0.4154083013337305
  0.2422540766574833  0.8336024058258488  0.0896895801891826
  0.7458501248478416  0.9203090627849895  0.9876608516810510
  0.8366810490361113  0.3255400326037215  0.1679758815168689
  0.8309662000426726  0.1565094785781945  0.8343614903252841
  0.3221832443439597  0.0002593602594218  0.1719606681373134
  0.7433603495345386  0.9155453442518149  0.6699078945590619
  0.7472512053770364  0.8329805353192643  0.0728078952137755
  0.8313157050564316  0.0061298671182890  0.4981858208715850
  0.6673625934087185  0.4178394571863892  0.9144502035118202
  0.1624607404448664  0.6706701909496304  0.0112379161671597
  0.8421533195792056  0.4156666122357395  0.0782865541769432
  0.8355537268687243  0.9162633460900363  0.5839899491881219
  0.8311256219830999  0.3319958440734497  0.4914125584392035
  0.1691220031366554  0.7491544340961731  0.5809717504942091
  0.3272022743321877  0.5828024847243952  0.9233939877625477
  0.3347958516004375  0.7587128173872238  0.9171844908895813
  0.5030089555724991  0.2448121158487562  0.5848733067542634
  0.4132317274701161  0.0045886345072421  0.2541582406246080
  0.5790909242561763  0.5004488676066757  0.4266620173245818
  0.4190052062522305  0.1605084897571201  0.7505453359052340
  0.7389338554408900  0.3295262514525953  0.7469376239290317
  0.4960079949248976  0.3236324317884504  0.1581776498652979
  0.5767703569807887  0.3268976093444983  0.9215319397936759
  0.4916831476452326  0.5037708067384895  0.1631491837753346
  0.2447395510752155  0.7501862423231441  0.3328416491599581
  0.4178390137753752  0.7512566268314721  0.4943320409999580
  0.5816553608204361  0.5031268852484641  0.0827422939270240
  0.3239948020775437  0.7508500654360620  0.5857445048601309
  0.5808334047441006  0.4183325574721373  0.9951793708692253
  0.4191487295960183  0.5719946278274995  0.6639314327024348
  0.7470570307340083  0.1566024883249396  0.9142420188774403
  0.3313643781206921  0.9187232051018036  0.4207523746789970
  0.4998401804538397  0.6705503033048343  0.6673265136074195
  0.4955011529392918  0.5036763169842617  0.0012752844213029
  0.1581991364951273  0.4977219209180890  0.1670949856611020
  0.4155223891055542  0.3369776802496355  0.7495976437450447
  0.3296567385368914  0.7456650498488443  0.2407838130019857
  0.9210379458269163  0.7542388226155596  0.3362067752075901
  0.6598318488114778  0.2470473335069044  0.2441739686904965
  0.5836796063853263  0.4154707176397807  0.8204760937762079
  0.5814955201404678  0.5019867616868264  0.2537420399668183
  0.4917129963476218  0.4171104627586962  0.2518115989192156
  0.4938073538548962  0.4220296976767784  0.4192211894385646
  0.3392210051095890  0.6712414323509468  0.8346729138568197
  0.4153038076708603  0.6612157889611665  0.5850762331956239
  0.7508899788916142  0.3302859379986897  0.9176734013869234
  0.3360946791610503  0.4963157284210414  0.3354118003757340
  0.2536638884398631  0.6728237422180882  0.7457235430841421
  0.1612119260387895  0.8383486570200970  0.8335852472790853
  0.7459471733489526  0.9278023056043606  0.3333100531379378
  0.7480599092824071  0.5076954259746346  0.0791436916961529
  0.2447445944601242  0.0809525909878215  0.3267815682322297
  0.9091673655334794  0.4152552660476880  0.4918724825285880
  0.9147089422064772  0.5857202207954217  0.5017983018023858
  0.2408730973025114  0.7475967618759292  0.4979643324135827
  0.9152169633299678  0.4123754693390674  0.3278445328275705
  0.1609514240947375  0.4052399876528935  0.7495529185745999
  0.9117708283648168  0.5841533293427410  0.3295374540833960
  0.2482230181899809  0.5823384104365156  0.4985184767247110
  0.5869419337416329  0.0835653302403823  0.1610779205838864
  0.8304214886311225  0.4212032377878405  0.7515512977714266
  0.0727286431163598  0.5852752953209703  0.8350515617654648
  0.2496449553596355  0.4969016900699280  0.7470173524307965
  0.8302700696523688  0.6727273499562870  0.6603854242481965
  0.1597648391309725  0.8356953516979871  0.4987023327369453
  0.8347576941262722  0.6627400144877283  0.3325471652680325
  0.7415258018868198  0.5836222930399001  0.6745261320990781
  0.9137925688798720  0.7497622153895055  0.1609714388310813
  0.0022328298327109  0.7567514397286811  0.9189693662457324
  0.7480680849761024  0.7460065052604605  0.1598630245552310
  0.9871677745512538  0.4986033948235774  0.8374884113370996
  0.9153413809323623  0.6660014844965931  0.9203663928254308
  0.8304477438921775  0.6672522172905457  0.0061415762591640
  0.1596243211071418  0.9979617075228254  0.0006690207804988
  0.0060994573201058  0.7530729482797018  0.2516891563682705
  0.1621564321471450  0.0819834643361286  0.2552166736189271
  0.0784930421677280  0.4951129816067625  0.9233204675812492
  0.7397757195467483  0.5839053384881558  0.5893896864660215
  0.5743665526328500  0.1594187891422090  0.3250687028224770
  0.8272286531980544  0.5836762390741906  0.6686384583559918
  0.6614810258069371  0.0895116274461645  0.6732847479203765
  0.6607955418215833  0.7433391766959825  0.1611734270315561
  0.3249315223586337  0.3324181367424989  0.2468901156100610
  0.8253522202690702  0.3362482570786957  0.7490619803891891
  0.8347300437035207  0.9121765947169850  0.6719408170351034
  0.8287688460077813  0.7561343263229889  0.0023201123310033
  0.0755920806684475  0.4925009128334302  0.8385698797652872
  0.4240407272075276  0.1571793270355508  0.8417085987704896
  0.7442890347959107  0.7487310789135201  0.2480787839204147
  0.0743998744765114  0.5813130680537262  0.9243129000724531
  0.2528467592254157  0.1706496078435589  0.3292913800848051
  0.5779632187699943  0.9944414865526306  0.4956398446516260
  0.5800554490342414  0.5910498318269122  0.7472026063946904
  0.9896963078459483  0.1687477053741194  0.4160175255006499
  0.0716502881927651  0.9976497496534371  0.9997937767612354
  0.1622862973879995  0.5808892495725755  0.8378988353267430
  0.9161941108583473  0.7552289331380087  0.9157804843200635
  0.6666745942905785  0.9963585728880543  0.5806222775508155
  0.7519842322241946  0.4177680194817097  0.0822700965616760
  0.4083184961190700  0.4115885440170499  0.0816081537854763
  0.7482379956881444  0.6715688210745735  0.5043765499093150
  0.3408468549981861  0.5797333339662289  0.8361654458794838
  0.0735885915679690  0.6765268826285183  0.8362048702200813
  0.0764064061066385  0.0817722360639849  0.4162478157738970
  0.7448119552995349  0.5740539912032260  0.4170867235075262
  0.1612801725796875  0.0820651411675544  0.1678123906932857
  0.2534224267761598  0.0781047891875127  0.4175190937371492
  0.0806975527969946  0.2413171350400011  0.0831577273278241
  0.2428869756126807  0.1702825280553943  0.8346079845370356
  0.8305549144625406  0.8360999209803902  0.7561573468894330
  0.4155999867769720  0.3361802138607780  0.8415851418382335
  0.4964851107445151  0.9138725132050336  0.1647458912156079
  0.4922150250345634  0.1623853136739867  0.4161091759879600
  0.3279110034139324  0.0003684806222518  0.0846291712317448
  0.4046450834952278  0.8237479467662053  0.1650799235475613
  0.5802490108558598  0.5067742478366883  0.3416304808392996
  0.9987568588119980  0.4128902463869515  0.1674887597183279
  0.1636631257415534  0.5860806809443796  0.1624783218974135
  0.2508137123606344  0.4935771390456755  0.3365397881840598
  0.4096448440148522  0.9130891130625272  0.2570987815680932
  0.4113818648694689  0.9207987975117288  0.5775037827099780
  0.1678446797749944  0.4193226733283204  0.4971226219925827
  0.9147897287856123  0.4154467665168550  0.5816547457601829
  0.7404599215353729  0.3263608871154707  0.4897532344055577
  0.7438240604410541  0.6628634448966542  0.3330400221082506
  0.2444942804614954  0.4969502080391316  0.1626929964081629
  0.1651739041898130  0.4899195945385218  0.7475576936947884
  0.1574741029681873  0.0891597366801903  0.9992483158382710
  0.8210083802006229  0.4257966975277340  0.4835238120923333
  0.7459363215731615  0.3306765220393322  0.1669031077105493
  0.5837505156262410  0.1663764662560905  0.5031725725392556
  0.4079048423369561  0.0057190263153182  0.6700615876073466
  0.9192217868413742  0.7517384158573707  0.2485638596837362
  0.4986864267464483  0.3328819114547055  0.5832342953009892
  0.3351347723280950  0.0870598578896980  0.9989591357205052
  0.9906539909577594  0.6754817966913287  0.7466294294895875
  0.4144509718122124  0.5725937223169979  0.5787439781717076
  0.9923363430877498  0.8324643406098126  0.5817994551888895
  0.8364670557771768  0.3261605696643581  0.0800435743869670
  0.0748481433613899  0.9949579594872763  0.3314743679921152
  0.1620458707520894  0.5842992870497647  0.3346033851935156
  0.1645226871303528  0.1726592771996738  0.4220361679739088
  0.8347159739197541  0.7487626650053038  0.3382725600599535
  0.9932165863204911  0.5847538070065583  0.1639556038877485
  0.9969131794102869  0.4178744809964354  0.4877544482342534
  0.4198820708200812  0.2477789156972211  0.7501853889274460
  0.7510214669806056  0.1582234071198510  0.3351903479580486
  0.4105112855878103  0.0081723520821606  0.1659495725318814
  0.3237359629091385  0.3336050166432932  0.7473865661990121
  0.4135961258959165  0.9126676462715724  0.0752178017145888
  0.0769497390259379  0.0012696843364056  0.6729662917284381
  0.5741786465669935  0.2388321940284771  0.9134846812168907
  0.2509881213438832  0.3323956181651513  0.4969602417417879
  0.1672180534426648  0.0009438085442490  0.5783095107602346
  0.9991206353533211  0.9222163133538904  0.1661290653614201
  0.7519894766668185  0.9205070796620887  0.0730768149326106
  0.1605736867407614  0.6674046400149279  0.9264975330057011
  0.7489750019392936  0.1560588473185494  0.1584349120054865
  0.4090274707160937  0.5067677363606197  0.9963445710242346
  0.0872533629094132  0.4950348675228171  0.6568224855082045
  0.9164997290397855  0.5846263782295525  0.4151928402073945
  0.2418041445467223  0.7500865143110705  0.2456458653183954
  0.5835432570333430  0.4124182413997459  0.2552520684739720
  0.0773449102492894  0.5867369022095679  0.7430876824633256
  0.2414206848262767  0.2498528424216475  0.5850089528384277
  0.1666995936693710  0.6713721136939717  0.7412735972857931
  0.4164172329511029  0.2496962791177620  0.5802979996721369
  0.6619783216969972  0.2489868643363437  0.3329036528509050
  0.4134802780398264  0.8319289239299018  0.6762247673266897
  0.3291348115126250  0.1573429798273374  0.7497773476473665
  0.0772065914759845  0.6724747311652730  0.3326344070796081
  0.5786106690884799  0.9960702584096776  0.6753954225485780
  0.0014291354378830  0.7528427715819888  0.1634784547739327
  0.9952196475600017  0.5858588746811073  0.6567335622905722
  0.5755068175539115  0.8334166625746130  0.3357110923492658
  0.3363899493717168  0.6715287549480817  0.9255815632059990
  0.0768308797384988  0.3267905595590965  0.4947625500920456
  0.6676052893520462  0.4930056977750160  0.4227997754684441
  0.3272163965695548  0.5017278162451629  0.0827893286576854
  0.3379807429260644  0.5815082600111569  0.3311595946254363
  0.1617893299212335  0.8383131720988480  0.9205449840989062
  0.7442306615336044  0.8418022441368732  0.3378866658834197
  0.5859434110148259  0.5101197964664630  0.9975285619315529
  0.4934601873487852  0.4129840728797425  0.1623100279978333
  0.5792511576089437  0.8292635145973152  0.1596945009610615
  0.7524505951756635  0.0030222051531509  0.6746943285483431
  0.0836449868447524  0.3278168437284133  0.1696251472448163
  0.6705180397966748  0.5078652745480252  0.9119377505547557
  0.8306323227888194  0.0789650818466290  0.9993338659735204
  0.5814240302386098  0.5096756734920437  0.1678222103924717
  0.7573799733117280  0.8342624761835347  0.1596489192302152
  0.8294790073652554  0.2549191143659884  0.6622325926121099
  0.7426964511435596  0.8287614601151635  0.6680902148473785
  0.0748339174877882  0.4942764908800437  0.3337538388896395
  0.7500083662314571  0.2472309191833748  0.2483847378108263
  0.2500122233316713  0.9946282306996009  0.8291486589217911
  0.8385904691811699  0.0845429740396010  0.6684222576645120
  0.5841322860958088  0.4092513798227375  0.0799029268999851
  0.6687513910286769  0.9236961491219817  0.1670249866936633
  0.5751575831229280  0.4130820733037743  0.9062552576791343
  0.9872670407712915  0.4957474486762245  0.7500634611263517
  0.0830805936682120  0.7435171404090705  0.5838505808223452
  0.1573753496642723  0.1711176638667000  0.2456368525791766
  0.2471097933452389  0.0013673190465274  0.9999772875162560
  0.2455984970742700  0.8356457239370366  0.5011109732287033
  0.0776584529900902  0.2493550771801896  0.9132866742326885
  0.0748995361854258  0.0921359584451761  0.5855520680532267
  0.7571494599912864  0.4180716993827215  0.9111408520662427
  0.0795019649702944  0.9171414281033243  0.5825835473122201
  0.4193199554793963  0.6629336305930873  0.4946980001219719
  0.1556837811070858  0.8334783582040324  0.4123607065691232
  0.3393821433203049  0.5045956301317457  0.7446646176875914
  0.5016620518129764  0.0922522875014498  0.1603287375457578
  0.1651736844359960  0.8389469165157694  0.7466565128681485
  0.3230385087506427  0.9212986370614433  0.3360300001412995
  0.7497043305452048  0.5073936886885375  0.1687322774511678
  0.9989494269624374  0.4071266285692428  0.6649513748581778
  0.2576632611361896  0.5851791724385698  0.7413142866925652
  0.4144100912985028  0.7485103241189192  0.5837997031551159
  0.7522769399342265  0.2417596010219683  0.9182600128628916
  0.8315602367154792  0.4142155969410756  0.1711721807606704
  0.5063105098720032  0.3346900561956417  0.7519523414444472
  0.8353208636647093  0.9246509134680719  0.3298681798812627
  0.7460656917461338  0.4120201300427209  0.5899062689761695
  0.4907438276379518  0.5071790805622224  0.2533499369350916
  0.8265234840014735  0.6641584237942195  0.9204534668529545
  0.1553498299163542  0.0830985901656897  0.8284449975320367
  0.8363457938283637  0.5058893663605949  0.0815257876743562
  0.4958100046377615  0.3352801976535323  0.4147228891330471
  0.8300172868584699  0.9190609469749798  0.4995673374344187
  0.5770248646560512  0.4177975401716039  0.5821015085640701
  0.5866244434311114  0.5047548191411675  0.8237817961616750
  0.9971663215631634  0.3218437063602825  0.7541098112752354
  0.3286254697568473  0.7496936281373128  0.4997302460184684
  0.8331963610636502  0.2426403617995036  0.8356542885064571
  0.3300587713825388  0.1614814131372105  0.5802174857553140
  0.5031426026480381  0.0041667218196005  0.2562361386233756
  0.3350695523607092  0.7504808174272689  0.3261407721584922
  0.6638631302128978  0.3288770863797233  0.9156705768406338
  0.6609485198866897  0.7545177236946661  0.5024211902706575
  0.4913544613278041  0.5058305374606463  0.9133105519013215
  0.3262556392234815  0.2502026339739075  0.8391600048582201
  0.2492286031217155  0.8326852349592623  0.0048111263758400
  0.4084146799781043  0.6551903204172768  0.6805509723291933
  0.8323659671064689  0.2429051850140223  0.4904606900423936
  0.2525679587298301  0.6731421848561105  0.8342150148390836
  0.8214976504855387  0.6671302207812094  0.7471315639052551
  0.5814410586877674  0.7557975054806920  0.9172651217670201
  0.4980820421327594  0.3243489721628092  0.2459691036687947
  0.0832727338710048  0.4181478553638354  0.0789334115870523
  0.4996203741512360  0.0812725010689911  0.0751114989259784
  0.5826957681977726  0.0002457383549587  0.0791937292187797
  0.5815455847291064  0.0802124683883478  0.9979773386496447
  0.4993644408506834  0.9175508853398678  0.9162662694786144
  0.3324099401427116  0.9146322963137621  0.9165263672962665
  0.3319767579761705  0.9159497378048538  0.7507199909108654
  0.5832779122070008  0.1659695340501937  0.2405402762524022
  0.4923566832779419  0.9991557436423134  0.4995826069543839
  0.4130938613359795  0.0006460588375856  0.4175591047648921
  0.5803989516536106  0.0802349595937694  0.4996343960564053
  0.3243822577501898  0.9167600079844086  0.5828148320896172
  0.3238462914914921  0.9971804157594569  0.6666141821017700
  0.4992277238181035  0.0822829745488900  0.5828435530309279
  0.4953412256979217  0.0763516955711013  0.4177073689222103
  0.5819857731225504  0.9976522516690549  0.4114896326675728
  0.3301531352060307  0.8352548482193753  0.3337698921436212
  0.0785000817269578  0.9105181141398832  0.3321614488757869
  0.3348000271895208  0.8390969884615416  0.4980824793116245
  0.5003118626555894  0.9145379319452073  0.5849207887855038
  0.0775741828571196  0.0865077122097127  0.3272158038159598
  0.4149363725383667  0.8321485531661138  0.4163352459105133
  0.4987347887999112  0.0788418221309180  0.9176907611445999
  0.4988769651738874  0.1628578271983926  0.9997841029472212
  0.5810065692789529  0.8336873960590273  0.0734171511021116
  0.5813640705410612  0.1638815976163562  0.0804938515494513
  0.4967485883450595  0.2466206532601652  0.0778618705119096
  0.4135098938769564  0.8250042295715554  0.2540166580034139
  0.4905352498180983  0.2471794582601746  0.9228785943943788
  0.5823600139904546  0.2467586118755236  0.1606768681725014
  0.9934307420241757  0.0828386616512565  0.2491463816377995
  0.4157045151343432  0.9168302024296299  0.4925251123327762
  0.5811370033975198  0.0743747639149481  0.3325859215024911
  0.0746148422058962  0.1573427193502705  0.0831066912636522
  0.5744019487187911  0.2510153923014836  0.3325135396723223
  0.9079993153117305  0.8304540889297782  0.5826652001292036
  0.4996511595007027  0.1658569172606467  0.6680047554817105
  0.4975740738750674  0.0905397297076581  0.2511646573824262
  0.4942866468135703  0.2492636379598202  0.4158528174384187
  0.5044839672883142  0.6684257572483063  0.5016233464502410
  0.3206152764674692  0.8341127168300942  0.1694128956252134
  0.9957999072658805  0.3304611207133121  0.9974929217378715
  0.6646693609922742  0.0076279196595377  0.1613529015621111
  0.0757985221266072  0.0003100241047547  0.9117054645668097
  0.5023528994636118  0.5840591187434291  0.5820730643192226
  0.0776278426248876  0.2485960826880023  0.8279887512086396
  0.4969571803651471  0.7454593542372983  0.2501431549976291
  0.9942680543029921  0.0821477769546665  0.9154231651237956
  0.3306036573453536  0.7525328560393818  0.0857050179733100
  0.9907394440163481  0.9994362151393776  0.6680865989183454
  0.4987809915499283  0.5837868991927680  0.4189590155267596
  0.0791748188754339  0.0853701121277490  0.5008826613637583
  0.5772677531590936  0.5916235344450693  0.3339303358010379
  0.5796895475904535  0.5042188613456051  0.5834794107621848
  0.4956960758333928  0.3326074419999989  0.4991907817039717
  0.4887769468590608  0.4123914169834614  0.9190244023149128