Cr  N Ni 
 1.0000000000000000
    21.1326370199527886    0.0000000000000000    0.0000000000000000
     0.0000000000000000   21.1326370199527886    0.0000000000000000
     0.0000000000000000    0.0000000000000000   21.1326370199527886
 Cr  N   Ni 
 259 173 605
Direct
  0.4958419880815416  0.4154985927282460  0.5812023987001211
  0.6621540048467741  0.8324247366217894  0.1628872447458851
  0.9160098178841439  0.1650710789045116  0.2492034411676795
  0.8338114759767121  0.2454807699098794  0.5781188790809462
  0.4137709654326280  0.0062812015358091  0.5790592012501321
  0.8350001546262429  0.8302429951301504  0.3342826529749858
  0.8321226980037226  0.8250868575450296  0.6634639203552894
  0.6693146026841046  0.7502143964601383  0.9150037589784651
  0.4131419760710514  0.9182262349627541  0.3444287768615923
  0.8399946796865130  0.2476843140960268  0.9198270336468319
  0.9956878831841021  0.0060428992370020  0.1678511153731191
  0.8368257460309052  0.5042322843415289  0.1702032184665895
  0.6633946256617934  0.1603871974155180  0.3355292020850096
  0.5818430837951539  0.1603403215186728  0.4158400515375274
  0.7523647409805532  0.2484636645154914  0.3349548946181402
  0.6599381305100983  0.9184255746797976  0.0735271877651457
  0.7446449540463475  0.2477905244383200  0.8269127712634965
  0.6662321576058526  0.4992147795671024  0.3324567950057912
  0.4210605232934072  0.9994576163129931  0.0769035465300404
  0.1605239843583371  0.8340097794828465  0.0071524964758123
  0.3361847795016251  0.9977241950066645  0.9940900342265798
  0.8354891508247581  0.3268280978127630  0.1696109617438148
  0.7480702064099795  0.6675276514219893  0.4178345199914858
  0.3226252317238437  0.9960909632520687  0.1711921729670269
  0.7523522990830755  0.4908283867738422  0.4170873704084209
  0.7438970268597076  0.8316648765423604  0.0729042013659084
  0.1651645777406319  0.5800423438810528  0.7502447428720355
  0.6674461012851896  0.4176577433092931  0.9146815843331871
  0.4907225864254897  0.4990489154978961  0.3392676936478153
  0.8377572675826954  0.4179857631211876  0.0795560029348533
  0.4954889316607913  0.1643934410888726  0.4996930638602499
  0.2439895065017545  0.1712897605365075  0.2424059998808719
  0.7370871201176346  0.4156667376189931  0.5015633288357265
  0.7502185252763490  0.6608452837155141  0.2465450178199284
  0.7455548027344292  0.7515592295127087  0.3378775296208583
  0.7450329189580375  0.6697157307335870  0.5920197121048647
  0.5840678193541675  0.7536236995984442  0.8296003740823686
  0.7486973812851679  0.9257776130304919  0.1657915950408546
  0.1668878356211730  0.0004271027432031  0.6684172584703523
  0.0738780015786494  0.5867408742877854  0.3304848503708893
  0.8308604577411007  0.3315560168970163  0.4939367457016632
  0.8242376238619241  0.4170133545888782  0.5836866863535410
  0.1658846987362558  0.8329956193309570  0.6610787470404039
  0.9934179704203445  0.7455655571609834  0.5818011322813084
  0.7423445211564428  0.9152373324508365  0.6681624343104811
  0.7475092664313907  0.8350058938084015  0.2477761703865822
  0.8340445108790412  0.0049461926691422  0.4999992855947396
  0.9201016355002463  0.9144493026734805  0.3325389894931125
  0.1677822133985143  0.5801358163490872  0.9270556255540936
  0.7494964142330557  0.7569480289588212  0.5002782829797783
  0.8366900048523941  0.9155355225575744  0.5846799217227974
  0.8296451169048746  0.9232125329123165  0.7589482510874797
  0.7427923720760559  0.8353106055251663  0.7568870442583903
  0.8259919771751942  0.7548036803190179  0.9140066793735103
  0.2504076080465287  0.5801443098349297  0.8368467342953282
  0.2401374055532861  0.4989045880536205  0.0764930583180427
  0.0843626392330566  0.5821556229693728  0.6575641515178233
  0.3371489118368023  0.1704208306525092  0.3310424493078967
  0.4090034101914194  0.9179258210765224  0.6684606108771891
  0.3292329364398585  0.0870067559548871  0.0799864059357420
  0.4172067798569735  0.0719191336865372  0.8347892343957014
  0.7459106133604929  0.5827801073784982  0.5025513834212620
  0.4147526234961484  0.1652608375005598  0.5814700157508794
  0.7537561936069213  0.5057418413784183  0.9158935495157708
  0.5805458850518004  0.5937014614493731  0.0004187449300412
  0.4131157049785859  0.0010689775710326  0.2554646540475107
  0.3361765665135627  0.4957609118399266  0.3345137158993630
  0.9099240508479625  0.5812752562818844  0.3291198143236420
  0.5774826228438344  0.0827508060128512  0.1587991764932890
  0.0738093119046622  0.5849844544764192  0.8356710212386658
  0.2478833141441811  0.4981491475230601  0.7490372385398343
  0.1558753418582747  0.4105085675618551  0.7507001059404044
  0.3309590704210763  0.6619536797529352  0.4966392965776020
  0.9096242307735819  0.4149615690911772  0.4942390544343450
  0.8276614772914421  0.3395105663725032  0.6610848621025470
  0.9127792915949243  0.5851453000676410  0.5018422777493763
  0.1625262828018562  0.8352471054632750  0.8344449768414761
  0.2413311621279667  0.7494610177910807  0.4972578364997053
  0.7470318342760777  0.5074470724532699  0.0801484613668814
  0.0810332412308175  0.4115638469053317  0.3303513487643893
  0.2467732888506474  0.0824413042955991  0.3308469882119349
  0.0786961808718222  0.4941436272410943  0.9236906006486408
  0.8349749438315318  0.7515458223604112  0.2518079343008370
  0.1543689024378121  0.8352635086306296  0.4958040444701089
  0.9148094253690310  0.7488152935072965  0.1626093254806648
  0.0025646258814482  0.7559136646644637  0.9216936442949849
  0.7484170540437770  0.7462583878536232  0.1599805618407780
  0.9166870804088889  0.6672141065974856  0.9244595574665931
  0.8298104788561742  0.6659207349824103  0.0031355735299668
  0.9883877769794329  0.4964044778111763  0.8386066862993764
  0.1606130709733279  0.9982322697383712  0.0010608490839468
  0.0107872903577158  0.7426330430382458  0.2577112807796808
  0.1639834037024324  0.0875235429936067  0.2491893307678819
  0.7410268067026230  0.5827419461830622  0.6741128752933634
  0.8293149851314329  0.6722958472556435  0.6667898237214100
  0.2492617070381452  0.6727873095211040  0.7464399576591670
  0.4169052115718718  0.3340497697680125  0.7500736638466629
  0.7502769397884823  0.3308406151609627  0.9169152622857858
  0.5776251932697937  0.5009462900420313  0.4268691002965360
  0.4143920012735335  0.1588496822249778  0.7508959783991068
  0.7402322773634172  0.3309965215487348  0.7492763049906223
  0.4955916151992713  0.3247371400787449  0.1577074824151831
  0.5762490238264069  0.3276396564506850  0.9209253130866757
  0.4924671755322064  0.5026430661394286  0.1629396872453862
  0.1593487092180633  0.6729162263575748  0.3304205382874825
  0.4204478272360722  0.7458988354382474  0.4909120843234858
  0.5822269656538793  0.5047444883126172  0.0834514026300982
  0.3256394769147427  0.7490877741337365  0.5876761428147742
  0.5791612856540176  0.4155510949609246  0.0037307876776955
  0.4160448283158306  0.5734484129980305  0.6665870651574082
  0.7445528342179295  0.1554327823102785  0.9155430079807266
  0.3264182294301007  0.8393625410292712  0.4958983719334368
  0.5072441341402250  0.6710677406746786  0.6663210904136662
  0.4961552733218843  0.5037475081292284  0.0002242828313603
  0.2470793507507238  0.5882598214276432  0.1628776947469454
  0.3298806795385026  0.7466573984257772  0.2412081481701466
  0.9130300765184743  0.7538601436070014  0.3375506910458163
  0.6614509594345414  0.2491696255777039  0.2445123664819263
  0.5839069580128061  0.4151835053095582  0.8259130632698971
  0.5811756183490624  0.5006549558080902  0.2536848341270201
  0.4911008392718436  0.4159141266505385  0.2524564604291425
  0.5785439981127971  0.2513987815705128  0.3308789692186498
  0.3392878510014434  0.6718090568088657  0.8376809332580025
  0.4150442594039798  0.6599495538581734  0.5808722859243091
  0.3297985246268688  0.5845077758156901  0.9255126413882876
  0.3360621276710027  0.7592558296262565  0.9153729130852639
  0.5031849544742261  0.2525951827403008  0.5840027070475505
  0.7444869336773120  0.9262747026760141  0.3329874096309315
  0.2525309674239996  0.8352303683556431  0.9171322020492332
  0.8314934313029048  0.2458225433525880  0.7494942480223270
  0.6656920594922472  0.9996323229079120  0.6679529425312331
  0.4188603707382356  0.0928643928676272  0.1603442951392768
  0.5811526289675273  0.3241066701332114  0.2458843095563894
  0.4891575532706177  0.1686426992906007  0.3282072675134857
  0.5086725489323844  0.1628991997494693  0.8349161377524010
  0.4146087262380636  0.8253081238915368  0.0834882622755183
  0.4156668592810011  0.2466110980069545  0.8389063977432625
  0.5791613990799325  0.1553619551719030  0.9168557921856674
  0.4980365652666164  0.4154722615280538  0.0741482293085794
  0.1669543173837173  0.3313434798335030  0.4986998930264717
  0.1643389360683155  0.5030873518881026  0.4975370911344054
  0.5043487661782637  0.4186604433356759  0.7478043309838982
  0.5014055906101668  0.8253021220933719  0.6699314743231657
  0.5867186013616797  0.9137158180725058  0.6704461450801751
  0.8351829582970725  0.0741889398376873  0.0829903401611261
  0.3290084128706192  0.2535614112687801  0.5815481865077422
  0.7522014260945215  0.1577307769831017  0.2477992133467853
  0.6609681610298264  0.9976194887998562  0.5003815391214068
  0.4089644672445785  0.3339206453825801  0.4170528495082334
  0.7487329652500652  0.0899558685409075  0.6677619111523675
  0.7472020953466130  0.9954267126565268  0.7619060359537313
  0.7437452106580951  0.0803336603057453  0.9942216825569469
  0.7498822837111915  0.2436831313498224  0.1589035776780128
  0.3274754207703428  0.3357371037210761  0.8390286739513140
  0.2503654687238154  0.8355240816587284  0.7515608905327458
  0.5783812031634236  0.8353896033274918  0.4169078999242181
  0.5875870146525973  0.1666823486462974  0.5874244163945767
  0.2457185791983366  0.4941588463942051  0.2481925668236573
  0.8308238460840887  0.1679430915402725  0.6677403277057001
  0.3252105547043204  0.4991032018177454  0.9923291176855890
  0.5775176334090830  0.0882656138608726  0.6681053007177480
  0.4973227263487571  0.7542622185757899  0.9139608609708493
  0.4997993360052300  0.9989361680551083  0.8348616311701801
  0.3234676888940809  0.4104161884668563  0.0804888506333362
  0.4993230273850210  0.9183901827981682  0.5807153129389983
  0.5826489334686632  0.4984563453122031  0.7405104818361392
  0.4141231435228572  0.5724140974651942  0.4946482543006149
  0.4963121016889211  0.2471653291155008  0.0788029540484311
  0.6641638264368490  0.2421732637551300  0.9174967085896298
  0.7458188177765032  0.3286652466972316  0.0784107238566100
  0.5832195029809063  0.4143492627560640  0.1608176533055033
  0.7415283457961043  0.4174270052093058  0.1709494796584173
  0.5741672839851560  0.7406718922859276  0.1658239526051909
  0.7449767012209474  0.2437929780845190  0.5003304638441404
  0.5802456717858216  0.5850259914024278  0.6620326549233327
  0.6679892225915821  0.4162566420013482  0.5862011668920287
  0.2480470644859673  0.5838600843330516  0.3285567249260047
  0.3293923651311815  0.4203059109517283  0.7485486644931336
  0.4167906596593216  0.5076968638311899  0.7512000025365414
  0.4946641707024058  0.0023675235313295  0.6683712930003977
  0.4964943006641677  0.9159030075310962  0.2556936084647597
  0.3385681161251921  0.5811206250278467  0.7507687732958668
  0.4876253922917643  0.8255735608056242  0.1647435416982908
  0.5798785956567873  0.5028663432133970  0.9132977609920668
  0.5046256039440660  0.7498521207835726  0.5895964315160572
  0.5793395604429977  0.5911891101475328  0.8353511107052750
  0.4123313250185969  0.7464233797465715  0.6696622133591615
  0.7442649024416993  0.1590261335826396  0.0730874037868382
  0.4054286407605944  0.9135166088738408  0.1683042391398129
  0.9934512998271708  0.0845982580303651  0.4149242713584296
  0.5800915797793875  0.9158806239410365  0.1591812791191508
  0.4122352006619953  0.8343500363206806  0.5857733543017744
  0.4162618712897294  0.5053008292826844  0.0848496765853519
  0.2409229970055285  0.7519577943271932  0.3337538034523810
  0.3398325046754690  0.6790779683965598  0.0158954887972732
  0.3205716903220834  0.9165580456384124  0.2497358858924517
  0.1625113537898591  0.9962960888743060  0.8304706310506154
  0.0753257673071880  0.2452856266705742  0.9988336121876500
  0.2500726502765811  0.1705674456022192  0.4182514726414487
  0.5043177746046269  0.0046342733188935  0.1631860900882273
  0.9179120203531260  0.8338673932772085  0.7520981340824036
  0.0763690656730463  0.1689147703473497  0.4136284583994065
  0.0787541528327541  0.3293820021804589  0.0790020996690599
  0.0770872037416276  0.1761902263882953  0.5845398541830523
  0.0731406115919862  0.8348614714771844  0.7488130015302310
  0.8343235117436656  0.0079478964890590  0.3309109827933557
  0.1588063996982761  0.0830845063777264  0.4210062307674269
  0.2420408431900848  0.1670127185877192  0.5859323715790867
  0.9969341205015659  0.4156878709388062  0.5771270441928560
  0.8425341823404684  0.4166730625320686  0.9162300620551722
  0.0871908277273717  0.4090403731030280  0.6645175427038486
  0.9879299948928597  0.9991287578880884  0.9987420573050405
  0.4126688195951643  0.3423554277742010  0.5806249699823203
  0.9954006629018856  0.4157235066447930  0.0790388715326744
  0.2514869423507457  0.0000219167896981  0.5826068695010471
  0.3275702135354145  0.2500715190990799  0.0804778741279364
  0.3376396006889653  0.9953717371588424  0.8336415613696282
  0.1635077541079473  0.9976244368191096  0.1701269750275330
  0.0777972021078711  0.2423776004900897  0.1704838840451747
  0.2466498972160980  0.0894039389478807  0.9979507508258856
  0.1634726366893254  0.4980704886547134  0.3316892686105204
  0.3342067144468296  0.0810808712729833  0.4215518763260119
  0.0791014570396783  0.5778586354409443  0.4982252748467581
  0.9948776369380654  0.5843452908520147  0.0786573842041650
  0.9973072914460620  0.3234267760833048  0.6661466348631895
  0.0841955449708083  0.8353398413867359  0.0837850862286273
  0.8399179736783895  0.9997452499851411  0.6663248204112373
  0.9154916295485998  0.8424937173949926  0.9166175308630730
  0.0857458626372942  0.4157495457400556  0.1683675937082773
  0.2482590206806109  0.0822740308106332  0.8291744083856470
  0.3267201503228376  0.2450987106858829  0.7476649635458440
  0.2414967063462912  0.3324187238500697  0.2475295394389198
  0.8360578941355541  0.9193170309440635  0.0772634784776335
  0.1571749962035992  0.1707110754482338  0.8313350167087362
  0.1600678482437080  0.1728290163710546  0.3289309216832336
  0.9941106264642364  0.5850554772474456  0.5717170540216471
  0.9907742900896849  0.9185530862033129  0.5829137397944579
  0.0841429062335052  0.4939825429128877  0.7501397580208100
  0.8257658932681602  0.6683572989079267  0.8280323329363506
  0.0769944277841851  0.0041992828735180  0.5783127713536399
  0.0842657659288362  0.8319850643429790  0.5838000459406268
  0.0741836264366819  0.0906224044991479  0.6698255717935512
  0.9857035411171332  0.5875138523677869  0.7503642921840497
  0.0787109963682680  0.3348979010008590  0.9180447245505007
  0.9885001325035992  0.0004039653820173  0.8339260856289260
  0.0813467603072939  0.9991514211561736  0.4170640190206966
  0.0715355338224441  0.0861517615786795  0.3312823628330003
  0.9955174954599116  0.4986548166809210  0.6622245189073084
  0.0744397549097072  0.6741612133473623  0.7513142554962547
  0.8361353286921966  0.2447927170299266  0.0819445456792599
  0.9942049142117819  0.4995889489519015  0.1710284463108540
  0.0765172718862853  0.6715602785557097  0.4074601022372261
  0.9948162979508145  0.3274059966820788  0.4961601557900833
  0.1645165571022435  0.1723057399922807  0.1668867740580231
  0.1633069637754020  0.6746773572322065  0.8352009440213860
  0.0739966475998089  0.6701827172427849  0.9252103461278159
  0.9174348875528696  0.7534402567139938  0.0066336339787681
  0.0717252642458915  0.0874232544641895  0.9984307274747037
  0.3316930510557990  0.1604667192618182  0.8330415417368364
  0.9896792857606669  0.1719366251381088  0.4172422647095478
  0.5817238337924472  0.5071150258754475  0.1680165412121903
  0.1638019366138197  0.5799795385780371  0.8391935092005067
  0.8284504233611978  0.7548025109730018  0.0026557340621991
  0.5806094035292623  0.8368344165656221  0.5032892709911877
  0.0738942149350200  0.4976691983013952  0.3304945022381858
  0.9163707804333342  0.7553293247923751  0.9148690373754742
  0.0779725262044679  0.4921150109525214  0.8386902204248499
  0.0776757385217648  0.5806329473700464  0.9275980089194101
  0.5828851417441265  0.4109302801476444  0.2512293012081783
  0.5738565041464356  0.8273803307293957  0.1589302350994030
  0.5759333674762055  0.8342539023319255  0.3307262922466013
  0.7530431605468327  0.0026861032839223  0.6746997872300664
  0.5803424835831354  0.0012042021529964  0.6693409049678702
  0.2501319441650672  0.1751643703649963  0.3289523524356206
  0.0658600003239979  0.6820012621812328  0.3151703232315843
  0.5839136259397786  0.5887627597187015  0.7473991317609854
  0.2380809988266492  0.8385199492800273  0.4985589547605867
  0.7457459768071539  0.7471847964040323  0.2486097146988514
  0.4224238831456517  0.1571871858520162  0.8419893143687672
  0.7483111928299966  0.6705146251341454  0.5055131048041941
  0.4937004825446172  0.4129976380427420  0.1617848247406692
  0.1607372580419421  0.6699841961861599  0.7422559414870656
  0.7414204390455500  0.5816771099733281  0.5892192866548713
  0.6605543914276129  0.7428911811382637  0.1622893153018339
  0.6626580668902107  0.0905210959867189  0.6700979272338262
  0.8269230155624608  0.5858526156721973  0.6700233272131562
  0.8261557900418395  0.3378023497392925  0.7488961151475599
  0.2505261237303001  0.4920330478944453  0.3365238954568122
  0.0030127682892694  0.7513163306523943  0.1695130792576089
  0.3412782838872335  0.5783849344034535  0.8399590648664065
  0.9948546521095261  0.5886148182629417  0.6578682665515440
  0.3378869666458272  0.6727419010682074  0.9303880455595711
  0.0814840083618197  0.3276457742650954  0.4957023754497136
  0.6649187613119877  0.4952391873814547  0.4217001818998517
  0.3266602137697460  0.4998225470809541  0.0803638323672034
  0.3367785655332970  0.5820747811303698  0.3313954906212436
  0.1620457475194951  0.8384089470257703  0.9205247828585440
  0.7458864456749047  0.8400611223859215  0.3373033071426919
  0.5847829799955501  0.5064968823745779  0.9990934729216844
  0.0719311398013622  0.6766889939418587  0.8383613895446448
  0.8343044745866385  0.9122819575663748  0.6724910956504815
  0.4219129602738205  0.6571732706611970  0.4894805945344005
  0.3315799302443562  0.0882627319855011  0.1667080290253195
  0.9982149978273864  0.3224150227636159  0.7546743406077315
  0.3315751340828506  0.7528462684057923  0.3277293121544751
  0.8349806297709793  0.2435462630488906  0.8351697326887239
  0.9842742278066831  0.5847548275842713  0.8399342183104541
  0.8327667495532449  0.2429543874949542  0.4903083544430125
  0.3300873435613114  0.7504591232403290  0.4986507329645083
  0.5837103222513237  0.7551812171163271  0.9175214627803420
  0.5019059647401627  0.1628599205539364  0.5909777033127872
  0.2448196706856846  0.6597256448134385  0.4964814124585689
  0.2416451244510571  0.2539424138030996  0.5816516637344066
  0.2516122417098806  0.6712307971533803  0.8365600527429091
  0.7528337431576484  0.2411164383484893  0.9182007955106309
  0.0838032393585175  0.4176003148868107  0.0797331500333005
  0.4940458514653429  0.3253558304043150  0.2466255842015802
  0.8311638762579862  0.4160597222588951  0.1722613767415638
  0.2505910974027130  0.8327078829324361  0.0066024208375863
  0.4218315832552903  0.6582700966030710  0.6712259515443901
  0.5068464801450957  0.3324739618447620  0.7473741318326143
  0.0737089748630517  0.9971037605950863  0.8343125568707187
  0.3385721058369061  0.6725272582601757  0.7489590387681472
  0.3254150177572533  0.2481647880779670  0.8386631966113148
  0.6646228729875957  0.7524959397610879  0.5022317399070254
  0.1612634502231008  0.8382653712858305  0.7464039793809232
  0.4124277354919243  0.8366817015293664  0.4944210191401077
  0.7495213722337170  0.5075572338906981  0.1701445796079838
  0.9981603427887668  0.4087757798526203  0.6650515297519586
  0.2522908086018720  0.5841465687297078  0.7401952162747560
  0.4950900649459892  0.3346684253576834  0.4182486721951695
  0.5823038171739325  0.4153453458486011  0.5809398183057415
  0.5019741370533651  0.0041867823659074  0.2552589228435392
  0.6633547268200930  0.3293214661622386  0.9174568032418401
  0.8284794016720577  0.6646316900680566  0.9143452573088237
  0.4898069095473077  0.5067221463262411  0.2525292918373711
  0.1578514020977616  0.0840749506246316  0.8263491626177384
  0.8353863013146946  0.5079097264105567  0.0818736031966965
  0.5836583377139974  0.5031080314102073  0.8257763508967302
  0.4167779414002094  0.7473342459934232  0.5807630162331572
  0.0782691813336460  0.9180266113715942  0.5793109468862973
  0.8351184595882816  0.9161813722055895  0.5005690068575583
  0.1582330059110629  0.0806159926873623  0.3344596591003250
  0.8340394258734136  0.9215591165850336  0.3322383328600612
  0.3372670622415214  0.0816413861646298  0.3348871888119188
  0.2402744356128973  0.4125247347244351  0.7497885287465925
  0.7489152978204179  0.9198460082087839  0.0721688199442982
  0.4097810769915081  0.4137337667679223  0.0807678316222231
  0.8304143099915505  0.0757397345524673  0.9960400958043555
  0.7431741733316958  0.8283392575475272  0.6678362695091656
  0.8289888701030907  0.2545239220999911  0.6619759106721596
  0.7525234586692255  0.8350145920155146  0.1593952169484577
  0.7573630978824289  0.4183860726322843  0.9111486095380114
  0.0749722679074839  0.0928604042711250  0.5810024474155967
  0.2480322371651215  0.0801710218170617  0.4227756064903819
  0.7455917018932603  0.4187870880766696  0.0816269896339109
  0.6650283750636182  0.2520924766948344  0.3364301259282025
  0.8312376164206602  0.8327352438058216  0.7547880920168304
  0.4159721017699061  0.3346963501817105  0.8420441715264906
  0.4932343697164334  0.9139876120289211  0.1649621228444346
  0.4908676274678536  0.1606966367616655  0.4136771856151862
  0.3302573923880094  0.9976147974492537  0.0821581165806347
  0.7464389068364936  0.0028863307562158  0.4997767239309808
  0.5778574899669879  0.5041086474820000  0.3417959427820815
  0.9985635577094178  0.4124062473269272  0.1678465481669313
  0.2433576078250625  0.1699511112419960  0.8317667091229884
  0.4107552506117806  0.8317636550755335  0.6777792484753687
  0.4173087217867896  0.2558072708055181  0.5799051716453590
  0.6630654091659048  0.9242840322780655  0.1662102535110024
  0.7445688029483620  0.5777955380084427  0.4158790017802223
  0.2479259346857025  0.0016959533855444  0.9995036738701901
  0.5742520751238763  0.1616644789830551  0.3249178424371706
  0.0838001646383925  0.3280358168671408  0.1694905539694095
  0.8391985615788994  0.0847782448784935  0.6705353935641616
  0.0802661140333414  0.7450105011479526  0.5835930368188501
  0.3251908672144894  0.3322190843624203  0.2493400799595390
  0.0788830211943097  0.2491553207389365  0.9116258211144027
  0.8361148519333884  0.3307277963978074  0.0795546806314545
  0.5746643293871273  0.4144827652070293  0.9138503034614254
  0.0753998409187590  0.5855459621844983  0.7448753694159231
  0.3978957837301981  0.7364371244284657  0.0694692150919432
  0.0816975701886771  0.2410765373680887  0.0848159854907569
  0.4991239829165348  0.9131701954474668  0.6705269661917374
  0.9892566195165524  0.4966786185551333  0.7509838797739349
  0.1579430794755321  0.0847717680153086  0.1639358501675129
  0.4173577707452329  0.4236336891350413  0.7497362972866310
  0.0721317972752047  0.9990425805151169  0.0053377216395595
  0.6691991902480871  0.5076383909279182  0.9130750549304362
  0.7526318837286052  0.2487068970545923  0.2479525715554156
  0.2519907007825652  0.9948118637541357  0.8285360459189474
  0.4181559075395572  0.2444647374331879  0.7494215365420132
  0.7531903401528595  0.1597990181739445  0.3374354197095070
  0.4133758237931395  0.0052556616289883  0.1665788298666902
  0.3244437594847929  0.3324874440257340  0.7487410673795040
  0.4116548537373514  0.9105479491023140  0.0767128184761803
  0.0785790390578385  0.0033005052033173  0.6669219397596409
  0.8362844759975752  0.9192012626210176  0.1624472501360931
  0.1625407562656112  0.1744346757434852  0.4203146837139140
  0.2436076392678886  0.5004664439380430  0.1629127590915183
  0.1584279170450142  0.0894540358740538  0.9967695085812210
  0.4067927240147453  0.9094016795992437  0.2591639001504075
  0.7460276873258571  0.1561999050029167  0.1590981552651866
  0.0860751355533529  0.4951997374755003  0.6589030229346142
  0.9160585567216012  0.5838790118311731  0.4152308497024683
  0.9945859793872724  0.9965150851862951  0.4182956081925726
  0.1609316951698930  0.5866310057936778  0.3288621050541927
  0.5750491655476391  0.2398002994234374  0.9151492518343954
  0.4102516169125342  0.9216536548714845  0.5766990831437204
  0.1627376733242954  0.6686590737903033  0.9272756164305003
  0.4109323275065783  0.5045592015520933  0.9941878547407078
  0.5852726769152832  0.1637348156165655  0.5016857693238503
  0.7438237657141090  0.3302322805496223  0.1679751466625179
  0.9230836814852257  0.7492274608444017  0.2514479578953369
  0.9964521716377464  0.4158636847932742  0.4883317903961230
  0.7404655508467087  0.3291733294509105  0.4940846619885350
  0.8219381834178472  0.4225169108540148  0.4903778000579975
  0.1700477377959660  0.4179363808486452  0.4973383903276934
  0.9102675790504078  0.4171336551031106  0.5829301970021098
  0.0760444400630668  0.6629878396452156  0.4921340160700369
  0.7442865406451866  0.6631491550171202  0.3313558964720817
  0.9986421178358607  0.5837236154836022  0.1647252251243016
  0.8339154543133698  0.1589440077556108  0.0824277329580180
  0.3274103429783237  0.1641305812483834  0.5833967251027650
  0.2424835685775741  0.7510793715685150  0.2466811953541070
  0.9929513379438414  0.8317040415248123  0.5800858760881253
  0.4156419434568862  0.5706380861254677  0.5802303023133492
  0.1672992894330486  0.0012738705653630  0.5808620239280355
  0.0791988951515823  0.9965419662140345  0.3305608116279510
  0.4068220009179794  0.0076748674152782  0.6672443609786048
  0.0035057426773532  0.9219952176966619  0.1668449091389382
  0.6623166938358911  0.1611944737875191  0.2440038555420271
  0.3369129315260436  0.0883764225933492  0.9929159188880524
  0.8318725405644644  0.8406394849595327  0.9969582934074278
  0.9156212136369469  0.8350878791748421  0.0822917588527695
  0.5001929283639047  0.9989371018090255  0.9969328685112929
  0.9134315583022803  0.7514302507044227  0.4982089266181650
  0.8327399723852937  0.5866064549667706  0.5792205685240198
  0.2436965292586923  0.6633315793134918  0.2463371760955630
  0.9937087880309595  0.7524363645201216  0.7503158315203020
  0.0751304997977268  0.8373171271985785  0.9200807920696770
  0.9099767911250828  0.7526962564326460  0.8287112594505083
  0.9164829682788143  0.9157033703101405  0.9991916096084670
  0.9136961399430645  0.7488589146695875  0.6677578418751399
  0.9958483525731306  0.9169310965515040  0.9170428636658283
  0.9091131666376545  0.6690133184560999  0.7494987920858259
  0.8394348577280184  0.8284200500237866  0.1657705945968370
  0.1614274007148810  0.6651707135766012  0.4965050170675627
  0.9110768672381945  0.6723099119273755  0.4170387929544048
  0.8323889528118575  0.9175044209722427  0.9139976638533455
  0.2469151807614493  0.8321451256646346  0.5857460893419982
  0.2473524558150086  0.7501249229275059  0.6654923782171742
  0.2474114826047180  0.7477122297876689  0.0044884257951244
  0.9966168846537217  0.6699079127633085  0.0054129189852827
  0.1655112595725143  0.6643984712138837  0.6578170176382516
  0.8287865896316333  0.4990491244085589  0.8331066752108286
  0.2405440360616109  0.8354943179627178  0.0915686627616666
  0.1612554418397927  0.9188722050903610  0.0840387913829715
  0.3328584401141139  0.8361480468971304  0.8339443521983199
  0.2491874556770658  0.7578770685224999  0.8359169210557754
  0.9144959136915199  0.6678756259764512  0.0828268016813561
  0.2497829493738363  0.6695347994715117  0.9280306708300863
  0.2482727206624419  0.6666992659346823  0.0824875121750609
  0.8330431248204262  0.6681825842734183  0.1662789888374063
  0.8339530838111565  0.6681159845967697  0.3338687846339897
  0.9149543518913017  0.9175353169297233  0.8333642234384377
  0.1614180983962855  0.7527976686136253  0.9206923646125300
  0.9165670752508743  0.9996629147605701  0.0828340276162439
  0.6678626499770629  0.4166914058136858  0.2526807607946547
  0.9197135016787472  0.2474629798224252  0.8320404936712708
  0.9104975607830693  0.5868860428533341  0.6637316306558954
  0.1571237188424291  0.7516599563091636  0.2486543176810398
  0.1678148825577559  0.4913917363033322  0.8348169537753479
  0.2395730057595203  0.7482170647415912  0.1625787229485249
  0.9177670945303779  0.8373410517995615  0.2504158710055674
  0.9207693006917379  0.9166574234103610  0.4980871586503027
  0.2445129074758395  0.4977145698243317  0.9197046736750495
  0.8277391813013388  0.7462516286343551  0.7515995234502272
  0.1624113035164989  0.7509673015294810  0.0837279617567749
  0.9201866281606560  0.9158748586108828  0.6685396604908809
  0.1643235787041075  0.8367142182392036  0.3331721261904240
  0.9949111903119494  0.9166016707664525  0.7514271234577633
  0.9144034689564486  0.8326770510998424  0.4164026666867928
  0.9938709059190555  0.0026852250107074  0.5036160740416781
  0.3279061708881201  0.7495808226105107  0.4125162523120601
  0.3292311619006951  0.6649508282359939  0.1636849337219298
  0.7516392106730045  0.4166984576473173  0.9978801772656194
  0.6592294180543793  0.4162215189543240  0.0813556638627528