Cr  N Ni 
 1.0000000000000000
    21.1326370199527886    0.0000000000000000    0.0000000000000000
     0.0000000000000000   21.1326370199527886    0.0000000000000000
     0.0000000000000000    0.0000000000000000   21.1326370199527886
 Cr  N   Ni 
 259 173 605
Direct
  0.4915378680012754  0.4212884796705902  0.5818332655854836
  0.7516181423929432  0.2450123518751643  0.3362955891012055
  0.6649362254814800  0.8331747819308738  0.1631867209556023
  0.9162996568236044  0.1626327160995747  0.2474746219202679
  0.8334413045221305  0.2439386243380225  0.5781048128194095
  0.4141508979121529  0.0032883162214889  0.5812330337047920
  0.8346269279680283  0.8367165498716777  0.3326722591483385
  0.8318585721507011  0.8250532804672401  0.6635686301690039
  0.6529494811275273  0.7499431393920079  0.9156736362697482
  0.8347590912838881  0.2417699036807401  0.9200426464063473
  0.4149302138349226  0.9150934104032342  0.3459933798855395
  0.8314854685438272  0.5031682055666318  0.1714806373502112
  0.9132479457157509  0.9215703185615414  0.1658136006247355
  0.5833291579184241  0.1600730720341492  0.4158808556435372
  0.6633038439584149  0.1578475883692717  0.3332048885239102
  0.8355153679922536  0.9910114294457563  0.9961122722076604
  0.8321221589614909  0.1557602623920347  0.8311365039308759
  0.6639122944887372  0.5021427571643698  0.3350869770400720
  0.4177294635397261  0.0014364862511240  0.0794279033265911
  0.2430703799560554  0.8336336990967468  0.0882862571915687
  0.3361237861873050  0.9986988259835798  0.9952195756332591
  0.8363902977952172  0.3257895443773024  0.1715257022835367
  0.8317272200797240  0.0059877672466773  0.4994137487950546
  0.3211554422410746  0.0023319456283512  0.1724321660751857
  0.1646840081125201  0.6695158248543736  0.0109634175687166
  0.7508609578648872  0.8348729098106099  0.0735831926394881
  0.8354298687404600  0.9170573926263681  0.5838945921236885
  0.6631347665714807  0.4154852743891486  0.9141488054977828
  0.7419745139561064  0.8359466864292407  0.7562519488504247
  0.8406377725250967  0.4171204269644417  0.0789256635903862
  0.4960934352543042  0.1638135233486882  0.5024381529656481
  0.2494575008204920  0.5819781691693627  0.8355986055843228
  0.0842922133793162  0.5821274919903823  0.6557912245793149
  0.8302761693352690  0.4173429181185510  0.5799291677593066
  0.4167463435887501  0.0739288132543483  0.8340914523939839
  0.9962677538123256  0.7456199814986249  0.5807425139548849
  0.4143485869962741  0.1627862675298571  0.5860583834595701
  0.7487189158162131  0.8372820951886523  0.2493204709316267
  0.6603433082683356  0.6654790910613281  0.9998087436064775
  0.9227678366828679  0.9179029302751747  0.3347981664432584
  0.7467838537367872  0.5806330614383398  0.3314903851867014
  0.6631503670016019  0.8400163020629854  0.5004294965733477
  0.7541368545852443  0.4899930174511499  0.4214943073829981
  0.8297163121934972  0.9241214838286589  0.7578767893399824
  0.1670869970150771  0.5826832027518113  0.7444618323668536
  0.8241631614095227  0.7595879913573196  0.9157019264822919
  0.4859425109957670  0.5085876236736525  0.3466105411515412
  0.3325581417952689  0.5021348784530080  0.1713162263581764
  0.2499996108966917  0.1727452606087177  0.2429378460224629
  0.3318484583269344  0.2442911672743572  0.2473886105912688
  0.7382993191383064  0.4135557485262664  0.5008336596778922
  0.3304847667893124  0.1736071855710512  0.0000932009611066
  0.7406336419027115  0.5084276838947103  0.9134971916369401
  0.7460401786183986  0.5853988931446481  0.5031951001471793
  0.7464587118957858  0.7547871216553529  0.3378423216732246
  0.7484375709496425  0.6613660480740440  0.2452583368682499
  0.5797345449540185  0.8347704318570377  0.7544831274362986
  0.7453648536961327  0.6734032874791313  0.5915244065463999
  0.2470973939257068  0.9977833230516095  0.7417720973805214
  0.7540236438075575  0.9231121443627537  0.1648633812170816
  0.8313229598280042  0.3313203056241288  0.4941908762011715
  0.9901649828130836  0.5000256413475133  0.3323830014652923
  0.1690826293292849  0.7501017224993318  0.5820368167429759
  0.4126111137203467  0.9164480155935958  0.6695744191821353
  0.7425813698573035  0.9157095032854424  0.6667579169323590
  0.5845663490231872  0.4149029703726237  0.8228708001362850
  0.5800235696737672  0.5039235374902611  0.0829058528420803
  0.9134228090219051  0.5837037614930775  0.3303866673701850
  0.5867444464667722  0.0832136527802648  0.1620619825618866
  0.0748663877365991  0.5843693036003161  0.8357147823661532
  0.2503130347260103  0.4979312572915848  0.7485522144703315
  0.1625899014635700  0.4056153867670891  0.7531473982577462
  0.2483896347801696  0.5832599899189689  0.4967085843307040
  0.9094725604362839  0.4128601703207161  0.4916728219684349
  0.8231663726496291  0.4169223118688859  0.7503062965466157
  0.9135656930245992  0.5884712820135261  0.5018481461417987
  0.1635332558123253  0.8387595287076612  0.8255101567245482
  0.2392121388321518  0.7480444373068071  0.4963455222426528
  0.7442418486409951  0.5078605058736310  0.0816289090824900
  0.8378272394989607  0.5006892062545235  0.3278701767861333
  0.2573748916422389  0.0749259908532122  0.3214427833957941
  0.7410785066430948  0.5850309267146786  0.6757224876770416
  0.8354348776562853  0.6631497941647712  0.3320511267975805
  0.0853377907008456  0.4941159891666117  0.9226271958158190
  0.9136794825499226  0.7499825789949072  0.1619539994777212
  0.9962620666250891  0.7566643120627816  0.9179242251484043
  0.7476383068114566  0.7453480330181320  0.1610666616856067
  0.8296181521854239  0.6688827628045029  0.0036008418587627
  0.9131776293542677  0.5031066690414019  0.9192596390612993
  0.9155061861224805  0.6679654124249416  0.9203549640956199
  0.1601075495685483  0.9976758799011380  0.9991660616351412
  0.0864288485600765  0.7530782154196367  0.1641599193998077
  0.1569926712578225  0.0807186203795345  0.2492394682911727
  0.1562970654591649  0.8357364476685101  0.4957904898034536
  0.8296799851208824  0.6738943825480181  0.6672133950117687
  0.2507665937814292  0.6737329370434557  0.7453761970274611
  0.5810911842072694  0.4160858012657212  0.9966339816245464
  0.7478620290921358  0.3306099444256972  0.9159840135932882
  0.5821890013707575  0.5038036288466063  0.2544547557274804
  0.4939077633111896  0.4214345299446755  0.4186795446797134
  0.3381085032337677  0.6710023310008213  0.8343578884934465
  0.3300069573863052  0.5810332499665566  0.9223480848749678
  0.3316649617357266  0.7574222164349320  0.9173145384940364
  0.7464519644615975  0.9290544001660940  0.3345904532431386
  0.4091083145505888  0.0054858290413205  0.2554195658996452
  0.3364948547833460  0.4989558682706674  0.3335106260270582
  0.4151177621455974  0.1668935140003532  0.7473251127427438
  0.4159755117606355  0.3325635947567175  0.7474464208029016
  0.4968151057631254  0.3239398145541991  0.1576265581462138
  0.6615640531536338  0.2454471948467060  0.2444554268266651
  0.4926860095572335  0.5038163696518341  0.1653445423512026
  0.4919134972584797  0.4177711170585433  0.2532413709478717
  0.4164068211804057  0.7497489221911773  0.4948664203074675
  0.4140942476796103  0.6605128876452292  0.5844114199341887
  0.3228631118902754  0.7512656394106747  0.5858078836139190
  0.5030116630144656  0.2481505571581516  0.5867723941920722
  0.4184316279206246  0.5708170161476986  0.6623197505685977
  0.7474882454621170  0.1561886452090705  0.9143743510274189
  0.5785378002046886  0.5009690681107453  0.4274621720633436
  0.3316024768035147  0.9159492161468445  0.4240362853388567
  0.4989792363183431  0.6705613606300320  0.6667061024092539
  0.5887125735114083  0.3309534726315017  0.7474789917433697
  0.4967073996718487  0.5034202079426033  0.9997837041490538
  0.1602812615324432  0.4964294405443371  0.1658670060356592
  0.5748230405860992  0.3269337394183139  0.9218890577835263
  0.3293873499292399  0.7460870577372162  0.2412770920899802
  0.9225171148369556  0.7544342490842295  0.3355253685822083
  0.2423299742771956  0.7524206479789389  0.3348398639809372
  0.2539746992101979  0.8377968882494218  0.9154638859695272
  0.8309091524830350  0.2488595017590892  0.7482435185774712
  0.6652423537048008  0.9981934358153546  0.6679843853065977
  0.2461011090944250  0.4971827541464838  0.2494000877458755
  0.2536891509371974  0.4169832082438138  0.4984840960215879
  0.3258895616863224  0.4986187157944558  0.9952662572707862
  0.5017658488316181  0.8321933307181881  0.6711013869558191
  0.3313902689743510  0.6694627933340519  0.0121743004314242
  0.8286269172372367  0.1631053684619138  0.9997378759917390
  0.3191991303360857  0.9205285613097000  0.2505657307678170
  0.7491287149768703  0.1551917594891054  0.2471883603748342
  0.7456162898377854  0.1592155887991027  0.0740395395481493
  0.4083634902833845  0.3319442558756499  0.4146537163301344
  0.8358833578141970  0.2478072499418658  0.4051052353998618
  0.7480616444882583  0.9969996438616140  0.7589736642995034
  0.4141434349496566  0.8342551372066001  0.5850520947425519
  0.7471695196231832  0.2440694250607292  0.1617337074118101
  0.3299025167127370  0.7479790935077045  0.4135328974124148
  0.2494015197172023  0.8346041660110536  0.7492412096707202
  0.5802235715593211  0.0012251050227387  0.9149882348641133
  0.5015725369749786  0.1656517626883940  0.6775212377455048
  0.5046307263525666  0.7526285845345482  0.9167541865911940
  0.7436896226684434  0.2480303883106680  0.6668255428374580
  0.4965147323418455  0.1768795166376294  0.1609501084278654
  0.5769479475630989  0.0834446780020885  0.6696728703452082
  0.4909865657471906  0.1674267596259116  0.3297047321771997
  0.4974447879095443  0.2414765678561856  0.2463765980642530
  0.4166640634057353  0.8288999646051620  0.0790174811248367
  0.5078951188062428  0.1650656517893214  0.8323788565667086
  0.5791666690451615  0.1546296847004749  0.9162209136328145
  0.4167928896664834  0.2482968692228142  0.8351674367361061
  0.1633256340007582  0.3275354177075049  0.4990156878081660
  0.4945879753610616  0.4164409494511113  0.0751301775271989
  0.5761699396813771  0.7460840858763375  0.3349619729245298
  0.3278288972897034  0.3366298775730121  0.8363439395433169
  0.3230010173388906  0.4105637565111939  0.0806260863342867
  0.3321618884188673  0.4170916156013408  0.7481673427669843
  0.5804151554635749  0.9955854637834015  0.5843859323127235
  0.5811944861502053  0.5016132288204433  0.7396213235054737
  0.4156178476916521  0.5768924834902638  0.4894993772192826
  0.4108078954697549  0.3305966811084353  0.2503764548293030
  0.6623645832373223  0.2400939913512182  0.9170446820806877
  0.7452433110241620  0.3273712686890792  0.0780472151028591
  0.5865174344463633  0.4181851534462788  0.1687493976472507
  0.5738741164085823  0.7412174995416128  0.1665842562249452
  0.7415923829502051  0.4202171780366923  0.1721533240208802
  0.5811519477890785  0.5048291256373323  0.5849112834741305
  0.7439032609012294  0.2423450923770566  0.4987986529215099
  0.2518994708984732  0.5856132415425225  0.3310008718262578
  0.6617299621093682  0.4161450470598171  0.5893043186978678
  0.3289115081336530  0.4923664889210554  0.8353575768028872
  0.4949669395318942  0.9976881741734640  0.6717833289945939
  0.4966982551111052  0.9169983660901025  0.2570411792970457
  0.3458607964649247  0.5927298584426138  0.7429775247922390
  0.4919849668856197  0.8268022175166676  0.1678486937901207
  0.5819132447758320  0.5025686708342538  0.9126334641967271
  0.5022912926163149  0.7512745647024861  0.5889338941924568
  0.5786748955140015  0.5911099813035042  0.8360060776901677
  0.4134075277208775  0.7446198918657438  0.6732872655071833
  0.3283977052183840  0.2497414387442734  0.5861888478579703
  0.4054845969155310  0.9157568996231755  0.1687568000923304
  0.6685585655697565  0.9970287681203370  0.5009372801519122
  0.5826976438129645  0.9187476008424301  0.1620171658127697
  0.7491273609045090  0.0900766740173786  0.6677522946471505
  0.4179888396191709  0.5039172604993025  0.0861775549114151
  0.7411591210864985  0.0787534478851480  0.9956086235099648
  0.4131640895938141  0.4216577751896420  0.8354157457615550
  0.5796329975149862  0.9075673971184990  0.6700936813243884
  0.0785984952607947  0.9131992017626585  0.6716787571107653
  0.0777973215076278  0.2421804580545217  0.1670129635309620
  0.2469045017938817  0.0902705354750686  0.9985791376723544
  0.3406470080873605  0.0813796337647519  0.4219079149712430
  0.9949974465563032  0.5040861270149873  0.4900566750370182
  0.9159476109483279  0.4135524444909808  0.6657656821385762
  0.0846735866973683  0.9154830183135475  0.1660049676534154
  0.1595424400826936  0.9954288323700855  0.8292371673864227
  0.9978826371474614  0.3279676074533389  0.8283059347833903
  0.2405111225778594  0.3323295489523613  0.2488951304407052
  0.5015903300985194  0.0032877512803223  0.1656467786291995
  0.0861114455084729  0.4163807029835721  0.1673502425674322
  0.0778301442331691  0.1683465079342601  0.4139514168882367
  0.1578098763339943  0.9944395121548730  0.1654381081110128
  0.0752060443196598  0.1761584506818891  0.5856178547042765
  0.1633057976825863  0.4963370517408354  0.3320647449023764
  0.8360507152193233  0.0099704457406356  0.3302214899630598
  0.0795207143334034  0.5860356959367125  0.1638328720753147
  0.2423011783021013  0.1635376401207605  0.5870897595760114
  0.8402101217099024  0.0002148274099594  0.6653913107811691
  0.8364322108534394  0.4159936796274217  0.9148545223117167
  0.0761599678816633  0.4063093798571850  0.6652262538519319
  0.2527979459632112  0.1665435631174333  0.4163691210650884
  0.9878278023524093  0.9972047903355830  0.9973002800379700
  0.4090636137401768  0.3383318463522729  0.5840693102128588
  0.9177108731842389  0.8339945670567793  0.7514211328785989
  0.9954368344449398  0.4162411915405190  0.0795089865984583
  0.2502244971571079  0.9991389218124463  0.5845567282782276
  0.0829539054849815  0.3293818394226340  0.0796035168812011
  0.2467219561530935  0.2500949891781440  0.9984620050298599
  0.2487681777300398  0.9979589620864631  0.9127658698420872
  0.0768664235218294  0.8432514590175095  0.9159382164170653
  0.0041042423175668  0.4110865428070786  0.5814748617358440
  0.2475647177873327  0.0819936177555560  0.8304576693797521
  0.3313648611931672  0.2435796379157567  0.7459229214673669
  0.1665115689517647  0.0811418259778024  0.4214806926968823
  0.9177698398352697  0.9181498624791525  0.9964210529202643
  0.1577494363111942  0.1704985064613327  0.8309163042490718
  0.1605467362842906  0.1690958486327239  0.3318864873873100
  0.9948189222803150  0.5888052150323828  0.5736238014706052
  0.9902546206361833  0.9189419472744893  0.5807913882057246
  0.0770076542725349  0.4971630874622228  0.7502312007168834
  0.8284120946909076  0.6675003222862865  0.8274381854316021
  0.0768602430224408  0.0034013394464613  0.5820566376590973
  0.0837317580295732  0.8313029182103129  0.5808994717946027
  0.0747942056865417  0.0877403810426209  0.6728628914589505
  0.9867923046186772  0.5872434464225246  0.7515651373255599
  0.9990127726867467  0.2410300745471299  0.9141963970386691
  0.0699759956494527  0.0839052802894082  0.8317703155257657
  0.0750824939222901  0.9937919449477248  0.4142962497850588
  0.3318906489131274  0.1608657538442572  0.8334599975988570
  0.9920787712605061  0.4963613438646006  0.6643112510659984
  0.9947745320392282  0.9980285993307153  0.3311246812558655
  0.9173529854397116  0.1623816610866352  0.0873167243882441
  0.9958012961697877  0.5006212477527234  0.1677787695075896
  0.0806633777411561  0.6689183775782622  0.4192065235529253
  0.1638644745175359  0.1704430243925764  0.1595212235910950
  0.1631569833235830  0.6733068398838704  0.8342096060940766
  0.0824002464962340  0.4143033599364647  0.4909758668516813
  0.0721206947613012  0.6690629337260022  0.9228485205924978
  0.9157171407861097  0.7548195541091435  0.0042917955566133
  0.0730673402406560  0.0849056098306375  0.9955642364524742
  0.0771241804663959  0.6753324283855648  0.7481113681907413
  0.0821033468277266  0.4919481153011803  0.8375382558802102
  0.5840040355199767  0.5092071795731394  0.1683516237330260
  0.8274778116196614  0.7594636969605388  0.0049747701521316
  0.5818175437933506  0.9946481236531750  0.4981264188940344
  0.9908548973202754  0.1695966675198352  0.4161507083488956
  0.0748791987437294  0.4953318693152701  0.3322474759272858
  0.1634481338049706  0.5817776625481205  0.8373410911033533
  0.4221656683745240  0.1594477254014030  0.8364499684698300
  0.2531451683775501  0.1663021887933583  0.3290758748499649
  0.5777143188498649  0.8291119400145434  0.1633531053173128
  0.5754564656358210  0.8333908458198659  0.3369603978521220
  0.7526926678095217  0.0031292629227274  0.6710859090402833
  0.5798191026069599  0.9944183695542156  0.6741875621037602
  0.0777483890293730  0.6720070581407114  0.3335018339584117
  0.5799689552662759  0.5898841165941340  0.7480093227906242
  0.9076422677430787  0.4125947619461227  0.7517969859738238
  0.5823059492106513  0.4133885416223144  0.2561307504949019
  0.2414822497924995  0.8355549375391830  0.4999361443930048
  0.0786889845164361  0.5810926360810886  0.9247641424763453
  0.7440524032132082  0.7490230213179517  0.2489651746330878
  0.2522125358382154  0.4949648677425607  0.3366490980165338
  0.4946569491148645  0.4134556803637112  0.1640099762383362
  0.1636755622729377  0.6754381317419107  0.7409431623125322
  0.8343992138559879  0.9125663014703774  0.6715205638905244
  0.7415185726897963  0.5859679259735523  0.5905366866574598
  0.6601048697990833  0.7419670011667698  0.1657109090354527
  0.6620151715196124  0.0886081775079846  0.6686299260351337
  0.8270771016715305  0.5868180489688676  0.6710843493358980
  0.9154727614872882  0.1665326120372267  0.0013384009287312
  0.0015240299946888  0.7524547716736669  0.1638821231302975
  0.7490886011389705  0.6725771016625943  0.5058578365731754
  0.9950113084832978  0.5899975417413214  0.6616981216102485
  0.3365870133799658  0.6690365038599784  0.9262671801047547
  0.0763692993980146  0.3274077440252922  0.4945686312931812
  0.6654773178329002  0.4945967791877947  0.4237148886856870
  0.3277478790194143  0.5004875262327371  0.0831819386828747
  0.4343601812053459  0.5628521687592267  0.3999159389785453
  0.1662067347592273  0.8398972500748755  0.9124358373972621
  0.7445783768826534  0.8435516127000144  0.3391867503294982
  0.5848702893991624  0.5076478863748585  0.9974688341585445
  0.3416151938471443  0.5803429376347099  0.8345373851343416
  0.9114551586099887  0.7579436768388992  0.9141584406612671
  0.7523859251767643  0.4916834337538780  0.3293780664055627
  0.4961831462644422  0.3349331340380090  0.4149274387772579
  0.1650832484142272  0.4066628157134413  0.6664307990997833
  0.3331514849505609  0.7479359250801451  0.3266224403626646
  0.8316795043495596  0.2416654417758533  0.8330297878392672
  0.8266331751698487  0.5040882390106604  0.9143775122240658
  0.8359451721027060  0.9254935475723616  0.3307762618194220
  0.3268855727861085  0.7485867727399727  0.4999425550663616
  0.4911782660674553  0.5071482250960803  0.2574277033448127
  0.3274974555198384  0.1604051318951947  0.5839937647519731
  0.9977599883044636  0.5010735526216179  0.5750984730196093
  0.1561835902442935  0.0827126652597222  0.8264850715421058
  0.0837708783004452  0.4184742639562061  0.0777788901476378
  0.8324422965551049  0.5080978926132480  0.0856019305193119
  0.4069435763483547  0.6535816777514301  0.6800862670233736
  0.2507623897601497  0.8325137373193219  0.0032770695392449
  0.4134100259389591  0.7475869456576019  0.5842206029607560
  0.9979070523082720  0.4966899866891792  0.9227252926965888
  0.2517682017925444  0.6733619930210029  0.8339371876391384
  0.8324775267540299  0.9186411598219256  0.4994681649265064
  0.4977641613706900  0.3268107468332781  0.2455713419996359
  0.2568403288781696  0.5863557688772051  0.7400065618710794
  0.5040301975959339  0.3348789586666237  0.7518258099997644
  0.8300210825971083  0.4158123881269704  0.1715149734608273
  0.5766493012596297  0.4183228248280718  0.5831300489673592
  0.4996948975432468  0.0044949827288873  0.2577220103269905
  0.6618440651136021  0.7562529207622934  0.5036383475859022
  0.3276216008307198  0.2486287055114440  0.8346286741405310
  0.8322977754852056  0.2413817078478373  0.4895515238662396
  0.7358587952724419  0.7590968094180607  0.9121348290888108
  0.2409537637783505  0.2493208301086551  0.5860988417218040
  0.7482122295116589  0.2409209347728934  0.9169837397006858
  0.5009735409091903  0.0923604332512541  0.1612039654915698
  0.3394099950666020  0.5039474062407688  0.7424566590025203
  0.8261758157701989  0.6706415794859065  0.9141834868083757
  0.6604049132405164  0.3276529458872582  0.9137648421243014
  0.5823284609774452  0.5030725698897495  0.8247210951795361
  0.4192397814767324  0.7568571534581808  0.9192559810396173
  0.0793565744624406  0.9169059032945203  0.5824727830498604
  0.3211083937380046  0.9170207268589049  0.3398125546554822
  0.4206128988221962  0.6625296057740854  0.4942270977055846
  0.6642463405909490  0.8330133428830067  0.0723822459132483
  0.7461691637135857  0.4149471257421256  0.5900724518218911
  0.4123858273824532  0.8307277742934499  0.6763287825523076
  0.0719990856008879  0.6755941020890749  0.8345722630183321
  0.1626652646989786  0.6664254105521771  0.9261589770837108
  0.4079977446196116  0.4103436337931236  0.0815766382349926
  0.7515669712956827  0.2452307325251253  0.2492130503888950
  0.8281335147212520  0.0758253860369393  0.9986036915670120
  0.7428786348997624  0.8287567815564318  0.6670622430861993
  0.8317882707266786  0.2543245134943976  0.6621661122759086
  0.7575237536684570  0.8337914542588306  0.1614386068888695
  0.7486805047897022  0.4209704555503037  0.9112610973816605
  0.2562552460318827  0.0770836003885794  0.4165087042329866
  0.7501581049095644  0.4189982459949985  0.0830058370238302
  0.4159103699192696  0.2511767178135371  0.5827870675621492
  0.8306865771667374  0.8332041949405145  0.7544649743851425
  0.4176439884752345  0.3367355418907954  0.8384733368265945
  0.4951104320713519  0.9146049067740954  0.1657521473541744
  0.4930820301829629  0.1620930678618388  0.4156155241095849
  0.3279708453821932  0.0021565462025718  0.0850473974326408
  0.4030692483463236  0.8240247417034169  0.1653632979666334
  0.5744421649202500  0.5070378860171934  0.3427834212563635
  0.9982131307806980  0.4127476038112464  0.1678288306025577
  0.2440148164879487  0.1693375525970827  0.8309642711230129
  0.6628092240077766  0.2481486947906617  0.3328486810871349
  0.0750088192132077  0.0922917584767796  0.5858279279291250
  0.5723878461074624  0.4141281383640000  0.9080380054840894
  0.0770010056336430  0.0791886612799870  0.4161529028616937
  0.0045890342272961  0.3262699244892124  0.9154829148438901
  0.5760675501337521  0.1586212240947663  0.3254778020103849
  0.8380698459938428  0.0859379085402697  0.6669137785525575
  0.0834791812117786  0.7429595217702626  0.5844987744599417
  0.2476424999206051  0.0021287533596774  0.9998672643891965
  0.3245797626121918  0.3318487044503668  0.2469638125455821
  0.5827449663322329  0.4093708333602422  0.0817787328323914
  0.6680488096324291  0.9235949917721842  0.1692643728544003
  0.9873705988461356  0.4981769741081064  0.7507229860488122
  0.1650996084513248  0.5854866939261772  0.1624495573414045
  0.0805751143139646  0.2420012302103657  0.0789818975098038
  0.3126651934999803  0.0188649414214049  0.2656626154200163
  0.1609784110425636  0.0812884647181424  0.1626509030922599
  0.1581538389392812  0.1709390034836193  0.2447053021116245
  0.7434290381323525  0.5794710527107003  0.4180056653626107
  0.8358687201687472  0.3292579481369767  0.9143730349129559
  0.0725870021689411  0.9972322765169864  0.9980151322034450
  0.0759843171068666  0.5875171896300452  0.7441446268255482
  0.2499795523891588  0.9943406529885592  0.8259603141267322
  0.0844202684576413  0.3277441121294801  0.1697691656811068
  0.8365133039315006  0.7493993198919183  0.3394090260852575
  0.1661602195283877  0.1720507237781671  0.4228402533753434
  0.2461910607043409  0.4965543558165347  0.1633784538857118
  0.1586814650392881  0.0892935956854687  0.9961997090707999
  0.5857000830571606  0.1670049254481290  0.5020466333053628
  0.9201281846505496  0.7507575570961370  0.2486686254003301
  0.0825167639327249  0.7577858950384546  0.9193420368743368
  0.8351865659914547  0.3275574059783827  0.0842874428257669
  0.2418572336831418  0.7508927541030858  0.2468706468082011
  0.1669472138920015  0.9999951242825854  0.5790631113892458
  0.5034941756454681  0.1591147106091514  0.5922898115314087
  0.4114106804680748  0.5037809751894217  0.9957192646675412
  0.4077581061735525  0.9135737025359524  0.2590373659120130
  0.7455154235058542  0.3322953642464618  0.1672313341519544
  0.1666336512253433  0.5845438279856964  0.3345300701570831
  0.4098159036068928  0.0089353775420304  0.1675956691396642
  0.4106707723829731  0.9193905419055844  0.5787126560787967
  0.3255439970759936  0.3306003044389634  0.7464375734209197
  0.9917563977098559  0.5852282796614102  0.1654093241191171
  0.9956852629024465  0.4152743272940815  0.4884523563756191
  0.9989338123315457  0.9224650281192154  0.1664155938953499
  0.7521554306911109  0.1558803750477012  0.3356018763188422
  0.7536487896562464  0.9217470202757631  0.0753796267316517
  0.0766657784097647  0.0006074549254726  0.6720847174742813
  0.7407348966625819  0.3274473164533921  0.4934101054177411
  0.8223518500035375  0.4249916153432035  0.4849264628622132
  0.1686676323572525  0.4192776160814293  0.4955590373404544
  0.9168545283599844  0.4134152782432902  0.5792174454240038
  0.7503064065903645  0.1561171539960981  0.1586757272236044
  0.7449130951835755  0.6667792199359824  0.3336183406402726
  0.4135836542444068  0.9143186726730937  0.0758720614882018
  0.0827267642917531  0.4934987012202618  0.6586062035351956
  0.1655197784877665  0.4919676982979890  0.7485304986701332
  0.9169814669782063  0.5855481498885593  0.4162311884147379
  0.4086905997524811  0.0045573911026861  0.6691715343595401
  0.1672557886753153  0.0774793816017763  0.3342864941945158
  0.2507956612663680  0.3308494808385462  0.4963992439697467
  0.3366606810537584  0.0881796151105534  0.9977498449438833
  0.4983003559932793  0.3351391295779539  0.5834190657342282
  0.5726396564464792  0.2391869142582057  0.9144157895978551
  0.9931765854566530  0.8315799226912634  0.5807471080404426
  0.4146421289852714  0.5723525107812863  0.5765886186898934
  0.9148603025877632  0.7497566647858962  0.6675178262856353
  0.9117466915793442  0.6699305162244572  0.7498139409187587
  0.8324803273900735  0.8458566567584556  0.9960011584708326
  0.9155020970738442  0.8367895029489559  0.0813132581485625
  0.5000827845272259  0.9999956677471278  0.9960079139680900
  0.9163202396598918  0.7517936585460328  0.4997828323809492
  0.8328772223693902  0.5888617076934393  0.5802967070211759
  0.8421073820869693  0.8361381609046680  0.1652505653165842
  0.1651340484865743  0.6665237512711185  0.4967185424589276
  0.9154106624875477  0.8435017366403591  0.9143870779900037
  0.2460147411291067  0.6634597156462153  0.2463545209317443
  0.9121477925074790  0.7518121987339751  0.8284544244666208
  0.9948272855510847  0.7533662318468233  0.7501256059783736
  0.8395460197608510  0.9196659886014928  0.0822999614907502
  0.9966490531473028  0.9191816570029469  0.9129213694355369
  0.9156653419000902  0.6737180946468069  0.4173161882731317
  0.2518793892294797  0.5877777501248866  0.1635369264227924
  0.2456265861259005  0.8330372405512961  0.5866137655401680
  0.2454394772049469  0.7522346414854628  0.6663227861163736
  0.1639646760104254  0.5852495277109537  0.4200870051986398
  0.9942713145276210  0.6700968012564943  0.0028541779673157
  0.1643027645123538  0.6658861514464067  0.6561533115444607
  0.8268623593121565  0.5008897730626052  0.8281409547988322
  0.1599525015465458  0.8352070118425786  0.0026964731770672
  0.1608491428345138  0.9159585019030648  0.0826903845408354
  0.3322842422055041  0.8360272869345752  0.8319297910858606
  0.2508207640280433  0.7592650286072558  0.8327460896633779
  0.9138097557825264  0.6693219709559523  0.0828381575901797
  0.2491039528310685  0.6673246616857281  0.9264821994170189
  0.1636145832602864  0.5833071686675130  0.2483811791575846
  0.8308036542693045  0.6673717869920577  0.1654492840744743
  0.8322950598692260  0.7506157342194689  0.2444361221936386
  0.9097321857792572  0.5862906921705223  0.8344377586600508
  0.1729871392097637  0.7534362615346417  0.9184929116218583
  0.8318690270976100  0.7494251967113902  0.5834647904000630
  0.9184712113783250  0.2464565763395499  0.8318888287859404
  0.8315802310007365  0.9217279902600098  0.9121924306857385
  0.2477791618563794  0.6674256125355064  0.0845428917758742
  0.4130449213954202  0.5862630245499614  0.1670546976888817
  0.9148474104438925  0.9192780365274031  0.8318442778012369
  0.1640518428341222  0.5821833523073151  0.0766786706174239
  0.9155945641076149  0.0002558231354014  0.0825375785424014
  0.2502737731991171  0.5836087983581441  0.0042952705295110
  0.8335988946526651  0.9196269779536335  0.2441465559252373
  0.1668770765821824  0.4112952013394945  0.9171462051599729
  0.2476961257383108  0.5849289997638024  0.6550692825280036
  0.2502062417335991  0.4156660059533324  0.6650912970741977
  0.2459115569177446  0.6661280794054338  0.5781530170326643
  0.2479842995920963  0.4992758215829394  0.5764537210517133
  0.1668744049468476  0.5837727263245797  0.5746298616494294
  0.1660022511803937  0.5047932756411504  0.4954840758754787
  0.3290708465874945  0.5858776657204463  0.2464876427703781
  0.0801540475919720  0.4996300516592749  0.2446807980862531
  0.1624016782095393  0.9254124531550612  0.9143342512194649
  0.3351930257560918  0.3299918518950438  0.4989603131358034