Cr  N Ni 
 1.0000000000000000
    21.1326370199527886    0.0000000000000000    0.0000000000000000
     0.0000000000000000   21.1326370199527886    0.0000000000000000
     0.0000000000000000    0.0000000000000000   21.1326370199527886
 Cr  N   Ni 
 259 173 605
Direct
  0.4959466301301206  0.4156871923355768  0.5807060013179144
  0.4143414974533443  0.5758990664292394  0.4940090054649574
  0.4977104828122443  0.3286623603298335  0.1578707659541655
  0.6657932810526500  0.2447473116220723  0.9194137960518676
  0.7473584984529218  0.3289251535891889  0.0765550543209470
  0.5844948630598993  0.4134847107510294  0.1599287646174762
  0.7405757809097548  0.4162893040633948  0.1705076013889620
  0.7435797518341961  0.2438655707356042  0.4988069424955604
  0.6676887109189675  0.4168083653823146  0.5866009725946966
  0.5815748331767840  0.5057584146222905  0.9100400814798967
  0.3283251840787041  0.4146684640589164  0.7472118713816669
  0.5791988465299770  0.5929647017809835  0.8324546420089936
  0.4953832912630590  0.9137552878339005  0.5777138904316125
  0.5771017124392802  0.7466849460471746  0.1668715404210421
  0.5821645781305329  0.5009350503586606  0.7376782883158726
  0.5815622615441899  0.5833403086870156  0.6683679070818140
  0.2476763422009418  0.5840062613942159  0.3297574301245024
  0.4169853885331715  0.9107843603045273  0.1646688762124320
  0.4210525328058706  0.5039744850079387  0.7495525852810475
  0.5754082342118001  0.9214397532285500  0.1647688579610827
  0.4922808910015499  0.0065243005530966  0.6678067045466572
  0.4195910494977819  0.5073267583019022  0.0746678706263853
  0.3277451568002985  0.9097067299310391  0.2510454396710601
  0.5050398690092206  0.0677022820113977  0.2536470945168476
  0.7440541960163789  0.1602675576473768  0.0793651170518469
  0.4911939114682682  0.8362628308604033  0.1645598302857159
  0.9835247562901112  0.0847904183758778  0.4163090280976080
  0.5733389683638207  0.7524590930658352  0.4971375323093583
  0.4137990935613183  0.8395978834671514  0.5799482730663365
  0.4135855051355332  0.7466612457778813  0.6702914629860831
  0.3282659525420989  0.4120079076949135  0.0782411590921211
  0.3340376869087204  0.6684507556412415  0.3304602483968333
  0.5000535310102668  0.9167737305585263  0.9156453557815875
  0.5841870785824886  0.3275249728633415  0.2439930989852177
  0.4263741128228341  0.0932478102860917  0.1743530593568218
  0.5010084433834928  0.1668973147531375  0.8303073989011346
  0.4892765851004687  0.1646121557244078  0.3263447891849076
  0.3288861110300238  0.2414659226156204  0.7476018922705496
  0.4043255822893298  0.7525431731121955  0.1667001057182494
  0.4924139298655942  0.4215071355258914  0.0732616982701492
  0.5852351662931872  0.1573531553747242  0.9182725157395741
  0.1673621531562634  0.4940662510731010  0.5004076260012094
  0.1670004250969632  0.3350248260764318  0.4986279975728434
  0.5027366831096771  0.8318212310425502  0.6723008581073828
  0.5046428883669178  0.4164779288060262  0.7474163092167377
  0.8342785612981185  0.0759413638352068  0.0848316979717935
  0.5860030900940448  0.9136225961349733  0.6712805107982133
  0.7503885078067896  0.1565158814193134  0.2464983574229420
  0.3284806134927210  0.2526969902445740  0.5799661224720777
  0.4096653108591464  0.3338632338153121  0.4181859447173478
  0.6612420734712298  0.0031089098870240  0.5011286540770881
  0.7483410749704348  0.9949634909937028  0.7617780936423953
  0.7485873055807291  0.0893479819335652  0.6678184843198274
  0.7469397089159335  0.2403752730945643  0.1587717848629983
  0.7438717650924347  0.0805560592128713  0.9966451675681165
  0.2509176210284067  0.8336301952244830  0.7556863785892213
  0.3316330507131581  0.3363997597623259  0.8377768326612580
  0.5864377749759102  0.1669384447069203  0.5874057350058806
  0.5754625849417249  0.8345297501473663  0.4138609374852194
  0.8316933883152835  0.1686273940625357  0.6672769658434289
  0.1593045830282477  0.4976971005957914  0.1693944738432622
  0.5771162852244536  0.0884291717370431  0.6673021042141775
  0.3183558566853775  0.5009074051789296  0.9905338894980825
  0.4965887660749645  0.7573874712733953  0.9162027023537309
  0.2530312519882276  0.6630613773773949  0.9277181632119084
  0.9950151437567379  0.3238445956659993  0.6644419594507321
  0.0861164551922316  0.4140707829670202  0.6634198766873243
  0.9956021312529492  0.5857580049824282  0.5722048484897224
  0.9883675537331844  0.9181742754266231  0.5829021470060854
  0.0811444005915342  0.4931431149168110  0.7463733494095844
  0.0769090629088025  0.0022336358461505  0.5790180801788523
  0.0709389140513401  0.0858876484654374  0.6709584573130106
  0.0722102284297645  0.3319805584895796  0.9103333047773187
  0.2382650729787988  0.3257366427878796  0.7463301387676164
  0.9867545067719568  0.9993910088528551  0.8341788589221650
  0.8381303911599098  0.8333869829817577  0.1662473428944149
  0.8279176765711980  0.6662185490653741  0.8292791361238931
  0.1535110703387626  0.1723319851316309  0.8333356714013078
  0.0817898796094583  0.8292576839927895  0.5805494914760366
  0.1561573287547137  0.1744275163801840  0.3256427621550663
  0.9871048677961279  0.5855078910121254  0.7513572302019463
  0.0688179365050937  0.0822346285425984  0.3274325386921560
  0.0792540858755849  0.9940803355692841  0.4165029451432358
  0.0745599084764507  0.6712573526963470  0.7495837116991132
  0.0733159545081409  0.0865391747644916  0.9994497297669890
  0.0000963288474436  0.7492978436216976  0.0806542841140315
  0.0763997460742571  0.6683874530288961  0.9245520650845447
  0.9935724768780581  0.3273192405375192  0.4944162763882063
  0.1703812515510089  0.1704449106688964  0.1572533419599757
  0.1634917112999719  0.6735219134686857  0.8369055472377852
  0.0776226352594474  0.6789082528216719  0.4052432250317026
  0.9940126062967417  0.5096186383394620  0.1690167854432574
  0.8359012013483673  0.1648447440305338  0.9944355138354715
  0.3269551270509557  0.1636837529933275  0.8344221465821130
  0.9954989034759070  0.4974534407225633  0.6621003214935113
  0.2456038888252682  0.0828543191543697  0.8306828035774347
  0.4135783692421499  0.3412657263891966  0.5797882790546559
  0.9101187810874565  0.8391209133615294  0.9191915692990180
  0.0816999019071695  0.8358881355134664  0.9230208956305271
  0.1608297394818376  0.9973820771571005  0.8319105024519871
  0.0754372263394418  0.2420009865859699  0.0004357590591438
  0.2431531670892468  0.3353531151359251  0.2477803106647608
  0.5056219049981392  0.0023054736462260  0.1638520245115683
  0.0837713095205211  0.4140681139577571  0.1691803485497432
  0.0711136682732531  0.1729138982517179  0.4131238329337084
  0.1639747684946093  0.9957358631849235  0.1683707634399338
  0.0741143648325331  0.1749366773719375  0.5817358071495440
  0.1627076414217808  0.5004212390923360  0.3321941262384878
  0.9884031483282336  0.9978897510070096  0.3288382467219867
  0.9945900735158816  0.5850749497505561  0.0838755870368459
  0.2415389598485476  0.1667663361993510  0.5830177411453664
  0.8396250399075832  0.9998754820174263  0.6676529585848607
  0.8441955129056873  0.4175084678149371  0.9158094694483955
  0.2468714069748350  0.1697289856713320  0.4205245827024051
  0.9885413527856926  0.9977219192493967  0.0016659798003203
  0.9178284705952303  0.8315177492996899  0.7526905846459513
  0.9914915326981524  0.4173450175131318  0.0810365567897779
  0.2530871466562483  0.9990252038832970  0.5810615051579906
  0.0789757236199390  0.3269182920681402  0.0837660616966081
  0.3269020817511977  0.2523191697790501  0.0793602155953557
  0.3356484429051510  0.9911635872042622  0.8363774560997149
  0.0758939210137033  0.9109807514624663  0.6706216952131913
  0.0824716006477192  0.2385877493215142  0.1761147442796080
  0.2502541124806543  0.0888409093787078  0.9980042513070088
  0.1618168314497222  0.0816813821032218  0.4207606246544500
  0.3348594544181111  0.0789093278705161  0.4238511016414864
  0.0097756051286987  0.5888238963962041  0.4247957075677458
  0.9965502843024091  0.4166605951840868  0.5791388394746710
  0.6646601127268211  0.9997294637173184  0.6698037968796676
  0.3414798116614708  0.5910467018103528  0.7481056770178219
  0.2568666451842539  0.8336025039364677  0.9186323285389987
  0.7548184362138503  0.5060161786939420  0.9148349430244037
  0.7428872211105285  0.6712388536733754  0.5907090095010598
  0.7420634221290346  0.7529242230397263  0.3373784401030450
  0.7473673706473526  0.9241166443090670  0.1683007158281934
  0.5848021769347237  0.7528655670275176  0.8308145305819723
  0.0715362869168427  0.5885247573417099  0.3311049085122774
  0.1675768334482499  0.0019154894402825  0.6679177629281529
  0.8232826269958700  0.4174188733872106  0.5826493785412726
  0.8295843842719949  0.3327685086418928  0.4937183459659569
  0.9904739752617339  0.7461860051326363  0.5841530809885245
  0.1569956802144499  0.8334671977491492  0.6648525884007903
  0.7473379135836586  0.8344480047413235  0.2495083833873658
  0.7425986397338884  0.9133397043335957  0.6697695652302286
  0.8321106307481251  0.9992709636895117  0.3307695585895646
  0.8337086308612329  0.0030788048669792  0.5008184967374680
  0.7454902435731153  0.7566390779894562  0.5005383803651312
  0.1725687769317585  0.5769472265874076  0.9280116042464727
  0.8299344593798353  0.9216401053323481  0.7582107557793208
  0.8306803881045857  0.8287281663980781  0.5011671606646784
  0.8250126759352413  0.7539851191000579  0.9177201617584729
  0.7428262448641852  0.8345077632819481  0.7574964130074777
  0.2448282367253686  0.4961471315824285  0.0803272297206262
  0.2528220835086996  0.5755906788228052  0.8421381483656901
  0.3318588257918145  0.1724020456243352  0.3351033600836538
  0.0828778206038565  0.5781702360973751  0.6552717026797283
  0.3305856408465875  0.0863536181771699  0.0759706449635060
  0.4087405817978604  0.9200503396809010  0.6687834510132121
  0.7456890785944610  0.5825562959813029  0.5033525289833692
  0.4112723943002139  0.1666791307056163  0.9220845511900173
  0.7477847765615323  0.6593971407063930  0.2461788605929900
  0.7360167942487564  0.4159458199209135  0.5019381652983321
  0.3301879383113837  0.0845098897726620  0.2496729267657017
  0.4945262193041473  0.1638346260663860  0.4986770584087600
  0.9151974648531214  0.1640510256911770  0.2482586534801978
  0.8323272706933873  0.2460741388706175  0.5781152202869732
  0.3209994995830613  0.0021030754609448  0.6652121321038111
  0.8315690784306922  0.8390926050193793  0.3334365610992899
  0.8322509964156221  0.8249983584579160  0.6653679833322319
  0.5825627348091555  0.7533395571573598  0.0029906109558530
  0.3302774373039347  0.8429864216130305  0.3358686766343739
  0.0884650294287401  0.9139586541131456  0.1660120170353720
  0.4212594698801126  0.9944233485706755  0.0755661175457791
  0.6643346428330662  0.1594558742352705  0.3354733269435643
  0.3373254096512902  0.9952404980875845  0.9907710334649976
  0.7517881797038476  0.2483046673693690  0.3340566488342473
  0.8305203906291002  0.2487140736153244  0.7491913145103164
  0.6636106570828392  0.8338473171169519  0.1647675066340552
  0.8403818510438495  0.2468585472954113  0.9220265902281173
  0.8352129780965565  0.5050898741533171  0.1691191341423704
  0.3274208652188515  0.9962335652264853  0.1657169350690006
  0.5818639709938849  0.1604772330911853  0.4156030082925427
  0.8350377042604222  0.9176283289858266  0.0783073330550896
  0.6619680446032621  0.9173912745934394  0.0761711472690205
  0.6677043757287885  0.4190162263738454  0.9145797304488874
  0.7460276236274349  0.2501292402652677  0.8272675192535603
  0.8398747706056309  0.4178020569558835  0.0781115438988510
  0.7460504298423472  0.6661024055049251  0.4172031266377305
  0.6666979710193800  0.4988982646998669  0.3323221535285072
  0.7537034693521082  0.4900363653189571  0.4177422174771002
  0.1642978745569929  0.8322763066709130  0.0099855769568142
  0.1650022350734310  0.5777003953074579  0.7481868936190407
  0.8364757698377625  0.3279604700402053  0.1693445031352077
  0.4913313754951411  0.4987026234335615  0.3389667231927849
  0.4139070388363801  0.1652378073429569  0.5816075911200784
  0.5789932240868636  0.5964938477680979  0.0009455308216747
  0.7488973865603690  0.1570028430654775  0.9188428751571360
  0.7471238494350387  0.9288575230433334  0.3326020548757552
  0.4186897423678487  0.0017530260995709  0.2536750979991587
  0.3366029508741995  0.4954716428623593  0.3364936406801723
  0.4997877750478957  0.2448385026953593  0.7492319438519877
  0.4153443901529775  0.3297703040408129  0.7467826908526386
  0.4113528324086854  0.3315959146271155  0.2502579055437262
  0.6605766771737758  0.2486229348778480  0.2441091805903844
  0.4879996159352114  0.5059648110723873  0.1614815633627852
  0.4900008817870267  0.4170787732843658  0.2508904199151861
  0.4197048702067340  0.7513710184809985  0.4939637553127874
  0.4165055358483791  0.6632303188687697  0.5831978800962153
  0.0794644189673224  0.6561996752603875  0.5735249414753522
  0.5021875490902710  0.2519942910084607  0.5839074313734707
  0.4180968772206565  0.5730548518358466  0.6653226354478969
  0.5784538431965413  0.5004672416166996  0.4256427353703648
  0.3328842891379482  0.8392360962271911  0.4978797968798246
  0.9212725407250544  0.2475343240273540  0.8307212478526255
  0.4892841649861926  0.5048636879840623  0.9930386360532535
  0.5768991956958325  0.3313822588795396  0.9195817660596192
  0.3276344228343031  0.7523355889935546  0.2414947680013496
  0.9176231699540309  0.7524980645941258  0.3380535365717689
  0.1586984455006410  0.6759204391887716  0.3262965992313306
  0.5831141158307840  0.4163630719192580  0.8235428832927296
  0.5811745527645451  0.5032096962725152  0.2519130461251801
  0.5762406659120208  0.5034489620702262  0.0809532975945739
  0.5761585713102207  0.1623354761104218  0.2397492064791191
  0.3413175518000016  0.6714029920897046  0.8351983868149686
  0.6655118897287330  0.5058123924288743  0.0013775171438433
  0.3507134431750120  0.5850796913045883  0.9236208737095154
  0.3384467113976435  0.7585715046162411  0.9182659604692216
  0.7517551826210767  0.3323860426479535  0.9172188012645632
  0.3338427105258076  0.5019571760463152  0.1660979877035467
  0.2522604085987870  0.6747374994844630  0.7509045564814142
  0.2454734281061463  0.4976133825380732  0.7463054008159323
  0.5039203211089125  0.6603694790893114  0.6668546367000273
  0.1510665705966357  0.4111376498562028  0.7478914314396188
  0.3292345829310979  0.6636625594203354  0.4964988713473199
  0.8262765776200846  0.3403560376105687  0.6617892491739535
  0.1628411805643569  0.8325493995859733  0.8364215404502234
  0.7433465259715285  0.5070647675061785  0.0762118437304436
  0.2457901550533584  0.0838753731009490  0.3305188853979109
  0.9120379032274226  0.5812623567130035  0.3299042144235415
  0.9089817996338178  0.4157447265177320  0.4939670673017990
  0.5079100389828621  0.0805824150926282  0.0792033882994760
  0.9129139625138948  0.5860264570248184  0.5033372827116303
  0.0752511141877442  0.5827666452333277  0.8346773665523958
  0.2413478589871822  0.7486505011806025  0.4964593531789677
  0.0759934842628578  0.4131300866975917  0.3323819398848127
  0.7444116550461638  0.7405566238730671  0.6700726246146883
  0.7417773455901792  0.5853364393455041  0.6759072982199064
  0.8345921956281630  0.7486371170266124  0.2474592333310673
  0.0718086371278740  0.4934849503829815  0.9147354148151722
  0.9203672605968528  0.7486856227910923  0.1647199002041415
  0.0008603476876981  0.7484797852168303  0.9231639337556174
  0.7495326710498854  0.7462546068792941  0.1584317054478611
  0.9143749750515120  0.6666318150071118  0.0830131779531968
  0.9964959623495198  0.4107142270494551  0.7535431223274175
  0.9161533409169970  0.6644988491777782  0.9209713860826065
  0.1618475701757922  0.9972522096089427  0.0019995418324799
  0.0122933823579675  0.7425813196877785  0.2554894709353833
  0.1579199975655624  0.0910935755545670  0.2477148877114185
  0.1570875095839766  0.8347789125488118  0.4956451496497079
  0.0727146127925243  0.0901673366676117  0.5830177409928015
  0.5756877127351935  0.1598901804749611  0.3268447152490411
  0.4127918737404601  0.8338470872912247  0.6720985012137365
  0.6637142729139265  0.2500841178716483  0.3339920990611713
  0.4162912996293810  0.2549998784952174  0.5828642634968222
  0.3261819975243366  0.3350721675320187  0.2500180621010114
  0.3369891827229228  0.0839974253026068  0.3379332212382826
  0.7589082630764779  0.4194450433637048  0.9098643709235423
  0.7418299491889555  0.8253416630161760  0.6677717318776125
  0.2485601128445635  0.9928317373421824  0.8295156733688738
  0.0837834012201733  0.3256271177915108  0.1741223125230509
  0.8385229719433659  0.0851263867042008  0.6706419683531746
  0.0789181542535002  0.7406065561086198  0.5832211539763958
  0.2500277377101411  0.0020652646717498  0.9992276652837737
  0.8311844292762941  0.0766872574397069  0.9967041179579862
  0.0807692105304920  0.2446159039593536  0.9109175666712708
  0.7520714682052988  0.2463337345169320  0.2462644570021495
  0.0731230996159276  0.9981343742772953  0.0059657820803836
  0.8274400656423369  0.2552196053923511  0.6621012763596728
  0.7516058136619945  0.8351800159312938  0.1591386826126674
  0.2455829264096413  0.1754868060236092  0.3306443299349363
  0.7470173325802419  0.4177656230638550  0.0813292511726697
  0.4137316270075622  0.2536408183819126  0.0821381685961977
  0.5789247572958000  0.0014612548775440  0.6684607397250827
  0.7523251011143240  0.0011526920325394  0.6741611039860287
  0.8316127546208146  0.7508535677799313  0.3369967371046900
  0.5760346076317183  0.8347166926179386  0.1686333621637147
  0.5825669934856810  0.4137421049696525  0.2500968593242830
  0.3262557578417213  0.9966403559096668  0.2551132015844478
  0.2489517187056287  0.0786330893079830  0.4230186568315172
  0.0755716958787201  0.5791806081914029  0.9254824288617469
  0.2384819438587804  0.1718035043476886  0.8335658356896711
  0.8313672145766630  0.8310096971663866  0.7559801618453355
  0.4970520597211771  0.1591808041082589  0.9207762795642533
  0.2652266927411218  0.5647472538678949  0.9363090103320393
  0.4907118912546408  0.1597835433106226  0.4123198993153088
  0.3318414652090128  0.9959818569274356  0.0770794932283336
  0.7476492821693682  0.0050299893453528  0.5007757521348742
  0.5784709532531911  0.5037928343727199  0.3404340213217970
  0.9973521181765709  0.4223137372534582  0.1698719340848159
  0.7425502798276277  0.7461871957525568  0.2475388593303863
  0.0652507343935167  0.6860148283163958  0.3131240612581745
  0.0676057568766544  0.6456862153774182  0.4831457179436008
  0.1678111790786220  0.0011934894052488  0.5809323830190791
  0.6620599344121458  0.7444444704693256  0.1625872990044989
  0.9092861362082970  0.4180613968627884  0.5824604459216054
  0.7395736935007957  0.3295456809580212  0.4933999183994565
  0.7409417927981752  0.6630423329162473  0.3308185746084532
  0.7461777534263453  0.3272496040229929  0.1658772019375897
  0.3267061002180164  0.1626684319100671  0.5821788450588368
  0.1588741182028956  0.5890213368621080  0.3288564461865944
  0.8207645475783245  0.4243271814226603  0.4885810094677125
  0.8314990671195998  0.1619891134354836  0.0837776669863718
  0.2441349531171494  0.8354760743505959  0.6678418937832925
  0.9906276093688103  0.8318692290288940  0.5809302993364202
  0.2463669115635183  0.6744354102626905  0.3248770001859366
  0.4048416014551223  0.0090411984718302  0.6659112326589197
  0.0757754424466869  0.9914765139886184  0.3279175964751838
  0.9969212737476705  0.4153886552127560  0.4912851426546011
  0.3281260442416382  0.2518545613713911  0.8365415188343678
  0.6626924523339761  0.1576369829490721  0.2418999287991774
  0.5885993210301831  0.1583175038754153  0.8304847176269639
  0.4147290053088813  0.5726316150002062  0.5793788759821693
  0.9963941109129817  0.8370538326557556  0.9193569229475221
  0.4166646267208356  0.9125278901916183  0.2536406688667390
  0.4007575948353955  0.5270154232148121  0.9815663649527432
  0.0046297425224837  0.9192191862885015  0.1678608616394413
  0.7486837576431702  0.9197543341951882  0.0749583981043006
  0.5042101874384421  0.7457468171378202  0.6723146455751501
  0.2534767743562759  0.6696512771208630  0.8398173671571910
  0.9225340528979682  0.5840141292264780  0.4162879213361569
  0.9900738837269895  0.9945131634646115  0.4171227003687438
  0.5779996135882342  0.2444391307497830  0.9175981064792985
  0.1642771538804084  0.6668870339921394  0.9297890809598924
  0.1612194377405850  0.0886229280798331  0.9964865653936632
  0.2471124153141981  0.5017062062562875  0.1683428174550949
  0.4186087870465481  0.0012342835547290  0.1646443193901344
  0.3263790441284324  0.3267349660423596  0.7451917945580767
  0.0774083238595623  0.1734138327544426  0.6689139849208131
  0.5844948898742643  0.1634455072876393  0.5018137506114088
  0.0784519596872744  0.9978949542755289  0.6687138697795157
  0.9252955358662905  0.7492830185715709  0.2523956644691252
  0.8366926140234848  0.9221287773809871  0.1655721957875670
  0.1578890854653933  0.1733472777086384  0.4181455546310874
  0.7541934585416865  0.1587229528888528  0.3351955690210091
  0.8362783150593651  0.3300460957239090  0.0796630944574270
  0.4147252006643483  0.1630915738404359  0.8345221775620617
  0.3344418591910321  0.0888538434817199  0.1633175822493909
  0.1622962789645795  0.6685982511170202  0.7464796398149280
  0.4981457882557635  0.9195931996981742  0.6662809271001151
  0.0834805681709610  0.2382273921651513  0.0890045455392156
  0.1373892186698188  0.1811457208372900  0.2359001982376051
  0.0758873858654083  0.5823804627591687  0.7436929635254531
  0.6700985091091302  0.5099706684188320  0.9123388445020544
  0.4179927151535672  0.4174891874130568  0.7491900462930993
  0.0099417348531843  0.7454575342215407  0.1669408516200684
  0.9940998254821797  0.5855110703565374  0.6586857947233951
  0.5765266415526459  0.4179921642617737  0.9114385643076902
  0.3431158281780319  0.6731416135742445  0.9274459634314250
  0.0820778352253061  0.3307449226259062  0.4949123429031397
  0.6661023007787844  0.4951748329780476  0.4215733457224054
  0.3332993174255590  0.5023884947447250  0.0778793574053233
  0.3382781684559805  0.5814686630863770  0.3299446078921571
  0.1695804313196879  0.8371159553341176  0.9232474999660819
  0.7418013228202368  0.8437726415619998  0.3370384425739768
  0.5763433875259716  0.5085306070875812  0.9962013097792726
  0.4935914621869518  0.4164398434005793  0.1594389787052920
  0.6602018821281497  0.9255326070249238  0.1676855164836542
  0.9902981404061781  0.4970436175726741  0.7523054996495963
  0.8267062207924223  0.5835926141568920  0.6722021114383999
  0.0813257134754101  0.3304264222864842  0.9953325509496450
  0.7472116144785048  0.6704924960346704  0.5044059212326758
  0.5787340711138659  0.5062179611855325  0.1654664724838418
  0.2370439578070618  0.4117909506631285  0.7456533575240869
  0.0719727391912348  0.6732446623952203  0.8372388438676489
  0.3440004012287853  0.5784488892505010  0.8367785012719423
  0.0725324460079283  0.5003329970837714  0.3325980885373697
  0.2512674381166909  0.4940430356340291  0.3370593854715768
  0.8276191371043673  0.3391699880638217  0.7483482527967373
  0.6622603634180577  0.0904268047314008  0.6719609801667745
  0.9129791468548013  0.7516364509573499  0.9171248680947375
  0.1638241092577977  0.5791723837225277  0.8377812023923927
  0.8368774278537566  0.7435924254206960  0.1547384652766040
  0.6583088860651288  0.9190023353411826  0.5009437220805052
  0.4882980028603859  0.7478894103600372  0.1684400833402132
  0.1621680671045034  0.4116998413956735  0.3334598848163520
  0.7403431120714346  0.5827000820231867  0.5907608710036747
  0.2431129774699794  0.8377212803859106  0.4970087195583765
  0.8333447478851431  0.9120082031890653  0.6698303036237800
  0.1582749630362359  0.0821381088732251  0.1625648791291830
  0.7474806418496756  0.5769196858868417  0.4164745407255444
  0.7535835706215900  0.2431238822572897  0.9181167637369849
  0.8302771939568517  0.4166462542490240  0.1711411171840802
  0.5052596616507221  0.3291165430439599  0.7500672301773958
  0.1564457259360884  0.4868893157868943  0.9166357337521297
  0.4901893888310173  0.5072309191830169  0.2521728748185113
  0.1549646369114142  0.0854172674837525  0.8265538125396108
  0.8329126832773065  0.5064659764705701  0.0804480147451333
  0.4130292311834237  0.7520612655695077  0.5820122559030192
  0.8335442022702081  0.9147627567229289  0.4987116408340545
  0.1579622650018167  0.0802538682726298  0.3327351619302166
  0.4828156773733703  0.1486677324570415  0.2308704812950712
  0.1581891573132119  0.8379946311325651  0.7509742926952646
  0.0706293925465118  0.0847008054585889  0.4160729743327202
  0.7474331488290421  0.5053978149810949  0.1680093488158128
  0.9971664095019828  0.4083441800731206  0.6668802427671588
  0.3357243548175480  0.0760008261424392  0.8298712973212652
  0.2531933201429802  0.5856029958808279  0.7470418578788154
  0.8312001840005274  0.2442156578866803  0.4905871734315187
  0.4960334069762887  0.3336787359642540  0.4174384147010831
  0.5822059103885923  0.4156678593314798  0.5804712100207221
  0.8264969741541092  0.6646547431376385  0.9161783005191428
  0.6578460824096571  0.7499864619672595  0.5024990015962666
  0.6644334388104768  0.3316560477349354  0.9161444844717639
  0.2406067054308936  0.2533826533646295  0.5813749868359165
  0.2446433253206254  0.6642050690796892  0.6633016135890605
  0.3303580608621922  0.7518640640079999  0.4977372510529109
  0.8354680070111299  0.2452356616601746  0.8357716986942908
  0.5008584396441452  0.1614059253868122  0.5893409133020652
  0.5829529362178031  0.5065952603456181  0.8216258982551053
  0.3344218016728056  0.7581995968140196  0.3268418215956794
  0.5842305733494081  0.7556572682931986  0.9168717525737961
  0.0765502589495851  0.9154235445938853  0.5807785460565865
  0.4221667641612442  0.0839925065623359  0.0804260281818743
  0.4196239624488127  0.6623011826192723  0.4929235191015136
  0.4980541510365040  0.3245908970742094  0.2464295130410802
  0.0785058860351404  0.4153117838233223  0.0807589518702930
  0.2408371936391591  0.6588932179544182  0.4948915061990408
  0.4137159763382644  0.6572583958342075  0.6769990878151274
  0.2544313563410224  0.8321927953924302  0.0074683504926228
  0.1584405639810700  0.5038801163924028  0.0842593557305033
  0.0716208366864960  0.9950572170477228  0.8358126723353891
  0.3336665635798979  0.5024574626331457  0.7468385152783269
  0.4960792596786309  0.0762378201988932  0.5800579353153521
  0.5818651768753542  0.0817194903597518  0.1620805289512088
  0.5820968827032039  0.9979746331819606  0.0780155753826311
  0.5841399263822531  0.0784356305195684  0.9971928824028476
  0.5824279992687939  0.9954157965801441  0.9168270142068428
  0.3354040852908017  0.9137116182194833  0.9166383188561532
  0.3301636943844171  0.9174892693103229  0.7516975544974902
  0.5803205374631590  0.9968932245983197  0.4184954969962684
  0.4135721967360079  0.9967606510413467  0.5783090469870308
  0.4970136099893041  0.0739547387098042  0.4186237149416889
  0.5750188053563721  0.2510529806047118  0.3304387468839737
  0.5800376790440012  0.0760167744895761  0.4994683194609370
  0.3302581751253369  0.9164235070980955  0.5823087208508501
  0.4963293771605140  0.9970019286309648  0.4995763395706024
  0.4150425594242866  0.9972020161434524  0.4190526832306188
  0.5004457179033054  0.2522542258191125  0.0774926179305180
  0.9137057210165322  0.9980205879142068  0.9173504716998601
  0.3318773251206500  0.9160681065201536  0.4186819202201212
  0.5852666668564172  0.1638882410871244  0.0780303389877267
  0.7479967686231226  0.9996120150466635  0.9152235899436609
  0.4918146047033352  0.2526678155067945  0.9185894575018015
  0.4151066416015454  0.8277820373078193  0.2518848276145711
  0.4143409433866174  0.9169685875843229  0.4976714976935172
  0.5822685600764888  0.2490888420665179  0.1589305761238497
  0.4944493378398657  0.3321797510263076  0.3322969845432031
  0.5809955151813522  0.0735173882544171  0.3370807056131908
  0.4161526922626243  0.9162207768171055  0.3396613989019071
  0.5789037314190676  0.9978072653034538  0.5801983610305421
  0.4152310542942089  0.8346587108381602  0.4166235804513796
  0.8332978051325705  0.0798866634677289  0.9117469489455557
  0.5009433554172016  0.0732980028746509  0.9180396802092284
  0.5008962063114109  0.1652404251804267  0.0051005165311781
  0.9134166232504666  0.0814779599265987  0.1673151745806481
  0.5817369175805903  0.8351871735098566  0.0779602409740295
  0.9195040417478064  0.9164402252291516  0.1665074810640249
  0.4281728329956209  0.5858477405547683  0.8324335249112930
  0.3320209344535530  0.7557125759028727  0.0863873827173811
  0.4982864055827589  0.5835790982199806  0.4178305136268573
  0.0758224221060044  0.0862727149259471  0.4995886985020057
  0.5769361958842658  0.5897426212498729  0.3329174786317803
  0.9119978490148837  0.9152231473081162  0.3326090422368506
  0.5813201740790929  0.5029271150022839  0.5847185464699801
  0.0803387328505147  0.9073691330871702  0.3317556720600817
  0.5047121382861883  0.6656716356758544  0.5002396925215420
  0.9886692054156309  0.0794028373920421  0.2495688334461715
  0.9923909402601010  0.3319024814372665  0.9987055645133955
  0.0749820049960813  0.1554567532236001  0.0845998756739991
  0.0772109925574985  0.0001119168387627  0.9194074112453625
  0.9056762132350641  0.8297845254663325  0.5843297836256002
  0.0720259789019805  0.2504653178049044  0.8266015783828309
  0.9137864190054145  0.9995775364496137  0.7525193352386548
  0.9929124495841926  0.0807946662375094  0.9165890914206354
  0.9906354368735127  0.9986308735817080  0.6678938475924960
  0.4967060675580042  0.3348138049103539  0.9996911391310659
  0.4166204992909561  0.8358008226936900  0.7578227386981381