Cr  N Ni 
 1.0000000000000000
    21.1326370199527886    0.0000000000000000    0.0000000000000000
     0.0000000000000000   21.1326370199527886    0.0000000000000000
     0.0000000000000000    0.0000000000000000   21.1326370199527886
 Cr  N   Ni 
 259 173 605
Direct
  0.4955323819097984  0.4157617351247631  0.5809072765973530
  0.4139539904048405  0.9166689285461860  0.3434297243952818
  0.9938485001362014  0.0045164357656669  0.1675697451053643
  0.6638253632585468  0.1597573777286417  0.3361886070062753
  0.7519302629677901  0.2493561384912746  0.3340699406828228
  0.6630409395002062  0.8334833417811562  0.1642327766388755
  0.9140956251153506  0.1650432045423966  0.2484933490575794
  0.8328818249061418  0.2457872098379381  0.5780994102586570
  0.3204637854806331  0.0019100038877162  0.6653081133259815
  0.4213632580225547  0.9952694753434267  0.0749591871540758
  0.8365364523707237  0.8319839352602214  0.3334797503327594
  0.3374219552969301  0.9952006827899598  0.9921733225334062
  0.8320557508838882  0.8240089187536037  0.6632231015343187
  0.8296259734770375  0.2480110407157584  0.7492880094717145
  0.5825461591051505  0.7526070841216644  0.0028743234757715
  0.8398086141911179  0.2466243249520780  0.9217850764473005
  0.8348988796278050  0.5057721719139475  0.1695015630073066
  0.1627241336425795  0.8330493857146013  0.0089750081153016
  0.5818649568400651  0.1608836604846050  0.4153697605976199
  0.8366814679772315  0.3284817974451868  0.1688954268326623
  0.6620994779127450  0.9176250408771129  0.0755317226119560
  0.3272398631248021  0.9969902638151927  0.1697524460682895
  0.7541428620201872  0.5056655396181726  0.9148553084392316
  0.7451114388053436  0.8326682354634765  0.0730966436314257
  0.7476062963143830  0.7524997487461981  0.3375367962713967
  0.6669022661147300  0.4179435980070323  0.9149994850332226
  0.5858071795709446  0.7543494081957377  0.8310950381538472
  0.8388384093302417  0.4176536729337011  0.0775944363164655
  0.1667135447638178  0.0012657511211922  0.6677181921375894
  0.6662527210294713  0.4994651455153212  0.3320361703881382
  0.4950328646092122  0.1646439022219331  0.5001933197413494
  0.8306543365299490  0.3316094296265028  0.4943679908358042
  0.1565131666408734  0.8346819864520840  0.6645222018227775
  0.7464046057552844  0.5826861688059123  0.5028134506362978
  0.8335270935344543  0.0033777272394498  0.4998638867184995
  0.7486468404656322  0.6597050226472867  0.2465624704328291
  0.1724024041279581  0.5757871783935504  0.9281199597197323
  0.7450671852381036  0.6694095104386106  0.5919242037769119
  0.8366490938812305  0.9146795295030780  0.5822335167344292
  0.7462208244572632  0.9246096742122104  0.1678159522013126
  0.7427509944431143  0.8342927336914874  0.7566866591982322
  0.0733049716225534  0.5874409514131029  0.3293081108892770
  0.2531968608408867  0.5761866305643448  0.8468031132617960
  0.8243052622405220  0.4169252796806157  0.5839489255157949
  0.0858474613231430  0.5780829055716458  0.6595465317387789
  0.9927220700983822  0.7444873016005192  0.5810018414697660
  0.4097860430638108  0.9195400484430297  0.6686607507683586
  0.7482684935370176  0.8348210326974758  0.2482313530278704
  0.4115928238387088  0.1662011617100321  0.9242381812134752
  0.8315896953550505  0.9992044322077538  0.3312241968740033
  0.4142366385865247  0.1658851902404652  0.5807688667950059
  0.7481400872645793  0.7567851898765203  0.5000504812294668
  0.5790823067039396  0.5962928097693421  0.0011369686753972
  0.8295016332885750  0.9220732296682451  0.7575983003796080
  0.7480484899266325  0.6676337857417547  0.4177770274150844
  0.8251795643463861  0.7542629513279198  0.9171895758654093
  0.7521205937581670  0.4911675223023749  0.4161037354546314
  0.2400267374772076  0.4983514600866286  0.0777953573231454
  0.1634231908302224  0.5750467943597708  0.7489448614452073
  0.3364239729638803  0.1707225959938135  0.3309914756406691
  0.4911330114424853  0.4989782268949683  0.3389763311263777
  0.3297217424528278  0.0870571958472431  0.0758721301998829
  0.3316535246740595  0.0814134241844123  0.2500435969412145
  0.7421514566080518  0.9147238517622639  0.6676929806671589
  0.7376270841432216  0.4160985037876070  0.5013052563251491
  0.9122049561859998  0.7522326495090642  0.3389433273634531
  0.5831945310049250  0.4142993880949153  0.8248629047724400
  0.5077121030506645  0.0823910439890929  0.0801844849561708
  0.0762177871240378  0.5820092208660449  0.8366361683636298
  0.2441416789937854  0.4971638034184499  0.7485820251351329
  0.1502051813692972  0.4117210963738061  0.7488270384843686
  0.3314371898246355  0.6639128877236993  0.4950795639623553
  0.8265522666815854  0.3396005651094523  0.6621464996164514
  0.9132488699212707  0.5840227681378903  0.5023272573862537
  0.1619116075964704  0.8321598751518621  0.8361562436811091
  0.2429762523885821  0.7491713545289577  0.4961637965367043
  0.7417066157926180  0.5066865298022366  0.0763661626432786
  0.0809198085746708  0.4126054063766697  0.3320992785441410
  0.2476906962311421  0.0837550643896330  0.3307831769817554
  0.9109739924208636  0.5810417916308096  0.3293156799731228
  0.9103687720345817  0.4152113598478491  0.4944393822421762
  0.1574607512588331  0.8349696866773387  0.4941265513174434
  0.8298255244049103  0.6714551783073518  0.6671437001541100
  0.7422887068259219  0.5823141319610982  0.6747720823131879
  0.1614957715814189  0.0851453731100873  0.2494696405798591
  0.0116664852180104  0.7408217471477023  0.2567654610305824
  0.1622893902897052  0.9984345694524784  0.0011141225527837
  0.9967284774888749  0.4102096311277570  0.7533889019351823
  0.9160420516190519  0.6644407980494916  0.9206075707497100
  0.8293453784475188  0.6674992269917781  0.0036302385947954
  0.7489076535333192  0.7453598816883061  0.1587422718925346
  0.0007209831341687  0.7486013356465598  0.9216530180732846
  0.9201251893582627  0.7478558185819030  0.1654991537731982
  0.0786569304159330  0.4904024640060092  0.9151427241794845
  0.8352495038226314  0.7497144458997531  0.2510044037070244
  0.2516205621552783  0.6766382789395956  0.7514965033355561
  0.5772551301080776  0.1670104819352466  0.2401772223221402
  0.7511111499282689  0.3317392428551434  0.9172131944998596
  0.6607726332834473  0.2504337864546686  0.2447132746130195
  0.5807717261203597  0.5042292385210139  0.2525347784027712
  0.4902207639307766  0.4182549199181072  0.2518806879575244
  0.3408334293044791  0.6698858383483357  0.8391598168192319
  0.4165954288581575  0.6633252470091963  0.5807580897719963
  0.3381399867061296  0.7591451508868056  0.9179756908146839
  0.5024772587581546  0.2528032918342859  0.5837563936076607
  0.4128604562581856  0.0033365298662539  0.2531466916757009
  0.5777603973412643  0.5007055707841082  0.4263182222390635
  0.4147144157478555  0.2532902142932504  0.8380700158492326
  0.9203569565238299  0.2472088700337668  0.8303033406606311
  0.4109069233611439  0.3325334825321178  0.2499956212692749
  0.5763765389170528  0.3301534817159473  0.9199919306797577
  0.4872649785148464  0.5069769413386956  0.1612652947778865
  0.1585287337860430  0.6732438079897530  0.3271442428002513
  0.4205062656959098  0.7500675581254337  0.4937080642728333
  0.5772097455187081  0.5034818557232448  0.0820309761037275
  0.1560752147383349  0.6638937947059769  0.6602257522854849
  0.6645022163050375  0.5055734835218929  0.0017115587591564
  0.3477511187478662  0.5841374448299520  0.9268085657787343
  0.4158696346833905  0.5727963245124459  0.6656029334592007
  0.7468896246660912  0.1565289019035186  0.9174546420151805
  0.7472362454687572  0.9278677222447541  0.3325606990480199
  0.3324808931266088  0.8394706218396152  0.4973084617498019
  0.5060410073938774  0.6615046299721515  0.6644069168751942
  0.3356206036201855  0.4947569087466314  0.3346480573392031
  0.4880689726990168  0.5032425024922244  0.9944547323379810
  0.3325066516022036  0.5002670613477915  0.1658598291274617
  0.4151442103971392  0.3312671452335326  0.7468337550023683
  0.3266011907947741  0.7503771327231760  0.2413614096793903
  0.2555534608561930  0.8339527224317607  0.9183187479425743
  0.7441863140507162  0.2474216183956562  0.8275849878627165
  0.6647450336911964  0.9993692526011991  0.6686402261235306
  0.5874960304694631  0.9132892092970233  0.6701204473508013
  0.5769779925162257  0.0889325404925653  0.6683503622774893
  0.3279539463827263  0.2535492852595693  0.5797443033227335
  0.5837906193191110  0.3285172888492152  0.2447136355485539
  0.6634597242647410  0.9970439333669947  0.5019907798697467
  0.5055965055561711  0.1618564543925197  0.8320717551391563
  0.7483087013077576  0.0898931323968220  0.6679019413169672
  0.3282512519444312  0.2399679545843556  0.7472938876013735
  0.7429756143242146  0.0818070105107394  0.9968238038631022
  0.4913709770308258  0.4200575598288698  0.0746184788127885
  0.3289638462275822  0.3375652698514883  0.8375759061254771
  0.1635112415091369  0.4969548666785703  0.4979230031641231
  0.5793556502831035  0.8354355871126370  0.4215925453853082
  0.5023158398603979  0.8322695407460352  0.6719241696024972
  0.2459549365150764  0.4954570342586949  0.2484941202285777
  0.8341223383155150  0.0762538700666194  0.0845895403704671
  0.3166120060845951  0.4974409115802036  0.9896163838362885
  0.7510791852746621  0.1576198880146870  0.2462860414976520
  0.3352783224282732  0.6753801574258104  0.0152578767982022
  0.4088345979051550  0.3347613099251125  0.4173560387845397
  0.3239815579533784  0.9171984172257813  0.2497997492276170
  0.7480283593550978  0.9953858818139191  0.7615711348482201
  0.7439916223408024  0.1604057163356627  0.0795002853096507
  0.7471814597558309  0.2408362663630834  0.1586251831403417
  0.9857548692188800  0.0839777715412268  0.4158777786064785
  0.2492562409151912  0.8349930108792755  0.7555618913552389
  0.4130009635320797  0.8397020594483210  0.5801912187417967
  0.5868557393396597  0.1676130677146058  0.5876105751667552
  0.3333994229300866  0.6669837948532191  0.3303697855041282
  0.8304595139362190  0.1681547281284467  0.6679871393954993
  0.5041736509486449  0.4172991176607223  0.7474043226213223
  0.1670597002547776  0.3354493311583970  0.4980397132834251
  0.3272731229733379  0.4102655436825020  0.0794075285214119
  0.7406086208599874  0.4164985477634198  0.1703822961998240
  0.7442264686927013  0.2440990340632259  0.4992862391888830
  0.6678959163545112  0.4161068917489316  0.5862158683851313
  0.3275929507499921  0.4137111717259893  0.7474555743227433
  0.4939057274624951  0.9113066502650773  0.5776568054256089
  0.5830122305751366  0.4975677971136215  0.7399687727870674
  0.4132910781337121  0.5751713504645504  0.4937236415172748
  0.4965924413207406  0.3305408367744835  0.1575079382448344
  0.3377438915703804  0.5885039632369301  0.7518890065343546
  0.6650362553643633  0.2433490858487966  0.9184403035983250
  0.5805728586624989  0.5044831824204297  0.9122850125620854
  0.7470258604391412  0.3284070292035353  0.0763371393086895
  0.5787698786150178  0.5911664441736512  0.8351861412332264
  0.5852765943288065  0.4132217367051977  0.1600209655359029
  0.5768252161705034  0.7446341495270395  0.1675176353910296
  0.5814795580003609  0.5834866242377977  0.6617188531276538
  0.4903413675197673  0.8359251147362633  0.1667980255014153
  0.2483269830551052  0.5822661787887971  0.3281108351840082
  0.5762956726511671  0.7534150345606426  0.4971676219637970
  0.4195365105906786  0.5045857430990558  0.7501431306810231
  0.4148114668858978  0.7468463813671032  0.6690187277983136
  0.4921294669254919  0.0063237112610756  0.6662794746928549
  0.4152341594653595  0.9103024893934766  0.1661966126723205
  0.4187594120369340  0.0895317640377975  0.1665753026992911
  0.5738014286453644  0.9196183616769014  0.1643500778234992
  0.4891626913284657  0.1689540966109082  0.3288470377395312
  0.4163858275466725  0.5054944255440400  0.0752438634162586
  0.4043459162219629  0.7515221697145790  0.1675081784356848
  0.4992723519023058  0.9155098425584880  0.2520556245000572
  0.5857409343877256  0.1565300601479674  0.9163570354051543
  0.5007636772792070  0.9174548473387588  0.9158677945161450
  0.4965781479582603  0.7571095824660862  0.9166287197415246
  0.3257692761713941  0.2515042067409640  0.0799895113321152
  0.3352744521883930  0.9909819083197838  0.8365288917380831
  0.1645356118135156  0.9999576278648014  0.1685715905747940
  0.2493821713970727  0.0897775681607993  0.9988161481698884
  0.1632108378979040  0.4972881753086181  0.3327147222373886
  0.0810000381992928  0.5753634571086057  0.4994498163329095
  0.9957134753899018  0.5907747742503899  0.0829635186261421
  0.0800128528018344  0.9115978631448529  0.0058547755807959
  0.8392754087135971  0.9994406049321908  0.6658932148976717
  0.0743541085931961  0.2418182115272699  0.9988345931343785
  0.2497625600833842  0.1698451805650996  0.4199194564070831
  0.5058923296072464  0.0020969186757557  0.1631899328718581
  0.9176202236802167  0.8316738906130894  0.7520079000171458
  0.0756183258191189  0.1730125460759746  0.4131821249981618
  0.0778825601812385  0.3279604113347089  0.0829344093220057
  0.0752856726038908  0.1769118084428556  0.5852938126175535
  0.0755211935507399  0.9132990065540133  0.6697108865102895
  0.9896854297981836  0.9996667330320935  0.3288337399585626
  0.1637765579388431  0.0844945260112800  0.4227316381919352
  0.2416213935893110  0.1668970413338406  0.5854158093296183
  0.9979468568432587  0.4176661525553927  0.5787409280484399
  0.9964266094506222  0.3227982479547605  0.6655315799768897
  0.8434638686645068  0.4169869701314442  0.9155779324652367
  0.0857071426781286  0.4146384636273516  0.6632325848353541
  0.1604053845988130  0.9970148443485412  0.8324051528300194
  0.9879101614097837  0.9980469388014208  0.0008060014619965
  0.4122669467763492  0.3426263575591123  0.5794338400259756
  0.2413768817444236  0.3343997251316402  0.2484484967460366
  0.9949115701521798  0.4160843971586016  0.0808570574323013
  0.2526917889384489  0.9992113233351417  0.5809616369269723
  0.0854026656526487  0.4154193332747677  0.1697011256620163
  0.9101938879828266  0.8394072411598671  0.9180896370948762
  0.3362421352181912  0.0799544015696675  0.4226858914624780
  0.2457613679647311  0.0829126449414219  0.8308804510717320
  0.8363097248433629  0.9172781037599561  0.0794649606802890
  0.0756955197936546  0.2432224454787811  0.1711904965133129
  0.1540238181830026  0.1716882757812855  0.8311217575855364
  0.1602769497730287  0.1731637823976281  0.3315339524945906
  0.9952617666170059  0.5826441805564652  0.5733181568223222
  0.9875773653363881  0.9174240689097792  0.5816141641582081
  0.0806141061587785  0.4924987591867842  0.7480833166555373
  0.0767609772572498  0.0036453652435484  0.5790831666342008
  0.0824372107546683  0.8308224981215730  0.5791338150610884
  0.0726119435369302  0.0896619408924018  0.6718778724291464
  0.9857931503773723  0.5849827190731658  0.7516843452746401
  0.0728035253249970  0.3318931760643060  0.9098498541753332
  0.2366602656782046  0.3257146923196081  0.7458147496149452
  0.9863854814737161  0.9998896567984186  0.8334653054975938
  0.8282082708170488  0.6662695878434939  0.8294408680526412
  0.9957499618833545  0.4971016168254203  0.6630789714118228
  0.0720738174327920  0.6711035958754573  0.7509729072947452
  0.0796114533755034  0.9941186311435946  0.4164240281502623
  0.3289108892871973  0.1638479457487345  0.8360836688118535
  0.0723613715899458  0.0860109921905396  0.9992175867103607
  0.9999030670815112  0.7482632447479745  0.0814091410361862
  0.0765798677204218  0.6666752883123461  0.9258531122113730
  0.1642044761128455  0.6722991061130430  0.8370274826652238
  0.9943885298710932  0.3280104787351198  0.4959690355350412
  0.1641659783085542  0.1747046287535052  0.1594907585642408
  0.0773881640221556  0.6717688948985565  0.4062666854714276
  0.9958895771566293  0.5072862360680402  0.1696684801525020
  0.8355201655657857  0.1649206644775447  0.9940032631755320
  0.0708436194170117  0.0828819538025004  0.3265055136827447
  0.0800886608344463  0.2445026806697507  0.9094411154213706
  0.5781869923000333  0.5058774974249363  0.1664218139593749
  0.8383978063673008  0.0846427165739870  0.6702689894301689
  0.0796828924116641  0.7439663360362370  0.5838088440205595
  0.2503193876883756  0.0028440705396128  0.9995386382172374
  0.0736449102636904  0.4985765026334079  0.3309360552304106
  0.0837376372176679  0.3282254333581176  0.1735692648454858
  0.8361999413283584  0.3300693750976342  0.0792705368940214
  0.9896618092734929  0.4964440511376980  0.7539710440390706
  0.0740313340147181  0.5817031289838238  0.7470652771071468
  0.1561823171978760  0.1748362467361983  0.2443769110405369
  0.0846186241633208  0.2385194385463219  0.0860852374463293
  0.4994562860829423  0.9197790803650093  0.6658169687993236
  0.1574933153633463  0.0875820772232998  0.1629964922020582
  0.4174273295560230  0.4187614550504388  0.7495488231584103
  0.7449805858386799  0.5780707507674645  0.4160293196455764
  0.6692504796420801  0.5090555342081611  0.9130463620995360
  0.2433152801918043  0.8381395585100327  0.4959873977229157
  0.5754942611112847  0.4165233148380198  0.9128537166925126
  0.6584569731063518  0.9252785437003572  0.1660571878725551
  0.0738634961343241  0.0929637829606450  0.5849955834727240
  0.9967029904637655  0.5856320017923682  0.6598702294141678
  0.1601878298976584  0.6677248907183652  0.7470809928000556
  0.7520421539041732  0.2472651440316659  0.2462312997029502
  0.8301706964428858  0.0766823240239412  0.9963964638468331
  0.7433422226753782  0.8276081349427888  0.6675638651519878
  0.8274424961395929  0.2545701495803450  0.6620366112449475
  0.7527961835413500  0.8349531715348346  0.1598725864555302
  0.7580906593796619  0.4189048712108815  0.9099909086852752
  0.0095291961376357  0.7466485780464471  0.1681035882984538
  0.4164629502202135  0.2562219311254669  0.5800045030587987
  0.4946171986770382  0.4183352644333874  0.1609482110231293
  0.3407478926414438  0.6728186858088357  0.9302423918650824
  0.0822460060654796  0.3306754591205596  0.4963356425569446
  0.6648926172051574  0.4954760433395347  0.4213697780618433
  0.3283626060309405  0.5004293281075501  0.0771681825590249
  0.3386431375170794  0.5802134196453320  0.3294718166241645
  0.1669627419321133  0.8358047718388318  0.9225970215423063
  0.7500659885974361  0.8425348527479715  0.3373769417153070
  0.5748786572938955  0.5082628159561290  0.9978963270158404
  0.6641687331602765  0.2507793474644434  0.3345268434025477
  0.2481903234447052  0.9929474850746505  0.8298042812022161
  0.5830092802188529  0.5027080115568089  0.8249393759345848
  0.2448979413118600  0.6587587413662921  0.4944311845256509
  0.8342110683077000  0.2447990343972839  0.8357124176414461
  0.4214265089156080  0.0853443674901071  0.0761771974067651
  0.2429900674400809  0.6631670018198816  0.6626373426415830
  0.3318249270582577  0.7522827240675433  0.4966984457604682
  0.6611617229680498  0.7534397619536508  0.5020612268789881
  0.5012640540772112  0.1625546268076181  0.5918856022637599
  0.3357290136831100  0.0759993173608758  0.8307663420208882
  0.3345700969018187  0.7562666443001645  0.3256995028087739
  0.0756104375837908  0.9173764051202377  0.5801821237753730
  0.8319565771761025  0.2427371496576897  0.4902373729404421
  0.2534029995378984  0.8334945080594042  0.0064734373073511
  0.5844943025302798  0.7556761923124937  0.9171131038241102
  0.0711394773245271  0.9951858472926604  0.8352749021663900
  0.3322601435969865  0.5005093928921774  0.7471465543961175
  0.2404767900694102  0.2536469600409572  0.5806894044393128
  0.0845827707555035  0.4164267757047519  0.0817814132868001
  0.4974438076526240  0.3269567073240724  0.2463095987002591
  0.7530638348755692  0.2425466790726273  0.9184969037034958
  0.4185000755098807  0.6575744018887842  0.6711815435474736
  0.4222981132667831  0.6612995288629389  0.4913108372211604
  0.5027829751574684  0.0033546797302910  0.2537584951339837
  0.5821162755465056  0.4152329476404425  0.5806533143370588
  0.3405127205919166  0.6775596507970520  0.7508259992011311
  0.3297814581688279  0.0899471003238781  0.1636207812958871
  0.1573047801149516  0.8379146847933829  0.7505557366192638
  0.0737587105661031  0.0836162647517427  0.4166616443757979
  0.7470657042820075  0.5054067464804780  0.1681633773843875
  0.9970742225193457  0.4077515092798533  0.6665325547447677
  0.2502364285173626  0.5853068234147702  0.7493876899220000
  0.4954526837910013  0.3347902227352546  0.4174963928834956
  0.1598142245588771  0.0797176034615533  0.3353215780198302
  0.8328863844018661  0.9150194591903998  0.4966906582205167
  0.5051395267792568  0.3310903287480305  0.7493460948386439
  0.9999248171385338  0.5057913520576177  0.0795049246011200
  0.4895124118375770  0.5081500182045045  0.2521177898701103
  0.8263938709291531  0.6649401436872208  0.9164480883794874
  0.1551316992454328  0.0848311549034242  0.8265621154419969
  0.6638361141535640  0.3304877037691634  0.9168294683052797
  0.8301685415219345  0.5067225352254748  0.0800238206104726
  0.4137503988160035  0.7522789798901840  0.5812247917897887
  0.8307652606795909  0.4171907193796773  0.1705071852928849
  0.2360209845907904  0.4114920368250570  0.7448018346699028
  0.4121030934613805  0.8335381759509137  0.6732451107661332
  0.1674368520104277  0.0017472929749508  0.5805211733845224
  0.4122701435307993  0.2541764879071847  0.0822896058674754
  0.7416102029955728  0.5814242827899974  0.5897494338381786
  0.4880514832366040  0.7469012419099275  0.1680260670094517
  0.6621140784295289  0.0903233708085889  0.6697461495482827
  0.8281748053727359  0.5850874110606126  0.6717023806324439
  0.8272031882383336  0.3384404109531889  0.7484965432427028
  0.2503067477312195  0.4910524820849982  0.3369096685405752
  0.2509742194322621  0.0789614933042525  0.4238978590613712
  0.2397004873270711  0.1714909594203173  0.8328998490118090
  0.3436603601422801  0.5759540164103435  0.8401885231748747
  0.8311061047890067  0.8315027594056414  0.7543155303333251
  0.4981227504698251  0.1577165274573731  0.9207480674622925
  0.2638300110641174  0.5547254020019425  0.9362857179916094
  0.4910458221945959  0.1614086669993984  0.4143990194813708
  0.3317627519912064  0.9966914184453860  0.0795701179093785
  0.7476754980206580  0.0025995112228337  0.5002645996854352
  0.5780329804531892  0.5043452501290168  0.3411008303386319
  0.9986084634438565  0.4191237550839505  0.1709613684459617
  0.7463050840958010  0.4173094753487121  0.0812731195299814
  0.0717119549545951  0.6728684323230024  0.8391850898786772
  0.7477806474615134  0.6706051428011626  0.5055202638576571
  0.7448889441979333  0.7466130958821690  0.2488734367711043
  0.3388268909657532  0.0813540573905850  0.3367825330304831
  0.9872108215012234  0.1723785389904357  0.4172255496378399
  0.5745961555670464  0.1618350840325479  0.3263469193825310
  0.1645320153938604  0.5770657076826061  0.8390923916610112
  0.8363742313352840  0.7438721099521154  0.1586399947509026
  0.5768761184008518  0.9962773630568668  0.4981909693198243
  0.3250324564205529  0.3328695256720236  0.2495258535672082
  0.0801845717043082  0.3299917702354607  0.9947672632304969
  0.4187356988127059  0.1620177790960794  0.8369609619411665
  0.0774357051993422  0.5753223483296024  0.9264924003693846
  0.5754207290010782  0.8326524570813870  0.1627387081349441
  0.5788088575375355  0.8315531159974100  0.3365952028016865
  0.7521569149953152  0.0023318299286414  0.6743406595637018
  0.5786652053624194  0.0017392658139932  0.6719013096076925
  0.2506273835030808  0.1758067388456127  0.3312557255836024
  0.0648735184584933  0.6829683048626082  0.3134654723158467
  0.5844154167575458  0.5882849220648858  0.7472040873466668
  0.0733683914716620  0.9979147028023085  0.0057650349010379
  0.5827414875131210  0.4147360978269994  0.2502472312552035
  0.8334063326795063  0.9116426570340787  0.6702336278884692
  0.9130704075400062  0.7517724748308409  0.9172625792424877
  0.2459313913206891  0.6722822001362472  0.3240460259830219
  0.9979549827510477  0.4157651644182058  0.4904433851529941
  0.4179109565032907  0.2423043281421007  0.7500412313293285
  0.7529595980844624  0.1597694737504276  0.3352036728604638
  0.4175444509276419  0.9988909245595364  0.1639037769714419
  0.3240457421318794  0.3262567173689758  0.7451363708439565
  0.1671207549371909  0.9137334947633512  0.1690989976947174
  0.0771738961036135  0.0018723266868717  0.6683733166231799
  0.8333056858324281  0.9216081041840428  0.1663500909038888
  0.1626822953971094  0.1763183318267911  0.4229877588908685
  0.1643211337987130  0.6648403832613962  0.9296109481244812
  0.9993659819154324  0.9194062456389689  0.1692527647978612
  0.7495961531493714  0.9219518404097949  0.0740990953971298
  0.5056810838050589  0.7464682591908649  0.6724633460346748
  0.2525827886681328  0.6682970873022309  0.8407826540543574
  0.4104711683191957  0.9123659578087930  0.2566352369150700
  0.9167961334557898  0.5835005500678473  0.4157093632354791
  0.7460950781049307  0.3276136547517021  0.1656786105998200
  0.9906356330088758  0.9930162745124733  0.4170457756197333
  0.5773933721602115  0.2425364719714904  0.9172078645786271
  0.2441854843762742  0.5009909007739553  0.1634908441544669
  0.3993322217554375  0.5251996239999294  0.9829959827287185
  0.1602487333575826  0.0897054860282366  0.9965668616058108
  0.2435826081728978  0.8355638329321049  0.6672023128914748
  0.6616409540333315  0.7440929008179176  0.1634578155140871
  0.9105230105246402  0.4172379861826233  0.5830062918095039
  0.7403751701610571  0.3295988714953343  0.4940270286237005
  0.7449569742832062  0.6639559164933629  0.3314492126660478
  0.5855672640909811  0.1676683638030824  0.5017048656808559
  0.3269064890890228  0.1635155094404433  0.5821807686808551
  0.1597365646982499  0.5852620970918971  0.3277844162786117
  0.9246986721664781  0.7489017585721871  0.2540237185432205
  0.8226823871301994  0.4221423107822907  0.4910466727277704
  0.0757303247343752  0.6605753983702294  0.4902246978382306
  0.3248833273043401  0.2523889220442011  0.8381140415424692
  0.6633101014394456  0.1593158130231443  0.2427552047471076
  0.8317480572153336  0.1621693721921367  0.0832601131337738
  0.9914305072258335  0.8305852500662761  0.5797916186847962
  0.4134937758642964  0.5721640363912683  0.5791680661109777
  0.9966933849707663  0.8360501569989239  0.9184487380476262
  0.0775949837135961  0.9914334767942777  0.3284753781993067
  0.4044113619870793  0.0078029467240039  0.6672994129307768
  0.5020790071530168  0.9964568977030098  0.9983873075055810
  0.9129794257928351  0.7506096128022701  0.4975165749389741
  0.8327141215744598  0.5858717155738711  0.5801286813428833
  0.2462358393780681  0.6681116123733195  0.2387771701405340
  0.9926334491968024  0.7496101437982338  0.7501411341926892
  0.9138162315175894  0.7470562638470172  0.6673564938873896
  0.9108277881712168  0.6670098895872717  0.7504710797646487
  0.1609938325364793  0.6650512446896498  0.4956596119687360
  0.0808993042192471  0.8348176060169363  0.9217306880956940
  0.9110115789716162  0.7491552697761578  0.8298430330904897
  0.8312707001166628  0.8344864967926672  0.9990712915723502
  0.9139685756622128  0.9147767015371566  0.0003591935793909
  0.9161030854323782  0.8321113504780936  0.0816105078992373
  0.9954900623085082  0.9215781028769466  0.9174829799905585
  0.8413423613577236  0.8325848336702291  0.1659083183629080
  0.9968495837235027  0.6669895091882930  0.0033649593813540
  0.3292052561852244  0.1683563337091259  0.9991895996225633
  0.2454236192479568  0.8345792056602459  0.5819568524834869
  0.2452488140809174  0.7498692062437307  0.6651369014473226
  0.9177188089165987  0.2493416427570468  0.4977502402544519
  0.8300715012860366  0.4999047274034358  0.8328301998452090
  0.2491449843129818  0.8339800982264276  0.0907949666601490
  0.1635143462608286  0.9172714927138621  0.0814685509246224
  0.3350159686171735  0.8368023741158420  0.8353913128638151
  0.2513085246409802  0.7561997024169619  0.8377306253944268
  0.9139971193875048  0.6669119351379363  0.0832876305496205
  0.2521202134004749  0.6717324874751901  0.9303822371699544
  0.8322339500101085  0.6593922314154727  0.1674211143879449
  0.8342653728314510  0.6671955172045863  0.3333264543762996
  0.9158596356287318  0.2499198695550200  0.6651105009037539
  0.1639042389282252  0.7497692800902600  0.9223483966942440
  0.3244442209306329  0.7496274983657037  0.5864567199347150
  0.3281869799824766  0.8360524446026035  0.6671299577085467
  0.9108073339779095  0.6714553404017927  0.4175576532162668
  0.3293134378784185  0.2501695215157655  0.9227836854861609
  0.2471984320586021  0.7517545660650761  0.1658431846453241
  0.1652752726271778  0.5828785970272065  0.0854292285090717
  0.2487068396496805  0.5907335506309890  0.0122130049418389
  0.8303330518532553  0.7473302937403841  0.5828918123983553
  0.1571340972700969  0.4072311957882544  0.9147015600441106
  0.9136985262698132  0.6604523907038279  0.2504405193290491
  0.2439390359067859  0.4156133310398951  0.6582457362215934
  0.8298693074629744  0.7509910425435276  0.4169603114239533
  0.2448181670741576  0.4955568996092323  0.5787428221984730
  0.2448560914746375  0.6662583333675751  0.4104423523335478
  0.2459592569667834  0.4158097369389219  0.4983151227512125
  0.9047641213953231  0.5005550448082097  0.7492461235492174
  0.1624104229620412  0.5815918589933726  0.4174385483512575
  0.8297906645696472  0.5915741611281524  0.0810261911190541
  0.1592188234503118  0.4979017345630141  0.1670092803600946
  0.9135923444972419  0.2496133383477901  0.3297562976175984
  0.1678747822241025  0.5816397119951520  0.2404924113278513
  0.9109395997065436  0.5835478902816359  0.8349554549683514
  0.1651806807173259  0.7521292762981812  0.2482477406787968
  0.3313671554818520  0.6685546575301521  0.1635919139725657