Cr  N Ni 
 1.0000000000000000
    21.1326370199527886    0.0000000000000000    0.0000000000000000
     0.0000000000000000   21.1326370199527886    0.0000000000000000
     0.0000000000000000    0.0000000000000000   21.1326370199527886
 Cr  N   Ni 
 259 173 605
Direct
  0.4906675243039924  0.4128703326044019  0.5820916981182316
  0.6722855415118408  0.4182829874034437  0.7481468466216058
  0.3275392603573137  0.4147312448281043  0.7467039934210568
  0.5802394791421990  0.9974282661816103  0.5848694462639701
  0.5841258901831826  0.5054628146023601  0.7512172366233836
  0.4131451239013410  0.5808652639550160  0.4987286339793662
  0.4078357744765275  0.3345481025202727  0.2466929687206997
  0.7477507015377616  0.2426810971041211  0.0070406134879353
  0.7462150819136388  0.3320957700248800  0.0818015984972974
  0.5850273862850645  0.5869322403409356  0.5011342701032230
  0.5836510903753813  0.4138177981644091  0.1558252702992766
  0.3316653168706040  0.5824304240351570  0.2470638217349910
  0.7426316591841345  0.4112470450433368  0.1630399887945191
  0.3349911909585951  0.5024402294411507  0.8336364520641045
  0.7431621292988182  0.2407767035277493  0.5003434802311196
  0.5042432411038285  0.9132967329861632  0.5822333100736119
  0.3427624958092149  0.5934798316798574  0.7422288657856113
  0.5776138331291740  0.7406112271494972  0.1652441573062916
  0.5809198079023609  0.5086565896595883  0.9175852219601327
  0.5037212265935334  0.7529353721794428  0.5812277323399816
  0.5799754699583153  0.5859709389607214  0.8369894351299916
  0.5026173288169907  0.7537363515331235  0.7545542779215324
  0.6637215667213396  0.1695202840182554  0.0039927784645267
  0.4101742773424220  0.9131880454807784  0.1673661606312442
  0.3272201972265001  0.3296585348468687  0.8323944217259011
  0.5868261953675443  0.9160921833804740  0.1665082421059171
  0.5803801032742946  0.7508005551633167  0.3388572873618668
  0.4155503229109477  0.5034906029055882  0.0843506180959493
  0.2544688175924371  0.4995254469391818  0.2487871492641951
  0.4965476535453359  0.9121370791641833  0.2561638937427732
  0.4168890405641170  0.4152789157683567  0.9977178771624985
  0.3297014650361960  0.5016377458703076  0.9926315743666599
  0.3332574868980581  0.5894496533220132  0.0801497662521454
  0.5021606350727272  0.1653176010919436  0.6680804636979791
  0.7486817314989517  0.1565496574749005  0.9160458624857298
  0.6647866728107228  0.1662615052476195  0.6670674432207333
  0.8370690170911637  0.2485433760018422  0.4062420937810491
  0.5814196178782198  0.9991964310168694  0.7592321764206901
  0.4163039521905783  0.8355827070282744  0.5794492728198786
  0.4959175124355275  0.2404360361529173  0.2458845437373191
  0.3303375187912766  0.7519385846017053  0.4169375070664136
  0.5925299330745827  0.1660153173100109  0.7486781837570673
  0.5018984462269372  0.9979326262660937  0.8344216977358232
  0.5028590893615632  0.1641560676522608  0.8397186046266609
  0.5023746010235222  0.7510210822559693  0.9144960708268624
  0.4931650375914667  0.4174416797304030  0.0745792318914121
  0.4966136750598886  0.1745433195080820  0.1610961790313100
  0.2547805443259146  0.4168446955921861  0.5013724540672098
  0.4938391955565079  0.1653899672299051  0.3275006648658247
  0.5019716088017554  0.8384021820195160  0.6664759371421312
  0.4131525247475796  0.8256803596180822  0.0825138569213931
  0.7517713002840516  0.0905039688246963  0.9988073792596562
  0.5805008916143946  0.1597994838639051  0.9171332363810574
  0.7522505772428996  0.1664739550521803  0.2358339691979233
  0.1663384550023096  0.3306482436641878  0.4966261486736770
  0.4103549306284740  0.3290168400254954  0.4154113263366125
  0.4229259406636652  0.4191022274569379  0.8386019134610818
  0.7487363271559547  0.0066551284217893  0.9078485093262540
  0.5818978805747285  0.9097069237368727  0.6676568752338896
  0.7446690436325742  0.2474350415821594  0.1506022067143678
  0.3255418900992179  0.2487992142136454  0.5836532711215252
  0.3238493744126120  0.8371162527877585  0.6665564805029360
  0.6698652341425354  0.9996807671063076  0.5012243584370747
  0.4207654352190545  0.9114772486576208  0.3352333081722500
  0.8318235166899238  0.0823195368935710  0.5799570261713655
  0.2462980364310157  0.0846660209499184  0.9993327661778366
  0.2462652755363727  0.9948599818225677  0.4207086826882400
  0.9942749684873972  0.9282070365228017  0.9160195701813421
  0.1584569501803939  0.1686072480387119  0.8371650104354446
  0.2492251827441841  0.0836215986235162  0.3296445377244070
  0.9984571006925351  0.5924001896341186  0.5789510208372614
  0.9920111907094888  0.9974613745245645  0.5028604265981568
  0.0726520080410678  0.4993701746442983  0.7535034455662307
  0.9962421196755756  0.7583040065610474  0.7511611182896517
  0.0799944618116107  0.9910640263424423  0.5854937562887684
  0.0794070698850745  0.8383123741302927  0.5828811824850288
  0.0768765623065864  0.0794381308414935  0.6737808073784949
  0.9915656046087166  0.5808299628788388  0.7543074310105500
  0.1590539269650774  0.2464679909347715  0.9185296486233505
  0.2378543586018288  0.2448284265477118  0.8365192070001380
  0.0778605966717946  0.9983554446069844  0.9090430982576306
  0.0775889208090088  0.7568947644860170  0.3337467610289760
  0.9897092717010979  0.4990296815565759  0.6682852555467671
  0.0791916117724120  0.6692081178769953  0.7495795748991504
  0.9916853559216577  0.9993533745154219  0.1657501619446806
  0.9913204167150214  0.5856470399401210  0.9203500047736000
  0.0819536486861956  0.6669138144719163  0.4231400130608579
  0.0829521540775409  0.4177179985465336  0.4938509860039180
  0.0798735131166334  0.0911821428719326  0.1659884748599275
  0.1673542001704967  0.6728278837938038  0.8342994870522411
  0.0805731505874723  0.6680478111323355  0.9250700409838211
  0.9118646735766781  0.7533988471081405  0.0045266806863950
  0.0802959280619998  0.1582788644352448  0.0809807680668927
  0.3280902622564917  0.1571397474784405  0.8357510193772746
  0.0810547753176171  0.9958681525097371  0.4124678095684158
  0.2485629928838174  0.0754146664087823  0.8358289677790778
  0.9862983921970142  0.4143024894915169  0.7577786141135157
  0.0812762065056146  0.8410858015451617  0.9176140657893557
  0.1672237101880875  0.5016333607347911  0.3364306331954572
  0.9963463441447534  0.5069776340824678  0.4929250326305172
  0.0775131346782915  0.5826509541626561  0.1611444848718897
  0.0767423124323671  0.9150445403524687  0.1602195367728255
  0.8367303913187488  0.9971149529431971  0.6681793967432893
  0.0813222560988777  0.3295191467309512  0.9195923177250460
  0.2463583565270283  0.1693371408296924  0.4165622265929749
  0.4989789855079003  0.0017761229899388  0.1642385327475923
  0.9171483975931698  0.8360490946116969  0.7523666918839380
  0.0820756539321569  0.1708461595302276  0.4120993479619029
  0.2416021533051505  0.4973263609570400  0.0786577761518340
  0.0792041929470982  0.1656142037687477  0.5820621667121559
  0.0776072447923789  0.9056711152948851  0.6670983216992752
  0.9077853784835291  0.0011280162691559  0.4119057708372200
  0.1659680642265293  0.0824466509425983  0.4175564215458535
  0.2474642536039024  0.2440672475657535  0.4984384335441830
  0.9974850911962100  0.3313978071388114  0.4966373299298452
  0.9090042327244425  0.3315579579485687  0.9188045540832456
  0.0802020736145568  0.4111906784081022  0.6667060799383129
  0.1635239283099525  0.0786299125375453  0.7453155801213743
  0.0781460913654384  0.0047345754706776  0.0798062823718064
  0.4128425077885264  0.3375189846467636  0.5846464821776480
  0.2467636091637029  0.3321561502658814  0.2508049221964807
  0.9928610305007549  0.4135964062380755  0.0798268380712561
  0.2448642099010667  0.9970950744582980  0.5842931520485105
  0.0838933448378171  0.4120706543251653  0.1688038128369745
  0.2422131560894620  0.2552213812725531  0.9972412325244571
  0.2481582939890815  0.9970576152125367  0.9092553720772232
  0.1680171976865651  0.0049299041098198  0.1633447762792833
  0.0809408712102959  0.3281844006617876  0.0796233269776987
  0.6655901454480689  0.0023807125814446  0.6657119691307471
  0.4961238022561288  0.5938069026543898  0.2477294936513242
  0.3287831677978800  0.8363187130636756  0.8322335775746293
  0.6556250995108264  0.5865728388172806  0.4180629928030652
  0.3319986822439424  0.1691132318050020  0.0014768793902514
  0.7543062282652656  0.4878998197725689  0.4235952242745416
  0.7412602421058877  0.5864692695545679  0.5061836967847009
  0.1622766952038068  0.5858421592012970  0.7468541631938996
  0.7456296805422257  0.6612356136899148  0.2496173619412079
  0.4858897353652472  0.5006993566920031  0.3361459392912521
  0.7382666722584340  0.6741767668746910  0.5895561562847105
  0.2472912166497177  0.0856822330621495  0.1653650209039821
  0.6630896007696955  0.9169423791799334  0.0824863283134498
  0.7349981703401526  0.4122294636487911  0.5021930689391817
  0.9979859635458789  0.4984513367162899  0.3305494422842922
  0.6666059261185191  0.5100049814151786  0.8325590554945634
  0.8258836712482995  0.4189025245933941  0.5801755040473328
  0.7405398918547557  0.7502926046531833  0.3385326864832081
  0.9980954945434326  0.7500849483488874  0.5812648977546120
  0.6618429641120533  0.7501722747481604  0.7522590524931563
  0.7483492983945679  0.8381023664871954  0.2550888106219060
  0.2496374962600023  0.9191404131544990  0.8313851776499250
  0.9140949924063732  0.9172772041335185  0.3340877505823750
  0.8247916609668146  0.3345013000983232  0.4954875496333428
  0.8275671341192220  0.8319883712723380  0.5056169057009173
  0.1702049559878772  0.7558990465356744  0.5819498403140142
  0.9131231658484295  0.8364100197894586  0.5836519236161293
  0.7400807679723075  0.9116588879186572  0.6640543585739582
  0.8255628351891463  0.7541733803479923  0.9185051571251799
  0.8318921939604684  0.0057572873410524  0.4993140940156663
  0.4056025907812286  0.4137751412303086  0.1636366055846546
  0.1680460729883238  0.6681473910387903  0.1623717186073325
  0.2460102064291155  0.2450410141334497  0.1628688888867518
  0.6621628305767359  0.6656598156207413  0.0020338774674040
  0.4132413242675352  0.1621701819335668  0.5827293522559310
  0.4065604004603323  0.1671478415934723  0.4159710539570011
  0.9134379541581087  0.9222964678333697  0.1621277872408553
  0.6668035571580194  0.1632696497978171  0.3310052498420084
  0.7521256111237401  0.2495367350759290  0.3217076973038853
  0.6653608174945002  0.8321375475796697  0.1695282065508158
  0.8330973625812522  0.2421757865513837  0.0803758529441326
  0.9182948253042301  0.2417281161483163  0.5000894021292516
  0.4144125657881607  0.0067882677809932  0.5820757036524926
  0.8299845837068579  0.8394486351615581  0.3317840728265446
  0.8400143418820213  0.2467912802402777  0.9207706309690915
  0.8267206151155616  0.8254601551119528  0.6636587569211989
  0.8327117255064022  0.4990372551589590  0.1653585841896375
  0.7379464714591636  0.6681854226559947  0.9171854461381824
  0.5805717688333036  0.1628962454897677  0.4184949481204813
  0.4143727222620650  0.9992848880404671  0.4241377625215633
  0.8423006352986426  0.0035807660746515  0.9980044008816453
  0.8338091378295023  0.0831961474114046  0.7554740684273786
  0.6597127936633354  0.5005085260703978  0.3316577848778400
  0.4151993650137478  0.9993838852371242  0.0742933625937413
  0.2550783700600437  0.8380848978783071  0.9147580111629640
  0.3357670014426110  0.9969345254076027  0.9983424592552832
  0.8282033127560837  0.3210163193022866  0.1760152732771473
  0.8302553185235051  0.1682819567700215  0.6682932430217238
  0.3224372300143585  0.0028464255412741  0.1675312703789800
  0.2537024322833604  0.5896861856545120  0.8375824211048483
  0.7490921657660113  0.9164980180142328  0.9935356800587170
  0.0841686557462748  0.5866772139219396  0.6654242317510359
  0.6693390515371784  0.4169536042362963  0.9264231236318236
  0.4143011042688137  0.9181529116112793  0.6684711159102845
  0.7473198598952291  0.5019371004812612  0.0763961965459720
  0.4158604976424394  0.9981634385790350  0.7556543553503582
  0.8325595630107031  0.9152335952186114  0.5842568017636389
  0.7421312701294653  0.8286586810845615  0.7532199682368381
  0.4097920294224740  0.4151297433194494  0.3283337452067610
  0.4300178116032706  0.5878764101770011  0.8364513968995237
  0.4106838131998932  0.6623105326220307  0.5913723608210577
  0.3296258112056596  0.7507203019812252  0.9155424189894269
  0.5015696396756012  0.2513527218014125  0.5854338186792336
  0.5031218296610674  0.9998476639123082  0.3382604422579106
  0.5778021239800333  0.5001385506071102  0.4241226792997382
  0.4168210026281249  0.1647063484134390  0.7483684850670723
  0.5845338443432179  0.3277048449568725  0.7476534534295455
  0.4993180704230659  0.3262968582683040  0.1537008285023963
  0.5801783920753967  0.3307756047856357  0.9203381025203752
  0.4915393617568089  0.5050884559125026  0.1607845700318283
  0.2477343941478418  0.7499462240065766  0.3366865523525653
  0.4167677365807215  0.7545801990454754  0.4951812692545854
  0.5777596426285283  0.5927867206614642  0.1650168246281611
  0.3250304018877919  0.7568327295994095  0.5888753626989378
  0.5808413941541687  0.3294472778627732  0.0836418479371919
  0.4266067513174799  0.5740806384529286  0.6690174339569995
  0.6642808123121640  0.0831878400806843  0.9114274715860189
  0.3324814018269122  0.8335913249801906  0.3382291030136003
  0.4184535415199623  0.8343919376428155  0.7528297742461206
  0.3370926042287435  0.4962991171290633  0.3360674176551194
  0.4938870144440776  0.4166758903803876  0.9191524022730033
  0.1656154722955484  0.4942657844891137  0.1618396930183446
  0.4154263578473484  0.3284898251972803  0.7436760557225178
  0.3356327072340232  0.7512750433931634  0.2448896028833984
  0.9191446234570604  0.7557576101506210  0.3327045455404460
  0.5851097008843718  0.3276292256158386  0.2418157251839800
  0.5847158984010934  0.4185581222677853  0.8354609993720467
  0.5819452902061870  0.5034157831939436  0.2496527097841662
  0.4903354396281535  0.4175024346083667  0.2524075631433549
  0.7467124976531287  0.2463541223285909  0.8303467484136208
  0.6684370713083372  0.9165270596550020  0.2485325687037310
  0.2502092147200634  0.6777246872572682  0.7505678827294159
  0.9155377759385737  0.5798355178341914  0.3306332831387303
  0.3324148421217202  0.5867788393242651  0.9237924077757828
  0.5866070424499621  0.0882317324423375  0.1638333296392214
  0.1566188337058904  0.4982514657871863  0.8416218422451739
  0.2492958530282254  0.5012551209747528  0.7455683802099845
  0.1615416581639881  0.4080825208770423  0.7517201183868347
  0.1660994089920362  0.5858736425120235  0.5771599104656749
  0.7601640301195174  0.4135017675654772  0.8359222250525807
  0.8291567323567939  0.5863360015003731  0.4147197434481062
  0.1645447541828667  0.8444658166071838  0.8277537375881626
  0.2396952369228772  0.7530037819924019  0.4990047509527477
  0.8252305364164363  0.5796163213046939  0.0822224828745190
  0.8293864473018178  0.5053228070605319  0.3289330184554843
  0.3322692768135794  0.9147205745531053  0.2460832427789940
  0.9072752182413284  0.4171491447080489  0.4958089752760705
  0.8252864252086859  0.6630342743106147  0.3320420144841316
  0.7375890828080917  0.5785088576444879  0.6817266579054004
  0.8291501969825328  0.5859853299209674  0.5867718534092643
  0.0802833504431809  0.4956683657288518  0.9205150502952860
  0.1600320818378646  0.9149193297874305  0.2542714638841198
  0.0830233615807621  0.7574759795529323  0.1624289068872608
  0.1608189460826381  0.0015156551508741  0.0010474119131169
  0.8247446187444368  0.6628057443636464  0.0070063186981756
  0.9064397783030077  0.4977390859523174  0.9198196564024187
  0.9124302672676016  0.6627290912167714  0.9169877968098076
  0.7476101526576217  0.7428736528495925  0.1618933743750759
  0.9980121154529846  0.7540557300709357  0.9197612016321850
  0.9098142415873497  0.7514248741490647  0.1576540848022507
  0.1655100363865095  0.8356531140020316  0.4994124441688929
  0.5791817857528427  0.4209053043599721  0.9241849731150252
  0.5786987872016616  0.1621564395850482  0.3278288466508684
  0.9951685149315459  0.3260123983244593  0.9174391388930966
  0.5733862034198510  0.7478176256290252  0.2534280403398250
  0.5903260320357323  0.0031195118905199  0.1603602006066429
  0.4085342948754153  0.4162250145135323  0.4144846507256068
  0.2477860162374143  0.9977013682487906  0.9973130850880249
  0.5840759522780110  0.4156001946639569  0.7476046619267271
  0.1687217836289629  0.4091407902036376  0.6650255366400317
  0.4158039955188825  0.0006458027299581  0.3395260057807737
  0.9924305569515955  0.9945528485686375  0.4132684425622671
  0.7428903406489986  0.5785112958873624  0.4191826298731560
  0.0792281589026981  0.0842239543412143  0.4119683486937016
  0.0790285564981169  0.6721674118096087  0.8370935170098175
  0.1655217089882544  0.5807147075440012  0.1622591449375794
  0.3451524947940068  0.5914752346649010  0.8361996615243709
  0.0790177896848170  0.2423472431747339  0.0845758776788014
  0.0725673013672397  0.0011907228231320  0.9935495323950806
  0.0733928570751382  0.4078472504162010  0.7579368093594300
  0.2447054148656314  0.3310530393658480  0.1646278002913877
  0.8301680748190921  0.2549674560344402  0.6650449446220522
  0.2433949520902671  0.1713653165872642  0.9997637709870221
  0.4085261564674335  0.2467253101548980  0.2461296922145289
  0.8338936164365575  0.0833214734433444  0.6678579259437821
  0.2535697356724695  0.6686211777747503  0.1617015243561037
  0.3304468438495425  0.1600048016540852  0.7484189738864112
  0.7680609565302743  0.2585631563431871  0.2314340014035386
  0.9939707304381652  0.8434808528071064  0.9184307067694211
  0.6665755102373486  0.1601374328160221  0.4206935894816888
  0.2542016238592228  0.0811941942271118  0.4201843577871938
  0.7536583151002311  0.8306347997932484  0.1681533118359948
  0.9895480718449184  0.6719435801421914  0.7506441704136111
  0.8309185196952591  0.8289039640993414  0.7528622851172441
  0.4196128577258977  0.3309642953734738  0.8300525154963063
  0.4979030209145043  0.9107186232426160  0.1673777185865954
  0.4907491437466546  0.1605018357292451  0.4149191922425631
  0.7439924297020000  0.9152212505251344  0.7529176085699113
  0.1667769371272825  0.4957482823208285  0.2486936602166864
  0.5713009318268535  0.5011040644833588  0.3386314413048354
  0.9969360103762477  0.4092964630178755  0.1679001845045838
  0.2375471513444274  0.3297204965222255  0.8293199415211915
  0.0850604093630272  0.7512305409948077  0.5857343528737537
  0.1636233213764151  0.9166688817419902  0.1660160580588475
  0.0811946916142659  0.4995363622934964  0.6638632238687611
  0.7356096989295327  0.3267767194084525  0.4971846802692876
  0.8181369865859545  0.4285246627326904  0.4828744487886240
  0.1701014893269363  0.4220157274519525  0.4937116854689773
  0.9104301567445376  0.4164228086624784  0.5843023845945227
  0.9953452921738180  0.4204391462176597  0.4888048427710706
  0.9111901391810723  0.3281135134033003  0.4940442612197744
  0.5033447707765818  0.1630095884624667  0.5826042480598633
  0.1614012289051558  0.4964875558360575  0.7502309372747434
  0.7503760761874372  0.9194117567453389  0.0817267438835251
  0.7549397450276389  0.1591494602739698  0.3218357992202433
  0.4114200976138964  0.5743209476977612  0.5853273053064907
  0.4072541951440302  0.0036301066177663  0.1617873421624047
  0.1629560727185698  0.0805474656798052  0.3285274463811020
  0.4094449725128422  0.0059678637562287  0.6698636171851112
  0.5014172237758525  0.7483181968640649  0.6690499258919814
  0.4102701637409442  0.3286681208778071  0.0000887348837931
  0.3373079273979321  0.0833808789352804  0.9994735774407161
  0.4129215397675818  0.9112624480430486  0.0758993333589107
  0.9133192809039778  0.6650902110837704  0.0047864369314496
  0.9913837570070055  0.0873403353167956  0.1655149222253317
  0.9900659444610530  0.5810896354705459  0.1656428136982136
  0.4149741319815545  0.9226953770546745  0.5771336003226720
  0.9162923046132249  0.5799928687667943  0.4205921617337045
  0.2543723242814111  0.3296750010834169  0.4987110631944194
  0.5755485995880035  0.2441501423126139  0.9150633358796779
  0.6648000699692189  0.9178498733887565  0.3341075664194556
  0.4169291851329441  0.5043412498158010  0.9970771407474182
  0.6672331085125091  0.3304825607414844  0.9193045586186078
  0.7464472829468295  0.5008031702152912  0.1625229904973807
  0.3330249530256469  0.4161273285436657  0.8377971849056450
  0.8326214787717581  0.3289388542465395  0.0872595671925477
  0.0861985877323982  0.7548094070080960  0.9203378515204140
  0.8282300299546170  0.7510721836086737  0.3363918550671050
  0.3346226363616901  0.5819617374001512  0.3336850811274121
  0.0801966923256699  0.6710033535426001  0.1647199416965046
  0.2499048693686650  0.7485984582112988  0.2475715972394024
  0.1625564905660861  0.7548658944066856  0.3349103086124074
  0.6696661914124833  0.5076895052833430  0.9215807454753493
  0.4966467477012648  0.7502437269859628  0.9989151519018008
  0.9168896584507923  0.7487832660763299  0.2428654546875246
  0.0786459886683028  0.9898831926425662  0.6744127302986483
  0.7445379992629727  0.6741754682148917  0.5034810371475779
  0.0793717650461221  0.0776061982784633  0.5854092537426236
  0.9956988741071774  0.5062043555985953  0.5781430762939630
  0.1646665311424170  0.6793696058377134  0.7431350840579967
  0.1633910362999032  0.5860567341038853  0.8388174480314691
  0.9116994314472222  0.7534005941975330  0.9154455053563905
  0.8320112085515335  0.9102560401795944  0.6717613755778423
  0.7393300570412922  0.5864336479431447  0.5955338590620506
  0.0804284812374162  0.2508583540628918  0.5825172041176334
  0.5069367462553732  0.1654606042915041  0.7542834237775985
  0.9962692811867908  0.7568739940141973  0.1608976428722962
  0.4925312116850414  0.4150719043427433  0.1609707671423188
  0.5741418938421493  0.4135966605166279  0.5785550798593002
  0.9102240301872470  0.7510895704026138  0.5891943685441713
  0.0821350684451076  0.3284333131661276  0.4915271578107647
  0.6643851348759703  0.4942375482190155  0.4229273918721415
  0.3268439857791988  0.5007759964270436  0.0815885945647968
  0.0797264999569605  0.0031942765699683  0.1690138575700504
  0.1690065395542963  0.8365646398391361  0.9136257558016440
  0.9178163204909437  0.7530923290752981  0.4193458333330043
  0.9165463939957215  0.9220155975780273  0.2482386542533796
  0.9950199020962835  0.5901111376491860  0.6666873596188475
  0.2530373412311489  0.4914998172625183  0.3380424141901651
  0.8245212345841690  0.5849997282723783  0.6753895452247116
  0.4158962394501266  0.4157774419186874  0.7478313757201978
  0.4137925705380050  0.2513480567185850  0.5815771098001351
  0.7437435610285973  0.7481992618653088  0.2506660906801721
  0.9904364752493072  0.4099069311542652  0.6712580834740096
  0.9948631218653995  0.1709682453438441  0.4149474151048160
  0.1602312369226555  0.1661312189384083  0.7498878054482278
  0.4166921170224088  0.1589028036572820  0.8389424714439478
  0.0819766772039262  0.4947183136709312  0.3346754580076239
  0.0798877121689065  0.5811796323931390  0.9238196932150810
  0.2499995120681066  0.1710305284130357  0.3295472320882129
  0.5823585357540991  0.4136798587739560  0.2468624408545246
  0.5799648306559851  0.9975724198213002  0.6735865682148484
  0.0813579551577227  0.6685044663654613  0.3372027913805168
  0.4158015618600152  0.8370064106869695  0.8383946975413973
  0.4109872009441374  0.8293636373209533  0.6671047151003422
  0.5777510520413924  0.8264930596330827  0.1654127222679598
  0.6642941761714796  0.2513630410777067  0.3243543193556642
  0.2460362945945881  0.5004180371419193  0.8376340226788102
  0.7505755171819180  0.2468303413238223  0.4106756386277458
  0.7499608667031383  0.0005340764334207  0.6677955478241462
  0.5010851519125039  0.5807873914609797  0.4984122961413843
  0.5842144578986542  0.9988764019200265  0.4982016481443418
  0.4892632921794621  0.5083806107030738  0.2494385147784804
  0.1607786571138105  0.0792515835652216  0.8334504638894440
  0.7560336428024316  0.0037683198256347  0.9943441355614180
  0.4151351821349143  0.7487359320264739  0.5865932824684552
  0.8269682257354097  0.9200719562505353  0.4984675540321963
  0.7404684490646131  0.4143562341521926  0.5915646702097639
  0.8236996301418926  0.6627689409959661  0.9177460794719773
  0.5797008161332331  0.5069800734795556  0.1593969142881886
  0.6761168606383943  0.5132020911845825  0.7399165193259698
  0.0801268348607133  0.9935909848411005  0.4988221369402713
  0.7373884296626915  0.7561338099589825  0.9193652707027173
  0.2532879462073999  0.5902859862477204  0.7420972822162770
  0.4966725673628055  0.3308915365679513  0.4172837545513060
  0.6611196065605381  0.0848376365765076  0.9991532260110757
  0.5030024416876875  0.9993401817448279  0.2533594291504944
  0.7517507427979861  0.2444920566017919  0.9200221893345563
  0.6604724010854399  0.9122327693156157  0.9929505692776004
  0.8286977604530597  0.4099820687978228  0.1704002570470069
  0.3247049556025723  0.2427018883028826  0.8357401753417575
  0.8312394388089215  0.2415569936778416  0.4950727231704251
  0.4141379861064400  0.6669289424757855  0.4985360014147110
  0.0754342177501832  0.1658954322437138  0.6697644545373166
  0.6632616816674621  0.8290098886405953  0.0805686948861291
  0.8257466309690296  0.8348769078817316  0.4183270875577661
  0.8344721980305534  0.2471975566474670  0.8341820301041006
  0.9124589723199578  0.4884612689014762  0.3273093318304374
  0.9121824152924908  0.6659765430953515  0.3268511246649177
  0.3263140666854023  0.7549909352591851  0.5029201974012114
  0.3396965551211047  0.5043360386316783  0.7425218769743712
  0.3255893877054208  0.1617035720821429  0.5799164826839140
  0.6743941248490223  0.4182069371361002  0.8364176915932946
  0.4988148545873645  0.0910225369319819  0.1615090806651967
  0.3405251845027768  0.7478239365462477  0.3301073194503600
  0.2459149717880116  0.9195502004155979  0.2505744703343328
  0.0814083928184021  0.4161228691895901  0.0817294186399845
  0.4972355629019418  0.3276559095677376  0.2444674221633174
  0.3324654802542851  0.9187189816781151  0.3344296709044565
  0.2504226821937699  0.8300073854008951  0.0027096756427559
  0.3893997769171266  0.6493746233852169  0.6856312115538697
  0.7448223496129978  0.4954921044567760  0.3329588136476399
  0.2561296890345817  0.6810386621137350  0.8409962558659003
  0.9921955301898149  0.4976967294463750  0.9198283273812906
  0.5754707200856042  0.0808792405124030  0.9968935007673566
  0.4977453344101743  0.9168300067434469  0.9140191591243211
  0.3332852987162392  0.9185420920367523  0.9143464793732368
  0.3305627242917421  0.9182180699222147  0.7500960171889516
  0.5847439759188801  0.1662055428102168  0.2419602934697978
  0.3264628831396948  0.9180559366652874  0.5829150852317885
  0.4996289778986047  0.0769352013919977  0.5838188445193147
  0.5841227912075744  0.9979695149854361  0.4129778093508605
  0.4961351242561320  0.9985540908538937  0.5002989383044717
  0.4166217895654706  0.9155737037645625  0.4927400420325326
  0.4976491549488886  0.0820595497031682  0.0757257986418057
  0.5817550293072771  0.0856343419919112  0.5016983397994007
  0.5814485682342271  0.9993001994413508  0.0747968819216776
  0.3233303980421668  0.9979981931565128  0.6667600824537278
  0.4991528393766899  0.0749630482805953  0.4188578411647270
  0.4965603971984090  0.9992319430965173  0.6687623068129295
  0.4158556806832324  0.9228299697439568  0.8338047778723053
  0.3297962117880311  0.8412604069706909  0.4993781132746100
  0.3305747789491964  0.9183291819189520  0.4211288686952164
  0.9947920205676442  0.2408989669916898  0.9176308591500546
  0.4988112748318993  0.0801051615609877  0.9147855271572982
  0.4185119710373009  0.8342073245577108  0.4171719810063311
  0.4900524347447601  0.8241330963766368  0.1658322748920064
  0.4986741624159883  0.1643656057142021  0.9986372300991521
  0.4975995158815008  0.2451439042319157  0.0793905039942069
  0.5808680947976688  0.1639699177351051  0.0805700951997062
  0.4912103808180716  0.2481378655600602  0.9190935069101372
  0.4137318280366569  0.8327622313001335  0.2506625702357961
  0.3259431719851509  0.0058511984293994  0.3314130684440837
  0.5054885367206993  0.5836761509394683  0.7523641549278340
  0.5817650572940576  0.2456935519322309  0.1611200548553368
  0.5762228146904903  0.2523208100061569  0.3294562348807470
  0.3256595448244857  0.7593847472856416  0.7506662774839467
  0.5847611737868357  0.0767491057121695  0.3324323849893271
  0.4300304411683885  0.6682964488186579  0.7582909633950879
  0.5807766187252046  0.4129638235363087  0.0093613035534280
  0.9917325599614131  0.9973436320694429  0.6671487587304897
  0.0814907342371387  0.0869047825393688  0.4988580731310315
  0.8339584079166189  0.1641959130559233  0.9992140790504022
  0.0761044470277081  0.0838866921725521  0.3243616434850454
  0.9143637655056523  0.1649076696181680  0.0815297770678413
  0.9967613516861180  0.9987922018977028  0.3269862202220081
  0.9074828651603262  0.0835618655261383  0.1647215686668095
  0.9960151648011804  0.0827513583515904  0.2519332054512893
  0.9180150290542902  0.1620174623715443  0.2476604205993777
  0.0775052730142934  0.0879280708091879  0.9963383236883649
  0.7475762962304258  0.3346731022581662  0.4076562514044167
  0.9183161399010632  0.9144697779653681  0.6670271577024032
  0.8388024320910608  0.1623794976018034  0.3309948935326584
  0.9151578055046786  0.0009133580551190  0.7519280214192881
  0.2480254024626289  0.8336279890848098  0.2507115694405443
  0.8328650797400581  0.0040750640619345  0.8353248952290564
  0.9126620951430856  0.0029337923891148  0.9147193042643124
  0.4172682314466415  0.6699190474282605  0.9163233917185867
  0.5849085243985269  0.2488536349395806  0.8282580669572279