B  Cr Ni
 1.0000000000000000
    21.0071992010941209    0.0000000000000000    0.0000000000000000
     0.0000000000000000   21.0071992010941209    0.0000000000000000
     0.0000000000000000    0.0000000000000000   21.0071992010941209
 B   Cr  Ni 
   9 259 605
Direct
  0.4919640722258204  0.9142392518500329  0.8377469786816556
  0.5768652821338897  0.8482348449543887  0.9931712078663135
  0.3458093565893999  0.9196285201832115 -0.0076222723783430
  0.4247603078945382  0.0638786959644086  0.9095223499312465
  0.4325027362211147  0.7743803882409854  0.9130703571014716
  0.4041430402032463  0.8253195874099253  0.8533286728105340
  0.5852076106053450  1.0029544607715759  0.6676278480042966
  0.4814411004121802  1.0130188285129098  0.9384411472349441
  0.5113008139604359  0.8837063758217991  0.0301665331222069
  0.5864229852799500  0.9225492098460308  0.3372387024621473
  0.3330552959911309  0.6683712519818907  1.0006520898368017
  0.9179676958195386  0.1692067677034348  0.2521081506266199
  0.6686740436066639  0.5852239432549182  0.2539167129205845
  0.9173894103116386  0.5020192736456074  0.2532646926830387
  0.0857943785476045  0.9193463766714458  0.3366649108635597
  0.8344998465988440  0.6708377152838044  0.3361013655670938
  1.0017027287572460  0.8363662111542797  0.5003134207798249
  0.0848004077312530  0.1710717057118266  0.4187647509716471
  0.0821455723215836  0.9209489107489877  0.6637420773228367
  0.2508686839677324  0.5859791390076787  1.0018719693404581
  0.2506585764627959  0.9200672438282989  0.6632892459766219
  0.9187447776163675  0.7517303618404779  0.1711960893787577
  0.2486840301108917  0.0055331627239734  0.7479169427491303
  0.8344661422245652  0.4190891486818231  0.9206293679572778
  0.9195281365589162  0.9201452699968001  0.1715857396966599
  0.9174845353308103  0.9205097709113969  0.6666847046089904
  0.0851384884769467  0.8371504186480466  0.0890036667761036
  0.0833200552715309  0.4185489251122333  0.6709049859387499
  0.1672588916216800  0.3370108489984544  0.1674509723623947
  0.8332424037924501  0.5035266753598057  0.3368626937667650
  0.2513715914152703  0.1705217557683479  0.2513066844852811
  0.9178699794976419  0.7512587744925255  0.6665363096879431
  0.0028307004070682  0.2514565103421220  0.4184853620059714
  0.0846378685070540  0.1694947569949016  0.2516995466183575
  0.2475807202559319  0.0051555003148851  0.9183981596584146
  0.3347070950679014  0.7490854170835013  0.5858784416620678
  1.0005857535587512  0.2527267201239786  0.0866621174643998
  0.1640100505919309  0.8360137491698616  0.8301623658023537
  0.7519753127640557  0.8369572664898018  0.4205940878729545
  0.7530765699196922  0.3391947065125275  0.2538110847084349
  0.4158053835781980  0.9188380407476603  0.5053148475074508
  0.3368515177444191  0.4203403419347482  0.0853458834586369
  0.5856282355823941  0.3379115375977229  0.2554519922566538
  0.1687670609918647  0.3380697815737886  0.5022533715689301
  0.5025270761928590  0.1720531242792404  0.8312939852889827
  0.8372168965078991  0.2549168822829141  0.7511733115941350
  0.3345520761052235  0.6684503659759518  0.1710790865258011
  0.3356834536792407  0.7538299794716503  0.2532199115726714
  0.5931152312314421  0.1770550996134603  0.9212747820432583
  0.3336349826060889  0.5019090026953011  0.6681571303347952
  0.7550585627141302  0.1697453869525521  0.0894852775946766
  0.3340496455024060  0.5006187112926460  0.5015479378260167
  0.4173558789977642  0.3367751418717715  0.4193101047238381
  0.1681294966810091  0.5855836711466584  0.2525600424175604
  0.4180642799701564  0.7341763068410091  0.8239317796850857
  0.5841368131668024  0.7504315650698474  0.1711167202258773
  0.9196368880135219  0.8357861498399159  0.4206695471091968
  0.6684493660097268  0.0030438561426723  0.3375360525765134
  0.7529847961220302  0.6693140321459820  0.0864889945530298
  0.3309308139228766  0.6679113113287403  0.8346522846385978
  0.7547113003294058  0.1695956865236041  0.2547068378640846
  0.5157975782043811  0.9178900765497656  0.9311315393451194
  0.2510397921148187  0.6682472229231925  0.4180916171484113
  0.3335693147667486  1.0031416762112739  0.3390940119441637
  0.5047998658241666  0.0938850087357713  0.0940914730397723
  0.3332464902186101  0.0041026358831626  0.1716853259947545
  0.2467311040701755  0.8352050642410430  0.0890082127592744
  0.4186910904408233  0.8363668081530010  0.2542056497455346
  0.2508319383655282  0.2535413197396789  0.6698386830147236
  0.2392567832198587  0.8282426223884919  0.9159746162282889
  0.8366873492836989  0.0858343800988675  0.9204974364908894
  1.0021377726893843  0.0031186168758416  0.8351918941598871
  0.7540053163716289  0.6678343340732571  0.7496832168029791
  1.0021462138101123  1.0019244883702232  0.1704940863961355
  0.6703407948867961  0.2542665420112256  0.9217740422378951
  0.9187452648360414  0.5017103049976988  0.4162179429043114
  1.0005623543618234  0.1692816239375720  0.8354409489170523
  0.2513120879011561  0.4203438134742841  0.5007020122209127
  0.8351483656717055  0.6688224796489662  0.8339142266799398
  0.9196265797543924  0.9198972196252244  0.8351141053378754
  0.2486986664513920  0.0880855651375701  0.0043068512926237
  1.0023861465238328  0.0868798811613416  0.4190137212104758
  0.9191020257662971  0.0870590602702309  0.8352882924937125
  0.0869633918207383  0.9193198878717656  0.8347350447356677
  1.0022139887794543  0.6674934118795610  0.5019570013504921
  0.4227445045237486  0.8372354589607910  0.0847107950916222
  1.0021672630605893  0.0036683851051848  0.5016298397747239
  0.7531177049206614  0.3354264107811860  0.7526393850270521
  0.9204975806966231  0.5006669608903841  0.5841108366502541
  1.0010775805811016  0.5014449693662483  0.8358269853793643
  0.1667912446513196  0.9202112867710448  0.9198158189755016
  0.0848190601483207  0.0051996280940970  0.4212822500361761
  0.1666021787113225  1.0016106203372179  0.1709261387572110
  0.0857032866884791  0.5857535040909941  0.3347708415921389
  0.8341692782478656  0.2521738124001134  0.4206094625941318
  0.7527127530666220  0.0867800704677791  0.5032859322552596
  1.0005384407557381  0.6705055027788049  0.0035431314519508
  0.8343236343537543  0.6688787011884163  0.5040299273999569
  0.3328108771865237  0.7577387389369666  0.9133065258051278
  0.9190924731271778  0.0867620805215390  0.0029582440679407
  0.8351622384318075  0.3368272157137746  0.1690248505830953
  0.7518224868792067  0.6703845166673600  0.2549089020748237
  0.0845292041275480  0.8362953582783549  0.2544406989060889
  0.1671397807485497  0.5868210546409693  0.0881663548518596
  0.0021113260432033  0.6689675932294916  0.3351983955094761
  1.0008174684975055  1.0019159678764611  0.0031090272627285
  0.0836982130963111  0.7506796869026060  0.6666315646779900
  0.9190305732120315  0.2541529421579664  0.0035703406083937
  0.8364674726482778  0.7538690360714650  0.5845726207602810
  0.8353524035178762  0.5027521038352717  0.1705430034968557
  0.7532567506877468  0.4192081291743459  0.8363392973242300
  0.3342085219981942  0.9177710081843523  0.5842248413381158
  0.7536620768528848  0.0885444898176707  0.8362261613542130
  0.5848452867255822  0.9171420724378818  0.5026728888138327
  0.5821669323232569  0.0891898578810389  0.5025590084149097
  0.5015037462397226  0.0868771990986660  0.7529571821896842
  0.5888563390049172  0.9176785077302968  0.8361190304008963
  0.5850214689242974  0.7513669790620001  0.5037335317340215
  0.4993771608916470  0.0886241079245764  0.5833325907607243
  0.4182974926687132  0.3387140437807686  0.2525432030220546
  0.0847093351864858  0.4196369977195080  0.3328128419590465
  0.5846957269554034  0.5034824077679023  0.0858614714012947
  0.0856524332861175  0.5850507431109389  0.5012399718499743
  0.8354476421039141  0.6700522582236164  1.0019800057448423
  0.1667746391338075  0.2530430889458520  0.4178447142484969
  0.4188251819276883  0.5035293761199479  0.9177319478652985
  0.0834818486788778  0.6690325204423538  0.9183752736243648
  0.0858965290481516  0.9192425509430213  0.1728082163092107
  0.1661792331987246  0.5021797369035462  0.5016790758236600
  0.1691921073096907  0.4195533676714171  0.0860487271389738
  0.9196162765487054  0.9191185360291055  1.0026714381192343
  1.0025454502204429  0.3361694804862433  0.1685042941540472
  0.1676732458959855  0.0874991284041379  0.7492807910735998
  1.0001695739610701  0.5844794436138948  0.7529693107969594
  0.9196775581442594  0.4180916300639739  0.5027296222830238
  0.0027715669898003  0.1704059737924051  0.5014840224646598
  0.9192611374650125  0.7514398460125979  1.0027083878672614
  0.7528441105965848  0.5875170554780873  0.0035733875472296
  0.4191012813255852  0.3348363665880174  0.0859254214082147
  0.6679149068846546  0.5855205344618323  0.4187812195163077
  0.0833103338295192  0.8353589409914343  0.4187104702880347
  0.4190513480367022  0.5874400721059232  0.3370994413459427
  0.7522668082291429  0.0880047885570391  0.6705655233044560
  0.5010691725193028  0.7528544878185155  0.4174027338401492
  0.4176663872584415  0.3363247986659283  0.5852747390271652
  0.2503172627745688  0.3381557702607012  0.2518036209420904
  0.4145660781525288  0.9165972201930683  0.6669699146707412
  0.7527160505421971  0.6677701726026911  0.5835725259030239
  0.2503540720165144  0.0882849143816240  0.6675073282905829
  0.9202130365545298  0.3366779026013786  0.5842581739492473
  0.7530309779414462  0.7538191485740804  0.5029090188441429
  0.7518799416340702  0.5006829388502420  0.5825595336089683
  0.5132389407696490  0.1032207560446001  0.9189282757494142
  0.3343767551885675  0.1718797512574020  0.1720343010342640
  0.1680877889599552  0.2531361596451806  0.0864036547398684
  0.8348870687093395  0.0040236532958427  0.5033435160542815
  0.7518719015493061  0.3370189277385868  0.9199304174389286
  0.5853162972308746  0.4179860933186071  0.3346516977930682
  0.2506376220651570  0.8349695971068959  0.4209464370252871
  0.7514093532871974  0.8374802087163585  0.9198580141498987
  0.1676746149939064  0.2531456917269763  0.9198411985564648
  0.7541233031479105  0.0882116995543087  0.0035179389112420
  0.1665202479154737  0.9202369450619512  0.0878761114863181
  0.2505684223981544  0.1703306424738912  0.9204597976891765
  0.0835584376918239  0.2534468462003255  0.6692717468021140
  0.3279957020453933  0.0873742313807073  0.7491376488388282
  0.3345021456313649  0.2557180283901443  0.5848059216925412
  0.3340677608787573  0.2550440242152489  0.4167805163463044
  0.8357718153958479  0.1703994004723826  0.1703452928521519
  0.7523635190824730  0.5044965511299836  0.0872267552340106
  0.3345289685446710  0.1715655412012271  0.3362785419582586
  0.0841731069169998  0.0865714246178080  0.0043111087063310
  0.5015514285604434  0.5849710613898427  0.4195771777491952
  0.0840615493744079  0.5027184522790092  0.9193662547065401
  0.1628879927141335  0.7515077972486934  0.7476630473581332
  0.5867071429385654  0.5842022691412152  0.3364118749399819
  0.5052046883441536  0.7488002686334924  0.7488998075891546
  0.4148601798335171  0.9213188480079012  0.1735811385753254
  0.1646138351025102  0.7502961674835454  0.9182080324638758
  0.1650069098727535  0.7510733019854261  0.5849280995444491
  0.0832137511703990  0.0043157241109985  0.5844098021824424
  0.4179562299524749  0.6678176949765339  0.4180241810276806
  0.2392614802214365  0.9208480488142370  0.8269345524118793
  0.7527943604302803  0.8365814385444390  0.0867411450002726
  0.7534572886760477  0.5040047486415749  0.2534103866460106
  0.7541409587325860  0.9202399512929892  0.5039808304963298
  0.1661059473262223  0.5832373061447453  0.7518748019859061
  0.5036019334779449  0.6696441490597853  0.0026848688866247
  0.1659333824089369  0.5829278439112605  0.5822183288860062
  0.5904288161234442  0.7439560910426176  1.0018994342037035
  0.8356613590201626  0.5857061005181714  0.7518804715014874
  0.4179135700000948  0.1682880921171393  0.9197343423135261
  0.2527599823404059  1.0031877651890251  0.4194784179660404
  0.5023797602530125  0.7533492348878527  0.2538877267863990
  0.5017206302740616  0.3356435816223661  0.0045508971685463
  0.6687602434433702  0.5018401321388759  0.3366648848880167
  0.7529400712886810  0.4194271395574457  0.3357189170556763
  0.7530399087040263  0.4198644144439963  0.5038917408041736
  0.3356371709397988  0.0886838628871041  0.5839784016805348
  0.6716025162532645  0.5839999041952515  0.7493847163397014
  0.1683487110733143  0.1728798492981793  0.5014755092880538
  0.7535256317391454  0.3369488355954047  0.0872445444251120
  0.8352819448583237  1.0023375093449083  0.3371031729054976
  0.5856406373109949  0.4183815880621276  0.6694176143060095
  0.1680161378711641  0.6687115374279355  0.1705794860173332
  0.5901626476184620  0.9213293653559892  0.1749753340139698
  0.4166935885833589  0.9187738277503757  0.3363626183573601
  0.5836657946336997  0.5861869273574160  0.5017680402755942
  0.8341503760886828  0.4167838166115030  0.7526684381196919
  1.0005378082947953  0.4201095391311747  0.0846682373663835
  0.8350636329359088  0.4175586242637299  0.2509160684217068
  0.9177082408687322  0.7511946370503509  0.8350419021062292
  0.7528445459980431  0.2519204532684147  0.5023821668596157
  0.9175181194382016  0.3353255922790005  0.7528430178168664
  1.0023465398957792  0.1722265051493052  0.6694650664135382
  0.8368704505511051  0.2533233626393568  0.9224027031729035
  0.8345434107044737  0.1703109307003690  0.5025394375468132
  0.7519378847137550  0.8369413694306107  0.2534871180431132
  1.0002256356479138  0.5871086253469606  0.0862377422766683
  0.3331045148281404  0.3361923993813523  0.8372469437655160
  0.9182416792714402  0.4185811785917074  0.3362197296850862
  0.6718612194481740  0.4183470008479040  0.7524063041024692
  0.6694327162792172  0.2530182045306897  0.5833171910921512
  0.5032796785468823  0.5805502381766670  0.7491134880337468
  0.8346967935318731  0.9191242634043749  0.9192302047613682
  0.5837273150086757  0.4186763803328619  0.5027599223471397
  0.5000779229049893  0.2540621993590813  0.5856802389018609
  0.4179697188762992  0.4197620938892260  0.6705279857374351
  0.6703327772811991  0.8358932031636314  0.6697821711160526
  0.6719792390486826  0.6669518942261969  0.0031990100570476
  1.0011541347303397  0.4183030802584569  0.5839534973744698
  0.4180928885931262  0.5053153418333671  0.2536197559058618
  0.5866723819069133  0.1715135844761763  0.0903385198296607
  0.5029308794854096  0.6696214978690879  0.1716286872077583
  0.5011825576923286  0.2553642883860180  0.7541105255858024
  0.3329550944634991  0.6667032612133639  0.6662642756071135
  0.5021892205392922  0.3351141172170099  0.8360463511357651
  0.6707646567358421  0.4185981079224904  0.9205876036867227
  0.5004169898306969  0.2553206463180865  0.0890591441714076
  0.4045927919175377  0.7463861914318652  0.0065459761272104
  0.4177689696322102  0.1720832921262644  0.5863140145550587
  0.3333973449884517  0.5822583941621163  0.7518638379588705
  0.4219774875224204  0.0853430986733989  0.0061379799122626
  0.8355608586301809  0.9205294110998209  0.5857402444965145
  0.5856451880789260  0.6688510200363741  0.5851101810887074
  0.7532810035642149  0.8363557260974812  0.7512456003156317
  0.5818229075564444  0.0029050832806690  0.7640920388597906
  0.6637105693620575  0.9199776029617311  0.9209513181483129
  0.1669143147247430  0.5049466766338536  0.3337571096364270
  0.5854515209148297  0.0069626934177856  0.9218875644181547
  0.7541585417693560  0.9193960519454659  0.1724573037021505
  0.9190972766871033  0.4203712964294610  0.0030836431994594
  0.2516527522370403  0.4202823169639298  0.6699478298062805
  0.2504536349175823  0.4199131927770943  0.3336214758644188
  0.1679907806737378  0.3360950863857519  0.8374440890557306
  0.6697100700061749  0.2532580539283689  0.4201061601710736
  0.4177293040024673  0.6681846697094928  0.5858866226024989
  0.6713426524158043  0.6673184351831600  0.6675124865710380
  0.7514215495602812  0.9194131805308918  0.0023314902531317
  0.4940355867974475  0.0099697302590247  0.8392354896319790
  0.4177336124819110  0.7531860763194089  0.3355754828473452
  0.4193872097506987  0.6688894191772063  0.9176286308254413
  0.2508390106303480  0.5018832785128887  0.9195182009415568
  0.6712315514266681  0.2547693389874987  0.7508158243978393
  0.4171707116864871  0.0898823508669547  0.5033299244050113
  0.5854096960970625  0.0891616943051910  0.3366870489853414
  0.5854999662528380  0.1710944887937524  0.2572938707556097
  0.5044897125075906  0.5023500506007700  0.8348825354421037
  0.9187135794691099  0.8361970779370125  0.2531498251333850
  1.0018482922030725  0.8358895961642322  0.3372768736396765
  0.2456143454022605  0.7479710038232846  0.8302733310851830
  0.1668884755377281  0.5856005500180067  0.9192934738424040
  0.9168722695246670  0.4187567280495192  0.8368035225183730
  0.0837096689923894  0.5837543444820235  0.6687996478952450
  0.7515137883513423  0.1688732092058695  0.5856601205788017
  0.0839826061794312  0.4193101269490791  0.8369061208668674
  0.0849647728862441  0.3368132191658442  0.5862849930602791
  0.0847042309578130  0.3359742087490463  0.9202876353294691
  1.0011735716707701  0.4200690149486535  0.9200880639966755
  0.1674438049681977  0.4194678898351794  0.9196403212249050
  1.0012943106959400  0.6698477147190713  0.1696553028769208
  0.0842804868718216  0.5861284586452070  0.0033343541748121
  0.9191131023463918  0.4191646320842183  0.1684028832994455
  0.0844891030395070  0.9189395620534738  0.0035112509629232
  0.2507571520539349  0.0880669971281946  0.3367791532288184
  0.7536312996678265  0.5016386629853171  0.9197141922089269
  0.0846693060439438  0.7531469424730726  0.1705380860114134
  0.3342108110500339  0.0875732219201979  0.4195560385801352
  0.5013514572627534  0.1720969424438076  0.6691944986593233
  1.0016903288283552  0.5841452297947475  0.5842659067379778
  0.0835552365710467  0.5849438164371887  0.8355339773979013
  0.2502759354714479  0.2540480741567595  0.8369873345826196
  0.9999486389253929  0.8361645615832738  0.6672281219920686
  0.7522448276967468  0.7535886587181664  0.1710188431166921
  1.0012679658658930  0.8356766958717794  0.0031271206531968
  0.7516828091791680  0.5019093370580773  0.4199494459147055
  0.0853410312739107  0.4190058206690246  0.5016917952590577
  0.6692729807901030  0.3369016167167239  0.0048357470274322
  0.9188454663971373  0.6694244358573325  0.9184854561875851
  0.4031480935940768  0.9163256774840401  0.8294887210728369
  0.0848066855350132  0.7520580851879238  0.3364715648248253
  0.9178306691820501  0.5870177206145769  0.1704575298016646
  0.6688145798021847  0.5858964560344904  0.0881279466055629
  0.1679352854735092  0.5852945434265326  0.4184073066192465
  0.2515872958038535  0.0043793389269534  0.5846686519990282
  0.5863861722432354  0.0045766103545796  0.2559756253267773
  0.0824179984337321  0.8355627160283378  0.5842271656173164
  0.0816527899890861  0.8364652611809827  0.7482271607962724
  0.1663474509531217  0.9195683743544957  0.5835058735940083
  1.0017545679530711  0.8368230232305608  0.8341375665369103
  1.0013834319724775  0.9189062914011428  0.9183301576202839
  0.1668855608540729  0.0862981531016238  0.0878629918159977
  0.2493876042237013  0.0038873729723703  0.0889512779876270
  0.2516828979811004  0.2531926806324920  0.0033638017254375
  0.1679637168709693  0.0864438345247641  0.2533229135969404
  0.3121902740709666  0.9094167631137159  0.9067597779598986
  0.2509744581248317  0.0875035827324783  0.1708769456439523
  0.3243273703939943  0.8309273557287022  0.0080159172072707
  0.1679334935509027  0.0876204303547068  0.4194053244396511
  0.4175726909652935  0.5816991853585325  0.6662561568014567
  0.3345378196165892  0.5033371711181903  1.0016039115161539
  0.7539592386756986  0.0038818164645461  0.7537951731475112
  0.2514620413594503  0.0883587247399969  0.5017773668485419
  0.1669518802547285  0.0034385467296355  0.6650153071853155
  0.0845551192305884  0.1710037624536606  0.7521711180253592
  0.0843629556397909  0.3363435175780168  0.0851779649060777
  0.0846119309791536  0.9199757346722350  0.5007255060206602
  0.2517454045719798  0.4197297428183157  0.0027355438778535
  0.2521735334751735  0.4200827467809427  0.1683764294724101
  0.1668415317509138  0.5013944691482503  0.6688790568854703
  0.1652335792754071  0.6673947774711702  0.8334242538019535
  0.2495909206265523  0.5016307953354028  0.7527654364196880
  0.2499758855749053  0.5836430850799269  0.6679289135487083
  0.1678390098445607  0.5032166923062464  0.0029175446892996
  0.1664457822478706  0.5021404779591402  0.8367204613378666
  0.0844014588841653  0.7519255966951899  0.0036184100057321
  0.1671160827666471  0.7522377564772560  0.0877283418031089
  0.2516634826398777  0.3370846971339904  0.0860094172074131
  0.2506905059356773  0.2540231661968290  0.3344210796855497
  0.0835959632361426  0.0034579340052374  0.9195518728448453
  0.0848952962391119  0.3371141979479192  0.2509494274794640
  0.8359399002495623  0.5872595127747231  0.0873911520091427
  0.5851069233219147  0.5008129870208443  0.5844853626437345
  0.0848210528141015  0.2531106614994789  0.3340766226976981
  0.2516461340047711  0.5856586652644902  0.1687844321613161
  0.2505783218934952  0.3361126035105901  0.9202610732260443
  0.1672175985402000  0.6682103754949525  0.5018635873414289
  0.1678310143373248  0.7524431345379314  0.2541930303043863
  0.0843213869258770  0.8352131699318102  0.9189094407964925
  0.2489699412646350  0.5847471964341832  0.8357123785302989
  0.2512502241033304  0.9195699939883673  0.3384461072357136
  0.2515254268419823  0.5026660334187625  0.2512624927223948
  0.2511058172655700  0.4191657159986547  0.8372067641802828
  0.0835431656359449  0.5027299517207603  0.2504914695782571
  0.1662685116802897  0.6678156808854913  1.0034606019860417
  0.0842872219007192  0.4199039098978659  0.1673333936911553
  0.2513933699140240  0.5036693597186643  0.0855177150114772
  0.1679532434317615  0.7520103496650951  0.4191551784153074
  0.2513044035501489  0.5857000439670361  0.3349736825011524
  0.1674503264437579  0.4185554617995192  0.7534465210727097
  0.8354001339848275  0.2540969419649468  0.2530047231336600
  0.7523448573333302  0.5869495891596705  0.1699909133712598
  0.2493585706247172  0.1713832961339921  0.7519850012585587
  0.9190243723269735  0.2535258896770217  0.6682431864456150
  0.7533697134611007  0.5833956814448521  0.8349404875730621
  0.8357431092748386  0.5005251809107268  0.6677408801646437
  0.6717632220379375  0.1721302712606726  0.8352939212086975
  0.9191272595444561  0.5850520766528254  0.5010797110892520
  0.8358397131958999  0.0029623844212220  0.8361112860389206
  0.7524767123750233  0.2533138299709791  0.6678850494890108
  0.8366255449771774  0.5016591530810570  0.5014529249867395
  0.6693789665901373  0.8348856466446216  0.0040417866976461
  0.6689140219282104  0.1708171436607412  0.3371139248791422
  0.7531273620300034  0.5017956105723775  0.7514091577396248
  0.2511285078501487  0.9185312082428069  0.5021048111494482
  0.6688753819601826  0.5030763144509841  0.1700206553542653
  0.1680641550105095  0.0881688175298365  0.5846616801994368
  0.7523007598771129  0.2539436232831364  0.1713242911377032
  0.6692045431829652  0.4199351227898027  0.2517245326784386
  0.0853309758394607  0.1715279593497042  0.5852498400294839
  1.0017578880571711  0.2528053879386964  0.2516667515002156
  1.0019610647865778  0.2534533686779880  0.5853606232855394
  0.9186782257607327  0.1703069904635849  0.5852929689060421
  1.0020676702635147  0.0862043826863646  0.2535582011528574
  0.0862796123278377  0.0883351528314557  0.5028609971887202
  0.0846484755877936  0.0860344539604548  0.1705364068005177
  1.0021192756005708  0.0872226927877550  0.7514032577383715
  0.1684595245100353  0.0031763099771898  0.3379965340716781
  0.0841912205852750  0.0884720771002494  0.6672121411858701
  1.0002945137140129  0.9200167243125630  0.5839664535523795
  0.9182404101924548  0.0869244265331784  0.3361644083546823
  0.9189350521223353  0.8363571434520494  0.5844972011024437
  0.0847570017819721  1.0024504592319552  0.2540271472990194
  1.0010856045468206  0.0035420108234081  0.6677801415967954
  1.0015733348614291  0.9206484124641215  0.4188642939327663
  0.1646839661116769  0.0058594792207004  0.8337360752154260
  0.0856186758607160  0.0870423532772021  0.3361372298189884
  0.0834831236002670  1.0027767707268120  0.0868830063607298
  0.0835828941753534  0.0039946875144493  0.7494357087890748
  0.0841205113908436  0.1695953532717659  0.0864188253365636
  0.0835087670072180  0.1699283721927901  0.9199498886205023
  0.0852613344681497  0.2546714654740616  0.5033490776426963
  1.0005289548048850  0.5029561413139333  0.1684045744733784
  1.0013181082647058  0.2533462010598703  0.7529144801623926
  0.0027446963919851  0.5024769204231433  0.5005788169821801
  1.0022142371330500  0.1697717978514416  0.3355769932376476
  1.0019236764589319  0.3356856745810791  0.3355420869671576
  0.1671418255448944  0.1702880037543390  0.0032242205782699
  1.0014220778189724  0.1696297128025279  0.1701926538369332
  1.0019773891008119  0.5038341624713139  0.0027868468757876
  1.0017010973731839  0.0880252289345136  0.5845376895630081
  0.0849776434198810  0.4197605941010196  0.0035590203181321
  0.0842655451841655  0.3357764282113429  0.7533407727472735
  0.0844052843676793  0.5033523464088631  0.0862584846910528
  0.0845378945907359  0.2534238767117662  0.8367409796236586
  0.9183186401713589  0.2529381666707863  0.8368070662353768
  0.7518009167963045  0.5871769374507240  0.3375382138774973
  0.3327526532689495  0.0853260487837963  0.9188275050292998
  0.4186674117768080  0.5858053576176154  0.1697769139294388
  0.2501072300561056  0.5027098376792498  0.4182919877246595
  0.3352911204011282  0.5860483538334436  0.2530166418600195
  0.4174603116577889  0.5001528349819352  0.5849287992412572
  0.4188144315565793  0.4194257594241779  0.8367632925822271
  0.5023225736779291  0.5020424030176089  0.3360366353968398
  0.3343253483204751  0.4199908345814604  0.4174475266048444
  0.4179718665656684  0.4198424798952230  0.3349197911728118
  0.3336670727482219  0.1727687743661249  0.5015901275224506
  0.4193729501902593  0.3360378608370007  0.9191349802863833
  0.2503622960649032  0.3373897700847978  0.4173322346275025
  0.5021694478371438  0.4185244528466184  0.7536629586462873
  0.4167994293041954  0.1742845161049915  0.7496636817242778
  0.4173850514502556  0.2555306411588161  0.6686323957222956
  0.3316334594471110  0.1712888696519982  0.8354210174506050
  0.3358654337348658  0.3368514259454652  0.0035895196692271
  0.3351106321826087  0.1684466974772983  0.0036295561292573
  0.4175459146598637  0.2530131087618324  0.8372020661976121
  0.5848516631802122  0.5020402700863900  0.2529745351753710
  0.5023691999430424  0.5854836537432837  0.2536092248900743
  0.5012804089917929  0.4200473303855680  0.2526652735271130
  0.4995653936108869  0.0029921804256215  0.5022369260005539
  0.5020883712543888  0.7497543191577363  0.0880303424617718
  0.4189071129604280  0.6692813565710709  0.2532563363464314
  0.3345939718090081  0.6694030378134945  0.3354224620238066
  0.3340143131702950  0.6685235130154956  0.5020359033185329
  0.3344287328019560  0.8336945083208168  0.5022434701423920
  0.3354745298008601  0.8368419470116136  0.1691843540385857
  0.3341608324363520  0.5850460143280299  0.4185172547179329
  0.4175700778821742  0.8335236005457540  0.5856782371252317
  0.5018151024491574  0.7512279072049338  0.5852582549401087
  0.4187705416672347  0.7494127278388730  0.6696025810894509
  0.3310053124390822  0.7469302517057517  0.7476313333489684
  0.4178509073609837  0.6610747339880930  0.7451042959912966
  0.3334908954947962  0.8329353086062058  0.6675820343534975
  0.5018295792782056  0.1722641599409001  0.3380456026620474
  0.3343541447765573  0.5026984684825726  0.8364289659324655
  0.5029600811660703  0.6663242580618453  0.6666104983001232
  0.2507482828224333  0.3373000924843281  0.5863487062878794
  0.7532638647544183  0.2538431156222339  0.8364949033463132
  0.5819353076063142  0.8367338590048602  0.0880957565777616
  0.4187207465726334  0.7530816232937495  0.1699611015282460
  0.8363674898336767  0.8355429919630296  0.0035202126548698
  0.9191809269280073  0.8362643229637965  0.0872160178388102
  0.8364019238209843  0.9191268636391110  0.0863991133036351
  0.5020040839749975  0.9211489873505257  0.2536790372021788
  0.8360662345872887  0.5021000980757582  0.8353062196723371
  0.6726359746948438  0.0897229938247427  0.0911086050199450
  0.7526482245911906  0.2535039234554402  0.3366459854524013
  0.7524137658523601  0.4199017282203670  0.0041317639639053
  0.7532307997043585  0.9188958682225922  0.6691460627670156
  0.9181649996793921  0.9208566362929521  0.5019036649049629
  0.1680934003999572  0.5032319537480989  0.1680861069402223
  0.8365791948229531  0.9198342982434484  0.7523165039677419
  0.9185885032504939  0.0037313350580566  0.7521216777665446
  0.8359911489203566  0.8359566719178722  0.8347755004609528
  0.8362123891722804  0.5865322864901787  0.9192197433926236
  0.5139652010232587  0.7341517382327090  0.9069411132199517
  1.0007803638621973  0.7518468657568163  0.5843503578952718
  0.2444105085417571  0.8349683608292270  0.7435059894528835
  0.1643804633739415  0.8358420980531279  0.6645913440073468
  0.0837344878818527  0.7516116044289152  0.8333486266900091
  0.1666677784184660  0.0039761786466516  0.0037031611527794
  0.4090578984094150  0.8608091790517944  0.9393562198852563
  0.1662572634393881  0.0873239131360047  0.9196281910422021
  0.2485052989856119  0.9199969935143488  0.0033048328911494
  0.4169333394334304  0.0911467890476348  0.1745977520416500
  0.4172972625814561  0.5857888733803286  0.5017673678742980
  0.3340810805393066  0.2546716022839459  0.2535004616927185