 B Cr Ni 
 1.0000000000000000
    21.1200000000000010    0.0000000000000000    0.0000000000000000
     0.0000000000000000   21.1200000000000010    0.0000000000000000
     0.0000000000000000    0.0000000000000000   21.1200000000000010
 B   Cr  Ni 
   9 259 605
Direct
  0.5753307715602496  0.0053277179357477  0.1761351217113214
  0.5103480579990245  0.0656991022004919  0.1555097839384386
  0.8162614460333601  0.9205278226244834  0.3328058308108087
  0.4237510286255939  0.9220120953887375  0.2401890727768952
  0.6698935704596469  0.8458182195246023  0.2636988776623349
  0.9957644163320548  0.8327562242314469  0.2464817146856047
  0.7547224417193744  0.9830405235773175  0.3323795068187308
  0.4832260859847489  0.9772437985058254  0.2704387744226507
  0.5188929813945096  0.9284810522969118  0.3314930917212943
  0.1666874546252545  0.8340481864726886  0.3356233900511311
  0.3326602963754002  0.0842530879189312  0.5845810500455118
  0.2483816507015313  0.9168569889746726  0.6678385244068399
  0.2493834893413290  0.6688419067494388  0.5836444091733477
  0.7499604822983409  0.6634631880374924  0.9173072670536853
  0.9981570937564099  0.8323304382909050  0.8323338112602895
  0.7506122285057236  0.0837836801742328  0.8333881726336995
  0.1655862420745822  0.9166486622838911  0.9149991129448701
  0.2477989277531896  0.0018566271422965  0.0809256501800505
  0.7513467654515259  0.8340617567381757  0.9179670125659032
  0.6734014330894279  0.7411923487550826  0.2482533358758071
  0.6677328523870347  0.7462730617902076  0.0798372665464192
  0.4989774291681265  0.6661099980795756  0.9983903836608368
  0.2480874925092209  0.9167247294456879  0.1653284072318219
  0.7511532846780820  0.0009336673100265  0.5826138221430587
  0.3294467839752352  0.5004948763320008  0.9998642229345469
  0.0813401325623554  0.0813641933618233  0.8304197328904775
  0.0820982031700639  0.6672553221754997  0.5833164227667108
  0.3320108119406894  0.9989332782706217  0.8336078184984059
  0.6672843277225214  0.6646022170769096  0.9965227181431257
  0.2474844047943552  0.4169506918718059  0.8337926222867724
  0.6666442133246643  0.5827763739725733  0.9157788329537198
  0.7503643776465114  0.8329478460845555  0.7499811413435004
  0.5826033075048341  0.5822647828124751  0.1657561374830369
  0.2484967543488903  0.0829725397053643  0.9985239268906563
  0.6665411746102455  0.5828378435862416  0.4201280507120599
  0.4146787198759518  0.1681864299264109  0.5843908290762543
  0.4152138097346554  0.3335773756412864  0.2492706309873212
  0.9166429146246334  0.6642852205060289  0.9160330112819007
  0.4146647995832460  0.1690300444497727  0.4195833430140761
  0.1668020502639295  0.1661635163041226  0.6667426679848590
  0.5830188542551569  0.5819225076031984  0.6683404986038795
  0.8343719563138573  0.1711576017349134  0.1647975793525676
  0.2498125806261821  0.4182910175597433  0.0000706878334737
  0.2486747787427538  0.2489309112285781  0.8337464782744546
  0.7503216580909680  0.4989417692035133  0.5852814903971177
  0.4141763331419342  0.0848026953660455  0.9949082562069023
  0.2479304169897730  0.0010295226813699  0.9166048809297765
  0.1656057585846561  0.5007065712315413  0.6659781891361144
  0.4156698109575058  0.9177789672126558  0.5004470731913102
  0.4987875935789685  0.0838209380535978  0.5845396786050654
  0.6671159905762130  0.6630184556666712  0.5051375451791240
  0.1661557141255844  0.7531467739177876  0.4175225624158241
  0.1648886511616131  0.7510046832700645  0.5848622480575509
  0.2493847636071440  0.5838614197284819  0.1680940510726392
  0.9167985152144728  0.0038810847845397  0.2474040948350856
  0.8313390293647893  0.9166571804062551  0.7500442734254154
  0.7515071710945597  0.2527572124595082  0.1646938197404268
  0.1677153211445265  0.5834526584747161  0.4159524099978644
  0.4163958601446557  0.2504998040506181  0.1662068780153153
  0.2495702537288021  0.5828729241166565  0.8312890899981888
  0.3313035213241262  0.4154372151552711  0.2500226184403259
  0.1650976846807533  0.4161567776266195  0.4172529624326226
  0.9145347828776103  0.0834090091419189  0.8319254279033785
  0.4152370839029268  0.4994809641592711  0.2501289535481871
  0.2487327045011075  0.4162664593372468  0.3353884365487366
  0.0819510865129996  0.3336701578973805  0.2505657705528875
  0.2465361544366461  0.2491586023853307  0.3355070090464821
  0.2471882497953821  0.1656609579440467  0.9166559823885740
  0.3325226524826485  0.3344373811557244  0.6677354661954448
  0.4157973942193107  0.0862466619261943  0.5037058912438817
  0.6655350166387520  0.0007526985511964  0.0006247875799406
  0.6688968897718367  0.0892199631144619  0.0772673363523960
  0.8345529856407182  0.7433036820878639  0.2475885591097410
  0.6671128419572593  0.4995898746633717  0.8329636267844815
  0.9997487440282299  0.4170145373625961  0.7488895780766468
  0.0822889158826784  0.5842756102949621  0.8320295678641079
  0.3306905173424246  0.7502115708053154  0.2488828385044522
  0.5845527322654106  0.0853452282382116  0.5008654684019916
  0.3312250033548221  0.7494452133265265  0.0800187336510384
  0.2507098549553288  0.4179855399152169  0.1663349414423726
  0.1660979627955304  0.6651926866570087  0.9988319006090703
  0.0826452169662740  0.6664017752590363  0.7514388491103043
  0.2489803836750538  0.5850365598845914  0.3354979955959002
  0.1663115641173294  0.2500509322454615  0.4166316694753697
  0.8343412563983013  0.1695403131717277  0.9983389737322451
  0.7475184115625114  0.8306196343314932  0.5871141259104066
  0.8323771293423952  0.7482721824214278  0.7513392461020204
  0.5818009617878431  0.6645081023512726  0.7495214946265681
  0.9171105563692822  0.1693736139879547  0.0813734492291552
  0.3321374418489066  0.4167967838231157  0.0830126189751558
  0.4149110856574164  0.7472538234733861  0.9977614553579663
  0.5004602091748691  0.0002100194376556  0.8321006390581449
  0.4979794787397456  0.2515902711689728  0.5860678847327470
  0.5823736539266708  0.8327228623630446  0.9167288145969291
  0.6683645683350593  0.0838146799131584  0.7512762262196910
  0.5842651828974940  0.7486470415740588  0.8321408925980268
  0.6645236270795223  0.1678300787485464  0.6688304627973550
  0.4122142546024303  0.0041249036851244  0.4221380836851319
  0.4157565232759931  0.1684379381126523  0.9143962472005372
  0.5842030913338977  0.9149446884170354  0.5027311475757941
  0.4152697713201801  0.1670776313058243  0.7499969482135432
  0.6665109657933673  0.4178424379919985  0.9155516952161302
  0.3312788387498244  0.3331338185951470  0.4999414719858540
  0.9170844216907993  0.4172154175069098  0.5005760731319976
  0.9997765164426986  0.2495532058876477  0.5841593240364679
  0.8340635063510714  0.8336753360219736  0.9979590693114784
  0.9137637756517492  0.6646863931832044  0.2489979502826847
  0.8335580850439941  0.9997305609602107  0.9980091813668608
  0.6667205058160177  0.8322678214387527  0.6661789853259898
  0.2496293659817694  0.7531645396249046  0.8301586951725187
  0.4971309795389994  0.7489883978814836  0.5878224470357361
  0.6649940490117233  0.4991090976939928  0.1666331003742584
  0.4136815112032378  0.5815977531551572  0.6670309733213189
  0.6657247201906048  0.3336259635702764  0.3342426522943512
  0.5831127214538105  0.4184491722343629  0.1642450611894875
  0.5826979215521239  0.8314969722495027  0.7505243689740452
  0.4966827676970765  0.5003765552797846  0.9968870324176946
  0.6681412911992052  0.0862506693538230  0.2545113558684041
  0.5826606441577200  0.9996532221418297  0.7500174243178591
  0.2483189186427413  0.4999045348260510  0.5835970906366835
  0.4973200545892574  0.4164449253986864  0.2489432751847222
  0.3318897824946159  0.5830269273403319  0.4177783869987769
  0.9156740943845757  0.7469932782575732  0.1635529487530366
  0.4130941749187935  0.0846083502794100  0.1643902503304075
  0.0835323601788908  0.4173912845217523  0.4994774239616750
  0.5841055086509308  0.9171239668557989  0.0012413524758653
  0.9988150957462566  0.5834891928447526  0.4171791281994062
  0.4982208027863946  0.7456632461773525  0.0779296455262519
  0.6656597032065981  0.7366120638170414  0.4285802335912457
  0.6660726260446393  0.7475603493731465  0.5858935039957393
  0.0009190095109983  0.3355700754617585  0.9988157695118896
  0.1647188197083209  0.7501814237286372  0.2491155768433915
  0.9177082232312604  0.4183024343463739  0.9993007164670082
  0.6655450381279135  0.9183128662297614  0.0808915474029077
  0.0830424024899825  0.4991911331328568  0.2516010312513524
  0.1653137138853434  0.8333380202133789  0.9991642756925500
  0.4991191325560637  0.9142516090814006  0.9166458866106735
  0.0848805595764194  0.6673944266586187  0.2510809967652619
  0.2478971527172497  0.7496768939709196  0.6635595138724825
  0.0836503153920138  0.9182127256072161  0.1659218094323847
  0.1649902420589757  0.2496417541051107  0.0843931555412788
  0.5854900764340033  0.1664185259488069  0.7490880431039749
  0.4970933310886884  0.4980171104980177  0.5011498683298680
  0.3299208263914518  0.5004338116860391  0.1648128299738765
  0.4148085153980481  0.3345384179377867  0.9160708106428903
  0.7501465832229113  0.3342709620947256  0.5831158713707620
  0.4161358037977693  0.2499573211845064  0.6676570228330850
  0.4127491087305468  0.4155476475592961  0.6673131302834967
  0.6667220888241742  0.1698216024906106  0.3346454222031650
  0.6648539568571822  0.5008692286763345  0.3353761623362119
  0.7505154428378088  0.3337666467453437  0.7512907675209198
  0.8325767702253932  0.1691796027777109  0.5023871576958016
  0.6649949632403863  0.4175660669810945  0.0829691045735462
  0.7496797129100413  0.2538923214722538  0.8325867326183747
  0.4155119501816593  0.7499665030661318  0.8333311682568447
  0.1659455351985786  0.8345862115102466  0.5002596218828003
  0.7498718126394808  0.2513120244157918  0.3352717897878927
  0.5837672481710616  0.2505834722303900  0.1648944888460820
  0.3339657072120402  0.8324686543930465  0.3332815024776484
  0.5810757642952826  0.4998526967571983  0.4188681432838040
  0.3322673138512175  0.8322903080444159  0.8310732290103541
  0.5849050774928761  0.1698939498744340  0.0782591869162444
  0.4985169028003872  0.0828457973254783  0.2520153847395406
  0.5022462163641648  0.8244516979653848  0.3392788053523325
  0.4991223199228347  0.8320755021970165  0.9987902723271240
  0.7483441357121131  0.0020042070460693  0.7511110460252027
  0.6670290145847015  0.1695269262668717  0.9966280677482127
  0.4169649448542165  0.7493851176300304  0.6649636171781942
  0.3340292761399075  0.7522756136559450  0.4168869927373082
  0.8339220232440923  0.9997464198948125  0.5034741580232078
  0.6666785426645681  0.0849542623610885  0.9155393263336741
  0.6635745219618542  0.1681494851081098  0.5018738625367992
  0.8327056349193432  0.1699371974757008  0.3343927496218097
  0.6669495376996956  0.0847592979845006  0.4207268008393807
  0.8310055351940009  0.0847374900055686  0.7505014526780598
  0.7508158770419953  0.6632329136245048  0.2495197376573183
  0.9948889052974040  0.8325468012889711  0.3423612875878253
  0.9993016378511272  0.8323793404291847  0.9978127261815389
  0.0820338512622590  0.2505094071321208  0.8315216813440691
  0.1671087905292458  0.4172428266395888  0.9153206712930078
  0.9999930083242299  0.7501042944764701  0.5850989755186562
  0.9999289394809527  0.1689845048479319  0.9983598149503705
  0.0843053343566609  0.6666146125025973  0.0822755286205522
  0.5816546772747710  0.4177253855753754  0.5016637727748370
  0.7497407190431519  0.9180937698045357  0.1604309959518277
  0.0818894319915666  0.2510930547521997  0.9997669235101030
  0.9153196937938224  0.8322118672278779  0.4176763081777493
  0.4165913102423994  0.9175143667101642  0.6675971763694297
  0.9165969294072180  0.4183302599406313  0.1655810193303465
  0.9167763825991235  0.6649788213961992  0.0830352455002715
  0.0815118622713467  0.8334701366041638  0.7512366264187548
  0.0818457757593136  0.2493969856412532  0.3347863277926904
  0.9976681125937608  0.1690221368423607  0.1644454317566470
  0.0000331313434311  0.9188201316673060  0.0821916957753492
  0.9988465573439148  0.5841603556972089  0.9166156739839119
  0.7495090456914298  0.0878951501265239  0.3358356684941688
  0.0839943152770793  0.2491082421788921  0.5018094525052240
  0.1647655528779756  0.9182936957326419  0.4170201251671087
  0.9155559143361859  0.2503096275874198  0.1650348495275103
  0.5826984533835943  0.4163968677088158  0.6681112040264772
  0.9998076162674517  0.1700148134270561  0.3348152113014689
  0.3314462210631737  0.8325232731055141  0.9982682666238144
  0.9176306142688074  0.3347299599447557  0.7494396589494665
  0.4983487168557207  0.3339333799045449  0.9989682709316315
  0.9980023303447373  0.8329938851919004  0.6684910504284763
  0.9969535432535651  0.7490474543103786  0.4177400215612088
  0.8331775140929578  0.4178354697959555  0.2516181840594927
  0.7480042542091835  0.6636691846908837  0.0807181134570683
  0.0811353472779743  0.7501424105145489  0.8328951102368881
  0.4986778003640789  0.6652468887082416  0.1653745492643820
  0.9190200339288308  0.8300560059634415  0.5860521140390743
  0.1661134312735791  0.3335734685916838  0.6669647637604146
  0.0838673352579632  0.4994322921197181  0.5829379960447796
  0.8338665616296403  0.4995707162533953  0.8330544832517236
  0.9163532462798561  0.5827833031242036  0.6672683991633714
  0.0814460342781275  0.4177708370414658  0.3349210306114144
  0.2478350976036227  0.5841131404970697  0.9995586379577708
  0.9985826050054120  0.4172912925698072  0.4172744022189607
  0.9178449348082958  0.4161004753096330  0.6683151305690246
  0.3321411573502479  0.5804773241519812  0.2488893133681964
  0.9998798709668165  0.5835400133979004  0.5842472495933516
  0.5853686346712442  0.1681320690645016  0.9174684173224006
  0.9155194752872331  0.2488645649394783  0.3345560541907093
  0.5826429651758863  0.3365866602244601  0.7492379913738171
  0.9986490192849419  0.9158940573402377  0.9171126792581382
  0.5815368861715698  0.4984939338607118  0.5847452917638489
  0.0836937617073560  0.4992743863788774  0.0827415114636746
  0.4988055141857034  0.5816820665522882  0.4186686005982058
  0.1650398814287473  0.0839780970349355  0.2497766999953850
  0.5803758921101425  0.6615934347588021  0.4195100354111680
  0.9969073409906937  0.0006979849666621  0.6658615128765042
  0.4164585295971218  0.2488332883870596  0.8323572122186383
  0.8342402949688511  0.6643627555015841  0.5030483675358653
  0.4980544688224721  0.5011137585767137  0.8335146787031107
  0.3306806981946550  0.5833082348739095  0.7493937523387445
  0.4981355993624896  0.5831043792952327  0.9153659122824438
  0.2461916030059503  0.2496967257749088  0.1641490846594140
  0.4983295341306377  0.7478974473504204  0.4201653828256834
  0.5811466382768559  0.5838095621229590  0.3332351452983220
  0.4981904224588749  0.2526151316274589  0.4180095937117563
  0.4148985889849612  0.4165606571294302  0.1657189946035068
  0.1661630151789727  0.1676395307620970  0.1657611649272359
  0.8341207911048264  0.4990206188738612  0.3337336160002214
  0.9174928321816009  0.8329393146239821  0.9159549479334124
  0.9976225061064228  0.9185690795639903  0.4178004020708505
  0.2489233805743261  0.1665258679259808  0.4186478841512177
  0.2494836502697440  0.8327636294972134  0.7490513275706777
  0.1660224616632323  0.9982556454487430  0.4998273075486507
  0.9171073885909840  0.5002632432697754  0.2500190374836296
  0.9166515040597044  0.0014838850983616  0.5860579049994896
  0.1658855845734744  0.0009963458650306  0.3349322218299235
  0.3338376915279277  0.0854574762571897  0.4204144496970703
  0.3266580725542159  0.0900313897238086  0.2499411335894414
  0.0807096272883770  0.0013392833456876  0.4169510466288279
  0.9166277831072317  0.2526931635230281  0.8314686014600562
  0.9977634989886465  0.0009537040900479  0.3357963857300100
  0.9992340157304485  0.1667567460386948  0.6665869760739904
  0.0807458786447410  0.0840084629272734  0.9993468866579317
  0.2471803059458222  0.2496084339043689  0.9998910107945875
  0.9997798349873442  0.0853087363846846  0.5851679730880939
  0.3318978241719771  0.9179717360511499  0.9153618184503044
  0.8336259111661082  0.4175473655213239  0.0843061552140593
  0.8322672731703180  0.1693808817080671  0.6681065375968456
  0.0810148491593018  0.0009043989777726  0.7494021418253357
  0.9172652339118799  0.0017302744267808  0.4197257088408462
  0.9159528177536955  0.0021607999148605  0.0820719942369883
  0.8341712453650765  0.9161747339360664  0.9166695613929329
  0.1664586236916969  0.0823537582575755  0.5854927516263054
  0.8332933946927533  0.5818251944979743  0.7501949625279490
  0.5831810491410040  0.6656505285666918  0.2489290639986463
  0.8325786336264241  0.8328096115258278  0.8339922034658782
  0.7500439604892675  0.4170069552231178  0.8330479498733588
  0.6711044338955083  0.1731737056320704  0.1654218011539645
  0.5842526864680049  0.9127868170797542  0.1615071456206662
  0.7493791657937836  0.9163838487412859  0.8335443460584190
  0.5846115586232338  0.8299606723498159  0.0809655871315415
  0.8332905854652954  0.6653079002079112  0.8336308158319200
  0.7500318269812740  0.0003921555788803  0.9170016921951639
  0.8330362199291959  0.6648856672645910  0.9992128905438021
  0.4993485602000241  0.0000406459438635  0.6672630916629076
  0.5839623745674325  0.9151351667507520  0.8333228607269461
  0.6668353141490296  0.0001121495726002  0.6669175598631043
  0.6654580372016093  0.9990639746062409  0.8339404905050553
  0.7495953899292692  0.0847224639441136  0.6665803309352364
  0.4203566235380428  0.9194188132050219  0.3345217011162521
  0.4158396938505248  0.8328294322677396  0.7491772880379944
  0.5813557827563121  0.4996717647347434  0.7499935893898422
  0.3283913049557057  0.8291539532804002  0.1647299898525011
  0.7508542393225932  0.1690797583062816  0.9152107279708953
  0.7493822054408137  0.1686224003358660  0.7506722568580990
  0.5832288392201854  0.0830391345667935  0.6670570972293681
  0.4161413368824712  0.7493339400430943  0.5012758576943459
  0.7491297065069452  0.2513340694214727  0.5021664451419621
  0.3340016651584420  0.9170923399020099  0.4169396783628918
  0.9995311733035258  0.6661195387911069  0.5012566877715311
  0.3338171057611108  0.8334868092056373  0.5009232168930583
  0.8330547955349992  0.2522596723840675  0.2502244920735070
  0.1649841797943559  0.2504999005864338  0.2501377829618949
  0.4979038427373386  0.3341886596740289  0.5013336961734411
  0.5830962049789962  0.2528694669507774  0.9979038638222867
  0.8338500575606355  0.4166813718719022  0.4172108660742193
  0.1654172768768911  0.1681030541968411  0.3345599522781612
  0.4158678532264202  0.0004125194908055  0.0811685495666697
  0.9982816869955016  0.0009148172513754  0.5023124312881406
  0.6659614002590798  0.2521540859320778  0.5851165137897069
  0.7491370979622715  0.4984422602306698  0.0827928245094817
  0.4969167236899867  0.0149733566924867  0.3508524622885710
  0.5824130205641882  0.0835829743898826  0.9968593393418912
  0.4152460623757322  0.6657849436214054  0.7495121217295951
  0.4145602046781632  0.6658110763910529  0.5845478063117552
  0.1658869011393282  0.7503357113803433  0.9153604647062007
  0.2486688722256450  0.8336544562948816  0.9154785215662330
  0.4161613467286752  0.8340905921757046  0.5846272700882641
  0.3304975344631337  0.6661775009597171  0.9984059776175673
  0.3277660647189112  0.9167072684670293  0.0785458515531446
  0.9980305688558325  0.7486719251174520  0.7495318538398003
  0.4140477552762645  0.8288018345174735  0.0790551799200142
  0.8317979358931034  0.0003461730566820  0.6669907388093801
  0.3306087208346125  0.9159545123565052  0.2495734884272270
  0.4137171438302358  0.6658384764480417  0.9148319530307810
  0.4997692823402826  0.9160474699570391  0.7507460129131751
  0.6663736762930772  0.2521337140344928  0.4186546004930032
  0.4147120565876663  0.4176450781308023  0.9990089940257010
  0.5822810701453263  0.4180520098817155  0.8337241137995232
  0.4986082113566078  0.5822808754790768  0.2491533732305142
  0.6662256540109456  0.4174236635239690  0.4177403881384424
  0.4975428745236795  0.3343583733793127  0.6684663842534344
  0.4977395362196909  0.4170697203844899  0.7503620518276160
  0.5832479582890607  0.2512801785264555  0.8326247321889517
  0.6664083669095598  0.3344929274497620  0.6675819383307148
  0.4982141539852714  0.4176100727584389  0.9161484398514951
  0.5822113889145855  0.5000836156530190  0.9160801695169732
  0.5815195296571279  0.3352648267501547  0.5850050072688139
  0.6660144741114340  0.3351978992870634  0.8327119172763580
  0.4134649753118912  0.6644596184885205  0.0822997249697189
  0.5809829798624695  0.5004370482893666  0.0809448464226062
  0.5832540903880209  0.6639263397916336  0.0802921865743761
  0.4994040060097807  0.5004741448043902  0.1653638876963878
  0.4132977779919008  0.6655965685057895  0.2493142737798653
  0.5820116778653265  0.4171447231511214  0.3344794996774170
  0.4984916559702737  0.7495033200121286  0.7495449654819191
  0.3309013605877965  0.0003970983598910  0.1627419611459896
  0.4994900995365296  0.0005042256708904  0.5008270101267361
  0.7501385402494150  0.9143223253853756  0.5041961957386836
  0.4151689856725734  0.7486509625293255  0.3338164840662418
  0.9168813170230837  0.9174680288186309  0.1637757818300379
  0.6665255432443294  0.0003617478477694  0.5031529215297121
  0.7509684878879138  0.7479089490670178  0.6679621926620762
  0.6658393410073659  0.0009293154227742  0.3376674361735956
  0.8411974189752131  0.0095132876299740  0.3335296274857417
  0.7497733272544164  0.0864867219290638  0.5025992353887727
  0.9153962437937558  0.9170486938614882  0.8325659825596450
  0.5825590975903674  0.7480196838985129  0.6683875513825840
  0.7517232471838766  0.1704575561400849  0.0796877237047933
  0.5827224200548102  0.0002461427791101  0.5831715976751644
  0.7511340826811272  0.0888770172793535  0.1634974475020095
  0.8340139921120914  0.9178218260839298  0.0810514201493119
  0.4976074437683976  0.5809380132819638  0.5855906849971335
  0.4964796543816262  0.0894702415018042  0.0711584744438563
  0.5822716414354454  0.9995190811948963  0.9159260715804013
  0.9168411272494100  0.9179463878801500  0.9999535342692059
  0.3301134056827726  0.0029414439047008  0.3372406080766667
  0.4163751399714105  0.9998293880474368  0.7504636058058243
  0.5788765826709903  0.7401047208877577  0.3363929048178283
  0.2474529219132609  0.8331357842433740  0.0816756172860087
  0.4148020805481690  0.6663850182319004  0.4179880630447461
  0.4068360201031607  0.9071277843639682  0.1542128639611951
  0.4161688988107948  0.0005278298789326  0.5836179565145342
  0.3325963312076664  0.0833457122046415  0.7511130159422472
  0.4158120312674505  0.9995251467633000  0.9153215807600756
  0.3318994456215540  0.1674459275074678  0.9980823699079968
  0.4153105158875217  0.3329158168206793  0.0823354715990173
  0.4995790385422209  0.2518142289346592  0.9142646330955699
  0.2478125922320958  0.0851135674239465  0.3345927935098316
  0.3314589048861292  0.1685550823861545  0.1649037745002274
  0.4124558058566380  0.0890700339475584  0.3362598440550515
  0.3315599043348197  0.2505987449604322  0.2486142053922653
  0.4153560929842539  0.1673134011311735  0.2488555219504567
  0.2486736402295663  0.0010065346592002  0.4182428046703903
  0.9166219520610905  0.8332837803944751  0.0800249352146518
  0.8321896156712566  0.9193557156441755  0.2428811598189907
  0.8340959212137387  0.0884583271253455  0.2488000159157584
  0.9163777647682559  0.3334924558818426  0.4177409890412171
  0.0825392850574991  0.0006850300361352  0.0826350827867331
  0.8340216788938322  0.4985799787023518  0.5020231058173846
  0.8330920250071098  0.0869327737762427  0.4199146634110640
  0.7511255470513121  0.7485666780398893  0.9979473782945566
  0.0813326499451490  0.9164935586418197  0.3333512711808316
  0.6686890904661215  0.8314378366277055  0.1661046011209975
  0.7499439278135326  0.9168360247950796  0.6670273464691423
  0.0835829821578574  0.4173026912332533  0.8325003397744551
  0.7514568584706953  0.0029458374261778  0.0801244788232588
  0.7495103854210488  0.3341410092028291  0.4173993582348176
  0.6674184836755528  0.9311612692361373  0.2387482271501674
  0.8338042035074372  0.3342152771648939  0.3341712286256071
  0.5834948980004835  0.9164335746778894  0.6677912207164717
  0.8331537803751604  0.9151086347236163  0.4229413032794175
  0.9162350828296437  0.1691920095158517  0.2490859426824581
  0.8302198196989502  0.8291128770471570  0.3362366670577869
  0.6666788090591249  0.9161755467282193  0.7500031673063151
  0.6645094190592505  0.8071142973647403  0.3460692000017113
  0.6667814655218993  0.9160670530350639  0.5848989422444181
  0.9157378196157784  0.4183405775689358  0.3339836229852892
  0.8322721955735782  0.2515292932990179  0.5845721229107402
  0.9179109668102063  0.2524294944339965  0.9988990389279113
  0.7491493812300664  0.8326927458964027  0.0813246509294800
  0.7505130238457172  0.1702758817373492  0.2502864529674537
  0.9163194644449434  0.5827658789748642  0.3340996331151810
  0.9185647453408817  0.0890033198399812  0.3343477817251082
  0.8341842297040439  0.0030960447362488  0.1635591919279690
  0.8336763336493201  0.8313499390845158  0.5039276334003131
  0.0006235935759792  0.2527960556963262  0.0824552458695840
  0.9175301490218952  0.4994845640011111  0.5843992884176833
  0.8330432380647035  0.1688618007630383  0.8326623224895788
  0.8339329193555824  0.4166251816337628  0.7498731776156854
  0.9176995621187266  0.3347883971537537  0.9159658634536901
  0.3325987050451442  0.0844115011617963  0.0807009850427246
  0.1662498882669392  0.2504463004276041  0.5842240870172913
  0.2494647957452878  0.9992085676960742  0.7496021349946296
  0.1654359033275174  0.9999597220040128  0.8325998498365249
  0.0812897292294171  0.9167285823515692  0.8326373715234350
  0.1640986055519844  0.0836506334005195  0.9157205079389216
  0.1643540681834501  0.0005531857315227  0.9986495370367517
  0.2485519303866054  0.0829499060265449  0.8333160218369243
  0.1639189256270248  0.1665335575205460  0.9993236342274171
  0.2487603589915524  0.0834644399769301  0.5019268940629168
  0.2479725393624318  0.3332732971669678  0.4170811250692093
  0.1662893866662055  0.4165680904021173  0.2513587220421713
  0.1649498433095235  0.3334119428257708  0.4996906519343621
  0.2483385252706962  0.5010655600246621  0.9153580044498354
  0.2485122051983017  0.4992785734072698  0.7494964630730542
  0.9167914910333099  0.5835137935313915  0.1658425995903004
  0.1652165775183926  0.7489883881764319  0.0822979348659245
  0.1654516005305585  0.6661689972554727  0.1669485973892003
  0.1658386256286357  0.3337780831917831  0.9995562294914591
  0.1661326187667661  0.4176519149312178  0.0830313496626994
  0.9140649521992806  0.0852682540248026  0.6677226582360487
  0.9996931651004081  0.1680160774943217  0.5026795631834858
  0.8344527088362697  0.4176268720056820  0.9154008427058201
  0.8324800674777915  0.0853723777400453  0.5845913197154179
  0.8328208200341728  0.9994865689334184  0.8338854583559542
  0.8336292806457711  0.2534864274249667  0.0806530362588615
  0.9983290774046276  0.0002916518676404  0.8324030054801898
  0.2499143831244552  0.6686447170571154  0.4174650384376353
  0.2487123910152589  0.5839405182928252  0.6658388244551814
  0.2497934973365414  0.7505917318931533  0.3342106174831994
  0.1659471691789599  0.6683800151468194  0.5001442254631142
  0.3326806658113192  0.7510574493923285  0.5846997336938349
  0.2493046045654641  0.6681906367978367  0.7492192229503351
  0.1664669668284922  0.6670818930214919  0.8322426872638792
  0.3333883019324848  0.7490962297863170  0.7478647206756451
  0.2476713131510279  0.7502549730939641  0.9987789866347577
  0.1654815373492105  0.9178320521189453  0.0822752720896158
  0.2472348274673146  0.9171339150744828  0.9979681644337983
  0.1652536566702081  0.6662683779195649  0.6670383373334896
  0.9985707401723481  0.6662720538570308  0.8324465651681745
  0.4995217412180118  0.1711212815156246  0.9952915454470916
  0.5774804040072149  0.0055200269807472  0.0829160005306689
  0.9175116143501932  0.4999365006727316  0.9155880900982951
  0.4989651241691012  0.0914143233475537  0.4251912160953231
  0.3326822564901132  0.8335376815398617  0.6668853950898859
  0.5849733211404152  0.9988785409928271  0.4197439221045338
  0.4994208021963049  0.9172523752716645  0.5842650730659352
  0.4163805611808586  0.0842982738761918  0.6671914307651459
  0.6665565954512715  0.9141956664643798  0.4260357449290355
  0.7505213938953667  0.6653641426815187  0.7508029708350878
  0.5839776183600635  0.0842445397277662  0.8331153441240411
  0.4161017500887298  0.9164003182362637  0.8329359209346661
  0.4159137132950135  0.2513590916963043  0.9965787494181481
  0.4991342064140828  0.2500544304425176  0.0820060425420729
  0.9156659029362293  0.0847988344578704  0.5026145124093685
  0.0834894045310982  0.5846401340171355  0.4999876055260041
  0.0831124625847709  0.5834604879666311  0.9996442029528230
  0.9996817963537071  0.6663039554385826  0.6672212172394618
  0.5815380187360395  0.4994320985198991  0.2504528486000389
  0.2493220086398344  0.9165646768813636  0.5001017266617778
  0.5771298936618577  0.9935958497273366  0.2676954671723993
  0.4999534870229565  0.1662039074961587  0.1649946089819903
  0.0002728672876309  0.5827324352563458  0.7497797917115940
  0.1662056777395062  0.5008414589561514  0.8321161530689748
  0.0005884402030604  0.5000728439541668  0.9999139464823870
  0.0832370761246060  0.5834764969628985  0.1667640973338704
  0.0829506121672660  0.7492460122818895  0.9984914395793815
  0.9141736374691717  0.7464607627181276  0.3337026140032887
  0.8338541370823597  0.6628995227398170  0.3341719830590728
  0.0011773864188464  0.5829556481914152  0.0830608483142755
  0.0831254370437723  0.6659887806356729  0.9149192848205103