B  Cr Ni
 1.0000000000000000
    21.0299837599422652    0.0000000000000000    0.0000000000000000
     0.0000000000000000   21.0299837599422652    0.0000000000000000
     0.0000000000000000    0.0000000000000000   21.0299837599422652
 B   Cr  Ni 
   9 259 605
Direct
  0.1696704217159749  0.6588654795340475  0.7360629225270614
  0.9275502069335291  0.7453109335293672  0.4137263352005552
  0.4996912940763089  0.0852372290111918  0.6718310440247420
  0.9855759545654109  0.6826841837510330  0.4310358206483957
  0.9377995273360871  0.6566825078349459  0.4976972610792416
  0.0874848098318857  0.7354670243478287  0.5798876682024265
  1.0201747527925200  0.5798150996150236  0.6457861113613920
  0.6681898916199082  0.6695947055088904  0.5821944123549756
 -0.0106962667919955  0.5157103545418256  0.5984968491078031
  0.8345044230919251  0.9218361330947985  0.4187632184305349
  0.5816142094716457  0.5035382798943863  0.7524125822221367
  0.5030819247603107  0.8364745238087812  0.3339634434217326
  0.8335664975547995  0.7541921909878672  0.5870436973776031
  0.3366286886777480  0.5860291032067046  0.7527236829628922
  0.1690558513671084  0.6709148672230947  0.1696681136130143
  0.0856357547621612  0.7523022989243600  0.0013415199094953
  0.7483113723482585  0.5837897831196959  0.3304223424051009
  0.9190042836348187  0.6684270436261380  0.9182999046015384
  0.0023336228451470  0.5859253978099319  0.0847043618203631
  0.0854384929396386  0.1699715473742238  0.5877182393520273
  0.9175748448037193  0.0865950942299759  0.1681425589512676
  0.0025246790180665  0.3350224348548426  0.1693899531248545
  0.5839597031405571  0.4184812935152152  0.3338231565831505
  0.4183508862398407  0.2514739308040952  0.8372338728106746
  0.9186433965442778  0.8369927300189169  0.0845583399350253
  0.6678598590390824  0.6686024728173302  0.8370965221592105
  0.9148260314248341  0.8399704201467368  0.7519046824847158
  0.0024160783169803  0.3368916175846732  0.5027571673046429
  0.5002916317500519  0.4191718259444677  0.4172084715634193
  0.9141860503955163  0.7554532189676444  0.6713488761330396
  0.0857556802408398  0.4206312474293335  0.5042448571363584
  0.0883892289763749  0.4161924147215221  0.6694322195833345
  0.6677590811985070  0.6690761886897323  0.6774906141640208
  0.5814326942790263  0.5852015052610033  0.5023212537561429
  0.6658011436086961  0.3340088495426746  0.1667598506084465
  0.9180887026451461  0.0869656387239839  0.0010153838411979
  0.0859750677314054  0.2517313171322517  0.8374223772435205
  0.8343893142055004  0.2528274214842464  0.4189952980453622
  0.4180823566229965  0.1712700584166530  0.7542423931909477
  0.4166901318852341  0.4173065302971778  0.8342839357669180
  0.7504720373378252  0.5019097772216946  0.7530770782467403
  0.0853690302399634  0.0862150397062122  0.3337001017608123
  0.5856984185056952  0.7534485739744613  0.3345514912942877
  0.6702985695856214  0.0039589904145844  0.1679535966462704
  0.8345405618386886  0.6695576305922158  0.1675649933081024
  0.8320751043032075  0.3340241448930686  0.4990853445131966
  0.7508052756942873  0.0027864763233640  0.7530956845091495
  0.4205346562171795  0.6693116336899069  0.5853194167750193
  0.1674910705176891  0.9185750370093426  0.9178803282533151
  0.6671713099715926  0.2518028251896592  0.4173173435990889
  0.5839603680261285  0.7524045690145906  0.1670054880755785
  0.2519046926452085  0.9186194372604308  0.1665851614712815
  0.9147705916591401  0.2518050460073380  0.6679763678898984
  0.2539863500767758  0.0022102777322972  0.2486870335378328
  0.9186284413007270  0.4167490616199879  0.8397280102421532
  0.9195832755077494  0.5851368294557450  0.8360992632917761
  0.5038733484087741  0.7550969947908561  0.4183461709311838
  0.0025786291048299  0.3336770931420622  0.8374443768833519
  0.0904983640115754  0.4948498312763138  0.7566667624899727
  0.0009876231977018  0.4976896948429721  0.4981823546984401
  0.0020440368434343  0.2525126547044871  0.4190676586494589
  0.5029112501554122  0.1708673450615865  0.8396489162075517
  0.0845283866943657  0.1704428422020645  0.2507562662091938
  0.0871062519875359  0.5011192896490073  0.9204946973421697
  0.4998176127725060  0.4199944168899352  0.2510142161088661
  0.1679479117720763  0.6692326271864288  0.8367826279386821
  0.0863379252162447  0.1684593336868874  0.4174284449316622
  0.4198374793266972  0.8379011162218792  0.5853019239385803
  0.9157940449315437  0.1706304273844381  0.5850886733606443
  0.6682699689280109  0.0865820645549669  0.9203099621025315
  0.6679050833506845  0.4199365084019078  0.5859174674391013
  0.7512991397308951  0.5823817269436919  0.5003221316308283
  0.2503014277020109  0.5894597767834184  0.6701259611096055
  0.8321816274662898  0.7522952969715895  0.2454871761259582
  0.0016073295065530  0.8410679732263209  0.3315406923747011
  0.7494059428005562  0.3343102764771311  0.7529597365066106
  0.3359298342499402  0.0849917996801188  0.9206608982375556
  0.0011084629527611  0.2520520171475158  0.2506501691355543
  0.7514378100182202  0.0027260988443123  0.2503184704594150
  0.4197018526693628  0.6685825727957381  0.7529621513374957
  0.9170654434099724  0.4169098308758620  0.3326463641026431
  0.0026109665288803  0.8422131244611849  0.5054533068352122
  0.0024378874777906  0.6700762245704476  0.0011243899792615
  0.5004889898660518  0.7522487060333662  0.7537433197974845
 -0.0009165745478822  0.6684995456750307  0.8368613319791438
  0.1754237851013543  0.8450419648677577  0.4993603259989722
  0.7516694077439038  0.5037226919349186  0.9211454664593738
  0.9182077604529382  0.5811905384339235  0.6662072400456470
  0.0862832285627220  0.0871005373804348  0.6699486056647092
  0.5838482272195367  0.5025294127688923  0.0865450395070266
  0.7509858229052397  0.4200100977057595  0.0022590204603357
  0.7521142848429757  0.5847790821178858  0.0015575701892607
  0.5023295851366282  0.5858672150788580  0.7529550362046586
  0.0012474090146354  0.9196008634566141  0.0853385256902547
  0.3329314353327133  0.5033946626503204  0.3367467735330263
  0.4987488793606404  0.2506109588183116  0.4165630398832963
  0.8359865478242444  0.9186998185213150  0.9187913464856247
  0.7492704327482810  0.0863412782162165  0.5007213493354142
  0.8346857889058029  0.7525347823388293  0.9189267186143862
  0.5832507842899515  0.4188995954801178  0.0028458770364323
  0.0862058091579212  0.0063240381049215  0.7516569344819429
  0.0016737579876527  0.5848252953070461  0.2526786056792291
  0.7516480735933885  0.3365009495148558  0.9211903373207176
  0.1676242414713815  0.7543364808266999  0.2505363781680270
  0.5845259388914803  0.9181658509416448  0.0025801686811511
  0.6674776269526314  0.2523264623741719  0.5862731896183186
  0.0851435846671849  0.7533363274934791  0.1703221381184980
  0.9184071316544902  0.7520488075880037  0.1703272037710312
  0.8323739349344397  0.1696057008545228  0.8357479240393978
  0.5843094928170391  0.7532638252721148  0.0020647922491432
  0.4994115759751799  0.2517353041131384  0.5849215602963374
  0.4182510743967661  0.4188519679290824  0.6689848915526011
  0.4199012964327660  0.0037182033275946  0.4175194275509065
  0.6674751035351719  0.0034304116400601  0.5023963127004961
  0.3350987360721099  0.0011307084316833  0.0010710126941938
  0.1676971617045860  0.0876243701927756  0.9213205506825102
  0.5871719477767346  0.0873223603736578  0.8381516219267167
  0.1694163983238913  0.8378865928298314  0.1678362574860310
  0.1683457785388540  0.6701790085601690  0.0027786761343470
  0.5830132844810770  0.5011821635957687  0.9206921858203244
  0.2502830345450544  0.6717393407502670  0.4193775444010857
  0.3357055315361876  0.8372043165770873  0.5011949510114873
  0.0007503795415294  0.3338600533128272  0.6714423209409299
  0.5032224478051903  0.0871451590546524  0.9192660254435849
 -0.0002277540859260  0.2521083684325708  0.7518674522113554
  0.5009844084864856  0.5863183641223747  0.2515666876377456
  0.8281734489996072  0.7544803178275795  0.4171391522310968
  0.3357578028884805  0.3377511153466446  0.0027223314948458
  0.8319494680430624  0.5832967403861539  0.2494275631528401
  0.7506092377184689  0.0859624322647996  0.1689930650863063
  0.4170190762728131  0.4196460589968731  0.0042218552684760
  0.8334538224391764  0.1695742158059200  0.3367559711286521
  0.0848412973924220  0.5036016293221011  0.0864284050930727
  0.4199399745561008  0.1718948893482898  0.4160263723346467
 -0.0000689730210833  0.6699500738222192  0.3344032350272864
  0.0002830162505438  0.1675030711037769  0.0029284355773017
  0.0865444078270539  0.6723448858703505  0.4132900241265852
  0.5830730470102878  0.1687279433382972  0.0850369363016463
  0.1691490482336977  0.0872705388731285  0.7514288841230398
  0.8341962229052409  0.9205293565556563  0.2511219460858621
  0.2516368515848255  0.4192287127924695  0.3359718393758253
  0.2503631475857825  0.7525162516607353  0.0001804680866601
  0.1691334467621145  0.2515902371044972  0.4186065183948101
  0.2532499253804672  0.1701182795005465  0.2491209093813094
  0.0835082768137214  0.0871120871797051  0.1700433485335298
  0.9162280015280131  0.0896661761926782  0.6678719068423490
  0.3350625553696349  0.9186062026316922  0.9182664203827290
  0.8333713477713859  0.1699772377218589  0.6684065699081936
  0.5016766203388550  0.0029447711126361  0.3348234110200590
  0.6638884953051430  0.4191708340996897  0.4149233431323010
  0.7504865552236117  0.0857143252211381  0.0012144332437194
  0.3369149731838373  0.7539454555296541  0.7522678899323412
  0.5856692556130259  0.8355633501291002  0.0857093506614088
  0.3385305649929382  0.0051286544342301  0.5015904873930203
  0.2506390503549693  0.1712842485904613  0.4178187465776813
  0.7487021685435858  0.0856285906359081  0.3338215227695083
  0.5843708198760426  0.7539143095883081  0.5000247473952893
  0.1677295273563499  0.3371767507355389  0.1698542532832931
  0.0852221014288672  0.4186762856840470  0.3345530345850268
  0.7532659265826197  0.7515841589593021  0.0002607962515838
  0.1691201807204677  0.3352221933418781  0.0040279751040328
  0.3358853948950273  0.3359812709937142  0.8355457398617991
  0.2521598355910240  0.2530686927576480  0.8369123081540244
  0.0028239828198823  0.1720863148611202  0.8338430160108596
  0.7503317031432506  0.8366097818889249  0.7525960070348293
  0.5833642006079423  0.1700283908270657  0.2511818114556473
  0.0863441248399159  0.0065328375867925  0.4183357145455486
  0.5856870032526942  0.9211436708222708  0.5024641966722613
  0.2522464769044426  0.1709828661740994  0.5855394521439321
  0.1685704908721424  0.5864259406869852  0.2523236212942918
  0.9201695458878055  0.4174597391407225  0.0022427258450688
  0.1691333876864733  0.8378295856926973  0.8346410383897248
  0.5854021175633560  0.0857495070100829  0.5020733984680896
  0.8344603100125043  0.9216333119777167  0.5856653550423834
  0.1700628288059817  0.4183615906570561  0.7536192891494574
  0.3365773037411763  0.9219457879658378  0.2514880044764587
  0.3354846998441688  0.4174649569586861  0.7506651990668010
  0.9164354806900705  0.0039400634144107  0.4198617812228035
  0.6676374538221970  0.8368179845796272  0.1651494275724123
  0.6694563732308939  0.0041012785954153  0.3335352799604663
  0.9154523412758935  0.0029633061338520  0.2524298882619559
  0.8341631113815652  0.1670143103177925  0.1687196889124808
  0.9171633321915658  0.0877639832367914  0.5027818179006355
  0.5006425608378893  0.5866426726422906  0.4189383239793159
  0.2504659492597079  0.5871410965972476  0.1699719066124569
  0.4185801744732984  0.1729952560357106  0.5852977452878794
  0.5853540845000600  0.9191962447224168  0.1662211048014571
  0.6668628989801145  0.2519719259750509  0.2485662659833558
  0.0767206513181004  0.6732463079299734  0.7577221889681556
  0.4171855366368060  0.8362664746755756  0.0855310942769733
  0.2521352589002055  0.5022911754195388  0.4168330766891465
  0.6664120363980494  0.7543087211764551  0.4166643757910701
  0.3358073311708105  0.7548653854929864  0.2526204053496383
  0.5849254765827003  0.9200784430888517  0.3333246531081200
  0.3360487410024113  0.8384881039824333  0.8372539414090805
  0.3369005627849789  0.7515126195595265  0.0859752586997464
  0.1674293851813146  0.5019691503898158  0.5022134221022638
  0.6689448345632539  0.0012588900158619  0.6703358485124823
  0.4171771578959001  0.6683679011647070  0.9193130395512417
  0.5015103066443121  0.0036523362775708  0.5021219535595156
  0.2543005147926943  0.5023142877348242  0.9214589869336092
  0.0016797580433470  0.1689097817065584  0.1700681511682548
  0.4171111370778304  0.8378624455738216  0.9178713636576259
  0.2558649965018142  0.7542726448321806  0.6678194379019616
  0.6684038410560967  0.9187382295245584  0.7535508414947203
  0.5016358884838209  0.2515025077350193  0.7559700774525495
  0.4184698280397555  0.0021153562879672  0.5842475683402552
  0.5028320694978570  0.1688231277460920  0.3328886923352569
  0.0866435016837029  0.1690579264041258  0.7524771601550160
  0.3342888597658583  0.0024154639831023  0.1674976352175794
  0.8297946749445432  0.5003022349872809  0.3305837159594622
  0.9153406530887015  0.4156103618005111  0.6712246131888457
  0.4992858009279351  0.2517503422510753  0.2523819214302888
  0.8343162512002336  0.9215702800037361  0.7525847670529576
  0.0858504524445421  0.9230138170152123  0.6689362079354818
  0.9160034500833185  0.9207426490237727  0.6703481130970651
  0.0863519780279663  0.0028775807282728  0.5884119827101516
  0.0852473763952936  0.8393143995425938  0.7518311765009090
  0.5006584104351260  0.5855660833189085  0.5841560065995967
  0.5942873295552845  0.0862291991431280  0.6713158293896283
  0.5022251928473177  0.0025920356359271  0.0009492421731988
  0.4159276276402312  0.6701226118632361  0.0866907066614124
  0.9181227844618260  0.8364909865417913  0.9192413811484140
  0.5853998722820822  0.6702542300456044  0.0858654627491468
  0.8340374498733268  0.3356728324594792  0.1677479656640060
  0.3331754097616448  0.5863245818751753  0.0859785086279069
  0.0846034442154736  0.0052838796163310  0.2506916565020941
  0.6682383573227816  0.2543941927511361  0.0865306337561925
  0.1680651565693124  0.0874534938611861  0.0845960698163390
  0.6686010475956927  0.2546687603587479  0.7541062987209172
  0.1683311571165758  0.1679324926185904  0.0021790123989641
  0.3338131288574789  0.5032993276644736  0.5007402183146565
 -0.0030178208705306  0.5838991426485539  0.4240714739226730
  0.1693735902894659  0.0869390501009850  0.4184463118043423
  0.2537471902864986  0.7543975331689234  0.4985412290528364
  0.6691369428107272  0.8375141351416577  0.6715792963759949
  0.4160703033347374  0.5029090781596857  0.9203831231061750
  0.7502587186880448  0.4999452036730996  0.5850713163596803
  0.1704761418034457  0.8400639712535413  0.3317323068374639
  0.3354409423854193  0.7544211043038068  0.4192449727671802
  0.1673539002286855  0.9189241540387614  0.0865957980176726
  0.0008267905318068  0.0038015520184234  0.8352684017120983
  0.6700311021822155  0.0033956447838622  0.0005640530006513
  0.2558928054919583  0.6720861866170295  0.5819276716969424
  0.0862508765084225  0.5074815753516722  0.5900009236507209
  0.3350971759971122  0.1687080113697789  0.1689011724863458
  0.9184494043205370  0.3349652039283929  0.9198543672187128
  0.3351248442345491  0.5849287525476763  0.9216200644749700
  0.6639545998735017  0.5009210298229075  0.3342783638976896
  0.5018484198636122  0.1702162355624083  0.0024989818974446
  0.6664235199330857  0.6694322640181829  0.3356967581218739
  0.6653085026506474  0.6711763032512569  0.1655354891314689
  0.4175677479667845  0.1694283484342704  0.0846143772410305
  0.8335021781037013  0.3339171985342044  0.3359224461146389
  0.3337236897042726  0.5051555572231298  0.1697076547526454
  0.3354455902487364  0.3360069219527904  0.6699618551832598
  0.3342680881741063  0.3354255310645728  0.5022196818588618
  0.4994283629586648  0.4186471432192660  0.5865190679892610
  0.4160483061945433  0.2533201455728860  0.3337017250403024
  0.8350491751948340  0.5032395936232529  0.1678046831383507
  0.3346619769653126  0.3366581756178160  0.1690896633497851
  0.2543297938616636  0.9209156744200874  0.6702004802780851
  0.6644074791839885  0.5017401591506556  0.1653563700493597
 -0.0002294681114539  0.3383092124369440  0.0009156369624076
  0.3337349038047072  0.0878401722817845  0.7531126636597206
  0.5035483212893159  0.9184920770415875  0.7536925444552222
  0.8334865908406797  0.1681906274741188  0.0016912752607505
  0.5836071602138042  0.3367965947884368  0.9211715892063193
  0.0855157268220289  0.4189849298447716  0.0037701629976431
  0.0858692370523219  0.5865865732110650  0.0020521432681302
  0.0913708959641972  0.8468831052909541  0.4138623203037174
  0.1025759750141288  0.5871004551225704  0.6856976608454134
  0.0847075028884959  0.6693709759788579  0.9178232835109564
  0.0849766108678406  0.9210225863417151  0.1680391049292932
  0.9185183551261613  0.8382503346198170  0.4183296635852479
  0.0848635660364135  0.3343327184403017  0.9215387741152617
  0.0844956678190955  0.5024483526762363  0.2524856840850420
  0.0872160896515263  0.4164860576708012  0.8388311883013082
  0.0027104521150292  0.5023935862090869  0.0026219493872997
  0.0024166270366068  0.5008130714545774  0.8358173444236411
  0.0852180219681735  0.6698786087353961  0.0860871115696008
  0.0032514221649509  0.5844400470747766  0.9195926829176803
  0.0037198752603582  0.4200454839310931  0.9194506823403640
  0.9186905995082998  0.7529869477119248  0.0017355979973573
  0.0010632904784644  0.9199055498413006  0.9181108641303131
  0.1701995968536033  0.0052112846772401  0.3326446001779459
  0.0270386571748684  0.6880307233519717  0.5107546136104758
  0.0845710528564345  0.9214076921036976  0.8349696741942426
  0.0854880836772771  0.5842205101166098  0.8368914767116102
 -0.0025521017059447  0.7589960975537452  0.5921726065471957
  0.0805525227033748  0.6446276968579927  0.5949011159956633
  0.0854050831135729  0.8375615981286613  0.9182723269640263
  0.0843240735670665  0.7553780807034770  0.8357032243163066
 -0.0009212808043789  0.7559675582380323  0.7525289732805911
  0.0018188508338874  0.8363861001364217  0.0023298335817306
  0.1678217131706087  0.0030233053057449  0.0020820749156185
  0.0868510012210923  0.3342084140487107  0.7535916620765016
  0.3351766900253385  0.9190212569879916  0.0846122947135077
  0.0018405359965154  0.4133582563672412  0.7574889125520249
  0.2521751018657113  0.0858859037208010  0.1673039643845576
  0.0838286683335059  0.5859484173323143  0.3367174018839161
  0.2510156047162468  0.0030709106001634  0.9196729936185699
  0.2528632684881124  0.0874698218825885  0.3340159651344372
  0.4192135568897634  0.7537693351448318  0.3348954778305579
  0.1711104373900500  0.4982008103104811  0.8421899743076355
  0.3342436598982149  0.6698349172902425  0.0023407701449053
  0.2559009126304407  0.5849208575555297  0.8396754803254391
  0.1679588294072819  0.7533110580043725  0.0859820793550263
  0.2516943787588219  0.6711106990125721  0.0864026099066496
  0.2519220744158141  0.2529944758790590  0.0038351247428436
  0.2521114135858393  0.0855145962598705  0.0024461450694251
  0.2511985149077820  0.4197980628138579  0.1690712911855050
  0.2513569119378889  0.2522591247182747  0.5026251604845021
  0.2517012562438575  0.4186386647101970  0.0040830142513004
  0.0845913679284603  0.1694652246829355  0.9202841386884842
  0.5019400866718413  0.9189164958927972  0.9199688958270836
  0.0850216516444914  0.0872520784534770  0.8361972846787847
  0.9149945230289702  0.4974200633800431  0.4137713297952851
  0.0966426808860844  0.7703534058812761  0.4952585718084103
  0.4188497552663068  0.0879877992446667  0.5010964714864072
  0.6694291194424624  0.0865852666437617  0.7549721647728348
  0.2534032671142753  0.8375730539291391  0.2515683204391591
  0.8350657344482831  0.0035783388068999  0.0014954778108394
  0.7510549258506302  0.6686643496185052  0.7539472596861518
  0.7475707069183223  0.3345087319369048  0.5850495405842635
  0.9126153492532977  0.6723273979603341  0.5886021823387987
  0.6683439720749502  0.9193546196583756  0.9202072102873881
  0.1694716927298870  0.0873334812846365  0.5857641252746694
  0.2528388380164849  0.0883175723908055  0.5018745219136357
  0.1710858625626567  0.0038981205311908  0.6686137658613381
  0.1703462902280250  0.1703107281840743  0.6686928548217916
  0.3355535190053395  0.9198171887700689  0.7529122463916249
  0.2534685236191887  0.0871375846422103  0.6683033887407993
  0.0845851578539166  0.0039467808301491  0.9190051671153661
  0.2552556667942454  0.9230482527590306  0.5007157116929492
  0.1680249260083953  0.4185426496689391  0.0860927334084653
  0.2515103518852539  0.3365284792104390  0.2507267346939089
  0.1678858163035157  0.4182900328984040  0.4186041076435144
  0.1737058683716148  0.5838628036935191  0.5841312079464626
  0.2559774720536477  0.4992765685799497  0.7531538108377067
  0.0837875505885164  0.1696351043308606  0.0852552137707278
  0.2523231072655339  0.2525833404038070  0.6684879456793260
  0.6696297484030344  0.9205360041584791  0.0837155562018045
  0.1682650892673744  0.5029820450887604  0.0024470430604904
  0.0854554799974137  0.5872056598018054  0.1698699077947087
  0.3334908876379806  0.4195927787830290  0.0869326917863393
  0.1691682815504515  0.5872819435637371  0.4185503900466979
  0.1677037757416419  0.5039078596410144  0.1700918640705642
  0.0865946220695780  0.9225424386624270  0.5024324474544990
  0.1682299010654869  0.4196183220819753  0.2525732899673154
  0.0009958215702464  0.9226314996678805  0.5867883307175541
  0.2515700647155145  0.4197077707829728  0.5015763162749833
  0.1692705389375936  0.4164724687575623  0.9224576477969123
  0.9157383709059717  0.8392800879917889  0.5865051342396771
  0.2536598966390417  0.4177059276308895  0.8375051873373780
  0.0854923719096803  0.9245471139078280  0.3330673803715542
  0.1680821064665150  0.5867597093219237  0.0863542582735150
  0.1698557771172408  0.3347481778073316  0.8369857660368274
  0.1686140461474492  0.5860918352651584  0.9190806668513628
  0.2515313516843811  0.3362604597241641  0.0865730501213107
  0.0009303773682858  0.1691393471346871  0.3353581125633472
  0.5000602615278864  0.5017672741830959  0.5017926444016714
  0.7492197984920737  0.5838271733704363  0.6710180598020802
  0.8336310630164822  0.2528543560692049  0.7540385062909178
  0.7489166057422182  0.4178973230055322  0.6702308454830438
  0.6675164829884265  0.3375424196574004  0.8375641581069906
  0.6672084799956536  0.5851113533093583  0.9200110641436869
  0.8344150813866572  0.4197514609621846  0.9198459929829326
  0.7499978656864864  0.4192313721382152  0.8373823620977793
  0.7512888072272735  0.5022688947091789  0.0852538127744331
  0.6675964635615209  0.4189728324146377  0.0850434309676187
  0.7479368942995177  0.4997202263632218  0.2485035365767199
  0.7498418703368873  0.5849670876059561  0.1670983353409641
  0.5847483841734712  0.9185106916815198  0.8361953162285267
  0.7520887098257787  0.6681020090895110  0.4160712446586406
  0.6691695698748005  0.7518473065063462  0.9198303771024809
  0.5830060773149355  0.4182824280814121  0.5010662327228190
  0.8361184343098537  0.6688203744818327  0.0017837714694165
  0.6686749848107125  0.8357852389378556  0.8365734644757720
  0.0026767612327497  0.1694036394854625  0.5026841541519484
  0.1681784062800372  0.0040345369443274  0.8363389700163348
  0.1686575224670402  0.1687168655646753  0.1684726751017386
  0.0014810444230465  0.0048016416979540  0.5027853724170018
  0.0021659370970571  0.0865449803307635  0.4191694921044266
  0.0854228031547043  0.0871699405962194  0.5030585850500535
  0.1695258452497065  0.1695670186240422  0.3337200671334409
  0.0010019275427185  0.0879707732621985  0.7522365086227276
  0.0015405105579817  0.0872042356342155  0.5861551274410313
  0.0846771087979518  0.9201253135735454  0.0018589600300031
  0.9176082751946401  0.0875746644393253  0.8357097032801958
  0.0847743715629386  0.0040787837547973  0.0850339483243243
  0.0840709856146026  0.0860469279740707  0.0023814118324571
 -0.0004916722194753  0.0860210491051099  0.2531609257645646
  0.9175939233047645  0.1698149870847653  0.9188411133652918
  0.0003226308159157  0.0039332176502931  0.3356365599239524
  0.9179882916225355  0.0036306409982961  0.9186981014816037
  0.1696070317411429  0.0052637789981617  0.5031858082756637
  0.0003049659648191  0.0039639957081253  0.1683774334793008
  0.0005974242324388  0.1698426758949367  0.6685158917392066
  0.0853116515376170  0.2524562131147383  0.5022924570116568
  0.0850420162998462  0.3351957110203928  0.2516724376616072
  0.0020911553961705  0.4189229594387636  0.0858937840412775
  0.0017501043556061  0.4177912531248669  0.2516043764291298
  0.0847523983882521  0.3355612994279061  0.0856271196433697
  0.1677505642466943  0.3355055563859334  0.3349826215585779
  0.0851195758621013  0.4187860271176590  0.1689010446698543
 -0.0003969612162876  0.4196694626731471  0.5886453829027035
  0.0016447713525484  0.4171942462083333  0.4174320138025285
  0.0018042595137206  0.6688044935713036  0.1692226313573788
  0.1682192665871435  0.5025658393533443  0.3361153447249319
  0.1694437837528106  0.1686572311291056  0.8372017757773825
  0.1692216629691184  0.3350546692814532  0.6696263012415755
  0.0844937569178737  0.2522963333890542  0.0035117467109222
  0.0005647016767151  0.0863748967594880  0.0857423229575791
  0.0855956017879029  0.2528314982755059  0.1672710224938641
  0.1689127051904155  0.2527868414451545  0.2507142867514349
  0.8358118706771930  0.8363325533306243  0.0015331554854337
  0.2512715565955604  0.0024955071354822  0.0843202615184222
  0.5016518630025478  0.3354471308528035  0.6689435075500001
  0.3355016564801130  0.5037946007696571  0.6687700386057155
  0.4165180764162552  0.5031564446573894  0.0871132085053090
  0.4184813073310494  0.5852265008360140  0.8367608302293843
  0.7511684285103470  0.1701253026412899  0.9194901598335815
  0.4176241524561530  0.5864921857472738  0.0036276785287961
  0.4999824342474928  0.3370102941181342  0.0030828491905709
  0.5006508077239074  0.5854633526268532  0.9204001668690802
  0.2506951938815027  0.8368140899482998  0.9188599729501338
  0.5004277602514162  0.6699316829796876  0.1680682388760069
  0.4171678993168276  0.7526728026073358  0.0015955830839410
  0.3346457686892669  0.6697443715637069  0.1700868313006882
  0.4184369806402902  0.5027471549235271  0.7520950143634703
  0.2504432205305394  0.5028784911168060  0.0868849068917554
  0.3346506437604053  0.5025673526391154  0.0044428379775630
  0.4997952145217027  0.4194185465216387  0.9200938854088359
  0.4179552832835421  0.2532044819229932  0.6691672473395155
  0.3340802687281560  0.5871012497896116  0.4190733942163083
  0.5012021593020277  0.3363235964637308  0.8368080648949688
  0.5840817483733012  0.4198899058421284  0.8374042797961341
  0.5007268736949625  0.5867952884624089  0.0856718529290391
  0.5834841653089949  0.5854580333502962  0.0026242355659529
  0.4999670974851426  0.5037071774172042  0.1687409762723792
  0.4173930166085861  0.5030980737007484  0.2529786954291728
  0.5831783058514710  0.5027546263894284  0.2504906745437719
  0.6666215750786796  0.5022969304637733  0.0025145299956466
  0.5008918446597176  0.3356562997296056  0.5014572160362696
  0.5004940359288261  0.5025499076073141  0.3349838234008007
  0.5829354898401322  0.3345916454277018  0.2510700515191847
  0.5022842499618833  0.0866672294487066  0.7607575387868767
  0.4192356874854008  0.7541920656556917  0.5012872614152851
  0.3369475147364657  0.6700425564605471  0.6683053321650718
  0.5009696237535930  0.6686763319120623  0.8371847446265174
  0.5026487024063965  0.7533054421213570  0.2516227894630625
  0.4194635894625345  0.7530722179704060  0.6695110593346171
  0.4187164838441659  0.7526078064592296  0.8365208370811382
  0.3371851861311437  0.6692115602979963  0.8370928781801095
  0.8348519515918774  0.2522211510443966  0.0851148333376797
  0.3352952245623637  0.1707653173158145  0.5014054875672694
  0.1671476561817892  0.7531689548929954  0.9174567877386244
  0.3348981442456885  0.2529671590588692  0.5849389744176720
  0.3349112608893379  0.2529664388240280  0.7530692775626198
  0.3336929523935011  0.5859011195554146  0.2524216541554530
  0.4164347396118906  0.4202822611137569  0.1691429558921695
  0.4168389057384297  0.5867576309810852  0.1698764914144772
  0.3350268404037283  0.0035674011375526  0.8369189773199724
  0.2512003298197769  0.5023436601084484  0.2530639612300866
  0.5852120470675894  0.6698660218340858  0.9194342427646908
  0.9183387668927308  0.5858118714483806  0.1687304696706830
  0.7512885778427653  0.6687434606727557  0.0846914429557867
  0.9178284413466160  0.5002198576562884  0.2497979415567267
  0.9181501331074610  0.4178886295509310  0.1681321265898975
  0.7487282635236641  0.4170929912258643  0.3322377398883538
  0.9183225452327608  0.3351730580847718  0.0858390346121118
  0.8348485234641969  0.3368648240976482  0.0018911506683642
  0.9174988729244927  0.1695599961475422  0.0854518714483793
  0.6670191298924063  0.5020446804092428  0.8373195348636486
  0.4184653718055611  0.9194317281785405  0.0018255516887556
  0.3355184538708358  0.8365636657420999  0.1687365010403358
  0.4189092509062830  0.8367821865722952  0.2514226207717783
  0.4176354712993099  0.9199368655160548  0.1677709129789487
  0.3352494331407812  0.7534951691090007  0.9186882675455021
  0.5855916530142817  0.1703857865740735  0.5858440890950901
  0.5865632195243472  0.0025213144462304  0.7539895981379291
  0.4173273436497499  0.2526020655841140  0.1686314235911386
  0.4185534351027261  0.5859054816523233  0.6686536448097438
  0.2526591188812997  0.8372429765752091  0.7530065160010140
  0.3352848912499010  0.0032278743133993  0.6694547302469255
  0.1688055945573251  0.9213911348137998  0.7522337198388775