B  Cr Ni
 1.0000000000000000
    21.0310239516864677    0.0000000000000000    0.0000000000000000
     0.0000000000000000   21.0310239516864677    0.0000000000000000
     0.0000000000000000    0.0000000000000000   21.0310239516864677
 B   Cr  Ni 
   9 259 605
Direct
  0.3388098191668291  0.6617476175711826  0.7432262733882021
  0.5849315711769995  0.6675825941915882  0.5014996686446327
  0.1682608292112310  0.6674759919060604  0.9169938718403184
  0.5854764534026460  0.7505852276900224  0.5840791110019666
  0.7546685752801130  0.5865729705980340  0.7494407904113949
  0.4097372993675604  0.5060924498612266  0.8307257089435097
  0.4315341911018786  0.4248022422840110  0.5948649454454666
  0.4823433121126767  0.5663424427777293  0.6763053517200315
  0.5150464557011699  0.5118746893846324  0.7309842617886309
  0.3333111600855701  0.9212533407598299  0.9191273209210565
  0.5832585401659034  0.6683765002165587  0.0884324587253886
  0.8344327387535082  0.6691284036019327  0.5013131005220478
  0.7525921510043839  0.6709728363491461  0.2513323466290476
  0.1689041083979877  0.1696422455222990  0.5020429748827336
  0.0841196226258989  0.8355747893607319  0.2527023697009122
  0.1685988158111381  0.8374056615616192  0.0031601885290879
  0.6693114869591054  0.7562291202685030  0.7510674638125479
  0.2519224892813086  0.7534654654895691  0.3350098106565076
  0.7514345546320241  0.7532359956982192  0.3339218311606542
  0.2492180312108409  0.8360400167612185  0.0852722865352802
  0.2516505496261302  0.1688803831215411  0.2535663740025578
  0.0014024443404093  0.6691283218073605  0.0031682901419658
  0.3345670122668039  0.7561130850886614  0.9190853600849856
  0.5839460356856857  0.9182142217379444  0.0020671784871070
  0.1674528562134495  0.9189393892588650  0.4196064084185884
  0.7513539264117448  0.5866777144838207  0.8456588527052590
  0.3334236436278065  0.3324563664815246  0.0028746835777567
  0.3347421609626194  0.0019705780745671  0.1684697984018985
  0.3348343510378436  0.1670970889633490  0.8353137778552301
  0.5841416296580091  0.1683605419300617  0.0866530816088454
  0.5859482299740609  0.2490032074281928  0.4990798158310494
  0.4176076893335036  0.2520042967710772  0.6707548638272497
  0.8364871207166966  0.3352334030350908  0.6667853113197686
  0.6737836145978117  0.5007257554136895  0.8415158028016262
  0.6724606235175870  0.4133516551927838  0.7530558383578665
  0.3348288196611838  0.0848041151528960  0.4186500043785389
  0.8351106075177942  0.1671536562286813  0.8352656000968599
  0.3341842906744640  0.0024185582409904  0.8353632712968628
  0.5845776376309838  0.4170692748330556  0.0053815592253588
  0.2516778353969921  0.0029123301304691  0.9174099196734464
  0.1661598829085352  0.5000047053505037  0.0063506643046194
  0.3325933835903966  0.8371400668098364  0.5018319193594912
  0.5093952335350380  0.4998975844480298  0.8357203665149198
  0.3336194563526725  0.0019370996520867  0.3367603589212961
  0.7529189240658647  0.8380341736778361  0.0888658733595716
  0.2515028295890245  0.8349854046834091  0.2537972533969490
  0.0824556253206628  0.6692456032333132  0.5847025787735193
  0.3311370804815400  0.4191176254000757  0.5857296171841387
  0.9175483087401142  0.9208634077924193  0.8363129183776852
  0.8338559587354334  0.0859373368578263  0.7527717057711851
  0.2517950780034116  0.2513412198808820  0.3351146305258140
  0.0859209537521883  0.0868941119646444  0.6685762663072768
  0.4181082204259560  0.3362675276401366  0.2535238773272854
  0.5007743138613067  0.0022013123709342  0.8358368897845372
  0.9196156075672696  0.5849932590292876  0.3341796830688682
  0.8348679593213324  0.0008656526930085  0.8346954040630427
  0.8352372451115193  0.1661074158936395  0.0035031255698297
  0.9197839079030223  0.1684813046097284  0.2522742200727064
  0.1664805720931831  0.5832573463419938  0.7508220388527351
  0.0860004382070476  0.1689966744488462  0.4201166840051950
  0.0021386798416533  0.0861682009752276  0.9195288252211622
  0.9173316286511304  0.1675255509410555  0.9194069520862478
  0.1686574097476249  0.3343400937785002  0.5018104381372407
  0.1673935410252207  0.4179171162393839  0.4183561426848894
  0.6661433678291492  0.9186595379122119  0.2507787637115699
  0.7519511499659637  0.5860666981977513  0.3351995809081876
  0.2468843862071279  0.5846619834959512  0.8392587040921188
  0.0847407284641982  0.7529623107851156  0.3354013929693859
  0.1665006511914896  0.1683649738666575  0.8367686129847802
  0.6671577288509647  0.2516766534908648  0.2518443033715482
  0.8347624606673177  0.0862871504861787  0.5860147986642776
  0.3319624144362524  0.3336164353591159  0.8366754901311801
  0.6708657237991730  0.8396999436747288  0.4988473359203051
  0.2497556740692047  0.6685273430452671  0.0854571042892939
  0.2500195058053719  0.4192843745341386  0.3338363470656046
  0.5852454068659053  0.3328964969629313  0.4171076328908743
  0.5002030175228839  0.6688814868193338  0.6701379735469919
  0.1668958602937786  0.5022493523904270  0.4994315671468111
 -0.0001991298879270  0.4162679796390059  0.2534929290314595
  0.9183464353540177  0.0845544629024958  0.0042411464206019
  0.3335328992021908  0.5839681772144019  0.9185953460058571
  0.1672792504208146  0.5842775603567831  0.0876655877952445
  0.7523062082356607  0.1662018439425974  0.5858760263020252
  0.1665208812651471  0.1670186976026933  0.6681211544699386
  0.3333803293228710  0.7588498298130438  0.5804741917657217
  0.7525307146707951  0.3339944272708915  0.4169479026443179
  0.5845352459103551  0.4196910854126797  0.1684172982484006
  0.2513637867793182  0.3339599700138172  0.9196647644385234
  0.0837694829616617  0.3343983575126652  0.7520340680374030
  0.9170012419600362  0.5010154109240900  0.0870319420490456
  0.4998148401329627  0.8364231450442164  0.6707444224537462
  0.4988322757776903  0.7520659777653629  0.2526646612382397
  0.4995365375495391  0.6690914911336879  0.3329116251112974
  0.4163985088764359  0.7536876000422965  0.3346844899342933
  0.3349337643965182  0.1691587633467512  0.0035995318031480
  0.4997185849990858  0.1675426318689462  0.3333139184155117
  0.4994162335650639  0.8378462098108878  0.4996568768913191
  0.6676190506592800  0.0875772566897296  0.4164961188848677
  0.5026786155414336  0.0043896054892275  0.5042063183389065
  0.5007071243108794  0.0016316815437819  0.3347299198608129
  0.7525766248471676  0.6720923704480984  0.0894671117315608
  0.7525883634008340  0.8366896764901258  0.9192590344599375
  0.5013531943704356  0.0038743330825030  0.6681149165804241
  0.6669696422617952  0.0851859036016809  0.2513666972744643
  0.5831644334275978  0.0023772490597269  0.5848333508674796
  0.5867956530685194  0.6721089712763987  0.9204967370113258
  0.3358453711484571  0.3354035447914244  0.1713223220398704
  0.5844140326488734  0.8379072818945619  0.9194981084485846
  0.5836314361664303  0.5853878613828318  0.1673228070896231
  0.5835704091241406  0.9185841799801390  0.1698176211438311
  0.6702960811015761  0.4171280909553141  0.5833967750468032
  0.8341219379428847  0.3356896595166830  0.8345730149279893
  0.0017546973202814  0.2519804188870426  0.7521799043389288
  0.0841754253503610  0.5007886368559623  0.0882378967565124
  0.7516368823176122  0.1665044966114859  0.4169508258710996
  0.4158806455047641  0.5030596459650170  0.2531417279660628
  0.5831493829794755  0.4169927189936175  0.3366010606172679
  0.5876296621003219  0.4154896553529206  0.8407086006276011
  0.5913240357941216  0.4158297590741502  0.6690810790255487
  0.7516907001051766  0.5005594721963128  0.5827895214623999
  0.2477475901154514  0.5876219392913632  0.5000735258348769
  0.5048692639967383  0.3394132259979127  0.6678879975431556
  0.2504152511946954  0.6702524149774690  0.4170308493345805
  0.5004332306992494  0.5850096324903731  0.4177282634034044
  0.6673240082899269  0.9184296655721049  0.4192614350495897
  0.5834515592527425  0.5780715444180919  0.6724558298376231
  0.5016384760631717  0.1705608708562465  0.5029386773185270
  0.4166797632546456  0.4196775962020001  0.4968680390578992
  0.8346754514933304  0.0856003274784895  0.4178583439481742
  0.5028109377264082  0.3298875381220079  0.4947776079650503
  0.4996249113539919  0.4206750902800313  0.4189755552576668
  0.5002143426318899  0.3361897020388280  0.3354721320862915
  0.4992964379293349  0.3359272207894848  0.1704150073085798
  0.5021841053739469  0.4169432471278102  0.9188136295576251
  0.5836390300706583  0.1684050029729030  0.9196371856435415
  0.5055416471466019  0.5862819762118180  0.9197023257756137
  0.5000475842881570  0.8341135968824784  0.3325076396562267
  0.2466324691758913  0.4967819377033452  0.9240940736287193
  0.0011080674457489  0.1688035482940268  0.8373291513687234
 -0.0014063078213866  0.3356543708822642  0.5023901978701523
  0.3293918597925206  0.5009886163106061  0.6671220035985276
  0.1648630176584933  0.7557149130845293  0.7502338145285647
  0.2518479221883708  0.2505107737732158  0.1703855655335371
  0.4141484831964379  0.5870672201477648  0.4991067858170312
  0.7515165455545406  0.1665913319133562  0.0852977811189036
  0.5046357225529805  0.4139985741841094  0.7539455188549282
  0.8370676280734366  0.0854954819395152  0.2527294837108072
  0.6687246684704614  0.1684020956878601  0.3341736719449571
  0.6665382551295274  0.3331789228171049  0.0045737857434319
  0.5015625455471964  0.0015175870243887  0.0035859647584980
  0.6673962786598470  0.9194363208865515  0.7519139979998976
  0.6671903665062632  0.0015266885580159  0.0040106710806373
  0.5842395194334262  0.5006709838167117  0.0866212842076707
  0.5830713672763560  0.1689573188008598  0.7533167668810147
  0.5829697849653810  0.0862586593421028  0.1694243167363530
  0.7503264813967734  0.0852713888049084  0.1694165419359750
  0.8355325157702238  0.9197415663967559  0.4182593465503942
  0.7517226773625487  0.0029155048471731  0.5858564623048199
  0.3338992726010767  0.7530074631009759  0.2510248817541742
  0.6676411568285118  0.0006405836671082  0.8344598280113429
  0.7532790767302119  0.1664188592716259  0.9210752840721603
  0.4170307863584858  0.8370557600312444  0.0862233358584699
  0.0839262845972516  0.6702378918995748  0.4167201552724217
  0.6680728986452330  0.5883127885651553  0.9244771496517946
  0.4166695258599714  0.6699421535494856  0.0858833171157236
  0.7518246018075428  0.0843690250852111  0.0025023682162360
  0.4171956354281935  0.0021550349026922  0.0863669953549408
  0.4175062503307244  0.7569496574573158  0.8391809108411767
  0.3334185466422122  0.5019020753406160  0.0033518270161231
  0.1695589376642830  0.4177978243266205  0.2541032927930643
  0.8354965732861603  0.9198338152229165  0.0882115013729662
  0.1652990009752708  0.6693971944587908  0.6682405200044608
  0.8344970492843762  0.0007823797298341  0.0037157334715261
  0.0846223572856322  0.3351860045278537  0.0875836833394375
  0.8347741820383573  0.5018221872127733  0.1696342032293110
  0.9173171068724207  0.4998278734604123  0.9203398988558499
  0.1646700878236932  0.7541232887375584  0.5854396282665442
  0.8352492204769011  0.5019860545383564  0.0053731579653027
  0.0831370779540968  0.8374067928273863  0.9193846077568451
  0.9175566781009195  0.6697527888057085  0.5843768603578090
  0.0006171759185707  0.8395609259393858  0.8356914161720868
  0.0006161095928578  0.2499186861033562  0.9189893654823206
  0.7525203014386447  0.5022233878903191  0.2522690866902383
  0.8349720818674899  0.6711450393084240  0.0032516569352516
  0.0014151321522593  0.8380572106771044  0.0034768666553714
  0.2485891112406596  0.3334754193294898  0.7522669340486000
  0.9181029872504032  0.9210608792539386  0.0040404766395502
  0.2520272155651984  0.2530282957628718  0.0037152835847511
  0.0829070359615867  0.7538625657727980  0.6688325479471429
  0.2523751157275306  0.0030343279743708  0.7528849620113790
  0.3333226061957258  0.8364332485092032  0.6678139888828820
  0.0027246940575555  0.8359624775041269  0.1714162964021344
  0.9186841556521549  0.7538792034606698  0.3367166403687775
  0.9205939501625635  0.8379017078127418  0.0855449493145300
  0.0010300342684320  0.8385172731994458  0.5012414953751775
  0.7515658553618282  0.9167749887377976  0.1714732906332389
  0.9176489431497894  0.4177601958860650  0.5020162396886809
  0.8362377507639430  0.3344697856533240  0.5018157467294295
  0.9179917118863671  0.2504166494543105  0.3344804427785503
  0.0850350762495633  0.9216604308891770  0.6681577199182184
  0.7535616917678891  0.5004236117600450  0.9227365547075949
  0.6704107145721772  0.8375261624874963  0.6707234277007914
  0.9187631212963056  0.3345755191229700  0.5848829111364198
  0.7519960079940676  0.7533925349003907  0.1697383130755497
 -0.0001166254625697  0.5828844523915074  0.9206961870736710
  0.0007632106791251  0.5864962060397116  0.0868536887138339
 -0.0004433707432082  0.5859791908753161  0.2539761525056666
  0.1663508650319516  0.4165960439574519  0.9215107608599585
  0.4184287177489546  0.1680635119016039  0.2540631276674060
  0.4169680545309983  0.1678211970747737  0.0850738921860006
  0.7536422083131136  0.6735152508502690  0.9208807822121361
  0.3344421671522341  0.0862309782492285  0.5863857231152684
  0.5829467284667893  0.1704805076723904  0.5844803434872756
  0.7543692339842958  0.5014680499147052  0.0861330800762089
  0.0011795168088165  0.5022225025762296  0.5009444128060382
  0.8353918157075705  0.7538273310214479  0.9204720252347486
  0.5905555048386548  0.5883322134532005  0.8416725518379117
  0.7515106305159873  0.8358254843852603  0.2524420678931581
  0.8346912725013510  0.6709336911663977  0.1697603116621811
  0.0836230024628587  0.7536979870919279  0.1699785410332942
  0.0008284433843945  0.7547208520561774  0.7505922511303590
  0.9204516612245364  0.4163499572168938  0.3338937663298328
  0.0005955663701809  0.5837758444751531  0.5829979405103042
  0.1680846035563878  0.5859165639183036  0.2522429869204599
  0.7524386941106752  0.4159088950995767  0.8380678001803878
  0.4162917191917406  0.5015641931220357  0.0843885892172313
 -0.0008539726061031  0.5837873359965967  0.7519168960529191
  0.8339183105536032  0.3335877912419481  0.1706856958562951
 -0.0001452950227954  0.4171198944051718  0.9203959905488973
  0.1665331022968025  0.5034055076943947  0.6694861055407623
  0.1667426179740640  0.3345861655249879  0.6698274635680175
  0.9179085941054129  0.4177276221655569  0.6670523495221219
  0.6688396632656811  0.3328848954428276  0.6692035979824754
  0.0728559085686604  0.6685883534556647  0.9195409602668674
  0.2500999506699307  0.7551531474315256  0.8350987405113254
  0.1672916856836253  0.6676405695946845  0.0118583961716290
  0.8350299893115053  0.8376656556056405  0.5005016004953210
  0.0027106590485561  0.3349491658274479  0.3342594465708505
  0.7548864447906901  0.6699526229976031  0.5842280838290428
  0.7528837020228772  0.5032152060159958  0.4152909481377947
  0.0020057198911245  0.9198537677276865  0.4192099296633792
  0.1688248062405225  0.0015444621488409  0.3365044083250321
  0.0023534952718596  0.0858931366451499  0.7534035016373742
  0.7522201790284566  0.1676594175709696  0.7556811515499309
  0.7533355119005987  0.3321595285863563  0.7523183158287609
  0.7519519827128005  0.3348851668208248  0.2507744609567099
  0.9185565885700960  0.1674059810824014  0.4174839209605140
  0.0863847871889965  0.1694430125478167  0.0859068253585386
  0.1668587908703505  0.8373362681126351  0.5008295791269921
  0.8351573749327487  0.3333967659337891  0.0043027002789251
  0.8378394357224613  0.7545528394230978  0.7514682937084229
  0.1692412689711769  0.0032278171312726  0.1695328448690042
  0.3346307921065749  0.9206968995573684  0.4187974717494871
  0.0849502554841761  0.0032621404398701  0.9196098723109023
  0.9169653761972292  0.9209002812454005  0.6681391425898955
  0.9176452072422702  0.7531713255503865  0.6679951272614049
  0.2517456801348202  0.0034516597703613  0.5855413340637303
  0.3344039042888799  0.0857492765413236  0.7529110695335537
  0.0860014062456581  0.1687553118805490  0.2531187711253581
  0.0020147039216331  0.0022891257000297  0.3372988429874622
  0.2503628438208879  0.2510204808608966  0.5019546329140369
  0.1682437563759207  0.1695761373277135  0.0043415010551461
  0.0034527451841472  0.0032370066945359  0.1700756604949405
  0.9171675001304249  0.1665851620881783  0.0844988433099728
  0.0011245931810514  0.0032571622256089  0.5024237191431770
  0.8345197214492692  0.0015353149879083  0.3348333637852581
  0.9185058166371125  0.1675753506974958  0.5857578301464491
  0.7528061340395149  0.2518298293856140  0.6696622313060125
  0.8343599199434487  0.1675523920024319  0.3345300383873429
  0.7506289066059860  0.0028551015082436  0.4175433062902063
  0.6676531007150390  0.0031328560087704  0.6688553512837911
  0.8355287560608229  0.7533108828201395  0.4178512609764941
  0.5844733271116539  0.5018046460757243  0.4162633714389558
  0.7503982064992135  0.0015733999348958  0.2519682957710514
  0.4986828714571924  0.5853530194247213  0.5851770517934998
  0.8355527321619098  0.9203847630539966  0.7518290346753890
  0.6678109237123954  0.0035800990164543  0.5015362217159079
  0.6677588131836594  0.0027096949512660  0.3347538330387410
  0.9177718828254238  0.7536960809514917  0.5016968489701292
  0.6680624228196554  0.8366129457311575  0.0037311540353339
  0.6675441412607455  0.3346043426134318  0.1695708002014656
  0.6672401701888193  0.0864279978154158  0.5856880995111099
  0.9184653526248699  0.8382239823722919  0.7516748198331450
  0.5843155512934569  0.0868751512955553  0.5016929323507047
  0.6672608603634256  0.1682947356210449  0.1694551987310690
  0.5017547057413927  0.3348329802224483  0.0030792298604380
  0.5004951381917185  0.5027935766283054  0.3346602146776452
  0.6709493304242167  0.3333352993932526  0.4992143968584060
  0.7499763521853375  0.0838696227425204  0.8372471533464361
  0.6694628125077184  0.2501175900484420  0.4166111807998211
  0.7526504786105404  0.2512105168939157  0.3343579263270501
  0.5894606254760508  0.3293903362156664  0.5826529090354439
  0.6691441603119558  0.1673426789275537  0.5012637158151878
  0.5916088305289610  0.4176036953652502  0.4938963461296798
  0.6673811263775692  0.2509011173013261  0.0863803117076862
  0.5865367657153767  0.3330068650809549  0.7545222756373486
  0.5831957801571543  0.3358024260492928  0.2523502466694875
  0.5851567938891042  0.2499456972327795  0.8373381785184407
  0.7509417102087087  0.0010181404112625  0.9193429397684327
  0.5024356266296565  0.3336653443753412  0.8373186446028805
  0.9186164153961940  0.8380097881638157  0.9199681509751292
  0.4167392460354952  0.3339073829696248  0.9191175397266822
  0.5017951502630028  0.2524643018317316  0.7517067478332156
  0.8348876125546346  0.9207650359265676  0.5846653655033476
  0.4170885947303064  0.1679671853896147  0.9195290485209947
  0.3342367185234111  0.9203306637615264  0.7520882477007456
  0.4182251387446353  0.0853534920960850  0.8362720397223019
  0.3347108001110303  0.2503356226323796  0.9188623158418262
  0.5002130998773655  0.1686831669308776  0.1689880940092720
  0.8348424239004145  0.1682658904589845  0.6696193820701776
  0.5010638375455454  0.2533659609399107  0.5862539132928833
  0.5013813352198246  0.1695224150007406  0.6689791145866960
  0.5838119797034178  0.3352166294574542  0.0873018016741527
  0.6694829504857961  0.5018810493055086  0.0051446342049833
  0.4176768569463374  0.4177063928786636  0.0025195099220685
  0.5011701949381695  0.8364884007487967  0.8373922905813529
  0.5005057259673582  0.4201563797919156  0.2518510964515817
  0.5015634551257291  0.6702573773733440  0.0034580479953328
  0.6682430021424972  0.4184344549529715  0.2516584427816068
  0.8370807492136225  0.8349020247857655  0.1707493252785728
  0.8358275235711248  0.5854391952036931  0.4169420500767810
  0.5014556479995006  0.7558163495647351  0.9223282838976774
  0.5841357206197851  0.2503361123503494  0.0035653710843055
  0.4174249542062510  0.0852607276142624  0.1689102293213537
  0.5009695597152184  0.2521116203378588  0.2522340726658296
  0.8346547701893455  0.2504092845383181  0.2516019665208573
  0.5834567202552808  0.1680905766250315  0.2522203281747651
  0.5838389476733948  0.1679492900727145  0.4167111390861220
  0.5841152128743116  0.2514287189077584  0.3346307077313190
  0.5012043005313457  0.0868875697223560  0.5858541595711583
  0.5017822256737898  0.5025647867676946  0.0030368858065062
  0.3335805225528651  0.6690300571445196  0.1683101691483229
  0.3349105358541531  0.6691932708383100  0.0035448805094205
  0.3344504658593883  0.0035850947246674  0.5021514920743627
  0.4182577288967995  0.0030562313375911  0.5854906063027253
  0.4180888669885959  0.0853790650754876  0.5025472926994947
  0.3339838159680690  0.0035407621582757  0.6690041474553781
  0.2509302126543242  0.0859778508384742  0.6691373853748298
  0.5014536724865712  0.0856249556687097  0.7526180487584233
  0.4181299688335053  0.0860345783848118  0.6688631409997504
  0.4963741239144416  0.4789070460676451  0.6482901094662539
  0.6691274835942159  0.4179583750144234  0.0869821392360445
  0.4251484504512432  0.6756625358921475  0.7578981315525857
  0.5046366189654886  0.6760342900145736  0.8420727284681674
  0.0005166113003640  0.8379317660810029  0.6684036687398960
  0.4997382933257830  0.7531930609782466  0.4158500830540439
  0.4178231025395145  0.8377536594827294  0.5853586852205849
  0.9191608189590464  0.7539481314739648  0.8355744320355011
  0.8361872016078555  0.6707743743900086  0.8366747362980907
  0.5849146729118755  0.7539737214375050  0.0039169509679398
  0.5006401846740559  0.9201508035161091  0.4187732645273690
  0.5045346684093364  0.5962374443597451  0.7637524865238516
  0.5878262811368697  0.5010109071979808  0.9233860916607763
  0.5008891664210094  0.9199149657388352  0.7518531223399015
  0.6693043413621966  0.4158553125102383  0.9231805828144881
  0.4177818758750890  0.9199981897601492  0.6687821591741134
  0.5838884264142324  0.9196665030370758  0.6687722418734984
  0.5004687217153826  0.9195463845379993  0.5856253535917092
  0.9189478166233315  0.7536371446863932  0.0031105643247485
  0.4175903363489132  0.4152640422547862  0.8353399193432222
  0.7504436375056003  0.9194913476430618  0.3351169397337008
  0.3252211300183744  0.6790256794101719  0.6566836307979693
  0.5005353153420805  0.0852895527300570  0.0856377908214419
  0.4178281291466696  0.2518018364823182  0.1700273651929685
  0.5001177770872227  0.2514186630388779  0.0861869437074592
  0.6703426152973193  0.2495941823809915  0.5845338615649880
  0.4994450729924427  0.2497391080522429  0.4156643735993019
  0.6678121238028725  0.1678454058430606  0.8370162695626806
  0.5833527206854559  0.0020672125679306  0.7525023663888022
  0.5847103291715122  0.0860221222224366  0.6691999776923058
  0.4176729170234945  0.0024433192766883  0.9189295153528644
  0.4170727058855608  0.2511338122436784  0.0026860189200620
  0.5843793909721601  0.0014562720233512  0.9192008187694023
  0.5010644050246857  0.0858376677393620  0.4188338839552748
  0.5843128425889570  0.0848438660449012  0.8360340990579984
  0.5851569741188676  0.3331171776107962  0.9213591397790510
  0.5010788168396725  0.1676643561653685  0.0037534746763425
  0.5022367137111321  0.1688534988931907  0.8359559318630335
  0.3339169900086479  0.7554607936016511  0.7526947380682660
  0.8352754791419839  0.7539829716389221  0.5843847009694120
  0.8350330519369424  0.0825778323550064  0.9183150892488878
  0.0021782186164671  0.4192710350378515  0.5850676144114508
  0.5002992956766299  0.9192714277677532  0.0863452525892716
  0.8357056449948451  0.9189115526592797  0.2523343336387530
  0.6664839451856347  0.8346497260138268  0.1691057211018202
  0.5844700885422129  0.8405710678857603  0.5847415145102167
  0.6675323932817940  0.8366892411501066  0.3345608721948267
  0.7524038538857402  0.8374199539018790  0.4173102828804084
  0.8365862977738064  0.7550755223142487  0.0857651844114092
  0.6703461488767394  0.6732115711901112  0.8372791676828164
  0.0015949661442380  0.5014049956069843  0.3344941436316906
  0.0007008703572603  0.4164016395761455  0.7512189057343246
  0.5834066094448701  0.8381133015236064  0.4161165899695079
  0.8361760304416747  0.2507374501967707  0.7530230489343052
  0.6695742811131982  0.7549054046622150  0.9213240822418450
  0.8346201319268262  0.9194694064010136  0.9199972413241926
  0.7530272430501079  0.7551575102753346  0.8367169248038342
  0.8352025477876164  0.5013116731909190  0.4994283471452687
  0.6674368074833869  0.9186088475113623  0.0874255126789702
  0.7526274283941231  0.3338302172677159  0.9214802727791523
  0.8346683179727602  0.2506161634876199  0.0862131927821855
  0.5000079906322054  0.5022282813827962  0.1681801006575759
  0.9185573001583542  0.2504774325983619  0.1689841424873164
  0.8348863907281863  0.3342418212260473  0.3347430359320043
  0.0031114588506265  0.0858397960049066  0.0866250787935090
  0.9193742669235520  0.0022568125800090  0.0877613061622374
  0.9179381623644013  0.0841497996910180  0.8354401605853087
  0.9177720274304855  0.0034285935138991  0.5855304671366791
  0.7541049226975992  0.7542573139953586  0.6686355067289389
  0.9196834863073824  0.0857593860331112  0.3355930616327771
  0.8345780947311604  0.0022489720570044  0.1708927366341254
  0.0014394340559500  0.2512403394319764  0.5849264984228527
  0.9186459133976639  0.3345168320265200  0.4183237429019548
  0.8352974256657156  0.1680087889995660  0.1688090398508464
  0.8355263319419463  0.2507577368007807  0.4181490656680628
  0.7512406240093227  0.2505453249957038  0.1688384113526621
  0.4149317945103689  0.6704683272536265  0.5838408048715658
  0.9186120742065860  0.0027837446796883  0.9190402544636133
  0.0826370442623865  0.5836559603250066  0.0047089152896054
  0.9181984716173234  0.4168587274961077  0.8365369250770845
  0.6667909041357719  0.0843807814570721  0.9196435174611115
  0.0002639572048760  0.5010172535198567  0.0045667637399691
  0.9186019472417899  0.1677534950819428  0.7532987722627629
  0.9194381857578532  0.6696799721478376  0.9198082989128852
  0.8356885606629557  0.4167758800548333  0.9217218446705542
  0.7519111802870476  0.3335231534601876  0.0866560225824668
  0.7525956309454694  0.4162256883129064  0.0047115790057926
  0.9189469374884117  0.4999488427046112  0.7527979296363361
  0.5837233327558190  0.5850103837314804  0.3338380791629744
  0.7522986348839040  0.4183293624696160  0.3338108099109776
  0.8423972672173716  0.5845061134463809  0.7529235502812923
  0.6690797149846099  0.2496753794785252  0.9209512368230588
  0.7530573116702076  0.6761869206608546  0.7527732584654978
  0.6690813509612484  0.5025134211883565  0.1688625839743406
  0.7521560648971830  0.5863170217504815  0.1691981016589462
  0.7533688918089303  0.7548862123960012  0.5002454621742052
  0.2501396860300402  0.1682409305908169  0.7529212349264228
  0.1659396777498042  0.3337197764669024  0.8356081761836278
  0.1679727463767025  0.2514691115782023  0.9202041628047194
  0.2497268281556687  0.2506732280117383  0.8363243655100595
  0.1669257895102089  0.3344794223670555  0.0039095115381327
  0.1682469474151939  0.2521305133852900  0.0873413964711578
  0.1675676270443733  0.4170468605961345  0.0873684981934507
  0.0844630045813240  0.1692239173313245  0.7530265114023096
  0.2512545083692549  0.1688381506680831  0.9198186662732987
  0.2504119437827590  0.0864991966103979  0.8366252710294600
  0.2517284902148961  0.0860570129673257  0.0028077791005564
  0.0845818649094878  0.0027150298386632  0.5854477801349522
  0.8347437343643466  0.2511504685236536  0.9202879837685841
  0.9182575954781100  0.2509295311478938  0.0035711905941917
  0.7511511883612038  0.1678086992888238  0.2514625519106591
  0.9180260912615005  0.4168605898076465  0.0044828843017956
  0.9193742043019731  0.0024751555979190  0.2530156733385835
  0.9172997075553232  0.3340257823355172  0.0868580684333719
  0.9196930199314401  0.0854546302158742  0.1697192111083895
  0.2491702366223120  0.8379893162821977  0.5846070754966590
  0.0846476342952865  0.5021548977889312  0.5844503216954785
  0.1685985105274702  0.3348018747188244  0.3354465197035134
  0.2500492424306452  0.3345306429006891  0.5856827424153447
  0.0814504344167860  0.4995478149367140  0.9204858323352331
  0.0008395914058521  0.4176801233333223  0.0877995790516156
  0.1671883138092067  0.5016500996492111  0.1706424572761924
  0.2450201212319270  0.6715127411189575  0.5817072132100054
  0.3333235991553912  0.8375322309886111  0.8358447375775949
  0.4172423488090163  0.8368625361524791  0.7523338758341274
  0.9178289433408564  0.5858166470862803  0.0041828366268417
  0.0019088725094674  0.7533141700187632  0.0860563941888195
  0.0013566023049727  0.6689155461235856  0.1707235569296637
  0.2508011828872658  0.9205234802415916  0.0033008987402739
  0.1677011919428884  0.9192092495667645  0.0870073174270097
  0.1681160593957341  0.8354604105683401  0.1702491628365270
  0.2510474149251701  0.0023166969357790  0.4198020297973210
  0.4178320567761907  0.8375237904714049  0.4184136783664253
  0.4179054164559921  0.9196658156713721  0.3355348425536309
  0.4165063878106654  0.5853971989253344  0.1678705215738271
  0.9182131016267384  0.2504864416513953  0.5014986822387432
  0.9183503417105073  0.0028073913991279  0.4184372194240426
  0.9193967242973087  0.9201524781835307  0.3358212581854157
  0.1688127649433036  0.0863933270172146  0.0867714694625108
  0.7511029144663484  0.0849004761162932  0.5016149099468942
  0.9182628394907280  0.0863346725181518  0.6694240379554373
  0.9179645709075863  0.0857877622950145  0.5013157718175749
  0.9175652646224075  0.2520127235311975  0.8358578187342217
  0.6684222516614011  0.1690530482054568  0.6696023487194355
  0.4092352699232117  0.4113386933962778  0.6796315498184080
  0.1671085761056579  0.7573263339267963  0.9188349785708159
  0.2486185262423007  0.4183139954590911  0.6689360413860691