 B Cr Fe 
 1.0000000000000000
    20.0899999999999999    0.0000000000000000    0.0000000000000000
     0.0000000000000000   20.0899999999999999    0.0000000000000000
     0.0000000000000000    0.0000000000000000   20.0899999999999999
 B   Cr  Fe 
   7 206 480
Direct
  0.2918087121604733  0.6476761742715420  0.9610907781003710
  0.4804990968081764  0.7059115196944638  0.7942158205965484
  0.3534013436848868  0.7070942593948163  0.9618618657343304
  0.3590870771223164  0.4987195600620021  0.7255592279377466
  0.4760634859658078  0.6453881112704842  0.8531128320634925
  0.4232178564278435  0.4957586654764309  0.7800841133308049
  0.2981218992609129  0.6236818707072537  0.8003621779698143
  0.3794861335246766  0.6196988941744352  0.9128525063029070
  0.3576746234798809  0.2143825482388935  0.7841221247993163
  0.7874747844326183  0.3564604388172957  0.0762046520897501
  0.2845840765765467  0.4283286090897589  0.8598717900474530
  0.2865796638547517  0.1434624110167282  0.7146440400444075
  0.7879780304807381  0.4984576830040268  0.2149081758534417
  0.5012980624555374  0.2134524099955811  0.2160437142605744
  0.6438788924100177  0.3549018018308921  0.3563172463624476
  0.3572063030617387  0.5006031021243295  0.4968814076461775
  0.2828475904841846  0.5705902199927028  0.5683845618091273
  0.0722280382360533  0.2135226781496214  0.7862788322092258
  0.5008498074672878  0.9293526011457417  0.2147893201251980
  0.2854091853743032  0.1401069449099618  0.4292824481071374
  0.5742928651790983  0.2857433101826689  0.4282317195709210
  0.3537233787628473  0.6461276037347465  0.0580788219777497
  0.7885346223083862  0.3563845690416841  0.3568514236338853
  0.5012390750897781  0.2139729773880140  0.6402225952202967
  0.7880756233423887  0.2137925087696449  0.3591303081472156
  0.8595701868760681  0.4269600216772809  0.1440690276538573
  0.2854034769956991  0.5729570700919983  0.2840314387214566
  0.2145437751360214  0.6438774283550359  0.2128369598968259
  0.2133381976292831  0.2122450771088789  0.0708974550402076
  0.3582379670861908  0.2137056769757735  0.0723341553490651
  0.7879794893899829  0.3563578437396572  0.7852051204348154
  0.7879125772011248  0.9280983031618331  0.3565532325861773
  0.0010001975517863  0.1429441833133752  0.1449459805654085
  0.7176947193186665  0.4280723623397497  0.1454994723600884
  0.2848783068793352  0.0006068031673912  0.0015630145117408
  0.5746790620433797  0.5711249324437450  0.4262690436897396
  0.8590657252566037  0.9998637144049067  0.8547990079554431
  0.2129426529200353  0.4992907382249290  0.4990484781068487
  0.1437321670359289  0.4302213242481242  0.5720007433901528
  0.2845364528582336  0.4250683135716564  0.0021863921873079
  0.6458144571937126  0.7882305215363192  0.0726160752663601
  0.1378630401528547  0.5706297421097392  0.8612476495452797
  0.8586664410992012  0.8580264617885744  0.1429695922677605
  0.2142874288284044  0.6434860045994308  0.6426030068075947
  0.2135823238772075  0.4998751933506606  0.6424313896420298
  0.0710240573879223  0.6438391787970892  0.5002904186843162
  0.9975165293128773  0.7165320072335326  0.0016912244413698
  0.1416069006945133  0.8573093014311957  0.4307552274145651
  0.2154150694693384  0.7870650271184252  0.5004437851934231
  0.1431270802276545  0.7154315147540589  0.5711107169726745
  0.2863355820896412  0.1448171621024636  0.0010197996643269
  0.3567650384404776  0.4932855299958813  0.9333389773156011
  0.4294202228328266  0.5719237576794065  0.4271220621673925
  0.5020784251877917  0.3547518623573795  0.4973454257884061
  0.4324867014911661  0.4239991140904907  0.7075518866888084
  0.2147548886383792  0.6434130281588556  0.5010133129258522
  0.2848340295856533  0.8557261276849416  0.5709521133287240
  0.5016092377313168  0.0732672114550454  0.7862829718827946
  0.7876817192466228  0.2143653724207477  0.4989284729862422
  0.4284128760557368  0.8617465260228817  0.0033082375148886
  0.8583146451930973  0.1421048477312402  0.7141795038732637
  0.7889344799589005  0.7867384030889464  0.2140578680315976
  0.8589256064981674  0.7149791024952821  0.1436577473614191
  0.8593775163303811  0.7153180916200957  0.0000513523022603
  0.3564732954267489  0.0716414590242098  0.2157118370702427
  0.7163406578563182  0.2846954818526083  0.4268764980455983
  0.0708872169557676  0.7857967985075420  0.4994019500143059
  0.2857889355746628  0.8557858629349767  0.7165192510834247
  0.6423066914063231  0.6426129921007200  0.3563080779012927
  0.2127381712540409  0.4967794921554757  0.0738218743198936
  0.2905813096481896  0.7098457498327836  0.8671506157706650
  0.2844716021092795  0.7146109842576719  0.5706714658148955
  0.8572895257112502  0.5716673466530617  0.4288299501557205
  0.2171328233689243  0.7845113750219949  0.6445013458651820
  0.6413198782866242  0.6422948381671750  0.9296492223071190
  0.5667938889835831  0.7107745580586547  0.8576622315788975
  0.5024463167225404  0.7917515987827011  0.0721538059605807
  0.1428919616692413  0.5714455266976215  0.7130308290826842
  0.2848312459725958  0.4302728987209392  0.7160517557345819
  0.4262208762131824  0.7314763369818420  0.8817459340151786
  0.5743691847355565  0.5715625157828897  0.8612033536813972
  0.6429192303767236  0.7857623118916641  0.6424303696606769
  0.3589323436851875  0.7857994092946793  0.3582668393200561
  0.7161963019086940  0.1426999376176512  0.5688837388731414
  0.0000258673910755  0.4272328797683584  0.0015765131432513
  0.8573924558370896  0.2840327598915018  0.4262480038655891
  0.9303824583328523  0.0719319213239018  0.2154943748773678
  0.7174636798749919  0.2849109277993347  0.1450950274229547
  0.4291339610042794  0.1430656495455110  0.5704741769805804
  0.5732055989929700  0.1426692291977197  0.8561507341852366
  0.8591026783377892  0.2864784005399688  0.1442447228396580
  0.5744754153354585  0.1416584389658609  0.0019062819635964
  0.5733611622352905  0.2843608721255922  0.5680084406697935
  0.4269795121173121  0.7152164939712230  0.4283608761614501
  0.4281328959471435  0.7154655225224376  0.2837348306560644
  0.6440575101217655  0.0711269367806360  0.3572129982887632
  0.7862827028682661  0.7849919913502890  0.7862079048116979
  0.5743971847186025  0.4270039385344459  0.2872278977419935
  0.3568006547524405  0.7866502760325557  0.0668068577865473
  0.6442415128438012  0.2131908905740100  0.7853156706354166
  0.4280087200007620  0.8564597959078877  0.4277927128695504
  0.3576320526957038  0.9317924147784360  0.0719141710537398
  0.7873895205746742  0.2148799595635291  0.2130492094340771
  0.6491529881289627  0.4958612518483309  0.6366305623279133
  0.6457931645144677  0.3532598167486901  0.4975061582333107
  0.5030686195023623  0.6410670765357601  0.0736372532770860
  0.2138857636778643  0.0729559624456791  0.3577687454834519
  0.9293573079434634  0.0727640316653800  0.7848216755263875
  0.2865897258217248  0.8548280504536612  0.4284867070557187
  0.7164706041542330  0.1429055302024493  0.1440575903802011
  0.0018873693289542  0.1421481565053966  0.7154101158830481
  0.3555870152042842  0.9327915218967413  0.9311837520567237
  0.6467530665799993  0.0716620436050689  0.0733198295735205
  0.5734009753065699  0.0000799283620558  0.4278513840941413
  0.5728931893830859  0.1424363911342282  0.2862630501039946
  0.7160620139959883  0.0004504909440814  0.1443777325029465
  0.7146663186493842  0.0027720849710804  0.9999050683061438
  0.3569867065051255  0.7865931097620136  0.4995992101163121
  0.6415175449389526  0.6401187547727816  0.7845231858523773
  0.5006706443574883  0.8017816392203424  0.7880270832256991
  0.6434030597356892  0.0733339416312497  0.9290913519479572
  0.6423040088000029  0.7867100020007989  0.9276428380672972
  0.6426629064775695  0.5004484399054702  0.3555271298951944
  0.5011483052856300  0.3543331572432935  0.0741609744287092
  0.4298972866786915  0.2839684158596975  0.2855262992753506
  0.4328376282091304  0.7164925452003635  0.7029598041091671
  0.5733462678491046  0.7154708230902531  0.5704722662499933
  0.4292798964710244  0.4260221691274595  0.8583005929322808
  0.7172001337810304  0.8572432003953715  0.2860000465351379
  0.7893703365125746  0.6421200364407628  0.3566788387273634
  0.0003863564002444  0.4315082147509705  0.7145120561143397
  0.8578530914675991  0.5713696358193024  0.2854470881833406
  0.0709239871665224  0.7854895797215115  0.2159524486193204
  0.6432356414143384  0.9292830230793389  0.4984859911994406
  0.4301807135898285  0.4260312147921160  0.1440629164738607
  0.7870409228489471  0.9310460460959732  0.7860264225740151
  0.0022518419513726  0.7147728431968322  0.4293050490842708
  0.2139648867686499  0.0734188579328167  0.9296394941591960
  0.0015123676091167  0.0003567517714026  0.2869837755745133
  0.1436203966319423  0.1406899028128886  0.4293270115872500
  0.6450583713639374  0.2147741374753293  0.4992016035002811
  0.9295003395949429  0.3560399358926048  0.2148862885475408
  0.1428056726918518  0.0008208297863160  0.8577590484063615
  0.0732140792485161  0.5001015342542655  0.6434326361959845
  0.1420146248172583  0.4302135490306671  0.4274037127990943
  0.1433363373772351  0.1425557512117216  0.2855266862091149
  0.2148087926889916  0.9298776818516247  0.7859184358881304
  0.3578091774990970  0.0715290052167894  0.4993846094267742
  0.5744032573258698  0.5723731369517078  0.2859223710870037
  0.2851722714604341  0.0011712604518049  0.2866216090722520
  0.0005123350316076  0.5735404176857621  0.1425235888135481
  0.9986754651070527  0.7159351637139844  0.8597161906228021
  0.1432018468641504  0.1450689710716411  0.1436968414687203
  0.2120458490365187  0.9330049030735359  0.0732451040109201
  0.2138356998101205  0.0719610642728242  0.4993888986615522
  0.9299599991526353  0.0708638551735294  0.5000219467177397
  0.0020584103930888  0.7144887401937152  0.5722418773865071
  0.0712076588691534  0.7848579250935224  0.6442738621148482
  0.1429324633841551  0.1429803398786985  0.0004983071921583
  0.9280748072323050  0.9301445208834024  0.0725474073346895
  0.4286093257879148  0.2836041570659626  0.0020231129329276
  0.8570557539869987  0.8587511457596136  0.4280420869243705
  0.5762170255336337  0.8595718523377275  0.0035248050323658
  0.7898204661301814  0.9276061659883210  0.5003288371904114
  0.1431359139016187  0.5725804223312986  0.5712544181975917
  0.0000729101429613  0.7141048369177635  0.7131375165405845
  0.9298573478619827  0.3556675800366310  0.0741167574129230
  0.7883632139898175  0.5001376853964644  0.4974030087216444
  0.9992786839984740  0.8590853704898018  0.8579027614302103
  0.0706733215446440  0.9272580889467997  0.3581941165945387
  0.1426928580100517  0.2843588796683656  0.2848860584742008
  0.0705411827501880  0.9287982710091369  0.7861559887757453
  0.1413016508866347  0.7147658087470866  0.1443243714588195
  0.1439032335126935  0.7157642995123923  0.7128942205179498
  0.0006624768437308  0.8593510982999693  0.7149179874971933
  0.7167484975736506  0.2843541383141032  0.5676173022309984
  0.9297095166295476  0.9276412967898983  0.7861657499825996
  0.9999399308140682  0.5706497839300424  0.7128606619871565
  0.0011614867423209  0.1428447996901029  0.9993269609330643
  0.9305091399786208  0.5007058684407344  0.7851484993162025
  0.8585245293306529  0.1433013319370652  0.4283290941425215
  0.0004233858846992  0.4283458419696042  0.2859765486077874
  0.9294508482419783  0.6449655139473850  0.9296759434753276
  0.0710333242873148  0.3564670306320304  0.9295207335072685
  0.0010597784926594  0.2848347833784205  0.4276281247581035
  0.2127442211222677  0.2130168423157204  0.2165460169626044
  0.0726497654541040  0.0733449897143621  0.9281861946284449
  0.0702564980768413  0.2116939592687879  0.0728196047214590
  0.2864727945943670  0.4304783542364529  0.4287307950423785
  0.1430913736585196  0.1428121034275279  0.8582032886865131
  0.0024530739140420  0.8580802299919692  0.2854428051243392
  0.8582286069873017  0.8578662899429862  0.5721868189585693
  0.0707402217041497  0.6442563885614164  0.0724832011986786
  0.0693801129976519  0.9314556164144331  0.2168871174164928
  0.1437406749800104  0.4311822427203760  0.7156686097745186
  0.0677253188184538  0.7884258246881297  0.9280291700525090
  0.9300830527776328  0.2144908302988393  0.3590606660313647
  0.0724349356178039  0.6441383631915761  0.6440357087766588
  0.0717402821498525  0.9281200892434068  0.5005212251930149
  0.0025404206982986  0.5708766377868696  0.4291383649606192
  0.9308654108719553  0.4997597546576104  0.6425310407136301
  0.3579748844028929  0.2147533567870704  0.9305400637404302
  0.9287257376709851  0.7859681968533526  0.9285943098323503
  0.0020651765704215  0.8590835903952566  0.4304349352825562
  0.0717363030837217  0.5003133557202337  0.3573871503024833
  0.0723742250619535  0.5013859334693365  0.7837713264394255
  0.9268716418741774  0.7856078568745440  0.0730442869467555
  0.2108333788691223  0.4911150391338996  0.9315713386703367
  0.0013367948255949  0.2852792618370471  0.1441233471410014
  0.9312515760445756  0.6447014101814074  0.6431642036654648
  0.0008328222541885  0.9993780827352220  0.5713071020916182
  0.9280362519697614  0.6448599055828688  0.0721940705626029
  0.0718959574785559  0.2129826929041827  0.2154094225785183
  0.6462031676865208  0.9306657483238685  0.0728640420230113
  0.9302490554551966  0.6438890102322647  0.7858686339204202
  0.6440091738009058  0.7860884337006445  0.4990112490969777
  0.6439427032061167  0.6454156115392731  0.6407737810505231
  0.6452711815426140  0.0720933321701483  0.2152882533816412
  0.8586776980158427  0.5724753115579115  0.8574270266491404
  0.6418454366308847  0.7855446556365542  0.7868457231884822
  0.4996324294002867  0.7856167699215166  0.3567451874570977
  0.7162558904935266  0.0002703532932939  0.2868205229877861
  0.7183241398346170  0.4266847276194855  0.5672451308509484
  0.7875101214923694  0.0714086535427799  0.3574738497591933
  0.5722203521557117  0.7147739762113631  0.2848588217029623
  0.5736117812047945  0.8592241886954477  0.1438580254552289
  0.8592406551628599  0.5717482000423528  0.7137010816556177
  0.4286444548020401  0.8627428170727925  0.8611119452370404
  0.6447958546076146  0.9294917784788947  0.6418489159026184
  0.5753561796098888  0.5699282649944495  0.5672920745841177
  0.5020903557359562  0.7883976482365280  0.6401060062501422
  0.5727051407757610  0.8576242801066915  0.4279626057972404
  0.6448580673328902  0.9287819361195928  0.3567807532508123
  0.5722043304734955  0.8577026871513108  0.2853512423389339
  0.6455766013920959  0.9295150760116657  0.2151911446590566
  0.5064910811154957  0.6367556991322507  0.9440926950342960
  0.5747955743409821  0.8619416414975620  0.8582758027318075
  0.6453058679137823  0.9307199000966236  0.9303493694268009
  0.7870678998495940  0.0719295461109145  0.0724581247824978
  0.5732919287574371  0.8581909376902275  0.5699516114460482
  0.7875776000189590  0.0715122747137677  0.4995042317485240
  0.6454592536233194  0.3549061042121621  0.9300545311774756
  0.7157904234149904  0.8575033424948799  0.9999814098929019
  0.8588099392116713  0.0007331976446195  0.1438416590989119
  0.9294508053265791  0.7868392387750416  0.2148127762900537
  0.5738348955269136  0.4259252627975021  0.1456884235885227
  0.8588574961842574  0.0008615812672132  0.2866369694634633
  0.8586325402302510  0.8574417342779571  0.2861542453371682
  0.6456725432217354  0.3556270743436384  0.7846962474482890
  0.5736474767261243  0.2836425431935171  0.7121836938428828
  0.6470721866698893  0.3539323022503389  0.6386460755585530
  0.4299269498807057  0.2847609171476051  0.5695011675281363
  0.8591819230403834  0.7147130412757967  0.4278690475133129
  0.7161013246680880  0.4277830460943901  0.2871973287231036
  0.6466358801501586  0.4977036469726576  0.0750333186532062
  0.9299003698008257  0.7869597114726086  0.4998442575972349
  0.6459197863421782  0.3555897919957397  0.2158323448135015
  0.5727876983865156  0.2841315303213009  0.1451090494785610
  0.5732624198939563  0.2842790498093017  0.0022584638991676
  0.6438702653139221  0.2131885497874465  0.9295968209653191
  0.4290170043660674  0.0022492204924602  0.0013169775195979
  0.8573674903096347  0.8576729098828584  0.7156592114475053
  0.5723450865496331  0.1436070075539869  0.7133804786607670
  0.6454580485918519  0.2138693141993029  0.6400630026929417
  0.0002309718489237  0.0010401507164649  0.8563950137760866
  0.8571501781895373  0.8576692617946329  0.8566022737964599
  0.9283363642070871  0.9297414058912508  0.9280064960283714
  0.7874189163615571  0.9287180925930404  0.6426018854787020
  0.5727283496718603  0.7160860285569657  0.1420775944772993
  0.5732270391191311  0.2841498709947985  0.8571502381658960
  0.9302030906222650  0.2136697263581557  0.0726813828559269
  0.9304489467412235  0.6434317669135956  0.4989169824754326
  0.7864731757813650  0.6431115310266675  0.7859143971331046
  0.7876487329528378  0.6437700168460306  0.0723798363761472
  0.6459712053810739  0.4983084100245141  0.9302688396497211
  0.5844822481988929  0.5619394583207471  0.7011287364066325
  0.7164940530075850  0.7152826417988352  0.1436518262910822
  0.6447659735987100  0.6436020693301694  0.4982664631294092
  0.5722669126911932  0.7144477417082030  0.4272375961170342
  0.7161828205376958  0.5712355284070657  0.4260942095372450
  0.6444466017411589  0.7862644581237275  0.3566582198545862
  0.6448979621030559  0.6433623294576047  0.2148101059542173
  0.8576695791110943  0.8580185932429101  0.0004063325317802
  0.5738416320915525  0.5708359844236496  0.1445519822017906
  0.8594185776479496  0.7149730301241851  0.5714166750739984
  0.5782952417707258  0.4232077246429885  0.7076670213492049
  0.6469778610505081  0.4987403493318442  0.7855573041638204
  0.9298395685740093  0.7868411216625236  0.6437474541261485
  0.8581367023820888  0.7149530041211308  0.7150796841771705
  0.9298964501091286  0.7863914611586829  0.7856638454801861
  0.5751966459054323  0.4255528810498269  0.5663226270272408
  0.5728330264973248  0.2841123098779235  0.2861354550376331
  0.0000300265037825  0.5729135558259447  0.0014121648175765
  0.6452124882074042  0.4988126302063950  0.2162304830381567
  0.5745047767507386  0.7178140755604756  0.0026501908194829
  0.8574943122550996  0.7148546271929753  0.8572116654000055
  0.0682766347530158  0.7894530697818227  0.0750784209689446
  0.5740550123057458  0.4267118862768907  0.4270281331519249
  0.5023082361204986  0.5004370738971500  0.3560503553568538
  0.7871717273770953  0.2137985174493246  0.9293342121251105
  0.8590033122968728  0.9998438528268492  0.7147036302614677
  0.5766351312938972  0.5671180220397734  0.0051472241548240
  0.8587553416842586  0.2857111217400871  0.0019316982340453
  0.7137178399989041  0.7148478222277945  0.7152007624787398
  0.7870419933309880  0.7864787862107187  0.6429585778199782
  0.7871574817232850  0.6436427135241986  0.6420385495442135
  0.7880616138521467  0.7866661330624826  0.4993958276085687
  0.7877336169547883  0.2138561126279525  0.0730939270827727
  0.7161820405393241  0.7143058696552322  0.4272689058769284
  0.7878498278458662  0.7867120874877840  0.3570232923621502
  0.8587417298245726  0.1429564491159080  0.8568017496608438
  0.7167489103832604  0.7140265153322126  0.2859500707052716
  0.8582569745732682  0.2844399333697528  0.2866229277677829
  0.7864233883373564  0.6435441387293562  0.9293237312223211
  0.7148479844662265  0.5720114599218991  0.8576969311176568
  0.7862734707048741  0.7862063414719008  0.9285524720558445
  0.9304947717947565  0.3565699664518979  0.3570595080297034
  0.7169284164745325  0.5717759275880580  0.5689906525178723
  0.9302770442870414  0.3568116149202422  0.4984309972296384
  0.7882571937803206  0.3558446381062924  0.4974708983584014
  0.8593124713673189  0.2856254409937268  0.5703602527731715
  0.7881329144420240  0.6433002406760552  0.4987183506326543
  0.8587603678013429  0.7148441224438895  0.2861938659237712
  0.7877285639148717  0.7863632315405121  0.0722300524890099
  0.7862208718212472  0.9302318921006718  0.0717619824209680
  0.7167818140090103  0.8579110494288490  0.1437432906420720
  0.7878671080269077  0.9288981431442576  0.2149658014210127
  0.8584349015198091  0.1428778586643424  0.0007113921998116
  0.9295513533169034  0.0716096877348422  0.9282153419290408
  0.7123930868755101  0.7136666997567209  0.8574355690588923
  0.9304202684551224  0.0713951884808082  0.6433583077688962
  0.9299826468510706  0.5001492666861656  0.9298684698656221
  0.0008964445199339  0.1419788045464327  0.4289201150996995
  0.9299842103692888  0.2139606403232272  0.4991222534267458
  0.8585993294003913  0.9992855023092108  0.4288928596840466
  0.7871548974803881  0.0716742025575055  0.2148075267615479
  0.8587364593275819  0.1436862117912978  0.2865711740500865
  0.8589963314637601  0.1428758362642004  0.1446793379601403
  0.8590260883323673  0.1420709281589452  0.5705750884337544
  0.8583282899907205  0.0005281514706394  0.0004150067841168
  0.0014654214230638  0.2856950494317505  0.7147483692560884
  0.7154800758297539  0.1432267069256748  0.7136890683701496
  0.7867203058673257  0.9299713036570316  0.9285088596357801
  0.7155239806247687  0.8577301342835948  0.8568214985569279
  0.6444808085734072  0.9304407548064364  0.7857927910645580
  0.7154204805527141  0.8569975672263690  0.7148609263985917
  0.7875750627228970  0.0716375295462340  0.6421326048966256
  0.7153728990111565  0.8574517550869910  0.5706501178590871
  0.7162464637403174  0.9993317561577062  0.5696599406153311
  0.7164144208315142  0.8583609368426171  0.4286464695460813
  0.7162457933686686  0.9992308273111008  0.4283930205052158
  0.6451235510400428  0.7866578798147001  0.2148961859906067
  0.8586187984325097  0.2855764332963460  0.7138020110470902
  0.7163837683539186  0.5713048452338908  0.2866899117169209
  0.7882397363311675  0.6431444666528926  0.2149648766178495
  0.7142886392536595  0.7155545454725739  0.9999292528316939
  0.9304141408184800  0.5008101797062807  0.4987852343327987
  0.7154737059784866  0.1431007449344127  0.8573702355431538
  0.7878418079517543  0.2135915733156817  0.7848444377228510
  0.8589112644177224  0.4288106789745599  0.7138139749726010
  0.9299883952097557  0.2134574823317463  0.6429580335202492
  0.5726957729368699  0.1431888538987814  0.5702365399594215
  0.7160884729514957  0.0008031211884948  0.7138254101662277
  0.8592688066373033  0.4285313450138652  0.8574382673640275
  0.7174911938960594  0.2846450567975460  0.2868281728252616
  0.0009243862762483  0.4289578475134087  0.8569025365924773
  0.7168071623757792  0.1431116700652939  0.2865918260178315
  0.0707481766725101  0.3557677431217491  0.0728936756553228
  0.6453193354835959  0.2132982857006236  0.2153975224225812
  0.5015904573748883  0.0721714222615866  0.0725620363326174
  0.6453585182223953  0.2134958538485924  0.0735003415564191
  0.7155589685252397  0.1427035210431220  0.0009036931713312
  0.7873871930706489  0.0715894067225347  0.9282741398632267
  0.8587818604939953  0.5714624414546896  0.1439188849042108
  0.7156009183849718  0.0014106907525364  0.8573731556828054
  0.9300923737035014  0.3570852995143239  0.9296285456296312
  0.9301230854434047  0.2143712657898865  0.2149417460848264
  0.9296175227904286  0.6430314986897896  0.2151763818295653
  0.8589060082820498  0.4280907030273782  0.2856916506461303
  0.9301420226763146  0.6424444096026738  0.3578223810837818
  0.8598939902508725  0.5714805611650656  0.5708398976725854
  0.7166296381274044  0.2846076597488010  0.0019357414258701
  0.8589346083422679  0.0001359350212206  0.5713345869725709
  0.6464564434245766  0.3547298632585189  0.0750561835071285
  0.7172980830845220  0.4268510044397152  0.0025537469709221
  0.9299266799339663  0.2138018742756237  0.7850466100312637
  0.7161445820424303  0.5714753781232395  0.0013945946345938
  0.7874286734599447  0.4998502208322400  0.7855817612513307
  0.7163831249996784  0.2845779507526963  0.8571390969806595
  0.2855821369709333  0.0003856461714347  0.5707669040767513
  0.7168659236086640  0.5710229313531494  0.7124695085981605
  0.7176824561784840  0.4271273042333315  0.7126245818600185
  0.7883683176007176  0.4994021755687810  0.6409077903473324
  0.7872015599094901  0.2134688224721633  0.6412675657085214
  0.9299262012148009  0.5003293128867057  0.2150771719024226
  0.7160480086296526  0.1424963933354576  0.4279664230297223
  0.9297000127452045  0.5010218702310889  0.3571192573554401
  0.8587732735253267  0.4284974530209376  0.4276273431780346
  0.0010500486549306  0.4296206469798026  0.5710873004414837
  0.8585225790837434  0.5718513474266761  0.0008702492098102
  0.9983246466224224  0.8586969174880209  0.0009775651564386
  0.6441988277691318  0.2133180824413913  0.3565629351622219
  0.2148486206245069  0.6432846264558338  0.3566753590493816
  0.1434840631812221  0.5727548303421507  0.1422581013748044
  0.2133470276277520  0.7867153065370646  0.2145489881780216
  0.1406589427173196  0.5685821333147756  0.0017432835511176
  0.2636627737471694  0.5788030691742730  0.8845004293068388
  0.9304978781231343  0.3573687435619600  0.6424775019005532
  0.2915936580963571  0.7066131157091411  0.7231306619164184
  0.6460148699888095  0.4989928013196223  0.4967271782384409
  0.8592295702722016  0.4287440346022509  0.5699461023788367
  0.7159480870766088  0.4273116887277965  0.4261905229822914
  0.7876400678526752  0.4998068068133271  0.9296595289276633
  0.7882059132394412  0.5003004296802881  0.3565439876218470
  0.7169266765726738  0.5714431806137730  0.1446794782429953
  0.7882162021003938  0.4994220907038815  0.0735233952794532
  0.7879537040916720  0.3565364130386758  0.9298575511117300
  0.7170798277612896  0.4273224264504238  0.8574697774698463
  0.7876859953070833  0.3567562608150102  0.2150165454039517
  0.7166314940061934  0.2846932739987661  0.7135068785179314
  0.7879625873052115  0.3560497083272242  0.6409392760672795
  0.0718924340232663  0.3570675655028644  0.3569053645076727
  0.2145360856663962  0.5005342065728968  0.3569122980781551
  0.1426462178713901  0.4291539889804991  0.2859988747671018
  0.2145884676592091  0.5009542004989371  0.2143322968992933
  0.1419749950343109  0.4269902788770464  0.1439471888617271
  0.3575601461290226  0.5003033983386503  0.2133682445223046
  0.1411884903082390  0.4255772514695332  0.0021747764666203
  0.2140859687288205  0.3554131180846722  0.9295012543418379
  0.1424925307850180  0.2855377923181528  0.8576313386405957
  0.1435311620790033  0.2861101333115651  0.7150275579311474
  0.2862768064201650  0.2840172622595890  0.0015954196821312
  0.2137357200357591  0.0729416351048700  0.0720082502113393
  0.2139904185457608  0.3561263398532064  0.2153021815731440
  0.1427544346939114  0.2855096822618785  0.4279775056768316
  0.0722085846155416  0.2137803180893426  0.4994663011751392
  0.2150127426666585  0.2145967822713310  0.6428888312851790
  0.1432381846361080  0.5724403754549410  0.2854006387640927
  0.1434130134241498  0.1429740423497556  0.7149369562830160
  0.1420344315902551  0.2845778731136080  0.0013244043416691
  0.2136980502070596  0.3548885975009557  0.0727618280911282
  0.2140196069495795  0.3571751421685334  0.3573634291503972
  0.2136702097239890  0.2130465087445045  0.3578706773946251
  0.1433485156561461  0.2862136972163942  0.5712647964237584
  0.2147492642662048  0.3587894964734082  0.6433909074822416
  0.2148828990511198  0.2141618628189157  0.7863778747032939
  0.2868972055825360  0.1441412583006462  0.8577746995490425
  0.2852109983728152  0.5720609124176557  0.4280921451970097
  0.4313467956193504  0.5652778940163210  0.7038752435676012
  0.2857100685715739  0.0004538599266239  0.7148928548784141
  0.7875104484981115  0.0719400413157917  0.7853401377478924
  0.3574599879332298  0.0722344672579220  0.6424695931845272
  0.2847866680272692  0.0005025985547315  0.4289669266395205
  0.4279514266231312  0.8587079016187316  0.1422016541733470
  0.1407503155545761  0.8598621158617407  0.8548598289171245
  0.2151905942014820  0.9272437660392490  0.6435385302037566
  0.1438905221399466  0.8570040431062208  0.7154145878448270
  0.1432356806254189  0.8564854139721403  0.5725403418324629
  0.9299122197023291  0.0727590702085124  0.0720049274480351
  0.0717074067842282  0.6436668557511930  0.3574095479127725
  0.9999338405067526  0.4276710098407038  0.1440040728599858
  0.5756191364759923  0.4241318488447376  0.0045623613121212
  0.2148409412240432  0.9275058818634337  0.5000468750559118
  0.2140129911233412  0.9306020929877584  0.2156151813154768
  0.1425189743381885  0.0000538375785288  0.2874903719649954
  0.1391059014791314  0.8616738658721336  0.1468322431850830
  0.2875344895125385  0.5725750860187491  0.7109407418669411
  0.2034314669231100  0.6428106787477724  0.7891875624734207
  0.0702488429949456  0.6436060743787710  0.7856580111777232
  0.1363197394384280  0.7229570143467403  0.0051302680346688
  0.2067979441410604  0.7935908364359605  0.0786148507966201
  0.2134055909650407  0.6439874147350171  0.0681728695484587
  0.0724468081756484  0.5003901596205265  0.4996254036817619
  0.1421750026336141  0.8581365863458810  0.2862311992124763
  0.1439426396095339  0.7144213132134754  0.4292165110486067
  0.2160475449371925  0.7837041427275209  0.7869985973887665
  0.0689983028524860  0.7868958611588460  0.7846538046858258
  0.3591429482231898  0.6418497416931341  0.6383878900186554
  0.1395606107004352  0.8613459111838034  0.0009735675805829
  0.0705576999001312  0.9306087146183476  0.9283076810868839
  0.1433496457592775  0.7146844115276900  0.2861450174096983
  0.0003046014656092  0.0000075420022440  0.7152977659412720
  0.9301824504852427  0.2141866915687289  0.9290150198911376
  0.1437987310675085  0.9987840147321284  0.5714889650592271
  0.8587242918948643  0.2857712034712378  0.8572423529143687
  0.2147331961571939  0.3577852096612812  0.7865447637912826
  0.0720997202909166  0.2142847926654607  0.6432066192569285