 B Cr Fe 
 1.0000000000000000
    20.0899999999999999    0.0000000000000000    0.0000000000000000
     0.0000000000000000   20.0899999999999999    0.0000000000000000
     0.0000000000000000    0.0000000000000000   20.0899999999999999
 B   Cr  Fe 
   7 206 480
Direct
  0.6426130610355021  0.5790044339961871  0.2801872597328479
  0.4317990508145600  0.7890171392789220  0.0688060343419410
  0.5901726906134208  0.6401639605467809  0.2507395024168793
  0.7770292455158895  0.7157028188952202  0.2860808065366430
  0.5753421317133514  0.6840849927544113  0.0842768982600148
  0.7191001011122947  0.7755961394326328  0.2922461811445429
  0.5127725915437863  0.6897948366616236  0.1422311843676726
  0.2828946406377486  0.7132003362389583  0.9968692800449871
  0.2849940420161269  0.5719203397129771  0.5727638236068673
  0.0026945351326493  0.5709730633278192  0.9985266710635123
  0.2866641454921088  0.4272519677668467  0.7138505155929064
  0.2134198396726677  0.3584490182042193  0.6422184080376270
  0.9325188776399771  0.4999209495550023  0.3593915517854309
  0.4290320715363917  0.2857944354269794  0.1416907947855131
  0.2873828717677382  0.1426275321012760  0.5725394383885376
  0.6488082964843089  0.7997957272508532  0.2206946119213840
  0.0003181083972352  0.1423077005340805  0.1420152254571463
  0.3579251957147357  0.3589837467182821  0.7867669873425898
  0.7175712601742139  0.2850773155606189  0.4276314301565002
  0.2150192907116160  0.3566526098377915  0.2142770740718728
  0.0706586823800185  0.7869353662965690  0.5011341909953072
  0.1432712558568685  0.5712637510442903  0.1432053161051032
  0.7892795730742712  0.3563913999867735  0.3573387526259572
  0.8593124097052812  0.5728839979116972  0.5711184574354162
  0.9302544459932000  0.2141327766809951  0.3578584671031249
  0.2868023500073018  0.2863525180450343  0.9997074219932814
  0.3567702578627203  0.6437696146101926  0.3591174591910326
  0.3560353601088998  0.3562571860749964  0.3578141333689052
  0.6451281174941513  0.3574580179845587  0.3567458727149432
  0.7874483136819211  0.9290613550260719  0.5003684711290519
  0.3568323923838946  0.3575205048176288  0.6427455288502264
  0.2858391200579935  0.8574905611663303  0.7143088111974467
  0.6425541285548009  0.5010372930828398  0.6417000901982989
  0.6440211143854180  0.0718103664528064  0.2155697181544865
  0.4992667727414961  0.4989793851145723  0.5029819885070165
  0.6846447004671224  0.6872410259690096  0.2715314018978090
  0.7922812628263723  0.4961947901560524  0.3590741249411946
  0.6464181039907437  0.0713438142662469  0.9287628238530724
  0.5005730316819341  0.2152759237221429  0.0718458722238809
  0.5693207251736514  0.7162131934136178  0.4291161017227539
  0.1436972534745874  0.1431069470045015  0.8576527257649015
  0.3558185530218374  0.5007380214266187  0.6442847222816408
  0.1416085499331905  0.8581501785549326  0.2870357891854720
  0.2143462725612263  0.5002666384660950  0.6432095698952024
  0.0016640085516100  0.0003529901104549  0.5724721075877083
  0.9323143063469540  0.9304528018145470  0.2148352542159494
  0.2137964528970382  0.3561458213031940  0.5020029369552284
  0.9317820166576514  0.4991838991874144  0.2158711666283599
  0.7870427506667246  0.3572518495961530  0.7854870361875523
  0.6467463637026375  0.7860995389290432  0.9272690560258158
  0.7169052523002036  0.4275492650722624  0.9993757853869929
  0.3580987698142897  0.9320425301754933  0.5014541500930125
  0.5710794360041014  0.7146663187754617  0.5720878618794736
  0.2871826635421249  0.1421941716707623  0.1419229979050790
  0.9318665144737485  0.3562172515127033  0.9262928527850274
  0.4306177108348381  0.9985549230504650  0.8599928532643899
  0.9297926251366500  0.0729478621161489  0.3597526518175989
  0.3574431182748231  0.0718853117007424  0.0716863637976013
  0.5008929604213179  0.9313926572654005  0.4996205721848875
  0.4223409275776553  0.5711749958604249  0.2892917294655870
  0.5020849924437102  0.5021169872625725  0.9277193108124768
  0.7162088324398189  0.0029966954498938  0.2862843731718528
  0.8621769282999234  0.7156943289963221  0.1427517595144080
  0.7157019845317425  0.8577122240534295  0.1411226878144844
  0.5722376278798942  0.1412468021478744  0.2864142909038404
  0.1415476311646350  0.8575649804937772  0.4313330681953120
  0.2135620995706863  0.7865518516573020  0.5020546419789609
  0.1432174532584847  0.7161091292606666  0.5711709234882651
  0.5011037414344995  0.0696103695967755  0.9277216897949826
  0.2852463436087436  0.4277439857948299  0.8567932890290910
  0.2143190804253743  0.6442188414599399  0.6428254493925732
  0.2849011968529808  0.7151402336081639  0.5709614102169613
  0.3576824823632807  0.6411452661128071  0.7854691391070124
  0.9301746158786166  0.7858292934498137  0.6427751720421213
  0.6441841609388244  0.9291126156015140  0.7865881938853529
  0.8608496716392037  0.4273468553611647  0.4286347122885528
  0.7165440167285502  0.8587966078822087  0.5708946688173120
  0.1430266241412015  0.5722421689600020  0.7141714429586279
  0.3554668222118897  0.6435819936424289  0.6434238088009353
  0.6422492354766186  0.5016258069460214  0.7863472346525980
  0.5733124036833892  0.5706219209868271  0.7142460949262301
  0.9312998619159268  0.7871021316155131  0.0726495703244489
  0.2857708465542357  0.5714950849080528  0.8567635142920219
  0.0717312266302727  0.6430116733496157  0.3582190348073115
  0.2140920831969299  0.6440571098018936  0.5029019688767546
  0.3576094191645098  0.3565035580222357  0.0704022146628234
  0.5718066336532653  0.4298534480164938  0.5715782979159938
  0.4242844980456413  0.7177719537063870  0.2895869564633188
  0.5761030570926184  0.8549260587690155  0.0022187001556642
  0.3554535224591255  0.4991564191388151  0.9243797909950932
  0.1454496675453805  0.4285787589413250  0.5710287565610604
  0.5719964547379878  0.5711823373348970  0.8570149450610529
  0.0037348956630499  0.5711821977634717  0.4288165393461503
  0.5009197210183907  0.2137763307974125  0.4995984665271041
  0.5038063182373362  0.9279230996980713  0.9282391103738530
  0.8595419063192944  0.1440704622152340  0.0006678609822227
  0.7939859298373358  0.7894526690088616  0.3609213671327886
  0.8620132135372508  0.8586018254565292  0.1416399082843773
  0.7880533085044499  0.2143847051420694  0.4989274732632908
  0.7147133980580989  0.1436037266010520  0.8589963200786406
  0.1430982910629163  0.5707806655723494  0.8545218721588174
  0.8589808989194485  0.2850955384702484  0.4294917050820223
  0.6453429590736612  0.9275559490991891  0.0713770683691488
  0.0010864372265149  0.0014573202551153  0.2863924641669793
  0.7188751306963739  0.4277556187695179  0.2869717616502027
  0.5612331127276197  0.5860660713107582  0.1412960029445494
  0.9313961420656524  0.0720961503031410  0.0683563457889761
  0.9314177806745416  0.9281647777212431  0.6422438077230757
  0.4293854297589825  0.9994542939522477  0.4294355552568988
  0.3574892940146737  0.9293076939057576  0.9277936758839715
  0.0724319574016661  0.0706824807506075  0.6430929663667647
  0.1438622603235530  0.1432769872203140  0.4301712263696582
  0.0721077648982654  0.6428657723948702  0.7846874000202243
  0.3584481723480001  0.0714570070898014  0.6425374799586033
  0.0732150982567304  0.6441030710440074  0.6419074614060233
  0.8730729207086078  0.7139153488588474  0.2861807235532341
  0.0716298645510224  0.9279670253135348  0.3575773927276839
  0.1415834244066132  0.8577891828030575  0.8564730144243604
  0.2154706127207166  0.5000306621437428  0.7850491856394213
  0.0015231597445449  0.4274303271968631  0.4282560196449872
  0.0010035428682618  0.1438499792653947  0.9998915144753011
  0.8630850475122527  0.4272505802992138  0.2879788901763268
  0.7187579308676154  0.8595280596934730  0.4288420049821665
  0.1445206733425355  0.5728546571707486  0.5712399825627203
  0.9311763039519478  0.2128397584542693  0.0703282825555225
  0.0019832312012764  0.7148211380145291  0.8548313878115640
  0.0038450640138678  0.5694899724715355  0.2879012471640541
  0.1458713526536900  0.4280677986982306  0.8565601147915525
  0.0019386409084542  0.7137574561479123  0.7136781850086024
  0.0013167002326652  0.4290801747918633  0.8554077185354253
  0.8582133143074128  0.1449274675488551  0.4288508303897430
  0.2153024481035312  0.3567590664744500  0.9283746628287748
  0.0001165201246529  0.8571271527076640  0.7151303040000169
  0.6442697209139644  0.0714740990207651  0.6432513080303557
  0.2149756138889349  0.3591644781216767  0.7855531084515917
  0.4988451380969610  0.7808860411583330  0.2132145698236635
  0.4307854317380789  0.1436640884416372  0.4290252564643899
  0.0006539060192001  0.1434896919409109  0.4302969938125986
  0.0706991301637435  0.9288976241915197  0.9287137981618167
  0.6440826347031468  0.3601779528947677  0.9302606294501529
  0.9301591661890000  0.3581594758480365  0.4992916209476905
  0.8593447009492160  0.2861476654180665  0.2871120437603501
  0.0023785099999490  0.0008265095970273  0.9993346882152793
  0.1442819884985997  0.2853167038741908  0.5711878441629866
  0.2140297081501587  0.5000127952625684  0.5035711570671795
  0.2146051125078834  0.6424241065694588  0.7843546736056075
  0.0711177128896770  0.7855772137640932  0.7850458565833000
  0.0734640790563566  0.2131145408381242  0.4997359403885447
  0.1412190042841675  0.7151089506905478  0.2885459665427874
  0.9312687572851229  0.7838642341929110  0.7834628326227757
  0.8628698947723021  0.4257736437050402  0.1432268109997091
  0.1421107973668345  0.7141088806356494  0.7141543676078175
  0.1428722593305680  0.0008160224601776  0.1427630744667824
  0.2123573868784233  0.9303784396754472  0.0717410085771630
  0.0711816104945805  0.9285283835754059  0.5016401722790903
  0.8583707048553386  0.1441249119332564  0.5706304628091575
  0.0016079054052992  0.7143347669800199  0.5724169518925072
  0.0709434130335685  0.7854880837625461  0.6429780600824752
  0.0728292686281203  0.2134010522921835  0.9280716941471248
  0.5016415026716137  0.2143934489265289  0.7865167965089707
  0.0716721315647270  0.0714125948405059  0.2139920448020918
  0.2141524449908770  0.0723870858003206  0.9280429363405786
  0.3555797081623780  0.6441288267184578  0.2175043401452204
  0.7171947070002289  0.7133435274707696  0.5700365365853293
  0.5715551782366066  0.0022813285054720  0.4295501110683537
  0.0715195770031650  0.4999534059410384  0.3596512356637445
  0.5005174225867765  0.0714702247615931  0.3594691113933183
  0.9297522457985433  0.6447022524729484  0.6428336726942331
  0.8590707007411791  0.0004999213618340  0.0004427037038549
  0.0026905862491485  0.8579259507643314  0.2863979395737657
  0.7144935071786874  0.1440863126522187  0.9986664346451352
  0.8580959592529552  0.7149572703093835  0.7145987660390993
  0.3572955733919567  0.7855850273764532  0.5020644594572445
  0.4977501887199098  0.6424581673503925  0.9267773766905791
  0.2857425068087091  0.5718701861082949  0.7137336101549440
  0.4280718009495241  0.5711330084080182  0.8569653652069459
  0.8600259577130914  0.9986666012920097  0.7137428275253298
  0.5735759894508801  0.0002747051386130  0.8597432141682435
  0.9301517432538069  0.9290583667214185  0.7851527842462237
  0.9315978499853771  0.4986792584421005  0.7842437282014338
  0.7866287518584804  0.2123582791347609  0.9295183205885914
  0.4291664997221745  0.9996583410182008  0.5714127116492275
  0.7887951145228329  0.6422605698048515  0.7835429939352709
  0.7882288878572342  0.7861188022939213  0.7835380916088099
  0.6450439857206417  0.2129521598648912  0.9289727000130186
  0.7884878414809359  0.3564160429670759  0.0711406862325051
  0.4279462249318671  0.7126054145609342  0.8558800409867251
  0.5716333665242964  0.4310584014481445  0.9997326121222933
  0.2852229543374725  0.4281132823981485  0.5729693710863478
  0.5017246216194740  0.3558613374379534  0.3574634965978656
  0.0010972854478677  0.4303439536523616  0.7139002640858140
  0.8643734205015214  0.5701019873330762  0.2870069298192377
  0.1427821290912333  0.0004607804135367  0.7142331500300517
  0.3564872491887713  0.9287694863923405  0.2147855264599572
  0.1451974203032689  0.4285418246914944  0.7145699622861680
  0.0014011681374948  0.8574700758612579  0.9994604415949059
  0.9298424220540591  0.3563256163018034  0.3585623307544130
  0.3562527640499649  0.6435118582943126  0.9261803988634246
  0.4967354611687115  0.7899094829430984  0.3621973682788547
  0.5698004741388000  0.8585994697399377  0.4298065971637955
  0.7880593278137282  0.6434845279335525  0.5010936050650344
  0.4846427009207929  0.6402209339689162  0.0556020390998034
  0.4998547198579635  0.6399045485957963  0.7860486499132644
  0.0031462793076913  0.8586772642809105  0.4298860467916907
  0.9292890618829406  0.3559873436714565  0.2148459729232395
  0.0740539963149750  0.4978537887190369  0.7846647373312321
  0.0726624066603668  0.7873611028925952  0.2166288746764130
  0.0729414978230512  0.7886820072601509  0.3577488517457290
  0.7162325232306679  0.0010247170530039  0.4293878073124614
  0.4274795420098010  0.5720974678928389  0.7140425216908549
  0.9285205711903177  0.2123412958592776  0.4989842122799424
  0.2137118810461213  0.5001555587568821  0.9250810839303857
  0.7911331637266632  0.7875996465781041  0.0748648860333753
  0.4223760579704484  0.5667332827370705  0.9944514303989804
  0.7163282131894323  0.8573742875904442  0.7140448124390029
  0.7211500509665077  0.5686653053514362  0.9976197456448247
  0.9304984140406917  0.6432219692323728  0.7844993333400258
  0.4926493954510552  0.4942674015331516  0.3638668943829955
  0.5718491121206657  0.0009692839625602  0.2868167361439909
  0.3552185430344539  0.7877965886448524  0.3594488744777359
  0.5019559997478366  0.7853779112683079  0.9276272748734240
  0.6438678201869190  0.0719427741347668  0.3571946516538121
  0.7898271771185778  0.9303399684812634  0.2129956320239038
  0.7154205941833066  0.4295238000338642  0.5711165737445629
  0.5723906019357557  0.2856655260692622  0.5710488551795129
  0.2846501468096107  0.5704345370169248  0.9974431155315021
  0.5730303748702287  0.7129939770471331  0.8562766898981932
  0.2850497902171242  0.7139757139887479  0.8558263991906834
  0.6446505256243886  0.9286057107969998  0.6421224315501820
  0.4281800226473332  0.7149004198218485  0.5722935257265641
  0.2125341732892516  0.7866158918885048  0.2166357979425935
  0.5693467814376608  0.8597115463987655  0.2875533029324951
  0.6442786206437334  0.9285275753331490  0.4992753242789137
  0.6602369884840147  0.6393188002354958  0.0696246589258383
  0.6450032030998548  0.9322671531293681  0.2155021136710110
  0.7876553315555155  0.0720463874759494  0.0706828240957625
  0.7881062871691589  0.9290420359355266  0.9290969225310455
  0.8596750557663129  0.5716485577751113  0.7134342760387707
  0.4288052609203602  0.9990642625714228  0.1421158722298541
  0.5726144084800910  0.8578376819321918  0.5707607921343617
  0.2861117222772377  0.0004802918236663  0.8574644952505985
  0.8602860444941880  0.0019854581296870  0.2863529602287176
  0.4283995688826663  0.8572571021269813  0.2856626468137999
  0.8600476549358136  0.8575075940912658  0.0004008708579046
  0.5715457736217361  0.4308889326476079  0.1421946942088524
  0.5731732271176252  0.2864395384321484  0.8585108751743015
  0.0013762836982342  0.7153041547530306  0.9994764155359730
  0.4295997703435252  0.1431101398642720  0.1420359577998941
  0.7154423606169108  0.4287016895183101  0.8566988313995113
  0.9320886129380523  0.6432184087746147  0.9266049830500764
  0.6447113261838671  0.3576760567579914  0.4995399667391767
  0.4291303309423238  0.2856588620863900  0.5718181231539607
  0.9305611331600256  0.7865491421342520  0.5013980954305871
  0.4271044561632736  0.4286469616412791  0.1410854855540226
  0.6449894634821630  0.4970784504065464  0.2139704157666165
  0.8594240782910315  0.7147246495132130  0.8551978034708489
  0.6446524070254827  0.3582229141210891  0.2147386847511239
  0.5722505124545065  0.2862204923895565  0.1423993679176564
  0.5727194262526237  0.1423962323745477  0.9993605066519220
  0.5733395657981188  0.2862701415487267  0.9999066764102200
  0.4299402026370649  0.9984930378028164  0.9998003097764917
  0.8594723029440975  0.8574361289686153  0.7141056582566383
  0.5724282687527595  0.1425777021615761  0.7152116579451451
  0.6440005865292512  0.2145977217706384  0.6431019036941333
  0.0011482129450140  0.9999270523133690  0.8568545873783842
  0.9304836344540579  0.9296205465006333  0.9292474096609606
  0.8582777311733759  0.1427504121385205  0.7142352368066605
  0.7874679239709693  0.7859633720302447  0.6414952657259365
  0.4994783962632892  0.5034738034253127  0.0701250939013472
  0.8621778655252172  0.8609574145992023  0.2866477268234059
  0.5724448572191545  0.4281036168289963  0.4292079906302181
  0.3560190052959948  0.4999601092059328  0.5019638459019546
  0.6450360176029510  0.7853259191786156  0.6411337158230362
  0.8613093354234433  0.7159845629045776  0.9997810890121688
  0.7904359779415436  0.6424956122222020  0.9266863124165939
  0.5712180094807059  0.5710646093038249  0.5719259076071501
  0.7933515063913220  0.6441895353049886  0.0708049291321246
  0.7153919819479271  0.5722850157382229  0.5708334716949200
  0.6447738129763236  0.7863921309760734  0.4988541671133156
  0.7941868385066654  0.6402379939529778  0.2134058513764573
  0.6426207971736401  0.9308675388593259  0.3597181959711053
  0.7348451444070708  0.5658400517144272  0.2899048004389327
  0.7169211651869386  0.8564268436837499  0.0016141196360558
  0.6438657018979607  0.5015793124346742  0.3556436226908820
  0.7868054541930456  0.7861735895791757  0.4995980186562246
  0.5725341979932972  0.4299772160533605  0.8575407864446856
  0.5007775516918136  0.7856852790302836  0.6426184340119849
  0.8586477243599536  0.7142326989464318  0.5709259329036789
  0.6439257145326777  0.6432382928555661  0.6419058503610729
  0.0718938887251892  0.7868322607059028  0.9270346888826748
  0.6439221610991326  0.5005581862908903  0.4999182455139243
  0.8605704978795095  0.8595918897918289  0.4311444647504873
  0.7878813723766861  0.0722214450261069  0.5004138831536979
  0.9313638625414811  0.3554847791783478  0.0711696653053998
  0.9314174863805499  0.6426598628800968  0.5007189528166845
  0.4999582223868257  0.3573669265625748  0.2135900554649654
  0.9329198375086013  0.4983296732760947  0.0701344152893442
  0.7160832678683935  0.2863812201379002  0.1424875686173344
  0.3386124566963336  0.7863767986711176  0.0699413096806658
  0.7186587229110326  0.4287073191060152  0.1415853074059505
  0.5008729421107001  0.7853468089698699  0.7856906669859267
  0.7877584235489947  0.9286777168696800  0.6425466099424024
  0.8591434105311058  0.2851398965273509  0.9991366277118693
  0.6446888589243379  0.6419241051523544  0.7846701469935901
  0.0021172826035327  0.8575659320975095  0.5721655756496445
  0.9307367014572825  0.5007493065775311  0.6417806262712232
  0.6340774375510246  0.6393320030699655  0.3636141314745724
  0.7874737599021470  0.2142885323222299  0.0704637281736693
  0.6679430288776467  0.6121685787879459  0.1880715957859114
  0.7171393064634839  0.5719560019762809  0.4281224953358137
  0.8582687895731246  0.1429613910734659  0.8575915120717316
  0.8612872088207322  0.7140504083528803  0.4300128525790590
  0.7873302007066000  0.2147661185086941  0.2141760600397370
  0.9326007911833798  0.6430476722009510  0.0709478374935075
  0.7172773055087586  0.5703632839415657  0.8552617417131030
  0.4242493452149916  0.7191917916979885  0.9973411412422890
  0.7884787866039222  0.2156287095798316  0.3581018955451752
  0.7153883816117950  0.7129134381940651  0.4282336644265762
  0.9307447362998954  0.3576113781556407  0.6426485917640633
  0.7869706240632691  0.3572340412439526  0.4994141066258412
  0.6445091166793511  0.2145551014561105  0.4995000642629586
  0.7882409588862896  0.5006600952323862  0.5000666574564072
  0.7918639108216544  0.6421479105376238  0.3566587679200311
  0.5027007613842397  0.9270401116218375  0.0714448824794443
  0.7887485510754252  0.9292287260769105  0.0716887381225918
  0.4286415986075551  0.8559781063100236  0.1431147411011017
  0.7225763508309979  0.7169198602156013  0.1446916415097280
  0.8596834918526866  0.1433849461269162  0.1419023367752703
  0.9297925488267249  0.0715398145333964  0.9287670005157395
  0.7894567553406097  0.7868361282039005  0.9279110495620048
  0.9296471461402335  0.0709850445448406  0.6421114375362503
  0.7153827723041489  0.9999487000722395  0.7143214569067237
  0.0718291919752217  0.2135056090487410  0.3583094249519654
  0.3570784329578232  0.7857905474655538  0.6432582480383497
  0.8587794370428439  0.4288761243460152  0.7138045511853628
  0.7165206520798125  0.7140322740385023  0.7136021093174340
  0.7155731307182323  0.0003794638191917  0.5714588510094597
  0.7912013046361572  0.9327218981173891  0.3601290005393086
  0.8600691356280540  0.0011023416870756  0.4302840217593768
  0.5647627655408528  0.7274931593156932  0.2952366521119716
  0.8582574686332085  0.2864030167314988  0.7139356996865556
  0.7375878581489235  0.5573094566132233  0.1307557505754489
  0.7913486379728952  0.7900408581361308  0.2167263041275998
  0.7207536653715904  0.7153595383818312  0.9984747620463448
  0.9316360778599810  0.5007741855396434  0.5001427860589427
  0.3572254480154354  0.9290589432416652  0.3583820788350277
  0.6439423969315652  0.2142850401199276  0.7869190603985747
  0.5005697119373811  0.0717462831748273  0.2145628558931305
  0.3571000212393494  0.7852046852665129  0.7855324369252570
  0.3559002842709992  0.5005207544352615  0.0709940182374451
  0.3546788350568574  0.7868323570492982  0.9266813284677571
  0.3562846077786632  0.6437668257312174  0.5014474123375550
  0.2865935747859230  0.2858727996076219  0.1424560623438680
  0.4297732049869585  0.2856622840724227  0.4289006453292770
  0.5009784524253188  0.3585485044118542  0.7860679525642269
  0.3589846017424362  0.0721409852209235  0.5008620879958181
  0.2864387125210305  0.2857780085036132  0.2858536399389116
  0.2852837282376228  0.4277911639026556  0.2866487342679094
  0.4282395928657389  0.4298588134795672  0.9988117596475734
  0.4268397168049908  0.7160706483910112  0.4306685689689583
  0.1428048327732137  0.0007555392474920  0.8575737786884874
  0.7157051960364894  0.1429184074900670  0.5713141867184582
  0.9302402084866478  0.2140484041649543  0.2148070433613586
  0.8597103686851242  0.4273457198584311  0.8555954633313532
  0.5018722645465987  0.2143862596271490  0.3569283862902006
  0.0019265452431149  0.5707567223203952  0.8547040442485214
  0.7155141507038407  0.1430258393437203  0.1430330583422119
  0.3581491165798575  0.2143603108694860  0.6430698924167353
  0.6432281990692374  0.2147660038001735  0.2151207971964801
  0.4300485631325690  0.1425233635166079  0.0001651377481990
  0.6438899701898569  0.2146896672684599  0.0712068595308690
  0.5728324038679933  0.1426703795371082  0.8584915034003425
  0.7875225366878087  0.0721913216738281  0.9294735028975134
  0.0027732579936552  0.5702468836308314  0.1427408057579805
  0.7159382016245550  0.9998520140124008  0.8574638204713547
  0.2868561421350091  0.0007355798248249  0.5725502717420612
  0.2148700967566357  0.2139061280347231  0.3582165793524634
  0.9340929873917491  0.6414955867996766  0.2138190741615525
  0.0726238571612686  0.3564142026439258  0.2148146753254334
  0.9335159302692927  0.6416549290082413  0.3595718222545431
  0.7874849167290769  0.5009671364638592  0.6419712120295430
  0.7156519840789790  0.2863353727861728  0.9995568780216005
  0.2143071660660168  0.9295908002862406  0.5012715975615142
  0.5007609441370928  0.3583272550148937  0.0707678712855839
  0.7889470285570882  0.3575754177402128  0.2151814889549341
  0.9297692334038818  0.0712218449412622  0.7856844255126703
  0.7879805310016703  0.0720227382335560  0.2140942231440579
  0.7878218031111729  0.4997729387859578  0.7846611284138106
  0.7152405758059451  0.2861155642913839  0.8587107158192376
  0.7880499365599004  0.9289338297979117  0.7849993615407578
  0.8607653959692422  0.5709337092736138  0.8549597369881800
  0.7152305849039298  0.2864910731281466  0.7149072411958638
  0.7875360483147311  0.6433288194076910  0.6420217553481317
  0.1434654897254234  0.5708588155601886  0.9983345400289154
  0.5723480997515983  0.7135006909378444  0.7142497362001062
  0.8591154213963293  0.2858235671851488  0.5701892207705322
  0.2858030931276604  0.4287413037090371  0.9983334271296834
  0.4264833240426869  0.5718813883556649  0.4311711288604309
  0.8589885288454397  0.4288287808477207  0.5710866996331171
  0.7161859227818338  0.4296061203066290  0.4280480454465020
  0.7897856553921984  0.4979590527412174  0.9266598814667626
  0.7162848422514250  0.2858781283885321  0.2858825394363795
  0.6479424756211848  0.6410974538619825  0.9265775800359130
  0.7976510227691681  0.4922797198471963  0.0641757944373749
  0.7868187984923085  0.3567267385274802  0.9283965532420239
  0.6439611900229409  0.3580029865485924  0.7862465255962906
  0.8593303316974310  0.2851613708087959  0.1422242904680772
  0.7147144521296602  0.4300450473712598  0.7143996761101441
  0.7159642917897224  0.2860079784461216  0.5711360201869664
  0.7872029207406074  0.0710383782849663  0.7860363525203516
  0.7944154550099217  0.4949946225574575  0.2150615202551512
  0.7869785589917609  0.2144247147687297  0.6427100854598947
  0.3558418960037629  0.5007362888660244  0.2148474956864609
  0.8596227351663567  0.5720115232807982  0.4292156388232980
  0.7869998675294326  0.3578970090494978  0.6419822940637917
  0.8625708741864797  0.5710889528059542  0.9980307868506743
  0.0021292477265223  0.8590251356105261  0.1432139745907856
  0.5719312176486091  0.2876879999687560  0.2861055781096816
  0.2133059132813876  0.6439577218761432  0.3594480835386829
  0.2850669117795600  0.5722162058304886  0.1431555964909843
  0.2109097678160351  0.7863401385451049  0.0709482248862205
  0.0013039746883153  0.2853825575100206  0.2862576191512675
  0.2144690235040793  0.3563667583261246  0.3584884938019530
  0.1432353632491831  0.4279686026420937  0.2869717277955102
  0.2123789811957183  0.6428178815367008  0.2163148113138318
  0.2138505094232988  0.5002362836402684  0.2148867078077376
  0.1430623797806739  0.5712414844166542  0.2881859611846692
  0.1442240277702704  0.4280399365630190  0.9986099712937824
  0.0730097691328127  0.3571967376979236  0.9265362690854153
  0.0729544236348756  0.2145212376863277  0.7854372075210374
  0.0722613072126222  0.3575161209649086  0.7849319258680653
  0.1437038399626511  0.2852569432180545  0.9988212976877835
  0.2145107401840661  0.0717203619876740  0.0716199844524571
  0.2867741839928156  0.1428295630163764  0.2860484591702895
  0.1433089559470917  0.2851601510469930  0.4299451755836898
  0.1433170188160705  0.1423711591037907  0.5720159805041426
  0.2153924954529314  0.2141186155922025  0.6430619143184244
  0.2143017179728147  0.4995845291532043  0.3590016170511269
  0.1436125302619868  0.1428343679035295  0.7137845356196090
  0.0018926530674587  0.2847257379132304  0.9987406410090595
  0.2154023937906387  0.2136501868929220  0.2139541090926540
  0.1436972283596356  0.2853377301716150  0.2864314272663692
  0.3583578734788198  0.0717151038526903  0.3584866232589217
  0.0728948307651802  0.3577203633450823  0.6424670027151426
  0.0730598987377392  0.4998741549785533  0.6424097662911306
  0.2151557628683288  0.2141610994005378  0.7859219318701196
  0.2869681400434710  0.1430134794132219  0.8576211179128339
  0.2848621463425891  0.5721867066820154  0.4306875667089739
  0.4290725375221560  0.7135838436937785  0.7142956637894325
  0.2142706967933476  0.9288194960136799  0.6435850300358074
  0.6441420726350734  0.3591799683864169  0.0710598381989302
  0.7863371450696230  0.2143967865574889  0.7863593375391129
  0.2854434749780070  0.4279326894857857  0.1424006667139328
  0.5010652305324159  0.0712605237867592  0.6428556308246103
  0.0726192529752769  0.2132948211534700  0.0710583977620103
  0.0021334346717030  0.4272707948051387  0.1436919646694488
  0.0020776895180815  0.4278170074523607  0.2867070278263288
  0.6440593319775709  0.5001370385656019  0.9292045220893159
  0.2860044306779396  0.0000322303482972  0.1420976571808473
  0.1422147579238797  0.8590341414988990  0.9993160398959540
  0.2857040996049970  0.0004405006796437  0.9998523425658326
  0.0714399823185325  0.9302919469113375  0.0710153693245799
  0.2150806184391968  0.0720031539963280  0.5011631434700873
  0.0720942417679470  0.9303531952414857  0.2153255904107912
  0.1424377092242349  0.0012369170098997  0.2865093223584270
  0.1421543492024922  0.8589200328536283  0.1436988362778408
  0.3572824014858491  0.5001862686150660  0.7850226773405738
  0.0008777534126352  0.9997922232234332  0.7138598351961467
  0.9313667323734806  0.7865302592712687  0.9274825192618252
  0.1420019886907029  0.7146056674142963  0.9985655204021632
  0.2129248890263932  0.7860694046226722  0.9267475381861184
  0.0725779787495807  0.6427434191522361  0.0710377481412490
  0.1435448822297596  0.4282920233065397  0.4303266590408401
  0.2847113744926261  0.8585313989762628  0.2874912890774718
  0.1429817674829194  0.7154795286777321  0.4301774905481923
  0.0723898968025792  0.9289813121600530  0.7853624864571025
  0.1425326594918318  0.8570433314318041  0.7141200761372788
  0.5001025227945753  0.5009491400531014  0.7852317254135306
  0.2822004852280400  0.8602749170079227  0.9974632878863223
  0.0005649593512049  0.8578141698722987  0.8559420957950175
  0.0031059497374932  0.7157145122176860  0.2872387676899533
  0.0018503113627226  0.2852512683516031  0.8567382876033658
  0.0725380309667770  0.0714210727223853  0.7859246821056991
  0.1434082171924628  0.0002350645547116  0.5723359038186870
  0.8580496353680996  0.2859729065749383  0.8572107245510874
  0.1443117535215497  0.2859140425966163  0.8569529168188491
  0.9298760096545797  0.2141766437982680  0.6420904024064952