 B Cr Fe 
 1.0000000000000000
    20.0899999999999999    0.0000000000000000    0.0000000000000000
     0.0000000000000000   20.0899999999999999    0.0000000000000000
     0.0000000000000000    0.0000000000000000   20.0899999999999999
 B   Cr  Fe 
   7 206 480
Direct
  0.5065441339604527  0.7028104496718749  0.1363971093419461
  0.5049154188238056  0.6999736047928810  0.8550050226993291
  0.5655627226870185  0.6916600729560757  0.7930729061158007
  0.5744185434566308  0.5144938159153979  0.8626264933384901
  0.5631885597222734  0.6756176381658421  0.0732544335681270
  0.6365916813789644  0.5735353516806933  0.8619240538200452
  0.5123861832313460  0.6983443177028253  0.0055004654790088
  0.5725696893187348  0.8558157051035069  0.2860015860120284
  0.0000536538085879  0.1427554565148497  0.1420214021965452
  0.4297053728718356  0.1438142426552335  0.1419230011303814
  0.9284718295773474  0.4984296909373552  0.3566493316694359
  0.7159532447107808  0.2866315804935196  0.7135114513238412
  0.2851147521619030  0.4279562554018613  0.7117331196088181
  0.8604660965064764  0.4271931058618703  0.0005756921937133
  0.2138260137722736  0.3592506999183206  0.6431522549345918
  0.2100954128903835  0.6428177919598633  0.9264606049009291
  0.5010373964838805  0.2157678458276192  0.3558300853923140
  0.3574001586365261  0.3572731695231826  0.6435413960107985
  0.2148798082711900  0.0718541334033088  0.9291337820150509
  0.2152441203164680  0.3569648651380546  0.2151686288805811
  0.6445146241665529  0.5003106851926503  0.5008682196445625
  0.2117700774260873  0.7863516985472242  0.2162916312661104
  0.7874794412540532  0.3579677035102058  0.3578826128903534
  0.7882632860695142  0.6436104580421170  0.6418653027837335
  0.7874123172200264  0.2149533153901944  0.3587263342972924
  0.2876580491153670  0.2838739352513841  0.9999849068350033
  0.3559196405164909  0.6430784563409545  0.3588828665022047
  0.2849984512101834  0.4276209907878610  0.2866091254059268
  0.2857896799545366  0.1426041440344055  0.7142041893665676
  0.5714848472773185  0.2871687215452769  0.2851406011783696
  0.2843928938762818  0.5723953631167317  0.5716707094983055
  0.2128576224014655  0.5000032106948405  0.6418650665173777
  0.9293198417039806  0.3570627815702689  0.9291805433240633
  0.4290358070376611  0.9974300923383516  0.8588546224272271
  0.9319882143361318  0.9302278488832638  0.2155403500678707
  0.2137665853782283  0.3587116401521347  0.5003442305497076
  0.0009085522598309  0.4278081103622682  0.1427092434171411
  0.7176901950389869  0.4287246521033384  0.8567296920693327
  0.7929963276370233  0.7887754745441063  0.0741974213442136
  0.6445969391514673  0.5020462252690876  0.2133136682199659
  0.3578794662555346  0.9290009923199593  0.6431311812512787
  0.4276146579091046  0.5718743730433842  0.5725753426660256
  0.2868648569800166  0.1433470581317512  0.1420844498766441
  0.8595571358508839  0.0009551970420858  0.5711163933755917
  0.2840669747913001  0.7139274298065430  0.7131408784160408
  0.7879631114014519  0.9301046157383922  0.5005038695564855
  0.7159811787694618  0.2863720839725716  0.4281211615810113
  0.0708726513508866  0.7857024978389046  0.4994025009358585
  0.3569079233281736  0.9290834047821774  0.9286287955851849
  0.6465500010752389  0.6437248452937602  0.3582971673038718
  0.2835667993747953  0.4285172294951425  0.9978095505570479
  0.5689799705046870  0.5888710900303511  0.0019799032448109
  0.7159457054807693  0.1439851753679835  0.5717161331050034
  0.6523855656215358  0.7919667388504683  0.2217563097966006
  0.7851728902339198  0.2143717744389455  0.4984970929130216
  0.7157419082859902  0.1440196757054321  0.4278606021252964
  0.8570766502344179  0.2852745394337559  0.4288162210900980
  0.0713972042045440  0.6425667829438102  0.3578016766535138
  0.1429690138690126  0.8587949188573990  0.2863228311113304
  0.5007627777507511  0.7815223409487728  0.2113794185918419
  0.0011745735972229  0.1440733497656616  0.8572698312830482
  0.7187478284831325  0.8600253078199070  0.2887737771571259
  0.8631547460190288  0.7175650164432720  0.1437370701398608
  0.7945933571377694  0.6440206373232886  0.9297584349593035
  0.4311712173762057  0.1431244058803116  0.2874021872723567
  0.5010790467776736  0.3582957870767927  0.5001997563250304
  0.7868868233641050  0.3590206845126949  0.2162402640281430
  0.7155764216339456  0.4289614400410451  0.2852497658831917
  0.6457765553518205  0.0719554483684573  0.9292175997489710
  0.3576264995179752  0.2141713787860315  0.9289405890939415
  0.2131308879408511  0.6434406818851804  0.6415549588141032
  0.2834372477049076  0.7155026207470995  0.5698322520180333
  0.8591955338060664  0.4285365543076088  0.4281012598506548
  0.3546981024644654  0.6431178087568534  0.6410193298380429
  0.1415813472253664  0.5720793201385397  0.7136959769653189
  0.6455594419550719  0.5009861613672517  0.7862275533288280
  0.3508738022239877  0.6415168077600920  0.7825698604105543
  0.5744004166824419  0.8558846189057218  0.9995674324012430
  0.2138206253238254  0.7844894626479714  0.6427759124742837
  0.5690337517455981  0.5775071792854276  0.7168628263127046
  0.7160579488391569  0.8568946289240581  0.7135466113841179
  0.4300759448273631  0.9976466272063401  0.1419531828289711
  0.3532160799020330  0.4992499256970858  0.6401699945385420
  0.4303237500349430  0.2873149339840088  0.1422425675211065
  0.5015147133256875  0.9291881393989027  0.4987844895678520
  0.7151677846321598  0.4294522156111066  0.5720855451827348
  0.9321653252316653  0.7883321602667051  0.0746476376106422
  0.1431995975612096  0.4274747582483241  0.5719720690375185
  0.1410093343055601  0.8570349200648839  0.4300649445347181
  0.0732760164825640  0.4983565863259435  0.5019912016483516
  0.2128730502402604  0.7861596425367494  0.4997044017679576
  0.5047718458985865  0.7803609047928574  0.0705227040173466
  0.1430249637103113  0.7160329752820435  0.5707647327836229
  0.7239110415321482  0.8617023959153720  0.0052407142923102
  0.4283311266140972  0.1434746760746340  0.9997823692244985
  0.8576325167699924  0.1436086850874180  0.2866169811261178
  0.1419393875770947  0.5698126283758637  0.8562488929875894
  0.2826812070966744  0.4281337540983878  0.8572509697938310
  0.8619641981261532  0.0016435989987608  0.1452080413640775
  0.7150384518418567  0.0000974466809146  0.1438777994640661
  0.5009899898159328  0.5005880174748703  0.3570920423984959
  0.9307386253159783  0.0716294781661374  0.0713351341788395
  0.4981808407835596  0.5046604529917563  0.0700900888052158
  0.4994338360999026  0.5040675351051503  0.7871468636286848
  0.2135241375664381  0.6427169742597271  0.5012418578508064
  0.9310293362263903  0.9295588749203904  0.6428313263631210
  0.2805661012298418  0.5709705978678525  0.8557697579752390
  0.7145981502743219  0.1417737826488715  0.8575674822498714
  0.4306502947283464  0.9997653239518300  0.4282027611740679
  0.5018778263365834  0.9259613524729063  0.0712216392676321
  0.0713586287899265  0.2142098331749202  0.6428762365681402
  0.0717448255580678  0.3576551548084332  0.7850253425322465
  0.1425812724067340  0.5723318042048351  0.5707634843866743
  0.9304307247400446  0.2140374201074522  0.0723935732675801
  0.0005171865845194  0.7165928179192921  0.8546115868869746
  0.1412527935820589  0.5709377164566709  0.2884041785416940
  0.0707027737276016  0.5003453208261455  0.9273660570810026
  0.0015513899530529  0.8553360046783505  0.7134056151984294
  0.0022402302165276  0.5694233180347726  0.8548559238206480
  0.8578608517731603  0.1445715143835083  0.4311628024851898
  0.2162083748185804  0.3563229430923864  0.9292620463045658
  0.0005895773272837  0.0012025490487860  0.7126067782949117
  0.6442986251951994  0.0711736295567912  0.7864744197420971
  0.1434081468242105  0.1429978744320286  0.9995829187378332
  0.9311828465434177  0.7866008441122889  0.7832149806440318
  0.1408010167431254  0.7144353444118375  0.7127134094874409
  0.0005043320459647  0.1452824482452622  0.5701951479105238
  0.0724614081442769  0.4984651571976117  0.3578357371995224
  0.9307161653183124  0.6442171210936604  0.6407477238385252
  0.0008199178489877  0.8589010427632122  0.2870630257408189
  0.8578311699275559  0.7125101421532132  0.5721054729719888
  0.3507938148970728  0.7892252299010973  0.0719518424114888
  0.4204181928834795  0.5721005884005858  0.8528589424896476
  0.4979057018143999  0.6423306145015906  0.2189439755007432
  0.0715326534552622  0.0735330121472914  0.0708679209372052
  0.6435249428671962  0.9282641124943952  0.3574333855283929
  0.2112570237399044  0.6427072937498564  0.7842035363749150
  0.5003350665156806  0.0705177103518598  0.3566236018675084
  0.1417645623035468  0.7136251242861871  0.8554551657805413
  0.0022336104543707  0.7145051435848478  0.2878277723924929
  0.1422919769045033  0.4288615637442149  0.4297966625483780
  0.0708032442302585  0.3607438215374714  0.6425262422573078
  0.4280975039042602  0.2867396723758842  0.7137469613639214
  0.8561229577737538  0.2878012323267773  0.2874306290141879
  0.9301389633560482  0.3574647148291808  0.6419053922331716
  0.0017687425220456  0.0018216915581170  0.0018154898650617
  0.0001956691668573  0.8583816525610447  0.1449019934299646
  0.7178674757954699  0.5714767238303476  0.1445894837538894
  0.3581566341714111  0.2146217752816329  0.5003398371833967
  0.5711980544192404  0.2863904177501518  0.0010802046727667
  0.8618655331899986  0.5715282645664210  0.1430712281072695
  0.5718585891839505  0.9994888886244945  0.5706238169241126
  0.1429155381140136  0.0014650991947759  0.1434049217272496
  0.2835453540773618  0.8596718171273966  0.9999059438439218
  0.0717310642940325  0.9286048816730706  0.4998985494286059
  0.9301852548979964  0.0737179955991913  0.5002366687630216
  0.0018271587051017  0.7143921570355022  0.5720755016720019
  0.0709839193767652  0.7851541987896039  0.6419319152163013
  0.0714902147220394  0.2122072114212666  0.9297114217381852
  0.0711751770332357  0.2138614227233935  0.4998745050644489
  0.8593186473516342  0.0014730382457796  0.8557179668837435
  0.5027195579262158  0.7815692236657622  0.7882587304869122
  0.0003564894893120  0.1434905060373418  0.0020521058263832
  0.8582747989138100  0.4273326724375103  0.2873701191894704
  0.4998153823568642  0.3582367991661444  0.2132769863117831
  0.8595238567235872  0.0022533669444791  0.0014890302703969
  0.4757147941922774  0.6460576192503171  0.7660704430666532
  0.7159393788577293  0.1426708379241671  0.0002153745929712
  0.3524144371823174  0.4977647081981626  0.9241664045059248
  0.3573864695361556  0.7860476825510134  0.4996291899037904
  0.4981338436893691  0.7771538713238907  0.9325206546298825
  0.2837227299190300  0.5711831259177951  0.7122747985967650
  0.5720908814310344  0.8578158882982386  0.4275090622482462
  0.5754695536332839  0.9999466696814617  0.8584413710403361
  0.7889034343493269  0.6446445235488595  0.4983912511497819
  0.7855703010402847  0.2128558731954623  0.9288397437442570
  0.9306076500627566  0.5004358787008327  0.7854780341659201
  0.0017148386118676  0.4287316163611162  0.7158467361593102
  0.6438939534584761  0.7825503519892689  0.7843840447537990
  0.8623868302273900  0.5711180966781766  0.8563401181985908
  0.8599364817458923  0.5713840223239522  0.2878631567845484
  0.3523709869466331  0.7885086052012038  0.7844012820609857
  0.4312771675719550  0.4292481664937129  0.1417450413820084
  0.2852790762932229  0.9998743682008627  0.8584582890493451
  0.4988745053544526  0.3578286242943947  0.0715386860199220
  0.8582374321730952  0.1437226126762063  0.7132902645603306
  0.6514990767787984  0.7901737064228845  0.0722228974981144
  0.7160516201429254  0.7141151593991810  0.4291511640766071
  0.2848540955787631  0.4273715400531080  0.5722033799837538
  0.2862358046965035  0.9998848485586131  0.2852007948306213
  0.0716758240074233  0.7859006109366811  0.7855990828110964
  0.2137061658065032  0.4995963646940640  0.7838739525660204
  0.0006873307483708  0.4286981849730749  0.4289984242380491
  0.2133284151387648  0.9312059612122172  0.2153761475606925
  0.1423059113059643  0.4278694882114358  0.7145482969436513
  0.9320111504418130  0.7870106557347490  0.9279749499636035
  0.9274824909616161  0.3571908588033402  0.3579196253334903
  0.3577712982872542  0.0715930298606144  0.6433784909485127
  0.0726336785725907  0.6429656660949430  0.6410768172810359
  0.8601209426558198  0.7138214129431457  0.4293695937709166
  0.0723116749170635  0.9272611392859083  0.3573687952671508
  0.3594040020049019  0.2132424447696009  0.0726757217653006
  0.0712531351415925  0.6433448736510869  0.7862492195542189
  0.0028282759061165  0.8581368624796848  0.4299879855984018
  0.0712353180772972  0.7886492480901753  0.3568988098589674
  0.9294226379943693  0.2141156982007911  0.4988624845850886
  0.4974274256118794  0.6421207811013711  0.6406819684226560
  0.2135224925384747  0.4985074086820411  0.9265707115462309
  0.0001521530506350  0.4288266218865928  0.2894102987518808
  0.9329013958614971  0.7870126508209258  0.2168575352288123
  0.0718557445153347  0.5002407724589827  0.7837014216265085
  0.9304263672437627  0.6431756346833042  0.0738711776375122
  0.0002741308117949  0.1442440439706540  0.4305384142253076
  0.4286307289079749  0.5718741583110757  0.4283822312865986
  0.6438623982976470  0.0722748400583789  0.3575214268521029
  0.6445909825991678  0.3579362500290624  0.5001612246440215
  0.7890098955212288  0.9312577738602383  0.2154597307786435
  0.6471897573754349  0.9300558424107574  0.9298542717437001
  0.3566408107013471  0.7869709508695882  0.3573778455981694
  0.5722180562649811  0.2867440688712207  0.5713542377410150
  0.6436735034461500  0.0714793295200258  0.2147224841375909
  0.9306506459762535  0.6429587765463263  0.7852934438731424
  0.6478658657488150  0.5002598140177887  0.9321882946201472
  0.7169031456760754  0.8583059361936840  0.5700292272383880
  0.4149864077949371  0.5635741008549210  0.9976236529363467
  0.8605868970605601  0.5723593897507693  0.7125142967791573
  0.2804780204576885  0.5690099619575096  0.9987022039337525
  0.2812137050886372  0.7147536514530689  0.8559556644701827
  0.6440481428480327  0.9284523754641845  0.6426558682732515
  0.5721834210267427  0.7143281907853867  0.5696754925654340
  0.2806643639638447  0.7154365822878930  0.1446222190919750
  0.6459574239979127  0.7871171768339875  0.3584569601547521
  0.6434450078368797  0.9292262514525255  0.4995154707730512
  0.5014167937383797  0.7864106985998361  0.3564920552806101
  0.6452242270442794  0.9287200019701123  0.2152147200632757
  0.5966744287343912  0.7267756858484075  0.8771233906194844
  0.7880773930978231  0.0712300635403998  0.0729140252573604
  0.4291516317934362  0.8548516586037048  0.1412240952272280
  0.7904109507435074  0.9315794041526303  0.9288903984494422
  0.5721992546879401  0.8577756569040812  0.5704680906963299
  0.9298905486098602  0.3570671285473348  0.0723807011506182
  0.8607235256087140  0.8592627441286084  0.2870697176188470
  0.7911347674804713  0.7882353602625187  0.2175258633597474
  0.8617045857124734  0.8590120560105312  0.1456807213804075
  0.5723650060999224  0.2853210259588939  0.8578034247646313
  0.0004205762141046  0.7153774601194878  0.0007370249744765
  0.5712394631989659  0.4316337115470257  0.1414956662457124
  0.8596926173114142  0.0012209193041884  0.2870630306683453
  0.7870299120735778  0.3570969948975686  0.7853793958116190
  0.9323149050214782  0.6433435841769306  0.9273898945353466
  0.6441674573506638  0.3583606489973221  0.6431619903575233
  0.4287771756771974  0.2867208952960622  0.5712677740799232
  0.9297766989867302  0.7850870827808247  0.5004241172648656
  0.7147407386170839  0.4306879462374602  0.1437585247380810
  0.6422483304201100  0.5057390522146878  0.0706413523574970
  0.7865090614121339  0.0726769933583572  0.5007615401332979
  0.5720769735201994  0.4306850706487897  0.2846055636349866
  0.5710308409504281  0.2876511504905995  0.1427865732386809
  0.5724988444321804  0.1422533320655129  0.9998274451769686
  0.6441922442452187  0.2137960159872225  0.9296521860335403
  0.4296956279140187  0.9980883087542776  0.0001796880331176
  0.8602692922346153  0.8581917001994812  0.7128010920910048
  0.5725147842472881  0.1424847811474017  0.7151409737420524
  0.6442355579519022  0.2148426894622165  0.6428163190648648
  0.0008486184876656  0.0011764337797251  0.8567677459728712
  0.9305035939630698  0.9314559123081521  0.9290906131271603
  0.8594900985850282  0.0010888677010230  0.7129557563375453
  0.7884174896454120  0.7866317697057861  0.6416395973216741
  0.6019435144735857  0.7262423663456679  0.9944447725064042
  0.6447159945540007  0.3572916770446806  0.9302994941500689
  0.9304536981470619  0.6431871751439495  0.5000288463693884
  0.6427641429776796  0.3587759143567654  0.2143515240218481
  0.5725876663229525  0.8552097286127160  0.7151270501590711
  0.7925295605597874  0.6439145044476289  0.0746400376092013
  0.6587323040690384  0.6417116956829447  0.9316761666749480
  0.5721480794070581  0.5719944305199907  0.5717171199921480
  0.7232309053888747  0.7183925678598527  0.1461485609769088
  0.7169703255542723  0.5719197725339162  0.5707059758876274
  0.5728339745958408  0.7145006019883091  0.4278448097714991
  0.7179134246543917  0.5706111348274870  0.2875356232843272
  0.7156783782278868  0.0006838658395034  0.2869788075633303
  0.6512386531214173  0.6411102092101122  0.2177885367581773
  0.8624149377321836  0.8594312552322111  0.0016019641471830
  0.6447287376071849  0.5003634041434422  0.3569637941908572
  0.7887541362676027  0.7852656828774705  0.4995986457711982
  0.5713686451244583  0.4191985702549466  0.8577803846327834
  0.4994704120114814  0.7874427950258036  0.6408255727299083
  0.9300805937678491  0.7857971728930964  0.6412292906024922
  0.6456740848424998  0.6419817002573557  0.6419007221693998
  0.0712819717637569  0.7864969075737780  0.9280818269024498
  0.5723382927694525  0.4300971533852584  0.5717860741948909
  0.0008082035151028  0.5714764015902430  0.0001010449245478
  0.7147836053996237  0.2868408130310919  0.1438853473348479
  0.4099747752300542  0.7184860140056082  0.0011490769210822
  0.8618215351000547  0.7157603564467532  0.8568540013159301
  0.2135950172227205  0.9295204959041515  0.7854973008397318
  0.5724124661819228  0.4298900905421595  0.4289154310892798
  0.3566800106953313  0.5006606140895795  0.5003402157519637
  0.8596167172385890  0.8584117593876237  0.4297217576514117
  0.7226730120132369  0.5711127913150955  0.0018286339938367
  0.7876693854868912  0.9294691150792540  0.6423045968372669
  0.4755535328610317  0.6417151597120508  0.9348147172157252
  0.8585121486295320  0.2848365790740865  0.0002660241836767
  0.6539264737895425  0.6439491309858352  0.7878389883842193
  0.8607293536844661  0.7147453123174059  0.7125104770666625
  0.9310806769156108  0.4999128930121485  0.6422432564358278
  0.6448913634467902  0.7864973603423352  0.4989989211318135
  0.7867311179600663  0.2141335003308415  0.0721711635746804
  0.7188214681013085  0.7152522697783577  0.2879742075318795
  0.7161722649939307  0.5719488865445738  0.4292019195307296
  0.8578880752322823  0.1433222348579778  0.8576010191548905
  0.7890268774517195  0.6429624901516220  0.3583921665355863
  0.7866868896791803  0.2146522259369006  0.2152759726370625
  0.8631207651004525  0.7164313420412657  0.0019586182135544
  0.7321694707227551  0.5708839659583871  0.8574990244270101
  0.7935782190913740  0.7900459948720904  0.9291257159844564
  0.9283240419092290  0.2145812338801879  0.3578859312498615
  0.7171276942977640  0.7142156420064332  0.5705400562686261
  0.9292430659509764  0.3570654860677177  0.4999906397800502
  0.7863059366184866  0.3579728080024053  0.4999594914435116
  0.6443654616190724  0.2147994697506851  0.4995810304296186
  0.7873095240493143  0.4996464534712122  0.4997449060671414
  0.8605938665201179  0.7149797804174595  0.2872003350497527
  0.5967593919742528  0.7220758282052208  0.1558704683860466
  0.7915767409218677  0.9323283123524591  0.0745613954976960
  0.5751700022630850  0.8557899784972420  0.1431924257119082
  0.7200294775972625  0.8593532130536714  0.1451178038479144
  0.8585792265807283  0.1435328670702872  0.0009217759488040
  0.9300050162554169  0.0721020284711372  0.9289695978129511
  0.6461535071760103  0.7873112567770445  0.6408679801866506
  0.9296078852489361  0.0725309916470738  0.6421410924589425
  0.7874451225022767  0.3576541402899354  0.0722642811929015
  0.0711844578108179  0.2150241623072841  0.3581392640667814
  0.4998533777702162  0.0715152876451175  0.2134987375223882
  0.4097610309806874  0.7169746212356746  0.8561218265106337
  0.3531073720519756  0.4965904084591541  0.0727351728853932
  0.3501727705941992  0.7899027326434535  0.9296058916223366
  0.3565110388981312  0.6430474735402443  0.5005567207306096
  0.2871342403949883  0.2857842384874184  0.1431502943182087
  0.4300253497837220  0.2862449081328104  0.4289330528022628
  0.3567395167496548  0.3577985682071834  0.7855422304168795
  0.3586681974229172  0.0714451978306385  0.4997891126075223
  0.2870611585945847  0.2862506390277988  0.2856464480984507
  0.3579638999050690  0.3577597212492592  0.3571638108083153
  0.4278083318900349  0.4298967462103709  0.9997951657578336
  0.4282576627832020  0.7151064621106147  0.4282226881905314
  0.1429702815600483  0.0014305212081058  0.8573336027006906
  0.2152028270588675  0.2140129482593535  0.9294031573807991
  0.2146101553447269  0.2152938090794539  0.5007387304020142
  0.2866454844028254  0.2864274816792307  0.4294783336234216
  0.2154947492801300  0.2149489809711463  0.3574645617374235
  0.2143884745966642  0.9293065473022126  0.3574802025877711
  0.3590768114158018  0.2145166162956922  0.3570153935707124
  0.2858326259569960  0.2865118480023214  0.7140474014213922
  0.2860541063700409  0.2854252028138609  0.8573788267150154
  0.3564530555122717  0.3576102775866393  0.9285944355382332
  0.1419732162034612  0.4278669395809463  0.8567232774169895
  0.5713620334783751  0.5808756997961386  0.1395955985804780
  0.2844794021509708  0.4266269600127539  0.1436433059068052
  0.5007605963641344  0.5010196116228817  0.6435575289224366
  0.3561917580540310  0.4995418552892610  0.3581415170010935
  0.5723556019027615  0.1431315019286593  0.5710876290711295
  0.2864477791358339  0.0002015904145723  0.5720690393605090
  0.8605094888255449  0.4280268487396315  0.8570120408786759
  0.7153924535143502  0.2872347462476910  0.2861062554938672
  0.0013696391591635  0.4282685181994115  0.8566004739759244
  0.7156678063196003  0.1431179283343225  0.1433670688991442
  0.0720825121036967  0.3560775705602288  0.0717767600204697
  0.6429452226349825  0.2152560092457707  0.2146895650110890
  0.5001817070739130  0.0711492980216416  0.0713266157147102
  0.6429273644104975  0.2144671434883822  0.0713680377068338
  0.5732380438306802  0.1418467420596772  0.8580223496368354
  0.7877594133394484  0.0720039462376282  0.9290151589694486
  0.0007882228468887  0.5711855650920301  0.1443346280507285
  0.7162885342496428  0.0014006590131686  0.8567145629381095
  0.7155430581122445  0.0006250130730589  0.7142063304921510
  0.7892267958353699  0.9307185488322851  0.7838259685171690
  0.9306760294382777  0.6429393799617467  0.2159180687082468
  0.0710864900890225  0.3573818064098768  0.2154196194520658
  0.9302522670170744  0.6427840131862558  0.3582714557920564
  0.8589558699757673  0.5724150135133956  0.5710744746536076
  0.7158230198306723  0.2854874356133711  0.0007675327353661
  0.2141439286159725  0.9292771996592448  0.4994918546746593
  0.6426845090376345  0.3587263562565751  0.0714968395742528
  0.7161951443615627  0.4292494086248903  0.0019233415951928
  0.9297078383950697  0.0725416426852646  0.7852132620233746
  0.7874734597846363  0.0718864242239378  0.2149682523674633
  0.7899820389990424  0.4985680638244496  0.7842287818025310
  0.7158751086889602  0.2853563658159033  0.8579056406266635
  0.9287698258102161  0.2148569637205426  0.2159167780606364
  0.7913448599633173  0.6442541047498436  0.7844778886731519
  0.5722479323369720  0.2863535597122072  0.7145558731894356
  0.7877573740061280  0.5000742030885038  0.6422061553799785
  0.8582049690758143  0.4286788766772651  0.5713613258637447
  0.7149319094948182  0.4297017357757889  0.4293440970336193
  0.7915376360919212  0.4978025084077631  0.9304684070487063
  0.7878463392868247  0.4994939168424228  0.3576677898056384
  0.6590484109569112  0.6459373179853418  0.0729252846416792
  0.7899582823215348  0.5002009269874101  0.0734173542787671
  0.7875177419617325  0.3574804781028294  0.9289369432938284
  0.6453304051122065  0.3574255235812193  0.7850939011089535
  0.8582279461799185  0.2859570432262893  0.1440220132739548
  0.7161099131435429  0.4292195729294365  0.7139212390750624
  0.7155737919975550  0.2867495416225510  0.5713888836881253
  0.7876420683930980  0.0726006101925391  0.7854323305386598
  0.7890503560759953  0.5005479604827487  0.2154783428907510
  0.7862762523273610  0.2145383758083285  0.6426374835043445
  0.3546653613301815  0.4973911973941115  0.2163794215646031
  0.8592838215534828  0.5713886419732702  0.4292523331766367
  0.7861560308929249  0.3574400875244395  0.6423235205429257
  0.8617476768171866  0.5724269407442190  0.0008263523030767
  0.0006463671702961  0.8583611312088787  0.0005109874293499
  0.6437503242451065  0.3581849848528820  0.3568397470448408
  0.2125663884874235  0.6423089696853977  0.3587038693004544
  0.1414158305811245  0.5705449209831621  0.1438161623025531
  0.2118157297708366  0.7876425638472133  0.0717514601342032
  0.1414218464468572  0.5703294564036440  0.9983996372242682
  0.5729820967490611  0.7151756459244060  0.7008913315891548
  0.8577123817999449  0.2856069532119059  0.5708021677572683
  0.3485442003736677  0.6415134817417079  0.9282903198022315
  0.5729581634934930  0.5719042325204293  0.4283511308498056
  0.0001994773807070  0.2859844589789268  0.2867135665898334
  0.1430232604165305  0.4277730289713437  0.2867491720948024
  0.2150359831906967  0.2148411187384179  0.6434159929817472
  0.2116411688745022  0.6423094644694273  0.2168017923396506
  0.2128261061230910  0.4987499026951159  0.2161953832226794
  0.0011910462014839  0.5704922219304375  0.2881296954376648
  0.1426604843810814  0.4276741315473068  0.9987372124121668
  0.0720557480238782  0.3561934165714953  0.9283155371901444
  0.0717867343714242  0.2144119170038587  0.7858979135654905
  0.2144867817086835  0.3568238625305863  0.7856232221620204
  0.1434241631639311  0.2852115246532695  0.9995259685807296
  0.2151786385671898  0.0722902903996498  0.0718601979670617
  0.2878154375625596  0.1431070529273401  0.2854897032139992
  0.1429691536588512  0.2861504751037923  0.4298821564860519
  0.1433416844743705  0.1441127749783517  0.5721713579512052
  0.2135251804686629  0.4992592269097816  0.3586245588345204
  0.2144158926816212  0.3577034574307221  0.3580110620060007
  0.1434255066875807  0.1436893399251062  0.7138447955841010
  0.0004616113515867  0.2850372313675190  0.9998521685679383
  0.2158962536759542  0.2141367488757910  0.2139180643088461
  0.1435094097333769  0.2863896502179121  0.2866672548885085
  0.2154608884418349  0.0715302307490750  0.3570591723489219
  0.1424156559991783  0.2864709291815553  0.5722252180456494
  0.0716451002921385  0.4996409288607059  0.6422718547614120
  0.2149720975254862  0.2145930803242795  0.7856741352791878
  0.2864428245575150  0.1426324735495392  0.8582025491940197
  0.2847698334897670  0.5716546528813163  0.4295090889377209
  0.4214949592800883  0.7237248651210185  0.7089516131738850
  0.2863154896607624  0.0000964603941895  0.7141208117442870
  0.9302006492115508  0.4995677112600169  0.9285469768668692
  0.3582064610729898  0.9286425369048036  0.3564538503855696
  0.7871412802598470  0.0723268782291636  0.6420387367708440
  0.5013833111599055  0.0708952258408594  0.4994652355963831
  0.0716270275638863  0.9303256521805270  0.0730794949413732
  0.2873443562783347  0.1429751436896916  0.9998931297795134
  0.0713998756221292  0.7874793626479744  0.0727676072359159
  0.2139162539943971  0.9291602850511376  0.6424185240158347
  0.1427999947201837  0.8570840086663001  0.5710048555420927
  0.0723758436398445  0.2138346082805147  0.0715036462200825
  0.9299926633659453  0.4994731742135908  0.2159428016578462
  0.9297003771225630  0.3575088662952581  0.2157515417848300
  0.2148516833097159  0.0719784408358078  0.5002898653873775
  0.0721020053877492  0.9297855282799435  0.2150667647552942
  0.1432585266279725  0.0004555813916188  0.2863810885082816
  0.1430563506170919  0.8587075925103139  0.1447860715542222
  0.3537539539844541  0.4980291899247207  0.7851275305202617
  0.0008502835642406  0.7144236902620037  0.7131270735512183
  0.0005640295437133  0.8579053011467316  0.8561776590076955
  0.1409516531743582  0.7146857411308453  0.9996870505847458
  0.2120700644234731  0.7870724973392739  0.9277924172812461
  0.0709842282566809  0.6428904827584001  0.0716161869779095
  0.2137296600584772  0.4997320902882174  0.5006197376487886
  0.2839559527467516  0.8584539279758554  0.2861009286856752
  0.1423595024718255  0.7147130578528645  0.4289975127021114
  0.0712790875701040  0.9296732147067149  0.7845425922087437
  0.1423548970388572  0.8572478195591944  0.7127420139600654
  0.4980792025439594  0.5068124585668266  0.9280650114073928
  0.1417208869426511  0.8587991898207413  0.0003764492836290
  0.0714937904443434  0.9303463396278188  0.9287327464779292
  0.1421657795924496  0.7148606570152557  0.2879844407662965
  0.0718621171069268  0.0723320036351452  0.7855873636494813
  0.9297735625191024  0.2134860132303009  0.9288200168166458
  0.1430384203834239  0.0004061529094916  0.5714415896600140
  0.8581648513438710  0.2854383485754821  0.8578686817358578
  0.1432519971333390  0.2856525554515690  0.8572663680832092
  0.9292024178699896  0.2148824780068667  0.6423168706332402