Cr  H Ni 
 1.0000000000000000
    21.1200000000000010    0.0000000000000000    0.0000000000000000
     0.0000000000000000   21.1200000000000010    0.0000000000000000
     0.0000000000000000    0.0000000000000000   21.1200000000000010
 Cr  H   Ni 
 259  35 605
Direct
  0.9139735468033630  0.2494199557157924  0.8333288765224728
  0.4958687149721111  0.7496235199689188  0.7504175573974642
  0.3281007117802002  0.9177949436640244  0.4155211311509470
  0.4186192637552836  0.9132809728703164  0.9989549645464681
  0.3274275968539937  0.0804594368407200  0.2512114921571001
  0.4131365409897152  0.0836470665124007  0.6666449651348942
  0.3277864570509446  0.5822169326272235  0.7516827422944540
  0.2468543401915054  0.7501433308446398  0.4989889194751583
  0.4957252140157123  0.6659791714950970  0.3325310010513104
  0.3289630368612377  0.5832201903453972  0.2496734961086204
  0.6621433784558377  0.2492089488462604  0.4171200634173171
  0.4960189938832362  0.1668260519812112  0.1693086618944556
  0.6632838844172385  0.9997551132162399  0.3339416735754682
  0.4107934230531265  0.2508593471591440  0.1674722485241986
  0.4129589390656289  0.0845911699672935  0.8329406164669827
  0.3292143968611566  0.8327609979214561  0.8327609053960454
  0.8344343210845876  0.9170427365418529  0.7475091825237564
  0.1616077253402334  0.2507888128598856  0.7495125027313384
  0.5818943906510774  0.9164971784277850  0.1682626540347516
  0.9131633593346804  0.4177996305535160  0.6653089318764658
  0.0805318962095809  0.3331299374100397  0.5816882985482388
  0.8291566639501101  0.3377204405441888  0.6646767585736358
  0.9127105313443463  0.3320630784992001  0.2529745506668561
  0.0775683388744177  0.4980545262994894  0.7478582881945229
  0.3308669372074140  0.5832294672259851  0.9137296729975917
  0.2454620144353142  0.7497911638860930  0.6671881610537089
  0.1630292254313439  0.5827440588855785  0.4168072910410442
  0.4978863718774405  0.7504930486324498  0.5828641690321855
  0.4948337931655226  0.3337829597445649  0.4999680486205995
  0.9993498269804492  0.0013321754621319  0.6643779343809831
  0.5834052193208926  0.7493618443910667  0.1670478111972582
  0.6625730292203724  0.0833998346826041  0.9202441450031126
  0.4946136959756821  0.2530336542984488  0.0856027637364276
  0.2453813267103626  0.7490657180119749  0.3339585169713143
  0.1626068063275512  0.5833405400997712  0.0847750538669757
  0.0800284925662066  0.6671425631867512  0.2511111413953396
  0.2430010305918988  0.8342340109522267  0.0852954567449957
  0.1611355523595913  0.5854260054912330  0.7478576243388912
  0.2470278834600468  0.4169766214990346  0.6662965823885152
  0.9961991783038212  0.5833277490211479  0.7485593226945401
  0.3299560373694382  0.5838106980556624  0.5832220116401095
  0.5780841655924815  0.5840150061935030  0.5001253932690389
  0.3327533777524029  0.5009080176254858  0.8331568266186242
  0.5787578493802338  0.5006659071295370  0.5811082665989283
  0.4121103670010521  0.4175857828054253  0.1683732313452435
  0.4130167657918408  0.5842494169006883  0.8365163283706688
  0.4128853590587850  0.4164921539766612  0.6659687506661084
  0.4122904102120070  0.4160962816654622  0.9992630593081766
  0.4961220536898532  0.3322062967792778  0.8314008425988532
  0.4959853383099845  0.2517241351884239  0.7510009343877201
  0.5797292836994651  0.5009942767399640  0.7501913241992091
  0.4957546838331325  0.5057510058180295  0.3334749797160013
  0.5795387805640007  0.5023466282882538  0.4175543874541143
  0.7477475314229080  0.4189817391407683  0.3370969858669992
  0.5803263552174720  0.4168812180972948  0.1700088001579047
  0.6617565105605612  0.5841702194382964  0.2537897768566891
  0.4970884769146139  0.5836201472024113  0.2506769652723068
  0.5800468656356843  0.4972421116599349  0.9168554352341263
  0.8337443743281702  0.3330221172838844  0.9996552255505652
  0.7463224874977539  0.4980768082411502  0.7489726532241865
  0.4957261863760134  0.3321223791517099  0.0002692503629052
  0.9985742842294418  0.1670594986380066  0.1687239392337915
  0.4104306682994571  0.6641500685702352  0.5829420154035150
  0.1629017273252469  0.7505860189826253  0.7492056419112443
  0.5826163632054436  0.5006296876832431  0.0845825296492237
  0.7478972360370975  0.7510656205787948  0.5003926112639204
  0.3286613000539051  0.9994301849877641  0.3340490971689774
  0.3279844951095322  0.3332451790119327  0.8332829610189053
  0.2464813367575429  0.0011639548669044  0.5828723223589906
  0.0823805012051066  0.4986544550786810  0.5833137705143696
  0.3290780220314568  0.2498092829243582  0.5823385378997844
  0.3290145538256630  0.5838194596696172  0.4180876868912209
  0.4136187733448510  0.9968899336357414  0.2496704352211986
  0.4096505239993308  0.7483252865286664  0.1689532242345295
  0.2429031841112117  0.9155088050740471  0.9994404126239378
  0.4115804206207653  0.3339237836764523  0.4165770373238992
  0.4945911552862990  0.3325519951706759  0.1675085192396671
  0.4950400023201508  0.3313311490998160  0.3357437516454438
  0.9941711165217412  0.3339514452065794  0.0003978809393237
  0.3319386282681774  0.0827563235113483  0.5842950242162724
  0.3287908356642801  0.2493008051541794  0.4171230118310478
  0.9186317551283957  0.0009592760021158  0.2537646282894864
  0.0799141869730106  0.0000757799712106  0.2513460097189608
  0.3275036825884716  0.8327034584996844  0.4989097820034032
  0.3287902508584403  0.7518376499905849  0.4158557108322052
  0.2468261244958685  0.6671861487394564  0.9162573220017104
  0.3292312122392672  0.2504520977577938  0.0828190334809371
  0.9961278695226169  0.7503032072013053  0.4179862863379353
  0.4115940101953370  0.1665066509587786  0.4165337251710214
  0.3299130492558229  0.0815856781862645  0.0830602563440859
  0.2444072740787254  0.9160187518354546  0.1660056750471430
  0.4961795783141819  0.1661743311721128  0.9984802302468483
  0.3286410992376042  0.2511116634526797  0.2497872590684307
  0.2470467174913101  0.0827200639291794  0.5021281422564009
  0.3296157185351692  0.2521417537626143  0.7522696334679682
  0.1629062992891184  0.6671699204890158  0.0006576085983380
  0.0786696368163797  0.1669605099623757  0.0847124795521653
  0.9138555015120013  0.2487389727382974  0.4975568919814286
  0.5778484596257845  0.8333858556119262  0.4182982232406073
  0.4971248169727742  0.6646685132155028  0.1674716396581590
  0.4140812466399524  0.9175601128514494  0.1696416996425830
  0.1629719230804070  0.5013244212442700  0.1657428400938576
  0.1623724705052990  0.7483029060309756  0.9180318467098253
  0.5008482363740256  0.5830370069217031  0.7497912116384940
  0.5799191021981979  0.6676128437116224  0.7507830167720622
  0.8309957897248542  0.5015351784625475  0.3356951405984103
  0.8296310116433878  0.3343437582293083  0.1696694624670571
  0.9966981281902566  0.1678993630793157  0.8323531759732863
  0.8299536684808901  0.1658911343828246  0.8325790345666692
  0.8292764307996229  0.1636691870460284  0.6658130633144613
  0.9136715641622104  0.0837830895954007  0.0017548970888793
  0.9150521942597679  0.2499715104091244  0.3329468250800115
  0.8303011897909131  0.1660408774067125  0.1689725611423213
  0.6624620386675194  0.9173104280103572  0.9156851865357715
  0.9139690775895885  0.1676989898208101  0.4170895761158502
  0.9122753236624465  0.5020514866031478  0.0857601663592119
  0.7484790913133686  0.4156220147817637  0.1709915151875539
  0.9131563856561968  0.5006854990785481  0.2518513841088218
  0.9132734984807548  0.6671896767027986  0.9170769558167823
  0.9959769643689945  0.8323121049881500  0.8327067759194535
  0.8316020239191372  0.0842359562871015  0.7498803901152670
  0.9977803011696952  0.8313022188099085  0.4988015963424746
  0.7463493897654694  0.9153333628695866  0.5016170033043678
  0.4936536765888024  0.0828422945845653  0.5838428719407784
  0.9142723173573355  0.0843193186131963  0.3335496849267887
  0.5796295432255157  0.1665376903315314  0.9175163759956853
  0.8294026082099367  0.9194947709242977  0.0847354708032430
  0.4144213190616943  0.0854062009593659  0.9991216899699663
  0.9131309495897842  0.8336992441742783  0.7486603955724767
  0.4954452075595265  0.8333389104205355  0.4985980295863364
  0.0785802762516252  0.9170635059770675  0.1674844605619223
  0.7449393161404789  0.2498825166176334  0.4994304742711441
  0.7453033858154287  0.0812487522260340  0.3320037942414640
  0.5735098405796760  0.0809858583749266  0.5017663669514258
  0.6663216204602672  0.2499786992382545  0.2520063295261337
  0.7477791686150635  0.9993568220975152  0.0842042187546608
  0.6644367265776736  0.2516101102194656  0.0842775157569621
  0.7466939079176006  0.9982539323397319  0.5832429975230502
  0.7468317860688444  0.8334291748737788  0.4200044660904247
  0.7475052033384904  0.0000671625789860  0.9165108546828638
  0.5793763469164608  0.8325794212768450  0.7503909737985374
  0.6647175665967275  0.7510755885937745  0.2497473649197738
  0.6639948462616151  0.4163803674320776  0.9166083022372962
  0.7461101333030700  0.5829583258034879  0.8338341004057294
  0.7467815846426104  0.4185703447284394  0.4958769435669473
  0.5817664835305723  0.9161388849851488  0.9990809148820131
  0.8316491918440198  0.7488927837558569  0.9157309152125123
  0.8346479126134251  0.8336194627773180  0.6680735492373834
  0.9159342291359739  0.8321663891071850  0.4188049802078361
  0.9124387455507154  0.7498638403575628  0.1684278011932932
  0.8307689114996551  0.7504899354930462  0.0830072418893145
  0.0805168011301016  0.4166015548927064  0.6652784647522473
  0.9123606291059254  0.6647688908807166  0.5850399904627704
  0.8310439587922495  0.4158681539928314  0.4171143628486351
  0.5811985251939544  0.0842345677712045  0.0004185633370112
  0.9913853388594026  0.0008211499092715  0.0003320299971237
  0.4960712672527651  0.0004553745774662  0.8323289670561073
  0.0789769245757448  0.8341609531493726  0.0831816546297413
  0.6594872913269567  0.8320983811803231  0.6666056967659580
  0.9955162652381366  0.8340974519516745  0.0015105749141489
  0.9946873910933671  0.5831959169466943  0.9163154420707822
  0.7458452008723934  0.5014508223030668  0.4160929350515063
  0.2467047940238182  0.1667029321895610  0.4164686053954745
  0.8312396957289493  0.6671725846772479  0.3349638885303721
  0.6629146670353333  0.1669633720512023  0.6665115241620924
  0.3283813636268110  0.6694187333816586  0.9999357529448615
  0.6637169355833044  0.2509964771868026  0.7482220450823387
  0.6654802641299887  0.2513675188627633  0.9182998050205406
  0.5800867389109650  0.6681655725716900  0.0847377444899157
  0.8300945047707041  0.6647820059016750  0.6665851682454418
  0.7477514119725474  0.7502680807030051  0.8328245867550752
  0.4961415060995265  0.6695396796244862  0.0008566002321933
  0.6631903433515578  0.6660122555660504  0.6659027522563152
  0.6621937360997551  0.7490920162582214  0.5830420795298804
  0.4131274714867615  0.9167144417055997  0.6661958317314167
  0.5822902286114173  0.1668338376658380  0.0837399044807170
  0.4127979388990174  0.9181030017219143  0.3343858398912994
  0.4990449305228633  0.9991225509591111  0.0004422112022652
  0.7466529684090523  0.5838056205867170  0.4990205115184066
  0.1616770541249079  0.0831278227469190  0.0833435075638458
  0.0811030109903998  0.3345797986498057  0.2508830048515012
  0.6629185717814474  0.0843153882251410  0.7451422779650436
  0.1615286687697708  0.5002753359618871  0.0011603838388565
  0.9140119382541919  0.5014258978253463  0.9179723842827873
  0.9125741607352004  0.5021541279620241  0.7479789597819083
  0.9143324200358280  0.5825879764648266  0.6647904485231492
  0.9971814406840693  0.5839038095703728  0.4183956572572354
  0.7427911017403223  0.2506199058297818  0.6665988274627150
  0.8303932256904624  0.1645752397946935  0.0016344934744532
  0.5783766948553251  0.2493688717720043  0.3380985886097375
  0.7425141244144912  0.0016061405971856  0.2527838263713170
  0.7462005505760249  0.9176090956162247  0.8369972010883624
  0.4946566842797384  0.9994191212595714  0.6666854168127881
  0.4967224839735037  0.0004451451061232  0.5014266447544449
  0.6640839566528648  0.8353723030328256  0.9995584542546716
  0.6633326364019384  0.3340978926166188  0.6648159371877028
  0.8342445108228912  0.3330663889511524  0.8341592858058000
  0.4960398059358307  0.3351025691565095  0.6653097252881401
  0.7452259221769104  0.4167954673381031  0.6665378193648269
  0.5790069466030960  0.3357265029598434  0.5815485254355097
  0.6649466222474020  0.3324423894823196  0.9989375106763287
  0.7461331906920733  0.8321163379951787  0.2537824330142806
  0.2451214289410800  0.9165698766137172  0.6677691907189531
  0.8313260940435272  0.9174901525146870  0.5828152867439438
  0.3295330393115963  0.4179108911026914  0.2488746909369358
  0.1623698922099812  0.1679712090606905  0.3327641697805058
  0.9954456545585880  0.5823922749817468  0.0844551942936725
  0.0794413707240743  0.5013903503119550  0.9174447071633396
  0.9941747382346208  0.3337225899960042  0.8352163659838201
  0.3281720931325228  0.2495189662821227  0.9175332807543982
  0.1633916597200581  0.4997610659012877  0.6629685346295617
  0.9963228744043066  0.4170913935511701  0.4174468951292697
  0.9129979897319060  0.2488027878982772  0.0013328728047183
  0.9973318896373073  0.5001957503167882  0.5003791262019985
  0.0803424479479427  0.3327081258749859  0.7488822034512492
  0.2442282883778311  0.4178805489891839  0.9989995570021289
  0.1633289635708849  0.9169916081063807  0.4168760404014722
  0.1623142131080467  0.0833681456887067  0.2499643680717600
  0.2455913018787379  0.9167625568192026  0.3332433531229954
  0.2471228659369755  0.2496418762086316  0.1669854575905835
  0.0805236249123551  0.5014951641497699  0.2510159854622436
  0.7467195368171158  0.5835142415279400  0.9992706798613198
  0.9131141254829001  0.3332187025471348  0.9176870428004292
  0.6638415160501193  0.5830865844916563  0.9188626983266139
  0.0793319860251991  0.3331444372056463  0.0838287393275184
  0.6650231382486985  0.4169371383836744  0.7491165103952520
  0.1600150369499750  0.4177832989353464  0.9196314514794005
  0.1637867087883398  0.3343811165535380  0.3339703348644515
  0.1633880860998649  0.4173140138225744  0.4159234294661606
  0.0815970777113631  0.6672445919173436  0.5818210265381299
  0.0800245777936064  0.0004766169254948  0.5836007974555176
  0.2467873556649617  0.1677973325444306  0.9173820717806931
  0.0797037065038241  0.6671936286829381  0.9174631489358872
  0.9960203395919350  0.9992987128088094  0.3338675949231046
  0.0771456811055654  0.9127336114217680  0.0006115885278210
  0.9956571450501071  0.7504135856333242  0.0859149830345632
  0.9129727641209477  0.6657546024613409  0.7472716313145161
  0.2475155243473178  0.2497440274035206  0.4984094688327855
  0.3294216090595336  0.9993329811348882  0.8339098300385225
  0.9975099240714527  0.8326150601900043  0.6660085455421580
  0.2484864994319280  0.9999447613637283  0.9164139483290447
  0.9955129824408071  0.7521490186132573  0.2500607867274108
  0.6657939801889550  0.6664421281964190  0.9994445024835531
  0.9138511395166703  0.8315414419293927  0.2508907586338603
  0.4125654925061377  0.1659672491931379  0.5849530757346068
  0.0013847782840271  0.0006904113832905  0.4997466924140354
  0.0836234420754169  0.1659795342431123  0.2513013454361757
  0.9139841684975333  0.0008474821391154  0.9163128571469705
  0.0799736131828057  0.0822446191200503  0.5008488182525723
  0.9969188386295912  0.0000792782384080  0.8337287970456252
  0.9974006134077918  0.1680850095559231  0.6652387804088461
  0.0779998254454444  0.9160272664798711  0.8325740572621387
  0.2450430821085562  0.2499901035111415  0.0007936179082910
  0.1631243509397694  0.9169268170939745  0.7490908899932315
  0.9174850908960126  0.0866754782033530  0.4989195632666372
  0.0827862517451581  0.2528502284307117  0.5022478812751011
  0.3286255407214389  0.7507504638378931  0.2498083671382411
  0.1630413943554498  0.2507945330072378  0.5822100930768866
  0.1602399915627595  0.0836771155677812  0.7508374526243552
  0.2433052952930868  0.4989628028806263  0.8339457637707081
  0.7516439330607245  0.5841645143900549  0.2490751601155627
  0.7486581054140283  0.4175490101087417  0.0803123337382884
  0.3303189945027412  0.9162655854993299  0.9992420626979140
  0.4959962411322699  0.1665136323026421  0.0837422954228252
  0.3336776921144529  0.8323326120763376  0.0833646325841550
  0.4965623740778782  0.5795643654846143  0.9996432984754422
  0.6625969316223830  0.0840839029943420  0.8331575962281078
  0.1645780556837359  0.4981098427767129  0.7501712843513497
  0.8305150227872881  0.9999548256773553  0.2514951363944648
  0.0803525056931654  0.2493039808083513  0.9181465985976751
  0.8268072287205493  0.0835553977571393  0.4997357428700490
  0.7464434386901210  0.8332876518831170  0.1634681303371166
  0.6646133175439033  0.0827955473198114  0.5011344550825545
  0.4091425167577662  0.7530056382867809  0.5842303516445289
  0.4117125800983679  0.9989664535155104  0.0006180091631456
  0.4967559244209013  0.7522247106005960  0.1675263208616526
  0.8305726719266372  0.2506813218248215  0.6656681116170489
  0.4916802533862085  0.4996833445233422  0.0844249944045162
  0.4137885614007126  0.5825299071457254  0.7492806847650539
  0.5806427380671574  0.4131382996288895  0.0815433531800267
  0.6664474307250186  0.5820738034411518  0.1634361451738688
  0.7442901139447479  0.9181682008228940  0.7484808514672764
  0.4950073692986421  0.4185491538488982  0.3339191639116379
  0.7473534514241386  0.8333185386559058  0.6667591258568875
  0.5780633504085789  0.2498252244023578  0.2498860070085218
  0.5783796560020413  0.2465812596091309  0.5818124428040743
  0.6623577219549948  0.7502022355967830  0.3393576083223105
  0.2502848539991315  0.0845392121772464  0.7501405168129752
  0.9116699443596323  0.9975570483415741  0.5004509093214498
  0.3294715426264577  0.5807916502550732  0.0027468011441806
  0.4167425511220531  0.0855164042857155  0.2507772610605616
  0.0805126972773208  0.0032459447471487  0.0012296683906759
  0.1588475028427531  0.0004808577553113  0.9157360918648840
  0.5797773754530138  0.7501961767531500  0.9170393637682354
  0.6635837285925077  0.9160654261549341  0.2519982048140290
  0.9969525402071528  0.4168802990083649  0.2507569849286268
  0.9971492666418417  0.3335693772568160  0.1685723831485268
  0.9951843413239334  0.4168044790630736  0.0854669002907741
  0.7481185811021993  0.8342889175514427  0.0810278750122037
  0.6636929562728026  0.9173105738958407  0.0833898766686084
  0.8301435835190817  0.9155229627223570  0.2528520059180318
  0.6639185941301827  0.0829633593366751  0.0839936931003062
  0.1633851696624141  0.2509744365858981  0.2496208399734839
  0.4158417173850807  0.8339699430453069  0.0850987651423327
  0.0804452272977944  0.7495347399293341  0.5001629917998233
  0.5807660926720785  0.5828875622961242  0.8344398640703241
  0.7465256955833314  0.9164020729325177  0.3349542526752662
  0.7477010554911355  0.9173732714054122  0.9989840820709252
  0.5784800262249152  0.7497768969332618  0.3343267136553358
  0.8308979535799883  0.8342335205832307  0.1678421828023497
  0.6633533936173104  0.6667014594199201  0.5009453817474060
  0.6627406890508025  0.3343505942057381  0.4990124323182822
  0.2466842903504878  0.6665105741277877  0.4163156972596533
  0.7455793750595306  0.9995673385840823  0.4169637237154765
  0.5785388027782502  0.9156631341113860  0.6672211084914994
  0.7474128135599714  0.6675662586453081  0.0829057581001789
  0.7483158231637435  0.7501704885491975  0.9994769149478500
  0.4954164890276078  0.5015298469489097  0.4996793527259671
  0.6641910655164358  0.6680936017900686  0.1669127062380510
  0.6620199711044559  0.5009271967596970  0.6653570192751516
  0.7477767011147604  0.7495859742243578  0.1671865989635288
  0.6629535126183538  0.4997610242972711  0.8335397901152531
  0.7462460808176934  0.7486214730827604  0.6666420038040142
  0.7459263271447797  0.3332684828316224  0.4170118444744133
  0.7484913371156160  0.7502943735498575  0.3360775569705554
  0.3285462913543463  0.8343412469590544  0.3332602048789027
  0.5794544913167025  0.6666418092142327  0.5833566494170257
  0.7478129450516331  0.5007925572655140  0.0838322711568616
  0.8309022109314230  0.4171569374950876  0.7500015750201323
  0.6609878038505410  0.9164344332498493  0.7501951543702154
  0.0796899439474527  0.1679831143665146  0.7492124525572698
  0.8308260097027080  0.0836342722468740  0.5840688174280597
  0.1619665466237340  0.6668771748781931  0.1669768232743949
  0.0801161016099148  0.9162929208358654  0.5003143639956508
  0.9147800756691674  0.0839734191362264  0.6666366475098653
  0.9161969159409811  0.9182492895763392  0.6651354230833791
  0.9151283068942613  0.0007434065805182  0.7493767599197058
  0.8308359063789387  0.0002730002531827  0.6659328652456746
  0.9954951686511588  0.9159688234618462  0.9165385954667465
  0.7476188718345266  0.0835424227672498  0.8326150483184920
  0.9144090978558633  0.9170229774972922  0.8326686033426707
  0.9130292818318286  0.1663177017552006  0.9168853104087931
  0.8308351813560407  0.0838998932234595  0.9165736927375980
  0.8301808464842252  0.0835035235272776  0.4150638489232095
  0.5783400002562052  0.7497482379790185  0.5004261998917721
  0.1618117255632260  0.7502944755823295  0.0835471455746572
  0.9131359674602821  0.1666864505521371  0.0860346609805411
  0.2461451355147321  0.6664927771880675  0.2506681645757396
  0.9977661280408464  0.3339709133213973  0.3339100290692488
  0.7474436472897270  0.6687356216731036  0.2513116124299763
  0.6635887764760660  0.6661280478957111  0.3346333993591673
  0.7471686130679339  0.6666442224250014  0.4188287872609894
  0.4133160466264757  0.7496934497780812  0.6676727846062576
  0.7470338020837884  0.6669295805470538  0.5832581009879434
  0.7459087113376155  0.5826002199639433  0.6670364108334573
  0.1622465294542002  0.4172571595536003  0.2500541049941912
  0.8302171546903712  0.0009985428797144  0.0001556900059405
  0.9953089274755319  0.1665000024152067  0.0023617710284899
  0.9124567244452962  0.0003484703203682  0.0845106640695687
  0.1625200697035719  0.9998335434334780  0.8317501586394653
  0.7467002276324564  0.9181919519090888  0.1683298216245787
  0.8307625517249595  0.0844321485337648  0.2518360293964932
  0.6623270352887326  0.9161672153300304  0.5834259983698075
  0.8311512008933734  0.8331467240549320  0.5010311318454916
  0.9154017461882958  0.0010923266108253  0.4156242096136760
  0.0803626827324257  0.2509393422010370  0.6659268479842623
  0.9139601285081482  0.0834831866063391  0.1688065602351078
  0.7462828828371257  0.3339277316879110  0.5817955291097058
  0.0787716499987139  0.5837676367449091  0.1671744984344801
  0.2457078265918729  0.6671416579756492  0.7499440053273456
  0.7486171722955076  0.3318436469773716  0.0839545333083740
  0.7465647822898988  0.5002231607946893  0.9164196164963596
  0.6646565092207836  0.3336512910075163  0.1691217171536484
  0.6636913365935037  0.4168368561153254  0.2521334000063851
  0.7473200486985527  0.3334836621931140  0.2523922184585836
  0.8310179274351124  0.4996101641912192  0.1690698063019090
  0.0793197398037704  0.5009734694999325  0.0842557264576219
  0.0777952301615228  0.4166332429124699  0.8330426467099119
  0.6621666951478506  0.1672172662729854  0.4996778565243595
  0.0790842951593609  0.5842845474413355  0.8333602403197666
  0.5805450620083968  0.8337475726563811  0.0843036542178685
  0.8302724468302985  0.9998327880270634  0.3354963477560299
  0.9966657407373484  0.9998114055361842  0.1688605903481871
  0.8302465552379913  0.9159248322866442  0.4178029786002527
  0.6631030467561971  0.7494991919789902  0.7492232818258761
  0.7469826484197287  0.9178530788717028  0.6648368262032206
  0.0773645049284876  0.4175234262583780  0.0018631905505817
  0.7471161527827503  0.8327694450994365  0.7506699101789952
  0.7486314855077845  0.5836870458635598  0.1667175177175164
  0.2451590609490613  0.2504908951730228  0.8337318600535473
  0.1624459461347471  0.3343311504569146  0.0015538553160023
  0.1655352486536530  0.3346080536076205  0.4986532374958660
  0.0812044678173580  0.3344842259948195  0.4171394700641489
  0.0800032896123146  0.4180085077509776  0.3337458601650296
  0.0798249690557855  0.5000271391574974  0.4173080527696299
  0.6648330606439832  0.1684075425962116  0.0009085881516283
  0.7466387846018758  0.1667315401156768  0.9168714091377010
  0.1627967673605742  0.1662377287495328  0.1661866647816091
  0.9967181251659316  0.5001908847715427  0.3347550567702154
  0.7490341112474341  0.2501330668216679  0.0007344587122295
  0.6640849681634210  0.1675399481374396  0.1673886913299765
  0.7450171878418697  0.2496378701488527  0.3345684218699686
  0.6631219452565308  0.1662118296571610  0.3344785337114424
  0.7478067930297712  0.2500478233332423  0.1679238311811850
  0.7464093491625525  0.1662908700743479  0.2513622390551336
  0.0777505322068262  0.3347883449839691  0.9177885208795266
  0.1634060248003376  0.6666097004872173  0.6662501852295989
  0.8301372250057403  0.6665865011553107  0.5009122461702775
  0.9971433452621487  0.7494647065957289  0.5831169423612492
  0.7462185970559471  0.6662142762943454  0.7500204286513731
  0.4970466145574877  0.5829784819712102  0.9161862933964285
  0.9967375300132906  0.3334829004892939  0.4989247851097758
  0.9134444947750260  0.2503265941055100  0.1686735316248865
  0.1640861513316733  0.6663251606280368  0.4993180371354732
  0.3291733297372371  0.6663162837544673  0.6672571225797492
  0.7470058506097395  0.1666945058973718  0.7497625801196328
  0.9955761626630494  0.5009983104133914  0.0013237939275845
  0.7465570175841313  0.4995239098207662  0.5812459959194732
  0.6637959958004228  0.1683652645441523  0.8329161603284786
  0.2459999638733588  0.1661967025706247  0.2501766920789606
  0.7496349378239823  0.3323993993744436  0.9163515350871523
  0.9130908665624206  0.3336332247934278  0.7496379236976214
  0.8306589930747745  0.0006237234937013  0.8327875980120126
  0.7480025366655070  0.2502516749605653  0.8330153533931699
  0.9962301884332500  0.2511286486659213  0.7490944536384524
  0.9977711938061025  0.4992597891031220  0.6639495025601567
  0.7476385043285372  0.4167888435046388  0.8335006329961477
  0.5804625804782941  0.4158761955023941  0.8327842460381969
  0.5804696340015616  0.4145119886286653  0.9982385482357448
  0.1631567298930063  0.5838995658758090  0.5828330960316142
  0.0807541303707273  0.4168527043276419  0.4996400217901283
  0.6641309225203259  0.7506702222990779  0.0831226045908165
  0.9967554285310176  0.3339471986683764  0.6654650359717463
  0.6626818823612832  0.3330222287193930  0.3352160045385068
  0.6623278134790392  0.4174124672439021  0.4175441173416208
  0.8309680713878311  0.6676914948340544  0.1672047696426248
  0.6624640107388514  0.5007228503237372  0.3348352893275294
  0.6622932257753541  0.8330366926956401  0.5012788392177294
  0.7477550958093936  0.5843528891366787  0.3354968848639902
  0.5800904092143446  0.5007157462002479  0.2516888855725776
  0.6626116087978138  0.5010526519070801  0.4996445468878111
  0.6635963987332433  0.5831389570631080  0.5823323812581187
  0.0791676974981143  0.4180680710737682  0.1675194787470463
  0.0806511271912003  0.1676225365253529  0.5826459098710707
  0.0799502610013027  0.0828189817247913  0.3341153058965768
  0.8308315912845680  0.2497305465500370  0.7502993742856410
  0.9142254884800384  0.1668724668633522  0.7489086097713378
  0.9145812309716437  0.2497418949819490  0.6662276423314655
  0.8304166888164584  0.2480194239080696  0.9172994692724445
  0.3283948796500228  0.8336766826239409  0.6666903888336370
  0.0791643729632682  0.8332142804775755  0.7494073776555468
  0.3286507581186619  0.5016025661620471  0.3330220210987631
  0.2460568742805363  0.5833591199798857  0.3337134071965711
  0.1634772677021790  0.9999543252502574  0.3333597423658268
  0.9142726327944554  0.9151938888658356  0.3347227914357385
  0.8305595118736501  0.8327520711124199  0.3351675117948348
  0.8290214762368399  0.9989930380939812  0.4992948900216536
  0.8313514381993952  0.7502632060111774  0.4182344191797370
  0.0798575311258372  0.0826782929194698  0.1674086620423956
  0.6633280379965659  0.7503754220997075  0.4208987586008545
  0.7470562267522405  0.8333599424345750  0.5823287374558792
  0.9979816102837294  0.9159896310311879  0.4174064684082507
  0.9152694090018506  0.9146539293878693  0.5006399480467756
  0.0816094804803821  0.1677941767102576  0.4171899202651337
  0.9144846223763201  0.7487024858903034  0.6658907641719706
  0.0801437512468234  0.9164577718780813  0.3338190253138227
  0.0792634000380635  0.5835451850690463  0.6651007475058314
  0.9127220804728308  0.9171442582662559  0.0002294221710383
  0.2478322344113228  0.4997600466466708  0.7490093764073459
  0.8307359522445050  0.8337071491348133  0.0001379407477834
  0.2447154715176822  0.4152032592264654  0.8344386928326537
  0.2462605823771186  0.5836588280340254  0.6666778965742225
  0.9141235960699082  0.7501050849322984  0.3343580992009831
  0.8310775980709558  0.5843292733014075  0.4174721941154222
  0.8307014084397307  0.7498587389790297  0.5844050128972237
  0.9143770588011616  0.5839472567464034  0.5002657898533119
  0.9150495869824836  0.8330790901448369  0.5840014168676108
  0.8307469291423086  0.7491818505375001  0.7496523984550628
  0.6656045171306847  0.7503043423394686  0.9167843150617730
  0.9961315299505944  0.6662283629570412  0.8328967391709091
  0.0801314611951791  0.7492372196764889  0.6663044862654344
  0.1630868732240393  0.5006436580813285  0.3339283425803644
  0.1625237882604962  0.7498670919458794  0.2501964691832426
  0.2467270403078875  0.0834682997250881  0.6652439949305090
  0.2465273806068139  0.2506077212497986  0.6668385778138919
  0.2454331581891261  0.4178457889667770  0.1675482237870906
  0.2461962872500116  0.6671022543974831  0.0833623432564475