Cr  H Ni 
 1.0000000000000000
    21.1200000000000010    0.0000000000000000    0.0000000000000000
     0.0000000000000000   21.1200000000000010    0.0000000000000000
     0.0000000000000000    0.0000000000000000   21.1200000000000010
 Cr  H   Ni 
 259  35 605
Direct
  0.9967940371782049  0.1668081611645611  0.8322713654366869
  0.6617432489538558  0.2516533339594335  0.4169057627011935
  0.5777337688764540  0.2479064973802501  0.1665439967601119
  0.6646142608939929  0.9980916640049413  0.3334379574793362
  0.4118352314699856  0.2497606310548224  0.1665234947872984
  0.4140619502720302  0.9990739526225668  0.9161012229781139
  0.4963862839020267  0.7519336600602790  0.7508152611103278
  0.3284917740576875  0.9182769065206086  0.4127884123753372
  0.4134486178746565  0.9181442110259117  0.9985117635713702
  0.3302001000533288  0.0812877043557089  0.2513593919591418
  0.4945772594583344  0.1647618985510105  0.6650460422459507
  0.3327167897120704  0.5834366262923359  0.7536097241959161
  0.2473160144906379  0.7476921178461595  0.4988426502524383
  0.4963656794855374  0.6662853841440947  0.3324733402176266
  0.3326818200680810  0.5825330396408593  0.2504335415941233
  0.3283720381950779  0.8340478266481508  0.8338588849791267
  0.1605099520908156  0.6654174667394961  0.3338522683030399
  0.2454286121191078  0.8345462382951618  0.0885867334229353
  0.3307855257341162  0.4171277602270022  0.7514316114442027
  0.2474748843473067  0.4162389298497415  0.4986859187811681
  0.0797988095259709  0.5775799973945193  0.6670109673050043
  0.3293153887373612  0.5836348414433186  0.5796693742117935
  0.5804531748331728  0.6692770944245914  0.5833780077100240
  0.4161678436538102  0.5837672898819714  0.6662605807938192
  0.4945113350316713  0.5836339028545983  0.5830771374164776
  0.4133298653455841  0.4171078050135887  0.1673947545671664
  0.4977915325425725  0.6675750998530006  0.8335035090123324
  0.4965465118193021  0.1656503083081981  0.1671644747792660
  0.5789539480306112  0.7524852614906692  0.1659906719233383
  0.1619091211823537  0.5829220360360758  0.0826311899860210
  0.4963405033300716  0.1665690103036870  0.8333102195157506
  0.2463759904409583  0.7494955615447909  0.3327523984781072
  0.4960873117943836  0.3339497024691011  0.8330465166526272
  0.5799229185788963  0.1675479343860634  0.9172976325653066
  0.5789709134652916  0.0837736832520089  0.0001734071548116
  0.7431378749788208  0.7496606540457971  0.4995948706229384
  0.5793961571503502  0.9174568277187407  0.3347129552620389
  0.4967557385294254  0.7533145924223053  0.0848419706019978
  0.4133481272149404  0.9178445184352992  0.1671814639313343
  0.1618573118359640  0.5000985564034399  0.1646680965236494
  0.2467505994809003  0.6665441184793427  0.9127098236370038
  0.5801435028430157  0.4990226109202580  0.0848568899810520
  0.4962395751586385  0.5828124733075507  0.2514050540272381
  0.8260441421450992  0.3345284810615299  0.0002670519216798
  0.4948653774320755  0.3352294246924174  0.0002292330480158
  0.4158183667355460  0.4173221339529373  0.0000077164863280
  0.4133832294446718  0.4165181137462197  0.6667857224781824
  0.9114915599565282  0.4162008912536780  0.6674419558231470
  0.0796452361950355  0.3359784498484103  0.5850033073067286
  0.9114440395914989  0.3329523713822284  0.5819659436382967
  0.9118632663127366  0.3324892475996401  0.2523244633982160
  0.0807022853154319  0.4971675595506398  0.7472515018627506
  0.3308026539824996  0.6659390138547377  0.8335713441292377
  0.2474144576132049  0.7521374281332928  0.6674106970714492
  0.0803541671984647  0.6681691078748166  0.4169260288924473
  0.5779883570392761  0.8344458781509013  0.5812858803419153
  0.9130272166593345  0.0023336211884113  0.7498079670322236
  0.4948647442115885  0.3340019536707406  0.4997914324390180
  0.1621013514276951  0.2516054370722730  0.7508273101701999
  0.6632769136916591  0.7491480199005461  0.4178649450590565
  0.5796780810700608  0.9172405111645701  0.1683569194684614
  0.0790042424324127  0.7536184634529546  0.6671557197392356
  0.4964685929971356  0.8331278545574864  0.4986420188893611
  0.4961009207053874  0.1657302064618022  0.5009622612482004
  0.9966777794816153  0.0015232255340056  0.6649985771371245
  0.5781086329259337  0.4172578742753707  0.3346433392810332
  0.4141451010463942  0.7491990487553113  0.1668654094020099
  0.2494079739921881  0.8340267818764333  0.9127406849183884
  0.4120399363527932  0.3332133963495124  0.4161221530506471
  0.4958637824299071  0.3342997635890224  0.1675254823735118
  0.4956073856451201  0.3346488921492548  0.3336625349505357
  0.0778344091421711  0.4165379887906895  0.0001622878657566
  0.0816212711989137  0.4987401542373160  0.5846867099274423
  0.3310092523700482  0.2499881543316810  0.5826953896513227
  0.2490386932050623  0.5823953439325442  0.5003982507979690
  0.2453509868535390  0.6655062535605816  0.0863117157230303
  0.3306716666600331  0.2498827759402794  0.7513976980098351
  0.9957915853382349  0.0000834709799271  0.1675597772053952
  0.3309553552251387  0.2497369910524399  0.4164535596068059
  0.4964057803828831  0.9987036520545970  0.1671176626985924
  0.2455353095876114  0.0004810494508502  0.5836183917517550
  0.2482986213622015  0.4171356050219156  0.8334138546097675
  0.3299056032869865  0.2504689705363358  0.2489076355337443
  0.4971656636076780  0.1656300572335015  0.0001800042224116
  0.2459491289850485  0.9163350758139814  0.1663667921912971
  0.3307664804363962  0.0809181408553710  0.0836398266058335
  0.4125623349487346  0.1669864925569677  0.4163031246801607
  0.2463473831351009  0.0838446807424305  0.5016605093575830
  0.3301730922026969  0.2504431018352375  0.0825083699829247
  0.3323740180985358  0.8342690194473822  0.0003368870950041
  0.3291008033257078  0.7504411980797111  0.4161156601935397
  0.3305764873196764  0.8291531283523664  0.4985882006876655
  0.0794835558832409  0.0015903314602336  0.2494035473291910
  0.9956129226566478  0.7481031687131093  0.4172174384837103
  0.3280079192072863  0.9991860582297203  0.3338620996055230
  0.3266004170946877  0.0043243869298604  0.5003576435996896
  0.9115291779651811  0.3350829957059800  0.0855655650399217
  0.7467325367754413  0.5837036458785384  0.1666592973415277
  0.6637059061798333  0.5824389614160392  0.2500063953951212
  0.5796001313379104  0.4992319640596167  0.9175209249515145
  0.7428300961006910  0.4985686299011234  0.7474144241822812
  0.9961884891632128  0.1674369987703295  0.1674968858930500
  0.6605512095057284  0.0832838986005848  0.9174973557736443
  0.0812930122535455  0.1664384466289714  0.9165229592338864
  0.8272379890666015  0.1664781161814878  0.8323615081276430
  0.9112457636811422  0.1695232054945683  0.5820640572780210
  0.9922360026894923  0.0849129538673401  0.0847933653417699
  0.9134253891619146  0.2508399771940842  0.3328690868484215
  0.9120086653129003  0.2520885981248439  0.4992714968460741
  0.1686453640469629  0.2514727634343055  0.0835083122866089
  0.4965804870547535  0.5849733400284539  0.7495320391085672
  0.5771712615690797  0.6680142802650597  0.7510585394326070
  0.8269400627237806  0.1669892011503526  0.1685339119038378
  0.8262230832865785  0.9182826733624080  0.0847003607596532
  0.5801368002236689  0.9162046838802252  0.8323077451619587
  0.9120618497134461  0.1687825740369720  0.4172658201189260
  0.9116349014909459  0.5013847640761228  0.0841390740338628
  0.7461008252780922  0.4159708891854305  0.1679389771264725
  0.9121776047875645  0.5014607876354963  0.2511811236664099
  0.9107757206085616  0.7499654163012519  0.9998272794436665
  0.9948651471447432  0.8376494671221806  0.8335437752771834
  0.8292487222395321  0.0853228294804930  0.7491042829570129
  0.9958385970930178  0.8318279833616155  0.5008607308786248
  0.4132655727017432  0.5010208223833096  0.4167560715578387
  0.7460627393382478  0.9161304584516279  0.5006169861325641
  0.5795712973033937  0.5016711438299409  0.4165028260948265
  0.9092151109708316  0.0859393201955835  0.3344358594073490
  0.7456954524407092  0.4173612458099488  0.3329459699314684
  0.9119623340988879  0.8350283495437376  0.7495545448217654
  0.5788404792066965  0.5003461617632459  0.7499484784080357
  0.0782475312556886  0.9172256638246566  0.1636646082050620
  0.6618216229767105  0.5833896422362644  0.9182818467211039
  0.6609064021030119  0.4167904760468902  0.7484756563004803
  0.6642261768885798  0.1680627182634559  0.5002313036201140
  0.8269567542891906  0.3311079387569590  0.8330041964779292
  0.4958080183566257  0.3344466585650067  0.6656270648425587
  0.7428618136687634  0.4174883141441909  0.6680868687504322
  0.5772682652914664  0.3337554947114486  0.5823547741800281
  0.7444628473872911  0.3302614321129491  0.9159665591514400
  0.7455794494598021  0.8321561481211476  0.2511868503019257
  0.6635361836652172  0.8336058727582403  0.0002722974231960
  0.9962094454104621  0.0816769501935030  0.9163164449154343
  0.0783719899209495  0.9151566343637981  0.3363135985358948
  0.9946465527039579  0.9186658321880207  0.9144880424186296
  0.8283475063797870  0.7501826555678640  0.9166950721992776
  0.4980906585871713  0.7507536639998551  0.9157975069918689
  0.9111320391952445  0.5007790399169850  0.9174800439141726
  0.9105096632127473  0.5002218055425002  0.7490963975260874
  0.9121554634018975  0.5821266078483882  0.6684330130380742
  0.9939563260773018  0.5817426303511981  0.4178961282709255
  0.7432454214701475  0.2491414311266894  0.6664960253935273
  0.8265640017723365  0.1654428281749807  0.0003644522823926
  0.5782489875287887  0.2497508313547596  0.3342055655577838
  0.7444727000146192  0.0008860607489504  0.2514212623084675
  0.7466320425535402  0.9182717436016710  0.8334284927317980
  0.0815986196931330  0.3341857573190848  0.2505226869517944
  0.4948695292589038  0.9992410960171666  0.6672804670680046
  0.6623209593974259  0.0825236257860211  0.7517588122294574
  0.4956325335133823  0.0008293423500771  0.5007504353432812
  0.2457829710915053  0.5814525642738614  0.0007965845413788
  0.7426765584028846  0.2495974755789666  0.5008763820319045
  0.8297458070718137  0.8336397564664072  0.6661762574997883
  0.6630954114055022  0.0817660073432323  0.2489639149588376
  0.8291868883670381  0.9177982432572190  0.4179754230927917
  0.6619523465813333  0.7499272290828778  0.5836393741270279
  0.4115335350442764  0.9166610160485605  0.6658456863502725
  0.5787610706447602  0.1664407961165817  0.0827675601245525
  0.4957656018341179  0.9185310667802206  0.4172235983829258
  0.4946905315369218  0.9972478716707253  0.9990710774003735
  0.7451832677447605  0.1663422399071610  0.5828492462047653
  0.4109568585315192  0.6676425563144817  0.0873608192494784
  0.6611275987595975  0.2503433924556108  0.7476195327145073
  0.6619915334779745  0.2510458990997636  0.9171337321686559
  0.5827466070559344  0.6685022509977434  0.0825735946853103
  0.8279184337697469  0.6658182798385257  0.6672576225201924
  0.7461078289467735  0.7507017329804507  0.8325850854824202
  0.4140791227124486  0.5816895732740838  0.9996597596008925
  0.6609485186252736  0.6673194137781866  0.6667695352307589
  0.6611823534830981  0.5011002401016370  0.5000678480308539
  0.4953913862276000  0.0836900397939216  0.5820359705887299
  0.7439013320949726  0.3335785482146559  0.2507468524221674
  0.7454745867035076  0.0002102830583605  0.0834030147014488
  0.6611761254704825  0.2505435917690004  0.0851043443867433
  0.6648584864024374  0.9999759857622258  0.4995570159231906
  0.8286363835472093  0.7491707948729123  0.4147693115363181
  0.7457450173329235  0.9997743098779293  0.9166261133932867
  0.5797267097590360  0.8353510146066572  0.7493333139994039
  0.6631707930865891  0.7521187931912412  0.2498432227661489
  0.6590558048098526  0.4177801858360937  0.9171819181133314
  0.7433301045791267  0.5834410177830222  0.8339680825019902
  0.7443659170629733  0.4182989771616524  0.4997000906628813
  0.6617497825329580  0.5803501325370248  0.4172209780622921
  0.8290952857793478  0.6661985064175918  0.3344154814049369
  0.7448825228431817  0.5833354452716497  0.0006650816454820
  0.1674329589892093  0.0817559947608492  0.0835592627442532
  0.9103778944555461  0.6666782573966847  0.5859835840214054
  0.8297558682237907  0.4995503115090616  0.3328831272267465
  0.6620045225796432  0.0826202292420169  0.0840514549895696
  0.4968787830634849  0.9985894650113500  0.8330625238604604
  0.7457437368120773  0.8344270261850405  0.7496576011462383
  0.9983148536935416  0.6630497856710035  0.8343648494076527
  0.2458608601162434  0.1677922750435580  0.4152984773846987
  0.9947823246820860  0.5821768356892671  0.0832720162166735
  0.0792524205242560  0.4981967016755274  0.9176352920790264
  0.0794631115311547  0.3332812831709352  0.9172499065369270
  0.3293958868763546  0.2517449328982054  0.9190773271138388
  0.1649402994764488  0.4984200080644402  0.6663538832772155
  0.1636797156312839  0.3344023141356785  0.3318154615672887
  0.1623672819551427  0.5004885202739723  0.3333871134622745
  0.3287729226487562  0.8330668853464093  0.6671604081884653
  0.8302914486264520  0.9184342325175210  0.5837636106134041
  0.9956943352555092  0.4165740090677160  0.4166663869175356
  0.2480326279712520  0.4995326668047127  0.9176207054777403
  0.9955715732067703  0.2502025031013743  0.0849686957463020
  0.0799999512186124  0.4142272947386864  0.5003782535547320
  0.0810974250934586  0.3334580604106410  0.7500165434432527
  0.2464841338794969  0.4186629576930048  0.9978262158167557
  0.1627179982539503  0.9179252422446246  0.4147495628832417
  0.1621433204787835  0.9995319923937295  0.3329336548101323
  0.2437597106884460  0.9163263192228505  0.3328482930198703
  0.2479266461850514  0.2498973884021807  0.1667036783518515
  0.9942784728378091  0.8322794671556546  0.1648570218261918
  0.0784284780261756  0.5835827921393033  0.3303467289511386
  0.8273508971719343  0.6661496888472779  0.1662166130510455
  0.7419531871783740  0.4170257784809555  0.8313096583194290
  0.0794174533546505  0.4171260452822064  0.6668283832940165
  0.0809565486918035  0.3377153492303180  0.0827403813999616
  0.3298753359813817  0.4182217802557109  0.2496892474852052
  0.1631842980459927  0.1683571479296491  0.3322177751741687
  0.0800267985426112  0.0006258054010122  0.5865728308186128
  0.2476823767244529  0.3327272828824700  0.4154141325481110
  0.3296489466162127  0.0823789866764138  0.7507066002228827
  0.9105205977761393  0.8343169631182058  0.5847292035381128
  0.2469075179614660  0.0009404591588142  0.9157489438491941
  0.9942894366218983  0.7516293201755468  0.2481909349752845
  0.5790319446373730  0.6692460099271077  0.9166484820379618
  0.9126941937097151  0.8288056889005244  0.2493914594858064
  0.0803312107659465  0.9172765470553539  0.9991215429710509
  0.9943945207207984  0.7488640270647381  0.0832154894323378
  0.9103289666615754  0.6644944628826454  0.7454631843740327
  0.0808884068488010  0.6648595743910752  0.5809029140842780
  0.9938159419727576  0.0006833911583722  0.5008767244654230
  0.0823918898716870  0.1669728917183737  0.2498704386025127
  0.4131056207803909  0.1649530420925685  0.5844902942455094
  0.9974890450174301  0.9976287058709676  0.3334227870133579
  0.2451776129627704  0.1666377055433321  0.9167181758111376
  0.0771207442954193  0.6669147044405578  0.9163011381388902
  0.1642161273421299  0.2516995520740825  0.5845516227134360
  0.3290217697527802  0.7502020521219984  0.2501481876503803
  0.9966406785037287  0.3359751578159050  0.4987631804572749
  0.9139114207120895  0.0854049606123301  0.4995405752220884
  0.1626513823975068  0.9171644805082185  0.7491769190410971
  0.1673693466296734  0.1690143938976780  0.6670409861628422
  0.0732633309536691  0.8364156129577278  0.9166042434774352
  0.9920212823395343  0.1690665527923329  0.6662298583432162
  0.9965453495230746  0.0008595684566991  0.8326891215485359
  0.0794359210533546  0.0837874720357132  0.5017561877099690
  0.8268631006747658  0.9180880081057337  0.9158799432549197
  0.2480998328506328  0.2492948149178698  0.9999878609476722
  0.9934245494445166  0.1692239684202452  0.9192367380537346
  0.9916218282822814  0.9172430266767118  0.0026660960472859
  0.9104327416895425  0.9195017733779587  0.2510551731679813
  0.9947458686763039  0.7502621672197575  0.8324492022601117
  0.0790204271838125  0.9148999074568248  0.2498462283776830
  0.4966024573841671  0.6655996566187337  0.0844122552755156
  0.4127565519125980  0.6703490572761724  0.9981879225122491
  0.1611246027595784  0.8337995244309817  0.9158334800431686
  0.3331255316186140  0.1635940295094787  0.9169169438374879
  0.2433162340369302  0.5833541076117548  0.7499236255171108
  0.0802392130238989  0.1678880534975034  0.6670606801653387
  0.8315580702745272  0.7476802924379385  0.5033472970883677
  0.1630576562917398  0.6681671222716451  0.7510037272590324
  0.0808157826776970  0.9975117528828445  0.4992514770158261
  0.9147761324306356  0.3334777124052559  0.9967740681049797
  0.0793584739496649  0.0832304907975262  0.0824766453715916
  0.7469745321403888  0.4181997112134858  0.9193696950864099
  0.9074045526632550  0.2469884101038267  0.0836207005754603
  0.2449123723451824  0.8345192059420895  0.0006303256833612
  0.5812573522641111  0.6641461445064534  0.1708146450576467
  0.9100651857854568  0.5782871190281512  0.5797990202815054
  0.9091515961076481  0.6653953677554381  0.8358772016386644
  0.2449896265214717  0.6683252062734970  0.9995241936411354
  0.6618018427072634  0.0818570179189903  0.6620331335799496
  0.2423919673680653  0.8356225709939373  0.5001961387320791
  0.0817352581832906  0.2500918531322894  0.0830291388552071
  0.0806553136467444  0.1732766694050103  0.4988890209850842
  0.0811718067494134  0.5811739584857643  0.4175554191942945
  0.3286403706531412  0.9169304960089233  0.5005711428931219
  0.2425507257241167  0.5832700068602495  0.2496525763183667
  0.3283355316126683  0.5844529203566485  0.6667578681686294
  0.0794564843867072  0.6660845364407130  0.6679597286553639
  0.8306104245068600  0.4191913276224274  0.8337322866399093
  0.9977201872377347  0.0869126948078899  0.3339259552620442
  0.6623080835067489  0.0870251639819233  0.3369399420100527
  0.8269254821123029  0.9165796659973482  0.2508891106598642
  0.9956224772879022  0.4161782378726416  0.2504008650721343
  0.9961984670812594  0.3335806572260732  0.1671888362890440
  0.9944816400107634  0.4168485941783481  0.0844748032583223
  0.7461568160272738  0.8341608135298763  0.0831195393702500
  0.6630609659065694  0.9173427112355144  0.0836403899032744
  0.4956908285619479  0.0816498021364221  0.0834926186621378
  0.5801702655414331  0.7501006673822971  0.3343659663626385
  0.4134948224811411  0.8344989216886955  0.0850114445180119
  0.0786229714434198  0.7489684273073953  0.5012211910108135
  0.5803198011266711  0.5834445316711511  0.8342522633679680
  0.7465215829527939  0.9161590345273232  0.3342671010657554
  0.7459658298102628  0.9174148780539659  0.9998503382646324
  0.6630560473174856  0.9164241344065297  0.2508839763010743
  0.1642046415166629  0.2509845408067242  0.2493543286617202
  0.8282549921780175  0.8330062468851025  0.1672912507427314
  0.7453320580063596  0.7491516253987881  0.3345230773277177
  0.9967824216025459  0.3339362004070505  0.8330536602943526
  0.7461531729716654  0.7511559250744085  0.9992812257634778
  0.1637666631165920  0.6659268076063184  0.5000487259074647
  0.6650167839883069  0.6667450292927196  0.1675577105570981
  0.3305704921890728  0.6683133015003261  0.6666670718192451
  0.7460047221003229  0.7503967791177993  0.1675439801555746
  0.7443242481605473  0.1669529082103874  0.7494639647660712
  0.6620923177095429  0.6660526402786958  0.4994532591152854
  0.9948842436111915  0.4996370049591373  0.0000172488289554
  0.7452292331438553  0.7503958611952357  0.6670480733546835
  0.6617905267467482  0.1668532517031856  0.8327061323456600
  0.5780165910829138  0.5846833689365466  0.5003452424615867
  0.6621238936976745  0.3331533746960162  0.0005434221471456
  0.2463121870584289  0.6662820306564678  0.4157439829190383
  0.8289838520798548  0.0023904799947717  0.8319296182445989
  0.5785041755265745  0.9170602022865025  0.6658568127808439
  0.7439749869974052  0.2491535662749338  0.8319334616747939
  0.2485370350286156  0.6681316197136267  0.7506775443927463
  0.8293740781827653  0.9176867689071192  0.7489959646088789
  0.2458730195440071  0.6671632819333871  0.2501444445078734
  0.6626157006221496  0.9169884891610720  0.7496663180451695
  0.8274746337604417  0.0011211811995943  0.0002802737314125
  0.9962635749812997  0.1670699504202578  0.0027909071899724
  0.9109595815224640  0.0010318819047143  0.0838720778639236
  0.1636378555098104  0.0005483304565984  0.8329464960980435
  0.7455004498175613  0.9167819934466624  0.1677119692750950
  0.8282933412570630  0.0845360680954338  0.2508444704303736
  0.6625020877347761  0.9168151758475269  0.5829750775409365
  0.8292304083173595  0.8345776728902847  0.5005057292277729
  0.9128388509862441  0.0010378987679627  0.4168045100979058
  0.0794977657843496  0.2527672143764291  0.6673468940442938
  0.0794374235755692  0.1682071730139165  0.7510491356351851
  0.8301350960319421  0.0846033367193584  0.5825104906873853
  0.1617906805504321  0.6662798440658541  0.1657672703132245
  0.0789058755826951  0.9149919257451609  0.5000950689751034
  0.9125662996868050  0.0847562581005573  0.6659663673428099
  0.9942811307158802  0.8337754363035907  0.6666794537956847
  0.7446536029364318  0.5827937387855120  0.4996333943274078
  0.1636921360983261  0.6665537998523288  0.6653233812963117
  0.8286521867405854  0.6653797609869583  0.4999536762311153
  0.9955812559578233  0.7491662839297994  0.5846287673299936
  0.7446795809521425  0.6668462493900728  0.7504330184855029
  0.4981828338954928  0.5836581504012016  0.9172583312164015
  0.0803353416661150  0.2549806949395698  0.5001670672832865
  0.9118625850841751  0.2503035598082174  0.1690347677299590
  0.8291334528050603  0.0012141290018140  0.6669043923144069
  0.9933635128996007  0.8324242588555654  0.0012093107969162
  0.7447940534136348  0.0839560578242159  0.8331411581172993
  0.9107699301488780  0.9189541796853828  0.8324760842068716
  0.9097149254125750  0.1662776253013286  0.9164645353208261
  0.8272969986956062  0.0845672755549562  0.9160297537387260
  0.8296949668514585  0.0844793901505354  0.4176330139727242
  0.5796182901069845  0.7494716285174006  0.4989947870097404
  0.1602326217677833  0.6668000542305909  0.9994533851934074
  0.9105034997955276  0.1652171721020049  0.0843479896113433
  0.9111632233313868  0.0840595965403954  0.1674323481010212
  0.7452645860419636  0.3334999128984885  0.0843299662468038
  0.4949292595177084  0.2507614969808911  0.0834221002662172
  0.7444996705117572  0.4991308909827715  0.5833057595980047
  0.2472180607032551  0.1659228274939635  0.2495317549702063
  0.9108007792570885  0.3332862909997567  0.7496308867951044
  0.9118244766848116  0.2488180865819115  0.8331027234154386
  0.9959878564157966  0.4985484333439406  0.6669061068295368
  0.8298790389277244  0.4173727752921618  0.9178179756083179
  0.5792882129715730  0.4162692449816993  0.8329172484421251
  0.5789251522422466  0.4160176693236856  0.0009215102566725
  0.1650079427931269  0.5829077895128237  0.5821799612516393
  0.9954312962787825  0.4979314815136909  0.5006637736984682
  0.6625696456328327  0.7513581466024923  0.0843797224344430
  0.9953325332905500  0.3343314689633805  0.6664885704805087
  0.6606182047787479  0.3345146463014927  0.3336306979254308
  0.6618010593216669  0.4170417027280327  0.4169647063705192
  0.8283028333860255  0.7498783081878363  0.0823542985745355
  0.6626646844030211  0.4997377205031906  0.3331223303364563
  0.6622407870139022  0.8333173328155710  0.4996259252780109
  0.7455644964198217  0.5831579937163559  0.3331121072519246
  0.5793152105111311  0.4998157225245031  0.2507134756848296
  0.6614167693211480  0.5844274816135210  0.5832407140278930
  0.6609954568847979  0.5832861470968016  0.7500586722012654
  0.6631142401587602  0.5001115155745152  0.1674976902251814
  0.4966438272130251  0.9995848356403267  0.3339213352722931
  0.5789335643680874  0.9995800455838295  0.7500931301012147
  0.5771386332591835  0.0827187806725813  0.6663836673759111
  0.6632092225727021  0.9172771967516262  0.9162050341735075
  0.4968113670879323  0.0822357377655776  0.9158506539562223
  0.6636540215303454  0.8342009075344330  0.8334961530912892
  0.5787987325993347  0.0831502724420125  0.8330326409657206
  0.5793605700766437  0.0823906979686969  0.1665312093848527
  0.5794107037470757  0.3329639537319607  0.9165129383235725
  0.4954845541815407  0.2503042249018353  0.2497739448366550
  0.5789069107178377  0.2506536423804646  0.0006675441374477
  0.5782515363405032  0.3332120646350003  0.0841542807411932
  0.0781856739001718  0.8306336234419177  0.2494350725160282
  0.5784532330715902  0.1661844917347156  0.2500144736899802
  0.7441735080052075  0.3335752848371666  0.5832280796820131
  0.7449668000697621  0.6657015815930619  0.4163857340601481
  0.4131056690455117  0.7515902215596618  0.6667139422407372
  0.7443573903785302  0.6662065877274164  0.5831696059706584
  0.7437694411148320  0.5834932411119819  0.6668852666507601
  0.1630035959608142  0.4177972202584190  0.2500802309793432
  0.7463349209820657  0.0000058133106098  0.4172077653851866
  0.7457297354177947  0.6671166313227462  0.0834276617858753
  0.4952181928436819  0.5008503406643673  0.4990582951729344
  0.6597720189726599  0.5014694660516634  0.6654553708253421
  0.6605766375333846  0.5007029205033390  0.8332776987148649
  0.7445374749904580  0.3346618590609655  0.4166282127859524
  0.7437487756945682  0.5021433345757077  0.9167568722024593
  0.3287336324266506  0.8333458411120324  0.3329111525848322
  0.6611544336889140  0.3337918311771868  0.1675928110175824
  0.7454072883419971  0.5002999415907203  0.0845695086034464
  0.6623392315591772  0.4168960734685758  0.2502666539862591
  0.6620346465099314  0.3344103361396311  0.5001303835381213
  0.8274526877050753  0.4165870817140855  0.7483779860642855
  0.6606210650306831  0.2506412248432823  0.2503956071138931
  0.8294399176142010  0.4998343156359729  0.1677336489863173
  0.0786770528094765  0.4999247348842420  0.0831417496180252
  0.0793747343221608  0.4160388568566715  0.8339407912009953
  0.6609767826034936  0.2509426935064414  0.5833824091491751
  0.0789453382939889  0.5808188903893473  0.8346083033632630
  0.5793191749742136  0.8348974827470305  0.0840985004173312
  0.8289311692270321  0.0002686894191448  0.3341498709123050
  0.9128415567646476  0.0026485224472185  0.2512025973759956
  0.9125154541825879  0.8329811534153252  0.4177274794315325
  0.6621644588734875  0.7511213462510903  0.7493346995412067
  0.7465819849287898  0.9174083136277265  0.6661842907364058
  0.9975254060948410  0.3339161713357182  0.0004170457857429
  0.6624548372338716  0.8338806357464176  0.6659758320735280
  0.7460344886107356  0.4995095608619833  0.2503195440832082
  0.9966082518577727  0.3340543315485359  0.3331430952137179
  0.7455143010270526  0.6667336761738597  0.2511289352702389
  0.6624472947905437  0.6665848939301429  0.3335568241289257
  0.4955465339291322  0.1671429267838900  0.3336752317877826
  0.9106629419624933  0.0839680912609463  0.0000600962249450
  0.5806097086424818  0.5816604057954150  0.1674924931493204
  0.4955219167884440  0.4172052559059918  0.4172448233773896
  0.4960522327115890  0.5836854157860968  0.4161058879404011
  0.5787100810194116  0.3332761639799069  0.2508186392982858
  0.5794980102361682  0.5832248357220823  0.3331297117106043
  0.3303332811936507  0.3332683169640898  0.8338387650604966
  0.2458856185821933  0.5829759712907350  0.6656084773982084
  0.9121348489282302  0.7491124345379103  0.3340781519259496
  0.8286602893467502  0.5826519490712488  0.4159342953799531
  0.8283871894392262  0.7496763469942485  0.5861855779779463
  0.9117342735237586  0.5830435267936964  0.4983582756762456
  0.9132728872909048  0.9184410768660769  0.6672684478226930
  0.8289300713661557  0.7503065376904301  0.7496561365153083
  0.6630995735978863  0.6679492214752756  0.0000652394214328
  0.9957807847855311  0.5812718282727188  0.9167215196442200
  0.1625635007676727  0.7517810667784184  0.7500982895442573
  0.8264496969655611  0.6658097113994766  0.8332773504177117
  0.0797688091078808  0.1690962346553342  0.5839972351679582
  0.0787250433843929  0.7510624225339126  0.8338659495901628
  0.9105956303656239  0.7512497401547050  0.8331220007409241
  0.9954491295953216  0.0855992862136396  0.5838367897110142
  0.1636043790126505  0.1677376215426951  0.8337015976229594
  0.8261664687178868  0.2501843872325697  0.0843086857154816
  0.1637708457222364  0.4170968595188250  0.4164382837762305
  0.1635955116460517  0.4177492631668510  0.0825238061380004
  0.3304829194307570  0.3353149094760002  0.0002794885039648
  0.2473630858748166  0.3346707708280346  0.2492951799535033
  0.1639026388873940  0.3336939004346854  0.8348444370922801
  0.8283932134118612  0.4163586033646916  0.4161102777759288
  0.6624827147840314  0.9996686356864790  0.0000680259112591
  0.9951176394837152  0.0844629261307867  0.7495496823563287
  0.9133349856739349  0.4170811557658509  0.8334199343605483
  0.9947132212943884  0.0023800587851737  0.0002964009390427
  0.9117784769585926  0.4993350122422369  0.4163927711324800
  0.9107737424045474  0.4960636707700274  0.5840851590745056
  0.7441203893553390  0.3330199412280694  0.7495744381637683
  0.9099554577677464  0.3320152082382406  0.9142006100885747
  0.8284699471538360  0.5831799690191911  0.2500100290363924
  0.1650671745543430  0.1664824441935216  0.1662610555565860
  0.9953377207186982  0.5001403582746375  0.3334654816934038
  0.7452517027301033  0.2493099022296913  0.0006714901296005
  0.6623073550118485  0.1665521548180911  0.1674752748828963
  0.7442493151633255  0.2512882796714769  0.3335162570421498