Cr  H Ni 
 1.0000000000000000
    21.1200000000000010    0.0000000000000000    0.0000000000000000
     0.0000000000000000   21.1200000000000010    0.0000000000000000
     0.0000000000000000    0.0000000000000000   21.1200000000000010
 Cr  H   Ni 
 259  35 605
Direct
  0.9143304670021766  0.2509705796157684  0.8329158854177934
  0.6628589268357109  0.2505929035615814  0.7476560604681634
  0.6640203736100846  0.2460258911327262  0.9176199805010966
  0.6632130919926820  0.7513346663313647  0.0832746740474851
  0.8330289520297691  0.7489586627579514  0.7495618707493923
  0.6637227196303913  0.7487661880570132  0.9165635187678016
  0.4948269778219843  0.7493961838019891  0.9160657691953866
  0.7476238763795618  0.5829447281894752  0.6665369715334906
  0.6633560699401591  0.7461281324708533  0.5824630193171877
  0.4117378531524259  0.9150976403088618  0.6691176040342842
  0.5810678019564092  0.0829482669945150  0.1670552381068995
  0.4140911972559377  0.8326824247049264  0.2508726660112408
  0.5814583694253670  0.9150084716223432  0.9981443180623890
  0.6625672014201798  0.1660374712662667  0.6660659408606667
  0.2450139843196104  0.4997399820517073  0.0848329723633257
  0.8302736891637457  0.6681922452705433  0.5010427434421222
  0.5808871700986870  0.2517870591914664  0.3330427562691569
  0.7470754023559197  0.9991797747402524  0.2504604043424914
  0.6635782707998471  0.9175324858942255  0.7493194133399605
  0.5792089064799096  0.0034500894121553  0.5824589440984955
  0.5802941718851907  0.0826928960679497  0.5000517623529454
  0.7435868210023542  0.2479080977721799  0.4996798073633890
  0.7455341331084621  0.2501195260434386  0.3328444845829527
  0.6653953092888807  0.1670479494673483  0.4992070781757708
  0.6639160764468726  0.2506226157495008  0.2513247782920521
  0.7491630723540961  0.0849211179837846  0.0023167852155269
  0.6649991898450639  0.2500199185190657  0.0856864403623888
  0.7477652292887019  0.0000900485809217  0.5800297645258681
  0.7469878113853560  0.9992717855434208  0.4164114362173512
  0.8294618717032475  0.1651745937652774  0.0019938675967337
  0.5793811149376134  0.4164647789490493  0.0017221614193080
  0.6632883928509538  0.2496596453748981  0.5832771652501778
  0.5804099505000688  0.3346751815447632  0.5841695556940555
  0.6651038344515998  0.7514202682477651  0.2527326538764119
  0.6629376886340650  0.4211558701184786  0.9187068145210828
  0.7464237802308109  0.5837555290744666  0.8345734436271803
  0.7481549913446554  0.4173759496683713  0.4979447122755740
  0.7487392560697412  0.5005816815677725  0.4159456024724826
  0.8313516391597366  0.6667218097041032  0.3331385725469476
  0.7479704620209573  0.5845108579307778  0.0018247737096522
  0.5814212568172725  0.4998370489177967  0.9164423005885874
  0.7481991934542681  0.4162301991557095  0.8355213207245262
  0.6622307237878828  0.3349071674034094  0.6658532481551326
  0.8332923673892895  0.3324069772834456  0.8376543147102835
  0.4982951926537966  0.3343383638789736  0.6676724047206839
  0.7473399469540931  0.4177619540152493  0.6660182094153635
  0.6617736042602145  0.9167387569455647  0.9194942779136801
  0.4954120160218923  0.0006650811921979  0.8346666199124961
  0.6641963078768636  0.7483912926355358  0.7495556095054609
  0.9959904329433197  0.5837891809923419  0.9170441808852635
  0.1648129507973360  0.0828789480120076  0.4168333653882400
  0.1595667690531423  0.0888903761048759  0.0817136370021642
  0.0799013101461107  0.3346109151337895  0.2516451315164331
  0.6619390634168519  0.0852572635955093  0.7484474784959863
  0.1610592643815434  0.4989905992329757  0.0006388928321560
  0.9150224228422985  0.5015549237631812  0.9180142123912971
  0.9133454467516576  0.6660477678123519  0.5830713988196508
  0.9135421659322297  0.5006906454759760  0.7485131062655843
  0.9167474680673301  0.4179526413514089  0.4980793757279587
  0.9129258453964003  0.5810324033211274  0.6667812731699885
  0.5831914962215742  0.0833885792212225  0.0005648506664613
  0.9971940027241921  0.5849894503124859  0.4163484797583021
  0.6591473690120221  0.0840816388820329  0.9178174772370544
  0.5805382879810520  0.9162626721356051  0.6681202505695412
  0.0823834647027290  0.4160079040707919  0.6668431740373445
  0.9968018726953481  0.8342066226582309  0.0004497316241408
  0.3308326226311148  0.0009647044100395  0.8345125701622409
  0.0814625074237789  0.7493724870096317  0.6668645321231388
  0.1632603250285146  0.0844910356890779  0.9210985762997745
  0.9974726667275865  0.6656124212425280  0.3344900296707817
  0.7469446672335910  0.5849627451802641  0.1672130587811937
  0.9981139946811236  0.9176600170496995  0.2491506764378376
  0.0750955515700739  0.9169831064900240  0.0005560169531964
  0.9962138440195736  0.7502013496273207  0.0868240410243092
  0.9133293400378215  0.7474318113857683  0.8342302719913888
  0.0806473456747387  0.6673255797563111  0.5842225574277693
  0.0800818174573766  0.9168052046812465  0.5006290614337680
  0.0845147172034629  0.1659732998716556  0.2512068399623950
  0.3287302020299728  0.3335674151239692  0.4998857243231941
  0.2494669043856083  0.2511721718834150  0.4981322440526637
  0.9961038955689799  0.9150994586373616  0.4183183010977538
  0.0809376204366641  0.6675100966833982  0.9172844950907462
  0.1635326419301569  0.2525546493773530  0.5827101807475985
  0.2489270565069828  0.8332443153094743  0.2486713314788107
  0.0828273433042080  0.1653881921407388  0.4172365794475529
  0.9137398130017734  0.0846563044041128  0.4988784243198962
  0.1650915659023595  0.9174262936146019  0.7492389202958009
  0.2472126366008883  0.1688228366147189  0.7500889337501251
  0.0799454427351321  0.9185653761977297  0.8327660528149744
  0.9995075964155455  0.1671700840516609  0.6635100646680714
  0.0015886732891317  0.0008451817158022  0.8320058479876935
  0.0827963755086648  0.0834639998970479  0.4989948474985720
  0.9124887663992691  0.9180812284125971  0.8306635771814057
  0.1625851563744793  0.2497648485191526  0.9184715166563178
  0.1623405788725842  0.1679561158257659  0.0012395403904254
  0.0811758989667974  0.9999167270493462  0.5828438647071319
  0.4128361081167728  0.2524755314220621  0.9993455242156756
  0.9950194424410038  0.3324291297122121  0.8339866155632062
  0.8342475359607111  0.7495678365656165  0.9158924979724563
  0.8313899344272445  0.8339656171947951  0.5021826583246779
  0.9131581103043521  0.8342221141717029  0.4170014572481934
  0.9138271839969740  0.7510360496724017  0.1671596365327512
  0.8318090319307196  0.7501201911595463  0.0845182163390012
  0.1631049884746467  0.4995565656135428  0.6654494851816221
  0.0807149647113382  0.4174477650438089  0.3347131089359702
  0.0815479984537667  0.3352813861285900  0.4148892742638522
  0.2474595900685170  0.0002627129413482  0.7501661816278938
  0.8308431077085695  0.9175474253499892  0.5813356633801424
  0.2469507941944253  0.4185227204137674  0.3327019291053754
  0.1651800863127402  0.1665301625379279  0.3334103988369423
  0.9972980220122282  0.5831517281581240  0.0853075130742692
  0.0801962139783122  0.4146567476849909  0.8346019652801311
  0.9952944779623131  0.4171909424911619  0.4165286374505144
  0.1636187655571631  0.0827723235640951  0.2521306052335209
  0.1629159705152702  0.8343811100162563  0.3363813160555494
  0.2453764900827377  0.2513258699373590  0.1674090706232104
  0.0806154571776003  0.5003742972811960  0.2512634866942803
  0.9141368696032696  0.3340794902234957  0.9189856774845577
  0.0810810696279248  0.4175541322198988  0.0002486915110760
  0.1626615151586972  0.4158869843664422  0.9170994890745687
  0.9129608197151922  0.2491123309328255  0.0012262243878057
  0.9987981420750548  0.5002254603697662  0.5004540612562082
  0.9165986030020344  0.3332054884888527  0.7493898301927409
  0.6645081271419809  0.8327124374610205  0.9999704393622558
  0.2461455516063952  0.3317642480541097  0.0849103741515775
  0.9954036999068380  0.0002640124848037  0.0007283625740198
  0.1636088744284770  0.8323028868959509  0.5006289786197811
  0.9954356106553653  0.8330049595340098  0.1664736616221195
  0.0781848210039806  0.9167280780013302  0.1690285230468473
  0.8288542349460791  0.9175364530172184  0.2509382414287031
  0.9137664215076770  0.8344953216795408  0.7472383759237894
  0.3297469812698861  0.5016188073564666  0.8336421060536072
  0.4984986943978513  0.4982117783837355  0.4996529239251295
  0.4144052926908713  0.4996226298385378  0.0851338506986178
  0.4125126056678411  0.5016004928131386  0.9155547396839100
  0.4970384430371689  0.4181501472797094  0.0830873175799789
  0.4970524502868486  0.7477657974982137  0.0839896587763792
  0.4953434766745912  0.7452087919533822  0.5840195133372734
  0.4944639771993431  0.1658583097958024  0.6665627003220808
  0.5814074572488496  0.1659514077409852  0.9176005097005407
  0.4974551655646457  0.1673049936652672  0.1682428593335483
  0.6643834557305843  0.7498061401422007  0.4156288506659764
  0.6644375424689640  0.8334661856996495  0.3336788412045310
  0.4969083297421669  0.6669634548418001  0.1673060765614629
  0.4156554242279150  0.8334508630118082  0.0822573439077076
  0.4132229441375769  0.4176807510955634  0.6670665060228448
  0.6657552786885300  0.4995792768963093  0.6688658854304986
  0.9958723852599426  0.0814477868385216  0.2511104822439512
  0.7455733962143095  0.1679715115779674  0.9165716784710732
  0.9993917314891019  0.9995694655774190  0.6640241299745760
  0.8332653211137601  0.9169580167025173  0.7495608049841880
  0.1645280614819509  0.2495520295403200  0.7494844690655466
  0.5818447402221106  0.8316403564665936  0.0810705828841009
  0.8289347085915871  0.4993325022395053  0.6659971667761659
  0.0818967044266687  0.3342498597825787  0.5826105918977600
  0.5803777905379334  0.4194104166520752  0.1634454772110019
  0.8294157698250887  0.3361801654940645  0.6627718466102693
  0.6660399458535606  0.5834392297525310  0.2490153890396939
  0.9976835409917442  0.3338391696694252  0.1682114778807939
  0.5804375140543400  0.6692238025336112  0.0864720259960658
  0.1650480836807152  0.4989807946539204  0.8340752986829769
  0.1635151773769907  0.4994329880150266  0.1672223537008810
  0.3297911865083368  0.5831348417056681  0.9176124631215347
  0.1615502319558808  0.7494658890167908  0.9164896393194596
  0.4973343153487861  0.9156424819096982  0.4166894296919617
  0.4144779417852488  0.9139307779690922  0.0003231974751948
  0.3323928371255946  0.0826645550766680  0.2493027885435161
  0.4129356642448322  0.0847162642313092  0.6692852016430927
  0.3293896274484159  0.5823250183768363  0.7511573982654616
  0.3296957117246739  0.7496411429760634  0.4167654508273264
  0.4970128953644112  0.6656438535719678  0.3321689672295948
  0.3303670029067327  0.5832767716080519  0.2484934864011031
  0.6629874330960709  0.2510719751607130  0.4160456358647653
  0.4986369689214545  0.2516227577667596  0.2515223320889901
  0.5806446070064490  0.0850156573636004  0.3342574570622551
  0.4150329729461817  0.2516184293214844  0.1691006598759351
  0.4134765495871226  0.0839765736285167  0.8331608876408789
  0.4958382484294585  0.7493536734832771  0.7506359302457546
  0.3292140118964080  0.8319413325434213  0.8341478252138118
  0.2480254319667120  0.6670141542856782  0.5844474633304700
  0.1641819662156155  0.5825445323612674  0.4186880198866602
  0.4131902348597885  0.6669429664408916  0.5842009531769091
  0.4958906094220236  0.3381573927725793  0.4997284329433458
  0.3310418723273655  0.8332145855684558  0.6670120799764886
  0.1636611142139649  0.7508067071544817  0.7503921878388847
  0.2465560458149475  0.7500876033808950  0.3336335023472644
  0.2455084924281625  0.6634294422603807  0.0825213568428854
  0.1688952301363522  0.7527277744581282  0.2516805664080721
  0.2469599703274624  0.8378694489330730  0.0824175332669514
  0.2475939252825086  0.5841394422074684  0.8345848092709173
  0.2467617605850781  0.4174233139217901  0.6669745596449673
  0.9964379188775910  0.5817457797098937  0.7482692142343440
  0.1636453477389064  0.5009598993917042  0.5000647955248929
  0.6646977509622788  0.5833535856340318  0.4165403830548374
  0.7482359432758009  0.4193653875213607  0.3342345904325228
  0.4985036283453630  0.3363213491899701  0.0006317019843989
  0.5798754333199871  0.4175083538194913  0.8349728698330120
  0.4984846558541351  0.3341516997062029  0.8333515053324744
  0.5803903954395306  0.3337130640394144  0.7501547980938031
  0.5795938410477873  0.4171138635446938  0.6683761714074314
  0.4974906966265106  0.5017431302751818  0.3311530577078166
  0.5805395763373776  0.4182614430638757  0.3324390602499419
  0.9138960022867039  0.2493380938850946  0.4989632424852092
  0.0793514428233308  0.1662830834554562  0.0841898033354109
  0.4971272608749599  0.5817489508963858  0.7497508499545753
  0.6639372327257358  0.6670111316958690  0.8342133635193930
  0.8289353072524287  0.4999199852585346  0.3339009882977854
  0.8295557644633815  0.3349838526095136  0.1667452838599698
  0.9978201192644183  0.1690775240251556  0.8323520900453816
  0.8309310484143342  0.1667281705041752  0.8321987021211319
  0.8309686055884679  0.1659767762122245  0.6665496344667383
  0.8290858050880909  0.1655500749356843  0.1683710344776673
  0.0802917557623667  0.7500860805766312  0.8313067922283081
  0.8324301697696500  0.0869833937059744  0.7479828341463927
  0.9991899500340103  0.9181843957321497  0.5831280856641773
  0.8318839352323363  0.9153531872914589  0.4177799607719190
  0.9133971359075683  0.0828938734792539  0.3339190126752949
  0.8294872816915021  0.9185648254597668  0.0842891207648834
  0.8321024914909337  0.9187261495286445  0.9173234127048057
  0.9132364326243905  0.1671327189054363  0.4174299566011041
  0.9141944253915220  0.5011513075784546  0.0851121316967843
  0.5809375866623343  0.5009561360673426  0.0845723448738391
  0.7497388470321348  0.4162306856543883  0.1665731776461308
  0.4968562358435231  0.5841063678276927  0.2500724154037001
  0.9130944005957592  0.5012343204357254  0.2508342165320049
  0.8318057553600707  0.3336276868562963  0.9994851633396458
  0.9165928314121408  0.6676487380569202  0.9173888423789183
  0.9142408894112823  0.0835655142734839  0.0016780215558927
  0.9131678586156238  0.2481065537620323  0.3376270599905660
  0.3316758778605648  0.0831563658637579  0.4154211331277163
  0.3298445019164430  0.6665197767257504  0.1660322213247637
  0.2506214200286280  0.9148626378811968  0.0002631560869915
  0.4138120266334190  0.4154099870281759  0.4996621703794115
  0.4150463678932539  0.4200574862185669  0.1650679931589413
  0.4982135013726287  0.3351521278624792  0.3313531735593724
  0.1633559085234379  0.2515407337800254  0.0849615959776153
  0.3263747905835068  0.0823215792732976  0.5819323992297206
  0.3307045321765277  0.2521267527244456  0.5824635998055870
  0.3291471093222880  0.5838594428934268  0.4167267927697389
  0.1623187106770178  0.6669386786054139  0.0008438459656798
  0.3309035606102387  0.2512915068402419  0.7510231271956916
  0.9964343030280041  0.9989946924496715  0.1680901968508398
  0.3297879487575598  0.2532695407102346  0.4166330070426445
  0.4113832659258237  0.0831356259374504  0.3346906414714418
  0.0818852516994805  0.4993617043020236  0.5840465791665646
  0.3302695312759725  0.3324307231194553  0.8332167010309477
  0.2478726440537030  0.9993539277080083  0.5823729943813279
  0.1644806651791494  0.9996987774218905  0.3344391827250969
  0.3308865631735721  0.9141824459250937  0.4168476797640870
  0.2470810682588966  0.9133787559851486  0.3317616821977186
  0.3292079107175306  0.6643730589015512  0.8333062091168447
  0.3371421515201685  0.0797502204773067  0.0846049376975419
  0.9962317916474934  0.7493231268157124  0.4175065275093423
  0.4135222015267627  0.1670904406602473  0.4150732724824143
  0.4140911068419312  0.0829717172457741  0.0002726480035867
  0.1646355894521630  0.9145746051032561  0.2516539956620912
  0.4136526555653194  0.0822374428317230  0.1683383977949977
  0.3320454123840031  0.2528226036010924  0.2499171226972038
  0.2489674138508978  0.0842150461200341  0.5008170964362193
  0.7477474194228856  0.0814183144071441  0.9149125093567526
  0.3321036903174298  0.1703415404697968  0.0836450824652354
  0.1641378506013698  0.0841111308815927  0.8297610151813314
  0.9120743421435292  0.0054793737586773  0.8331013513747880
  0.4151405277859724  0.0832450384889414  0.5805670933225441
  0.7458785728545655  0.8341692381853348  0.8328954737861408
  0.5801411617434570  0.6647697097939798  0.9964034246153330
  0.5749856536701362  0.9170165836165726  0.7552611182336669
  0.0767010937801098  0.5030826493779438  0.8327544214893084
  0.6645810722721484  0.8363726313815033  0.5824987556929812
  0.9126162984710705  0.2507515183061747  0.2466461222761024
  0.1637887574740022  0.9975071357476994  0.0845839634315085
  0.9953020272099122  0.1693079324729190  0.2510213766002858
  0.5812798324664965  0.9945224653832910  0.3333128806250315
  0.4962015039525058  0.8356352335303330  0.5819535701713017
  0.0771344962362964  0.7483319890266371  0.2513001041588770
  0.4095690007278717  0.5043349930883415  0.5000229770054586
  0.6628485541423641  0.5020835160932228  0.5791684358829310
  0.4975439837423288  0.9975653794497046  0.2499852985397845
  0.9158544828817590  0.8329705623810018  0.8339721162887220
  0.2473084928908247  0.7503595343565582  0.0825701914280043
  0.4968698316368017  0.2473409629233357  0.4992009630871391
  0.7475742012334108  0.0000102594248551  0.6699744971354835
  0.2482278952609468  0.0822187837882178  0.0839711511190091
  0.8287243777209330  0.6618437201718338  0.9178056334571199
  0.4119928329838849  0.9161306450945318  0.5789958767343624
  0.8298367574344486  0.3327121241032192  0.7504881195338283
  0.5800856352849521  0.9145609230056776  0.5782375693664600
  0.4969013143431212  0.5880087747029824  0.5005348567273878
  0.5810397075150699  0.8347204744434038  0.1714673860920035
  0.3290768837248207  0.4160834342953545  0.0002651046174824
  0.5017766620932466  0.2472224621430189  0.9999416990199677
  0.1631346149565762  0.9169038452332324  0.9988816300293017
  0.2517564440134740  0.1672907309540032  0.9987116762549039
  0.6650554046730444  0.3342378618873137  0.9186820718704953
  0.4140345153128255  0.9998406549184967  0.9171700324755160
  0.3301819243700801  0.9977588318239669  0.3335285709451388
  0.4118506056496515  0.0837026862339753  0.4967061563574033
  0.4130473280292620  0.9991692900702434  0.4159643687500795
  0.4975525373921876  0.9997643272509936  0.1656352233136568
  0.0824766069693728  0.9166627636532735  0.6661764343989633
  0.1649675222920722  0.0840311602185529  0.7477908423385212
  0.3295716829431631  0.0000708078816179  0.6676748743189529
  0.4123003985111249  0.9165178275505227  0.8336861122972768
  0.4974817540866983  0.0836294479335251  0.5831405505347681
  0.2480504596883443  0.0000306453648503  0.9171830041117432
  0.4972281846629972  0.0826822909458128  0.0842065904824552
  0.2480850997171170  0.2510770869586304  0.3326304320717178
  0.4123980570695791  0.0004801007870643  0.5835077035791355
  0.3302960339109827  0.0840314912280745  0.7503098713519208
  0.1652282059897041  0.0007788026624016  0.6653409238043121
  0.2470550887208648  0.3340448045540657  0.5839491253558674
  0.1642098286499874  0.8327656086073659  0.6669954414938549
  0.4159466205709961  0.9986179716006542  0.0826498937717285
  0.3298742978011264  0.9167333374095732  0.7509620205406334
  0.3309315660929119  0.3349235364493676  0.1673323229907642
  0.1642478456560847  0.7502543401610854  0.4175717656784865
  0.2484176457642482  0.9987228505346010  0.4168159197178432
  0.4967875345764797  0.9186524343482408  0.5835746482972289
  0.4124614957911280  0.0001400632322147  0.7509477333703172
  0.3296284063687066  0.7495816405288775  0.9162810512735826
  0.4140515460007412  0.2513951058456344  0.3324743892787441
  0.3310296824457997  0.9160862043012962  0.9166872076671273
  0.4119485051461926  0.2521866637888683  0.4994864763648771
  0.4136352664555791  0.8324818218844705  0.9160245143048976
  0.3316370070158645  0.9981054633611999  0.1671591716854324
  0.0813039524232938  0.0010126936973426  0.7482928488314398
  0.3318439407486604  0.2530343837421132  0.0857889271749884
  0.5796668626715924  0.0004110270836914  0.9170734753346885
  0.5809413778333102  0.9998321656766043  0.0827804929901044
  0.4146074187155795  0.1667101758707098  0.9172117061687293
  0.3322796211803807  0.9987615124995444  0.0002230671920105
  0.4139143242271816  0.3350322011118200  0.4152685056905953
  0.4146541508354966  0.4185582761185724  0.3324483653029697
  0.2472157833933472  0.3354957260424350  0.4150902419281608
  0.4131851949470723  0.1676951403522804  0.7501941420289622
  0.3306123554823416  0.4170539093760208  0.9154867793186443
  0.4145943378529440  0.3339588873840458  0.9164068366003469
  0.4136342912185352  0.4165841520091814  0.8338378879085863
  0.3304124939376647  0.5008164056932775  0.0010525389761264
  0.1629736861378096  0.0014138751807143  0.9996602098503521
  0.1626749818745545  0.9172588850476378  0.9154263171016873
  0.0794295968055487  0.8338645712448215  0.9158270837411608
  0.3291844068166471  0.5005872072823029  0.1666352333882043
  0.2475973093234657  0.7499542499506682  0.1670558011076742
  0.4134541855937806  0.5008457438108288  0.2498724914318208
  0.4126356844638956  0.1683380161012034  0.5825592770622631
  0.3304470805806827  0.1674971101978513  0.8334949505595729
  0.3318391400946362  0.2511684503630204  0.9159789865499267
  0.3298488366497925  0.1671624171220481  0.6664759277465948
  0.3311382416836492  0.9990127052976452  0.4983496325148749
  0.4140132035047903  0.2505225383920787  0.6668662574286376
  0.5800671018045428  0.0003684516312349  0.4176250545435036
  0.2473349175416640  0.8329437387644908  0.4169639944057020
  0.4132019400867500  0.9148062661228680  0.3346149428169960
  0.3284976582401428  0.9163643752754038  0.5836341589783406
  0.2473783368116386  0.7501015065705009  0.6670293089046575
  0.4140553616970397  0.2508517806223410  0.8334932476225207
  0.1639962470701262  0.9164910953399066  0.4173172667885890
  0.3302556340626049  0.4171134664120942  0.0847140297775527
  0.4144820140305369  0.3342590060418077  0.0848349078244376
  0.4149097023166985  0.4177108910681693  0.9999690166287637
  0.2475489234067603  0.0832859493341551  0.1688613235501118
  0.3299289119097721  0.4182362371257526  0.2495313055790944
  0.4160001500855083  0.1673136113152427  0.0848919065571745
  0.2480398034980190  0.9997323533112301  0.2504566227442473
  0.3306841714828532  0.3351904525675784  0.3324692984344305
  0.0790907770425937  0.0009432455159621  0.9172376239305480
  0.4976540646609738  0.9998834832225837  0.0003088365804210
  0.0797254763560231  0.0819880240185717  0.3343990901958662
  0.3317207624049606  0.7509512730264138  0.0835253494734348
  0.3292207785053535  0.5831837372907088  0.0837729778727013
  0.3294832395438718  0.7500882958113729  0.7508203680688624
  0.4137847313171555  0.7492807782570619  0.0000294175012565
  0.0791986909004452  0.8332369597035058  0.4176416413054363
  0.1634619202164440  0.9995870849161896  0.1694818580625355
  0.2471683888029814  0.9171169043012458  0.8334899755591413
  0.2467746033530460  0.7505020825789374  0.9992795476951853
  0.3301044937565662  0.3336808930808533  0.6670753409007932
  0.3304036785633704  0.4166815817668941  0.7509820941800016
  0.4139715432972226  0.3343518741562910  0.7501036743906808
  0.3347219691994806  0.1673492032805245  0.0000802953154919
  0.2469520640047919  0.3332582760786734  0.7509463735776782
  0.2470383827919036  0.1682466877558042  0.0855578438453008
  0.3323094818244137  0.0830320691177849  0.9171387816091395
  0.2483679678348245  0.0824558160035516  0.3335811105215575
  0.3297008072120434  0.1679564218834202  0.3325139650844393
  0.1651998383375525  0.0837029937710837  0.5816351171668175
  0.3305427003378084  0.1681779309400206  0.4991205123800904
  0.4968346005647154  0.2510873547430882  0.5839447024052415
  0.9134578641202955  0.3333110426452952  0.5820213224131707
  0.9157152648899540  0.0877093056750950  0.8313601495357589
  0.8314659036078599  0.4998754516838333  0.4986061651148085
  0.9982348168426982  0.1669450862904838  0.3361352234866974
  0.9981439482333044  0.2504514884025485  0.4169178001655402
  0.8286143625060935  0.2502416921270452  0.2508847323590290
  0.2484501695739420  0.1688760128157166  0.5828590499733486
  0.9129102450762414  0.3337040120314448  0.0836313713539180
  0.8295981521531299  0.1663075339562063  0.3341274899744018
  0.9977346387583416  0.2506933776068138  0.5821123308475835
  0.9980592690181922  0.1676310666771798  0.4995660950588673
  0.0811775236218960  0.2506948907589874  0.3337180293612075
  0.8296919882165802  0.1669815876453503  0.4992342360726115
  0.8303586526227764  0.2500903449504465  0.5823826246372705
  0.9138569646770772  0.1672331339722466  0.5819069724582263
  0.8288358526293975  0.2501728812004091  0.4168452452739885
  0.0815376441629015  0.0845891785865155  0.6651954518514210
  0.4128345183730933  0.6663050402825497  0.9160122818248305
  0.3293879657987746  0.6663219116484556  0.0008021593298913
  0.4128891211362727  0.5841978030304408  0.3328310635731178
  0.3282265481460154  0.5008346882449359  0.4997538281855091
  0.4132369379661159  0.4998183419174954  0.5850780303839689
  0.3303714201466608  0.4167624988508106  0.5837654937703407
  0.9142126322970697  0.8337485134119244  0.5837721671741387
  0.3297834835831107  0.4998668598981398  0.6674043671828274
  0.4136972514887440  0.5839327144699485  0.6677619313261930
  0.4132250738642315  0.5003145167508465  0.7508190211129243
  0.4136330688468109  0.6661625422704485  0.7502426641778385
  0.4974261040109053  0.0842859579672051  0.2504749569092173
  0.4130559840779816  0.5844948351181420  0.8327807926115248
  0.4138314586759852  0.1669812159540818  0.2516480536777329
  0.2460326358838470  0.4992045131971706  0.9175927097564047
  0.5815700462828739  0.0002020663002081  0.2494566843995679
  0.4134070262743212  0.5835087824457817  0.0009308046073949
  0.4956785716404603  0.5823210321194298  0.9168060248209242
  0.6640985816777923  0.9996282103155623  0.1666434391311785
  0.4956497836861442  0.9993762719161650  0.3350373230736638
  0.4968922839985487  0.0835105636478523  0.4153986171431013
  0.4134835475780239  0.5006362628811415  0.4144656199700552
  0.4130935613543837  0.7486678593712910  0.8330903126679782
  0.2466472642194341  0.8334460892672962  0.9159781180075449
  0.2476427729531520  0.9161788554257232  0.6673583988321194
  0.4135520025690287  0.6665966071462353  0.0844549636225744
  0.9141936972154991  0.7500557717260868  0.5007058983131337
  0.3313614874201688  0.8336974797602543  0.1658566604112452
  0.3312559666767095  0.9148099639780154  0.2500246717217862
  0.4968015086764647  0.9133190887021329  0.2504205739035020
  0.3323199224831197  0.9160352946287819  0.0833292454646099
  0.3305338820288768  0.8321549084754015  0.3338266102607564
  0.4135125725919435  0.8315319437731793  0.4162849083751393
  0.3302109547926486  0.8319653482756361  0.4995548243312269
  0.4124339390754177  0.8309241375432042  0.5836002873848861
  0.9964739983703230  0.8336367540874723  0.3344351037764051
  0.8309002909157909  0.2485205306954344  0.7482130974578771
  0.2472581848349383  0.4173136253455755  0.4994154815982493
  0.6621723628620928  0.0011787948911048  0.6668813135062647
  0.5789563774234785  0.1669928968793746  0.7495500124244894
  0.5810107211141258  0.8318906101963481  0.2534829101539399
  0.9970030071582145  0.6671647555096941  0.0011030062157975
  0.5805952644553639  0.8308314660012982  0.4162624692843004
  0.1635953242436286  0.6664234804420200  0.8331102221690334
  0.4959330194664772  0.8322804265647106  0.1659215862900635
  0.7471515387751947  0.0848825489649873  0.6669361090998405
  0.5798708050191405  0.1665061258494251  0.5830666186937494
  0.5800958376174440  0.9165360578931002  0.4965832061910251
  0.7469397817791333  0.2502974337827900  0.6658419474751545
  0.4959322790060786  0.0005101636433259  0.6672737777792201
  0.2472841930257702  0.9156178585032522  0.4996677721560171
  0.7478437560426330  0.8334092022927811  0.9178240412037372
  0.2464764372878445  0.3326593596702465  0.9165551397204323
  0.2443667563293555  0.4166111495721975  0.0009623327748748
  0.9974593268511724  0.1662817940069950  0.1672543529310535
  0.0807972477792891  0.5843293556681926  0.5002837687511098
  0.2467743203728126  0.4996918027050802  0.5836567150141907
  0.1652331826791887  0.1680668725461381  0.6650698045097809
  0.1646257875174991  0.2506089818838349  0.4159789703621017
  0.2477233974958461  0.5006566971338390  0.4164316664151268
  0.1647865293817965  0.3339281509646417  0.6671167286067712
  0.0809265293180797  0.5833742897348710  0.3343964618582405
  0.1636648025121853  0.5827928108921927  0.2497902732292251
  0.2463808269819600  0.5009390703619045  0.2501507935138079
  0.0809859046652398  0.6658972707364744  0.2512308175859678
  0.2474491513739110  0.0838199083789595  0.6658868756090668
  0.2475751273122314  0.2512627882643292  0.6667533791968439
  0.2464383414238785  0.4169271058410839  0.1667277638251783
  0.1626770301204226  0.5823647726311424  0.0839695052964792
  0.8299395478356610  0.8334239201589878  0.8339044844189041
  0.0778754955696603  0.0005775795394051  0.0841958232733635
  0.0799650232149279  0.2497883576859980  0.8334300900899866
  0.0794857859791663  0.2504246014806276  0.0012314952629576
  0.2475368117968877  0.1675140003909958  0.9161982332822010
  0.1637486026373258  0.4164653266723681  0.7505396225953914
  0.0803468222282320  0.5006752957755648  0.4170392262892538
  0.8311641298075397  0.5011539803981099  0.0012528890423544
  0.0811684490217234  0.2498764853502416  0.1677273219122344
  0.9144194530495976  0.4178519936151258  0.0010605017688641
  0.8313158935984921  0.4172857641017485  0.0838567936610874
  0.8307155533375893  0.4170155689196255  0.2502712881831737