Cr  H Ni 
 1.0000000000000000
    21.1200000000000010    0.0000000000000000    0.0000000000000000
     0.0000000000000000   21.1200000000000010    0.0000000000000000
     0.0000000000000000    0.0000000000000000   21.1200000000000010
 Cr  H   Ni 
 259  35 605
Direct
  0.9138926934278490  0.2512759086090186  0.8334776235975943
  0.4963978453544889  0.6671227669318007  0.3323535175705341
  0.3312060392165043  0.5836386939951874  0.2478427514670304
  0.6631840576352901  0.2527580137024906  0.4156595870822904
  0.4982199645947429  0.2512170985419704  0.2509396379235813
  0.5796456194303025  0.0809897150778178  0.3331333673776745
  0.4129990242412074  0.2511285164368338  0.1691941122456067
  0.4132334745858885  0.0835909637272586  0.8322842842800477
  0.4958282592172679  0.7491397182351753  0.7496425363996996
  0.4943555486365079  0.9171081904483311  0.4169000317364522
  0.4137637019535990  0.9102273609399502  0.0009566755630894
  0.3314013818316647  0.0822256583694124  0.2493427224850746
  0.4118909264531484  0.0844988299014961  0.6670474977492125
  0.3298393808874438  0.5828082986895163  0.7523405465085656
  0.3298784086496461  0.7498625886170988  0.4171498846304089
  0.3290782481080575  0.8318464858861425  0.8338994666747740
  0.4968922625748587  0.7481102403112787  0.0829241615734253
  0.4944998766135524  0.7459108941964964  0.5853049885207133
  0.4945511533545868  0.1659558742793186  0.6662124835583897
  0.5805756733320492  0.1663237591737622  0.9173042296210590
  0.4974007407589271  0.1666720354212361  0.1674776920446671
  0.6637462220097428  0.7496206105586074  0.4201924500820850
  0.6642343086571538  0.8361443148769068  0.3334013996509724
  0.4971277318203016  0.6672396064097929  0.1652403758470556
  0.4146221302041296  0.8343740329631119  0.0813300214189824
  0.1633467533029214  0.5003039770171712  0.1674330101797316
  0.1622409699875978  0.7491260076885780  0.9174869475121968
  0.5808583935119649  0.5002817357212587  0.0842305350226608
  0.4128223499778853  0.6666599815629425  0.2500606377852133
  0.4955941465541708  0.4185851897257200  0.0837424459470980
  0.8357474398916500  0.9158000044000335  0.7496558746596467
  0.4127884651110797  0.5012557333606658  0.9162497448549169
  0.9995708184087964  0.9991142501260558  0.6646471259912718
  0.5804924427247122  0.4171101495759181  0.8352918673551319
  0.4989333287474412  0.3348287525396992  0.8323234264008713
  0.5807820016828664  0.3337146860352149  0.7503711099291757
  0.5799665877515796  0.4172028292875927  0.6688881813894940
  0.4980910287583746  0.4995521372219663  0.3283966064497262
  0.5799832683111277  0.4182119529529927  0.3317718586465069
  0.7479306576499882  0.4194635587725243  0.3337467495180743
  0.5800860192014938  0.4192942603334624  0.1631914469209053
  0.6650205830231599  0.5834669909530084  0.2487164655759448
  0.5799510082681817  0.6687679329975997  0.0835727956480219
  0.6661079561186148  0.4993299241308591  0.6693975250499324
  0.9966041318590626  0.0841841354301301  0.2505070707820563
  0.7466847812992722  0.1655083696207977  0.9167276570684653
  0.4130408445744734  0.4179483402083246  0.6676727447950374
  0.2468054385988942  0.7502098108158302  0.3332587718591980
  0.2458216616846946  0.6665689005898440  0.0824322599415887
  0.1658786010224110  0.7517167981120179  0.2504901163901248
  0.2463676359398299  0.8331429850369707  0.0827086410911774
  0.1635722141473462  0.5824979992983166  0.7493020970084164
  0.2468126501251810  0.4184456820622983  0.6680909568661501
  0.9949739031111789  0.5822291929146493  0.7482834204167828
  0.1637297209371799  0.5011538488560423  0.5002676241971876
  0.6634902035751298  0.5831331233867461  0.4159102600556535
  0.4953691636763379  0.3383810453278205  0.5002482410934010
  0.3309206469786102  0.5018000270548909  0.8352250162274196
  0.4127734388839391  0.7484939801069876  0.6672713277476552
  0.4955748019239791  0.4975334536754502  0.5033220841992474
  0.1635223248289144  0.7515516184587040  0.7503276968653541
  0.4139416538282608  0.4990858518937543  0.0836590461978159
  0.8325346893991360  0.3337229859857411  0.9995103384692241
  0.4972672359444700  0.3361753137098812  0.0007930324735184
  0.4139274085710710  0.6676358054891635  0.5853849400990173
  0.8288498659326095  0.3365233553634618  0.6652324417437105
  0.4136866106818150  0.4178719483230589  0.5004374156889304
  0.4144205125713518  0.4199292989588633  0.1650588762246430
  0.4978889416678949  0.3346095271838147  0.3311420440588782
  0.1664779117425412  0.2522920942848412  0.0849255441976065
  0.3295883194933410  0.0829833448276049  0.5832854581101823
  0.3304714856329980  0.0833230513290677  0.4182181924106062
  0.3303038562401218  0.5834299823032760  0.4138723144491524
  0.1630160633982341  0.6670881275385793  0.0009524136013636
  0.3305522712200498  0.2520859137817877  0.7508357265414459
  0.9965775741345678  0.9976827624989314  0.1685077653391223
  0.3299011872830837  0.2531759587720631  0.4168491306823047
  0.4955744198619365  0.9992936186239774  0.3365374086749946
  0.3321163939219400  0.6669139219966975  0.1675059601053762
  0.2463867238429317  0.9150179837231549  0.0001729252025779
  0.3302613007319787  0.2527183688756919  0.5830095647282445
  0.0812870369156777  0.4994754678439315  0.5844771198352242
  0.3319806783145591  0.2522591583358199  0.2497173599390261
  0.4951728536058973  0.0828883353143179  0.0838617379321314
  0.1645794073263883  0.9142495827181613  0.2486405040856671
  0.4136733023929617  0.0855732767819090  0.0016224599329758
  0.4094486217225984  0.1668283081084714  0.4160398434863884
  0.2493307376697094  0.0841804851115446  0.5028981583843845
  0.3333022976437892  0.0818393423664719  0.0833192394914704
  0.3305009670786292  0.6654602496018024  0.8329271750079218
  0.2508411073924945  0.9149588700735606  0.3330917943228074
  0.3311015899724487  0.9145221306749816  0.4178578501317246
  0.1645611667583782  0.0029041111542299  0.3343905681107284
  0.9961283382823003  0.7493142082951295  0.4174969580298836
  0.2475327976833223  0.9992395085711524  0.5827699684372670
  0.3296532863866691  0.3334738413468918  0.8330363721646969
  0.8304372759420293  0.1667150862888788  0.8362947375224946
  0.9971656698755199  0.1706847433620759  0.8310756539569577
  0.9974731184713684  0.3342170072317261  0.1685373412388707
  0.1637370517753498  0.4994292583548714  0.8343811740047670
  0.3305674080468828  0.5825771016785526  0.9174688371429462
  0.2477778280881881  0.6671537509062605  0.5848345343486426
  0.1642948374323108  0.5827114322759520  0.4184533156986927
  0.8309645918839047  0.1664898815813877  0.6631960861799786
  0.9146292515193990  0.0825894463797739  0.0012214208152894
  0.9131892595099350  0.2478703870711066  0.3367341789846080
  0.9135723118100295  0.2498877976766162  0.4994136092948621
  0.0808051225346594  0.1660272289559063  0.0834312381584098
  0.4980080864903165  0.5813508923801872  0.7503187699857869
  0.6641568666282578  0.6666605560762437  0.8348205630601803
  0.8288892411426316  0.5001778218726153  0.3334259957619382
  0.8300887770196634  0.3347932888808410  0.1669365537964884
  0.8292431663912720  0.1655024846360246  0.1678575917937756
  0.9106030950274313  0.1672771599938591  0.4173131302282441
  0.9138254465303233  0.5016313488114066  0.0848106375307769
  0.7489979092443444  0.4163849977732120  0.1657534513282917
  0.9126202850893417  0.5010916189747020  0.2500408813153490
  0.9127999950196540  0.6688178465492250  0.9170235246938170
  0.0799770145226846  0.7488230411593804  0.8318564739886661
  0.8313058463622552  0.0828522790210991  0.7478586432635164
  0.9994225726716224  0.9178530055157870  0.5831606202138613
  0.8316418458106487  0.9153631525645807  0.4178010704552671
  0.9133511515794540  0.0831681172588611  0.3336832276656508
  0.5818857730476389  0.8319667424077014  0.0806489416529148
  0.8292715659836567  0.9182895563882494  0.0876875154660062
  0.8287797111552792  0.4995912238856323  0.6662492935184195
  0.8303638794209695  0.9182663156082288  0.9137310690014300
  0.0812422684800113  0.3347056475641286  0.5835156917327257
  0.9133086596023671  0.8331338677497396  0.7490567503838442
  0.1649388946510057  0.2497318863539675  0.7498066664416350
  0.0789723894218384  0.9166184342097262  0.1679527542215303
  0.9969856900461248  0.8340357468457160  0.0000482856317705
  0.8334228163073791  0.7474785784929523  0.9157877083370060
  0.8312123491220944  0.8339731807893834  0.5020630254031284
  0.9129663741114301  0.8343174277158305  0.4167740365786144
  0.9141052939396814  0.7510861370882913  0.1671535926113712
  0.8315009473623490  0.7500700838501322  0.0840254458589638
  0.0818199250460376  0.4163974428312740  0.6672674626790412
  0.9128983851937305  0.6661355837415661  0.5831138584790394
  0.9161160837082284  0.4180129134780074  0.4982658894762139
  0.5823975033511357  0.0837061367959515  0.9972401510822932
  0.4951433250838512  0.0035668356550067  0.8343734310318972
  0.6643471682945876  0.7487468710437755  0.7496338012141200
  0.9945030819840051  0.5844827871015492  0.9173513101658645
  0.1653774536920027  0.0826551370337259  0.4176987593115162
  0.6626135530249143  0.9165506138903333  0.9177631375054364
  0.7453335313411179  0.2503637450391923  0.3323989529968739
  0.6654242853064022  0.1668882321253033  0.5021103504980858
  0.6638208595128213  0.2506941675568257  0.2506438845024639
  0.7494083808554760  0.0851046173343157  0.0003156737201870
  0.6655302754963526  0.2510204350882041  0.0831082397503876
  0.7478233276546219  0.9998434083699655  0.5834211916566461
  0.7473385738717671  0.9992458767366225  0.4166692686947329
  0.7478362939795623  0.0002716628166537  0.9151053433330362
  0.5805932823105417  0.9174319910966325  0.6650442662506884
  0.5786940711401873  0.0013667324517179  0.5831281726749737
  0.6639192596894004  0.7503547111179422  0.2483211640911726
  0.5799130622617142  0.0816521817741089  0.5016759271495834
  0.6652823297476687  0.4170042743032281  0.9180700661821789
  0.7432992076416604  0.2483100635927626  0.4999308163050367
  0.7467389518484884  0.5840965445183652  0.8352283739506005
  0.1653676985798905  0.0848657254425547  0.0818992497344479
  0.7479897073614813  0.4174947357974066  0.4980277528476905
  0.0801151486179705  0.3342154608409585  0.2511674782244897
  0.4955056693214285  0.7485415685690411  0.9164055061095915
  0.7474776145738595  0.5829790498806809  0.6670446025650670
  0.6629960771941027  0.7464796233290404  0.5826495626265730
  0.4120625182945997  0.9156571882572876  0.6662610941253521
  0.5797499996786838  0.0835899561062731  0.1690776627594930
  0.4139689800521860  0.8333083886166408  0.2505885456194540
  0.5817739327186872  0.9149984071977372  0.9980259268282522
  0.6628070664681677  0.1657572469924558  0.6666820794802490
  0.2458050238703082  0.5002051803933439  0.0840918990217554
  0.6633993357807983  0.2494790276171535  0.7485448573498458
  0.6647129479236689  0.2517397683001010  0.9179035171979347
  0.6628273499781040  0.7509748986305684  0.0825410581038413
  0.8319253453521136  0.7494791067146561  0.7498451325495826
  0.6638418629375102  0.7484659780937648  0.9165607614439026
  0.8298952046911092  0.6680368713655874  0.5009289673514278
  0.7484237594555370  0.5006230124373997  0.4156139354277922
  0.8307985419434969  0.6668716565637245  0.3329591714459681
  0.7475664690898772  0.5843945167726846  0.0010805406387477
  0.5815483094474271  0.4992807839966184  0.9161144626409865
  0.7488854250180558  0.4153521263324709  0.8352738818247879
  0.6623857395886796  0.3348984678301006  0.6665101763869126
  0.8330464656579656  0.3329277799145084  0.8350175977146682
  0.4985831784600780  0.3342445142707356  0.6682855331054437
  0.7477250310536712  0.4173362270879132  0.6668679006056198
  0.5805345771296406  0.3346564077504335  0.5845352942412869
  0.6639959275299118  0.3334864817746826  0.0019245130726672
  0.8291771052143816  0.9173502282586765  0.2507643520826173
  0.6644790286619705  0.8329362451991281  0.9996614350967022
  0.9953307993778598  0.9990753099435655  0.9997680733569224
  0.9962984616839013  0.8327372306004970  0.1662093333334639
  0.6607363494969666  0.9181506064459910  0.7490121433245398
  0.9131961568121215  0.5004381945231746  0.7489356867756329
  0.9125297569704452  0.5815056278982945  0.6668570668844422
  0.9970041291372798  0.5841370714693648  0.4191636664910648
  0.6634230461071751  0.2498325454905397  0.5834283353801299
  0.8302465329765771  0.1642608439510037  0.0010691000990852
  0.5801476878838083  0.2518570413124072  0.3325827176028422
  0.7470000663881734  0.9995259247035919  0.2504560842125767
  0.9951194816532126  0.3314444527574433  0.8337048003821473
  0.4123773960485125  0.2527634431638289  0.0030187853779880
  0.1631471033873747  0.4998085703006861  0.6661464445145563
  0.0810364028314857  0.4174752134557603  0.3341149129414409
  0.0811854823154723  0.3389059747326207  0.4143329547499642
  0.2463674038363934  0.0000058828092944  0.7481865131760086
  0.8311305309038077  0.9172754161847507  0.5818438272413022
  0.2470503342614753  0.4186706666147811  0.3323681840350571
  0.1654753413340254  0.1657582641538519  0.3320739562337224
  0.9951557330476477  0.4168764960350730  0.4163298064863273
  0.9983554665402619  0.5001533457223781  0.5004283940152051
  0.9972366595497808  0.2512532004088973  0.7487108294898496
  0.2466901706371636  0.3336545182477043  0.0839825096779789
  0.1642003791927880  0.8322389908198774  0.5011121250855523
  0.1637546986091070  0.0824908059232442  0.2515943091578688
  0.1633334701505545  0.8307192505882913  0.3359132936097413
  0.2462473722111835  0.2500142497260720  0.1674520753648934
  0.0813920654866316  0.5009093148786398  0.2501151034587775
  0.9138434059240191  0.3340943074958351  0.9194886958368139
  0.6624467813789614  0.0854197817271624  0.7481481838332880
  0.0809366384018066  0.4183123068798630  0.0000213255942985
  0.1611593284254402  0.4997756642869539  0.0001325975772586
  0.1624275496619138  0.4169877150198429  0.9171048847020371
  0.9143271105735759  0.5015588326271959  0.9175887612742293
  0.9132538767428278  0.2490654068684366  0.0008051593182738
  0.9971462268928795  0.5836597544169740  0.0848789602013222
  0.0792614585766392  0.4145694532869660  0.8347221947468357
  0.0803940958193662  0.6676756783941187  0.9170374081644307
  0.0813438092016987  0.7500605111665699  0.6675063679708931
  0.1627624459944537  0.0843281898879228  0.9187811040854014
  0.9974739991629481  0.6696020801812742  0.3337762052782985
  0.7465888921155688  0.5849192362291570  0.1664591427056885
  0.9983489752107489  0.9173714974553845  0.2492961224186891
  0.0806028692618854  0.9999619405980895  0.5829812758147973
  0.1624376037555272  0.1668297261398796  0.0025999657743233
  0.9134197846985482  0.7511705095359427  0.8337121430737899
  0.0803438384256522  0.6671638065849951  0.5841983259336042
  0.0799794649480917  0.9165693751891435  0.5003366780036966
  0.0823090765456490  0.1659355419557601  0.2502830193982453
  0.3289537737850994  0.3341114402083004  0.5002839732070909
  0.2491728553147578  0.2515844340184848  0.4989614547291898
  0.3334998912851441  0.0004331531770208  0.8340678903148265
  0.9964590251384905  0.7505116179248040  0.0861886198353665
  0.9963214290740844  0.9150559593053558  0.4178312109647049
  0.0803211557085615  0.9167437656105099  0.0007295575383593
  0.1640958992696498  0.2528952108352208  0.5828015024122153
  0.2476129037633758  0.8349162929749142  0.2492860103127534
  0.0871162653241946  0.1618284667024872  0.4171738022491920
  0.9133508995811296  0.0842475706031422  0.4993660335056062
  0.1654246733565716  0.9166517363504261  0.7494584105881832
  0.2460407325630703  0.1681731765426227  0.7502492869219177
  0.0814654992824322  0.8310166077375682  0.7498518267823464
  0.9988707654990404  0.1679946158593166  0.6653109955555221
  0.0018053969736501  0.0029461935674311  0.8323887031992299
  0.0825602673243565  0.0828651297042394  0.5006381222427480
  0.9109058907579564  0.9136818379827573  0.8309917155310762
  0.1629226950140776  0.2499905986099902  0.9190009613435771
  0.5823203094134101  0.0838608157564955  0.0833857294476681
  0.4975315225019005  0.5878634093992701  0.5003798096613826
  0.0768670528478006  0.2544525175374309  0.0844286887504898
  0.0811798216209870  0.2504369774071467  0.4171227418183460
  0.7482267731636424  0.9159553939424995  0.7488304395272399
  0.3303815510410563  0.5825345464601779  0.5046139996615578
  0.5808428281656429  0.8350356672707037  0.1711847584994008
  0.6643824419641792  0.1636758272307285  0.4138937142744458
  0.4960729028728082  0.8365674560745169  0.5824830966737338
  0.9978653802866484  0.5811503753799769  0.3299203298798769
  0.5841427673711043  0.9154476437203943  0.4170912329753478
  0.9125526453081277  0.0023122749198542  0.8323725426433621
  0.4143822272806731  0.2515758173866828  0.9126699975121437
  0.2442377699122385  0.0002644176732413  0.8371564571376898
  0.4134918554348061  0.9982082298623183  0.0008801307637017
  0.4969587161815533  0.5016414239111798  0.4158948690666053
  0.5005590400882040  0.2475606258011125  0.0000169106233878
  0.8304475543518369  0.1693240535951099  0.7498148580483912
  0.8307425706313621  0.9169238098263696  0.0004895137330711
  0.0773067859580898  0.0789995707217511  0.0835731077006562
  0.9135200567474742  0.2500012031556312  0.2464057095221194
  0.0760446178812232  0.5028575531201905  0.8336512469314745
  0.6630275883026002  0.5018375880332557  0.5796031390698717
  0.9980623638069311  0.1678165013625004  0.4173551490112136
  0.9997709474203548  0.9143541441715241  0.8332827412512145
  0.6637953972253248  0.8370208232329907  0.5829523714594372
  0.4953300065540557  0.9126515077520831  0.8337274061213392
  0.2509563017629891  0.1672262346660825  0.9996897269224494
  0.4966701956783056  0.9982123438042089  0.2463150467437678
  0.6636108093638399  0.7491673764615283  0.3344679887046729
  0.3310573120426469  0.1672906589007091  0.9166474269136889
  0.1641851714130710  0.9166873875846814  0.3353148959006503
  0.5738221214770572  0.9167626689685495  0.7525651981546219
  0.4966781085384744  0.2477243403931804  0.5001952359835382
  0.4995015648896046  0.1660674890582766  0.4170447269826585
  0.5802457925769259  0.5833813890776691  0.8343866920749797
  0.9970172625839546  0.4172639802477313  0.2507155116713201
  0.9128817900858178  0.3342063088028991  0.2502194699886092
  0.9960717304821839  0.4177058322038388  0.0845589507271741
  0.7479146356593664  0.8327089516785366  0.0836735893482128
  0.6641130869686503  0.9167622711641570  0.0822118787745640
  0.7482604909683938  0.8330779039984690  0.4176078001805776
  0.7463893576519776  0.9165929994262703  0.9996162881381035
  0.7475231344166113  0.8331070202396531  0.2504778237859211
  0.7475479973996424  0.0003474331348236  0.0838262266450543
  0.5792266799851545  0.7495177020901236  0.3333483037590610
  0.1644232734288293  0.2506339073239668  0.2501218640281946
  0.4136472947009968  0.9145591832301647  0.1663565353225634
  0.0806328914029233  0.7496759438545895  0.5011349827498375
  0.6645803854918910  0.9174867266452250  0.2507682352408059
  0.8302605855640325  0.8333234994251051  0.1670360606065525
  0.2475776040121468  0.6667734891791331  0.4165007922466970
  0.7472687750038423  0.5843639295686617  0.4984654938032683
  0.7474117382767912  0.7502773088504540  0.1664275681034567
  0.8301495816500807  0.6670584768276510  0.1660874630475826
  0.6638936108700260  0.6664828776723056  0.5000087369995381
  0.6645196681294606  0.5006190860972778  0.3324845034854666
  0.7468970767710496  0.7493971193320225  0.6665086964926082
  0.6637450793830103  0.8328137312308399  0.4992400917961752
  0.7481898718116785  0.7501686334063508  0.3344799596833200
  0.7471959482685165  0.5846783725127936  0.3331403689410660
  0.5804325172005133  0.6665759338196563  0.5843031243443962
  0.5818922990709515  0.5003518306343853  0.2486486220130397
  0.5802101966911423  0.8305840433216209  0.7503673864548375
  0.6640824275759976  0.5001161935004224  0.4967932591499033
  0.7475275209343718  0.7499795597219105  0.9996004027763948
  0.6650640998266846  0.5838083341990958  0.5837555685752687
  0.6637700459011514  0.6673721779371438  0.1662499412528295
  0.1634959845150773  0.6661623497779571  0.6672116620436175
  0.9976022920794192  0.7490756954307780  0.5838551997715345
  0.7469884961739245  0.9163527901560269  0.8335212269361471
  0.0815385099547757  0.1683735554949371  0.7494688888613769
  0.8310104455368729  0.0835578519574089  0.5827771520633778
  0.1647466906808898  0.6675330716347677  0.1661321623779295
  0.9967247158795914  0.0009413605428467  0.4995986665432875
  0.9150050694055738  0.0839888130883690  0.6655380795447552
  0.9140498726550401  0.9167646772968480  0.6657861480793782
  0.9154250042913814  0.0011349639398599  0.7479813309222915
  0.8312615313419263  0.9998304392901193  0.6658248878446377
  0.9973166330005448  0.9168247367602796  0.9174157450688607
  0.7464538071868880  0.0837901885295966  0.8319239579847021
  0.9142475658554328  0.0006945951492274  0.9164395625445867
  0.9140353603053297  0.1665223174477958  0.9169565002898010
  0.8321558512623832  0.0830281096637707  0.9157202214494496
  0.8299173164887067  0.0828900889051685  0.4173270843921701
  0.5801409501792766  0.7487201219320669  0.5000321643552548
  0.1639368174918004  0.7503999936120584  0.0830213502292213
  0.9131906497835975  0.1658223907786593  0.0849238493211834
  0.2478509485807404  0.6666251073703300  0.2497601426599904
  0.4970212719589492  0.4170868244411466  0.9176904704257719
  0.5803698451437378  0.4174615957481027  0.0004079303517535
  0.1637285601136658  0.5832446917169619  0.5838406091854076
  0.0804818832856381  0.4171456497369939  0.4998859741015890
  0.5803807991764633  0.5838334658520765  0.0002397750618811
  0.9978068696399909  0.3336209209327969  0.6660576207931127
  0.6634963292883093  0.3348499193870510  0.3326372828466490
  0.6638775868793104  0.4174069530885043  0.4161931414520721
  0.8305243684138691  0.0018443532258368  0.0002379734444503
  0.9962024747824858  0.1660992809043660  0.0011347412048085
  0.9136059369352163  0.9987815240728987  0.0848909300167010
  0.1624320317674396  0.0004435382160554  0.8336368512533819
  0.7471034676017377  0.9161335623204294  0.1676645376174571
  0.8300851706531899  0.0830796474952804  0.2512841590078104
  0.6635486267331333  0.9202927753356065  0.5835877993927171
  0.7481200274118858  0.8332757191392302  0.5836680179742268
  0.9140179571325716  0.9994338641253765  0.4170891058117645
  0.0819526362647505  0.2509729547963142  0.6664651352995099
  0.9133587864441883  0.0825255094140071  0.1686655131624644
  0.7468563868578946  0.6663933959456549  0.7503313210221010
  0.1647048923863910  0.3345402041820918  0.6674939878304451
  0.7473088764808955  0.6665507342321693  0.5834906391483562
  0.6637344538021750  0.6667839838897545  0.6676684827901871
  0.1635960043909132  0.4174000075090737  0.2502266264154473
  0.7480304988063473  0.9166191085196527  0.3339319971475853
  0.6641021357270436  0.6672847994302492  0.9996956754117408
  0.5794805113308747  0.4999373372778284  0.5846170250102098
  0.7481905104153830  0.4998571048675868  0.7513342652219051
  0.6652488085421295  0.5005795544331773  0.8343040903224229
  0.7467667758297587  0.3345753020865560  0.4161720023247472
  0.2473436729948695  0.7490221261135895  0.5002781497214821
  0.7474901534074720  0.5005159478482383  0.0835895149515173
  0.6637886673094376  0.3338381377159162  0.4995009709027108
  0.8304637708903476  0.4168949328522278  0.7509888992635957
  0.7469411731817551  0.3338847144545613  0.5823631504689338
  0.7485444072350333  0.4995391335101418  0.5818551218149016
  0.2486162028679910  0.1655729041033270  0.2498936824431471
  0.9127102575279786  0.3344677397548464  0.7490613959518259
  0.0813063818011121  0.3335991878840836  0.7505348509131148
  0.9974463776460935  0.4989205880142770  0.6652335138368626
  0.6655264735969439  0.4171825971668832  0.7523540109719546
  0.4955013701019520  0.8329224546159549  0.1654265526188735
  0.7474543902442952  0.0831833975940239  0.6667492570919503
  0.5795708643921718  0.1663642059300314  0.5835166202238742
  0.5797845105501316  0.9172990229934955  0.5018693822490740
  0.7469509141801426  0.2508398301607586  0.6659799772138720
  0.4950613489830884  0.0004780331229898  0.6661735027246669
  0.2475741296033513  0.9157670977065455  0.5001731496964827
  0.7471098403516443  0.8332107077064355  0.9158261137814947
  0.2463390121379880  0.3337531278896944  0.9168987347513502
  0.2460240452091234  0.4180113658547233  0.0001893132548916
  0.9974258360004854  0.1659480074175261  0.1682164332843506
  0.0808524605626586  0.5843336898070552  0.5005552176213752
  0.2468940548415703  0.4996735614761262  0.5841724212694613
  0.1651601209815309  0.1680815063233921  0.6654100581163345
  0.1660456253182973  0.2509400680210554  0.4160670103519646
  0.2480182224240345  0.5008437562625015  0.4161565101248723
  0.4965424861468189  0.6689947736306183  0.5001028919226215
  0.7472562739964381  0.0822031935225692  0.5011240983030743
  0.0793411572507366  0.5855054883780670  0.8333092985034517
  0.6654817562819736  0.8330064744826766  0.1667148367847531
  0.8304775265345022  0.9992716430365325  0.3344151082665513
  0.9132347206812723  0.9991096485642340  0.2505684661854143
  0.7474302503080470  0.9168419983787780  0.5000236271368522
  0.6632030265971525  0.8329104176421588  0.6678613090217527
  0.7474646744402574  0.9169332286452855  0.6653122208538707
  0.0801091514051240  0.3359696284175188  0.0843903599140801
  0.7472683829835571  0.8313112723538434  0.7497257282328544
  0.7468725427881454  0.6678080726784127  0.0832456534061107
  0.6646416975674156  0.5831656073813799  0.9177138693826519
  0.9965282087736893  0.3333332245966424  0.3330742808873734
  0.9973220722326250  0.3339782553027951  0.4992946451526907
  0.7471306335283919  0.6674858435684348  0.2495504559541363
  0.9132473005674511  0.2500537772845940  0.1656897604908711
  0.6639361268064744  0.6652302890777438  0.3326249965230359
  0.7469123637499882  0.6669197265941929  0.4165960829092703
  0.1643752332012860  0.6667716139756923  0.5011132563250018
  0.3300604840427052  0.6660705763253912  0.6682196351399822
  0.7465028175806356  0.1677373867466377  0.7490498360620943
  0.9963369499011718  0.5012661654913654  0.0012876875590735
  0.6638799587429125  0.1669078858761435  0.8335159580565874
  0.7488068748617094  0.3322975161176829  0.9179165281912084
  0.8289798387441604  0.0008674522778205  0.8313632188245973
  0.7480241106031973  0.2503959770369114  0.8335263931304377
  0.0793792104387797  0.3329769691116966  0.9171658852347579
  0.2467227398288380  0.6657708939743964  0.7508782783506076
  0.7486042283098846  0.3331654133426562  0.0835129846304142
  0.7474280861435154  0.5006024004444259  0.9174725547127848
  0.6647410252026724  0.3344251998293981  0.1660645275451996
  0.6649889791430300  0.4182157509678835  0.2489347424485552
  0.7467922062518877  0.3345094501766001  0.2500763078459061
  0.8302327443645322  0.5007911294969364  0.1672487062954243
  0.0802715877548682  0.5005775700998634  0.0845574255656568
  0.9966785895730840  0.4173515798832677  0.9176915487838663
  0.0818665827473398  0.5837940804004992  0.3340772337494742
  0.3301606901015439  0.8330129604421330  0.6670759317887293
  0.8299537965069023  0.5825705357172747  0.5824106380256323
  0.9969868238135560  0.7502694918470990  0.2499873213457166
  0.8306080278861843  0.7495644077797863  0.2504322906435886
  0.7482172297997276  0.4163901003001670  0.0002718452729101
  0.8311328813007832  0.5017753845767738  0.0007243442599874
  0.4969187759885552  0.4167400718584745  0.4155948843569632
  0.4971142755639923  0.5842396321431981  0.4138276703679835
  0.5813897330397567  0.5002848495930343  0.4152361350264906
  0.5803926756140547  0.5840121118248854  0.3317822051160204
  0.4137187202241114  0.5837762273801448  0.5000242631802564
  0.0807671325178592  0.6670543961658190  0.4174650842911115
  0.5803798592383856  0.3340212505250240  0.0846328210893170
  0.6647284845449751  0.4173577617322794  0.0831004238499850
  0.4971037051353154  0.3340833874399260  0.1669104707985772
  0.9129148646286682  0.8347099675670406  0.0833760766592441
  0.5818247321154494  0.3353426618074362  0.2482469544924346
  0.9972051656171683  0.7496739975381220  0.9167823633637844
  0.4139560612545013  0.3355504969501229  0.2496471795382371
  0.3307459516071325  0.4173010623931885  0.4160640602952729
  0.1648905082973322  0.9995603325855190  0.4998186583911827
  0.9129244283012143  0.8330764082381972  0.9166000430073611
  0.1636099329750202  0.9164733385514657  0.5831196780980930
  0.0810123413085248  0.8329896494236478  0.5834369324818118
  0.5791342783443855  0.4174476310483667  0.5005344820587244
  0.7462536479636015  0.0018170267545782  0.7491183498309307
  0.9986887452107259  0.9162547987832752  0.7481215646708043
  0.4135332788297781  0.7506516596476115  0.1667591561850722
  0.3303708181008077  0.6668291101117163  0.3326741284609123
  0.1645652835101656  0.8331489612968694  0.8337590225377624
  0.4130116784133476  0.6665654415293487  0.4155134196769276
  0.4130970502711372  0.7499411905976664  0.3331753099841696
  0.3304156988051943  0.7507438091503504  0.2495429020874472
  0.3302397054617640  0.6675027537579480  0.5004930005411896
  0.3304173672438624  0.7485909525289349  0.5840614594681373
  0.4133503927634646  0.7489059799364052  0.5002270631576736
  0.3299582105133979  0.5835476368518620  0.5863764696683554
  0.2469790399467530  0.8332873825266772  0.7509067692218411
  0.8304264603815641  0.8341690880055338  0.3336562270009291
  0.5800944104934079  0.8322102109202389  0.5841232038614256
  0.0792090465886576  0.7504060554424535  0.0008772118039615
  0.0793264175039662  0.5842378158401197  0.0012295410557451
  0.4127056856140613  0.8322050585365411  0.7503731596411585
  0.1636856489122946  0.3350162577546648  0.1684709143619399