Cr  H Ni 
 1.0000000000000000
    21.1200000000000010    0.0000000000000000    0.0000000000000000
     0.0000000000000000   21.1200000000000010    0.0000000000000000
     0.0000000000000000    0.0000000000000000   21.1200000000000010
 Cr  H   Ni 
 259  35 605
Direct
  0.9982337641680759  0.1675771190885776  0.8342016953175351
  0.4993309719039060  0.2536308839343159  0.2531985601361306
  0.5805880582302287  0.0786951815644313  0.3324185986790670
  0.4973019953549181  0.0839380801686666  0.0831161151503595
  0.4151929072286076  0.0846069420648390  0.8326715734480915
  0.4996049364323053  0.7491941866426572  0.7490687227881873
  0.4140541466357978  0.9149102474242358  0.4997812864204391
  0.4159326533078156  0.9140241060807603  0.0007806424497179
  0.3315419820180282  0.0859105287656203  0.2557381163657567
  0.4962333649968590  0.0825713602430924  0.5832357263470493
  0.3312842020093421  0.5826356388079681  0.7498337547285880
  0.3329070190475591  0.7492432370570543  0.4156362042567508
  0.4987682856163705  0.6668496444145192  0.3342683609077335
  0.3325723459048293  0.6665346593066277  0.1671339988203768
  0.6641171810257697  0.2498460909438212  0.4164762008660649
  0.3327265094064386  0.8344116871143862  0.8339343745671112
  0.5776093141538522  0.8317935363051375  0.0869735873805905
  0.8325895190335119  0.4172999219970203  0.7510634717734367
  0.9090337161736459  0.3318712256008425  0.7499109936076344
  0.8303189786641557  0.3319894310068257  0.6654761590938933
  0.9151994323027547  0.4167099631036786  0.3339772484729462
  0.1644657878926270  0.5006335973774454  0.8334003735192892
  0.2469709565863284  0.5827926424900256  0.0009352032050691
  0.2474556117835672  0.6684304338205127  0.5830931775812008
  0.1650477594974824  0.5022086918157571  0.4981292376952662
  0.5814780635095028  0.7489368704154611  0.6674254177664242
  0.4140254191059180  0.4181136771122044  0.5006648370633124
  0.4155446049155481  0.5009495597074854  0.5835370836866143
  0.1613954048784411  0.7504252285744226  0.7509936743469128
  0.1667787886924655  0.3334355142481783  0.6642638514785965
  0.4979356287489476  0.2517446460868179  0.7504421980799753
  0.8332618487136522  0.9175580147250452  0.7490964915063058
  0.4144435508387592  0.6662118264399883  0.5819366948112847
  0.1656912301591320  0.6663622287056236  0.1676948440629112
  0.2469636888297197  0.8327120016241918  0.9182094594631223
  0.2481618693774048  0.5828691711239397  0.8331042626035917
  0.1652399904038289  0.5024857276245034  0.6656643626766946
  0.0819319422791531  0.5818229371279374  0.8325448913798381
  0.1651679809754351  0.5813441125586886  0.4172130556785987
  0.6645824518485695  0.5846157129354724  0.4152588755469815
  0.4159089386466507  0.5829340450053127  0.8298109654222429
  0.4149235766664240  0.5844631056138797  0.5002980100760455
  0.4147853389226109  0.5835649875680813  0.1677189867862346
  0.4159245381993667  0.5820347481165667  0.0045912752500004
  0.4151786949403225  0.5012577019075233  0.0825890672031846
  0.4984498776359871  0.7473069786467958  0.0836991535565791
  0.4137199020848196  0.4169322438780682  0.6655643240406782
  0.4982053810474104  0.4164077997043743  0.7502737498400099
  0.5832799491570884  0.4195813182432106  0.5020309859128386
  0.4995683550687952  0.4987559823294132  0.3331718847203831
  0.5816955839638533  0.4189631202337071  0.3319014465033654
  0.7501773085752445  0.4180426399116807  0.3332120988116206
  0.5824571281222960  0.4175512486343856  0.1648698735989248
  0.5827088205468728  0.4997026626192122  0.2515719994370390
  0.5795705709704034  0.6666122503396456  0.0847719875981274
  0.5836340116736548  0.4981112275566916  0.5819664477677943
  0.5818985092529249  0.3340570184841899  0.9162304148443673
  0.9985984521592844  0.9994620996339966  0.3346449300024103
  0.4994411067999852  0.4156453019488406  0.9157566075022298
  0.7482641011608573  0.0006150577840773  0.9169641535562255
  0.4984868212766156  0.3336547122879236  0.8330193066950597
  0.9986735353473051  0.0013256290993662  0.6661382775389422
  0.2487256460702321  0.7489785887052318  0.3340744998180135
  0.1653838481087592  0.5839776284433799  0.2489518084101258
  0.8320225779311115  0.3324964370831689  0.0022757108478792
  0.4986899121533358  0.6667521677300732  0.1678073748661441
  0.2502640751339575  0.3282807566549328  0.0843910661202044
  0.3306614408036799  0.0832732145979482  0.5844807411970463
  0.3321798026911861  0.1689773891871392  0.4999501377469823
  0.3325334889921553  0.3343225052817597  0.8334242027238142
  0.0830884581693597  0.1655597468118368  0.5836600554984331
  0.0830599480804231  0.5840802927099399  0.6661350498409568
  0.9986758028396793  0.0011906058309897  0.1673114020190210
  0.2484926959980294  0.2532120710983155  0.3324450848810682
  0.4148511086788217  0.0831807997583503  0.3290531518031556
  0.2482605012562283  0.8322859071042047  0.0838561680327223
  0.2488310114414837  0.9150689610929519  0.9989128752794626
  0.3334209957896537  0.4175959545754931  0.4193407078745259
  0.4145437238336184  0.4187836641660464  0.1662895701973822
  0.4991597436494825  0.3360329257038352  0.3332447379322750
  0.4979675248644976  0.2506586143492369  0.5843935021772094
  0.1654073617072110  0.7506475393438264  0.0844265207783222
  0.1665352433741310  0.9163494761976787  0.4153999135658571
  0.3330249108818581  0.9145613622643272  0.4203874607350181
  0.2452225357194097  0.9152595482087100  0.3333342964159395
  0.3361987832789360  0.7513083289605237  0.7486009607991151
  0.3315630440674182  0.0844575103260488  0.0783982980403237
  0.0824878458727753  0.7481542923732448  0.3347189402838063
  0.4114357477702388  0.0846285940862487  0.5045809550445438
  0.3334600767631152  0.0820504420217880  0.9134473165504799
  0.2520850194885897  0.0828951655343882  0.9990367669035080
  0.4148532272939516  0.1674766352415794  0.0829949659516881
  0.3309829649157295  0.2530452936761273  0.2547515892817379
  0.2480990615747904  0.0839344517878739  0.5012608529977910
  0.3325883076600931  0.5835439867664701  0.4164987959933901
  0.3317131660303099  0.3341790357424365  0.4998146785427188
  0.9144455835412850  0.0831226273026723  0.8329937277688382
  0.9123031555288847  0.3331746057111051  0.0844372373503884
  0.4156841757641634  0.8323282163552026  0.0837965465814020
  0.1644927428023917  0.5003512966203524  0.1675425484022577
  0.2477094826812802  0.6655600628849350  0.9172401517085812
  0.5822666141925023  0.4991782488337325  0.0855715442628212
  0.4985187740100596  0.5838914749772087  0.0843137990869650
  0.8313751500205923  0.1642869083252834  0.8381496271256573
  0.8308112916031586  0.1645787132591710  0.6615585300546715
  0.8320333007261994  0.2494484070612416  0.0849406484420713
  0.9163889300108700  0.2485298516060266  0.3341599796297816
  0.9163611192680806  0.2482435930682514  0.4984396333456420
  0.0825281275708293  0.1645881669322868  0.0823120273931160
  0.4959167511964234  0.5829621671594796  0.7492401816589315
  0.5825762030468538  0.6694125285532969  0.7489337568353487
  0.8320225921319268  0.4156799079040645  0.4155544735595117
  0.9165952334972596  0.0829233305123784  0.1684573748986736
  0.9158090813334071  0.0832596273612880  0.3342353016497527
  0.9147956828345770  0.0842584353802284  0.0017518495895213
  0.8310072244201560  0.9188722794022554  0.9194841039049142
  0.9139780253922817  0.1658601458262493  0.4163425795200293
  0.9148259586261728  0.4990228874110995  0.0834844041700208
  0.8324323336993995  0.4998623897958134  0.1683760349413721
  0.9971658720302391  0.5846439516257956  0.2508569750904556
  0.9984098034820343  0.7495845604234876  0.9180498196726901
  0.0003682646430077  0.8321905364647608  0.8353369086105864
  0.9161103951384452  0.0816886359885588  0.6649894627064603
  0.4931981162289666  0.2486585852822522  0.0834188961062269
  0.9146484388128128  0.0006349828374636  0.5807944118362439
  0.4982912965683868  0.6662032486614062  0.5009219600905613
  0.8303683717475167  0.9173534740877864  0.4151522138698986
  0.5808826011827248  0.7500209061376745  0.3329336177103677
  0.9151104575502751  0.8348644886261982  0.5818209758529004
  0.5815419559476258  0.1679214054043636  0.9159285654954133
  0.0823160159110735  0.9160074744787648  0.1680684496144618
  0.7469811536366484  0.1655296290895056  0.4165635597399570
  0.5802723158353476  0.2542342971716884  0.3323751886023154
  0.7461226230651705  0.0839798188888955  0.0012826178645311
  0.6687952364697434  0.2506850090591708  0.0842054797472734
  0.6634072893691977  0.9994133357006855  0.4995555283126969
  0.6632138088019031  0.9995763383898170  0.3329984946034870
  0.6655705075031348  0.0031763566605785  0.0012960435434743
  0.5822652040183665  0.9170743219185784  0.6681969658959040
  0.6650050646028993  0.6663187787691495  0.1673599125344268
  0.6647756896036712  0.4159712003642186  0.9190105966333034
  0.7487162242545324  0.5804289972979212  0.8340134446051564
  0.7514122901412560  0.4185011558839715  0.4973995033297764
  0.7492615326480058  0.5850133236943368  0.3327008818025511
  0.7492050795853895  0.4996266727825289  0.2510608844767070
  0.6653953715070209  0.9187262042307285  0.9152499227465080
  0.9991581592140828  0.8340961248614341  0.4980428097320344
  0.9160828587446137  0.7525457890889108  0.1669331885731904
  0.9149198320490092  0.7498010316526101  0.9996138131163479
  0.9967119171812859  0.4190840344619712  0.7487123143386837
  0.9135106315940180  0.6674660422430105  0.5807123335792340
  0.8309496463662535  0.5010008135417444  0.4978886807891731
  0.5819588390594105  0.0847699145744627  0.0001902566454590
  0.4946855701397089  0.0019460492607660  0.8316827256368551
  0.6625196487990384  0.7488004717254231  0.7459886290475044
  0.8344832924494895  0.9176021874262889  0.0862007462100606
  0.9990030633356900  0.5815951799677609  0.9168078063944776
  0.8319511854063939  0.7484541010580588  0.9193910934282659
  0.2482216486013237  0.0836047064725107  0.3339480745722623
  0.8338944794639477  0.6649524115188814  0.5002162523331793
  0.1646387728217442  0.0845369583708753  0.0842742278000476
  0.7480195245675404  0.5828737218850395  0.0016260930107083
  0.0806548027885748  0.3354696951952525  0.2494846462351607
  0.5820112031767485  0.4968370394597399  0.9160266379307450
  0.4137435680701761  0.9149969859938131  0.6665993269546230
  0.6629157279293975  0.0013154219467056  0.1676200311587961
  0.4984545360523197  0.9149457514961424  0.2508156644717681
  0.5793960467725331  0.9198156930523548  0.9992725227099947
  0.6646608124459851  0.1674462774488587  0.6665134443530988
  0.2477856675380141  0.5039817661797696  0.0818156784015526
  0.6670319362217398  0.2485539877442309  0.7481835260743074
  0.6651569559206776  0.3332009438126342  0.0008266224997349
  0.7537763594842808  0.8314555079410439  0.0866040226815075
  0.8327481291463271  0.7500703235745787  0.7484169621554547
  0.7494673268350501  0.6658449862134939  0.9208508194813422
  0.5814765440038556  0.6652740469253484  0.9164118936104111
  0.7489897435812815  0.5835968090075830  0.6660089429107567
  0.5818987080304925  0.7494073491249520  0.4998859756080191
  0.8332524346365725  0.7489859835118756  0.5841042769270772
  0.4961211198376557  0.0824442061770110  0.7514483474398787
  0.1655034130125562  0.4995636594799706  0.0013858741218700
  0.9981790904558389  0.5001941539562941  0.8327843789126760
  0.9957582742522221  0.5001441305317881  0.6648376671840083
  0.9146534570859588  0.4998541482508068  0.5821801291688812
  0.9980529068617801  0.5847632996963000  0.4159669697493881
  0.7473835881001599  0.2479980543832092  0.6648350331637377
  0.7484978563009286  0.1659337979815920  0.9171054692504667
  0.7459436289121537  0.0815800204285427  0.3321251711963828
  0.7477559535451863  0.0019941308669302  0.2511196760378067
  0.6649912887693630  0.9168991652822821  0.7485942160186650
  0.5819061289570908  0.9168255827025907  0.5008451520311230
  0.6655238598481277  0.2508413927390229  0.5821814592929160
  0.7459721902752569  0.2486180720551400  0.4979302650862930
  0.7459814211157169  0.2481928253732641  0.3338739770821137
  0.9982757023005581  0.8334308597869224  0.1665512595550382
  0.6681153893940167  0.4154611476505269  0.7488703617104421
  0.6669107182996662  0.4175391414441336  0.5830329070451780
  0.5843682500714777  0.2500272759688540  0.5000706420373893
  0.6660210923764365  0.4182088430878644  0.0854282196090909
  0.8315451603265869  0.9162848000559045  0.2495729665905341
  0.8314895020673393  0.8330121257968470  0.1668015903471968
  0.9138545208065113  0.9162506634175329  0.9995439968199803
  0.0810750499143313  0.4197745939521289  0.8328915240302959
  0.9956519549924874  0.3341613291731393  0.8348209968262963
  0.3337339798436267  0.2514682806740479  0.0810158173358277
  0.9972153723233541  0.3331231908040811  0.6628027534793137
  0.1644765508897161  0.4158433733036229  0.4162986278298997
  0.0807102540131001  0.3356405580951869  0.4167337407417485
  0.2486043080515384  0.9993499963789199  0.7509340795428370
  0.9127874091119631  0.8329859421274480  0.7486263504829249
  0.2502987597100974  0.3344627729864852  0.2503961008643996
  0.9975955941945267  0.4155201949692897  0.4172245364486816
  0.0815771810106919  0.4156751773236996  0.0014221432003305
  0.1690659481677129  0.3337529701893763  0.8328839403845814
  0.9981118354128342  0.2488546103197440  0.9154691299828582
  0.9979489290200594  0.4165683326245630  0.5844984743310160
  0.9972828909438071  0.2476668623531084  0.7490621761815655
  0.2504825875662419  0.1696454070808197  0.0843936217923269
  0.1642636587062926  0.9147076471480093  0.5818171279738735
  0.1640410518242272  0.0848822568052730  0.2513086856166244
  0.1636511051968306  0.8321668393111635  0.1664916859144866
  0.7504687580488486  0.4159070163703689  0.8334962868606003
  0.2466289523682403  0.2509117415481766  0.1679638314787739
  0.6661465152588646  0.3316968057573991  0.6653210321698340
  0.0802843204196246  0.4159607229385412  0.1681148584906690
  0.8306218746817000  0.3337003144499791  0.8338468786803620
  0.9979449798258684  0.3328285812576804  0.0016630365518477
  0.1648228028603584  0.1683407587066368  0.3324115739275583
  0.9980546844884446  0.5816130251412780  0.0832708537168639
  0.0820191017501284  0.5832522957981033  0.0013849555932933
  0.9160341835060560  0.6668878839789746  0.2541219060933774
  0.9992433139764628  0.8329937355746879  0.3356357893840620
  0.1674487428598052  0.0825967235701924  0.5834037843003629
  0.1659124181955436  0.0006140953435230  0.8329609268994087
  0.1657482086044437  0.5828395684590036  0.7501874614363148
  0.9985996946196221  0.9169913611532938  0.4168512155963827
  0.0818748238244097  0.9168884270726061  0.9999245820374869
  0.0819241154490194  0.1657759671996316  0.2505756850311913
  0.2482177604416296  0.3345454268179598  0.5832157640304475
  0.1643777116564965  0.2503913894587834  0.4155606458050973
  0.3321547504250059  0.9991035560851106  0.8333373465829561
  0.0836414068021801  0.8337174199689353  0.5824072761567032
  0.0804601641553750  0.1682261498355692  0.9163682542756307
  0.9987164482720396  0.6660959777984521  0.3339053800055283
  0.1648914724843851  0.7499794944770954  0.5831082351398200
  0.9116413537543608  0.6678416746021880  0.7509400256206090
  0.0834553189645541  0.6680153490663113  0.5817319822385644
  0.0805031180752624  0.0856866033293101  0.0007714887701670
  0.0833781681213839  0.0842486061547692  0.6655287545602158
  0.9977541027593269  0.0007711736883122  0.8338061972254432
  0.9987141620543876  0.1655286198283940  0.6643630243158021
  0.0801834776436809  0.0001037567563082  0.7485494701406106
  0.1650599466856958  0.2527664227808751  0.9152065830571250
  0.0794395020955828  0.9168194207551622  0.6671130838333305
  0.9155529726497765  0.0820398135821381  0.4991810546232243
  0.0831806113159233  0.1673989204399694  0.4164784177554907
  0.1640732246771812  0.9146895009382460  0.2497778541631606
  0.2498361913047868  0.1679957272723832  0.5827891331924381
  0.2471836384561263  0.1675070676627692  0.7505328141995999
  0.7480001822016189  0.9999275779368449  0.6658748572636474
  0.6653525492185381  0.8323227809753452  0.0847609285852571
  0.1682239995366334  0.9143391164756608  0.6702398186404749
  0.3326189239521141  0.9948709469451040  0.2485865644391043
  0.9121501979391309  0.8342242009294144  0.8365517706394164
  0.3350105311477049  0.9146738697365042  0.3309904355474381
  0.7437002044829725  0.6677629818092335  0.4994258126064691
  0.5807364419827680  0.1669096997201831  0.3331004285487189
  0.3364137552868979  0.1690801122988428  0.7500576954826258
  0.3332357693291510  0.0819324560771543  0.1665763764286002
  0.5820471601109329  0.8304915387265215  0.9971759033806689
  0.3329729041842716  0.2516696322051956  0.1676425314385913
  0.9139570650367347  0.6637964931589930  0.1649225207752794
  0.1658794015224385  0.0833140130264213  0.9973039561107351
  0.9955486929357725  0.3335103804298640  0.7491173325725431
  0.4165155811408421  0.0840599718469068  0.4167583090043587
  0.7464248429816072  0.9197577590899377  0.0860238271296658
  0.4956954698364112  0.2503304369768429  0.4965298807563952
  0.7489345643674351  0.6690304644634363  0.8313486889545419
  0.6663163971881259  0.9154117099796401  0.0019043407881736
  0.3329427652580494  0.7466301820230432  0.8373799655904040
  0.8316582850345358  0.7535794361535108  0.4949203980816761
  0.7469675386426542  0.8343723367040965  0.4993130892369063
  0.0822378673203524  0.3330322562982890  0.8315336527976598
  0.2486376242754001  0.9987959589848211  0.1659626963052545
  0.4161835893347616  0.5821167338793372  0.9171638380910906
  0.2484032977425172  0.4163905720119680  0.0832844165320180
  0.5812353377671611  0.2499009026221561  0.0836892131145353
  0.6648383563475606  0.7507505095538174  0.8375531080900438
  0.5846238704695748  0.0009457258137325  0.8320271700561429
  0.2491238261680376  0.7500474873080096  0.7501454154335467
  0.2495905139794128  0.1707799063911841  0.9947642597378126
  0.8299883400175404  0.1645916833922022  0.7496680507022403
  0.0012486269604595  0.6678803987170230  0.7498124120884350
  0.5850996298191912  0.5800665019569052  0.7496541306154313
  0.7482617308529386  0.0032826942768515  0.0854200531988851
  0.9968907825887688  0.4160554379804480  0.2500881882061456
  0.9974776640643515  0.3324896914002389  0.1674520443105701
  0.9975734764133908  0.4163815613859841  0.0842720049348830
  0.6661189745380531  0.8317853891202056  0.9999068299364389
  0.6628908327211491  0.9181692619375387  0.0862085985833504
  0.6639328257388810  0.8331661883378482  0.3332754679084573
  0.1642643379786812  0.2515707458542044  0.2502195333360160
  0.1656737246846632  0.7489562876759686  0.4156576239741400
  0.6642071168925898  0.6653754196283933  0.8341856969785115
  0.7473201581772697  0.8345502881236608  0.4144462607412076
  0.7508282944617051  0.9172563575527997  0.0005505529990409
  0.6640724225863167  0.9177349289784036  0.2497386360639130
  0.7484871249655757  0.8340479163016846  0.2502942622671724
  0.4156138759437580  0.9148443838580499  0.1661629179852319
  0.6650841519244175  0.8326191543543059  0.1683017366838611
  0.6649783874225925  0.7493185832686042  0.2503711926530335
  0.8317839423904138  0.3325395914556961  0.1680173935144519
  0.7482162726781401  0.7506572612614405  0.3327364373599879
  0.6673179386895846  0.5004807871128163  0.4982279518993795
  0.6634342830930167  0.7500533689950993  0.5839697130681304
  0.6651865877968511  0.5820504772568014  0.5826138723854142
  0.2486973926925480  0.6659392508180459  0.4160595010789331
  0.1649150895085187  0.6675018041929350  0.6670502271049585
  0.5815397994357849  0.8333593130811561  0.7494904847516812
  0.7485136232940427  0.5824015979123099  0.4993990542036973
  0.7492005310933346  0.7491119882238559  0.0010888667269124
  0.9979487856208626  0.7506309282309073  0.5822081478280389
  0.7489822633758424  0.7496343574655716  0.1678577339227401
  0.7487442454821932  0.6669509417864321  0.7478579412283208
  0.6629061607538215  0.7499763644184936  0.4158059433575961
  0.6653871582666949  0.5824504593112300  0.9175204943612223
  0.7489248784175365  0.7503669544829918  0.6666590358612131
  0.9982183565604645  0.3331168114653958  0.4996640352232148
  0.1658020955311412  0.6661427907212757  0.4990686623105925
  0.8327967102222155  0.0840159477610922  0.0846239840329140
  0.1648492157322024  0.7490235353570249  0.2494571649845003
  0.9996261218096116  0.9997831838790647  0.4990590040616217
  0.8339368841755559  0.9999416215565068  0.6652858229740028
  0.9157983557758059  0.9169206643761073  0.6655290096956841
  0.9161820278861176  0.0003517036978212  0.7498818840994395
  0.8327029818836550  0.0819994610915565  0.7495206909759010
  0.9145151431998567  0.9182925549665479  0.8342547487584386
  0.8317001846974575  0.0822584218556660  0.9188068767488092
  0.9150632783900773  0.0008361747358822  0.9183570792788545
  0.9146474842758582  0.1659033475492257  0.9175696288299318
  0.8313331242140632  0.1661982019233502  0.0011416705514523
  0.8309361241614293  0.0828646348026934  0.4157621897750640
  0.6617974874209055  0.8337783460860657  0.5002396923677113
  0.2487820305579176  0.7489467893325041  0.1674701962309556
  0.9980900128027420  0.1675386869473946  0.0009619570554479
  0.2485359741313248  0.6661671892489229  0.2507749986908756
  0.7491348934554483  0.9164327437391484  0.8328442511060147
  0.8319543436921278  0.0016748337391480  0.0021785527666389
  0.0824514226175339  0.3340220504634382  0.5836717662523108
  0.6648705986644569  0.3346727363938421  0.3332529537897855
  0.6659942854163019  0.4176867134062376  0.4163561264121217
  0.7487883524234367  0.5831616620943155  0.1676130596233759
  0.6660721333430448  0.5001366291823877  0.3336317632821567
  0.6616983424962306  0.6667987372407468  0.5001412755860755
  0.7484930512961613  0.5014611270837985  0.4142635115983276
  0.6658388106367598  0.5836802200327693  0.2514475220740174
  0.9160161081665436  0.0005820529618931  0.0842859953271793
  0.0810876871711763  0.0837687896036920  0.8323298303312802
  0.7476490261971529  0.9182023760451091  0.1698672228326110
  0.8321640141220822  0.0835673512028111  0.2513803715814313
  0.6632772752703452  0.9172162001647748  0.5832233164107681
  0.7475986090585203  0.8336046924507123  0.5843752958754181
  0.9146900645157310  0.0002340808256224  0.4163001882467938
  0.0825794585132508  0.2497467739643520  0.6656769933560645
  0.0818874526108941  0.1671322936900413  0.7492877462317428
  0.8314606311263820  0.0831257402230817  0.5804914444439828
  0.8322804327042244  0.1660120541622991  0.1682911866460551
  0.2482722271963370  0.7497098835425653  0.6659728479875506
  0.2474782527158252  0.8312955023141992  0.2502927642724668
  0.6662156531156198  0.4991600719083292  0.6668245674395172
  0.7490854876196703  0.4994561042249098  0.7496643613819346
  0.6658324954880850  0.4990700627860675  0.8332978108471233
  0.7473361672228471  0.3324410488481338  0.4159357805210308
  0.2485411170360157  0.7489395222523680  0.4991112435492386
  0.7493617550636237  0.4999419930380395  0.0847549860945174
  0.6652187545658476  0.3348306387179096  0.4994736551196972
  0.7499122631631763  0.4163082902470588  0.6664065807446298
  0.7495118375312316  0.3334881992482854  0.5807800934212860
  0.7489117906776812  0.5000166226520639  0.5830391153660934
  0.2486783950902958  0.1683153941718704  0.2509719661876762
  0.0818052553606646  0.4178942602593060  0.6655031390375337
  0.0828010516308478  0.3343957252903334  0.7470432395933575
  0.9144587233938031  0.5843352494527561  0.6655973838667102
  0.6659387114567277  0.3337320622997527  0.8328600127347107
  0.5838210119780339  0.4160288914873402  0.8319147589796539
  0.7481614798179405  0.3327080234374277  0.9180911486841582
  0.1652776154139174  0.5845389577648066  0.5826479297176664
  0.0819654326627964  0.4174663168270322  0.5003360955420141
  0.5821044168976856  0.5826947929725987  0.0007041394052097
  0.4990480522099279  0.6662299921167301  0.8328027874345547
  0.5824787269454604  0.4970258104659649  0.7494302471024851
  0.5824329457119656  0.5827991254743112  0.6655942772016188
  0.4989657287703766  0.4983822583406194  0.8320503946995722
  0.6645941191426821  0.4995417741415233  0.0007921245081261
  0.5816436098924512  0.5824188853910893  0.8342299299026977
  0.1657402860556875  0.8320939782642213  0.3336387989065127
  0.4986329286943254  0.6659723172278658  0.9999300164218974
  0.0811418354174904  0.7500614531705455  0.1676379063682111
  0.6644686319751196  0.5828247440226086  0.0850555363420991
  0.5816208786795078  0.7471626205273240  0.0006187250791015
  0.1653743107798516  0.6655646555684931  0.3335265463831491
  0.4982549951780466  0.7490293271552052  0.2510327858666488
  0.5815599247383439  0.6662585612363292  0.2509233875273842
  0.5816779871838220  0.7495993554311854  0.1688362597333630
  0.4148131265434971  0.6664489225883963  0.2512005234867631
  0.6644442553839448  0.6650824965063745  0.0010045977476349
  0.7477683296336005  0.9186559743146241  0.4992144246030465
  0.6648209302703498  0.8337775472193665  0.6669748950014812
  0.7488008903405012  0.9160454070065938  0.6668934959257832
  0.0805652703285874  0.3338410367185705  0.0843119445352376
  0.7489789291953810  0.8342829825365645  0.7490873824822576
  0.7485635659511285  0.6660588485781825  0.0838043456471138
  0.9980825097666431  0.3329421449073574  0.3335479390689975
  0.7487468714823775  0.6669913938423768  0.2507366742917092
  0.6647471312914732  0.6672897679810617  0.3332600401716581
  0.7471536853621792  0.6668432005642279  0.4149318767198812
  0.5816431317707813  0.6664933537807050  0.5834070981379096
  0.7482055643537816  0.1653909357738779  0.7503956079577926
  0.7485549470232465  0.6665949857003127  0.5842528651667697
  0.9993037897969854  0.4991807852595468  0.0007785665696647
  0.6660416369621431  0.6657811820268358  0.6653731583175216
  0.6651379984620216  0.1669046007717420  0.8336403752197568
  0.1648316086267967  0.4170204435184187  0.2494024617257332
  0.7477197290412895  0.9175070626985615  0.3321684694071483
  0.6652134471134925  0.2500296217272750  0.9171211584150148
  0.8319654431610578  0.9998650024351555  0.8340277061524919
  0.7485185124960270  0.2501881788816921  0.8341137639051555
  0.0814631830953108  0.3336110655254825  0.9175819030388388
  0.2484385535783781  0.6654069376222921  0.7503411700944271
  0.7492869464264125  0.3329954878227073  0.0842625326244256
  0.7482615717247438  0.4995652610994457  0.9175370675588584
  0.6658929474052695  0.3335238119827103  0.1668470406027561
  0.6657875796518868  0.4173501826019185  0.2498078093079018
  0.7484355078835637  0.3330556118657184  0.2518369880489595
  0.7496528962086588  0.4165523303237560  0.1672844663860983
  0.0816179710249034  0.4996443968010111  0.0844898444620360
  0.9979812785164845  0.4165472836437841  0.9172750928949783
  0.6627479068944656  0.1652730185940459  0.4998448559060313
  0.0813670633829962  0.6652902377505366  0.9172518230566564
  0.6645193316899460  0.7474596537041338  0.0848525889934812
  0.8316074669170017  0.0004393039553989  0.3334960403041434
  0.9156549618477059  0.9992001552344727  0.2509729065838051
  0.5811934736445910  0.6670215234731616  0.4161745204764747
  0.4980796965658520  0.4173279922282385  0.2489450511338371
  0.9143187969319889  0.4173518598039699  0.8345249369382428
  0.9979228570771371  0.0838700833982708  0.9170709826781008
  0.9151609876317922  0.4997094902118971  0.4171047349339432
  0.9132877394821503  0.4163116673220778  0.6656886977284631
  0.7497180523006033  0.3323136166654737  0.7493320862740273
  0.9994810440316308  0.1666512604474984  0.3342861297737330
  0.9995391614938003  0.2493800474943204  0.4165202498309115
  0.8320810534580539  0.2487465811557193  0.2518664005037839
  0.1659731314727869  0.2499223990320049  0.5828720037428724
  0.9148646525154883  0.2494904965269362  0.1669617059164234
  0.8308651112092642  0.1662926285877430  0.3334846205979293
  0.9980727614213285  0.2491199111908682  0.5831145329365793
  0.9996274413153461  0.1664611713797995  0.4990530583455493
  0.0812554696429065  0.2512670785941470  0.3328881668775944
  0.8316579222262530  0.1661692190058962  0.4981967169197973
  0.8310070498246143  0.2480756257273031  0.5807044607710869
  0.9152600486761246  0.1654995713217007  0.5811060876052325
  0.8307715720288998  0.2491414819155690  0.4157705503088408
  0.0819383044640484  0.0829833501250925  0.3343896231120592
  0.8306395380456195  0.2493494566467903  0.7499960995658116
  0.9153115371024325  0.1667176675880790  0.7491451067885014
  0.9132161421989817  0.2485954307456811  0.6642228929211339
  0.8317901743046631  0.2495809705358365  0.9179512109487865
  0.9148603451440157  0.2499795180207182  0.0000970519859775
  0.2490507360317572  0.1675641965333239  0.4166555758707778
  0.0834896917048302  0.9991455733997375  0.4162505780269489
  0.9988607695624943  0.0832894004557466  0.4169055162506575
  0.9162502054408378  0.8338023666176775  0.2509102364919472
  0.9972250861060991  0.7520321824354766  0.7499229703614664
  0.9982929759182435  0.6672335602857808  0.6644848199642729
  0.0822141545665935  0.7499921307973169  0.4991143048745304
  0.1652096450403536  0.1698749722417890  0.9990383370668223
  0.4999699117902839  0.4992275099392754  0.0004223494135762
  0.2486203328562806  0.0833162644736983  0.8328193636327769
  0.9986174884092902  0.6671418383921256  0.4995661307845649
  0.2482528769131028  0.9994867365986430  0.0809675354558575
  0.4986132818228315  0.5002689425781659  0.1678757827519352
  0.4982399829889863  0.5007936865247707  0.5003244927766766
  0.4991068819833248  0.7493446738662460  0.4174979158487280
  0.9141762373217542  0.5003580074037807  0.7496430979056625
  0.2472436693251321  0.9136023797514398  0.1664000335223696
  0.6635650677871261  0.9171943544792008  0.4170503198795332
  0.4990937622939624  0.8333606607357316  0.6662312249280116