Cr  H Ni 
 1.0000000000000000
    21.1200000000000010    0.0000000000000000    0.0000000000000000
     0.0000000000000000   21.1200000000000010    0.0000000000000000
     0.0000000000000000    0.0000000000000000   21.1200000000000010
 Cr  H   Ni 
 259  35 605
Direct
  0.9988733951178131  0.1671461221714043  0.8331171161487202
  0.6655947540217659  0.8327314169597756  0.1671151534502831
  0.8314381556633417  0.7483785985665843  0.7492665626343257
  0.6640463326387486  0.7468599713568485  0.9161660774560041
  0.5825420588320527  0.6672115520041143  0.9161775459346636
  0.7476656860569740  0.5837408590597106  0.6661466585594468
  0.5812443946069861  0.7497245853271812  0.5002463448243469
  0.4145853206028864  0.9147096501135131  0.6669611633481001
  0.6632698930167944  0.9991347842052177  0.1671073204939919
  0.4147769205298707  0.8333514254972582  0.2502918090323964
  0.5810821998871416  0.9182564311853633  0.9989722153441163
  0.6641379079778338  0.1658534148012112  0.6653437157964510
  0.2471711752331264  0.5006419607978463  0.0823154713584491
  0.6661564918988709  0.2465195852264234  0.7474320369635991
  0.6633673520282686  0.2502665218878485  0.9166641580848858
  0.8305832002352178  0.6681444817820429  0.5000314730615381
  0.9148171563954023  0.7513458711394211  0.1662595246929409
  0.9131793904628526  0.7502560327122247  0.9993090344586929
  0.9925944931989323  0.4160005525316192  0.7501181639894652
  0.9133242073264364  0.6667102439139959  0.5833741857695336
  0.8302332042469183  0.5017402954225454  0.4965465479518207
  0.5830711532243723  0.0833458847514409  0.9997340594790014
  0.4973362995295638  0.0004908363463303  0.8332367854340890
  0.6645551642417451  0.7494519047285724  0.7491376618964396
  0.9965329415832362  0.5831644235213848  0.9180267625850840
  0.2501427629292394  0.0828908166076387  0.3337378366089842
  0.1637080941713573  0.0870584656710932  0.0844243412255471
  0.0813505174525190  0.3339546163859904  0.2542385622055673
  0.6638091765348973  0.0833840619351807  0.7494388328337462
  0.9137499931699457  0.8340074679727726  0.4161434699930840
  0.7457373827272776  0.0813708961122890  0.9977447934208687
  0.8310528647155082  0.8336696799188399  0.5008875543831439
  0.5758783652465531  0.2516959533912057  0.3331354049421870
  0.9137412453892975  0.5011302262317731  0.5815416160317564
  0.9137750260004627  0.5836501841993467  0.6651743826004559
  0.9984693485613969  0.5859255795089418  0.4159732741799106
  0.7430757941042696  0.2498090638619586  0.6659199278418189
  0.8334628250659872  0.1658708342996230  0.0022189687794318
  0.6637013880750938  0.1680285541736705  0.3344500552280231
  0.7480486133841284  0.9966344770489343  0.2506049343557906
  0.6623266798089401  0.9171454405293028  0.7484602778528838
  0.5813955289829938  0.9151244584716128  0.5004089450890412
  0.5790562962796811  0.1662043786621367  0.5823281027656627
  0.7439430377639273  0.2481967034850497  0.4978808548810901
  0.7486124570779367  0.2494857519549506  0.3324045370781743
  0.6637908716582659  0.1642589114184574  0.4979792499519022
  0.6620174558061029  0.9165769021073960  0.9174254906696188
  0.6638580102105461  0.3354778854366585  0.6632745157550276
  0.8306988905150056  0.3339221920452471  0.8386342172392461
  0.4992610538118818  0.3346540799245128  0.6665459709051570
  0.7475787580520228  0.4182019889941401  0.6647644522617241
  0.5818965831387609  0.3338088118360403  0.5817084569450759
  0.6646057184749381  0.4185181823600069  0.0854441096400007
  0.8301965101566389  0.9164168691336660  0.2496262118442046
  0.7485189201357856  0.8336191560557100  0.0827491166875550
  0.9973328593816378  0.0004713119207930  0.9993872292249857
  0.7482698289361720  0.5834552650514894  0.0020156973905569
  0.9966939269902030  0.8334991007253483  0.1667809140472944
  0.5823894445486214  0.4989712805788579  0.9163111559795734
  0.8302357747482807  0.9165951910151737  0.0849946516321964
  0.7488569449013063  0.4172576023069936  0.8360380420317043
  0.8316061841723301  0.7490217568969968  0.9186253906070416
  0.1639309884601219  0.5004479023137864  0.0008376844141765
  0.9142974504496519  0.5009366469239890  0.9190349052798755
  0.7494862634806235  0.5008342833960275  0.2505643848551771
  0.5817323713375995  0.9165515832877541  0.6676760885890207
  0.7489059991924640  0.5849496441353250  0.1682608150743474
  0.9968087508534311  0.8332393407692893  0.3349845356215300
  0.0814917921851177  0.9966934599598907  0.5826797981814825
  0.0803752163930449  0.1668437547855658  0.9174860423587805
  0.1641869091494271  0.5832517528121544  0.7497026838302555
  0.9979665660623906  0.9156552724996367  0.4159604375750228
  0.0803907740051393  0.7505738198947171  0.5010963843691622
  0.0841009759795816  0.1654156462826728  0.2507745931109980
  0.2485402790912404  0.3341462456277982  0.5795112993510715
  0.2475355588096051  0.2519118518167213  0.5015209248012241
  0.3331561186565759  0.0000948015095078  0.8342203783513417
  0.0812937244799339  0.8354611306097348  0.5862015432818992
  0.1654095237110792  0.0843561898355998  0.9166798304779867
  0.9976978949360171  0.6677639832209737  0.3338572832359118
  0.0822599780760788  0.6691127727356639  0.5821810251234729
  0.9135669447716668  0.6674706971038761  0.7505342062955082
  0.1664979913620053  0.2506092614061649  0.5810104915856226
  0.2472740589834994  0.8309440997439700  0.2496529003971954
  0.0834688863652015  0.1663115153136066  0.4163022002957979
  0.9150122932918425  0.0823140317134937  0.4975293398997183
  0.0818056983707042  0.9161871699691276  0.6690370093822272
  0.2485513829025976  0.1675006090864578  0.7502139460812891
  0.0800975082968924  0.9169679246906123  0.8344768677425732
  0.9985207418575640  0.1655042508294479  0.6652638655028057
  0.9981052882007513  0.9996207385667383  0.8344508134251397
  0.0816124753386323  0.0836136571095537  0.6684707527768551
  0.9974835105316670  0.9170381228937681  0.9156844635400151
  0.1654731912858960  0.2509092333415734  0.9170335791430239
  0.0797890067466389  0.6670599564009647  0.0840597759841860
  0.0751249859712745  0.9210418854059190  0.9972083397836673
  0.2488735158460106  0.0003636717524087  0.7507145203691020
  0.0802961082588400  0.3359901540612823  0.4146544721299114
  0.6668855046794419  0.6665762032562231  0.1668158417847396
  0.6649816104487308  0.4175956864554724  0.9185017855142599
  0.7477085577631200  0.5838458413725609  0.8349147475005149
  0.7495155289271944  0.4194943440182524  0.4968723985122022
  0.7491052700728038  0.5857848734975570  0.3313642092640791
  0.8319928060345851  0.9160948229908256  0.5828660778629744
  0.2450017121035817  0.4183505112492358  0.3333271460416838
  0.1673691863189350  0.1675991284965679  0.3328862941371032
  0.9970411423146380  0.5834146669370687  0.0845664514952877
  0.0795582251480148  0.4190479362066095  0.8360078167307341
  0.9942066037260905  0.3324350718030041  0.8339839279525447
  0.4155081357334320  0.2495662778146848  0.0005820049994841
  0.1639223857237170  0.5018359483629623  0.6658369959385795
  0.1657161652432730  0.5012727117965224  0.3334443516179670
  0.9988553660409961  0.4172590678123262  0.4156905799200900
  0.2490007204436258  0.2478741575947256  0.0009447662434050
  0.1639894658897966  0.9157504528047482  0.5879079391566825
  0.1650225583217386  0.0842181936896964  0.2512282385937238
  0.1631251750318656  0.8343250878899537  0.1663254839968460
  0.2481591255918049  0.2502786080172146  0.1658013245424649
  0.0804761656677406  0.4207140346693473  0.1668342514411107
  0.9145610958617725  0.3324213748799492  0.9174417073174951
  0.0803304832664138  0.4170093202139949  0.0004702192790183
  0.1681981336845603  0.3329319655058134  0.8340454986575133
  0.9979037089741770  0.2480217990244761  0.9168121429994315
  0.7482280757131421  0.9982673366288004  0.5869084162802719
  0.9968302704317396  0.4170429493989338  0.5818153738471296
  0.7470524461057783  0.9978583287341789  0.4131551875491354
  0.9962532942496127  0.2486897009350233  0.7510642619491142
  0.6616388354951768  0.0834994206604563  0.9175675967218693
  0.0795627896022717  0.9169838187307436  0.1673507284361005
  0.6637152955231861  0.2505345223290696  0.0862807777813172
  0.9126500229454395  0.8350769194410341  0.5825182136119553
  0.9172395501650326  0.3323720929985815  0.7513575518267366
  0.8286716541191287  0.3370033150386842  0.6629992477627704
  0.9981564198988319  0.3339659458157321  0.3335931439898770
  0.1644682761577243  0.5008732840456165  0.8331000591492940
  0.2463761961197844  0.5826472387482554  0.9999000092468072
  0.2477279713887698  0.6678789727867483  0.5829637067629690
  0.2494041217190977  0.5848399358595496  0.4994545608312950
  0.4980304995463030  0.6673936756898419  0.5009136744199928
  0.4978617345133935  0.3346194925351528  0.5008676083776306
  0.4163153948210379  0.5014053341653225  0.5819971523641212
  0.1643940070556028  0.7500998022188239  0.7512842224907351
  0.2477495763387708  0.7500584100336940  0.3318480704059477
  0.2452276930098948  0.6660503024172736  0.0816524005483091
  0.1642605044452771  0.6676381276972085  0.1646008250782075
  0.4158897596356390  0.4162983887734484  0.6666292782472234
  0.6645690601155744  0.7504785023068363  0.4166809092403742
  0.6641591210742244  0.8330936628404816  0.3341666709352791
  0.4981312298357681  0.6660554334766454  0.1679840611379566
  0.4167809423578724  0.8333009961685099  0.0829906277430578
  0.1636161248019990  0.4997439342119304  0.1669453036580351
  0.2474482205581849  0.6668765194503210  0.9182264490993053
  0.5824379208415631  0.4994255655073415  0.0852322530071506
  0.5008121004355799  0.5841221010580099  0.2488044583926123
  0.8315945245031631  0.3333400993180616  0.0013031858723694
  0.4961155532226036  0.2506249544179463  0.7482142312144739
  0.5837785857993721  0.3323550220429441  0.9172638442245150
  0.5815193003034779  0.1673000203400234  0.9160439927051367
  0.4991095040211304  0.4190262547572113  0.9166321735665179
  0.4957144570517057  0.2479680676543363  0.0839023377121736
  0.4974845434967718  0.3328855362591401  0.8309470220932718
  0.2477176132814247  0.8335396892492968  0.9166605283407494
  0.4981203558952493  0.4165876221909977  0.7498870586068103
  0.2475637389175035  0.5840910504456229  0.8370336095667058
  0.3317770571431949  0.0828354372102160  0.2506950853915563
  0.4140674922370113  0.0833401955357582  0.6656784761449790
  0.3361287584039294  0.5835982999704044  0.7540726979918011
  0.3318136011715665  0.7493436005526535  0.4173052044496244
  0.4974453432635930  0.6638574751173678  0.3323963238885388
  0.3271100881871012  0.5845223161300468  0.2487788795788579
  0.6627336518809963  0.2500614925394171  0.4198698987539128
  0.4980673086941131  0.2517178382397162  0.2507275847370664
  0.5768208499697223  0.0833326302233374  0.3327487274473724
  0.4157346609958849  0.1667452450491215  0.0842181851522258
  0.4137853395664256  0.0831944035003450  0.8331407304985190
  0.4980793322082231  0.7503367115094608  0.7496100758412927
  0.4984744638197885  0.9163545883678457  0.4175973515961759
  0.4162756859186101  0.9148582144543104  0.0006716135786766
  0.3318274223258676  0.8327788744522426  0.8337977822158299
  0.5805209535792486  0.4172798018122537  0.6655444640695751
  0.4992030746026362  0.5006194457004119  0.3323786012191092
  0.5801994369781375  0.4176088969483659  0.3334272224598988
  0.7485188134468910  0.4188076386185834  0.3339341983326465
  0.5822771832220464  0.4184348027034803  0.1643858426606760
  0.6662240548564515  0.5840883038768572  0.2512634564962938
  0.5810498816626936  0.6680431317064859  0.0839286426304380
  0.6657355427966343  0.5005623081882021  0.6666680814132829
  0.9978816005857987  0.9998079504080170  0.3338223846203024
  0.7463577269224452  0.0825463715146073  0.8344089912389105
  0.9984378799069568  0.0005981362446271  0.6674647850871098
  0.8308403570770948  0.9167616445245093  0.7496116752465624
  0.1671744216822700  0.2486924583988910  0.7502847596134037
  0.5825902749488647  0.8323709849865119  0.0865707678301578
  0.8300869367071207  0.5001969150596212  0.6657731539282845
  0.4165329241739707  0.6675497908626824  0.5824979183760602
  0.6647863978820552  0.5854358572204519  0.4164360974395411
  0.4160676265265005  0.5842821209300288  0.8340511587611860
  0.4975699109944575  0.5020555574869032  0.5004560578543645
  0.4137594044563909  0.5844603851346668  0.1641243716509366
  0.4154228826752627  0.5831312160412464  0.0010229616778601
  0.4145689056694635  0.5023635255133206  0.0830666801882000
  0.4984858240955263  0.7475803452146682  0.0848288179905172
  0.8307539511506028  0.4196158128544701  0.4159176049297525
  0.9177034525136392  0.2505995872094565  0.1671994190923641
  0.9127886400675441  0.0832173494190243  0.8338599030233944
  0.8304523187340707  0.1639200594449615  0.8346997134620704
  0.8317490868675875  0.1621731232229489  0.6679538902370917
  0.8319753218359178  0.2498591966847014  0.0833243684466719
  0.9163199944197655  0.2479544645325536  0.3338686500582722
  0.9166044793056171  0.2489233520258886  0.4982736652835909
  0.0817009390919497  0.1651787376010995  0.0838269361234687
  0.9160281911850643  0.0815383522770023  0.1675322795564508
  0.9138765022423533  0.5013897252522064  0.2502053972039456
  0.9963928538066991  0.7502919372610621  0.9177314773413495
  0.9969135372005424  0.8330714536630809  0.8337905808834590
  0.9156371741339525  0.0824447667707774  0.6666276311180988
  0.9982855254304361  0.9172925391624324  0.5826634818798434
  0.8315119299887470  0.9160024281109798  0.4161244628872835
  0.9158269388218865  0.0822862355725585  0.3341619736941962
  0.9146494510689573  0.0823646041325735  0.0007699058220595
  0.8304671466719152  0.9172058475944075  0.9172999322131138
  0.2486117683250969  0.4207606086141724  0.6664205166664293
  0.9148015680274820  0.1660224576636921  0.4170253236753368
  0.9910917658063179  0.5847802256479033  0.7498585055432352
  0.9144336374504710  0.5008869607768781  0.0847011176160487
  0.1641167578451636  0.5011028373758712  0.4998813502290136
  0.8309308640226969  0.5006367724417219  0.1681267080147192
  0.4978971018129314  0.5832936481611990  0.7501871487559283
  0.6644593804024908  0.6671740957310277  0.8345186481380731
  0.3323382110792073  0.2508278391451682  0.5828544882017381
  0.4981205459063818  0.3347217793960066  0.3328691759293933
  0.2481346695715015  0.3339222842430614  0.0863721915806466
  0.3314936869625606  0.0824359575087200  0.5833076478578757
  0.3325317544282532  0.0835470342764686  0.4167229325964946
  0.3318170537355110  0.3335148766180627  0.8346457572670232
  0.2488216014757013  0.9987789274134373  0.5861112080835222
  0.0795795761315828  0.5847088275135748  0.6636286881540574
  0.9973426778569582  0.0004968979854050  0.1671331519312983
  0.3308690502741788  0.2526051536778509  0.4176443633667455
  0.4129424382648131  0.0833243827333220  0.3335570459150249
  0.2485448430279553  0.8345206282859138  0.0838434852098777
  0.2522566689552956  0.9159541447230498  0.9999946612872013
  0.3313806987768830  0.4186872030360009  0.4188349117679069
  0.4146462270095253  0.4191251999138299  0.1682165137282664
  0.4158386646371003  0.2514750507149991  0.6671858279222074
  0.3302100908284490  0.5842916930595589  0.4170058674303679
  0.1642126174722417  0.6666802236851515  0.0002271820096324
  0.1651021385216496  0.9147443248859110  0.4117007247979403
  0.3324021650312648  0.9136968048221954  0.4157812194044023
  0.2487683719807221  0.9151561366035108  0.3364652295224255
  0.3319121411886319  0.7520205244979856  0.7546362032455765
  0.3332217506805012  0.0826987031100144  0.0834695694723918
  0.0810812893833269  0.7475695786141259  0.3342755080200147
  0.4124648081204561  0.0828075542386724  0.4993116246203543
  0.3336909944799258  0.0823390132521529  0.9157378901180552
  0.2471239603569055  0.9137274105975338  0.1633246906748402
  0.4971206611059055  0.0001358160578361  0.1671313998783270
  0.3311524325983634  0.2522945521630315  0.2501128168042079
  0.2510890882271639  0.0853225712667836  0.4998749758138704
  0.0818873252843455  0.0858282456426626  0.5796809216791180
  0.3318216234222561  0.7518030511494959  0.6634861437879025
  0.2485554417972198  0.3319217206624775  0.6683509798883727
  0.3322925460863476  0.5840170102835528  0.6633056986897973
  0.0823984967518808  0.4168603708434119  0.7478138257405065
  0.6624640537390104  0.2536132361489671  0.3331223261690617
  0.6643449478271023  0.3355491484369617  0.7519436098765366
  0.2479895873878827  0.3360463108709206  0.9979981749838807
  0.8306324682451108  0.1655246653476655  0.5785228915945383
  0.0806154839340093  0.8303230522874268  0.9998872694317570
  0.1659203813184766  0.9143084426741792  0.5003045758182603
  0.3338482902037647  0.4179882793389523  0.3295402926269754
  0.2482667857892593  0.9178989174266856  0.2498056277493919
  0.8305998465250387  0.3333315871168068  0.7507348996117045
  0.4958588083874765  0.3311346039603708  0.9194240232264754
  0.0805237805361540  0.3322274113374344  0.6636442092872922
  0.7479159820799491  0.0830315901215896  0.0872363763837004
  0.8314820099922076  0.3298042660281122  0.4155434667823932
  0.0812708016301086  0.3328538314914480  0.8339639106880904
  0.4141929541136474  0.4136362410253829  0.0795184272035804
  0.1646459532900402  0.9977389785396559  0.0839382359116889
  0.4143921318789027  0.5840473501714910  0.2516767773850194
  0.7448798647077095  0.1694884423369039  0.0022098039617147
  0.8284079700667308  0.2512417501272198  0.1710872924266636
  0.4977815337085740  0.7539131564514958  0.3338812013403697
  0.0781186736233826  0.5850711526123440  0.7507273353009347
  0.2495581923058880  0.9967170183233676  0.4982795104649437
  0.7452195642280203  0.9996306688492849  0.5000161674764563
  0.6654893596597410  0.0785689232437278  0.3332146588855092
  0.5814915330769989  0.8303342900584418  0.9972008486481456
  0.0813426907607930  0.3312381270471317  0.1649651616984051
  0.1642737033786298  0.9173572732525467  0.9987221422026366
  0.2498680355955024  0.5839344684700003  0.7495656873548667
  0.7481252973923534  0.0874972135171309  0.2498517029252010
  0.8313674539637388  0.2498282491849652  0.6650626540917177
  0.2496801658837463  0.0003923133353782  0.9167643559687934
  0.3320325315061561  0.9986341225861987  0.3338229231530218
  0.4139275895207374  0.1680877986291248  0.4162319126903800
  0.4142470638475478  0.9988657284631165  0.4166761356391861
  0.4142299869318471  0.0832765798261507  0.1673018977655633
  0.1648323457368601  0.9171565351334826  0.7512311704497008
  0.4979750930027363  0.0827704723268075  0.0836905291423742
  0.2489935567040327  0.2517818337211214  0.3334589698786165
  0.4159332181802339  0.9993123991312982  0.9174019269214531
  0.1660192523508029  0.0838335037678758  0.7508502529467869
  0.3318694435160984  0.9994757923620025  0.6674134903509867
  0.3321266347825276  0.0826608742684222  0.7496616963173864
  0.4152283368740514  0.9169953056561572  0.8336457169026786
  0.4960305083665124  0.0820814977012175  0.5830833613666935
  0.4143205606734476  0.9988919990129140  0.5834274904060063
  0.1648380451184603  0.0007727858254471  0.6681741626862054
  0.4155950329754147  0.9999460867663386  0.0829603201771235
  0.4158437443298478  0.6676688830300639  0.7510899321863315
  0.4146789531294114  0.2516373906820553  0.3332912132513908
  0.4140929291456531  0.5835788741029889  0.3350249007772989
  0.3326655565794660  0.3350533839097656  0.4995773590938168
  0.3312254442448851  0.5011130958929845  0.4997733053751635
  0.4141390307466754  0.2515718948788845  0.5000063522096513
  0.3318974913688497  0.5844698552593309  0.5810721488388056
  0.3320665389688548  0.9995186040815298  0.1662385117364647
  0.3318023067411973  0.4180612918208388  0.5827996388399129
  0.3322511179864511  0.2497765459556591  0.0838726996446920
  0.9133317511801660  0.7503468924137129  0.6665382712444117
  0.3319039512243216  0.3335923825654131  0.1665128813124331
  0.3330616459540783  0.4997593150890259  0.6663482339991746
  0.2498133811261930  0.9993619436989699  0.4149489926064256
  0.4171876436707447  0.5843170440270191  0.6666531622998942
  0.4148330237034012  0.9995416146151622  0.7499691205552735
  0.4157586144263814  0.4997698272422826  0.7505467978658525
  0.3326977532400498  0.5013361177170819  0.8346431344545304
  0.2488577238774837  0.0012406110161385  0.2503500045780376
  0.1650206903220972  0.0022489253628434  0.9989884265846297
  0.1643362037768918  0.9178278261526697  0.9153809956484702
  0.0805425103281925  0.8328789829996494  0.9158149221958028
  0.3301533254301455  0.5011584131758861  0.1658032469797363
  0.3301928270980757  0.6670362294978157  0.1653732039897068
  0.4142186246769163  0.5001429205099304  0.2498271178385239
  0.4145191015316153  0.1667522212382209  0.5831690440145670
  0.3316192234304569  0.1659688676311281  0.8336672544777938
  0.3315287668631151  0.2497169289353787  0.9172659162708973
  0.4148556251481497  0.1665633387227119  0.9173197447851710
  0.4142939884614552  0.2499445225390066  0.8329374024569181
  0.1660925701438953  0.0007127004505045  0.3339275983561474
  0.3300213108259472  0.4176361972642930  0.0836043456663743
  0.4151742439244929  0.3311496206938934  0.0843043905637553
  0.4153563758963941  0.4174003229704218  0.9980543915524789
  0.2487562328230720  0.0838645218754076  0.1672749611950994
  0.3301851773678779  0.4178649199771914  0.2471851755424095
  0.4142711414705257  0.2505225356079135  0.1678039307215738
  0.3333314219813745  0.9159028899288975  0.0832335386210681
  0.3315004178743250  0.8320048546573096  0.3336204675505027
  0.4147125681822894  0.8327338705527666  0.4169995938092427
  0.3314159587204794  0.8329037917505639  0.4999660419647723
  0.4155024086829468  0.8335867246535509  0.5838328691073298
  0.0809052599956662  0.9160473293907617  0.3334137171707600
  0.4154738466159968  0.6661839029689932  0.9169002645590377
  0.3307756588771743  0.6666078800321024  0.0002493172579230
  0.3313235188353938  0.3337370171317974  0.3334317921357595
  0.3324490262386823  0.0003474225420169  0.0002289366486048
  0.4148992001717863  0.3347675297425871  0.4166829747032171
  0.4168254973927499  0.4183843226658763  0.3338018114769479
  0.2486106658454667  0.3350185520492862  0.4172314336609377
  0.4137824891160029  0.1664708414896724  0.7491662659377989
  0.3313901658069525  0.4172355490167606  0.9170538501718972
  0.4132685870092229  0.3333625703674622  0.9162930131820000
  0.4152679161118565  0.4166836684971738  0.8337206368346963
  0.3316676493857530  0.5013001012663948  0.0000563928897735
  0.0815722158837475  0.0029367267268497  0.9157980996262330
  0.2475953649200287  0.5003234523284857  0.9165506408208639
  0.9156326010213721  0.4180684293327178  0.3340626556271701
  0.0810571819833486  0.0006736453718534  0.7507782592083950
  0.5807536882561171  0.0002489851161387  0.9159464061415182
  0.1652757009951588  0.8320146626674155  0.6688490046640458
  0.5810550256177263  0.9992533706480110  0.0836377251321631
  0.4984473358543290  0.9998876802554723  0.0003383737781286
  0.4966882698987312  0.0828418304843819  0.2506878984148746
  0.4135641916067134  0.1676108783882107  0.2506975705052711
  0.5797917055495353  0.9995490492035157  0.2497096850017649
  0.5799936064915774  0.0824618574599328  0.1671791431931053
  0.4963563584615179  0.9991228589115259  0.3337961738679407
  0.4965757913484942  0.0824238923343099  0.4168210653166312
  0.4151332914746944  0.5012987860443024  0.4168596928773352
  0.4158781794016811  0.7501075163425247  0.8337789437421439
  0.3322434867712511  0.8329245723718491  0.9998850380593622
  0.2481480169519539  0.9161284330359016  0.6688387532213437
  0.4148926675250393  0.6662810117656294  0.0832596437458536
  0.9143746366725710  0.7507269371138227  0.5001414177887058
  0.3315360086292570  0.8326037047048713  0.1658926385374339
  0.3328651429860324  0.9147324018015889  0.2491426902348123
  0.4980745410581516  0.9162090270791547  0.2492712361005478
  0.9137112765431094  0.5837715952886137  0.8345870818680297
  0.9954989319121051  0.5002537601239833  0.8343126859369822
  0.8315639642545444  0.6664058125687238  0.0003764637921571
  0.8313108500167297  0.7505052027438742  0.0834385546906683
  0.9147918200265377  0.6672495220477518  0.0836039565889732
  0.1629375207812039  0.5823478348247859  0.9172228004341855
  0.9149693635433785  0.6682577473228350  0.2502386042235224
  0.8298450190933377  0.5843384771854309  0.5818047508406672
  0.9984197977132440  0.7506057654592417  0.2500644754718396
  0.8323997973571458  0.7507118973289371  0.2492761075773866
  0.7476046869080778  0.4165547633499886  0.0015803544761701
  0.8312959610629735  0.5005783066930309  0.0018051705524836
  0.0820370507153720  0.2472865241356720  0.1677574248028396
  0.9145516856055388  0.4168286232254670  0.0007760119423162
  0.8321091925647851  0.4170350602468734  0.0843756369918028
  0.8323190445708996  0.4171010810524158  0.2514455881405674
  0.4156833168671872  0.8337104237731285  0.9163251012565455
  0.3321020907606784  0.1676778314712858  0.4999821089096034
  0.4971565083212915  0.2507941884190818  0.5830905419112385
  0.3316753499928439  0.1667459333948660  0.6660413113254579
  0.3332719129185625  0.9981551695548396  0.4994553306495454
  0.3317518632078746  0.2500828761912014  0.7499546790666229
  0.5792959095090292  0.9986335168102577  0.4168697443773610
  0.2484228095927020  0.8311665591416822  0.4156239547952139
  0.4144331313735509  0.9153845198983911  0.3336500964235770
  0.3313159936612612  0.9165459171039252  0.5850062480438798
  0.3314865388926275  0.8346322809476278  0.6679707080343532
  0.3320894509189295  0.9168698524234491  0.7511967669941904
  0.4155247944819893  0.5008925178242212  0.9169582938831405
  0.0809236441139946  0.8323403464717073  0.4158724828128890
  0.4990490798004915  0.5828366275229886  0.9176084452212336
  0.4984545333596084  0.9161560537566502  0.5838873246518236
  0.0822351452575927  0.1680057685167199  0.5825035669532753
  0.3312571390280611  0.7510596401005099  0.9177036498390252
  0.3326709473899933  0.9162180996105199  0.9171275547983156
  0.3314553515295158  0.7503860440508439  0.0827488251864671
  0.3302064684246362  0.5838167253425840  0.0828121164595109
  0.3325188026292337  0.6675511525203570  0.8347148236411991
  0.4155490852655691  0.7504197319896951  0.0007745833408430
  0.0805239118637592  0.9148424377757383  0.5004974945401587
  0.1651529034519236  0.9994883171141254  0.1677720240426637
  0.2487097014114565  0.9166861584527006  0.8343061732711827
  0.2477727337172670  0.7503334041829011  0.0006297904287892
  0.3333269165500744  0.3341880085095978  0.6662006262092282
  0.3318779232002582  0.4175342801477684  0.7503515295284358
  0.4134717833858515  0.3341924622207538  0.7508822841381287
  0.3320794871226452  0.1665233533687406  0.0007304427665644
  0.2493437876670131  0.3336005382970612  0.7521254223196787
  0.2492697008269494  0.1659607232501594  0.0838490864505763
  0.4150428078553360  0.0839118115606617  0.0005897793596966
  0.1667712740905721  0.0838064812775085  0.4158465965588696
  0.3311373713331371  0.1676286393968614  0.3335061402321212
  0.1674517203022158  0.0821528082411496  0.5828742862201112
  0.9149353779855828  0.4177768636831475  0.1677424233526926
  0.2487949514301853  0.3340829586060534  0.9157316780862875
  0.4983420761509308  0.4183484774073021  0.5829104930811772
  0.5808288743236174  0.3325224924568977  0.7501139840773589
  0.0799782187055743  0.6682323627762188  0.7508164998616377
  0.6651512175316836  0.3334464137146183  0.8358152296305106
  0.5801926250370844  0.2494628665237618  0.4999764366928521
  0.5820826804828131  0.7480318691188140  0.0008884968962807
  0.1646578220397369  0.6673387974388364  0.3333979685735025
  0.4979845980701130  0.7494975730071444  0.2486142782239202
  0.5827196929355696  0.6668467413727740  0.2503861990232399
  0.5823833990757367  0.7496352980048524  0.1686064002713079
  0.4135158753426129  0.6674574276435666  0.2510686882884726
  0.1629485505497905  0.9164299196120852  0.2508282370508866
  0.5815509844945015  0.6669421094471812  0.4161839075868812
  0.4973315712370177  0.8352737046570706  0.3337054631139644
  0.9971129654788019  0.6675464726706399  0.1665619779289260
  0.5814294921519902  0.7495667716582034  0.6679536344994813
  0.4987441950135399  0.5840628426242127  0.5831620046256147
  0.5815473474034003  0.8333597941872681  0.5838081290519010
  0.0800307626119695  0.7477173517461287  0.0000554075781918
  0.0804901695325072  0.5835356583740804  0.0006141805603219
  0.4157683430857910  0.8336292762317487  0.7510407270187066
  0.1651588384162475  0.3335733764581453  0.1665459780476410
  0.9966026539584649  0.7502901796739523  0.0836016992360675
  0.4987630541572809  0.7488614685712334  0.9172569001818545
  0.7482426426566330  0.6666687867508401  0.9172798997053938
  0.5814370963202404  0.7502554918480906  0.8319916855308582
  0.4979918672280665  0.8323071284797746  0.0003757394421744
  0.4992130799445503  0.9159382575590808  0.0839157913974003
  0.1649428555095242  0.2495514516248978  0.0833289814563632
  0.1639197786489146  0.6667458349807523  0.8344310155814103
  0.4977176156284965  0.8326272339785769  0.1659457300166673
  0.7472903728336636  0.0828203727622987  0.6671313469161386
  0.5798224720669716  0.0828760559554615  0.5004715765582433
  0.5800425591391228  0.9987679984943256  0.5837494195082208
  0.6637261994301492  0.2494071335662774  0.5814386350301992
  0.4967683095591910  0.9990541911523771  0.6663499013905805
  0.2494586260880637  0.9136863716875632  0.4988961329109144
  0.1649107303853329  0.2507206763963975  0.4168042552415134
  0.0816525648619382  0.0843826518187967  0.8332112730581598
  0.8319822350942405  0.5015852559852572  0.3333076785061432
  0.9143123891098024  0.6676740907222773  0.4168531162136476
  0.9157117930908844  0.1658403157066824  0.2509132604987161
  0.1639404635662675  0.7507268740794355  0.0832800339552196