Cr  H Ni 
 1.0000000000000000
    21.1200000000000010    0.0000000000000000    0.0000000000000000
     0.0000000000000000   21.1200000000000010    0.0000000000000000
     0.0000000000000000    0.0000000000000000   21.1200000000000010
 Cr  H   Ni 
 259  35 605
Direct
  0.9989522874259135  0.1673173776677957  0.8340085787288692
  0.4145188684244372  0.9135489609288944  0.9999853880188020
  0.3318867907612055  0.0830605832497665  0.2502055101148244
  0.4956633637340113  0.0786452025521526  0.5823827945744801
  0.3320616145579516  0.5834627792046491  0.7507710275750300
  0.4140104281433001  0.8334374867179918  0.4170967650943416
  0.4966250571311456  0.6664151905501066  0.3339817459924393
  0.3308095912191431  0.6655105852254795  0.1662476206237228
  0.6636988928654506  0.2489590957362283  0.4155636817028487
  0.4989136294213503  0.2527636053092202  0.2528324791388666
  0.5806656657629236  0.0818615309542675  0.3323090266709128
  0.4974474300379169  0.0790917008758240  0.0810731475007235
  0.4136914688186261  0.0848127451630415  0.8334072789313924
  0.4989776100950106  0.7497534662584956  0.7491587305042803
  0.4127014137616542  0.9143080851777112  0.4989453619784002
  0.3323315992525681  0.8318125644784367  0.8331511175242257
  0.7491315708950632  0.4179762151621760  0.3333823709057034
  0.5828961981584855  0.4191294643903369  0.1644848538657578
  0.6658291701554766  0.5841370154752552  0.2522802128736997
  0.5795785302116255  0.6668892239313899  0.0835794414848966
  0.5836518736922437  0.5008259716878096  0.5809150386856228
  0.9987002085156280  0.9999978846693259  0.3351435692966089
  0.7474750254480985  0.9993448018749450  0.9174028056268654
  0.9986864181211834  0.0011413781640821  0.6667008153127781
  0.8323794949722192  0.9176201804671745  0.7488461171644075
  0.1672157777358129  0.3326314270064470  0.6649592750675047
  0.5789658042758399  0.8328211816571766  0.0839350923524475
  0.8348989222945847  0.5007251333707073  0.6657712688995355
  0.9128346201593320  0.3314572824746473  0.7493237786593653
  0.5806232619242254  0.4179204535349425  0.3323764016143169
  0.0000163853061114  0.5817058552796737  0.7496792631688284
  0.4987274600461539  0.4993338411885401  0.3327891075406710
  0.1681130776122896  0.5008516159892298  0.6693602350703662
  0.1659264388089800  0.5042004593605798  0.8332368378203666
  0.2471130113428764  0.5827588822837511  0.0001849051944998
  0.2492151127553220  0.6679329236618003  0.5838609502658462
  0.2502999436512363  0.5823264528833223  0.4989456740641460
  0.5808863839242363  0.7491987083128228  0.6679641528643633
  0.5021190582319224  0.3301490902798186  0.5002441585333672
  0.4153286785419998  0.5007932114373068  0.5840917112287238
  0.1652155604725497  0.7548693134427289  0.7503917396482929
  0.2488717120791099  0.7500369816997116  0.3331645018091670
  0.2471018922947552  0.5826686016060169  0.1659486192118320
  0.1661377915643724  0.6670832937394818  0.1670314303344311
  0.2477857777763098  0.8320175516783845  0.9172306549593622
  0.2491281397353016  0.5832697467981313  0.8336994423496356
  0.4150145991445717  0.4168014685035389  0.6662474661592814
  0.4971910294820381  0.6662135843209469  0.1671102903625177
  0.4150136727516066  0.8317362585092078  0.0830119170764042
  0.1660007730143900  0.5018177380464253  0.1660592425417342
  0.2486290452301045  0.6668444573969281  0.9156098115151425
  0.5814561639498882  0.5000851645369727  0.0848651475349448
  0.4972328619127835  0.5845472890513648  0.0826504219103621
  0.8325180954314207  0.3322575846130510  0.0072557882650864
  0.5811043751930376  0.3343374726755302  0.9168613446253504
  0.4987593695662279  0.4156746894616556  0.9159775722421640
  0.4938555003038786  0.2539470101747294  0.0840056086153142
  0.4980498541318902  0.3331693870814283  0.8347326892795858
  0.4970489928160370  0.6671434560081828  0.5005878268766728
  0.4979659306491382  0.4173062152370293  0.7509170022422009
  0.6607455040907435  0.8332962509350771  0.3342219578314176
  0.5825267252984647  0.4170439612425554  0.6686028993740893
  0.8293907036389345  0.3314944859060721  0.6651749171546664
  0.9148564910805094  0.4173271700261781  0.3334920153488717
  0.5801546216372929  0.1670619004654239  0.9177203665763748
  0.4134853548316850  0.5840724066035143  0.1674217243375409
  0.4143896121756915  0.0828718938796836  0.3321126912856181
  0.2473572515922061  0.8324856699546826  0.0830292124656700
  0.2484132738681584  0.9159100619905326  0.9978578142405056
  0.3323383691930196  0.4176071962693161  0.4171020117251923
  0.4148207005174945  0.4192135684563106  0.1661893556780554
  0.4984944175536825  0.3348452133250660  0.3323180965405188
  0.0828557669320770  0.1648259495458246  0.5850894688210394
  0.0814136244178117  0.5859581423625789  0.6677324047703522
  0.3274901334511929  0.3339107235897585  0.4999680548172351
  0.3309092462795186  0.5837557724227502  0.4161575329848100
  0.1645719816490091  0.7487498367489110  0.0832925502957281
  0.4982403082626998  0.2533457724255968  0.5799575902181870
  0.9990152712202865  0.0013609879433146  0.1667341626466936
  0.2492366832766216  0.2525001780224033  0.3312523370649099
  0.3329544072259772  0.3332541113726383  0.8343662726923861
  0.4150283206816743  0.1672503564964449  0.4149250064374838
  0.1675046442195807  0.9162850824334197  0.4173513559719075
  0.3325627563835350  0.9148544376124674  0.4176871018832389
  0.2484238315127626  0.9160785649766540  0.3333776623892589
  0.3325031051026999  0.7518575295620193  0.7510606036247176
  0.3313825361169835  0.0820411654678231  0.0823907952931703
  0.0828185635290091  0.7491924638861601  0.3347032407855046
  0.4124391625414798  0.0831245826008911  0.4995031749480642
  0.3328289193104538  0.0820455127981825  0.9141822617224786
  0.2479766059241951  0.0006945259227277  0.0833326845822377
  0.4107724555367013  0.0826980946373205  0.1682995991629792
  0.3308820597629246  0.2526578606292154  0.2503854442080572
  0.2499996229931606  0.0848279535500631  0.5019800503622452
  0.3313614422212950  0.0839755572686768  0.5837672847989193
  0.2503718890828483  0.3323425339791258  0.0836085443833475
  0.9161649921223719  0.2479741742918773  0.3340720994515122
  0.8316143857180133  0.2490127872471794  0.0852886382401729
  0.4161465939635939  0.5830467735115566  0.9996573868130371
  0.4156992867904684  0.5023354933423145  0.0825279404801030
  0.4974380906580588  0.7474180811401283  0.0840762940904090
  0.4141171568686339  0.6666449384547734  0.5828282841668990
  0.4968114675875933  0.2490860031419614  0.7512964952702694
  0.9136372956445292  0.2479489211638838  0.4981139698490759
  0.0834190384700348  0.1652082247473535  0.0839024789991953
  0.4968401121327959  0.5849611457389952  0.7512054597208403
  0.5830434672079575  0.6686448614005062  0.7510464989241508
  0.8315855717456829  0.4158851465922465  0.4150583171838193
  0.9131341446118364  0.3337510252682618  0.0847863571124449
  0.9145721372964828  0.0831273672556882  0.8333922031846329
  0.8305643782639606  0.1638623589949654  0.8381890076565658
  0.8308772824528388  0.1649409946792229  0.6622230626651112
  0.9176872007502126  0.0822200934887423  0.1674735225432944
  0.9161778964554683  0.0831442773249547  0.3340662220274509
  0.9149090139041185  0.0869559816102241  0.0017339790063814
  0.7474791628131786  0.8337894158463166  0.9164640794611015
  0.9140110332889338  0.1659469501012905  0.4158736581368979
  0.9151087621937990  0.5005852398435551  0.0833146867049072
  0.8330772779012514  0.5008569885606327  0.1680396716835130
  0.9978044678831324  0.5855790295798414  0.2503811608983301
  0.9975700850663940  0.7510807449361645  0.9169822582617952
  0.9979202051757311  0.8323303026086432  0.8340520599724526
  0.9156617386420211  0.0819992377363004  0.6656397897441811
  0.6636361445823196  0.5848771424293779  0.4146876265970067
  0.9151293755267237  0.0013951023973316  0.5819084085864753
  0.4159003070752317  0.5841869293939910  0.8336105527575824
  0.8316390858290388  0.9170498474206299  0.4165779650715542
  0.4145735660727997  0.5845421161434340  0.5003807763564331
  0.9142684454434434  0.8339379891713415  0.5822828539872190
  0.1665473051658893  0.5841069542841703  0.4170532830032286
  0.0825591517804645  0.9164310140192619  0.1652531807377866
  0.9987488684793008  0.5850119667066923  0.4126629567055077
  0.7473479509265863  0.2470754267444827  0.6653636509301142
  0.7482664242299538  0.1651392352705585  0.9180232184535074
  0.7462201920337129  0.0811441987747046  0.3318372340303378
  0.7480223015237647  0.0009890215545068  0.2504964693448353
  0.6643969775055302  0.9182408074405402  0.7484233824859479
  0.5780740180808994  0.9158570910051969  0.4997188788037724
  0.6657330724229169  0.2467807520241897  0.5811812179515367
  0.7454838720674333  0.2481544212545279  0.4975236562641825
  0.7456730228071551  0.2479396345981905  0.3331646623327827
  0.7468174829291589  0.1659009859656347  0.4153449978004609
  0.5803871587839818  0.2505618424447965  0.3318020460147786
  0.7460132720304795  0.0824993925958950  0.0010657085101191
  0.6686577083537550  0.2505565434838871  0.0846134307912513
  0.6637397220617227  0.9170743187136772  0.9170658779794705
  0.6635806586292439  0.4209310986558280  0.5848837545765114
  0.5815647082614880  0.2489773703108332  0.4991653276228868
  0.6657292875415654  0.4185109406115787  0.0849679373388372
  0.8326220315157800  0.9159348430116885  0.2489338415065885
  0.8326224665946069  0.8328419023647021  0.1664267528312443
  0.9174170311570229  0.9129235055113649  0.9992400357143051
  0.9989835194643741  0.8335108483582849  0.1662154190396707
  0.8320994864341775  0.9166189428920017  0.0890719459506610
  0.8303862800376173  0.7503400357153673  0.9181929871461163
  0.6679137000776278  0.3292176998492887  0.6683381782796110
  0.8345401349142588  0.8336271909598569  0.5005418741603247
  0.8308401920780649  0.3337935301005027  0.8317469957972534
  0.9991956996580790  0.8342125301785460  0.4997986123569240
  0.6661588771853689  0.4154629060401445  0.7495847075488968
  0.9160105789853666  0.7497249707849889  0.1667586687738364
  0.7468684050693247  0.0033401343721917  0.5830781809902199
  0.9144124011814166  0.7505960728607626  0.0002850773392249
  0.6631181195402481  0.0004489304949388  0.3333213842763535
  0.6657175267714022  0.2473785263167251  0.7505167668519441
  0.6646058304340606  0.3338183919545603  0.0008773624932003
  0.6646011218698621  0.8356227968069641  0.1697033282021041
  0.8312026424509916  0.7505558889914339  0.7492256618960834
  0.6660917239155079  0.7506680379138551  0.9179330520605026
  0.5825027349171989  0.6676202627636995  0.9163938574932604
  0.7492553710787028  0.5869740173332489  0.6662082688589839
  0.5804822986437990  0.7489668658106232  0.4998448996509062
  0.4132535600607694  0.9155271896500943  0.6671195586196400
  0.6637053471810582  0.0012197228729766  0.1669576301050069
  0.4137207902391515  0.8328568090380334  0.2513029645926518
  0.5816512135214947  0.9173214167874095  0.9988884506120900
  0.6645765777316404  0.1662668767325239  0.6659967015591285
  0.2486184386450547  0.5012039147456034  0.0812691640028826
  0.8333109244216279  0.6669900591156172  0.4988497008725705
  0.9964034797632562  0.4139701921292319  0.7499271033850471
  0.9101501845744890  0.6669024808318476  0.5815387260864091
  0.8295473875208074  0.4996368779421731  0.4967579588800691
  0.5818935366229542  0.0833487280486710  0.0007668894050179
  0.4939437975151560  0.0007180094750614  0.8331241048184050
  0.6627602545497121  0.7488740351178210  0.7485868586183879
  0.9974536138052156  0.5833946088809254  0.9165750714154727
  0.2483422921864910  0.0831565777455755  0.3330558385859802
  0.1649933613817836  0.0834171336337130  0.0829297802362955
  0.0837451776088522  0.3356330804924976  0.2487963189518973
  0.5800558325461503  0.1656907179737643  0.7490141646779023
  0.1653198857382395  0.5025830926629443  0.0004598304863290
  0.9154614962140131  0.5836610376167303  0.8366751233277080
  0.9955338266032712  0.4998407118836399  0.6669629168155387
  0.9134436127992167  0.5827253465843186  0.6639981314505226
  0.7482556825742933  0.4158901356363159  0.8334908366959656
  0.6644170817421442  0.4166094099013561  0.9193423711947033
  0.7480053305328836  0.5832734384656751  0.8348518035846708
  0.7506024484278664  0.4190713754676378  0.4971896508696890
  0.7486742962731519  0.5854138127125733  0.3313866067459780
  0.7487082285505675  0.5001565154210723  0.2510982756245081
  0.7478600776165032  0.5835384711915020  0.0020520398900878
  0.5823235143148920  0.4981867470069515  0.9161868423242080
  0.1641122747786826  0.4151380452750186  0.4155981842383501
  0.0818915951753480  0.3353939328556087  0.4161487701372383
  0.2486830257887174  0.9997475125670280  0.7512493036732170
  0.9135654145741908  0.8325668789624379  0.7500432443433831
  0.2505857004015997  0.3341875415988060  0.2491429184366320
  0.1660486223864222  0.1680367865915469  0.3322401707648276
  0.9982009807920960  0.5834819256607220  0.0838921211658306
  0.0793262646887346  0.4144420736781897  0.8332791657345497
  0.9978392362385680  0.3333315629829391  0.8324097710387414
  0.9978948987793103  0.4155203993028074  0.4164376936004254
  0.0789361690410216  0.4162789344887503  0.0003740424345825
  0.1670863792953464  0.3295099938265264  0.8331178073997061
  0.0017701026615402  0.2481725867206880  0.9156600478386441
  0.9978499521621597  0.4162568296013872  0.5844721279181684
  0.9971986510181728  0.2505271798645477  0.7502357270241377
  0.2496357513761774  0.1675484937098493  0.0833918720530193
  0.1656236393180982  0.9172191174892095  0.5846923593714130
  0.1650002096304969  0.0840723726395175  0.2512031917264682
  0.1640791586540628  0.8332076738285030  0.1658960326977586
  0.6657002792344500  0.9997576089083562  0.0006858750243143
  0.2481827919769072  0.2508621344110682  0.1668678497853831
  0.5815567222944554  0.9173261288616417  0.6682911105402609
  0.0815399665668489  0.4181088141505862  0.1669035803054701
  0.6645148164745558  0.6623281732546081  0.1667951919783878
  0.9990201865686450  0.3332354619084691  0.0017886491385389
  0.3307864864825956  0.2520189311595840  0.0844663023201364
  0.0802852066763571  0.4135588869363152  0.6670352084760400
  0.0000170122698800  0.8325049162538501  0.3356763566099134
  0.2495750950453163  0.3336618657265364  0.5832349012645165
  0.1651715185591350  0.2488553344832259  0.4155977466706900
  0.3322621809577997  0.9998536302582243  0.8340640579335433
  0.0827985789809176  0.8340250075199594  0.5831343394544553
  0.0814426338485335  0.1674772100998140  0.9164877646676213
  0.9992753212845263  0.6669277041480371  0.3337735273058455
  0.9153213874970855  0.6677155275316844  0.2523112526648708
  0.9991118353229141  0.9173439849837702  0.4173007251027594
  0.0827712496015173  0.9170699618111391  0.9989675314240555
  0.0812706638123652  0.6684135788989395  0.0830653177288382
  0.9139093772835499  0.6701860750578376  0.7515125041716532
  0.0864486641631282  0.6679733729494356  0.5829076543857571
  0.0821185243439720  0.7518121852343401  0.5009807710795748
  0.0828013456115607  0.1651720702822803  0.2502906770862768
  0.1661226895796236  0.5802841081451403  0.7499454929312604
  0.0817388100365295  0.9994952649650211  0.5838727738086564
  0.1666155775542902  0.0005057271427625  0.8327204295783260
  0.0811068512134016  0.0008113169588370  0.9141697440101946
  0.0829278315843013  0.0841664059557942  0.6670619848065080
  0.9980731243713132  0.0000313197786219  0.8333283146682074
  0.9984504350825645  0.1653586746001663  0.6648030684942341
  0.0818280664634235  0.0000921245623860  0.7483409135123095
  0.1652597350271520  0.2512216844171278  0.9159908273322150
  0.0817350172354091  0.9167207955438553  0.6665810945306806
  0.9158021434563329  0.0824861407423770  0.4991120549707764
  0.0843687450476878  0.1670291586705466  0.4153983910763918
  0.1680008917969420  0.9151357073347809  0.2501160855627361
  0.2504932922116334  0.1665548953458058  0.5833196802594387
  0.2508449428081884  0.1671533488703394  0.7503125372739601
  0.9989231893579692  0.5819445079545698  0.5020870926060227
  0.6658164036362048  0.7491716210368843  0.1678576340646872
  0.1662127541655410  0.5001000612136106  0.5792982378388940
  0.5797533185437973  0.3298049325331791  0.6670930340595306
  0.1645205221889142  0.6671593273425289  0.7509264806308027
  0.4968037422257729  0.9160211024867475  0.1685074253413219
  0.5815175262072295  0.2499049834220907  0.0840866451370839
  0.9985518816421017  0.6674338413000559  0.5827958212154963
  0.9136239966850397  0.5837099388599548  0.7498655271015993
  0.6676109319456554  0.9186682923905169  0.4994133530798995
  0.7466248636139506  0.4986439543217686  0.6666735287168697
  0.1683146962162695  0.4134356369754574  0.0001265823796910
  0.7438923532885241  0.8333961534212241  0.5000608183902596
  0.4969332385715611  0.1658687763598264  0.5827056131437132
  0.8309916421726310  0.3341723490622952  0.9194311159886186
  0.8291231108485962  0.9163909190183386  0.9995936795795416
  0.9932892769767890  0.3334499232669852  0.2487659077349982
  0.4978686054323750  0.1661464360283758  0.0837077158630235
  0.6674144144969545  0.8326759605520707  0.0815210228417706
  0.4148685703147060  0.3341746784178740  0.5002095869422050
  0.5842119354174166  0.0003402120029586  0.8323829670182394
  0.5817054919328217  0.5054579318778808  0.6696373867623199
  0.6660944394885322  0.3337846238595757  0.5813568857474841
  0.9123453316606319  0.2488609379904873  0.9194395024676355
  0.0820645071990199  0.4997478002638409  0.6657458446303453
  0.7516160034006835  0.8317426441723135  0.3333880487068713
  0.7432367788841777  0.6670143505514806  0.4993752725315938
  0.9153667445595521  0.9996366753127494  0.0012052957656665
  0.7474701650885260  0.9126851133514756  0.5842171139268095
  0.0034322369863397  0.2504930283952311  0.5005483756248008
  0.4986377692956551  0.4210283196372659  0.4995274962153942
  0.0798682563562613  0.9164034292818133  0.2532294267477039
  0.8299475915654038  0.1644745458074743  0.7498744413619868
  0.1670169597433481  0.4167808036441621  0.8338897875939780
  0.5003645113222102  0.0833136093274919  0.1699867940146077
  0.6637872319884819  0.9180631079472443  0.2503625503685926
  0.9976297187189940  0.4178080287608976  0.2494092370394196
  0.9986014823937174  0.3329422541253104  0.1657363300368917
  0.9980818808633884  0.4174445169728632  0.0842758849927001
  0.6642341940498726  0.8334801628333548  0.9987149773683290
  0.6649016260857669  0.9180517136853900  0.0842979929122164
  0.7481963496529934  0.8342908385154468  0.2491769504467536
  0.7478065084011331  0.0005367712186834  0.0857104549677346
  0.1651731401663272  0.2510540886623834  0.2491280046235957
  0.4127517952030827  0.9145054450911827  0.1663426572908423
  0.1658378300140576  0.7498774774862055  0.4171023479955512
  0.6657260019234335  0.6673877260008683  0.8348466451420571
  0.7475920393252995  0.8337085917692454  0.4160258420787848
  0.7464099423273652  0.9165411677731714  0.0012692503520751
  0.5793781504004130  0.7496359245212976  0.3326031849346959
  0.7502522759276902  0.8336870693593006  0.0851707943183902
  0.7480240194852154  0.7502082399713629  0.6675153318293827
  0.7498132389669738  0.3335114035279301  0.5805036330920869
  0.5811978371600471  0.8333203454490675  0.7499533911119186
  0.6650731240702612  0.5025379385475931  0.6687965916897182
  0.7482024370261332  0.7499225140050128  0.0003789275207519
  0.7492438784052676  0.5003033454192730  0.7515836492927713
  0.6641798505177275  0.7496535607819805  0.2515021594027707
  0.6652805121795712  0.5004876456748422  0.8337023447024943
  0.7495284018197484  0.7502082847592234  0.1677421845252054
  0.7471983782394690  0.3321208577822450  0.4153010202704531
  0.6622964635004607  0.7504423289860054  0.4158600921448876
  0.2486269941315811  0.7494717570718012  0.5012500426076147
  0.7479342660897326  0.7494632459968010  0.3330083235019760
  0.7493554665202431  0.5011004737783342  0.0845161077435687
  0.6627301642504734  0.7497551449884466  0.5839608558782470
  0.6650176937408688  0.3338878923921162  0.4971865546326045
  0.2481796023359919  0.6664622302648913  0.4168641494295783
  0.8313857525396612  0.4162966667327734  0.7496494358811761
  0.7481554801455710  0.5004701272344717  0.5820786806414295
  0.9157294531891148  0.0004156597105772  0.9160771811195619
  0.9159922551792621  0.9995378381590694  0.0852893100082865
  0.0818298990797879  0.0837925929247957  0.8321350130548401
  0.7475152651254405  0.9172231289553513  0.1684221117798848
  0.8324534983626821  0.0830953433806689  0.2510473079437158
  0.6618712352320129  0.9173791551972399  0.5847584309955528
  0.7472806062593510  0.8313131514364923  0.5845581006160407
  0.9149453128305713  0.0004156701516197  0.4163837325204822
  0.0828360631755572  0.2495923362791125  0.6660272766370332
  0.0816481693223573  0.1677229263440464  0.7495859080037863
  0.8314113539480491  0.0832200250798444  0.5811477508248394
  0.1655034676443466  0.7500528866866885  0.2496257292983871
  0.9997766716440923  0.0000049046405981  0.4996111358882005
  0.8318818850772507  0.0007519987488742  0.6650851511674530
  0.9151221495924086  0.9169499659804050  0.6657996376086188
  0.9154210127414673  0.0003403306933737  0.7497440429160961
  0.8321258809639095  0.0818146170287375  0.7499250902739140
  0.9145649950805524  0.9161442617001454  0.8331536122308424
  0.8316139156250167  0.0821013108842404  0.9186229217076406
  0.6640699823807396  0.6667037835069332  0.3332129618659851
  0.7469293378917536  0.6673694611156864  0.4149322709633353
  0.5806586418690725  0.6673405597991742  0.5833570023853143
  0.7481933901094340  0.6672417789671885  0.5836405235193265
  0.6653142936461446  0.6666593666061106  0.6662832266883967
  0.1655181829046005  0.4172795578332391  0.2487636769317946
  0.7474380331542173  0.9180602284178205  0.3324150501114136
  0.6644999506724685  0.6663424329937679  0.0000635681008807
  0.9148026731326435  0.1647483733495088  0.9175282469997268
  0.8304721549625994  0.1658837674834096  0.0017398954134201
  0.8311816359432296  0.0829218887480174  0.4154445267581858
  0.6601061818967106  0.8322756688169708  0.5002642174302885
  0.2484834602918843  0.7490335704532910  0.1667946611399652
  0.0001842864218500  0.1668132208127057  0.0010837323634561
  0.2480277020670764  0.6661893491125044  0.2505567920604144
  0.7477586410354786  0.9162126027193120  0.8325505533265809
  0.8304682575347614  0.0012455899695867  0.0015633578269988
  0.8323947001216557  0.0834018390399914  0.0846195819419049
  0.8323201424643921  0.1654303126430550  0.1681981218504134
  0.2495266994723184  0.1675703226097633  0.2493097336286426
  0.2492670899169288  0.1674562593189176  0.9165007042517114
  0.7478968887706114  0.4998872983950616  0.9176219022948965
  0.6655236687849718  0.3339937526167355  0.1670056947924886
  0.6651153378278060  0.4179307481064727  0.2496624053259510
  0.7479546106738650  0.3335515013352836  0.2513078457503429
  0.7492610817032135  0.4175008070649935  0.1671209088386529
  0.0816316305516158  0.5010839219843475  0.0833425058847508
  0.9980189197133301  0.4156067278161303  0.9172535797564624
  0.6626544077689472  0.1643096951786238  0.4987975034965448
  0.0803332752567373  0.6664678912531253  0.9163869748953266
  0.6637954909970338  0.7483961766189239  0.0835539854260281
  0.8318911920829398  0.0002295713488921  0.3333805462404605
  0.9158137906259576  0.9992832787274887  0.2508506366137169
  0.7501559174021732  0.9181277427071288  0.4988445412420932
  0.6639222580011156  0.8337236883840115  0.6677436583913542
  0.7483384192583733  0.9174803811194158  0.6679969730288535
  0.0811704196825279  0.3341791914319600  0.0840089220696424
  0.7477022229888867  0.8341624986289885  0.7497659668541610
  0.7487682516528866  0.6662773124499536  0.0838287600537457
  0.9983143189206913  0.3328404591480428  0.3340348686034275
  0.7489904201377688  0.6671855028747791  0.2500135209985801
  0.1667768218734967  0.1667966546478433  0.6660594394247475
  0.2478004795452050  0.2500553953615181  0.4997075683131311
  0.2486364630186751  0.5000375928303136  0.4157915309328757
  0.1667048309644161  0.2495409209641447  0.7491943046347508
  0.0819638974501460  0.5834965704450400  0.3336701389904597
  0.1649807040623940  0.5839414566188291  0.2497843850513715
  0.2477995096976391  0.5011020189425188  0.2500780599873693
  0.0821163029778715  0.6669383911203338  0.2503393929611296
  0.2486683169459708  0.0840514800014228  0.6673084723973757
  0.2497959226780855  0.2499217215500246  0.6666271897603547
  0.2483162784250093  0.4177035781164021  0.1655669578385456
  0.1631506224745201  0.5852768729771367  0.0830956650047502
  0.8307369141591169  0.8334598156161112  0.8326711758857438
  0.0823105457731602  0.9996549567912413  0.0827831311757907
  0.0826146624198890  0.2512215687238602  0.8318224307611315
  0.0824393634000383  0.2496949375858852  0.0008193781281166
  0.7485280532901988  0.3334230021846686  0.0848972776257486
  0.9974031293605550  0.7513815613944095  0.5837017633444425
  0.7482421028032422  0.6673646168168802  0.7509577274180791
  0.6650614959010358  0.5833699874314313  0.9175374753754845
  0.9982567753974207  0.3342571447416949  0.4992833077667210
  0.8315094234372956  0.3329598912697177  0.1675335453371104
  0.1668268992850679  0.6670744895815600  0.4999322589454853
  0.2493069003133555  0.7509017455484134  0.6679215060802020
  0.7473598050333007  0.1650895435913314  0.7508274928261395
  0.9985025391241350  0.5002765205168275  0.0002552707341156
  0.6641181976539914  0.1658303854298049  0.8346547660471331
  0.6645793631296600  0.2494445456875346  0.9175722321868500
  0.9970937158063115  0.3319290824681089  0.6659900621493826
  0.8315609491072679  0.9995593041816507  0.8336123237541476
  0.0824175915232846  0.3318797352900300  0.7490161635901266
  0.7478875384530821  0.2497228532901262  0.8343267843210113
  0.9137371758506677  0.4992528618151079  0.5814752380773768
  0.0815546347356812  0.3323917584959405  0.9166864964027104
  0.2502117132827689  0.6672402229463028  0.7511370735654228
  0.6648648565544669  0.3333172895597166  0.8338181006345325
  0.5832374900881711  0.4165795600075094  0.8324736629559208
  0.7464200157914566  0.3330822111805866  0.9185676074130168
  0.1669531941934091  0.5854090510823018  0.5834717131651415
  0.0819617299927254  0.4160314122364165  0.4998292288168537
  0.5818201837736839  0.5835604296613455  0.0001734628307668
  0.0822089812203371  0.3330830132556371  0.5835950139282000
  0.6644563658535910  0.3340199740760234  0.3322463070588171
  0.6657538009930896  0.4173329474623151  0.4150305029962553
  0.7491282455161401  0.5836961821350207  0.1673750200536361
  0.6644849525627196  0.5003203368209216  0.3332707387579530
  0.6611326515244685  0.6671723505561781  0.4996555426032860
  0.7474031497414624  0.5016631106681667  0.4132704600996502
  0.5818690389179951  0.5005956435257869  0.2499951626693194
  0.6661155686161669  0.5005449374711806  0.4978738127847397
  0.6645931489003780  0.5837055789657652  0.5820883727562953
  0.1662059158162363  0.6681128385163002  0.6665548619713089
  0.7477513712546616  0.5823580469983928  0.4983305446158571
  0.1658184367101465  0.4157862476454318  0.7486217459981013
  0.9150526652224391  0.9177746027571269  0.4995363133858138
  0.9146556550005135  0.3321934389958968  0.4155660601319528
  0.9991986309520878  0.2481237579225327  0.2498150637918717
  0.8308660853823699  0.3322306227207166  0.4973786230430867
  0.8311225702083350  0.4168845352996679  0.5814133612132382
  0.9127259980515183  0.3325951449983237  0.5822485050713736
  0.4138389064381594  0.4185540603445265  0.5004102899499626
  0.1671354406206101  0.0000270670644151  0.5006027633427778
  0.9142583222364027  0.8330375754115553  0.9161217115451119
  0.1664396898514509  0.8334310805279666  0.5004902623408352
  0.0819679451731185  0.7509510362285150  0.6659263500845302
  0.5831773767017119  0.4181169479443968  0.4995351999832755
  0.7483842965159695  0.0000421076458164  0.7496284004027691
  0.9970365982906225  0.9164349593870368  0.7501116149502389
  0.4136111891813484  0.7490134378108725  0.1673522080135670
  0.3304434989442560  0.6670945567637360  0.3339698487528258
  0.1650154734855736  0.8332305266684100  0.8340400249140562
  0.4145797211126975  0.6666753757954518  0.4169133542495615
  0.4141381354925494  0.7496846076287151  0.3332527563337860
  0.3313592430173241  0.7496067306087736  0.2501561703036551
  0.3311608576515608  0.6671255830573614  0.4999557895033220
  0.3323555706131839  0.7495184397420891  0.5837442323621364
  0.4147290756982173  0.7493306695466583  0.5001493972241471
  0.3319808415568543  0.6672069315211472  0.6676473293003977
  0.2495562872009542  0.8334920618277897  0.7510934804573846
  0.9982620590335609  0.9169041929422189  0.5822945925257833
  0.4148315512433084  0.7502575061600295  0.6680074582562315
  0.0810186363336135  0.8337583026449479  0.7500078592859045
  0.3311099237361954  0.4997788709969457  0.3339452400591609
  0.2476337544743722  0.5831911161898526  0.3344892466462854
  0.0824946329403631  0.0005886913581304  0.2514171001192887
  0.9160527009475016  0.9166986277463172  0.3342406440758648
  0.8337678193525165  0.8351688265515897  0.3333329647237979
  0.8314226145819369  0.0009663674810270  0.4984803543404655
  0.8325516036688162  0.7506518850147326  0.4170341278076553
  0.0825443147992649  0.0827532513832436  0.1671062455791468
  0.7482600985593872  0.7503378310156723  0.4993099790131407
  0.8332554913416708  0.9179356116958634  0.5826537571269398
  0.2504451970378668  0.4988263493303067  0.7506925197595229
  0.4964808135870665  0.8313698955786205  0.1663413388613567
  0.7480793683142835  0.0834106467584036  0.6662996437887471
  0.5789906409130945  0.0820677822945273  0.5006354828930483
  0.5798256105209416  0.9990682119192981  0.5831671764201953
  0.5810106547170175  0.1660319118993707  0.5830730726036805