Cr  H Ni 
 1.0000000000000000
    21.1200000000000010    0.0000000000000000    0.0000000000000000
     0.0000000000000000   21.1200000000000010    0.0000000000000000
     0.0000000000000000    0.0000000000000000   21.1200000000000010
 Cr  H   Ni 
 259  35 605
Direct
  0.9959287173499428  0.1666277112463332  0.8302930838978815
  0.7452234727547672  0.7486561594959652  0.8338757500048183
  0.4133084258223595  0.5037840684262348  0.9166452339964265
  0.6600848810217922  0.6669823833623938  0.6667811839453986
  0.6609119835433140  0.7495950119776800  0.5837475304130054
  0.4967171875667939  0.9147215405710638  0.5833675194761072
  0.5788083330332729  0.1655642674041216  0.0835925737860171
  0.4946420428778844  0.9172902533335986  0.4180058086504818
  0.4132552588316680  0.0826351505869911  0.0000094613766776
  0.7438046596492490  0.0836109978065142  0.6689898602896842
  0.2449730020258031  0.5005068941524631  0.0836449854235561
  0.5785896148910046  0.1674624176242121  0.7490234404091156
  0.6630497926937106  0.3336197269323237  0.0021144482494095
  0.5789496287177617  0.6686846557985447  0.0843070967575964
  0.8283416224610767  0.6655159808596172  0.6653759816648144
  0.6614317361415585  0.5015300056158091  0.4980328043260627
  0.8304669842765530  0.5007606514578190  0.3324182676993357
  0.6625104339072341  0.0830777368403220  0.0841443657208852
  0.4970449151150821  0.9146175718222275  0.7494895137656233
  0.7462601592114855  0.8314783899735541  0.7493698114026230
  0.9947139861637546  0.6680473499555405  0.8340770550966338
  0.2467088525211074  0.3327846483910347  0.4159203784083195
  0.1662170445781144  0.0784808834505992  0.0837673048313196
  0.0788901629172430  0.3339530575519133  0.2501574486739253
  0.6622599451637622  0.0852303385631485  0.7496462271390379
  0.2450744566969829  0.5837548987945763  0.0005000496433276
  0.9112545691399248  0.5024857372272414  0.9173435738276421
  0.9087995385232658  0.5008508213159868  0.7494136521957551
  0.9105808148571944  0.5826035624993113  0.6665870564721177
  0.9089115986772739  0.6650367789101586  0.5845303932429278
  0.7442410306433526  0.0009644899561915  0.9165754836672914
  0.1595788273931133  0.3329825763825658  0.6659810990356148
  0.9098981143359405  0.8335314593106725  0.4186436232140345
  0.8274111574115519  0.1666202476376345  0.0020356026955953
  0.5784542806647057  0.2498384354858957  0.3340014901550121
  0.7452792723310937  0.9999221156810352  0.2517367177037824
  0.7469962654371549  0.0020835520328348  0.7491466498110647
  0.4980290215275082  0.9979647573367236  0.6674586367000500
  0.4956647902358293  0.9979536919621250  0.4984248055203814
  0.7436106528982243  0.2510689906087489  0.5006786984218343
  0.6624047732119965  0.0825154698198122  0.2517357363937058
  0.5777312215075409  0.1670877327395943  0.5821145682982735
  0.7447781109654988  0.3330874212562631  0.2505844991825668
  0.7452051281835796  0.0005447470438949  0.0839064309940395
  0.6617947671384201  0.2503334949042177  0.0845945806801668
  0.6641607362667149  0.9989257386602658  0.4997857413775201
  0.4975013216544200  0.7498320504374508  0.9186872997836819
  0.5786723604110537  0.4171802179693695  0.6659877619839849
  0.8245497927203945  0.4163072303795898  0.9170084511164512
  0.7448251118282704  0.8325755560613334  0.2507248411732333
  0.6628175416722738  0.8343350411170530  0.0006339879413619
  0.9964346967348583  0.0811405547230974  0.9161636526113489
  0.0781807751455587  0.9158571868633056  0.3332645105206791
  0.0760689853199878  0.0007223198172119  0.9152396770349471
  0.9114376758310302  0.7503443294959981  0.8341467066563347
  0.8286410576074886  0.8333112546898206  0.6647385838135718
  0.8269973293954942  0.3339347124168988  0.8330805778417781
  0.8251049244170248  0.9987734629101271  0.5010539078876128
  0.4976139404093574  0.3350766142500919  0.6675664686038060
  0.9941984510189333  0.8340982631017356  0.1659793556433274
  0.6610361743603964  0.4994913806039978  0.6677887345057284
  0.8271434324921889  0.6668400367497722  0.1656845439224762
  0.9944003950874721  0.5841735734250568  0.4178373097460739
  0.7442393541561035  0.2508256214880302  0.6660269490757794
  0.6623701546204900  0.0842339741562716  0.4159319637228149
  0.7458421275668793  0.4174141499749814  0.4988478411788109
  0.0789317686723751  0.9995506105701690  0.5831252384042054
  0.2489610823853799  0.1688430047391573  0.9169812855407552
  0.0764942539580428  0.6677103566132874  0.9156871125078951
  0.9962177558943588  0.9993350951120699  0.3337039137187840
  0.9108103464133377  0.9167460604378505  0.9998927121259898
  0.9950617489596848  0.7496907070841278  0.0832104107044081
  0.4143343848017428  0.1660932264238759  0.5842505747513839
  0.1607760079861927  0.3322808836398499  0.5015551324696351
  0.3291279002506086  0.9986319508238437  0.6672149999127795
  0.9095415107699597  0.8326113682623417  0.5847304641686704
  0.2455495689228345  0.9985544033852424  0.9165085426019253
  0.9943460408677993  0.7527163739513292  0.2449827258535785
  0.5775337476996745  0.6689710701325221  0.9191550700969788
  0.9117630741243277  0.8322985545061589  0.2490064902481824
  0.0799706925883147  0.1662513998296335  0.2549999242420982
  0.9953301894538541  0.0001576423912531  0.5014555440796368
  0.2469196859559177  0.1661038997246893  0.5845505813323644
  0.2429564329787856  0.7480324447827628  0.1645631320865192
  0.9952036511773987  0.2493565692664954  0.4180403856303895
  0.9127127672306684  0.0824440627746596  0.5003013500441410
  0.1612625268774094  0.9152742571758413  0.7492908587913892
  0.1587912089014603  0.0824246920137228  0.7478507845705472
  0.0767965087531167  0.8335416922181519  0.9165919498172859
  0.9938180723746131  0.1675946713458991  0.6651878019939301
  0.9963807275013725  0.9995020745895667  0.8334430128291642
  0.0783813822448239  0.0829115933687751  0.5023217852286098
  0.8282584833927379  0.9160059626246551  0.9196617560226567
  0.2416652425819459  0.3346198589066133  0.9190321734030773
  0.0793324299935595  0.6655529520519664  0.5834535626449864
  0.8287276400329604  0.6666067317458618  0.8354206594228025
  0.1621864506653588  0.5006725537470785  0.3346485028665409
  0.2460876494159190  0.2514548405903179  0.3338864319364540
  0.6629335598927367  0.5809503503804839  0.4166623917372872
  0.8288357711624261  0.6665406591741839  0.3336181915717054
  0.7448650565447588  0.5851791735796438  0.0002828243813135
  0.7458819830501535  0.6692170408976557  0.9172942557221845
  0.6635407378873243  0.4167425820117859  0.7520309313834477
  0.3292821357968759  0.8310684586709498  0.6672963385564910
  0.8286507220274992  0.9185165381570193  0.5843038681656616
  0.3287673569471611  0.4177307989533120  0.2497686144673965
  0.1626471452147875  0.1664322138896115  0.3337137633819341
  0.9952087677041576  0.5837891296301854  0.0835030672763876
  0.0781509229790626  0.4994410212708336  0.9181547510532175
  0.1589017962036155  0.4165136211634448  0.9178929140804802
  0.3275270807352648  0.2461006567805091  0.9172117071019752
  0.1611027620788771  0.5026105159420249  0.6695207613495698
  0.9941750266906991  0.4170075276137283  0.4203093786812012
  0.1617046849868348  0.9985006822675215  0.3330574937020075
  0.2437759301980936  0.9163133201070395  0.3331178578035418
  0.2466508872476514  0.2508390830796005  0.1689597277890053
  0.9116723004541362  0.5846969774835318  0.3331349800160164
  0.7478869723811997  0.4168194292400004  0.8342903321843894
  0.9943084998359768  0.3288816551447559  0.0038585496094427
  0.2446756443343532  0.5014955918658106  0.9185286449611677
  0.1617524135308269  0.2535642204517810  0.9163429494029471
  0.0777966441277601  0.4180823867387711  0.4999801274622346
  0.9939271845692690  0.3338372974149969  0.8328276494392214
  0.6639891309699315  0.7524911026576107  0.2497337969608499
  0.2441838103445535  0.4195175626125575  0.9989487830943599
  0.6627407273316883  0.4173617017772898  0.9170433505743357
  0.1616262387998329  0.8348180687942690  0.3341516601719028
  0.7455985208644461  0.5867044776800305  0.8358936482984581
  0.0783680245305847  0.8337287831675703  0.2475952074072292
  0.5783871252980405  0.8341613478120942  0.7507029112626943
  0.9136695329430707  0.8320345360594201  0.7499503043524181
  0.1619173417582076  0.7527549473409122  0.7497769474155773
  0.2474200399277376  0.6666226959375779  0.5828014099381293
  0.0787485737367406  0.5840153389808237  0.5003965206672312
  0.5789115791124908  0.8323438630900493  0.5811101572608937
  0.4949835993250107  0.3338014301055869  0.4969183357378267
  0.6639793104677031  0.7499876065268760  0.4179605531766209
  0.0789578945830231  0.7498076806180756  0.6659418846981032
  0.2439514432050816  0.7505496826507236  0.3334206675428135
  0.1632229621680626  0.6671208393953638  0.1646482829366709
  0.1623697565833812  0.6688872618399689  0.3340316991278646
  0.2427755305871083  0.9162879969392514  0.9978383148283712
  0.3317644064454321  0.4210818181044728  0.7505050574090301
  0.2445809342489324  0.5009264034506899  0.4148122387261844
  0.0775681093792030  0.5822089787428905  0.6659690074725378
  0.3314090269064173  0.4227413876199048  0.5821367029901788
  0.1607669223518460  0.5003405167512052  0.1667296675665293
  0.2448170296317928  0.6667433469971630  0.9179017529928999
  0.5802158920327337  0.4989902299146985  0.0857239154315264
  0.4953249572137606  0.5847843941714707  0.2500025538586457
  0.9104294956962894  0.2518731547163906  0.0009879735399102
  0.4994550205708549  0.3335175384259489  0.9990909578660085
  0.4130837030101578  0.4999158378506243  0.0846484995215480
  0.4993702987113128  0.3336443380702380  0.8339112704923650
  0.3335582607297212  0.0810758401930131  0.7467966403572780
  0.4954176051677986  0.8333653302742347  0.3335668618317753
  0.5816596805369557  0.4996159400731869  0.7503756602166055
  0.4132763631747703  0.6695291470087451  0.0853433285327787
  0.4134414516938111  0.5018639970204452  0.4156672011614680
  0.4132480223634791  0.9151137981970839  0.1672608890585996
  0.5807064296541380  0.5015736392502173  0.4153797139738898
  0.3297116919899672  0.5851738098466295  0.5829622612214715
  0.7463535379829236  0.4173528447303198  0.3319607726855495
  0.5799644440624269  0.6684334822362064  0.5833091789661961
  0.3300757178193430  0.5843617072972481  0.7517988972527979
  0.2470132349964409  0.7494833154512632  0.4994574304431563
  0.4931469516157743  0.6670279061964749  0.3319955788084275
  0.3289511968278385  0.5803747134963432  0.2495492488774629
  0.6648041530850398  0.3346758702838783  0.4989099561206139
  0.5778939874843825  0.2484873781570862  0.1661779495991902
  0.5797375383145581  0.0833407261245889  0.3355016697795677
  0.4132166788199357  0.2516169211258042  0.1676930044050835
  0.4148486994418809  0.0824398958096555  0.8321864529717717
  0.4124921275560020  0.7504882984478211  0.6677184895912732
  0.4117710818645747  0.9995416538451661  0.4159859726646981
  0.4955589847030477  0.9155013469630299  0.9174799645297285
  0.3297045829906505  0.0825163915348368  0.2506166849055038
  0.4971024051191109  0.1661328134798393  0.6655864940967076
  0.3292763600809367  0.8326304695999242  0.8345652456800264
  0.5781791504090401  0.4174740761108626  0.3329992996089344
  0.6636652124278168  0.5835145789467852  0.2484834645433093
  0.5808247594462693  0.4993276444004752  0.9175677882567891
  0.6621222581334645  0.3352548942967372  0.6660644901286031
  0.9123069367878003  0.0822298379313996  0.1674463298631637
  0.6638430209273224  0.0820938677671071  0.9155677608464882
  0.9955615726925254  0.0006865740253476  0.6665859686731100
  0.9138333253188485  0.0010311322616648  0.7493276788047352
  0.1596142439909944  0.2502101395869327  0.7474335759205019
  0.5800359207235142  0.9165221437369870  0.1665410753245018
  0.8302340575991392  0.5015020269246098  0.6668781151833938
  0.0780526140736118  0.3348692327027717  0.5818012324147773
  0.9120587584488183  0.4161919658817606  0.5003955319322541
  0.9113702446943098  0.3332089860185238  0.2501325392147840
  0.1640170433488316  0.5005361063637246  0.8346014610918012
  0.7452124272626786  0.7496325857802228  0.4992013517108468
  0.4120303763793028  0.7499731332798383  0.8339006778339859
  0.4961350629811063  0.1659818373184489  0.1674826970445033
  0.4968369970963024  0.6661744424365073  0.0006478302556211
  0.4130236000425471  0.7502876316202093  0.4990183613734032
  0.4963374688837476  0.1662918795710773  0.5005761978067330
  0.5824883477900662  0.1655368637873540  0.9185527528082307
  0.5794181858641413  0.0825960040576807  0.0011532965318934
  0.5785069588983928  0.6667037024808329  0.7494087124011518
  0.7454557352904382  0.5852513462485102  0.1655852133009203
  0.9938581057502968  0.2513271642719684  0.0844937837224146
  0.0765289102296435  0.1663641737994278  0.9160656760346432
  0.8261134933272867  0.1684924877618719  0.8327787737810083
  0.9097863492510915  0.1676737999682941  0.5829234788587438
  0.9898765970638495  0.0827659916214972  0.0844960225555525
  0.9131038256435940  0.2494013700077703  0.3337125378516594
  0.9113425127559380  0.2497976599224244  0.4995584864085802
  0.8283229511408602  0.1668015407826321  0.1680653336945755
  0.9934100001957087  0.8315269550913417  0.8325048682808657
  0.7451346742809839  0.0835247768796415  0.8320657392453795
  0.9947875991428862  0.8318720480949946  0.5041086268942148
  0.7458988799034351  0.9163931377893871  0.4995399506274543
  0.9106256697860399  0.0835429568848083  0.3335165171199416
  0.8259843336938301  0.9170688396732078  0.0836733403565102
  0.5733828944826714  0.9967970896379804  0.7491105181126588
  0.8287877852112523  0.1667074377315160  0.3340211016720991
  0.8279771348966981  0.4176792983904209  0.0853052707925210
  0.4135903093162853  0.5048712563409478  0.5834763725382759
  0.7465251028927781  0.4166722229237252  0.1667785843725039
  0.4961287125959745  0.5844154736030209  0.5829914865526805
  0.9106440801924021  0.5025354711305884  0.2506562073586357
  0.4949689971047531  0.3339768693446591  0.1686926056581457
  0.9127131847115871  0.7509761970417556  0.0021705800422811
  0.1628108919711435  0.2543860288360078  0.0862241884051516
  0.4120938851366184  0.5009145526643367  0.7500721971082343
  0.2447428863724436  0.6671110212515577  0.0842566210265648
  0.3295286290084793  0.9992463899599254  0.5007996278560981
  0.3285924476481011  0.0804808642332387  0.4168625782158945
  0.2444261707135883  0.4208850102528340  0.8338634931426876
  0.2464328764997650  0.9175941112606125  0.5013260219356998
  0.0760572599058799  0.5008916295663537  0.5840271093115382
  0.3304669602772334  0.2463975665971146  0.5820457079244593
  0.2473227113572081  0.5850596856039157  0.4996044977768406
  0.5787478461872617  0.0003525270521532  0.0838273621242295
  0.4131715603559222  0.7494890494607347  0.1649124789578496
  0.2461815410356191  0.8340693915921310  0.9172542059993944
  0.4126420843601184  0.3333901921693988  0.4156491187825408
  0.5779813441873641  0.4172753350355478  0.1658694921804820
  0.4957824508509659  0.3347444192952278  0.3333663129780688
  0.0772491795728861  0.4176223687896114  0.1681634492953280
  0.3282007531062466  0.2484892093115557  0.4174625059028111
  0.3312627303643071  0.2494246486868995  0.7490591895620418
  0.9905228759774605  0.0006972120125231  0.1658541919636043
  0.0796602696488685  0.9986417807759381  0.2540417823890135
  0.3282657098122276  0.9168222827685493  0.4179067739519508
  0.3283775054125260  0.7510428919414400  0.4164941497578835
  0.3276575787930739  0.8315592729249774  0.9988668027954917
  0.3287381467560719  0.2558416735934437  0.0870003347787768
  0.9944399647163950  0.7490399328263910  0.4210739661452008
  0.4134585257171381  0.1657237999820324  0.4164670221841077
  0.3305646233360340  0.0789307203455649  0.0842206783376630
  0.2453912584076038  0.9160379310356644  0.1653652260128602
  0.4948553068561070  0.1648784878887920  0.0031132048285120
  0.3290890602221643  0.3336835748650169  0.1665032674488020
  0.2457952543039343  0.0823164148762476  0.5017292214736676
  0.4096381825243275  0.3320408992942091  0.8322645068428667
  0.4144943039134953  0.4138664655670140  0.9173829049396663
  0.4185514867871862  0.4156739855024980  0.5817166315977328
  0.9071621499342792  0.0836117080637485  0.9161459306451977
  0.1627583711195965  0.1656131634639712  0.9163263774587449
  0.4936745669990223  0.1656695022516462  0.9137410189538568
  0.3292601784340187  0.1674696047338299  0.0842630199023433
  0.9951687498896530  0.7495289170352746  0.3328849102370191
  0.2439206219445453  0.3321782951794199  0.8307596083058484
  0.9960869174493835  0.4171262239207780  0.3303579848876823
  0.3315883599897944  0.9191317600104273  0.0003256362792060
  0.9130465885932882  0.4135979785218920  0.9163644379457466
  0.3257608458176267  0.0817472908661079  0.8357827279404475
  0.9975994058421515  0.8358603198077216  0.4162763844456554
  0.2420944190553871  0.4164883497017547  0.5825345296046565
  0.2498683255682866  0.3333201538734179  0.6665960355375632
  0.1634327517547010  0.6639322193794724  0.7514671773252745
  0.2463913334532890  0.0822497381477206  0.7500581116934002
  0.1639053839842026  0.5014971199412690  0.5810554492393444
  0.0752816144652027  0.4992972176941514  0.8300991676960409
  0.3307986986510082  0.3347084017205934  0.5826888571891902
  0.3299283786345439  0.3359369286191009  0.9171783402568328
  0.3287237479036008  0.6708441606488575  0.2506700575136814
  0.4952254946048464  0.0001084404761513  0.2506311126028333
  0.8284000783256902  0.9172024126769375  0.8294900547788198
  0.1625057670208091  0.1665661055057492  0.0840931353464970
  0.0779876329871664  0.5841883776730091  0.2502771461381076
  0.9906678352800098  0.1686750797722255  0.9180625820186921
  0.4091335789353326  0.3337447129356620  0.0013945253092454
  0.9946551427868374  0.4203101437127829  0.0024251574462645
  0.0785980921309061  0.1685758863522192  0.1651180662630752
  0.0778684854116011  0.0830270003203913  0.0827067484361489
  0.0807560875858485  0.9991924335345861  0.1649348195679730
  0.5828730468775333  0.6677824423668528  0.3328561885127836
  0.6608431998059582  0.9977601463219972  0.7491977833885046
  0.4134300899385245  0.9155893517682182  0.8333509124439126
  0.2454253501999195  0.0828280925790691  0.3334500871952761
  0.4132185416243100  0.0823861690712571  0.5012956002635288
  0.4122117804444139  0.9151487820737554  0.5011070261089613
  0.4100978430433518  0.9985270362598079  0.2502476714544390
  0.0777528868095405  0.9159541957064927  0.6666424665086342
  0.4143666012048098  0.0812523105456597  0.6660379655798293
  0.1610531755529582  0.0806920367288197  0.9163474372539187
  0.1620814416022562  0.3333265311229560  0.3348136157746235
  0.4130298666330361  0.9980999699894730  0.5835563241292342
  0.3295621287801670  0.9984652146397318  0.8329551152556213
  0.2456056417352946  0.1678195021913472  0.7485201476175559
  0.4139670535631504  0.1662855971845215  0.7485280611784694
  0.4133548204729273  0.9995384273287370  0.9162393002688841
  0.4113375259360842  0.0825502175476438  0.1675374270033987
  0.1614305382781987  0.9992654018828805  0.6667862274697510
  0.2445028880732485  0.9995792570635564  0.4166883222155366
  0.4132253951341562  0.5848800799539614  0.6675933216239115
  0.3297121422188107  0.3334929783314323  0.4977650739318564
  0.4139220893606835  0.6679267934546842  0.9177037846413872
  0.3290944849826503  0.9983779398906775  0.1671721899554601
  0.1602822547999842  0.5015637282029256  0.0006949555421707
  0.3288793289043747  0.1660863024745787  0.0005207194107675
  0.4122012130016321  0.5831699050323071  0.3322964873849873
  0.4128632671191067  0.9987482037419539  0.0842965988119890
  0.3302089851852374  0.5017504712505247  0.4981710433841124
  0.3294505785393407  0.2511892479451708  0.2507396833073969
  0.4965484506905239  0.5015250398739831  0.6676215384147640
  0.4143042842330955  0.9976896957729205  0.7495236839496474
  0.2468034537136555  0.4199786312129655  0.6682461682781251
  0.4121768587951806  0.2498153779534392  0.3344367101135954
  0.9940278325811175  0.9168245142141922  0.5841024984101960
  0.2445062140547243  0.3324383795198180  0.5820249675526837
  0.3303606293298137  0.5027962070877726  0.6672427327610949
  0.3293513135524737  0.5028640494146411  0.8346523729048012
  0.4128011417611983  0.4182679748098034  0.3338982651560060
  0.3274735372014010  0.7521572503584010  0.2485944248826435
  0.4124772692441145  0.5006168881530892  0.2497748177587982
  0.4133221974620932  0.2492590473271058  0.4996840299120837
  0.3288691606051817  0.1674378542670412  0.8317717873696278
  0.4124142254895585  0.2491030382466848  0.0012921325220285
  0.4107631670291834  0.1662860069987254  0.9167208949880039
  0.4132056547580713  0.2481382461913850  0.8319083174936391
  0.2454454615492399  0.9993893021747906  0.5844122363839983
  0.3292154542377738  0.4184365605561469  0.0837506721753392
  0.4143875203750266  0.3351021324143494  0.0848292335057446
  0.4986351204225413  0.4184042951679112  0.9174689916718176
  0.2467732855836057  0.0824743770654604  0.1682027786850189
  0.2456921050649231  0.4173803354962836  0.3338648052896032
  0.4136403711075975  0.1668700446369136  0.0850245592438865
  0.2460042786114030  0.9990613626461770  0.2500556479410887
  0.3298217479181942  0.3346084985122438  0.3333982480503366
  0.3294086473073340  0.0009309228493608  0.9997830447392386
  0.4131943639273460  0.4186193520858449  0.4970708742510594
  0.3275356435829159  0.9150777267279475  0.2489296935677578
  0.4956365006786775  0.9145099862150342  0.2501527042517817
  0.3290283351936841  0.9155379858891712  0.0848579124384602
  0.1620781048041337  0.9169901302844677  0.4182227161464164
  0.4114115749664894  0.8339891154386740  0.4166036476021389
  0.3284169258061259  0.8330072032520631  0.5002912952325330
  0.4119730304908898  0.8326436370840280  0.5834777840793547
  0.9947190706374160  0.8340401121685546  0.3314640281139937
  0.2459753131354355  0.2486158010889488  0.5000466580775313
  0.4971560284404473  0.1659884790174432  0.8311405106640817
  0.3267277027885893  0.4208010106576348  0.9173110682905641
  0.4146141213424639  0.3311044966736962  0.9168840263861078
  0.4135602467275184  0.4195763225462439  0.8330107795018220
  0.3294555429337786  0.5021051667339782  0.0009007942662863
  0.1622454217008470  0.9995313644532655  0.9989093244939580
  0.1612775288478568  0.9164502136267741  0.9154162871922140
  0.1614714002195916  0.8331585351469361  0.8338377632925580
  0.3293320411809538  0.5007682678432697  0.1664077282869949
  0.9945642966110146  0.9162084794590950  0.9160280854360708
  0.4124017206931117  0.6676437252590527  0.7506471421286067
  0.9122445109189232  0.0009294437941324  0.5837145237380045
  0.3297672427107804  0.9165506458767543  0.9150979456874345
  0.4123236926374458  0.8324682353067532  0.9168396562667893
  0.0774397370296057  0.9995835026363198  0.7488588965493663
  0.5792420866821699  0.9995471218240516  0.9178963656995880
  0.1626337562789801  0.8323639134195563  0.6668050863076760
  0.4958372679991549  0.9989405824162860  0.1667972192629394
  0.5786953310546242  0.8334975561359350  0.9177288300514548
  0.4962549681298917  0.0846117663206896  0.2510623642042835
  0.4121544495352787  0.1668703289524271  0.2507794110033598
  0.5802953606445069  0.9994763464053589  0.2509856407295196
  0.6629455196734024  0.9995828241770409  0.1679060298031383
  0.4122337875982112  0.0829665938604180  0.3337847676423102
  0.4957228941829243  0.0828088430444035  0.4174824454230617
  0.4961935687437409  0.5011714615642303  0.3325101703966862
  0.4965947141167790  0.6671009199168644  0.8342612053852411
  0.2455060318108873  0.8333793211017609  0.0826720832986851
  0.2451803603064010  0.9978747167518418  0.7491929636024760
  0.3294264872285673  0.6671647381412951  0.0011288019705744
  0.9099750591216557  0.7497149782971463  0.5016895266486450
  0.3285625553681359  0.8329463837592850  0.1657363051568179
  0.1623906629693987  0.9160085383319939  0.5836554087551482
  0.0790639532586313  0.8327127278085045  0.5841064725695495
  0.5799920300189548  0.4178419890809446  0.4988972008107463
  0.7446788784685117  0.9164931109488311  0.8326426430079384
  0.9951962022875196  0.9161713154869214  0.7494714765878480
  0.3284795729791863  0.6668308253834658  0.1650776835640895
  0.3282570384258033  0.6672021973353947  0.3343032835750129
  0.0780174812008816  0.9158724320530659  0.8326697637386540
  0.4121006366623720  0.6677771209248416  0.4155218851614140
  0.4120729351952045  0.7511250865797622  0.3334945512589967
  0.2447446257353293  0.8330769278544337  0.2491077071565044
  0.3305928963731555  0.6672561629316546  0.4987564333028639
  0.3299788500165205  0.7495578596518425  0.5824981538654505
  0.4948823448253378  0.7506958498957372  0.4158128522510807
  0.4144917294868071  0.4184762546302588  0.6678369382624049
  0.2461377237043675  0.8331400600033142  0.7504468265420592
  0.1612914681150253  0.7502436744896689  0.9169739085890148
  0.3284408877314441  0.1659803034057913  0.3339423346533686
  0.1615001171710370  0.0831552804193740  0.5839480827392262
  0.3302525325036227  0.1653578355198604  0.4999115095261012
  0.4969621701232076  0.2505954353426490  0.5827283007252638
  0.3306639208910164  0.1665621392501309  0.6669313751466930
  0.3301908470621764  0.0824664925592012  0.5842061616701438
  0.4142318199912662  0.2502609146042239  0.6664972453130318
  0.5797148259095202  0.9991620528310228  0.4172120185994902
  0.2448753667387829  0.8339319405478307  0.4175430070101031
  0.4112995049309845  0.8330737694978025  0.2498013141255997
  0.3287177394179451  0.9157634102473259  0.5841744122904824
  0.4131705760704191  0.5839013903290620  0.0016342994740855
  0.2462927755304716  0.7499503596455339  0.6672125803951450
  0.1606598288442220  0.5837751198625075  0.9175702608724510
  0.3292055238559340  0.9154996848601226  0.7496269326034831
  0.4964753099026129  0.7509558841619244  0.0834202145142207
  0.1627039503321233  0.7501030180404481  0.4178001749711441
  0.4126417074725699  0.9156122188471413  0.6666596577553736
  0.5793315221924722  0.5835371828565281  0.0013249689395741
  0.1617187763992552  0.1667878099327701  0.6665366741536916
  0.3281770652134470  0.7503896854322207  0.0831651639518965
  0.5796908505685447  0.7509547438059631  0.1669742208546060
  0.3289999456068034  0.7500786945372319  0.7510198722886670
  0.4133736444094339  0.7500765032997724  0.0004693309695043
  0.0808656803635438  0.8331355120439055  0.4184629642726526
  0.1649116038241352  0.9987590255587921  0.1672247887772512
  0.2447497191443881  0.9162458668765158  0.8333903600686303
  0.2446266432498321  0.7492943640581196  0.9991994330210174
  0.3320033754616799  0.3341331188433894  0.6676408265345095
  0.2469336643506854  0.5015750781000418  0.7504194263799434
  0.4134744213496779  0.3343750788916491  0.7489356513792773
  0.4955355726109212  0.9996394161244156  0.0003347764297401
  0.2459015825174742  0.3341244819378214  0.7486450482417513
  0.2466091294641292  0.1669116607251151  0.0848857060824522
  0.3294429378486116  0.0828403486834405  0.9182023784171179
  0.3279686100902963  0.9989238179989529  0.3334483330944688
  0.2455658994528774  0.9157741477471412  0.6675083930455772
  0.5799904444769090  0.2505192051877814  0.8339011238866277
  0.0784140878151877  0.3334975419439052  0.0856176963411624
  0.1614536996876606  0.6671509176422695  0.8360980710603686
  0.4956925093301466  0.8337063254327975  0.1672827762462871
  0.7446742749243954  0.1672153023640411  0.5828047429991197
  0.4967774946266204  0.0816685400985154  0.5828115100715052
  0.6613081349018700  0.1677372004113521  0.6658565652306579
  0.6622619678203132  0.5840204621086881  0.7507269537008735
  0.6627554843650416  0.5003489548509525  0.1670571498708342
  0.4958453129793305  0.9990137755501655  0.3353715375790322
  0.6615772588447664  0.9139012633631095  0.7499715798421069
  0.5791003846578773  0.0830033609897422  0.6656003398002065
  0.6632608430444208  0.9162823700807066  0.9170768488617346
  0.4965423492919765  0.0817455762912742  0.9169804003580865
  0.6623936943626186  0.8329679267545641  0.8335348451999458
  0.5795089259645617  0.0830838797450199  0.8329697009132516
  0.5801164998449206  0.0824933293312756  0.1671233443155457
  0.6622798373756834  0.2503537893733870  0.9179644456019255
  0.4961045551577539  0.2504034257450779  0.2509427519287508
  0.5796393459708629  0.2495351394142147  0.0007821638506697
  0.5783592742238262  0.3334784217955696  0.0841816925897208
  0.0776856448414214  0.9158605761104314  0.1671660220438897
  0.5790397076481186  0.1668596282381967  0.2509301578604961
  0.4959108734396930  0.2510435839180193  0.0835727459090742
  0.4962466233151992  0.1667126423189166  0.3338843890960680
  0.4959340560088930  0.2504860093518154  0.4167226033644624
  0.9103377731499839  0.9167108761324730  0.1665814110439004
  0.5789964674953658  0.1670888005041507  0.4173014109467962
  0.5791921781108057  0.0819426249879821  0.4995698475053725
  0.4154824566131756  0.3326315738759487  0.5827112823121736
  0.8279180315859662  0.0835937996773893  0.0849698071916116
  0.5790404496620464  0.3343979498496238  0.4159704795529214
  0.5800381972090720  0.3340352571606104  0.7504836700736888
  0.2466342923062925  0.8324549525719686  0.5835934482706892
  0.4971008629700175  0.0826144667659011  0.7492761823343508
  0.5785945078348791  0.2517982331621355  0.6659257332747031
  0.4973417005808823  0.2509580569107812  0.7493939413708404
  0.4974642266404402  0.2503056537720872  0.9173948478100726
  0.0776343432910736  0.6668740853953232  0.7492547675888093
  0.5797046709934764  0.5830266411632239  0.3321338389302776
  0.4128821029236270  0.5843123516620583  0.4988233890037106
  0.1621483086326879  0.5846740569007457  0.4167054856792591
  0.4965321301400664  0.4175454486476166  0.0832802236754908
  0.6622850896601354  0.4163410782455835  0.0841419953544474