 B Cr Fe 
 1.0000000000000000
    20.0899999999999999    0.0000000000000000    0.0000000000000000
     0.0000000000000000   20.0899999999999999    0.0000000000000000
     0.0000000000000000    0.0000000000000000   20.0899999999999999
 B   Cr  Fe 
  41 206 480
Direct
  0.7428681606891843  0.7805523974744277  0.9424388836347821
  0.0658296277161887  0.1426775352726775  0.0027037548633937
  0.8608419805473785  0.7260104376877824  0.1968996335072372
  0.7875149540896075  0.1307527997167383  0.3398182630011002
  0.9950373394847407  0.9834107576575009  0.9561284844612800
  0.0021735115540123  0.0485643631162220  0.1141532856177693
  0.1934082413252319  0.7413529952685075  0.1355820645792437
  0.7924050124158755  0.7247480836203433  0.1432294586399483
  0.8006031593853938  0.0880528237094690  0.0313644752139956
  0.0604554584285658  0.4550257547926715  0.1398319350848432
  0.7120463101209558  0.0017505065540555  0.9406664735575431
  0.8608039943276867  0.6435870203518178  0.0116166387543037
  0.0517740110133349  0.9953743424116511  0.8665907106642318
  0.7294281516099544  0.9342778523957590  0.9897768633206393
  0.1945553956333249  0.8816587512742335  0.9863035959254219
  0.0670232747623813  0.9328805174550746  0.4057396096990387
  0.0222086432635858  0.7044760382092889  0.3280435372308735
  0.9908509797155409  0.9959744613648459  0.8039491481670016
  0.7909246684437364  0.9953280285384473  0.2160547946269782
  0.9326960604793567  0.1306584848623437  0.9419358829980102
  0.7991108222975316  0.8557305266625086  0.2847919704417284
  0.1323291545489982  0.7822644458164595  0.0802694428633582
  0.8683167498272867  0.8944045715497728  0.0567258980600202
  0.0451288180771466  0.7362584328430731  0.1769206686272758
  0.9291287951031327  0.9974171389920653  0.2940412293381615
  0.0022417301309106  0.6362853750193910  0.9400073016564655
  0.9171615205144907  0.8817331022736303  0.1966373621871906
  0.8703963238590788  0.8607761328286737  0.3392124987068230
  0.1301036652504586  0.7516663269010597  0.2036200794978464
  0.9848988881917686  0.8509252333276476  0.8094590345494243
  0.0614902369986870  0.8741000065442640  0.3390034417123685
  0.0562888369008561  0.9787300864922979  0.0191508594087964
  0.9767954465679382  0.0621310784896204  0.2659282857540984
  0.7280851151814569  0.0697338882939174  0.3399353748340941
  0.9994585451559439  0.4538321203349295  0.1958592111211651
  0.8079920562102486  0.7888281141991665  0.8856108315186310
  0.7848956940558814  0.0755638151335701  0.4067744204240142
  0.0024259300556136  0.8773431097540727  0.1985614418579009
  0.9905517850258335  0.1346498076455243  0.8051338175909172
  0.8757646013475534  0.4999320934515651  0.0738429560771203
  0.1261653396900096  0.9326909402907996  0.3407949315990487
  0.7149920826531684  0.7129570848043724  0.5720866530448174
  0.0712770501563265  0.6520833414041398  0.2336757293425337
  0.7834888420698484  0.6401781163229541  0.5025304028604040
  0.7784353635729496  0.6383871682365099  0.3626087199362804
  0.7106618319016751  0.5690005119431802  0.2898240550462077
  0.0731159519351422  0.2150063933754722  0.2107444693482168
  0.8548480451436928  0.5715464994355263  0.4308579922675269
  0.7071693557987161  0.5662924477644113  0.9986072014992051
  0.0891997631583740  0.2300344267494273  0.0659535466937352
  0.8534523888288433  0.2884567871684965  0.8512257164021112
  0.9307621331803985  0.2178145837820984  0.7864332033388000
  0.0767903752575230  0.2216486716632666  0.3572347513331930
  0.0751346567812885  0.0742735344953023  0.6420914264685862
  0.6415008365954520  0.9289095440769471  0.9290454581860165
  0.4990401131519924  0.2161487064133744  0.5029823149678597
  0.1515770692631357  0.7043398820215457  0.0022928211415191
  0.1497427216509922  0.7098490869955267  0.4389330440114682
  0.3599571432318275  0.6422231749651349  0.9250310202894091
  0.1450959733983468  0.8588361359966280  0.7154922969566818
  0.4974747168793533  0.3590602844878802  0.5031768028689237
  0.1531888106813099  0.2997595109141751  0.0038156665229529
  0.5661091696059960  0.2899601802917476  0.2900932097501437
  0.2269310862242034  0.9294551871065020  0.2239224533871441
  0.4284206948964947  0.7136135192175328  0.5744183566590749
  0.4263845816277811  0.4291234420844830  0.4323434804594150
  0.7615869336744499  0.9074726536412198  0.0853513202046424
  0.7733165958909526  0.6407712304728520  0.0696436589871884
  0.9686103430285150  0.9804864986746996  0.1957795886182182
  0.0743131742567260  0.3582395567319329  0.6444532522900005
  0.5029674886831369  0.0742224422043298  0.9259172008982518
  0.0719781872620652  0.0650344773398800  0.2072454940702603
  0.4283832901437282  0.5690145750712592  0.7146837627518924
  0.5728094136165867  0.5718537486480341  0.7152282758890833
  0.6339560078909250  0.7787992889707162  0.2222813777111698
  0.7779417749169395  0.6437372055159664  0.2147753869442097
  0.7141985169966553  0.7123542431897190  0.7144215988962059
  0.2072638622104023  0.6547395665145777  0.2084619213877774
  0.6356219074580787  0.7797627092212724  0.9262447395662186
  0.6956890225037583  0.8349755679895556  0.1430368327543708
  0.0742007763030771  0.5024103122789266  0.3611517564317800
  0.6336948106637567  0.6357617624712083  0.0713952560987422
  0.6892605930257463  0.8421624304822766  0.0064901351786779
  0.5713159141515239  0.1444526605357455  0.8562300663271393
  0.1432356463667640  0.1422714029157894  0.7169838720563314
  0.0227207036313870  0.1608929293793687  0.8952219773193471
  0.5738387228013507  0.7140742899876599  0.5740296916927111
  0.5024273537007556  0.0753943840278920  0.7836213229318113
  0.7066613702772940  0.7073822306214541  0.2918436114542176
  0.4286538354105551  0.4285665566737783  0.7154274057886965
  0.1437705202999729  0.2887141010132475  0.2837008802883154
  0.6389456270364273  0.4995132917527546  0.3615944170741084
  0.2275515187166707  0.0695659918239452  0.0746962072778784
  0.2164183721505411  0.2134180509490621  0.7860710261775830
  0.0776726693486883  0.3612735859243169  0.9272714529071644
  0.8732169382716944  0.1505215921174948  0.2832159471352214
  0.0722789097674236  0.0699832114091802  0.7926625888953071
  0.9111106194681380  0.6235508922516020  0.1992125928046600
  0.3589415398789598  0.4992161773893734  0.6449192875700922
  0.4269144019917814  0.5707414197447482  0.2893289175057773
  0.5007327769463714  0.4989875431891813  0.7828587812344142
  0.7204298081043292  0.7133583643001444  0.8623684072809848
  0.0175958131209259  0.5612633261369829  0.1508212530631375
  0.2980771947659514  0.0021399209563981  0.9992874637867376
  0.8273347630479272  0.0297838044692354  0.3264539823625084
  0.2194768910679594  0.5013867549795852  0.9256747598501213
  0.8550887745504500  0.8545066946451586  0.7076110476822555
  0.2206237933945905  0.0768201641249354  0.2138311158132816
  0.2208986199358910  0.2170805653595192  0.9290206160826580
  0.7151987869988438  0.0010582648553642  0.4251837812017183
  0.0095180977435690  0.8740026570208321  0.9881100024576747
  0.0751784151483943  0.6420473951347079  0.7856729728784967
  0.1479615699562678  0.5670505404672210  0.4346727920107022
  0.0012222057191523  0.5699199639337977  0.7158841139217501
  0.2155954917299338  0.2166381273304509  0.3566837127918031
  0.0040871824819238  0.2993305223586359  0.9994220009872581
  0.8232802356426737  0.9827488079467135  0.0254279962018263
  0.2173016719079979  0.0741356169569584  0.7840673899669486
  0.9383634447798529  0.7744283463168243  0.3570166638612355
  0.9788093455149602  0.5460091768587163  0.9951383126364428
  0.2159936338284162  0.2154918050814576  0.5008526080039214
  0.8558090474332427  0.5688373047613894  0.7121618622372879
  0.1470966510864376  0.2939321190123096  0.1435533535040873
  0.7843954403126213  0.2166845066929274  0.6423183495019159
  0.2166710134589080  0.6402098461315717  0.5049794313353613
  0.1447974340843177  0.8614295127766776  0.4245640923010012
  0.2168268296647248  0.2181838799987736  0.2144129843465044
  0.6367299190810364  0.6370149801655459  0.2197863224494403
  0.1474395012472380  0.7117646738219191  0.3009326389088102
  0.7841317971670145  0.7826591005873966  0.5007888529622190
  0.1396509014531844  0.7274351040785898  0.8618796086213797
  0.9954914807971676  0.7038257666139464  0.8525786942620457
  0.5706580982064984  0.4299192080627280  0.4324263887658358
  0.7103080872290213  0.5683829482201560  0.8536460759118492
  0.7843633023119555  0.4990632219059877  0.3617773009102170
  0.8582945911921336  0.4265209176410599  0.7129636150002008
  0.9601829804581297  0.7076892375299130  0.2477131424543183
  0.1440164617158806  0.4270237121452334  0.7154978740367164
  0.7791928085618621  0.6288013687413030  0.9282437876095212
  0.6377150183982304  0.3560199265426118  0.0723290091831509
  0.1658817937239485  0.1431233695907386  0.0020774265693036
  0.1469110818946670  0.1484492812797383  0.4280132815768580
  0.3607141596043714  0.7830355567919891  0.2191721696005562
  0.9517582264877344  0.7824843155757102  0.1573865163869198
  0.0399633209414175  0.7363018960893771  0.9529397827293593
  0.0412665557553939  0.7934082274120812  0.2646692805772062
  0.6430514490213143  0.7816005626660142  0.5020001752473804
  0.0723584992933849  0.7839175465537823  0.7785083388492255
  0.8998840309376558  0.0807984652281076  0.0848054015849771
  0.2869422607730890  0.0024749616849259  0.4293602700545625
  0.2948815908275970  0.0021321326506542  0.1487232147562216
  0.4286685470030333  0.8571386506179884  0.4323869546622777
  0.2176001953516945  0.5019226955004730  0.3618603499668929
  0.2899522687365846  0.1452255395032636  0.1446683853275723
  0.1425996222776716  0.4274954879063976  0.5738282668686384
  0.3619723357327925  0.0749389765437028  0.7806788920253134
  0.5003021855955194  0.2177127631353131  0.0723893462741604
  0.1145590498241999  0.8894565525719305  0.0561458697638088
  0.1573945649369608  0.0008940206214286  0.8529367987249945
  0.4310073991816157  0.1429420167127289  0.8555803670455560
  0.2202543414782164  0.3610897163132436  0.0733177936410913
  0.7132906947810543  0.0007713813735550  0.7108855262653975
  0.2857159542453374  0.1471149855987100  0.4300394374924713
  0.3646967698111311  0.9332630433844051  0.9229876803315203
  0.4320780034141256  0.0023165985686112  0.7139216584469770
  0.2859339201681978  0.1433043851105207  0.7149580524014633
  0.2169673769913300  0.0734810015033606  0.6448125515199856
  0.2865986466695044  0.1462564345357830  0.2865471415271441
  0.9272716270368825  0.6352191799107337  0.7814332561116518
  0.2873988838234488  0.0035651807360514  0.7132061940263834
  0.0715139017515566  0.3701468443414874  0.2106854027146772
  0.1511786199994025  0.1438885557177828  0.8609924144614042
  0.7001823045542922  0.7020833734710507  0.9988857270105536
  0.7126635914868252  0.2843296227764091  0.7126284939677475
  0.6410908738081916  0.2147986267958754  0.7837012925742587
  0.5698788749689634  0.2860732319756463  0.0007209129720503
  0.5672863414378235  0.9974565411365459  0.2876013313929001
  0.7145160090906741  0.5701254191012903  0.5730326451565413
  0.0027567226865067  0.4281546532256136  0.8557416792859101
  0.6447113862247061  0.6425831836322589  0.7855016334386125
  0.7790180517547391  0.3597717277206350  0.2197712516420607
  0.0013710969174814  0.4332134631518048  0.2958061541604128
  0.1675383723693193  0.9919028767305544  0.0053806248895178
  0.2351531538882235  0.9281891631238420  0.0767310945047275
  0.5721399775187189  0.1453619744624466  0.7131322414349012
  0.5699036315195415  0.4264387759215328  0.7139244300929166
  0.5679882722010665  0.5686009446927933  0.1451429020140813
  0.9195350193359223  0.2153079773658700  0.0971597545020194
  0.9285654713654671  0.4993202166899653  0.6462452651946280
  0.5664116069716685  0.0002321923748032  0.1491602456769150
  0.2877963966111083  0.2844884845374031  0.8562836257870071
  0.2871345649425248  0.8583407067314783  0.5729503588843974
  0.2938972965755072  0.8585661677184777  0.8522592447511794
  0.2906727873614247  0.7153014379720283  0.8544682815351108
  0.9656850106986239  0.8778271924234168  0.1008170647261131
  0.6414997867818235  0.6367371135626155  0.9245063649517969
  0.0720469040427353  0.9232217407122632  0.7890587779453756
  0.8536087943188814  0.0059731880681308  0.4431480947961556
  0.6416477802394126  0.3562620041788943  0.6433544819788611
  0.0978026483023085  0.9275089744406398  0.9310197932241445
  0.3578194544599204  0.3595780515025398  0.2167323965330527
  0.7879769562148606  0.7829403617611738  0.3591943130217029
  0.8411672015820455  0.8264753101334884  0.1386753663734364
  0.7150810860963617  0.7124117286884993  0.4324308337772106
  0.2292065791977021  0.8012476972957160  0.0551558176745359
  0.7127426614335314  0.8516109375576668  0.4326287014696991
  0.6439527966017051  0.7821436132583010  0.6432617372278611
  0.5699138127982529  0.1443138654387374  0.5692634814430375
  0.9270418640715631  0.7969162447846546  0.9118377108326601
  0.0789288221231021  0.5041554239094226  0.0520561716716174
  0.7091178785939458  0.2920174601511276  0.2909835747824438
  0.5685242808434422  0.4270575417584314  0.8545836526559074
  0.7120892511398245  0.1458275192008553  0.4246246387051913
  0.4993287481041514  0.9276122518011293  0.2179740809035849
  0.3602798702462703  0.5005544375916002  0.7845430169164493
  0.2190123235806658  0.7830539897422318  0.3659615704132403
  0.5005652008445859  0.3574326393904511  0.7839269245125493
  0.4283056935797405  0.4286878034186851  0.5747911996915113
  0.5007191380135059  0.0726843017632962  0.2192626416458667
  0.4301490055618516  0.1437301566689603  0.7134472846420965
  0.8571073722102192  0.4304108810716755  0.4309953380139289
  0.4299291778751372  0.7118892245086585  0.9966445060897443
  0.9267410357139489  0.4995986712176343  0.5003445646252795
  0.7829147003730426  0.6404578905777389  0.6428056671095868
  0.0711617018736386  0.2095920827632036  0.7903134561576067
  0.6940746454239074  0.7053606750766892  0.1453779935542012
  0.0889702174428327  0.9236504413471400  0.2363396920872261
  0.4297412272805051  0.5701223259736820  0.8554846008762590
  0.1427329368083801  0.7127605807824815  0.7157977668469262
  0.1512585492098910  0.5665575043132998  0.8513999693053724
  0.3591040028193130  0.0759211439751574  0.2167671635537284
  0.0066084067660236  0.1592939978260971  0.2906601575830749
  0.9339845590380776  0.3668146126921094  0.2079283640725531
  0.9506736369455857  0.6961755026757411  0.0098265453977163
  0.5005596426416025  0.0723683106807884  0.5022872306597914
  0.2240446557983535  0.0708446413112775  0.9285142243239430
  0.0706224222033542  0.3693920339709872  0.0727090760066755
  0.1535279062630211  0.8406307690861474  0.2883427990258524
  0.4983728676126848  0.6394504814781123  0.9247159006594851
  0.1548744069488144  0.5734090751532396  0.9975867091609240
  0.5682723967645630  0.2885858138160075  0.1431776965867802
  0.0027776139654688  0.1463191220925893  0.5713771296700986
  0.0326912912679737  0.9851631489600627  0.3198568044962427
  0.1456378393858535  0.1479053524007559  0.2821014512601004
  0.8085346946697937  0.8558444114162512  0.9733279761336723
  0.7822619539477186  0.0750487376071529  0.5088459993449080
  0.2185712383338325  0.0786375302145421  0.3593798313589958
  0.2204532225961189  0.3582863037096687  0.9252248863552018
  0.0735662899781845  0.6400323219247342  0.6439461924471589
  0.2964856887594894  0.0073164171662289  0.8505916954831720
  0.4275747779074790  0.5711533012190410  0.1438226659548868
  0.4285297725868186  0.7126384441460850  0.4339086067940444
  0.2872523288894436  0.5700054512033308  0.5757818617419923
  0.9025269879524452  0.9173967869852075  0.9593363884220723
  0.0748477353693916  0.6385817204912905  0.5041214431787072
  0.4288442492078843  0.4289988051111491  0.9984843964236122
  0.2299262570227098  0.7789635917853854  0.2252509843425460
  0.3583796699333394  0.5016678265907522  0.0711469070020039
  0.2866678465278352  0.5742214712726285  0.1451017619263069
  0.3589513755895785  0.5003668325104946  0.9263457854364590
  0.4309857653457350  0.7136068285357970  0.7142535353740576
  0.0913253969639696  0.0600495014510088  0.9379953971788537
  0.3594037751655669  0.7840577175566124  0.3635626046104496
  0.1765057267713133  0.8557650763997662  0.1548877652442477
  0.2911219420164762  0.0061613759735638  0.2882369222183600
  0.2928929887088540  0.8551767791279907  0.2922003026787762
  0.3582543520975336  0.0747811123927349  0.3608842602083294
  0.3593052327646997  0.9302426999208186  0.3612093443818687
  0.3575342593056253  0.9301609405794442  0.5022483814916696
  0.5676443649170212  0.5681874023569816  0.9971262605739351
  0.2939483995670772  0.7194074290289677  0.1395452680014050
  0.4328012273417390  0.0039562033699707  0.8536443891924139
  0.2888830758875529  0.8579554648520616  0.7132283312784204
  0.1576376200398260  0.8576287958817332  0.8541559832623542
  0.6993021940979318  0.8514650993740935  0.2948541127744947
  0.2852265935117685  0.5748123858802103  0.2877348178411321
  0.5722011170595563  0.0006942114671699  0.5714138278380113
  0.7128117250934861  0.2887838655715446  0.4310358192479851
  0.4287515279417979  0.2856022267787091  0.5728241385263213
  0.5710163368630837  0.2858946342893848  0.7132454046867603
  0.4977233520941025  0.3599180330330894  0.3614852396024077
  0.2178260050907881  0.6409660744555016  0.3660242073116406
  0.2892231780634981  0.2892755966779353  0.1451507446085329
  0.3572055213738189  0.2166069215772073  0.3596523389675271
  0.4982960441784106  0.3588332899271439  0.2168040557021586
  0.2874086463275680  0.5712533424514697  0.7153455569329107
  0.6404393009689294  0.3557933515181957  0.7833970838932162
  0.4990777449909054  0.3568166115366565  0.6434120240262102
  0.2880142326542200  0.4282002920035348  0.5751170044439944
  0.2869044391779655  0.2850887689152342  0.7147311895685048
  0.3580343347491226  0.3562612618000698  0.6439352130327228
  0.2151631609849807  0.2146066046503285  0.6447894326618586
  0.3597250502437068  0.2144782641233272  0.7846436008426815
  0.2893163019950526  0.4290001982773668  0.8550898653013483
  0.3592463608890189  0.3573013056736909  0.9266991785912446
  0.4289800840872615  0.5711664688504828  0.9974581226271626
  0.3572909438235452  0.5022234471971655  0.2170407713134655
  0.2872642826025101  0.2881502867157621  0.2872838607988103
  0.4964226562020542  0.6389374525120330  0.2183855140121486
  0.5728380797891833  0.0008382241108545  0.7131798265740397
  0.4281590458728349  0.5699705214414548  0.4338618755506429
  0.3573651629758957  0.3577337132163116  0.5036477908551110
  0.2221334145827199  0.6457682307458061  0.0745778566673166
  0.7886740400774777  0.7860494956275650  0.7807339824671543
  0.9975975499690906  0.5721140860277495  0.2865488342668868
  0.6341854684608819  0.9198420591415233  0.2166366423335256
  0.9282064225276094  0.7817785297647540  0.6415002344763645
  0.2863600112860991  0.4291099947468323  0.4316492201421481
  0.1455692720802632  0.4296196648528988  0.4308683997442939
  0.4990484972080761  0.3577689157120976  0.0716309919571870
  0.4301722825947766  0.2860621117626736  0.8556219228246598
  0.4278785602845694  0.4293174230976233  0.1441748545250827
  0.5655670068801494  0.1481518165129786  0.1493264500355571
  0.8588589547833786  0.2866378274406954  0.0038637203438229
  0.4283770138650410  0.2881427831415243  0.1446379028407531
  0.5667936465891231  0.2894969220263569  0.4343248528873958
  0.7854607726634402  0.9185912824925960  0.3668886800078917
  0.4289996455753212  0.0019068620718211  0.4317022750306943
  0.4304232128318601  0.1462055906001107  0.1459239562977766
  0.1423727577415888  0.5706149585974970  0.1402517901560511
  0.7841340194417193  0.3560198780123879  0.9281430067903844
  0.2322277869320385  0.9355892762867395  0.9143362070223098
  0.6413457582960138  0.3582588778679944  0.5020709325926884
  0.0034849402305496  0.1496197627383466  0.4302939624760385
  0.2895935537850459  0.7091281266563896  0.2940001800236312
  0.2876869086392608  0.8577318785687336  0.4322176793127946
  0.4293123463648590  0.8557834408326057  0.2903758248893345
  0.3583857286601302  0.6404599863194201  0.3630625440290666
  0.2880292198657788  0.7124701271145472  0.4353242193571869
  0.7088263553049525  0.4290700146166033  0.2921645213954649
  0.4323003795673311  0.8586903989641307  0.8547908500701841
  0.2891730564350167  0.5711296968130342  0.8540093467514067
  0.6414090148860968  0.2156977750879335  0.5004025499669377
  0.0726155666368706  0.4995330559868468  0.7860745188540357
  0.4268049972733128  0.2888537353352699  0.2886025269385520
  0.9258148208185732  0.7790702952669718  0.7760035772762012
  0.4973146406481630  0.2179078467018520  0.3610177325780965
  0.4288379838043415  0.1454978026923291  0.2889146809491180
  0.1458378388036102  0.0027561843320861  0.5722395725739428
  0.2861043547322214  0.2869843205507125  0.4307886712821238
  0.4288624737933907  0.1448411819279147  0.4320592269587700
  0.3571401451622329  0.2156330594837218  0.5023256861776585
  0.1467080411672618  0.8573194582136573  0.5723611509492232
  0.9989331674937252  0.8586822363159734  0.4280369973517362
  0.0090760839377059  0.2883079583776396  0.1409790286529624
  0.5703528638025498  0.8549245093861316  0.4329319084691630
  0.2154398164328424  0.4980554671181042  0.6450027548870265
  0.3588855181496768  0.6426536932450085  0.6451018628337785
  0.2182106915940444  0.7846566692694712  0.7827688154397486
  0.4986605417352712  0.0725839415936019  0.3599892487855419
  0.7770837890554213  0.2221275925723432  0.2260750250016892
  0.4292704480476350  0.1439827308241894  0.5717079595228322
  0.2858385094369904  0.2855495255450041  0.5731563979672984
  0.3581621453216547  0.2143093796258572  0.6437336689437207
  0.3609986261418185  0.7859071486327834  0.7832371904943136
  0.5004881566296341  0.2140955686913563  0.7843516425660725
  0.4987334464563786  0.0738017967405570  0.0745887176825072
  0.1463470907112705  0.7123386213024626  0.5737151092186226
  0.4312606778529707  0.1450176163147633  0.0003302023277306
  0.1436066258386103  0.2847053728335954  0.7166899004051209
  0.5702931835384176  0.5697926272962911  0.8543444783961430
  0.7116642871278152  0.2859425751599681  0.0010072689007640
  0.3583503803291064  0.2168933229061310  0.2165790993940955
  0.8562787508561251  0.8539081173308951  0.5704823405199940
  0.4993658625231809  0.4992101970077282  0.5041032505412435
  0.5681189949399739  0.4296288690995146  0.2899782565925916
  0.0747003461131725  0.3609989467241009  0.3590746453598014
  0.2172514519879678  0.3568352179820971  0.7849165727929157
  0.6305667325017033  0.0694008416924364  0.3579203009640792
  0.4283785291181351  0.7121069607517907  0.2905897455784209
  0.5655167670689041  0.7062303306126353  0.9943911236205217
  0.2874808908110880  0.5698644281647723  0.4345311573431964
  0.0904087587798885  0.2285119093456369  0.9412137257833688
  0.4286150210198362  0.7135974298460865  0.1439765985702799
  0.7117262375315854  0.2852563738925409  0.8545419961612717
  0.4977255920210796  0.6396473232120599  0.0712141303207166
  0.2199392329731081  0.5036392115908378  0.0700810230026879
  0.2166514878540425  0.5042616313307440  0.2171392284955911
  0.2174445707982890  0.3597951958191234  0.2166070012948721
  0.4291712995272666  0.0018504966054637  0.2891301438541317
  0.5013990124789888  0.0736674794843890  0.6429757979257905
  0.4994655038688085  0.4983123818757632  0.9258458692738858
  0.4973251897627364  0.4991571851142057  0.3619512187895652
  0.4977273617759049  0.4996061940956646  0.2171237642874447
  0.3574440028517720  0.4987509853101647  0.5040738113173738
  0.4268828305013759  0.4297570543228805  0.2887468505257378
  0.5003979651832084  0.2152943386469368  0.9272600575147378
  0.3572995295450455  0.3589531913222150  0.3605212604104275
  0.4293551339046156  0.4282603419199761  0.8545782187170199
  0.5698671696720898  0.5696491398261045  0.4330837790057269
  0.2901009627462479  0.1442817424066523  0.8562049303249055
  0.5706484558005307  0.7104480438063753  0.8545774483663631
  0.3574833085827237  0.6435044152946463  0.2161341658725367
  0.5683846176201041  0.4277158541427412  0.1444760412118992
  0.4319009336315597  0.8589649922962550  0.9978149285405116
  0.2888134043065396  0.4300998449531466  0.9986237521358651
  0.8569200389446157  0.1608003709017146  0.9986422217372687
  0.6381834019593795  0.3594556099135049  0.3619968161228017
  0.2286348377691630  0.7885140458281680  0.9264600606608967
  0.5667323315510751  0.7095463915577721  0.2911808405263689
  0.2887460109880022  0.4280099118498173  0.7146151048558728
  0.5694572693615397  0.7109395262477911  0.4336122456041187
  0.4996288946875186  0.7842986154738784  0.5040395565239261
  0.4297890901125234  0.8577727479653401  0.5731215596758770
  0.2161200876469329  0.3587566627823854  0.5036335344367149
  0.2167055073165170  0.3580019881464395  0.3592919386159802
  0.2158319960321114  0.9309831618122609  0.4998702786872019
  0.4312457154915549  0.7129552375844820  0.8552233617380818
  0.0286025565646518  0.1480053640626803  0.1064915806009492
  0.4302893507352984  0.8558593672906896  0.1453093537453841
  0.5032200576895217  0.9318097669572366  0.9269785866022272
  0.5004599713124438  0.9298055935170709  0.0734591696905823
  0.3631228568928339  0.0733752083226959  0.0741804903671275
  0.2148988788523308  0.6466298777283631  0.7868982968167353
  0.5694844520346334  0.9996465261453021  0.4322819959448051
  0.5732091843691741  0.8555533035900211  0.5722923842742681
  0.4297750601770096  0.0018534271049513  0.5723031532035454
  0.4313219577524642  0.8579889436276800  0.7132573529328864
  0.3585188197714801  0.7858810702057396  0.6434529778435357
  0.7130699551742362  0.8541734379653347  0.5712468809067885
  0.5028433794947942  0.9302677641119319  0.7845824468534823
  0.3592052652528045  0.3588390072305631  0.0716901663308692
  0.5666230584645253  0.8569500331816521  0.9999374698247402
  0.0791801208179498  0.6351455911047599  0.3686578688835894
  0.3573349281951193  0.5006413806812454  0.3606490652413880
  0.5712218871582162  0.5706333190819047  0.5738845469944531
  0.2904621387732469  0.2880257836860304  0.0000972345112153
  0.3568680488608614  0.0735455711948696  0.5015309025977392
  0.6411246322714409  0.2149764155647506  0.6421151513558285
  0.5695365288782719  0.1457964347777765  0.0008074999511649
  0.1487568269956497  0.4295525332673071  0.2912634307863924
  0.2153308469922691  0.3572545565607660  0.6449849320380446
  0.6414147850239799  0.2147906840240107  0.9286092786845618
  0.5689772411668838  0.4271933846396600  0.9989936008293608
  0.4975915485827858  0.2193200020198298  0.2181541121311025
  0.1451764799384632  0.2870160870284495  0.5730768177046156
  0.6363409999856737  0.2213519739424879  0.2162087137985039
  0.5665570394359800  0.8536576184801560  0.1438296639354802
  0.0749901674718312  0.2161565731868550  0.6429238787999417
  0.4983689504877836  0.6399499579281637  0.3626299360776171
  0.9700591315155901  0.8859398216781863  0.2911715044659720
  0.6371036105107004  0.4978708260614900  0.0718821073847255
  0.6418577836973947  0.0736199186139000  0.6414084480535328
  0.3586666089015562  0.9309770788219623  0.6433407105985564
  0.5019050685009169  0.9294578455401612  0.6428366482804518
  0.4999349947924763  0.2144509497792946  0.6424927331076585
  0.5711786359380965  0.0037793377946942  0.0022176958490961
  0.6403249404184530  0.0756439183444120  0.7812506624794221
  0.6393454792134613  0.2165597564742374  0.0744267525654311
  0.6423262749967990  0.0747759433607795  0.9299429764046474
  0.3596269393533467  0.6431977945054440  0.0703963923500512
  0.0026194970929753  0.8533003201279724  0.7053381121776673
  0.5702486818276583  0.2862686583946950  0.5725807286667896
  0.5667096891010209  0.1480187003591180  0.2901430069443058
  0.4999128249850972  0.9280046198687367  0.5021583743447694
  0.0945405753063148  0.6339450842141164  0.9153544578223184
  0.3582959621821040  0.3556068009353875  0.7850449432357339
  0.5013269255483879  0.6421636996392746  0.6444498735476784
  0.4997733162926279  0.3563709881821604  0.9273774024375551
  0.5003362594179671  0.6404131003154326  0.7835023857894000
  0.2862629360315752  0.0023916834363433  0.5724183648092860
  0.6425351135652769  0.0730190918594063  0.4990687387006687
  0.7121018544283463  0.1463213611718036  0.5711880237329735
  0.4985805066671127  0.7832973231446861  0.3630024478236126
  0.6380400963380682  0.4982913512730812  0.2180266584909051
  0.6415364446588586  0.4996033802309743  0.5034918260064292
  0.7141531632280489  0.1452464823447838  0.7123377686229204
  0.3595362249352540  0.2162855811089075  0.0728620599785075
  0.7123083044833822  0.4300411099975339  0.4314369326670602
  0.6388350774529162  0.4968116404308249  0.9253821146372048
  0.5680998276845969  0.5687400353331015  0.2906614736400538
  0.7827047920755911  0.6393497427507141  0.7827305669853795
  0.5632959480194906  0.7076544314229811  0.1478922150975251
  0.0982327140834937  0.0616942820088816  0.0702677788855839
  0.2947525277114357  0.1442473213249726  0.0004245043023044
  0.0752653539816897  0.7832217765663915  0.6416704360278470
  0.4987955038015192  0.4992808758925864  0.0711760443009685
  0.8576318579570436  0.2856634208919666  0.7134399621662116
  0.7134350894489135  0.4281495172404741  0.5727667822193453
  0.4288628504819789  0.5704750646133585  0.5748236581567652
  0.2859474840997725  0.1441768081895235  0.5723409517764202
  0.0787493559267674  0.7760171949827963  0.3752629484356668
  0.7125296525946931  0.5696874512650333  0.7131067153163890
  0.7143367708932847  0.8551648782452843  0.7126576034210578
  0.7120268815823465  0.5683347747199574  0.4319717394716233
  0.5000341934674047  0.7848913377085363  0.9263492345130763
  0.3614010353195469  0.9311518425146730  0.7823474202290660