B  Cr Ni
 1.0000000000000000
    38.5903224038424852    0.0000000000000000    0.0000000000000000
     0.0000000000000000   38.5903224038424852    0.0000000000000000
     0.0000000000000000    0.0000000000000000   38.5903224038424852
 B   Cr  Ni 
  27 229 457
Direct
  0.0555248416605253  0.2008437813864340  0.5968706832156525
  0.0630808235027571  0.0536312896496349  0.5938941312951452
  0.6908754769284533  0.8331601130228627  0.6073292231352980
  0.0291261121365620  0.8917322363038506  0.6322073069382959
  0.9005762309285658  0.7737236449182799  0.6277087044576767
  0.3880403172228796  0.3667658710782815  0.4129749877310675
  0.9373026359394754  0.7807912152490094  0.6531656514818093
  0.1270240382345419  0.7752474408959763  0.5283650449997154
  0.4790052647059728  0.6586122625841619  0.5141488729765573
  0.1736702586241387  0.6512634086776655  0.4817288560302381
  0.3752477816024268  0.6589324507777979  0.4770689558113321
  0.0100502111752702  0.5907311882171474  0.5714412124107162
  0.7394865772166068  0.9031372182934111  0.6140044655423956
  0.6351569494224806  0.7555155458881585  0.5432815369357180
  0.8431291078280803  0.8954840250643354  0.5990356182983472
  0.6737039948340056  0.9563306979530684  0.5526228194059180
  0.0138223096378502  0.7718170448455631  0.6821532489298345
  0.5105150155962132  0.4245409009744958  0.4878323792462180
  0.6764605300438482  0.8958056620970564  0.6615507573079782
  0.2490223396521514  0.1320097790782061  0.5285463903511061
  0.1643740297300293  0.9324811866611183  0.5877028665628159
  0.6113355589443181  0.4243878029207297  0.5228894629022238
  0.0308040459261640  0.8971372346854745  0.5843210545181644
  0.0262804021782830  0.7127611890410422  0.6233499599317637
  0.7124032892536474  0.5283955162695069  0.5910782225638653
  0.3642213405881183  0.2469657142898044  0.5207313892214412
  0.0027097317648082  0.7907040863491602  0.6028208385383419
  0.7127068753256914  0.1446105787364898  0.5285051448885646
  0.7514724615203096  0.9966980592647136  0.5893724575519314
  0.6624539846058121  0.1248657556682074  0.4605128174278978
  0.7637713178301909  0.0614818932291944  0.5080542965292320
  0.7740243255229362  0.4516925073483701  0.5141410866398481
  0.6914263220084813  0.2770829007071176  0.5616965490572796
  0.5567157207589301  0.3373086453633471  0.5542907474285520
  0.5503719454856534  0.3985693008946776  0.4599138377460581
  0.9527217973495327  0.7184172687405032  0.5614828652054428
  0.4904990400157966  0.3741272466638603  0.4694127237290218
  0.5911565383450860  0.3215758300648874  0.4528125933357339
  0.8611845338845098  0.2706579953970183  0.5627586591875086
  0.7791599903072838  0.1682391287964064  0.5457569117441913
  0.9332518452647522  0.3716726411403072  0.5671835825010006
  0.3091271457489413  0.5094331054144057  0.5123486321652628
  0.5592648411890405  0.9102530326926327  0.6042978419328464
  0.7314647793616033  0.5394493549738713  0.5375958655152426
  0.7143335619353751  0.2176211351710728  0.5708213407345347
  0.8750334194527013  0.1830030911453721  0.5162636138834739
  0.6954719327104760  0.3225261407711306  0.4945480043850519
  0.9021953129553584  0.7990286245613015  0.5747307120313661
  0.9831625653732655  0.7456513189456950  0.6448848674303332
  0.9341636043513915  0.5408168145897572  0.5455460952864785
  0.8878648521294427  0.4965221835325158  0.5395360782089688
  0.5900343572056012  0.3799446960957208  0.4939442200201397
  0.7840122110849983  0.3268634287515426  0.5194510888268673
  0.6923257475153617  0.1106272747237227  0.5863642925826748
  0.4220296816998862  0.1025248289244556  0.4613747219568082
  0.6677128175886040  0.4425569829207294  0.5377847904502800
  0.1465463113670169  0.5374880137796696  0.4521954515489427
  0.4723576467385124  0.9780608023711783  0.5570045210864427
  0.2067431755688742  0.6274228937793062  0.4460232019898626
  0.1557562947169603  0.5977268278793977  0.4932216869848253
  0.5371704922563731  0.2409837748467225  0.5122028630738567
  0.4843138758637475  0.2531747099244476  0.4922765536201005
  0.5125526919507821  0.4552536985654702  0.5341297949154695
  0.3453268795350732  0.0322385380174611  0.5005203541297948
  0.2907252453447087  0.2332461660055555  0.5531367627915559
  0.2511840091213997  0.4243241223791312  0.4629241578342808
  0.1847333790929242  0.4002441398240409  0.4534308295467518
  0.2232166126499076  0.3130801847443573  0.5082482566931542
  0.3439580962596384  0.3790374517541230  0.4502947112846505
  0.3771585055413268  0.1826246461119104  0.4754793512469828
  0.8483869267422671  0.5876644093404955  0.5617191945552579
  0.3963771258953823  0.9976529126094780  0.5264712402886405
  0.4998297123090479  0.0121605632735263  0.4985363107252257
  0.1708263362289367  0.6235058198537945  0.5464761893856066
  0.0437620186771352  0.5696254998295310  0.5319731917094024
  0.3859173901190341  0.2998494780077666  0.5121504539237806
  0.6712557600726008  0.1651582402656339  0.5687956583325554
  0.5908728208224922  0.2342687275215122  0.5341406918735075
  0.9507081320073418  0.4332409541466491  0.5133768620103915
  0.6299542297658178  0.4402153627399263  0.5739288404399577
  0.7497446402863264  0.2684293425264212  0.5781157067991065
  0.5258313696939475  0.0812531745957124  0.5395874754000192
  0.0565438478958850  0.6224184986608805  0.5737075040471893
  0.6519373452664824  0.0452846605648173  0.5343018985976359
  0.0206135238464320  0.8656885379178760  0.5403599713884387
  0.9929037367937805  0.4707582811483229  0.5247146738330745
  0.0245845124631517  0.1404588460788975  0.6344396902540846
  0.0091982498814201  0.4716671225041995  0.5813854390286844
  0.9724140978411095  0.4200534306526755  0.5698207842115499
  0.3420083420460754  0.2957841979407063  0.5530801854765439
  0.0729357164878146  0.3923728250039891  0.4865917636739173
  0.1190067356764636  0.2993114398805003  0.5308895432857235
  0.0549863363518985  0.7338508901804439  0.5357747158024565
  0.8949190294973085  0.6415547675988873  0.5001521032875288
  0.6978678401391082  0.7046823862232734  0.5863262605584090
  0.2880491420981303  0.9987673029009932  0.4846927656275900
  0.1310728966073420  0.8845207133245416  0.5726579686964093
  0.2654590766560768  0.5134566355754747  0.5501987869451780
  0.3059499542205931  0.6674392575101084  0.5649484606609784
  0.2872044477180569  0.8706875779880801  0.5765781713754670
  0.3176930219498658  0.9692241882385267  0.6185653266828197
  0.3877468544848587  0.8749517468826766  0.5528717752539569
  0.2502085783964395  0.5285527991869718  0.4900523382186574
  0.2206108523183751  0.3651006177137491  0.5549573489947442
  0.2762597942042007  0.3445844075313685  0.5745258585166912
  0.1381293226716184  0.9864023039670566  0.6088719987109135
  0.0790844919081787  0.2543931159993484  0.5877547627506263
  0.0283421310244560  0.1580374187186649  0.5692425865927739
  0.2022857822967696  0.4442472706114123  0.4896344651694942
  0.9769468573585851  0.0622568800055233  0.5793260668618215
  0.2818703637032292  0.9275719859028779  0.5588788631721753
  0.9935297529696216  0.5375928408793373  0.5673438629155799
  0.1861373496553395  0.2955068422372980  0.6139699476573476
  0.2063148558868400  0.9719231681071575  0.6391895040294501
  0.2681109305963499  0.6511583941465463  0.4575575806978121
  0.8855824912798647  0.5302442697367105  0.4799860159592926
  0.6542597696797402  0.0501077475400845  0.5906662591906884
  0.3769712578856369  0.7160336099217313  0.4744086327438272
  0.4463836244563271  0.7594150196281795  0.5994968438542304
  0.9586974944198922  0.5951371848260821  0.5438673369741538
  0.0712538304801618  0.7270960042863718  0.5883362274684973
  0.0975610011917761  0.5554914159808063  0.4912812455641742
  0.8080714607114786  0.1111128531120834  0.5706385290210138
  0.6648378088398945  0.1110322121313787  0.5212598799675238
  0.3010580959111297  0.1059777931808399  0.5075913924836382
  0.1778061554879071  0.9229296577976676  0.5319124893349408
  0.0070101084825629  0.9375883976239707  0.6123077074538980
  0.1830974925521222  0.8772769956302384  0.5934767462151876
  0.0244770103821475  0.9866416515308626  0.5699491627109416
  0.0261004185356360  0.8428067709927550  0.6061924299335185
  0.4266605411121904  0.6797442360804494  0.4984922445474972
  0.2152713178019348  0.6219940039541288  0.5096889700526811
  0.1435031906365825  0.5196152834486220  0.5079965627686936
  0.2238444800860573  0.7868145365971466  0.5133955138833709
  0.2767793900502636  0.7693410687680937  0.5935788591669142
  0.2254792729654452  0.7739086547858341  0.5742859077282363
  0.1204833445326380  0.7226780951242550  0.5471256993388516
  0.3851179602698693  0.8910191100473199  0.4894004542660463
  0.1763015006162270  0.8583097534547474  0.5360383215044031
  0.1735485126793620  0.3918302914261860  0.5267775916617866
  0.4567897567482948  0.4410469136685747  0.4715544978477300
  0.0386610209579611  0.2480960105531456  0.6270317540087800
  0.5460114121158517  0.3510523167821545  0.4249409691045707
  0.9743119986533805  0.8914902757925111  0.5727625920593887
  0.0633672474524588  0.9466014045521439  0.5887490625219509
  0.9686495637721106  0.9558367149796017  0.5572701185618509
  0.5934639219872881  0.5410434531857562  0.5967407652649029
  0.7488427879925550  0.8784749189744484  0.5658179025532006
  0.5743198441366384  0.6140267889180542  0.5165145341123888
  0.8162998881456190  0.5330466438539718  0.5621381184686491
  0.8018088575065410  0.3384562260062273  0.4663855617526994
  0.8549623993799346  0.3009492592495767  0.4955879308314687
  0.9487394405971634  0.9328733748356244  0.6126051240252256
  0.9253119321129072  0.7261203832598631  0.6451673659819059
  0.7509034766366570  0.6884110012142372  0.6045232716138876
  0.4104411265141220  0.5225551184569314  0.4863032446659880
  0.7935345948199249  0.7413305182162403  0.5510211311398268
  0.0650394389602574  0.7958562910546944  0.5205193762546234
  0.2409346682311648  0.0298884926959358  0.5772257414478881
  0.1384154478525760  0.0620177260592138  0.5215035492028480
  0.0775745330953473  0.1458425318855732  0.5924256128444256
  0.4813700591373677  0.8216585675708873  0.5383271598916216
  0.7349358443585408  0.5845583830939778  0.5829346317115278
  0.1694871951387636  0.1869428424209982  0.6252731399909965
  0.1934103932704835  0.1456237053701412  0.5716506090489432
  0.4109535895794245  0.4683196932072222  0.5009825167405790
  0.4753584794800316  0.5550669606608281  0.5548867339401955
  0.5364915372184677  0.3933624175657098  0.5301495974176897
  0.4305569836550719  0.1520144019811729  0.5027490798763028
  0.6841393174952826  0.6102553137503874  0.5521349680934371
  0.0190039110008156  0.9319465096314961  0.5370143194633911
  0.4177733630593668  0.2502858854139557  0.5318825601535219
  0.8221447118104752  0.1526434853270067  0.5082945668478029
  0.3382630513892113  0.1494745809638136  0.5286194742367035
  0.3451597775626051  0.0264327911737184  0.5592018621453119
  0.4877035397192437  0.1905728988758420  0.5105654917053729
  0.9293747652525028  0.9831707099996341  0.6520321053846104
  0.3284002509981929  0.3280512024830788  0.4821964198307522
  0.5812938236393647  0.1491706442162971  0.4407307648238415
  0.4546996153514025  0.0311570297349160  0.5373027673741474
  0.5076970124460888  0.1326083401881246  0.5237479820576794
  0.5208457278000720  0.1236982405028331  0.5865499054845121
  0.8621372397455920  0.0019533739156632  0.5668006533340451
  0.7715448202840232  0.9467613729478552  0.6069231729525461
  0.9463033351721013  0.2250838390362753  0.4472594250082330
  0.4821740353768171  0.7144595073932027  0.5088655218082179
  0.4365319246952522  0.9183945225992536  0.5006823074336965
  0.9019336906970583  0.8968872620303647  0.6071532382559586
  0.7474189465411942  0.3072641212310704  0.4576966361857407
  0.8911515370213701  0.9339275804341004  0.6491140404274353
  0.6903612708125202  0.7720790804229021  0.5655155372296305
  0.7712037606924851  0.7799526528486920  0.6458376191503507
  0.7469587393001270  0.8468907395619846  0.6217767936527129
  0.2495450292203929  0.2424559292658159  0.5864761250058986
  0.4196936246830200  0.0803006513578864  0.5630337275553481
  0.4688394944955310  0.6131176741192843  0.4807444794776047
  0.5172328908572861  0.2891285006831160  0.5487140638164358
  0.6867215605798644  0.7351416455118917  0.5236662090767986
  0.1020874864279331  0.9757236193648016  0.6558341896967234
  0.1075134477162243  0.7212853464003458  0.4972292902659832
  0.4541875524385821  0.6119320510767757  0.5333995867306520
  0.2462337344491184  0.0779697062837698  0.4937888965077870
  0.2193823328342515  0.2057780940963316  0.4836354513083050
  0.0965396305530254  0.4751977259385678  0.5079108130003387
  0.2583642095947885  0.1291956578082545  0.4691412099830435
  0.7911405546629349  0.8898324340775231  0.6276738055943966
  0.2240292202979572  0.6780669256161077  0.4869861956054776
  0.2749357404144724  0.7584762489815929  0.4931452581499556
  0.9240472166978815  0.0930406129452053  0.5541870265414569
  0.0022092854008770  0.1947680708945316  0.6221238197500711
  0.9276957367844098  0.0958142311742959  0.6097005448179560
  0.0128570623406347  0.4073698355877582  0.5151038295826175
  0.9185086379550236  0.8273302685740309  0.6261877307667999
  0.9265052212601835  0.2158234566081211  0.5101967204330717
  0.0895005629035052  0.1382057481754671  0.5349672789617701
  0.3282347848635974  0.6259412550084255  0.4859895295923830
  0.3652641386521957  0.6103939750926733  0.4466461836256189
  0.3567271459911455  0.5489922795504321  0.4594781098325725
  0.1820822162282682  0.6848656359380820  0.5263369412364386
  0.5460592308669346  0.9800986804643818  0.5226604707510185
  0.6337471712978130  0.1810152292162813  0.4497049439353162
  0.8671449579366555  0.2429777834034270  0.5081545088217052
  0.0141835474410653  0.2821537430477768  0.5573692680787241
  0.9566638280883446  0.3128841952452465  0.5901516590830502
  0.4850865388522999  0.3135749240652277  0.4807354229779638
  0.5362284425753499  0.2896045472887815  0.4504817889045094
  0.1728052201385255  0.2173438705560003  0.5144807519245715
  0.0172928566636570  0.3577988499261202  0.4781335194946982
  0.8257327512199670  0.0554844511626754  0.5897570948144774
  0.0590348218373552  0.3799471092657892  0.5495888265539942
  0.5441895350767768  0.8040475464227784  0.6220875055745043
  0.1724022973076507  0.3305893687821991  0.5411514196456516
  0.8367924447083837  0.5495216612923519  0.5110361725992673
  0.5903975163532368  0.8845322548946676  0.5655702884307644
  0.4633539869659504  0.8649932911184159  0.5811060136561054
  0.8628553476134885  0.9442604224920644  0.5826858021635608
  0.8514436823492153  0.8835986291339120  0.6525969947697802
  0.6355274657133985  0.7051756814655112  0.5084726628503322
  0.6214817270603897  0.5185251169003846  0.5588727221678172
  0.6936247893522468  0.5813018163469771  0.6219622342111336
  0.5818272043236561  0.0121310247544324  0.5884502810530708
  0.6601450102505713  0.9466771777252774  0.6300626565987578
  0.6241680237116756  0.9001622960407808  0.6298602678116374
  0.5424195549089459  0.9165279074102500  0.5382633762824857
  0.7082491625753621  0.9655840694474928  0.5134583460377732
  0.6407625500994911  0.7054118882499271  0.5648003588146095
  0.9724015370545619  0.8774838498019252  0.6334299749811302
  0.7002992056790887  0.8390388069251821  0.6640880880959990
  0.2966523236245021  0.0257298704476760  0.6006715392947984
  0.5257626604950046  0.6401308119934108  0.4881928763363699
  0.6899148259025266  0.8864432462895137  0.6106796652293812
  0.6452620164311798  0.8467280013161457  0.6458298146909616
  0.6397484059924997  0.8557838894677529  0.5853868164797993
  0.5311738819725124  0.6724418748741277  0.5328780723367442
  0.3250597542015297  0.6842251795085660  0.4646592845448617
  0.8283382812719714  0.7745294339519309  0.6670727599438202
  0.8689397083232537  0.9895346448275653  0.6311839453260367
  0.8147635903621855  0.0296360836479953  0.5354704245066830
  0.9791168972728963  0.1220484429523113  0.5610181737006356
  0.9808180465640298  0.1859927395509249  0.5374648537251144
  0.8254955935565945  0.2163738503014677  0.5533130362908213
  0.9749295677738264  0.0145698454597650  0.5383640966948741
  0.9291695980373604  0.1547063694186976  0.5336104413051835
  0.9375662466517427  0.4982389009984193  0.5009719817979561
  0.9646439337712354  0.6614481659114322  0.5735738315206554
  0.8392452648778352  0.4771364279155078  0.5800526718101749
  0.9052407853876626  0.1530236503156585  0.5900406461257819
  0.8838982618312076  0.0460813483410372  0.6097725437449375
  0.2887031876867108  0.9893509654599126  0.5489414061174452
  0.0175885195826925  0.2227733267792731  0.5711255507437544
  0.8711546916933051  0.0599759576636310  0.5455427660191905
  0.9861843382170447  0.0893531626470363  0.6346767295285033
  0.1447217220300204  0.1238803729302947  0.5035253876913508
  0.1948651729920948  0.0940123652993402  0.5293789270725848
  0.7762289459872638  0.0463654191535967  0.6295091003742707
  0.1795584377606506  0.7276686395713626  0.5697052114994868
  0.8107804317380538  0.9972703300426595  0.6112371958396072
  0.7566265047296650  0.9910061387604940  0.6512786677532399
  0.7685646195757903  0.2274608911195354  0.5299410242661775
  0.2629127095262250  0.8135107290045256  0.6343068130840256
  0.8483963038790783  0.4314114553909519  0.5349176170032500
  0.6110790844788409  0.1754445610735089  0.5473740437614669
  0.8989126540158251  0.6920491372386047  0.5446986132472480
  0.6359774954102110  0.2285456711382674  0.4929272960397015
  0.4508155351570778  0.0454562307306158  0.4724413124080442
  0.1964288258646684  0.5056328956166540  0.4749273728109248
  0.1589584881796752  0.5139842698458797  0.5673451762847692
  0.1441421180799537  0.4745867782851353  0.4668667037304520
  0.7787046585949932  0.4859952698755016  0.5606165958009579
  0.4017584176205230  0.0612175027237570  0.5071993568919978
  0.7200177401143922  0.4802732507987331  0.5433462664662913
  0.3971890923555324  0.1367820517497193  0.5488415307121780
  0.6261500824444858  0.5825602294896490  0.5414153685929094
  0.3386035604007661  0.9703017610906198  0.5183199367977558
  0.6012569916209112  0.0116058568994459  0.5294472262246268
  0.8249152139779959  0.3718394311547319  0.5877287314335553
  0.8070766858813521  0.3867853092487662  0.5163695487292839
  0.7664221436680183  0.3745391874447186  0.5656490076798325
  0.8745091762170196  0.5313523050133508  0.5828388280714804
  0.6294682755468102  0.1126944311324426  0.5677673502495751
  0.7163605158437283  0.2019043254351313  0.5131111372803946
  0.9900529623852562  0.5352273695571053  0.5089322279066183
  0.8841101964147983  0.4612143427098426  0.4929541585444213
  0.8383306557923186  0.3302455982883739  0.5444953967077529
  0.3841484127945933  0.1974291544119178  0.5320614982089583
  0.2828449176591512  0.6895629374318704  0.5051264171361171
  0.9456347597501332  0.0410687142385841  0.6307673416241081
  0.7278230793023305  0.3274416012687066  0.5584769476484085
  0.9463036606363854  0.4798790834533982  0.5606804180332814
  0.9185941644532076  0.2626228418035886  0.5853674796236950
  0.8027777779605407  0.8488671476157307  0.5832874386686262
  0.4796197505112779  0.6584788551525792  0.5680380108746472
  0.0413269278419891  0.5052872487975969  0.5326429831586494
  0.0308192022531750  0.4133967957151671  0.5943451248283761
  0.3278358686719100  0.8470428602733214  0.5384440642541233
  0.0859082863566370  0.5698089924042430  0.5852155163102348
  0.1401571559127222  0.5686283331958230  0.5478150175687956
  0.0518711153112784  0.6291135730895887  0.5034709677391896
  0.0961468410830794  0.5245431593956716  0.5465149264889906
  0.1577929844083756  0.4566118691224279  0.5282099513349492
  0.2087353325874686  0.4939591521515316  0.5331799447765379
  0.2506492399356066  0.5725129791457538  0.5323381917613054
  0.1227592693677425  0.3595811625938339  0.5096955478617217
  0.1065404182633040  0.4142170511173773  0.5370194859296246
  0.1347392226099046  0.4173985905546947  0.4848877474121607
  0.1137353647660610  0.4670092591300750  0.5665322960599964
  0.3463842563983972  0.7155088143605557  0.5712550684362621
  0.2853903660626205  0.7272366219921002  0.5524438267995611
  0.0172816750627425  0.3072431774625968  0.6101361418234222
  0.0550752697619594  0.3565049484761086  0.6110181204561308
  0.2811124349393759  0.6250008068008087  0.5247209403971443
  0.1938867549331863  0.5538219313394015  0.5166643830713148
  0.0541078974971231  0.4446262592114825  0.5461371138777661
  0.0671196864023764  0.2658639784785695  0.5260685268856178
  0.9640781640845376  0.1469308367004215  0.6140787058607143
  0.4771389855837468  0.1346414662826460  0.4686980129763988
  0.0933151507892283  0.4055889094854421  0.6123883736934639
  0.0498769423011073  0.5197439898394013  0.5892144533477777
  0.9455565723889335  0.2034189823341054  0.5918870435515527
  0.3925763502153694  0.9155530082318349  0.6011357437622836
  0.6334802026787414  0.6429193250834415  0.5220316226361287
  0.9122617757228306  0.2770444604872863  0.5246168946692914
  0.5195314136934476  0.5806591973318798  0.5035312351615658
  0.3018513727546193  0.8621891290505806  0.6393356610033083
  0.5389385717990370  0.6514106988584217  0.5945230726334190
  0.3513338946932461  0.8654188998960489  0.6000392035930729
  0.9486375045725525  0.6688417089771114  0.5145620799393453
  0.4549597491853882  0.2959767405051448  0.5336828441521753
  0.1005889704062132  0.6093865370134135  0.5321377885233649
  0.3352344705770627  0.9212634620457421  0.5806763311877389
  0.7554996769021105  0.1028609077383381  0.6110163909734234
  0.7674454732037909  0.0530942134104572  0.5684730235210336
  0.8202283965135942  0.0891980569798692  0.5183754418043988
  0.2289737703115201  0.7279404274897412  0.5297798207335638
  0.8741646494755712  0.1215035609129160  0.5297762332502386
  0.8928738485181648  0.5812978726313954  0.5221954181371019
  0.9792715642638479  0.2559430480278304  0.6074286426662456
  0.7789088135266992  0.5197964851556869  0.5031452382562556
  0.6981731985026045  0.0058510344176480  0.5600296937941728
  0.8673962130056875  0.1039129414745893  0.5901841365314343
  0.0150014083438786  0.3423284005710038  0.5393658483840855
  0.8441334764661347  0.1606180207529016  0.5700843390277218
  0.9940981004357951  0.3642432589683821  0.5907793726114421
  0.9635700906135697  0.2474334517608848  0.5485599021290546
  0.8858947738282478  0.2121050018718205  0.5697356923760437
  0.0785001673988861  0.6730153109455053  0.5426427767079307
  0.2793176977310545  0.8766055718375283  0.5146792080999053
  0.5882003427916799  0.0653742347478356  0.5632052440546443
  0.6476286597877613  0.6480820321194110  0.5811861724530145
  0.9080651952639656  0.3371357210246111  0.5051301690245407
  0.8291330884938695  0.4874244950856527  0.5210043405145289
  0.7634716194129790  0.5301765576515041  0.5998510876957909
  0.9959364376136902  0.5961809644807859  0.4943955324144531
  0.3873962811544352  0.9350692303017486  0.5386313228623562
  0.5709230264661703  0.1250020840663615  0.5461397620636631
  0.3136763679371664  0.8174571610609118  0.5955439977355053
  0.3786851943834348  0.2478702404797040  0.4685155634770979
  0.6617942214940475  0.1741952246836632  0.5058504762991602
  0.9631931319861810  0.3708633694902223  0.5158221716073210
  0.9070010662872828  0.4313212879582852  0.5529711669943711
  0.2262944502767158  0.3777849483745586  0.4927243746299366
  0.7415408341386563  0.4281571344621887  0.5584004156115937
  0.0682207366673496  0.4625367995625747  0.6044850658383821
  0.7517743594917984  0.1093587445830286  0.5514076616683606
  0.3204493327178249  0.1576615365706743  0.4705104863822718
  0.3107552292526867  0.1108579790419382  0.4338042149053708
  0.1976146904314819  0.1039261319313668  0.4647827354226697
  0.3566397769726062  0.0861177841550822  0.5401392433646988
  0.6757687326518217  0.5522831208212579  0.5663547205648276
  0.9251218383703923  0.0316365461636820  0.5702800490656988
  0.7332035366728948  0.5985931966663099  0.5168641873356922
  0.9131488490136050  0.8746317181035571  0.6681196361262042
  0.9655275244312328  0.8305549237182985  0.5874591574025707
  0.8519364106224567  0.8248284000924764  0.5494390635901260
  0.8752171262204630  0.3775736807541597  0.5444525630304216
  0.1380215606426276  0.6711101052340283  0.5680937676312291
  0.2843647206495978  0.9384949941725943  0.4980069499317523
  0.5548414506624419  0.0429183448784960  0.5048474271727248
  0.9614435865627352  0.3119405203569926  0.5324839359342469
  0.8503300340722176  0.6526037757620107  0.5404346251761045
  0.4836755145216445  0.3903696750454146  0.5816592647094075
  0.7331121343772234  0.1592679977998447  0.5897479945791168
  0.7422478241734068  0.2828492619455598  0.5172179363069289
  0.5312618252057872  0.1654466088888054  0.4748045523486660
  0.2369664561046891  0.1895791424996481  0.5492613852908814
  0.6538148885516097  0.2236804636174101  0.5525391933004887
  0.7471091513878575  0.6437408953704767  0.5597098767649619
  0.7648928124392605  0.6288606922861275  0.6203522729403778
  0.7415568685965171  0.7053710596080153  0.5428738705212168
  0.8633723634550987  0.8500663020384053  0.6026743708635498
  0.7982972104582694  0.7907858356917931  0.5964067035750901
  0.7166584321320577  0.0531435506325057  0.6063879070814322
  0.8231133490445061  0.4408378960850519  0.4803044584300605
  0.2259874772035840  0.2518666960191661  0.5279202032733779
  0.2777512262679735  0.8091815416293440  0.5377351173837575
  0.2793845615065610  0.2899722296176958  0.5330590692617483
  0.5409534733954869  0.0657843055259155  0.6028425784867010
  0.5190699060108944  0.0228586997485725  0.5616832044640144
  0.3059156513605558  0.4001695364072920  0.4931664877069168
  0.3259548411923725  0.2695158973356894  0.4977482060204006
  0.4403909751859345  0.1900863249621603  0.5511047608262214
  0.4321773547085685  0.2143138885638164  0.4882901947901925
  0.6717533400396871  0.5076936974391726  0.5204678160722025
  0.9143086231852907  0.9753806002626020  0.5909405752231921
  0.8477780276766702  0.7616036998535179  0.5661763815535813
  0.0681930847773737  0.3293152030387568  0.5056901839680160
  0.4581799130411379  0.0930035931962497  0.5153995961994184
  0.2912623016233126  0.0470291097979928  0.5285560356712284
  0.4991455670608504  0.1801330691451160  0.5714442163649334
  0.4590271258272515  0.1313979827626789  0.5646413371224960
  0.5480605884444335  0.1821719472489984  0.5326254503947583
  0.5838280656742434  0.1956093812694061  0.4852477167725064
  0.6323141696391678  0.2801036812928648  0.5361618313000966
  0.7014257264713213  0.3847760681923310  0.5450933594251177
  0.6535568247066980  0.3810006182355652  0.5868460772335278
  0.7144379230017402  0.0933809852936760  0.4867560702961923
  0.7051694328906950  0.6409525302098478  0.6015327620726080
  0.5872381004283904  0.2562594632394980  0.4674521005050475
  0.3607701161765263  0.0755968943647120  0.4573097595391711
  0.2737519854578506  0.2357169190354707  0.4902912393386399
  0.2762323246281071  0.1730365205564303  0.5086583267786585
  0.1014759103402701  0.6147965455305673  0.4683745078360630
  0.2993488138716547  0.0557482361496747  0.4617455357300323
  0.5712485475888964  0.2925406744052252  0.5128505609849775
  0.6665084636783717  0.3353813274726195  0.5447638188039713
  0.4794142175599773  0.2384974849896728  0.5529463144719304
  0.8062527356221448  0.2747576601628499  0.5404969168097685
  0.7725276350191490  0.2114463095224141  0.5931989697241045
  0.8006847730814161  0.4277640360577216  0.5730802704264252
  0.8204305378651553  0.2141048071082531  0.4908440741772859
  0.7847842001719652  0.5787104849815478  0.5448699043848668
  0.8009005119891239  0.5770123723968028  0.6061438864712371
  0.3941915675058693  0.4530834024608716  0.5531056772168871
  0.8981804588728909  0.3206454479096993  0.5660989373755434
  0.9124597167333446  0.6336953440021429  0.5556629241151735
  0.0061808181148086  0.6358112107421732  0.5410532256116009
  0.5052580141823337  0.0757439536381925  0.4793778312580814
  0.9506786895692675  0.9242355915416869  0.6725424994745066
  0.5720531112301089  0.5543279412949957  0.5308795123165562
  0.0423949062191385  0.9848901167499644  0.6336064515694505
  0.8599017046608056  0.8894175209319263  0.5440407622030718
  0.8041509545194435  0.7326500598602709  0.6086939759300177
  0.7905487972702063  0.6936299105751638  0.5051715847429160
  0.9900471311237641  0.9732481453273646  0.6662645032575657
  0.4068377065485658  0.0227986503585195  0.5821443174050306
  0.9139215308026490  0.8574038178735683  0.5625318424692948
  0.8611293848339436  0.7360189057731239  0.6332448567827630
  0.7978093892983847  0.6845299082209070  0.5643479290217133
  0.4950709230102475  0.3468528424977042  0.5349116784921392
  0.5994500906594524  0.3843860915848885  0.5564633888307949
  0.6166918448427227  0.4752521577244987  0.5145678852545837
  0.5702918010685055  0.4376367781982055  0.5580557435902251
  0.4664581395827027  0.4889834890416728  0.5125008519455727
  0.5648290387649801  0.4948656251554451  0.5420188316776614
  0.4746555517321099  0.4054972942462536  0.5216324963246202
  0.4569253472178705  0.4489731601980654  0.5652855716683608
  0.2065503743893023  0.1513071075534084  0.5074668564721421
  0.0027557608147801  0.6266015725509769  0.6093261123085524
  0.3304343865028251  0.4558427345871869  0.5293987623503643
  0.3620489330948273  0.4269730135646219  0.4883946361283729
  0.5890550809268358  0.6576070728974066  0.5586447979663208
  0.4802351348756431  0.0737103084793179  0.5796578075346062
  0.0667729648050880  0.3142680668920635  0.5674001174325065
  0.3799121103723258  0.8311304120097819  0.5036908086160007
  0.5563600701193934  0.4888992787917453  0.5993028918992380
  0.4652943889933989  0.5509344399012300  0.4954801458405906
  0.7034871361523959  0.3820005545394340  0.4648818898500943