Cr N  Ni
 1.0000000000000000
    38.6830176813086979    0.0000000000000000    0.0000000000000000
     0.0000000000000000   38.6830176813086979    0.0000000000000000
     0.0000000000000000    0.0000000000000000   38.6830176813086979
 Cr  N   Ni 
 1596 106 3725
Direct
  0.0037170502891451  0.7303572183452561  0.0084891960480544
  0.6668624737900342  0.5567297760901906  0.1140698020005124
  0.1940688273244316  0.4037651959435261  0.5228528773648363
  0.0464874517880965  0.9540482396532198  0.7041198223885146
  0.9465315881826041  0.6823643744173717  0.0570639464359323
  0.2159236619683614  0.3638447138897231  0.4826993255572769
  0.0701691358167213  0.9693852167129706  0.5348267662652584
  0.9597588414175984  0.9128611541485813  0.2777502674598368
  0.4725251617384255  0.5936187557613751  0.8510282717957846
  0.5106293470844760  0.6425888939602027  0.8593137223183253
  0.5746381366322372  0.2175693883415090  0.8564966668940702
  0.6481023396068700  0.3417613226995676  0.0629585265559932
  0.8602380538029941  0.9586307705050564  0.2839734012751592
  0.6368028159634980  0.7810568602838099  0.9258434340637481
  0.5364104609025606  0.7400843581616692  0.9036931996402843
  0.2772991311379251  0.3377213282140953  0.5652452164255598
  0.3716254212198116  0.5304312713174397  0.6441338561875605
  0.7265833969704274  0.5992227926107505  0.0622236456163453
  0.9988362834640891  0.8070567249955901  0.1572665331231144
  0.2939515888545670  0.4289745904162867  0.6431380038748351
  0.9660105161403895  0.0356631212417820  0.4771560124637141
  0.5483893119153339  0.1560280490786731  0.9169725588525229
  0.2498423804332810  0.5454207171565650  0.5998301131146585
  0.8531169741285831  0.2412624175890641  0.0309840057316913
  0.4904967932771640  1.0004283499990860  0.9302691301968470
  0.8646942329701464  0.9246692586337785  0.5286779887271887
  0.8975018064595235  0.9849688835125302  0.5301106645099601
  0.7563298352933818  0.9313653632053284  0.5491088467815398
  0.3221361812537878  0.8093193632135072  0.4365148339885601
  0.6106975462485879  0.5642386305500281  0.4411040004381966
  0.3671725323330343  0.7575425004416670  0.3496867749854186
  0.5119800194309853  0.1905178292303532  0.7305332392866813
  0.3681560715980611  0.7744108243183301  0.2892606014105800
  0.3143571329714984  0.7602797111632309  0.2197565068827449
  0.6074740400361878  0.3687528881331625  0.6207968441318954
  0.5081482703322507  0.3241548553562081  0.5927526813319074
  0.3263039222033018  0.8962480294771884  0.3529769009658755
  0.6788414679838372  0.3477461367368788  0.7043957352122340
  0.5575025111637006  0.3619071679835275  0.6587122848961968
  0.2278236508233618  0.9450692315755703  0.3631756231115770
  0.3789095918025405  0.8633281517739938  0.3786390448447794
  0.6717748645175067  0.3749069820828370  0.8295741702348414
  0.6579220092394591  0.4196786174472369  0.8711905561710425
  0.7786496449891784  0.0683438117823050  0.1915396161280577
  0.7161431630854588  0.4154841600154603  0.8909591826844965
  0.6511118567826932  0.3918692031554743  0.3364885646339583
  0.1155605029345706  0.6576509549109246  0.8979222526767302
  0.1948928371934850  0.4200712907000146  0.7232978719212318
  0.8222640527331161  0.9095113488715917  0.5697802408615799
  0.2686045274109126  0.8467986891607810  0.4079359633601318
  0.8841462458084294  0.0472725034384730  0.2911312151321701
  0.4324288811775953  0.0904944329776974  0.7229016567970900
  0.5050910175046041  0.0728036227087332  0.8078280854730271
  0.4850094971795699  0.1301768755902499  0.7886404053634801
  0.4749781344795185  0.1750001369415583  0.8325806098739891
  0.4875980934893183  0.1639663927184164  0.8957697080649670
  0.8404419438932574  0.1417844722533417  0.2478380409598064
  0.5261681983931280  0.2134526644561950  0.8964392671474145
  0.5385479734921892  0.1989347095869212  0.9581335551905773
  0.7358683430232247  0.1126106624192000  0.3353468686258523
  0.7944839488083918  0.2202801289166376  0.2678431557718795
  0.4175340738234152  0.0184740008253845  0.8472635081663583
  0.3472980014865520  0.0722850591742956  0.8686887848216593
  0.3455938658082257  0.1349402288529633  0.5153395154270082
  0.7404202825927335  0.2056411394786170  0.1949569787559919
  0.6967272287593624  0.3133995331169376  0.3208808327758022
  0.4474768315928701  0.1734467465758611  0.5357411221791534
  0.6577255150056358  0.5004567643462343  0.3601835880830130
  0.4297656737122790  0.2206505945658954  0.5829250196110839
  0.5739433734003516  0.6948816493628482  0.4331621076889405
  0.5282982555222666  0.7701970860553693  0.4529966969267080
  0.2738862176880548  0.9455727784116880  0.4993511699831977
  0.5186602274291888  0.6657688256907629  0.1974382350405418
  0.3420442176504151  0.4676918980253733  0.7031867139346696
  0.6409538580889964  0.3296928076340740  0.8015106662121151
  0.0981364010305662  0.9950091701403839  0.7691431387856142
  0.0553003698335126  0.6661030080795936  0.8712936838536364
  0.2207931205061698  0.4472312912095657  0.5592186433002183
  0.2832866127311949  0.4748143780488821  0.6824435989688356
  0.9757185353971404  0.7315634699509760  0.8292591243891673
  0.2654186795341432  0.4541149397184335  0.5183075605118668
  0.6247145764473014  0.7134355519354705  0.0441371884850683
  0.0165686476591219  0.6295697227070732  0.7780194210187065
  0.8907425135038557  0.1816783754872310  0.0270518955892879
  0.8074914606307978  0.9829363436446635  0.4878380981804071
  0.4328601454465755  0.8599509651891104  0.8504687293875897
  0.2147314408651970  0.8874727313588971  0.5555678661336086
  0.2062340103363481  0.5993809686109600  0.9025233776868634
  0.1142820498517859  0.4833593611836507  0.6816854333885949
  0.1799538722536850  0.5984505685312245  0.6170596101630748
  0.9720127366417004  0.4517199427806484  0.2023561315611146
  0.0254617163452575  0.4676125021940474  0.2724787085343994
  0.4836734186976699  0.8996844588927229  0.9107207855673400
  0.5933494013896505  0.0633924731564809  0.5592417316557151
  0.3223712342671384  0.8514427728787066  0.3105614438778777
  0.3259192174607276  0.8791126063012772  0.4202653956858641
  0.5548046250510021  0.3111578186884966  0.9413599922236286
  0.9044723442437913  0.3111056112837581  0.4048143406544339
  0.2175379762489422  0.1313291103623171  0.8671179420384342
  0.5786257172242820  0.5591445005715296  0.5449706046816722
  0.0099391913551108  0.9408892966903892  0.8026282514617642
  0.8886280038546606  0.9577446073085394  0.7562020505516690
  0.4729323135572317  0.7389799320058671  0.4443284539981492
  0.7149255131175498  0.6623433356874598  0.5260782429791665
  0.8552059030960016  0.7875691827486321  0.6071323041860470
  0.4778182340947441  0.8001215406892008  0.4286089832201507
  0.7478210449486554  0.8921887393406512  0.4980754042387093
  0.3856667334024849  0.9127919276081951  0.4289614346946866
  0.8402809687142303  0.8762912264622795  0.6976020984073495
  0.3315076979464284  0.9317366730074913  0.4671361380255166
  0.8613644278028214  0.8953208107431916  0.8164240517672640
  0.2856023250568380  0.0008423189940311  0.4807640982179912
  0.9385458516402340  0.9823928028403648  0.9115481504118162
  0.9262016340365078  0.0261321396764724  0.3314224113234971
  0.9519118908853857  0.9758180422588899  0.9659559949588303
  0.5297345506849996  0.5686888325655211  0.6933044555670650
  0.9057072019616440  0.2094619324107964  0.4798925504308146
  0.6632533349826715  0.5119615551026127  0.6891303757833424
  0.9458964974812202  0.1536884816640290  0.4574769650948020
  0.0449765953211155  0.0774212181241461  0.3406883533992505
  0.3903955894303824  0.8738833735014435  0.4970526194430174
  0.4285008345215802  0.8167712207854522  0.4637498443107709
  0.8422281800972445  0.7312065652972095  0.0611581009411387
  0.1380897094469244  0.9745401977889934  0.1183775672586712
  0.5542674727430382  0.0770935699411246  0.7668848525339088
  0.4712416250177057  0.3552501921664597  0.9981938317313127
  0.6258071833414351  0.0586170680226518  0.8517797852654199
  0.4390544602240448  0.3903407593644969  0.0333857917017876
  0.3896602652721733  0.4148196558738770  0.0106864191584517
  0.3896580028335072  0.4029606342227644  0.0710608585935475
  0.6073450466263831  0.1486823287385479  0.9397070248227974
  0.6080353678511947  0.1893164351435696  0.9869602621094761
  0.3443921323319905  0.4808262259454814  0.0899407929188188
  0.5263469156545759  0.0162106126163612  0.8271123227938326
  0.7950050752762504  0.7490119337753062  0.7626235127772703
  0.5117537293930023  0.9600951095422030  0.8524471478336199
  0.7101027189449609  0.7301577457316343  0.6826744565141096
  0.7073925861341323  0.4569364102499428  0.4467078238108684
  0.6728001650725832  0.2275353588577751  0.7757386692945177
  0.5614588560813619  0.1947669509927230  0.6908908465291725
  0.7118783945525365  0.2777790746104624  0.7804542470814055
  0.3260554291914943  0.5823504676142782  0.9520968894227640
  0.2074412722263952  0.6868892263890696  0.0367040511724287
  0.1591891170258751  0.7635233017355496  0.0572027467235558
  0.8822969645451663  0.4460859027698055  0.0027691375238811
  0.1559723297299435  0.7483694825806169  0.1156841852334570
  0.5413081469150397  0.0550108994243065  0.5990100221098017
  0.8687736234213000  0.7734588577423911  0.9525862381964749
  0.0346868105121955  0.9794511360656881  0.0817482415247320
  0.4713049916441142  0.1061348229043972  0.6215900729104400
  0.9306011378720896  0.9225911526581669  0.6184502626944286
  0.7823377118187272  0.2971940491785633  0.9705390621062976
  0.5222542919452670  0.2420583971657417  0.0004765862998348
  0.4230586878825512  0.2967201362336812  0.0064242032093051
  0.6051431963300620  0.0779749747754367  0.5045882481768305
  0.5397974296501897  0.2544808477992432  0.3986433768121598
  0.5224092765309205  0.1107914756614416  0.5802786887582414
  0.3552438123955953  0.5565846131550937  0.0093819313635468
  0.5707843598019778  0.1503700522184977  0.6495548007987295
  0.9586995905793357  0.0162102241367050  0.6906685288643912
  0.3055049850144909  0.6200870884152960  0.0874709382607211
  0.2730723830018103  0.5839042207260940  0.9931061569531491
  0.2128620867640761  0.8244797597243332  0.1700929492909401
  0.4482321161743624  0.1152545279231184  0.8921700659349554
  0.1435033124927997  0.1126538569520706  0.6800256790597365
  0.6943245413368281  0.8779179708694672  0.4192460689545984
  0.5308060339036078  0.8296659197316785  0.6634407860798324
  0.5740093746572283  0.7263594865331112  0.6963876440327832
  0.4356105181371877  0.3751182207902862  0.6112597615758130
  0.1875911134436983  0.0346606160653364  0.8254997777316531
  0.3167739369465036  0.2290596584298833  0.9897686847662458
  0.2630018648804617  0.1703388321221798  0.9304434667429685
  0.2750257764686487  0.1245125899007167  0.8878629745467411
  0.5131793638425484  0.0074537685624878  0.5532365460688021
  0.4812118702803067  0.0952899181324322  0.6832397047372639
  0.5432171396895155  0.0882161589633950  0.7058277928521796
  0.5823974832847955  0.1386064188617873  0.7089192811237541
  0.6228163205383588  0.1150535404840569  0.0651514537117752
  0.7599565391035085  0.0712718731056319  0.0100149470547405
  0.5241209617621437  0.1783990676039108  0.7910685418531578
  0.5764793172629438  0.2143213883283077  0.0214293408812683
  0.7336620976419614  0.2549201368566968  0.9038799962881041
  0.6846729596845568  0.2500685345333415  0.9420630559254497
  0.4849523497500979  0.2283790318571245  0.5478865180441918
  0.5674134595812241  0.3487705116143167  0.7176327684343913
  0.5775957311435799  0.0543505440179980  0.8923251713906120
  0.5201596417541107  0.2805957567654817  0.5498421904444297
  0.5038081351719793  0.9829864901465173  0.0579096406514542
  0.0166280752784433  0.9993096501021880  0.5082663831277598
  0.9560392505604042  0.9666562761887888  0.4992989316863678
  0.9519913085546100  0.9005382904846052  0.5171800381580458
  0.0237144546288720  0.9795628631344233  0.5792497536898114
  0.9483551013914124  0.0288557218473270  0.6294034039455570
  0.9445937415967541  0.0626090836850317  0.7358491681637750
  0.7903321141560375  0.8113311915601494  0.5275603567121495
  0.8823305054728771  0.8520090380006423  0.5496705802296407
  0.9391250058555164  0.8764034352540047  0.5773891376138717
  0.2672973350298959  0.8380620329391595  0.2405172894922961
  0.2619821447698913  0.7636524389752087  0.0909970315711821
  0.4419069235606046  0.5108537128324654  0.7268562437320096
  0.5461345867713365  0.4616021631665971  0.9919190128077571
  0.7741334422915825  0.0391233126734219  0.0799693667733306
  0.6324216169004520  0.4328084460218321  0.5807357389922216
  0.6532674178084853  0.5291686624821184  0.6297960752629612
  0.7373540775304060  0.4608895843199044  0.6705288243787164
  0.6841029951734972  0.1914635269643328  0.1228353457641458
  0.8061901138931076  0.5864607748742837  0.7993053267273988
  0.8146845684547132  0.5740831495312864  0.8623791502031558
  0.6937839116799509  0.2974858813438169  0.1546349897404995
  0.8767265159024469  0.7667037349460533  0.0125190104283504
  0.4944999954133215  0.4053388297971187  0.3338634113113620
  0.5974791073002761  0.3892579171198318  0.2050782707773873
  0.5361710599115515  0.3957052979295540  0.5376755999923878
  0.5496096457884581  0.4511640331600396  0.2817311749260675
  0.3983523733078843  0.5271679030996990  0.2618848261613421
  0.6501496929433410  0.4012127541796143  0.7026153505074958
  0.6936605455918843  0.4383757516511624  0.7663914537615469
  0.4008643298168752  0.5425309746403588  0.2026811522841955
  0.6353219720257270  0.4440361359579851  0.7449316145299351
  0.4059451666330642  0.6194264388134033  0.3507687447671948
  0.7223653419875148  0.5314410828850922  0.8182922193467633
  0.4360613045102466  0.4268314197246098  0.9098539703331675
  0.9915201924519921  0.0818630625103503  0.2060965544749164
  0.8722247529522398  0.8488046680203347  0.7706984148367646
  0.8325215653001800  0.5533287923160425  0.0550972958382064
  0.3071229400995413  0.6819571647244342  0.2975386058896203
  0.8064095889500278  0.6091401356300749  0.9684750382391489
  0.8160686167763420  0.7271865326714804  0.8855681338559527
  0.1539889838679547  0.7306982338491819  0.1765751463880236
  0.2124314446556842  0.8072738881336722  0.2299847100881497
  0.8436948638354002  0.6348298000966526  0.8029946828460167
  0.1622468088353149  0.8567354312454104  0.1439556642148762
  0.8611183023687436  0.7446017773188359  0.5614302576135509
  0.6948553922363878  0.7663637921320674  0.5638538684692864
  0.1661881615264328  0.8838982178917523  0.2499106958733827
  0.1320389736690210  0.9135143470648166  0.1355090079542849
  0.0388893661392678  0.0228326069193329  0.1270722645297283
  0.9072590614042012  0.8243760157068085  0.6744833811596480
  0.0222927092688597  0.8443535723755738  0.7204516618361766
  0.8208643690945652  0.9569272864595043  0.0675515454996542
  0.6716699564747117  0.1044114206193426  0.0256646867378258
  0.9201516668525630  0.8896083190868360  0.8387928586524457
  0.7664769212181318  0.6611948124053425  0.4870063985132788
  0.6053427971502424  0.6676756794730151  0.5504981152496132
  0.5877725550061331  0.2978277122869196  0.1174386934432828
  0.5436853494820212  0.3741288478393184  0.1342774677381735
  0.7605770310938765  0.5697217313325810  0.9053308491963590
  0.5016783528267872  0.3033105150328131 -0.0100657081054165
  0.4428197535263503  0.0448447548088370  0.6800999021567004
  0.4633587207366410  0.4874030947030176  0.8491423661543797
  0.5091263129493674  0.5920631748860853  0.5169021168512243
  0.9828699121537751  0.8823624864992750  0.8605710284559510
  0.6263510702492668  0.5590993482477550  0.5012820444454243
  0.4472414151725325  0.4648638547355399  0.1855315026958113
  0.7442974964085058  0.5844624001373732  0.6019304649933197
  0.3534969306093794  0.5883738280776039  0.1137524182531538
  0.3555898508757651  0.6206556615690678  0.2185204669558787
  0.7831772759792703  0.6599346903771675  0.7185108585307306
  0.3585052297840456  0.6809865974572733  0.2021682922679646
  0.2588343947176898  0.7294446685514547  0.2108797765594352
  0.7772430918267759  0.7580739879850572  0.0304586263701416
  0.5094071481532020  0.2586401170847272  0.4909660900374066
  0.3650283600347141  0.3922833208107832  0.5243708301980067
  0.4765722813029443  0.4081980109220025  0.7036023801272201
  0.8966163588456257  0.1875918725914663  0.1961972893770866
  0.3463987024152709  0.2809419241490091  0.5476457157709488
  0.3857464637125962  0.3349528917997904  0.5466504214534618
  0.3053127070962855  0.4171206743276128  0.7030606052495378
  0.3872570845154926  0.3697443663440769  0.6513975713625876
  0.8528503719407163  0.2962313099749396  0.3263988969830532
  0.4043128208609465  0.4608350214831843  0.7254827397166398
  0.3992583204914326  0.2554945052632551  0.5172098698526344
  0.4147290327007508  0.0006300415327565  0.6443239479434022
  0.9559757040890772  0.8221088440436414  0.9186227676253526
  0.4394199351456285  0.9427136164868655  0.4351467041526089
  0.7550603629426209  0.3930493662543402  0.3744810131287451
  0.8328265409066964  0.8340830555653415  0.8730574225571736
  0.7770450316718949  0.6759252339377723  0.6567589936672814
  0.7130803612668910  0.8144471570429710  0.7236361541494596
  0.4137897308526802  0.6971382214690690  0.2691689008327484
  0.4929963424985484  0.3884292861120897  0.1677486739353936
  0.5808798526464350  0.5917620916468809  0.8365785103936731
  0.7611915024804146  0.4669534467460780  0.2932984177737560
  0.8717241045593576  0.3512100796203556  0.9300048087083846
  0.8510568366583320  0.6232452547344349  0.8648892994100442
  0.9186035275827248  0.8160936491358203  0.9591892750448247
  0.5534893989284574  0.4981360319812355  0.3241369695725835
  0.7115355616417889  0.5635312835576782  0.9448783459162283
  0.5878180714708207  0.5810303999337891  0.9063158856042510
  0.5095127311453667  0.5895772281423147  0.2782600399141537
  0.6266843291794826  0.6966533159392446  0.1064415821401266
  0.6670084178992243  0.6064820352472613  0.3851331311358000
  0.5239232843858888  0.7419090115207693  0.3464556329260902
  0.3483526223158212  0.3197130904673584  0.6489564679191716
  0.3490759030105657  0.3544354730622240  0.7519866192185378
  0.4821412131517256  0.8611816446148803  0.4102721770120343
  0.4253945057150479  0.4370363854903598  0.8473099056114214
  0.4317948960246359  0.3325200691597937  0.0528536438384288
  0.2227917007581743  0.9326560537357266  0.1984026840231437
  0.2215203349345445  0.2144766417149471  0.6823798227976869
  0.9059246545229503  0.3260313682584390  0.3382957078101539
  0.8052773468141863  0.3760523481707429  0.3426998330316353
  0.7048935837410057  0.4225970932691400  0.3445431785065776
  0.8141376246359407  0.4859375486060937  0.3644503818133897
  0.3826201973580319  0.3200911884580349  0.9438692937220942
  0.7659505232257022  0.5649587137340517  0.3808421014641988
  0.4462209487629464  0.4184630656164477  0.9698565782476227
  0.2256099797306726  0.9617050725192240  0.5424916658876473
  0.7523883932099873  0.3581000133410320  0.2692470858456465
  0.7892876386727136  0.1905563549062671  0.1613185513505893
  0.4270642872394622  0.8329292112974701  0.4037527344687591
  0.7045919398445888  0.4038142870685408  0.1803062806054703
  0.7867769090313231  0.8294994336133746  0.9150391987969745
  0.3716953917968623  0.4915585209419681  0.5377646241706355
  0.6064601387772470  0.4970351374624510  0.2283128221399245
  0.5279123041665003  0.5504013198783113  0.5849557860349908
  0.4695939901782434  0.6587938517141319  0.5263350814498614
  0.7085555213182506  0.4514774048404222  0.2240633074877010
  0.6125300668816506  0.5585227720150993  0.2093445096704356
  0.5608453407460824  0.5736975616444787  0.2429032732722950
  0.7182752757634565  0.5595967766843917  0.2460857733186691
  0.9061665659425966  0.3629650652081115  0.4428054451067022
  0.5738409926622969  0.6027293521542402  0.7707620328134123
  0.6089317978852123  0.6935992905346158  0.6582893740804447
  0.6128163079081093  0.8846946542574708  0.5594654806967870
  0.6203344557419141  0.6381804904963756  0.8370072287778694
  0.6863328173675637  0.6007538079735969  0.7517950655117117
  0.5967621884148413  0.6980517101126241  0.8191381135271184
  0.5696419892470587  0.6360940210152185  0.8783095266360710
  0.6672816766868571  0.6804510386262834  0.8994882656055729
  0.5192694116884362  0.6977059454890431  0.3030559396848174
  0.7148435233500705  0.7197971117758662  0.9664687332744026
  0.5248077515062808  0.7582751416497968  0.2860925205177069
  0.4226591785791301  0.8057383350062920  0.2968558899785599
  0.7621864151793650  0.3174432080881803  0.8445117971410966
  0.8365407929687650  0.6358283297104939  0.5719371663617216
  0.0352800003082693  0.0058590774017722  0.1882297739094567
  0.5130062814847388  0.5278560155701483  0.9094726379029678
  0.6967922517272060  0.7417376386559847  0.8417908681688115
  0.8993508149978069  0.2171580735122157  0.3035301643300919
  0.9110805301738553  0.3435815948530382  0.2780341346930798
  0.1658393133739499  0.1292012147795612  0.9078874789880678
  0.2471111003909301  0.0649449944034480  0.9537327535922686
  0.8163874490384447  0.5780346668629442  0.4610763079536876
  0.7102323311137417  0.6359838945509513  0.4770970916633677
  0.6095567255465825  0.9442109952830374  0.5356445883463958
  0.6639727797031206  0.9471379614450032  0.5712071949380787
  0.2373201145687575  0.0742749692044735  0.8884674686681151
  0.6795671187389649  0.7113778789900469  0.4081979277594146
  0.9512571713241993  0.1846260570291987  0.3290065353115181
  0.2153464110928262  0.1785673686703036  0.5775426393319231
  0.5750169822499951  0.6279943870059846  0.9420838443225005
  0.0059920595525684  0.2319850272746349  0.2799075947625007
  0.9453662360401246  0.1407140766127824  0.2854794286653296
  0.6599276577844077  0.5137447717239653  0.2997560356978879
  0.7064432002732240  0.4366625247359404  0.2844774454044210
  0.7456414562129418  0.4763704970782931  0.8356025413776871
  0.8872869997689546  0.6742526214075000  0.8663249773543786
  0.1206048288388949  0.9617446107795020  0.2682973043005483
  0.2031599933660435  0.1068670265293572  0.6992484564027133
  0.1441590177168166  0.0726375465357390  0.5808188104562111
  0.7299347911286214  0.9554147757480059  0.8130387565514684
  0.5568003186339852  0.5077415646970702  0.0386292865337674
  0.4301719540704811  0.7520117023119817  0.5384962371609932
  0.5028758682219094  0.7646425496791430  1.0019155146275565
  0.4795367693498325  0.7917373027466568  0.6017578039376185
  0.5891101604159525  0.8260464515525566  0.6834592497955289
  0.3881515534342215  0.7510829123250102  0.0299183814179019
  0.3489528336620040  0.8046088048647185  0.0517587842425388
  0.5596313525498832  0.8851673178561537  0.6012582050919638
  0.6675181178630616  0.5337061629745268  0.4697414346900917
  0.1402249431498009  0.1259023154421062  0.5102042771463624
  0.7362893697586053  0.7223565859879724  0.4786996998484654
  0.5116521870737487  0.8496063451576813  0.5398934347457263
  0.2643867936084660  0.0999293880001465  0.7208185481211301
  0.5661036227206345  0.8372074399895375  0.5636452980349044
  0.5444910571406298  0.9352671570779879  0.4638051512198416
  0.9541248090448018  0.3209776054894731  0.4636920792993167
  0.9637069782727470  0.4327289323700910  0.4976921597256773
  0.9656560528843036  0.4510655062995322  0.4286300921117620
  0.6074366964271413  0.9451007425462996  0.6038059152387004
  0.4192338701012971  0.5704836643990673  0.7082325168394785
  0.4434381963230037  0.4783217699572223  0.6240488494010048
  0.6808507504229266  0.9172090739066184  0.7505096728228087
  0.7350283837339463  0.7909270357082410  0.8464126982663289
  0.6706396350543490  0.9622719976047064  0.7921917471017549
  0.5834219220154175  0.8177016080004391  0.3991597143608732
  0.2440162384990431  0.1915825736870587  0.8065650965152401
  0.2933280089921632  0.1961553092795021  0.7659143871150691
  0.5822664423686095  0.8003662004037645  0.4602969789382449
  0.5308301412033227  0.8115491945358324  0.4985535958184252
  0.9001518482262983  0.1762674163787073  0.4250833888974326
  0.3925836255562106  0.2754529898172944  0.8932634401960061
  0.1868548671056365  0.0128415561379488  0.6189879670999273
  0.0058906390779074  0.1984947731863251  0.4000848240584439
  0.1483010641884933  0.9996083470804072  0.7268250721530998
  0.1936601949316246  0.1514230381155318  0.7420959043256958
  0.8694538597326686  0.7309496263205102  0.6224323014652250
  0.9100405486526763  0.2466242525925721  0.4092455248821922
  0.0268830760695101  0.3643631963554677  0.4738477837891690
  0.2377248616703549  0.0175817876886019  0.5790660681504126
  0.2703315636770604  0.2186754136502533  0.6418078735701142
  0.3812175943677897  0.2503669097143621  0.7294586910635610
  0.3933689719152952  0.2393052203105188  0.7900900415311609
  0.6789793229497941  0.2927657351398537  0.9840913112429143
  0.5035765662690287  0.2701912361888197  0.8762493341811307
  0.5532217884240408  0.4490967347989926  0.0543347669092024
  0.5099437629948558  0.3729910260949221  0.8914572894702286
  0.5017928618535580  0.4641800752468161  0.0898972924276488
  0.1337443486640105  0.0623419383550053  0.5222690863450548
  0.6002948725492043  0.3716513064096937  0.0378269029094297
  0.2495805136992764  0.9669265601501206  0.6032132870838846
  0.2675246409736935  0.8698534341168283  0.1177009712528498
  0.4147217028885303  0.4494144497006830  0.7867022529904742
  0.2134135436860798  0.8419618767997027  0.1099547154436120
  0.4979634855816046  0.3846425987958963  0.8288333759972809
  0.2348435076719881  0.8836119806042155  0.0589478176135020
  0.6181509834433357  0.4064218769122935  0.9749966539700379
  0.5702789922881534  0.3671299391068220  0.9122055760710830
  0.1343990130835677  0.9293806533756217  0.0741457678258444
  0.2364174503230679  0.9292261305710295  0.1091904041868842
  0.6833607964812241  0.2086481461494318  0.0629869503365769
  0.2528032446418816  0.1899692236947417  0.5336403030975855
  0.6129766690828576  0.5271900533406578  0.1060943260284378
  0.4487418049339859  0.3298946534654063  0.5690403714520673
  0.4552655721111708  0.5421649230366115  0.1083123974688870
  0.3180539480025660  0.2233760251626978  0.6039602588186709
  0.5163222972148235  0.6334058033508373  0.0932818331832585
  0.3227343980070347  0.7517673854947846  0.0576373239047284
  0.6583372428928916  0.5619774567076171  0.9899876291876931
  0.5035881063838924  0.4737013653253579  0.6442751445251412
  0.4631549389834123  0.0769815646942630  0.3335135234127009
  0.5447162736506742  0.5322403525757935  0.6488991115248232
  0.5023106465792557  0.5034350334073104  0.7485808459051904
  0.6241313840603006  0.4870605775824371  0.7878953725809105
  0.3499870645754969  0.5731537586606016  0.4028822744285582
  0.4247168717896928  0.1696003525911496  0.8729556179781652
  0.6113931045579626  0.5311956057358064  0.8274861577719378
  0.7014499436935847  0.5756746872862004  0.8812768647471625
  0.6433301336828617  0.5843622308417344  0.8587192741284571
  0.2206100353072135  0.7470664523710384  0.0252034457043220
  0.7337399626467571  0.5245612915295849  0.8764109095060900
  0.6886434117253525  0.6213224585437930  0.9180732658186417
  0.7305489678398256  0.6673459017967698  0.9835028093439331
  0.1842019446994817  0.8530038263284343  0.0546994749655670
  0.0807606498851250  0.8990666494947821  0.0657745711882784
  0.4645073231840358  0.6510627773368868  0.1297852425799299
  0.4445931742344723  0.4503220740690427  0.0170030197879652
  0.8009089641659929  0.9013277879279293  0.7931210828106229
  0.3651290577576023  0.1783004354442480  0.8495467792072586
  0.5582464451565686  0.5267949266041387  0.2011913135697393
  0.5356359414911148  0.4328149286364734  0.8282767523643244
  0.5738171096428080  0.4830169803504473  0.8301417970072356
  0.4673602749558906  0.5707812971658583  0.9868121219029823
  0.6833725979032429  0.5195970004924078  0.9136877207714768
  0.6234669743819502  0.5234750349178342  0.8917560276385562
  0.3035569133181374  0.5716107037016634  0.0455870768448966
  0.7770944157058326  0.4092843333407527  0.9183113027924370
  0.3597611691061726  0.6495874805339398  0.0940046758921513
  0.3490469237061776  0.2231898315659230  0.5077467746336412
  0.5627433436012310  0.7678069419234074  0.7390639860835569
  0.4130052327823366  0.6646488162223658  0.1645873655920773
  0.3752283694118757  0.1330268860175350  0.8080773188967840
  0.6429860816667500  0.7587541198030505  0.6033590308707827
  0.6996334596238913  0.3588212539039103  0.1371732031202172
  0.7257624450435588  0.8580625670136525  0.6067388335529733
  0.6749541164165580  0.8544975787202879  0.6480887927515409
  0.7531231141686507  0.7822923268000436  0.6871986383528996
  0.6041809209157070  0.4506046254728903  0.1861694833037248
  0.6921344563462090  0.8702421606113285  0.7056559338708921
  0.7958914033583169  0.8307560665679214  0.6909681713480277
  0.2664966374506217  0.7210458607669117  0.0505737504640901
  0.5647404203919141  0.4951287546285085  0.7701874582495208
  0.8155056171526124  0.9938453065326827  0.8732126519192656
  0.3157044645903368  0.1375228205885019  0.2950683372559462
  0.1782627385090697  0.4038620195298985  0.2298597627214179
  0.5693113164513164  0.6505874927593331  0.1638625897026957
  0.4189259570907273  0.7139607648899673  0.2116680210712888
  0.5297090393189935  0.8352101766267198  0.2084917849892320
  0.3738100090033789  0.8367043055698679  0.2722673870556812
  0.7451507513140004  0.7947536081901172  0.6292635616462706
  0.6637381598904457  0.8098701429311284  0.7640308288432767
  0.3291261079232499  0.9306433294896541  0.2293336809095264
  0.7628603316932773  0.8533973542352543  0.7893533117041973
  0.7127692136258696  0.8820095268578690  0.9360532968952945
  0.3305598908907516  0.9488436867582120  0.1696411941943601
  0.7517658871048559  0.9351187528846464  0.9371099376895686