Cr  N Ni 
 1.0000000000000000
    21.1208425590115922    0.0000000000000000    0.0000000000000000
     0.0000000000000000   21.1208425590115922    0.0000000000000000
     0.0000000000000000    0.0000000000000000   21.1208425590115922
 Cr  N   Ni 
 259  17 605
Direct
  0.9119589492145762  0.0839712879176603  0.8354990914501524
  0.9981476895182568  0.1665854674358003  0.3315151508819001
  0.1657899556647179  0.1674429708392279  0.3245345809465779
  0.9887212588825161  0.0831921642224636  0.5810043677800550
  0.0829595923685307  0.0863194867455491  0.6729727775212628
  0.9033136166423655  0.9191331894846672  0.8347834329135615
  0.8317363333592290  0.9185775404856527  0.9205912047330762
  0.9987806624978296  0.2517323271217148  0.0842984803114070
  0.9063638777361810  0.8393031060688235  0.7497839097935473
  0.9968065500076622  0.4169984320416255  0.5800413465681874
  0.9983658517794349  0.2489806753103305  0.9189417610985174
  0.8270072202710388  0.6655398839467839  0.6638301894484859
  0.8219394327344776  0.7475281457525964  0.7473246306541261
  0.1670331921275804  0.0009007815076965  0.0042407787929429
  0.9981335540634916  0.9973359347006304  0.3317252467441608
  0.9962060907590107  0.9242190853319036  0.7475958153538863
  0.2556820026117924  0.1673100477644494  0.4161822115429803
  0.9132844590605936  0.8317346811455310  0.5814724707591243
  0.9138153027747702  0.0832719252362308  0.1671308979787859
  0.9993719465793489  0.6597918546280688  0.6668583505840214
  0.0816970798775682  0.1721989686838786  0.5814014162861221
  0.9976970663725334  0.2504792524567475  0.2493978373510317
  0.8314390888209743  0.5824964889522246  0.0850710962789431
  0.0825461129193854  0.0840118226512638  0.0047782718627000
  0.9938170657703398  0.2497053717600021  0.7538586536729710
  0.9133940121864387  0.7461343783967235  0.6598572582248031
  0.3330556735488555  0.0002302720410618  0.0029353288365839
  0.7470956104388289  0.8324120200958867  0.4141254038209569
  0.3348405369360466  0.9172136100542880  0.2490128881127545
  0.9131346986377104  0.7480569354063424  0.0044879039101395
  0.8302593837895753  0.4168815368450253  0.5806345422985092
  0.7489083421055740  0.2514518784048065  0.1665991000865105
  0.0816127939815425  0.0008410406035512  0.0840894202303865
  0.9997476454358073  0.5830270352864768  0.0852171264377029
  0.9981012798001434  0.3330663214732356  0.0023181692324267
  0.9988291385195838  0.5016479974210192  0.8362693158168742
  0.8292342519678275  0.5842245779076108  0.4143203525274400
  0.6654961578221974  0.8334538035069907  0.1668749239077968
  0.9146211785315762  0.3330449792416043  0.2471306798563333
  0.2534374930502196  0.6655953809617443  0.5811537021379414
  0.9157402453442544  0.3333634582131934  0.4158410543966439
  0.9952749323918172  0.0132124133223663  0.8356254332062821
  0.0832990433333422  0.3367205643973359  0.2482003619433344
  0.0818089524426080  0.2425901502623260  0.6683047754663494
  0.9130782186893981  0.5023423323546072  0.4149849167469528
  0.9967067100100536  0.4158022224784361  0.0813745924543079
  0.9122362761306863  0.0855669419211507  0.0043235644529673
  0.9051165221483485  0.4168807465339718  0.6672923995624959
  0.8324692189942947  0.1681331967229201  0.3320204091714224
  0.8302560057580398  0.5016283557963396  0.4969186420448092
  0.9135825977628085  0.5010815796843830  0.2502533650635297
  0.9983685354983539  0.4202348805196439  0.7617266282848039
  0.8296461558985010  0.4991883725806147  0.8361287686816203
  0.9967791303666566  0.8323949553059133  0.6562927529643352
  0.0822347789181423  0.3355015527625963  0.4059176688924679
  0.9148570040839156  0.4162224495517571  0.0011036030695305
  0.0818815899421218  0.4181793015620483  0.3305785235362104
  0.8292299402166923  0.0038041068115933  0.8339420301876140
  0.0839323457646531  0.4257126720138864  0.4961965758576609
  0.7483899527020440  0.0846757444873681  0.6636545764528736
  0.9943162898640652  0.3277800856086758  0.6687765575539149
  0.9137927817470038  0.0823882396508741  0.4962481863497609
  0.1652118334009986  0.9161208654265072  0.2472265666116655
  0.7473030341342071  0.3317091381268196  0.4172991329505751
  0.1673119352620896  0.0774187350892989  0.4165735076553174
  0.6648625895564031  0.6661817100144711  0.3329364361268569
  0.0027567944355849  0.5092889255047360  0.6674797922289982
  0.7503361395732117  0.9194307389547075  0.8344637918232598
  0.9134078571079921  0.7497631867038566  0.1686547899641412
  0.7479057062776951  0.1666036015074604  0.0852564394368527
  0.0817009414833040  0.0823520344461282  0.1662506881472279
  0.9961726380801554  0.1651870488779384  0.8356231251817947
  0.8302649186810440  0.4164300902146274  0.0840660459833511
  0.8287550979221412  0.2496299564029885  0.7505754558836608
  0.1746454143265113  0.3355448049407974  0.4992603112005450
  0.6663527369355022  0.6661260284930348  0.1668601213042368
  0.7474104509070495  0.0004741473143522  0.4154455407926494
  0.8314348585638376  0.0842084285593468  0.0853275935468839
  0.0808510538673307  0.4178648879281056  0.1670235696149565
  0.7489048582322615  0.7507387428226864  0.8335329536950997
  0.8287938624201288  0.8342056101955452  0.8360649538455152
  0.6680069744127227  0.9197940691006482  0.7492064519287176
  0.5813424990352691  0.8328194333075334  0.5827115734753729
  0.5838773769224664  0.0830859827473248  0.1679661576510640
  0.6642827585379685  0.6647195706735950  0.6657039934851753
  0.0824702532292774  0.6640424649834132  0.0873784623628329
  0.4183008165334209  0.9162683534684469  0.3316326942251823
  0.7484960195594464  0.5816037453062805  0.4967283898159792
  0.6731711586952679  0.7486969842413410  0.9194200211667505
  0.8308605321793020  0.5808389650963890  0.9179834043409989
  0.6657892891211591  0.9996401745548295  0.3326927907677924
  0.7461838084881147  0.7505561165803579  0.4980203704403105
  0.0818131416446394  0.5826893112996673  0.1654109678983138
  0.0875259635798656  0.5837754648855705  0.6688272426950307
  0.6649848135587867  0.5813090390257434  0.9167501394887484
  0.7479571455976125  0.1666382288054140  0.9184577648893576
  0.9989726540534642  0.5946553746619885  0.5789635244950678
  0.0828600728416787  0.5005697173558887  0.2487736840446718
  0.7477156401494806  0.5005810621600469  0.2492791221557171
  0.0870069040380225  0.7438304228463281  0.6685984436835146
  0.0829632479999459  0.9169010554794409  0.0031897530659705
  0.5827942036259285  0.7492133039251413  0.0107751159681220
  0.0835936921141560  0.8342148210892977  0.2481259318797552
  0.2515264263512614  0.7495042229616662  0.0035666621344319
  0.7501523614336868  0.3316335862219887  0.7498150553915482
  0.5831557377436098  0.4153637890032131  0.6666031449274045
  0.0857245342578085  0.7494635510700244  0.4905236299081657
  0.5811625184027984  0.5830850412446005  0.4986736623070371
  0.0834368282091542  0.6667685972932132  0.2487121062829897
  0.0875976535143745  0.8307083788200389  0.7439617934357555
  0.0018748623657803  0.7428702474697474  0.7433319280540133
  0.1666266081239798  0.9155254151653653  0.4140057301299196
  0.7456229436533908  0.8324312703066570  0.5810221430502773
  0.7501225510331040  0.3324810199551440  0.9161374235326831
  0.8313361051888197  0.9989245548527803  0.3328476563380592
  0.8312803070916818  0.3327204635509641  0.6649980992370470
  0.9149482916378955  0.8313471884113633  0.4153000863367621
  0.2510050991754594  0.4154465387668446  0.1660289024788535
  0.1618006291156764  0.0843703904898659  0.7503976369476700
  0.6660238167221861  0.4163586382090707  0.5828649981828283
  0.9965136011751083  0.2511195980179760  0.4122708069294841
  0.9067164553793470  0.7498658257275279  0.8377393895009465
  0.0821640317268631  0.8365628923979815  0.5842686506567398
  0.9150638519721649  0.7504255418100894  0.3314842862004482
  0.9147399745182013  0.7500222743384635  0.4970361276736783
  0.7472288898179194  0.7490892251209239  0.0030509670938886
  0.0878433333811536  0.6584536778879637  0.5796699501626049
  0.6650947068013480  0.4149948850413185  0.7488660164229052
  0.4945947562728605  0.7490754771340035  0.9195626128298826
  0.5854074963539543  0.3343270044040257  0.7474187971241438
  0.5011332085788363  0.7498074816450268  0.5819269258825306
  0.2493299662497709  0.1677085747858233  0.0855060552503713
  0.2503532606890057  0.0853111769474564  0.1680227667413580
  0.6665086421426619  0.4181726205066120  0.0843832462488722
  0.6654323908855508  0.8318800603309385  0.3327226717796808
  0.7476279973088946  0.2508912812350231  0.8345582951101010
  0.0828773359707681  0.9939515312418920  0.5803766588311016
  0.6655416355540636  0.0006129945194837  0.4990586088759478
  0.9975451576446273  0.9173272668084883  0.9278708242811452
  0.7485344618641429  0.1669422242426173  0.4143875834060458
  0.0857376328408495  0.9214824829641503  0.8370110466889922
  0.4985943430530513  0.9173989125471298  0.2503820906905531
  0.2493205951810507  0.0003363336153762  0.0854145548367906
  0.4179215693337445  0.0840792733420822  0.1659261297956581
  0.5848745113644681  0.5013498477819848  0.9159138492136969
  0.8278241917527490  0.2484596109413831  0.0856862549977304
  0.7488468957406845  0.0832577889941570  0.4973828662116232
  0.8305248273175861  0.9169130762382077  0.0863317471506229
  0.6657913304315428  0.0841491230358350  0.2510405858885636
  0.7486494911534264  0.2509208067935556  0.4971617257928770
  0.2514753244421381  0.1714135693861698  0.5805659254662181
  0.0743719986576464  0.1667875557052496  0.4132231709404575
  0.5878414720808156  0.7505662909511744  0.8313372574778696
  0.6645708460786430  0.2499809985727961  0.2509098051577942
  0.9953993239791756  0.3337674926623250  0.4977773671209735
  0.6689067822986624  0.0012807774939845  0.8331301177428133
  0.2506203151777271  0.1738380552795690  0.7503659442364113
  0.8287787806688752  0.9995793983577013  0.4977794083493230
  0.4191587625626800  0.1677824221659276  0.7513220246685355
  0.1667423637843806  0.2521327543739899  0.9189964615310403
  0.2521737736149847  0.5833540598334190  0.3333638238553846
  0.4170708008574116  0.9160656767238493  0.1684160463093711
  0.4994884012526349  0.0839951102558907  0.5822189802529266
  0.2527960052606579  0.6644984590858636  0.7502308651956191
  0.5809140493734271  0.7494342702694774  0.4983491165458228
  0.5001546155954697  0.7482240259298698  0.4167228762894433
  0.4997799621301464  0.7479765439355122  0.2501869935803743
  0.5834900029613106  0.5806593647363201  0.8340807224277319
  0.4177469478746772  0.3338061272181903  0.0831343604976772
  0.5003053945967842  0.8409192739547623  0.8344792983154663
  0.5834161818672134  0.5819194163137322  0.6660171592440605
  0.4174803118403331  0.4998367213708763  0.5820098735456825
  0.6649905132152495  0.4989859196818739  0.3323489871378115
  0.3323746187343503  0.7482524546548607  0.2496460494296781
  0.4178011393639774  0.3355424502877170  0.2501954820390254
  0.1649615632918967  0.3336497730040759  0.0002519945467260
  0.4986142488995873  0.7477273523865897  0.7431048391217294
  0.1682416209328978  0.1700075622459529  0.5021421941043017
  0.5001920662046633  0.9164838610849527  0.5824594079769106
  0.4187385296342169  0.2581035993222759  0.0016792318042920
  0.5837932838869613  0.2514337141261081  0.8333368114616027
  0.4183656622172841  0.0836248306358257  0.6668573131909276
  0.4187452927883640  0.4168242829831945  0.3334546135405563
  0.4165591182433552  0.5002878670129813  0.7496539011333658
  0.5082566199326599  0.1676241907382514  0.0012892029843120
  0.5838362154546735  0.3348838089106433  0.9161755967563197
  0.5840167900576941  0.8408784923378495  0.9176489868117712
  0.4999981614447919  0.4173949092897005  0.4154969357063721
  0.2495480278467407  0.0832691438826974  0.8421166928116277
  0.3340222809400646  0.4991859368397522  0.0003172201490754
  0.4180068461690474  0.9157742064892195  0.4978721208920357
  0.7480535498620176  0.4996467218705214  0.0850570952978950
  0.9951100695205685  0.8334397117389778  0.8378991590995112
  0.0877830097506416  0.7423303635692383  0.8350668064429041
  0.5825363292575741  0.3327208430596177  0.2503630033160434
  0.4985253066363014  0.9995426989243561  0.3313384971976777
  0.4999005794226183  0.9980400546270206  0.4992525947427596
  0.1671525295578566  0.5818642182470742  0.0845316130595647
  0.1694893505039133  0.4185798349652586  0.7536817931499009
  0.2509468204141284  0.7493355340165939  0.3318853908551046
  0.5820540900405526  0.8340674265136694  0.0843739513281788
  0.2528767119718476  0.4170915377592890  0.3311438026362141
  0.0829002724306879  0.3355887928833679  0.5815798343238994
  0.3343181369057464  0.4171347436021708  0.7503313494635589
  0.5834116771573409  0.0823193203821776  0.8341408192160007
  0.6662706650825122  0.4990906707531430  0.1688830882358640
  0.3449347801651827  0.0836964650789723  0.5843271924202694
  0.1657426532150555  0.0005492422207224  0.8360069800275894
  0.4178266762368024  0.1665344953705807  0.4144176193529603
  0.1660548143609639  0.0848033246322784  0.5793958759977328
  0.3333081456093971  0.7488236608365777  0.0854615589994441
  0.3351417426784003  0.8329975674669352  0.4978200210689364
  0.4162283237830915  0.5806618086046140  0.8334971902073662
  0.2527139927623462  0.7490446928417642  0.1676258924631111
  0.7500931209122834  0.2497814189142554  0.3342046672518134
  0.5817557351251407  0.0837042639259097  0.6657232363400082
  0.0885547754650401  0.4197724824847210  0.6684705088414823
  0.2510580635875125  0.0007691991956213  0.2489818419356616
  0.6652739063459003  0.4998777469817043  0.4987924618094892
  0.4989598079033017  0.7489859675261900  0.0830367184975637
  0.2507860654277472  0.5818598915907019  0.1657815801947605
  0.4993200335485759  0.5001270936119183  0.1671390827016054
  0.0840919680881674  0.8339633657108450  0.9281551371416014
  0.2525023996573091  0.6641340340795846  0.9183191979722699
  0.2516106012943867  0.3346201144839455  0.2476771552745361
  0.4181528711460512  0.1671297795776842  0.9137510363323008
  0.5803335627505740  0.2501932971477862  0.4986647690851787
  0.5002524218639139  0.5001956005873384  0.0005629766066862
  0.5009586226374683  0.9984550001049000  0.8324114104624345
  0.3346878068911056  0.6657722820734950  0.4986275396792275
  0.2496933912606139  0.2518457990896721  0.1678511697119351
  0.5009828766311947  0.9997469771324138  0.0024782815491925
  0.2524100564625372  0.9924314102156221  0.5825675848390377
  0.4988650412294139  0.1679802928993168  0.3324623983066097
  0.5800918991739115  0.0825290045599605  0.4991615672864720
  0.5853247245108026  0.3357068113878175  0.0849221031221387
  0.0823233216760390  0.9154113479185461  0.1682570523376994
  0.3331316989951933  0.3329002543710357  0.0024899891697580
  0.4168038808818409  0.3356422617518649  0.7499219407684334
  0.4170183103951755  0.3349618026526974  0.5815476096858115
  0.4148267921358523  0.6645571329715426  0.9194075839131859
  0.9989373169472093  0.5016914613568566  0.4907327870070335
  0.1684938539139700  0.7494233700487742  0.4149356849260934
  0.3326102731437733  0.2508205014016279  0.9168803835794977
  0.3347338547752906  0.2517583778586062  0.4140085441260540
  0.1678948160232381  0.3333186802819984  0.8358312656066217
  0.3339439485664659  0.8332400713269155  0.6660086308200306
  0.3307353772079771  0.1698676320156229  0.9998989344623024
  0.4161579032987192  0.3324994327393762  0.9184419375100673
  0.1674614747027404  0.8319896389318441  0.0031596560092041
  0.2517236640762783  0.9961443225129011  0.7514108270460005
  0.0011946599995674  0.6558269792336642  0.8389510518666591
  0.3327374913682831  0.9183384118022900  0.9194915620630599
  0.2525814978777775  0.0833861750512119  0.6671515373810101
  0.1768102362697189  0.8320921374068437  0.8353579943023323
  0.5008735697771157  0.9161207427263544  0.7502023839205896
  0.2521204813540854  0.0816558500315428  0.4895713716344385
  0.0846275420330050  0.7479748281671887  0.0021630319039245
  0.4180348262676102  0.1668810834871038  0.0911688168922246
  0.5842856974199221  0.7507963891935726  0.9219440512797602
  0.0867643995790198  0.3299096897319670  0.6699312321513299
  0.0767647723028924  0.0828296862223791  0.5831698205635799
  0.0855580115566771  0.3366248194467504  0.4928698897758570
  0.0894144608522694  0.8320560815105613  0.8366685963347714
  0.9973594523270608  0.7422481570472937  0.8382027499252128
  0.9093472556544617  0.7474311971907599  0.7481097968954927
  0.4196127398906018  0.1665969402805036  0.0024140779558171
  0.9955110341387404  0.4187916055716757  0.6724981642245418
  0.4967446790430192  0.7516716466667762  0.8299037252169105
  0.9939604500760169  0.9254643809666057  0.8390069702863776
  0.9989672231729528  0.5068296927494446  0.5786554040153347
  0.2527397436519934  0.0851304530597260  0.7553126833190769
  0.2560253835355498  0.0816530127059432  0.5781763406126783
  0.0870608542950034  0.7481162326073972  0.5794599702347225
  0.9974589863579428  0.8354477867621661  0.7447685168836939
  0.1648711844826657  0.1678725244617603  0.4123643407038706
  0.1673758147620750  0.8331179678874073  0.3313219834951923
  0.1676195500049568  0.9151889412545099  0.5823268173482573
  0.3340320954864376  0.7494291074615309  0.5816461158479592
  0.2518894478468974  0.9154363132616090  0.4976087816613757
  0.1688356422505450  0.8333260574811346  0.6660013337737025
  0.1678928750175558  0.9180480434780180  0.7499822939983937
  0.2516255373084874  0.8333982818766967  0.7503058101319168
  0.2512945737275242  0.9159083503831899  0.6665055052801513
  0.4172640641287935  0.0001661624236530  0.0849598085747976
  0.1683073215326221  0.9185490648706209  0.9207297205694878
  0.3316886535719946  0.8337920982927950  0.8352797646562862
  0.2506707876098285  0.9172332608406768  0.1677378449387052
  0.0829028182766063  0.8320896441677225  0.0845049530777557
  0.3328841932712297  0.0845062863617043  0.0851104969577246
  0.3339148372149566  0.9177105003056037  0.0843706783610211
  0.3337236414446132  0.0009540637759347  0.1664240418261520
  0.3341750683271265  0.0833882912582936  0.9186161266206462
  0.9143386188394871  0.5835996554721661  0.3317870014029451
  0.3341382148251956  0.0839790737453017  0.2488951659302517
  0.8313049031396770  0.5831515736014090  0.2506021291943238
  0.5020189777380926  0.1675834621800837  0.1674784870139626
  0.8318659288359146  0.4171068779367965  0.2508799927699494
  0.1676044088161023  0.8315666270085850  0.1666776880843078
  0.9148005634536918  0.5824685790054144  0.1672366067708109
  0.1663430923315875  0.9159139897343436  0.0862114431682341
  0.8309482109421146  0.4997639311999483  0.3328485240100821
  0.3363822858130498  0.9979132149987437  0.4975890572544220
  0.0821506238682899  0.3340151893924678  0.0840229608556795
  0.5004574930435423  0.1680419729161954  0.6670574154800888
  0.9987421124538535  0.5840814852214349  0.4120642053113632
  0.3409662100402757  0.0847918308230102  0.7508219699846674
  0.0807505223164292  0.2474499611618288  0.4974928448196069
  0.4188931361867298  0.1682532469983257  0.5828610376034906
  0.8287460184533908  0.4999502484599439  0.6657148305521204
  0.9975427045353442  0.4175627795493015  0.2493463786606320
  0.9983157079598918  0.9996310772088312  0.1665898893217463
  0.0811968046114935  0.3339414454843490  0.7571811994764187
  0.9142054146949447  0.4172393553968060  0.3317873133600975
  0.7482621062747222  0.4152015330093357  0.8342167731164124
  0.8318618152998858  0.3334634349213617  0.4983887374090371
  0.9147293471502902  0.3328795365202875  0.9184849149199276
  0.8298688154337862  0.4165751285880617  0.7512714798609313
  0.9974448603096495  0.5009316353050185  0.3308142072334593
  0.9139724794468583  0.3330272261641788  0.5815952448357966
  0.0814765677104197  0.4160369373590739  0.0007121417166475
  0.9142650695555827  0.4177199225328517  0.4972982270700763
  0.7488122143544171  0.5816912178121160  0.0018548464303525
  0.9142672650372301  0.1669636850599213  0.9195520844407508
  0.9139284108116718  0.4996259306155246  0.0838244058749102
  0.8312234288551934  0.3327291002721486  0.0013164432293777
  0.8312029781022618  0.4996937641422829  0.0014729607467884
  0.8317446546198574  0.4996104330702079  0.1671475810626394
  0.1659893659206131  0.3351560192590429  0.1665820804168398
  0.9989477101786254  0.9160899212213847  0.0849976999936549
  0.0818461396461061  0.9990706887375371  0.2483165711431134
  0.8311888389793505  0.4169329562509440  0.4150224528709809
  0.0890213410386600  0.5028406515182415  0.5829166960159214
  0.9142742963711633  0.4173499463823437  0.1660766193012035
  0.9139835393829813  0.1679379700291347  0.0849392026024893
  0.9136126364878940  0.3326463460053878  0.0848982162444409
  0.0822959334184783  0.0025607947705268  0.9219804373924607
  0.9979689661389617  0.4167648556195480  0.9179096075835553
  0.0812155585339922  0.2503640144119947  0.8362829870167157
  0.8312227630486443  0.3339919724759486  0.1668359181087137
  0.3359975576000352  0.9980838600650362  0.6669757725390906
  0.9966465010795565  0.3316974594766867  0.8360317584620828
  0.8288897408412694  0.5836652043756110  0.5803678606776148
  0.0852252195581232  0.5010405394097649  0.7538622069240221
  0.9133330299918863  0.2490256268556982  0.8356311279848895
  0.9971541121848283  0.4996450957308358  0.1668428982237348
  0.9121331128407258  0.3326952471232860  0.7530349188229655
  0.8319026543991163  0.3335808684093772  0.3329766566339984
  0.3355629032094178  0.4173376107170071  0.5828819098052254
  0.9147683243461855  0.2504157706929410  0.1665119827788101
  0.9127788787378937  0.2500527757201306  0.6671842163754321
  0.2507278019469502  0.4987830576897944  0.9195757578410180
  0.1678702512916267  0.7492699123640690  0.2494702280190482
  0.4175159112112087  0.5821806090250404  0.1664665654429515
  0.1684005579850330  0.6661293989243656  0.0030283479772949
  0.3334192479086165  0.4992647369035475  0.1669988037932912
  0.2509427907347305  0.8333773522818886  0.9207714504902547
  0.0832619207938418  0.5827619045021187  0.0035033446096134
  0.4168966532627441  0.4995408864372977  0.0836370912680904
  0.4983438756740672  0.6649433419756144  0.0014678547020687
  0.4998615984843235  0.4994356702607708  0.3334459008608021
  0.3344029120764780  0.4995311337584075  0.3320066229045224
  0.3333420477645920  0.5818328465950454  0.2498791870129363
  0.1705800105835827  0.5826049446234274  0.7519782616659346
  0.2517916100481791  0.4985902361203756  0.7516471025007265
  0.0843016146533967  0.7501150902852980  0.3320680581880745
  0.4172130074569061  0.4167405549226311  0.6663783036743351
  0.4167964270273317  0.4170905357304314  0.8335549634015792
  0.3348668644463061  0.3338901797582556  0.8339887480518722
  0.9963311128075361  0.3347804617049440  0.3299029119774081
  0.9149618091584960  0.0005821701581731  0.0851552720070321
  0.0812041171107551  0.1683050659138481  0.7537044489629836
  0.0825595372503186  0.0017147609108804  0.7505477802595106
  0.9985710980127834  0.4992678424401012  0.0026058273944436
  0.9968440379149904  0.9169238756336242  0.5806209272708445
  0.9146146606985377  0.2496970006015007  0.4986244790169919
  0.9124284155833080  0.0000544846653481  0.5811512621966985
  0.9138964528574082  0.5818631160660758  0.0019500274404039
  0.9968455189928680  0.9981694727077997  0.4979981259945117
  0.0803783186752935  0.1660529634447435  0.2484360999191556
  0.0821175472292343  0.9978835106609114  0.4140737868274489
  0.7479867637419143  0.1666486497624124  0.5809711155157322
  0.9970705705874137  0.0006123928222240  0.6651389306489380
  0.7480758472863900  0.3330976281305724  0.5814027571647172
  0.9976684613825146  0.0820725658703289  0.2491689406504972
  0.8310323068871805  0.0840520289676783  0.5805210550608205
  0.9129952562355845  0.1664382641990006  0.7505562257231506
  0.3336605154907643  0.6652597307915612  0.1671941303639627
  0.5823491050524282  0.9163599963741440  0.3320909977737802
  0.1688455500635406  0.4194089098420488  0.5822937293031842
  0.5000998012311273  0.5825111682781031  0.4166221067067922
  0.4994201029040193  0.6658582695524314  0.4995963599507483
  0.2521802573271608  0.6664149129790570  0.4143651236969365
  0.1710028926502390  0.5828457876884917  0.5814108092161158
  0.4168545028501118  0.6666914254755806  0.5821655370631716
  0.4163619570814753  0.6646699774903362  0.7491701676639642
  0.3345089409001739  0.5826875563057168  0.5824002695077626
  0.4164578626595703  0.5818154252055522  0.0010021304643056
  0.3324671841909549  0.7489005656816353  0.7494110392767642
  0.3323212630065027  0.7488091499675379  0.9191440791565695
  0.3343156392635151  0.6641004936408265  0.8342556466256786
  0.4168113852471774  0.7489415946156062  0.3319279010753615
  0.4166147558309933  0.6657761472506726  0.2495963046935525
  0.4162310427819505  0.7492555313273513  0.1677341715377262
  0.2512214904742662  0.4994445187703893  0.2490268125020611
  0.4991820875504316  0.8318494018873033  0.3315319116479486
  0.3340459992467373  0.7493193798828337  0.4151217434049079
  0.1693274395610789  0.5827474397737155  0.4126550577772946
  0.3343109463360113  0.8328593771853992  0.1681633602163788
  0.2512596755487760  0.8331335675755278  0.4137647028577615
  0.4169523426404959  0.8323520606631389  0.2498759912135322
  0.4180667548138488  0.9995569777232567  0.4147619729864320
  0.3338235533958835  0.8328458975413927  0.3311894663025265
  0.3358723537913484  0.9151163776985755  0.5819911070381428
  0.4173016930322891  0.8319344179809081  0.4148282119024819
  0.4986835235857794  0.8334028599841818  0.4983742094336315
  0.2535658010946965  0.8337450398661255  0.5811818520857499
  0.2520787457081043  0.4174563063142041  0.4984487952773122
  0.4179204976701440  0.8325741509573316  0.5826349256409417
  0.3351723451748687  0.3341948202269021  0.6671910869109046
  0.4153102358774887  0.8348826669023874  0.9186015237595136
  0.1692426020200547  0.5008810691831689  0.4968625238919911
  0.2521070677218229  0.5001223250494808  0.4139227092875858
  0.4165921287037086  0.9175443369833670  0.0015524219933877
  0.0843235250943238  0.4171256994757391  0.8366890797068222
  0.3341237729653570  0.0000630499264068  0.8354329585420978
  0.7487119452466224  0.9998626706067931  0.2511751894261320
  0.6654217955611220  0.9162734877430257  0.2508859453832068
  0.8321946109123701  0.0832415246085996  0.4136909068092654
  0.6645249875411209  0.0847481641109445  0.5814773954565844
  0.1668561030335561  0.9995240757132294  0.6663770159614502
  0.6653280574366700  0.0016736394990219  0.6651357646709029
  0.7478919676615725  0.0035419014879760  0.7480670827756102
  0.5837974048696293  0.9993090379487508  0.9168328023521444
  0.6654604110529105  0.0844317070224423  0.7494436287907602
  0.6649954582937887  0.5832615679368973  0.2500438298782452
  0.6649199213957090  0.3330146142220112  0.3337364299798791
  0.0831644236801132  0.9161419107690650  0.3311524938270825
  0.2504265135686348  0.4986035793073917  0.0839710822783048
  0.1665299754070867  0.4998754764672021  0.0020575773432786
  0.5830990198340668  0.5000365875979340  0.5822779158431605
  0.7488395784438037  0.4170212753381562  0.4986833128511991
  0.1669204405574562  0.2503275913448427  0.7519306928994191
  0.5001848762604764  0.5817664839586367  0.7495992095264694
  0.5833450938217846  0.6608961349285838  0.9182314618001400
  0.1681448547238723  0.1684449263413701  0.6659300931972857
  0.5004627249668743  0.4988501448563623  0.8331420880360801
  0.2536566173973978  0.2516415589991474  0.4988355024467523
  0.7489377616971372  0.4170328345368274  0.0007535181425318
  0.6662468699126073  0.4975935262680716  0.8328673895037457
  0.3365122545373443  0.1691981832029063  0.6671757159404639
  0.4155538068483687  0.7495743691190047  0.0016297303613510
  0.5824301630022299  0.6650180659291717  0.0857217552713696
  0.1686718010590570  0.2514758906875057  0.5824549167786088
  0.4987570463517196  0.6671974367000620  0.1670962511036514
  0.9963287536118557  0.1673014067899142  0.4977536740450751
  0.5827817382487123  0.6661973048400168  0.2494136172817031
  0.5823677067487777  0.7495402776243060  0.1668212698183365
  0.5819024870024333  0.6655540498637595  0.4154044448086849
  0.4170306623837890  0.6663901040041478  0.4159535629246745
  0.2517854767270395  0.2517770484316599  0.3298925185116242
  0.6651382298397576  0.0834957012258541  0.0852048600534213
  0.3331312806796154  0.5810795574920562  0.0838675925555342
  0.8317588819561371  0.9159217635575171  0.2511010185731038
  0.0816577009385156  0.2516095257639478  0.3291177506717800
  0.9149966751392070  0.8323389340943479  0.2497725894076477
  0.9123383378613552  0.8327269406440678  0.9215184273415553
  0.7490592359139350  0.0835973173227406  0.3330873349292996
  0.1678187687993584  0.5826717010602968  0.2484792352893767
  0.4156100566540610  0.9166292253906928  0.8343640298816412
  0.4180249666391074  0.0784774171858136  0.0013715920552562
  0.5017072622929730  0.0830033039730532  0.0850292669699346
  0.6664497150463604  0.0003069782402938  0.0026009092357597
  0.5834805322691381  0.0817020365235950  0.0010232126064159
  0.5827676715882576  0.0000638256773393  0.2501313490088341
  0.5004261678854347  0.0832369464625486  0.2493720464972305
  0.9988217912158884  0.5835925721098555  0.2494696635917847
  0.5842096367321988  0.1665919985541263  0.0851232114477333
  0.2510811457806221  0.5820768027325672  0.0011257468141834
  0.0808814043983432  0.2517525333648886  0.1673591725691915
  0.0830801371450107  0.0844516873068089  0.8362007638494543
  0.9977094820584961  0.1685900941053561  0.0034298327758784
  0.8305318093078887  0.7496738203934374  0.4152595583227168
  0.7484367138929927  0.9167907538904848  0.1683781211271962
  0.8313122393030922  0.6673959873094494  0.3326782921644396
  0.8323895796451182  0.6657624760239417  0.1673985122400345
  0.9130088105399862  0.5854600708844236  0.4956587857169726