Cr  N Ni 
 1.0000000000000000
    21.1208425590115922    0.0000000000000000    0.0000000000000000
     0.0000000000000000   21.1208425590115922    0.0000000000000000
     0.0000000000000000    0.0000000000000000   21.1208425590115922
 Cr  N   Ni 
 259  17 605
Direct
  0.9146785093416422  0.0856474659150387  0.8347540977683389
  0.3327976761057042  0.7480358738684807  0.2526685930466305
  0.3339585968282540  0.2508591728549885  0.2483396896468512
  0.1687158432875477  0.2526211234459097  0.0857321965852362
  0.4989312364930104  0.7480130350235010  0.7487265864039899
  0.1684246487659146  0.2557758109297965  0.4141967992756652
  0.5817570043663481  0.7496126784983700  0.4985231465212829
  0.5003531016920952  0.5817323820253931  0.4165826723127490
  0.4992883636800525  0.7483339560593537  0.2520147453022228
  0.5804266621535930  0.6618618742334069  0.9167352475109209
  0.4171366238709877  0.5826497414195189  0.1664133934398468
  0.4982475141004550  0.6632503787035731  0.8323599369917939
  0.5822983673000514  0.5820779106015643  0.6644985536225353
  0.4171520915822591  0.4986889000938795  0.5808471108983422
  0.6640876338534497  0.4992198341992451  0.3309938269193866
  0.5823084660902347  0.9160474246865360  0.4983812080961337
  0.5000962720259274  0.4165380139888438  0.4148488507750295
  0.3351979238143770  0.4981575712080377  0.0004152816497955
  0.5819019758942792  0.4998684432094497  0.0860285916517430
  0.4175769899146015  0.2576056221326120  0.0001634502868609
  0.5826002312003615  0.6636699502465683  0.7486659347167434
  0.5848302610148948  0.2500428988032918  0.8328645180297902
  0.0829302262714702  0.3343996652873654  0.5904258038614741
  0.2521556234890754  0.2508765122637089  0.6682754361891111
  0.2503436742764424  0.1708544815942205  0.7493158395136164
  0.4183899415420603  0.4162345052002596  0.3332120071906810
  0.4191201879325094  0.1684942556266198  0.7518061998535216
  0.5003098832591101  0.4167791386624016  0.7502620934505718
  0.2521269064591847  0.5827018761744946  0.3335769900918238
  0.5847876961063667  0.3338442811624019  0.9181418983511368
  0.7494711625758594  0.1676132224753644  0.4159016980482860
  0.6656484297101916  0.9993193888229872  0.4985638362969601
  0.7481957946818451  0.2513153000998192  0.8341261632961140
  0.5811729949298283  0.8317505213155924  0.4155923919905511
  0.3337601486690287  0.6645811700721093  0.6651745769901143
  0.0821787754783765  0.0023944505124583  0.5800827668233927
  0.4173507587682362  0.5815155884776657  0.8340795216942056
  0.9995591314747717  0.9161523924232999  0.9270903091563069
  0.5815761369540943  0.0015198548365242  0.5813835825961058
  0.0932698601930197  0.9163940360320268  0.8358134709070663
  0.5829049914197618  0.3316366582595717  0.4161371927115596
  0.2511015070544709  0.0007061894355805  0.0939109510019093
  0.5841200730148355  0.5006208985419949  0.2498580242643394
  0.5855199988255905  0.5011116178565080  0.9197909536877297
  0.1683525317208507  0.3352468843714963  0.1655566753973409
  0.2495099045421413  0.0846265770469791  0.1673587413398616
  0.5831954468776570  0.3329001926528157  0.2497878849941437
  0.5064172534455477  0.1669472077121943  0.0003409227465713
  0.6667982722241661  0.2504874480872022  0.5816303599202696
  0.5834608653573968  0.8384995256436644  0.9179786891484369
  0.1653087014958573  0.1705162133640214  0.5034783981536319
  0.1628643191631864  0.0039420325763973  0.8361678631643740
  0.6665696811334009  0.2502604940292567  0.2494664566521452
  0.4152657483031213  0.9159511078302471  0.4992867624987086
  0.6652676970764149  0.0022792401172246  0.8328132011740854
  0.0015733126942181  0.8316157816041762  0.8361259161717880
  0.8282361474158709  0.0007302183564802  0.4977627512935048
  0.0917102802339153  0.7481764320190726  0.8324891255668970
  0.1672113657853502  0.2514624163139361  0.9159524377069913
  0.2516588238130139  0.0917679789756301  0.9989880674752681
  0.8308988068229816  0.9165083166852150  0.0859788115200156
  0.6656159019706600  0.5006393032758729  0.0010236086981629
  0.4982204327794870  0.9180806906764089  0.2524450344287315
  0.5000245736587945  0.0832607494759976  0.5825268840492963
  0.2511438012961093  0.1719098874960711  0.5828205453288999
  0.7479349410834537  0.2515254205786379  0.3315020972933569
  0.4988977121247959  0.2505978557909628  0.4158084123379128
  0.5833806732734819  0.0864514759240200  0.4990013558575653
  0.5831022242737433  0.3334673975203936  0.0842758651192262
  0.0809812653746466  0.9165600536573065  0.1721784921397441
  0.3347831947619100  0.3334538080488206  0.9993740263446186
  0.4194429044719995  0.3347591900475407  0.7507868180915789
  0.4174554547633727  0.3349070985334799  0.5833495538593239
  0.4180770457135162  0.6657481698516157  0.9166835187024149
  0.9972120147258874  0.5826031055529451  0.4142178446174070
  0.1685947448816950  0.7483531757348314  0.4162967432320606
  0.3343811231699833  0.6649425446086553  0.4991142834587952
  0.2496221436322373  0.2527964187643935  0.1671696335475685
  0.4189717000334237  0.2524809998431697  0.8341315161012816
  0.2518403484745718  0.9950362305698011  0.5822007935631350
  0.3355924924993859  0.2508689292065306  0.4150651089827227
  0.1683046991534637  0.8277922308866574  0.0030083428639284
  0.3284248530993865  0.1691628608531756  0.0007445807429899
  0.4186608312563156  0.4169059215449590  0.8327773382527457
  0.5006196042054465  0.9162799049849971  0.7495071175157224
  0.3401392778439037  0.9997567889142169  0.8321707000835251
  0.0854079091963687  0.5825922503135413  0.8365955667777438
  0.4179877499556199  0.0849602330685855  0.1688305571046980
  0.2530050575079161  0.9994017686261096  0.7426878159096952
  0.2530253462759584  0.7491768931550808  0.8339456021295779
  0.2509793047958203  0.9988299063170261  0.9179005093858466
  0.4175363601675463  0.1673136988075605  0.4150200244168221
  0.0839166502599261  0.7485253556268840  0.0039648120486473
  0.3350577353851761  0.8318323826538497  0.6646507769659037
  0.1619309020803882  0.0853457492783122  0.5810450844320264
  0.4178557697450657  0.0783382962696709  0.0006131548567781
  0.2515725751242434  0.9076305734806259  0.8338033596717865
  0.5019274667674296  0.9191350742249528  0.0868257725258155
  0.2502802065994996  0.9155989751532916  0.3326088573894672
  0.2504215103388086  0.4172123013626647  0.6673804567032392
  0.2524104543821650  0.5823525023152362  0.1662043126592534
  0.6638144697285671  0.0840487422303166  0.9182698341028109
  0.2526635191719568  0.5818415812410993  0.8352469095210127
  0.3404681773910374  0.0836200841136046  0.5854214335168073
  0.5819652598107163  0.1680771573632503  0.4159916507964528
  0.5008322562756372  0.0848947806896784  0.4167291150063265
  0.5016405167085477  0.9982757342947493  0.8309646035097292
  0.3366728368623317  0.8311622757532601  0.0034845980598064
  0.1669617044781109  0.3340418598671332  0.8336574005060481
  0.3337489434929229  0.7495906270128843  0.0842164338667589
  0.5008023722669640  0.0003604275015877  0.3333447620355219
  0.0884335159945588  0.4189434081998644  0.6653765204952150
  0.4994531676463972  0.9985592703433113  0.4972484161038925
  0.4996205061643870  0.7492683653573632  0.0851938430175584
  0.1689685781441799  0.5821404838631216  0.0830060971559891
  0.5012274099653407  0.1673938121447373  0.1676141892880723
  0.1684494957807070  0.8292908982481181  0.8348115517556501
  0.2506536939280058  0.7482777124316549  0.3333793232219296
  0.8286554572045266  0.2492803293647426  0.0855095930450538
  0.4186104111832735  0.1686730787461576  0.9082093059770896
  0.3355503700640440  0.4983504114379401  0.4994705337174744
  0.7480094032549672  0.0832492554526257  0.4989833985704985
  0.4993634790347788  0.5804800404103564  0.0852902406947936
  0.2506203375497221  0.4982851580488348  0.7508161859399659
  0.7497504392140042  0.0836916118926467  0.1658403797768673
  0.1668229732159825  0.4183389027190867  0.7513373983747824
  0.6664175448982923  0.5002336003349618  0.1668977151899380
  0.3350992557390989  0.8337518225570696  0.4978904169905468
  0.5006066792436746  0.7497619797013270  0.5816973356324168
  0.5833178405478868  0.9154584610054477  0.3324179679690631
  0.4948655418260359  0.7487981814396064  0.9147770482352613
  0.8292374609152009  0.4994861120336552  0.6653869653358958
  0.5822502719834676  0.9155571830370307  0.1693531911486117
  0.5855020263432772  0.3347277645479281  0.7498636818102207
  0.2533096663307217  0.6648378008757533  0.5802809136966756
  0.8292431556782005  0.2501759354373922  0.5808949658306595
  0.9963613080727646  0.0133689161326341  0.8339419620583012
  0.0830381373396942  0.0855300245020922  0.6647636191631738
  0.0823692048384887  0.4235593953752509  0.4978952615016388
  0.9107183945668942  0.7403348564544331  0.8332883010473825
  0.9965082403370403  0.4162408530902612  0.0809111847705240
  0.9149806852607282  0.7492476854098832  0.4979538478229686
  0.9983549119985345  0.4978953487152072  0.0022187460351969
  0.0740105912091049  0.1695474540448023  0.4151808428500245
  0.9146880867206385  0.4172000537064440  0.8350183429823849
  0.0810239691742270  0.1677024464388249  0.5836750752677515
  0.8322462391620630  0.5837595774805030  0.0857978896648840
  0.8319195951231646  0.4177452811455221  0.9170009546840685
  0.9981143452152162  0.2500206538769596  0.7506959635058156
  0.0827171559082996  0.3316169259456648  0.4124412271013537
  0.3407160833972959  0.9997163163232012  0.0012920299250984
  0.0817119636200405  0.4176803364954057  0.3393719607618662
  0.3330294266530668  0.9169549473364818  0.2521559732912177
  0.9935298557977663  0.3339683750405080  0.5011365181472162
  0.1673275954354787  0.9164938889299927  0.2500865722274856
  0.9968194390575970  0.3301358236051496  0.6656576400144533
  0.6671112231076279  0.3327404497830559  0.3330839820738757
  0.8327434281256139  0.2503230478447231  0.4159135252378826
  0.9981915236110459  0.3337916865740045  0.0000215596457790
  0.9130535175814362  0.5004432812839195  0.2489314685397798
  0.8329289746425280  0.6673444592472569  0.3311504679291707
  0.9129253727066039  0.3341008950636485  0.2478188674892773
  0.9137758497925486  0.3332852451355780  0.4163655315454475
  0.0835871016204540  0.3309182956822733  0.2478535313376361
  0.9975169152118383  0.4201524214475545  0.5794961814201154
  0.9995600366481757  0.2494250292455746  0.9169539729167380
  0.8280931876810474  0.6645339965614760  0.6638801877005499
  0.0003872564009828  0.6541728914159853  0.8359291123429977
  0.1630687445637299  0.0037677106649424  0.0006155503527312
  0.9975212405200371  0.9976944285482520  0.3338064406701109
  0.9972857353705415  0.1678218959866383  0.3315866792080364
  0.1666370474917833  0.1665086356316561  0.3257238111829084
  0.9955944302489218  0.0033668546591178  0.6630488783140323
  0.9968802802680861  0.0857597696718451  0.7478982610948286
  0.9124643839675712  0.9199013619290477  0.8325166652995515
  0.8285890549388885  0.9162482120995661  0.9226528880911427
  0.9983600735866363  0.2500345068052456  0.0841534997603516
  0.9100993125502916  0.8314402523282225  0.7417047157580610
  0.9973072009153992  0.9238947890499210  0.7443542007219437
  0.0824883320682877  0.0866417043400668  0.0023214235158324
  0.8297341286770624  0.6651485103772163  0.8350542429197669
  0.7488252934876122  0.8314111012698665  0.4162246543621157
  0.9138127176134215  0.7474729467639477  0.0040919004559747
  0.1658580431681162  0.0779256707655221  0.4154272488689655
  0.9145717411149092  0.4165811216787062  0.9997055484403560
  0.8301600726450917  0.8316074032467704  0.6625428654755093
  0.8292187012676620  0.0856789543258280  0.7470501115652212
  0.9973182902569757  0.1670472875559746  0.1676778381580979
  0.7484513212518081  0.0836277318590038  0.6659998831647891
  0.9984998807220287  0.6599324122853206  0.6649907620556310
  0.9153828361311305  0.1668547318242631  0.4148783632329672
  0.0817076470402633  0.1664737675299233  0.2494049372787622
  0.9968263653192196  0.0015605964536688  0.1683123388123030
  0.7494016649201950  0.2503286875746333  0.1662024485850476
  0.9973323720711834  0.8332221413276444  0.6543755314449817
  0.8296946747991982  0.9989870535381770  0.3340945304144123
  0.1667529865046633  0.4162302829846717  0.0841199888161231
  0.9955644122943482  0.2511283025075598  0.4139878416433729
  0.5838115048034564  0.4990545708220455  0.7490654265289828
  0.9134739859795302  0.6676990188189069  0.2511501829706927
  0.5814425404682059  0.5825015315009466  0.4981006078847758
  0.0856472579511877  0.6568222061511646  0.5806232394285598
  0.0906857806298999  0.8273794385884947  0.7467152056817107
  0.9973815232271601  0.5827350899180015  0.5795383180247975
  0.1677147453591923  0.9165189395880681  0.4139940868495511
  0.6648278637259809  0.5840591957297905  0.9177609404163574
  0.7497133550947690  0.4172235869907019  0.8348809514427800
  0.6670467556706122  0.4163478482202745  0.7502077479349984
  0.9963191882028476  0.9169914025875167  0.4160420853272609
  0.6658557974039452  0.6675718625891515  0.3325938956685904
  0.6651253773122847  0.4171882202625417  0.5811473721230069
  0.7457029532542784  0.4997846233154880  0.2490081767838879
  0.9129010777776549  0.5006066716979803  0.4168541895692060
  0.0824008984494714  0.8351948070261053  0.5810676925949945
  0.0853836879556892  0.9163616989904075  0.9977543314186029
  0.9132152332181452  0.0856436533488884  0.0023568974932087
  0.7469581833381715  0.7491394343023059  0.0056449598115330
  0.0832014664270182  0.8322722746102256  0.2520496058265605
  0.8302411442871482  0.4172249784199807  0.7535330328935261
  0.0837498130526876  0.5074598687152380  0.2482525015560946
  0.7484813897625162  0.3336610981132729  0.7496464043340788
  0.8288388822054029  0.5000615938647622  0.4983798333970391
  0.0868371712976039  0.7430766600986750  0.6666181314046441
  0.0841946490854451  0.7486052574000153  0.4895278301096460
  0.9982819460894713  0.4193881087594009  0.7579591966303104
  0.6668183736219083  0.7496482507493339  0.0860009055479586
  0.0837512635338732  0.6641638051429822  0.2503395519720600
  0.1682992081474547  0.6650061582731993  0.0039916021902672
  0.0002590382999443  0.7412726542562290  0.7409831342558891
  0.9147180122144457  0.8331298959017578  0.2506129542666443
  0.7480975924378797  0.1670641988684434  0.0835625347312665
  0.0805443588004213  0.0838536860131241  0.1680961798039765
  0.9970337930417996  0.1665770635353772  0.8333192028131807
  0.8311990176290204  0.4169034869407924  0.0824561635460841
  0.8279248080579857  0.2512955054749213  0.7511234540204289
  0.0799230157384213  0.2448362085431494  0.5012381769907439
  0.6665505512303259  0.7484445811166567  0.2511719999030532
  0.7481399995585745  0.9996018058445619  0.4163491984720174
  0.8305363090866661  0.0844613897139849  0.0856663004082860
  0.7482831314721531  0.0839336630840299  0.0040890632827172
  0.7463717721167570  0.8325144675307623  0.9207715052004356
  0.0004900274646166  0.5096385468283877  0.6645965534191784
  0.7370828385496495  0.9176767524607674  0.8322591810316827
  0.8218859614774249  0.8299334233096772  0.8339712974818007
  0.0825727485023834  0.4166143537298233  0.1612067338278102
  0.7479214369382781  0.8309541473798079  0.5811441976125338
  0.6656464702979139  0.9161953053894704  0.7460832985243552
  0.0825402170282756  0.5829933589022700  0.1653219993617452
  0.7485210405521161  0.7500369414659838  0.4981660923109741
  0.6626099817310592  0.6646333978194966  0.6652577250065363
  0.7486404449378840  0.5831027981816140  0.8335547606236476
  0.6729659866847705  0.7481732213600707  0.9194750352849592
  0.7487301465120989  0.5817675587112615  0.4971542255054509
  0.4172725255486053  0.9162492871957628  0.3330267529484707
  0.0837879397177157  0.6654294629033564  0.0849113602716384
  0.6653822040486123  0.0001021955689155  0.3337197775155237
  0.5817585175407107  0.9993840585207827  0.0864700163034903
  0.5802662833178737  0.8312013403341858  0.5810886576750607
  0.0855620722454235  0.5826453767473668  0.6662676223540768
  0.4173529744090930  0.1680362601155945  0.9988333832700003
  0.2512897364561257  0.9997942791108476  0.8294966752889604
  0.5838981764502453  0.7504464296400222  0.9179052095457619
  0.0830263393904580  0.4189214538777057  0.2504986979001689
  0.2518012646309544  0.0007519164741384  0.0065122199502752
  0.8236550534200544  0.9215645533651891  0.8317238942279183
  0.0029183581283673  0.7406571999382862  0.8343277851268407
  0.0808162015681789  0.9138836034707832  0.0845105447394448
  0.0829114876477891  0.3365392949957950  0.5012264126391792
  0.0031147741338559  0.9244038234368513  0.8384757226027469
  0.0879322797516680  0.9181479306740454  0.7466862191864011
  0.2520280200374775  0.0832698185212427  0.5829383842865733
  0.0857223573592876  0.7464402598292839  0.5780610722227328
  0.9998734118177118  0.8316729771509345  0.7427795262681507
  0.9100465200234142  0.8288695374374844  0.8340976091748874
  0.1662349816451610  0.1660842063901361  0.4143336879059009
  0.9976050958810360  0.4197501819285522  0.6690652704214927
  0.7491395240513372  0.7497687986489496  0.3326501591860117
  0.6644730402079640  0.6663159846517192  0.4982625512454668
  0.1680140483522085  0.8343258853310305  0.4963654241511692
  0.0837370453525102  0.6642625898404338  0.4148218168154327
  0.6652664604221971  0.6673980551467026  0.1677800222607548
  0.9981327624341499  0.7491467673172156  0.4157660341051673
  0.7488107281232461  0.6665801083190303  0.2505086849078876
  0.9984764427216727  0.6660652582863730  0.3324240838521612
  0.6645538700352451  0.7489685152796028  0.5808873659840678
  0.6653505121661900  0.7474476218720437  0.7476897011775319
  0.6657535633638696  0.7496939295972257  0.4158854757445666
  0.7482329735641380  0.5830958912958041  0.3320021718508379
  0.9989742519366507  0.6643343957755869  0.4962551346860298
  0.9993583072526606  0.7489297399108533  0.2507161045581578
  0.7471817805710071  0.6652143944283838  0.5806579106481514
  0.0829041813753221  0.7476670858495529  0.1693462150616534
  0.6651130025479228  0.5829622203068300  0.5810023297371577
  0.5001645479192611  0.9157495522011023  0.5814783448585310
  0.7482293706582072  0.6666083040180728  0.4153179723744778
  0.5826698776148470  0.9990500112089354  0.9163965308916044
  0.6657105054003883  0.5814916621618268  0.7498997718820819
  0.6659006167020152  0.0837907215611694  0.7486414895679363
  0.7470089997758673  0.5826337948598181  0.6653389845343042
  0.6658337423418994  0.5833737233261543  0.2504461045933141
  0.0872550206895302  0.6619035280433904  0.7500577933694810
  0.7486263533053273  0.3332768046763914  0.4162121197908611
  0.9987616156184232  0.8328231496662242  0.4985754761103520
  0.0832092777111816  0.9165773765488434  0.3331433840713476
  0.7476377391039841  0.6645763012711123  0.7482944623685039
  0.2517479359498255  0.4988493827926072  0.0829996664141566
  0.6652747961332001  0.5836547372102502  0.4153781810116451
  0.1673953843662245  0.4997996681311168  0.0008671459388525
  0.0856130608942213  0.6646834913522139  0.9204093778479906
  0.5833575987353682  0.0846467639288686  0.3329897541021039
  0.2505093742149703  0.4168568850879888  0.8339625118527489
  0.7473902512870942  0.7481029134927782  0.6641005082585807
  0.7474153536050414  0.5002143693760607  0.4151721917773709
  0.9991689747774030  0.7471311735406543  0.9233276461544773
  0.6652398412078457  0.4161430399700383  0.2492958027744955
  0.7470210799642921  0.5002182446498896  0.5819351572831384
  0.7490429845199054  0.9997785002906342  0.2506044716158848
  0.9126335956903622  0.5838695027554118  0.8342016708372776
  0.6656777528924763  0.9165698726352345  0.2510597942603272
  0.7480493266555674  0.4165736151077544  0.6661002046163300
  0.8314952277015657  0.0838684511999517  0.4148117418286912
  0.9129122984310259  0.7452775877259891  0.6627271290107811
  0.6656121511859153  0.0843620347704165  0.5826192346092927
  0.7489105383745476  0.5014393090154814  0.9182189447334002
  0.1670684775105921  0.0003501850517997  0.6646357371228508
  0.6651725078327203  0.6650029693908289  0.0033126698741943
  0.6652150707643493  0.9999254483087697  0.6647437263502364
  0.7473947156167132  0.0019225489609608  0.7481437565304584
  0.9989210766573343  0.6658834540732212  0.1685572285542788
  0.7469415495247397  0.9157511455734129  0.6636738832808720
  0.7483188412244743  0.9156586503399025  0.3335335118932001
  0.5826688839306967  0.4996458237770726  0.4153360126506376
  0.9145564300810689  0.9992987733360746  0.2505724370542580
  0.6640381718443358  0.8316623517944364  0.6635227482290557
  0.6653278460535164  0.6643204052440175  0.8328870356835288
  0.7466039283334940  0.8309723360740381  0.7472979309424723
  0.9997104906129659  0.5829900933647231  0.9211011150465090
  0.1679397922917865  0.4998490782920976  0.8348699749624018
  0.9994290090360179  0.5029466987297423  0.8360028544512846
  0.6653296318582776  0.9176035617898778  0.9186909271215855
  0.9990093330023888  0.5828515002946193  0.7502350997080872
  0.9954696565685115  0.4174291060914640  0.4158397046445777
  0.0832224154616989  0.5816918083634919  0.4969133290014325
  0.9132359836317214  0.9169892100671422  0.0027121890490460
  0.9954887616473745  0.7445493509072519  0.5808849684648146
  0.8315459701977613  0.9992533749701275  0.1669259290830172
  0.9982409979992477  0.0868017257649288  0.9196343278262664
  0.8314921241957401  0.0824884915290722  0.2504788139370486
  0.6648347222398513  0.9155510299749717  0.5812616671039980
  0.2496878442399312  0.3341447480988604  0.9174927676013468
  0.5829833104558564  0.1665186562521438  0.9163147045991942
  0.1658304304560783  0.0826870294959184  0.2497727103239011
  0.6670720532779029  0.1681373224671400  0.3325822291297993
  0.7471868399333964  0.0021336184478106  0.9191513883951505
  0.2506711721606030  0.8320340399273177  0.2515840212578148
  0.9984614826610804  0.8298164546449445  0.0030564774165021
  0.7468220653911900  0.0848765724851977  0.8337496792974061
  0.6646435910652597  0.1667250850982583  0.0007676018216561
  0.6657815762633991  0.2502923283414044  0.0841735393837150
  0.8305872838633593  0.0008497708899003  0.0026823794417772
  0.2517795486651090  0.0831227508096437  0.4940267382462752
  0.6666614813037555  0.1666423247437369  0.1668585848039934
  0.1663266323672075  0.9991856160924291  0.4983010705680095
  0.2505621951548224  0.0832512102710275  0.3327727328114727
  0.6661473944128612  0.3332198545310874  0.1662122950319809
  0.2512863283679105  0.9989238525286309  0.4149240941267830
  0.6665154017133097  0.2497325514579735  0.4158152297929347
  0.6665452454885682  0.1677860107832149  0.4993987449879256
  0.7493804396833911  0.2511332832061788  0.4987631105805415
  0.1670319080641576  0.4160561784769261  0.9163165464100396
  0.6659814601681840  0.9148619255405999  0.4168858491414425
  0.8320213873566686  0.8324416530690020  0.3333270217195618
  0.0831933464752015  0.4993411875641028  0.9185207012829613
  0.4986046960087349  0.1682400718414776  0.5004060044251702
  0.7469177669182445  0.7466632050244474  0.8323747169502770
  0.5004319775849659  0.9994940220210867  0.6656463710807708
  0.9987446881972435  0.7483137804415206  0.0863847792252099
  0.4185754830052693  0.9987916027207832  0.7493309965994561
  0.6639105573868846  0.9173397247301042  0.0865229963414276
  0.5833337322404893  0.9995428761332701  0.7486041551574549
  0.9991807710598871  0.6656961619512159  0.0036807972334677
  0.5823540746992066  0.0834346623807949  0.6654264971280068
  0.1698526240045773  0.6641517115202822  0.8346130755859660
  0.5830566215791734  0.0830928571292883  0.8325243120684376
  0.6660092183497534  0.0001173050977653  0.1675269865735591
  0.5007175469535969  0.0825919341943052  0.9151441209691374
  0.2507398767371100  0.3352676593765225  0.7502979341387443
  0.9150574775419701  0.0832870733259582  0.1670957350282788
  0.0825821918859985  0.9172653431831768  0.4976951873596789
  0.7483612370008061  0.2512217636583354  0.6650276731773249
  0.6650259648799596  0.5819128824997151  0.0850783555037202
  0.6655033965625267  0.3327975141081062  0.4991212402192164
  0.8309218438748440  0.6658839502000028  0.0032183651986377
  0.6664171603431848  0.2512128950429717  0.7503023741466711
  0.7477968013864721  0.4168081587026571  0.4988682334942292
  0.0827347224028289  0.9190650213128140  0.6586555314767317
  0.1667169511466489  0.9992311446285600  0.3320485271420572
  0.0833357617681862  0.8344812244326081  0.4149526903915359
  0.6651954277427752  0.4992494839680973  0.6651606210032275
  0.9993111111166619  0.8330718248566243  0.3336317763781490
  0.1692282499680497  0.7471336677637850  0.0871561570245884
  0.6663729111430154  0.3336534974009998  0.8349993695744081
  0.6659879020130888  0.4171840389062922  0.9180058470605207
  0.8304064955134625  0.1671262462653946  0.8339007880213961
  0.9982627565262521  0.9157145650642586  0.2515743082229195
  0.9980885067835242  0.8313524106884705  0.1692923893981743
  0.6656196325935458  0.4171140780369766  0.0839201618793468
  0.7492771152520955  0.3336717942366926  0.2487105148664062
  0.7492943757178452  0.5004954200411313  0.0838151490313274
  0.7479095421608306  0.4169992195222986  0.3320531806613918
  0.0857268000765814  0.8300542039560524  0.9195108983631509
  0.8312619023571314  0.1667983754078578  0.4993197067473384
  0.6651808269329275  0.4162577789237248  0.4151359177104401
  0.8293311646884060  0.1685461774675738  0.6663577252957513
  0.2504434908513153  0.0001880752296438  0.2495194213781460
  0.6662685465585219  0.1671649964807106  0.8332705913945025
  0.6649484746590225  0.2498403837608366  0.9171948191268814
  0.1658357944259715  0.0005701592873279  0.1687427674905497
  0.8323370355686365  0.3334569538844163  0.8354283924384236
  0.6662997668560144  0.3338385481297952  0.0005257106576348
  0.9995688405657021  0.0850666146634373  0.0868895914835952
  0.7493737281310001  0.3332365903430908  0.0830312736031638
  0.1662025136867344  0.0859033488951556  0.0863713548478818
  0.7485646021855648  0.4170871506145761  0.1662157488700382
  0.5011748848168095  0.2517140437096179  0.0841621544496854
  0.9145061172917035  0.2496534733640544  0.8332734764665718
  0.4999308668278858  0.3336703767890238  0.1677368363998675
  0.2515427939286104  0.3344580272264059  0.0822120083039509
  0.5001073502762037  0.3328993764368827  0.3327228839443299
  0.0835696907506692  0.4999002906595147  0.0829386054425481
  0.1662046024266154  0.3331533403413682  0.0004705388217234
  0.5825694600841378  0.4153908431663929  0.3323080020667793
  0.5001011149093246  0.3330113346661511  0.4993505692725362
  0.4995757231222852  0.4162568073120582  0.5827121998552036
  0.5842978795258357  0.3335498012755463  0.5820236689409686
  0.5824034709772916  0.4158113163849823  0.4984998337441827
  0.5012479841286092  0.3341203913641063  0.6668423000329737
  0.5841719217540876  0.4169497049935226  0.8339717650200138
  0.5833071036595241  0.4165108227014024  0.6660414957807179
  0.6659551543145543  0.3341554903294967  0.6652631221453801
  0.9149092626173279  0.6654457306421085  0.0846543100249027
  0.9957632664404713  0.2501424697668779  0.5840073647894107
  0.7485034443570847  0.6658137902642375  0.0857460671208291
  0.0815141840356251  0.2516795406741354  0.3309866914483979
  0.9152141993291499  0.7497170555946836  0.1691878197908615
  0.9130225654882795  0.8323677350404021  0.9237303715876400
  0.7490525080233374  0.0831015482073812  0.3329864344456222
  0.0816975385419941  0.1684931661513870  0.7499637184871136
  0.0830894710331284  0.0066170943455085  0.7494040831480078
  0.9975782672585343  0.9182160994643436  0.5792885748312846
  0.9132653873766735  0.0018744920855583  0.5810762279229016
  0.9978945530380376  0.0003828361186004  0.4980246536284161
  0.0819945478116857  0.9992221575238949  0.4150251548320660
  0.9977165033809083  0.0848994807448808  0.5816579351755865
  0.9966592055084394  0.0826301902122878  0.2503430598202422
  0.9142857289926141  0.0012539952072248  0.0841843905190729
  0.0814326416657770  0.0000244808679534  0.2512365582679333
  0.9935093533162391  0.9164794713950013  0.0853517562766828
  0.0833325815131006  0.0028723208984793  0.0842805645720360
  0.9141012199508849  0.1678243499354825  0.0841477144056214
  0.0829014022051190  0.0045487382456921  0.9191822741943125
  0.0822241261897753  0.2508589824761435  0.8338422226988613
  0.3361230052408143  0.9993120508696757  0.6664400371601682
  0.9087337281217629  0.4181516413663706  0.6673126098185888
  0.7483664533966968  0.8329911369078264  0.0859562266118065
  0.6652577614030629  0.8321405752313251  0.1679686251937717
  0.7481811588187924  0.8325264823356047  0.2500944830544611
  0.6652064567866607  0.8316133458008964  0.3331429251312165
  0.9133186872957584  0.3329331262302890  0.7516930782875000
  0.0852379261626313  0.5023437284666838  0.5812285481911845
  0.9140380201555186  0.4170101858441108  0.1651128414906421
  0.9136484285799691  0.3328340151227827  0.0835513014600383
  0.9979266408112625  0.4171796423390400  0.9176267333899802
  0.8316459657691635  0.3342952685980110  0.1660461225008595
  0.9982368141605290  0.3316169579020409  0.8337488076423523
  0.0842207796238936  0.5017417393788930  0.7527642970413299
  0.9974640264609513  0.5006862898661149  0.1655597022433304
  0.8312922518863834  0.3339881039966543  0.3321419502367332
  0.8308171516502972  0.4174686165705798  0.4150208959129956
  0.0822940720810945  0.3340712134085824  0.7508542081769860
  0.9136032918557159  0.4175085750492691  0.3324358581849506
  0.8316257294784879  0.3340228562486816  0.4993401985994155
  0.9139260864302233  0.8324444643414731  0.0845984101975817
  0.7485728978662698  0.7492098917601896  0.1680743834160716
  0.9981397414561570  0.0028862841647802  0.0024107078340277
  0.9130715464808838  0.9184588196305606  0.6619110777734117
  0.7482201661922917  0.0005192224150647  0.0850906705410046