Cr  N Ni 
 1.0000000000000000
    21.1208425590115922    0.0000000000000000    0.0000000000000000
     0.0000000000000000   21.1208425590115922    0.0000000000000000
     0.0000000000000000    0.0000000000000000   21.1208425590115922
 Cr  N   Ni 
 259  17 605
Direct
  0.8291797099329528  0.0846599007687092  0.7505615099967456
  0.7492248043578111  0.7475346787458882  0.6637805223103611
  0.0828222095466929  0.4200557548646433  0.6619070929667500
  0.8292419142022394  0.2505390083854588  0.9201128047138598
  0.8289071191291096  0.6646377508840957  0.6642538901542617
  0.9025837942938970  0.7463402203036826  0.6638881099980951
  0.9990576384625569  0.9172348421035238  0.9273688687000032
  0.9974382843908657  0.9975996593713400  0.3314118163829542
  0.1664140899063552  0.9997148175624304  0.3304847572634621
  0.1667315585844054  0.1672421386015656  0.3231065880221156
  0.9868113281376423  0.0850782277132637  0.5814294326408840
  0.0814231188080773  0.9951886729808911  0.5810866456084508
  0.8281826820185723  0.9173717341161373  0.7450613072961881
  0.8317595180348533  0.9174088588959598  0.9256032428669866
  0.9997469161180630  0.2491486158270063  0.0856234907030490
  0.9960703661270731  0.9165743497032146  0.7457174074843150
  0.9125376227911136  0.7481147846901521  0.0037216774255045
  0.1661741903804469  0.2572698430701603  0.4123788267501937
  0.9974269976477563  0.0857503999868930  0.7454120136484645
  0.9148107900426965  0.0835029403262556  0.1669135411379766
  0.8317688599814764  0.5002263426327936  0.3329404347411304
  0.9970864630853695  0.6540253403194353  0.6621051030714477
  0.8306879046383917  0.3336848199987772  0.0021356496357480
  0.0816358508604774  0.1662386423797402  0.2500235559517419
  0.8304279786561986  0.5822695833625264  0.4129543589442516
  0.1687594598813893  0.0862337672598000  0.9202801093531426
  0.9135160391705558  0.3339669444441617  0.2505033687565180
  0.9969577641819212  0.5867954677527737  0.7502224596066008
  0.7481476649907393  0.2503532696391149  0.4953226903356743
  0.6661008250134136  0.9162196698891498  0.4149580634109487
  0.1667134232863683  0.0794833471315771  0.4169520186286955
  0.9976068530129809  0.7471260257471027  0.5719799905868657
  0.9125637548168567  0.7473058818337194  0.8358869101125902
  0.9992156826717102  0.5830797228599433  0.0867047267225241
  0.9137380119745944  0.0859077763255204  0.0025446239653083
  0.9986065408123407  0.4138712788331994  0.9192081796122803
  0.8291871082426940  0.3336425305588597  0.6668108345574845
  0.6655471758529226  0.8328854546140694  0.1674445790277678
  0.9974377084268784  0.6636946554365436  0.4959462313427545
  0.1668478294774424  0.6635724595490330  0.6630806346078695
  0.9963780754022038  0.4090995525856116  0.7514367217138879
  0.9122116316080947  0.9178486122299080  0.8348247058621540
  0.9935269974251060  0.8356047673588585  0.6659987176645957
  0.0822027599530677  0.2418623212776144  0.6662600066918082
  0.8311219566891657  0.5830891837505622  0.9188809525220688
  0.9988029232678864  0.4159020168829364  0.0866546618907659
  0.8298230434110211  0.0071862408075236  0.8346293812044112
  0.6644151988027106  0.0025489307935606  0.8339280406491544
  0.8303067356570774  0.1659715110092602  0.3295579477213674
  0.0794348418108787  0.2502473175013535  0.4955230396442308
  0.9992202826790351  0.5004157494941655  0.3320406107223658
  0.0821827767773615  0.0019922044826393  0.0859099188741071
  0.7482695225250919  0.4991650254250968  0.7505679589977029
  0.7485664314809852  0.1653611781869196  0.2503975480931891
  0.9130213216736655  0.4173062546283323  0.4968718533493082
  0.7469794676933130  0.4986033821100417  0.5813197298440894
  0.1683444890095671  0.5812541543465849  0.4130981123632758
  0.6643264041918946  0.2505611493262216  0.7508067141042706
  0.0814687733760215  0.4141585754964686  0.4973713623816659
  0.9063604919711999  0.4990418821328624  0.7516011064590258
  0.9928063147614824  0.3347674517695989  0.6641186548214749
  0.1693920780169054  0.1709810688484338  0.6684260190305481
  0.0803433913443839  0.3333053397950107  0.2488487433309541
  0.9982851214043736  0.5831907021584383  0.4141210743537758
  0.1667760345501829  0.9172598902361013  0.2514082121780378
  0.8300067530964026  0.8346395731434376  0.4965597513480083
  0.9981356486331282  0.4982326657129695  0.6597242809571680
  0.7357846535482666  0.9191645364321803  0.8333146543661498
  0.9142206280614005  0.7497020983895463  0.1675798376246840
  0.7479591596589527  0.1674870536078752  0.0844976038816151
  0.0821937043751538  0.0827189068598026  0.1669260372317502
  0.9979095474377470  0.1782907008828375  0.8362986961738996
  0.8310285719366354  0.4147052058390261  0.0844423157292728
  0.8287293076389237  0.2504807198524451  0.7508447070080371
  0.2546349680965921  0.3332105100897158  0.5812171281789740
  0.6658388014194274  0.6655025888020378  0.1655318594437106
  0.8297691076551990  0.9154301630854484  0.4153084465699155
  0.8313036525932108  0.0019749457841952  0.0024678393971623
  0.8297864049729982  0.8251598427132039  0.8371207719304409
  0.7449245712329075  0.7483294535421056  0.8351321163928800
  0.3353926250975456  0.4997257341692861  0.0018853011600024
  0.0784523756719855  0.5785674971395284  0.6624075805979233
  0.2494574077599931  0.4988047236896779  0.2491768356345161
  0.8285814108133996  0.6647130901849100  0.4938673105950583
  0.6633276147858634  0.0011016761848552  0.6646404229757849
  0.8297232453402577  0.6658626866950327  0.8369570383671833
  0.6695480713285715  0.7475135744849895  0.9190578972746593
  0.5001811133234287  0.1657111772445466  0.3315279638215895
  0.4172935197488663  0.9159416944342152  0.3312031053131450
  0.9973847664600534  0.5823925564130025  0.9215669427008257
  0.6644272672730106  0.6653111805749344  0.6653568826509817
  0.5814090539082160  0.1659649600611550  0.0847045937331626
  0.5825316334272257  0.8305520873480744  0.5819443278084677
  0.7475519014020916  0.6669071559815893  0.4148063974574470
  0.0820283709843748  0.7492611057458869  0.3332930970608858
  0.7474434029432359  0.1683844764772754  0.9184952901813457
  0.0830800245437019  0.7499985323411269  0.4971716513787598
  0.5826231369471734  0.5832537192929073  0.4991735565222903
  0.8315961860623388  0.9987909844236461  0.3316030606195229
  0.1726397774321705  0.8397678242271739  0.6670593761325408
  0.2497414906957042  0.4171243149286127  0.1682577801837486
  0.1681907318730684  0.9182500736739164  0.4108892151423456
  0.9096691517010397  0.2498298924982759  0.4959392995490369
  0.6627990646692670  0.4173376864185814  0.9169536784915602
  0.9139451527314409  0.7497927821121358  0.3315149598004778
  0.9961734368453329  0.9167869603154415  0.4126011017158892
  0.1698296902333075  0.5808551103296252  0.5725210772472951
  0.7466868368044502  0.3316680929976449  0.5820183821718693
  0.9967703436133343  0.5808231113801529  0.5784165017900745
  0.0821898815278409  0.8318271623389052  0.5701235656599314
  0.6636308597940759  0.5831548425283098  0.9171715803138037
  0.8288305300331126  0.7490756318060712  0.9199809365252727
  0.5831913477106210  0.4170247930505943  0.8345137528123785
  0.0822840959981274  0.4999639727894103  0.2501488501879300
  0.6657436492342509  0.6679956723296252  0.3331701765841497
  0.7483652713206541  0.6651625581170825  0.0855694136572153
  0.0818990619979478  0.7464180452687970  0.6604865883215847
  0.8316552945212786  0.5830514277592624  0.2509492549564954
  0.1684229181919358  0.4125430410457597  0.9227259681599510
  0.6658421239668850  0.6637318350468145  0.8335206506616669
  0.0842137294089055  0.9180735529655625  0.0015353084984016
  0.2509310956092980  0.0023400064842082  0.9175127248270296
  0.3344149230864867  0.6677971489362159  0.0028846879990267
  0.0827819652440192  0.7498805169499004  0.1672133349081869
  0.3328911829818826  0.9167464626487621  0.2514380305316722
  0.5022754943698321  0.4163409847884825  0.5820172142127183
  0.5827989585985737  0.3336813683480990  0.5825418499056253
  0.9957034609086844  0.7471253007492973  0.7538627229459218
  0.4913128600049228  0.7510034643653403  0.9181218286423606
  0.0788207788359169  0.1757308139431082  0.5793642459990470
  0.5008609626398711  0.7499774278759738  0.5820439229665145
  0.3345147524273634  0.0844072128113100  0.2493795723791862
  0.2505467369731746  0.0833709232090706  0.1658201035939336
  0.8309862743404015  0.2498600492315630  0.0851771930157183
  0.6644537550227717  0.8326486551821898  0.3326475495028554
  0.7471054871650810  0.1689365422867835  0.5821280206037037
  0.0795309152043909  0.0818669218864280  0.4921675185151485
  0.6647120429613627  0.9992968296501715  0.1673896021322268
  0.9979959411094685  0.0049924456367610  0.8355499550645277
  0.4995527387206495  0.3338798284911144  0.3320012632917717
  0.0902758527536275  0.9199393779043381  0.8354710557149085
  0.5817712801560918  0.7477871001329952  0.8297784471960912
  0.2494609180368554  0.0013374655000307  0.0867253540401883
  0.9931021373164980  0.2513917925628373  0.5798922665463720
  0.4982286029045678  0.5004788192700698  0.9995791086699876
  0.3371699477552844  0.0844417014698114  0.5826703881631613
  0.2515303382287312  0.2520450460370572  0.8355815617819050
  0.8306258680110573  0.9174400605139988  0.0853863507861748
  0.2491063149379070  0.5818155197032803  0.3337072771328125
  0.6659461569637051  0.2519997920993168  0.5832203643498511
  0.4170597196957265  0.9993920622514991  0.0858145286294310
  0.0761145610492059  0.1659587301543557  0.4169471269971224
  0.5822734954983873  0.9969924266602584  0.5818672425971154
  0.7493477242637521  0.3340450802460879  0.2497106948782390
  0.1696642953132575  0.9182391329356139  0.7513222651808775
  0.6662412517675255  0.9154191555981801  0.7475393512838887
  0.2595569805935780  0.5802915497980612  0.8352792267599676
  0.9129538871774169  0.0000891129971876  0.5814221296959794
  0.5840081262028596  0.0836948588652530  0.6666520051351648
  0.0842108501310325  0.3369298472506354  0.7544895518146617
  0.7478002300220244  0.5013570194900188  0.4142453979565355
  0.5820508863218838  0.5825857515539510  0.1671468544338875
  0.3338017483516277  0.4185353231605829  0.2495254291990876
  0.5804037090491743  0.3351225350730205  0.2502049452776363
  0.3370524194206924  0.4986133582904492  0.4970262059046783
  0.6656355946210709  0.5007798703985368  0.3331193830374272
  0.3316663959340362  0.7478397068500228  0.2507421821556758
  0.4185994038885960  0.3338149443382765  0.2482749564460719
  0.1663298749137419  0.3333969495840353  0.0020868910544565
  0.4984691340711185  0.7483907862070779  0.7491816576472662
  0.2529549909281456  0.1728026927034405  0.5834635663273967
  0.4177792359599133  0.5016863925684306  0.4169498436330077
  0.4999700939280526  0.7481610400292072  0.4160836431277244
  0.4995204718213660  0.7487024842202792  0.2497195080163337
  0.5831547276194969  0.5834331727652666  0.8335267805505203
  0.4997556829027463  0.3338239530743963  0.1677648216893868
  0.4182086007479554  0.8342747412351547  0.9171303437356257
  0.5826317481257760  0.5829723216806039  0.6649128855997306
  0.4183908066558801  0.9924165012259459  0.5820221728730552
  0.6658558201175495  0.5007006169141739  0.1665153125337097
  0.4185624637243198  0.2496690736368017  0.0019443607489850
  0.5843507407406703  0.2512958068747180  0.8337687794785272
  0.5131583893302083  0.0828647365272593  0.5816463167554097
  0.4982179259425072  0.5012125978935689  0.3345061595873433
  0.1675204166574593  0.1670366437185742  0.0019625473375995
  0.3375954942361231  0.4973133491511001  0.6656279950667281
  0.6638998230639082  0.4188420555465328  0.0865617682570242
  0.6634110755393566  0.2495747661356230  0.9176510097285582
  0.8306122402599095  0.4150417394528924  0.9203498108701793
  0.5815678747425697  0.3333555668857252  0.4140318955467158
  0.7471888415943755  0.0010221368205090  0.5818086513064604
  0.4162279828389587  0.3331369367047592  0.0843668917749594
  0.8284344162306698  0.1662490029456638  0.4976586985037517
  0.4990504683741679  0.9166489858935333  0.2500531054446372
  0.0802077515016294  0.7422970192509598  0.8369457005219011
  0.1631707371986278  0.0866015279865744  0.5799413202856737
  0.3355268339791896  0.8329364203872083  0.4967824946123280
  0.8308759571504426  0.3334540503227570  0.3298819447654520
  0.4177122708728485  0.0846228647348652  0.3310173004820999
  0.2502352580188582  0.9152187894437263  0.3318187166013662
  0.4174837273120910  0.5838766095017498  0.1671787749140057
  0.2493354753301769  0.5817773317170909  0.1661467708179429
  0.2504122549140110  0.8322590685573528  0.0870287153384757
  0.1680756691941353  0.5828174678806787  0.9276787618283643
  0.1675976468830514  0.4927585805915222  0.8381623042239951
  0.6675705873983716  0.1688045616953466  0.4973880490806435
  0.4161819873880916  0.8334680682098724  0.0873788642248121
  0.4986712499028131  0.9169309956976065  0.9185500742203589
  0.0817910266561788  0.8323522959847504  0.9282982461057121
  0.1658291463314414  0.5760602861363301  0.7506089478394068
  0.4185796897071957  0.1674334187689292  0.7517054635344346
  0.5000567930867518  0.1657962156785342  0.1664435173758260
  0.4995562345627589  0.1668347223807023  0.0012257584186642
  0.4174964361451631  0.4999726483636608  0.9185452225404788
  0.4180187152241994  0.0841810282374322  0.4940858104645510
  0.5813814951471480  0.8423878135938561  0.9181318435521248
  0.1697667271621046  0.4868338083506913  0.6651222104197672
  0.1677427142366430  0.5836029615660520  0.0861419550460766
  0.1686264681985234  0.0864343125426585  0.7500060450866423
  0.5808202827564395  0.7512769761599690  0.0079684361633210
  0.2509011748697161  0.7487060515795655  0.3318915268175991
  0.4182058857962794  0.9143272492601950  0.4980192305452287
  0.0805522488751238  0.3309837317958291  0.5760569157151015
  0.2513646247242917  0.4180184765399716  0.3305705313516211
  0.9920776671745761  0.8263457850385646  0.8344361770441950
  0.5837204547645466  0.0830361262411302  0.8347627391201683
  0.1671888463019540  0.6717862003919227  0.8388480882592392
  0.4177671863187017  0.0848517207557314  0.6721806735559079
  0.6625830175906963  0.5824212450008583  0.0861984706469807
  0.3358174618573498  0.6664083408380531  0.4969721562079187
  0.2501294440616750  0.2504066678878852  0.1674728559238588
  0.6643012444502086  0.0007117691286211  0.0028896136225227
  0.2526001896830178  0.9927811810980097  0.5811138352201660
  0.5817692032900236  0.1647691413121148  0.2489644867279544
  0.5848511041503498  0.0844715597525732  0.4964517446441168
  0.4991691278828533  0.3327045952604493  0.0010532513987970
  0.9988418440291733  0.9165878333097666  0.2490282675537854
  0.3361079286422101  0.3320696654905052  0.0024819924123056
  0.3368789496734913  0.4157919849228977  0.7516521789425656
  0.5022122966950262  0.2529100490794373  0.5822105681010487
  0.4170708683924452  0.6652165292884155  0.9180449446564376
  0.9943564531953178  0.4142446457249092  0.5795245139435437
  0.1679378884627248  0.7503894007562446  0.5719199133092447
  0.2524512818162232  0.3328494446231794  0.4141577122094039
  0.4183807489803637  0.1682677255822990  0.9185044091202095
  0.0817031609947040  0.9245663913147090  0.6694803300380097
  0.4180035618324249  0.1671795350903504  0.0836647826408898
  0.0835351189453442  0.7498667811510611  0.0035544516551059
  0.2511217830119348  0.0847217892816992  0.4942786931700901
  0.3356556872169029  0.8346322582874709  0.6668126003176226
  0.0814037168671392  0.8342296750431173  0.7507172428481542
  0.2507050664441583  0.0860618559701386  0.6725063543439506
  0.5001478259422344  0.9165598495492345  0.7502585418582063
  0.0843263687882998  0.4931880257789167  0.7529984076910459
  0.3360549987816547  0.2519576439300650  0.5828737522794163
  0.2523066657539602  0.8337310061242431  0.9192944106283962
  0.4182773629162024  0.3323144531587628  0.9193110455277637
  0.3362408623043944  0.1673077491454895  0.0019605560156772
  0.4173772223859392  0.0010276174911212  0.9160864901423224
  0.0828213741729571  0.8378002955468783  0.6590727511134901
  0.1705594646812148  0.5738147272981027  0.6600266808142844
  0.2500050915872363  0.0825889946045903  0.5834347192721863
  0.1716299451972782  0.6669787730874803  0.7517151143799362
  0.0005742281449292  0.9165015085699485  0.8368255292606419
  0.0741874961556213  0.0841177973787106  0.5823347240765795
  0.1702211936328945  0.5805296743110423  0.8412397754770878
  0.1673853754583256  0.1683088289904663  0.4111076398354395
  0.0867033195884456  0.8295017637370207  0.8397738669050908
  0.0843874183620191  0.3305824070355723  0.6655622361584875
  0.1732000283311059  0.7517112961180613  0.6603726444703601
  0.9908950190585001  0.7438262066133283  0.6628080416926727
  0.8235390544640546  0.9165656203576956  0.8351498813269880
  0.9947151795148483  0.4982146037036015  0.7512248308765125
  0.4256335244080853  0.0825726505628077  0.5832105851811565
  0.9997880672510691  0.0926892194961993  0.8348118593012364
  0.5804274766350827  0.7522690745667377  0.9189243573713304
  0.3331689800295226  0.9168629940947973  0.0848285298036244
  0.4156517919615760  0.9161671098548720  0.1685344476873426
  0.1692851046220120  0.9180812839950984  0.9208727104854310
  0.3349379571542201  0.8346488694331728  0.8356006918183115
  0.1659409043514742  0.8329733349826453  0.3321292143153970
  0.1680930548951963  0.9168629964589053  0.5805217116315819
  0.3357068083707752  0.7504877394235681  0.5800686834673853
  0.2518093091726746  0.9159267023099098  0.4962139344036385
  0.2503024959682321  0.9167704861144874  0.1679324190150354
  0.0827575060835792  0.8329420157861669  0.0843009899337010
  0.3343829336821453  0.0829346895081640  0.0844056706287138
  0.2598302501002344  0.7492060597915442  0.6643090322116298
  0.1690930170207463  0.0021147514488628  0.8355941149070801
  0.2540617056580615  0.8351119486247423  0.7508060196202002
  0.2532106946473588  0.9174978087694369  0.6665124438734270
  0.3337599909665316  0.9995111460249958  0.1674453305302423
  0.4193590144706887  0.1720823084186709  0.5830937655375147
  0.8313214849067211  0.5832391798546157  0.0858053256967055
  0.3345509732120807  0.0839433766344638  0.9186763130538237
  0.7468414545108494  0.2509320275539709  0.8350981033022890
  0.4166526958544205  0.0825944870488904  0.1669663885349602
  0.9977710535521928  0.4988133348965043  0.4963848022554515
  0.4996825734298186  0.0823958696235823  0.2491971587345012
  0.9145159701769688  0.4983000513043157  0.9201885016371243
  0.2502084473826820  0.7498313889215787  0.1679625581538572
  0.7483048217630492  0.5818316933942714  0.8354171220641655
  0.1672627942608941  0.9170772453198174  0.0848417901284036
  0.9941919310298212  0.1693629181752247  0.6668831212794952
  0.3357909575135389  0.9983033268777404  0.4969871482905325
  0.8318926771360902  0.7493777905139820  0.0857451419379233
  0.1680298152646442  0.1708519545741835  0.5005031895013209
  0.9151480435560766  0.6656987550345689  0.0855721237087322
  0.2513362845695550  0.0014806043815042  0.7510607398557659
  0.9947275154132145  0.3325704472703626  0.4956372173250746
  0.0807427189732515  0.2509006815888831  0.3309784839223751
  0.3340355198029076  0.9999504145200470  0.3324846842085674
  0.3340563840184247  0.5829625445754674  0.4154784394361706
  0.5008266853584112  0.5838823731133601  0.4161532609873851
  0.7475550815032069  0.9166788912352392  0.1673259070288027
  0.4186283257934362  0.4160168988933493  0.4981642095686513
  0.8312317079792840  0.6657874573265730  0.3320115010924879
  0.2490825721138804  0.6648025260222428  0.2501218536054179
  0.8326248973753072  0.6657685668438529  0.1675623300537070
  0.3352606221256355  0.9171179520216222  0.7503266832054931
  0.8293253071826290  0.4993959401460815  0.4969611114213687
  0.9145586070145864  0.6649219784576034  0.9209518894354753
  0.8302774462516107  0.4989167145549587  0.8369738359590640
  0.9953807366993930  0.0824341940184198  0.4133659979506860
  0.8286260354514896  0.5823597996959434  0.7501471776797664
  0.8308804412449728  0.8331319364899173  0.0031767180810674
  0.8292305078756482  0.4161197560882346  0.7503612255746378
  0.0849227588829339  0.1692166495108446  0.9195411566076174
  0.8303284207424727  0.7499831136640412  0.4143547093558526
  0.2525737919587918  0.7497291112042338  0.4971113703567048
  0.3361173966141368  0.3335352997168959  0.4984367877677263
  0.1661551712216434  0.8334881928726203  0.1677824587157686
  0.4159862144517631  0.9998920181437860  0.2505047014543014
  0.3341253649273944  0.2499059370580863  0.9181498532293665
  0.4993135658335588  0.9157850103256271  0.4145871142944992
  0.2591632754708695  0.6644636316122918  0.7503340090687937
  0.5012554358470838  0.9979864915756320  0.4965345571035127
  0.4179725814459145  0.5833642665540471  0.4984726419884510
  0.5014582822622816  0.9986680370216160  0.6677543841421034
  0.2529041578258898  0.6664921892264445  0.9203125878318398
  0.2546176502086327  0.4970853792821022  0.7506237190258970
  0.3373295727771040  0.5805028120432981  0.7498161180318671
  0.1689868004535356  0.7501167974446447  0.9219344372342198
  0.5008790669849085  0.4173051896963604  0.7511506703504013
  0.1746586521334716  0.8340893470507292  0.8372883768210755
  0.3348090761546031  0.5826559123551851  0.9201730520852748
  0.5007580210028904  0.9998629154409928  0.8333493142135419
  0.4178196398119103  0.5816552201705787  0.6648376103967349
  0.3365417080626203  0.4159712155232253  0.5813714290087990
  0.9153877640073548  0.8329574834974588  0.2494503107133822
  0.9978644545259613  0.0825119164132370  0.2493309764307068
  0.2520569675004069  0.7511157851829530  0.0025010785306461
  0.1672012483449392  0.6667799293850539  0.0034103883751612
  0.3335244714867851  0.5009939805389602  0.1665620220446374
  0.1687138053477465  0.8342327189210412  0.0032357032872690
  0.0814260999269426  0.5818507673037684  0.0032352518476914
  0.4168029581026322  0.5003473254940578  0.0835533155878060
  0.4974200701737373  0.6667792875848462  0.0022582469544956
  0.4990604887101014  0.4183363861694170  0.2504184713186029
  0.3344281954907292  0.5010831643460835  0.3329317844301334
  0.3327826643219639  0.5826201274259054  0.2497191813873111
  0.1699836677934553  0.4162859839975370  0.7528428516674271
  0.4183731369741898  0.3339871064645051  0.7512603542169313
  0.0822483135938941  0.6673809877973230  0.2500029356182440
  0.4184631610088597  0.4157468983354538  0.6659109236310687
  0.3353190738860274  0.3332221737613476  0.8352713179048002
  0.1657403289079278  0.7493373538561755  0.2505099133151704
  0.0830974985342032  0.3328003729018812  0.9202284018442695
  0.4181145947779067  0.4163047165859250  0.8352579772157608
  0.0813211135854965  0.9987799926935608  0.4132293557276543
  0.2530795254732756  0.5816828660532884  0.4966733708939358
  0.5007402973044006  0.0831728166128568  0.4150014403483140
  0.3356719797697575  0.1688467587438865  0.6689789817707645
  0.9142883283573601  0.8320210855097526  0.9222616157651682
  0.4177569376723277  0.0822373443170426  0.8354059558754863
  0.7482042064025787  0.0820105253041287  0.3311074463492607
  0.3342746555135077  0.4168790110929456  0.0849374117078397
  0.0831019477222158  0.1705347093352135  0.7526554574929534
  0.2510130412824333  0.1667125069425019  0.2487823642329892
  0.0842497707883013  0.0022786538036662  0.7507288651447059
  0.1665858772869380  0.7497701598979643  0.4143130104613476
  0.9950821364440627  0.9170508987380517  0.5807887078166918
  0.2527559420904901  0.2525193804705304  0.4983642996888520
  0.8298461559397233  0.9989455068318203  0.4981176852499571
  0.4184691850480688  0.2501327522598060  0.3311948723259578
  0.9959013991195210  0.9986359816882385  0.4966037180975039
  0.9955579662049107  0.0016706590610142  0.6666809477020424
  0.3328325287779565  0.6657741223504134  0.1678970813163917
  0.2512256105176023  0.8320476548826058  0.4133205090989734
  0.5005680349513039  0.6670640437249798  0.4992393018343128
  0.2505147745397650  0.6661913575923176  0.4151281775267189
  0.0835813761771729  0.6635446920259108  0.5771693314277949
  0.4175993721632943  0.6666978378196059  0.5814916160745014
  0.4171824625659872  0.6660278803657320  0.7489145793510763
  0.3363671408205637  0.5817239642353150  0.5798734106147890
  0.4161526314209300  0.5833191172293914  0.0017173239744658
  0.3358692011298454  0.7507235885688457  0.7503467011682597
  0.3359080784641659  0.7505343659339047  0.9193711428486939
  0.4162651981121476  0.5821445859210495  0.8348155582242583
  0.4170167384850276  0.7489249215851779  0.3317955737959056
  0.4163665776994567  0.6659938097019057  0.2500593509934906
  0.4152901160075864  0.7498507079005873  0.1684862668871212
  0.1654161230832645  0.4994170153312856  0.1669327918512410
  0.3342993422374773  0.7489032756630902  0.4147568371087745
  0.5827739813240905  0.7496304309765083  0.4980767192259215
  0.1686678261738507  0.4146227605195033  0.5779011251428841
  0.4994205752282241  0.8321019666728575  0.3319172736863865
  0.5826128425247739  0.9151913799029024  0.3319655218252750
  0.4162573439419919  0.8323260947488614  0.2505158890198981
  0.4172293713413226  0.9995263092617761  0.4148298215260229
  0.3339575434452385  0.8320808768571000  0.3317733642893650
  0.3353794062912474  0.9154027757702990  0.5818099573964473
  0.4171496600209383  0.8316576720754528  0.4142612738553031
  0.5004892000675841  0.8324205246046605  0.4981059903876533
  0.2527126621716895  0.8348812475745404  0.5796434596706772
  0.2530061009441532  0.4147998494215573  0.4970345961691982
  0.4176706122987786  0.8327728063154964  0.5819346838605380
  0.3365719096250755  0.3332449013979208  0.6673169479406759
  0.4992236319439732  0.8345616220682763  0.8326254640824334
  0.1678175990840359  0.4968814792183523  0.4953507853401972
  0.2514720428343546  0.4985133535585280  0.4145830424504718
  0.4155045453795192  0.9170632727534831  0.0020969041108525
  0.3329158572870072  0.8335686363407514  0.1688263318129774
  0.0809427667206460  0.3336524103096357  0.4148210210098482
  0.9156356826039463  0.0010075754640021  0.0843178636155965
  0.5824316503457915  0.8320740114087630  0.7495506049752528
  0.9986980923882794  0.0024410643087638  0.0033587330043498
  0.9120545703102988  0.9175181398181721  0.6652312096103575
  0.7478571806617279  0.9999987414035422  0.0847284149741422
  0.9126778171912810  0.3337864122260406  0.4139055672568167
  0.7472357818747301  0.2503445177014011  0.1673724809484047
  0.6659284042938138  0.0832448906428890  0.4144654942889765
  0.8306708721409048  0.1670735998504446  0.1671249748928765
  0.6650176620815531  0.1677894525458107  0.6665825097483242
  0.3358753992614871  0.1688849002273409  0.4981556507708557
  0.3340368730520772  0.0002124699156015  0.0019391628178315
  0.7470397070093689  0.1676776622681236  0.7508461518940384
  0.7483460048207194  0.5820611783831681  0.1678969259974636
  0.7473156689439553  0.9162598671485173  0.4981112179371497
  0.3334405598684256  0.7506337812864905  0.0855330676270292
  0.1659729292438113  0.3343074607496470  0.3299678202380093
  0.5830391133097124  0.1671468552212206  0.7513160654630774
  0.1668770187123879  0.4151571131811339  0.0848036135456831
  0.5822942855356819  0.4172678849333412  0.0011854317485227
  0.1675839862780369  0.3328260481656004  0.4972977457293575
  0.4997138548542323  0.4169137996232933  0.9181668769067552
  0.2529317903545589  0.3340331379692077  0.7516507478863258
  0.5822103203992433  0.8325676200394780  0.2497711765860962
  0.4982139454208090  0.8330756099803284  0.1684413452272374
  0.1659565267198780  0.2514739664840493  0.2487580750023670
  0.3336835782531138  0.3337325273408288  0.1676334199698503
  0.2510584640612055  0.2501166226555093  0.0017961844320696
  0.2516711657092639  0.0834452103750311  0.0024632416417306
  0.1658883118236003  0.1667550222705662  0.1681247425526678
  0.2503929940350188  0.1673842832971813  0.0847632396387496
  0.7478428606229203  0.8330407020853976  0.4140530929252429
  0.5831816033205625  0.9990336829998957  0.4145786131393632
  0.5000895743180069  0.8324244264402998  0.6662975472050877
  0.4183535194500860  0.9155374293351772  0.6667114519173585
  0.2517012276362065  0.9171796584610146  0.0024090969481406
  0.5826391042758471  0.9149870769977160  0.6661086483841612
  0.4166550651810891  0.7507638403554279  0.8332296347093540
  0.3343188231855058  0.9179162090547524  0.9191795246432101
  0.4980226908976415  0.9168740724027445  0.0853535331022251
  0.3339116662611624  0.1662285158908322  0.1665485625084454
  0.4178940256000158  0.1668367522040244  0.2488732242971305
  0.3351134407898815  0.1670401753751754  0.3310882740147633
  0.3357149817166508  0.0837487543479211  0.4145338103691323
  0.4176368319796721  0.7500933954128755  0.4985829153580467
  0.4168295393298464  0.7504115106160231  0.6652216395830283
  0.5822951652106386  0.6665708368310559  0.5824931632291506
  0.2562058353346710  0.1685663196231351  0.4140126313961985
  0.5003637168891305  0.6662919646347463  0.6658379545388103
  0.9980097511089078  0.1663676314755515  0.3310057026033071
  0.5824327533188365  0.6650536055954028  0.7493139410928920
  0.5823142074503281  0.7492982519727722  0.6663211354769669
  0.4987883830504823  0.5833118265622781  0.9175328171920070
  0.4983958016279947  0.6658071611612149  0.8323683423650109
  0.6655958110816095  0.7493604093591573  0.0856124960878182
  0.5837136983185948  0.9171771438612902  0.8321316406282599
  0.4973000564767378  0.8349793889052896  0.0029805115061528
  0.4984396767276397  0.9990035490382253  0.1677581932032235
  0.2501795939049967  0.4995072467668984  0.0847294107149749
  0.4174519076736522  0.4156707462604071  0.0015770570509236
  0.3327524904570072  0.6658348186997013  0.3321098388784242
  0.3341777357408615  0.8342680826161162  0.0026129339913095
  0.4185332260420537  0.4991841762892886  0.5816402383513734