Cr  N Ni 
 1.0000000000000000
    21.1208425590115922    0.0000000000000000    0.0000000000000000
     0.0000000000000000   21.1208425590115922    0.0000000000000000
     0.0000000000000000    0.0000000000000000   21.1208425590115922
 Cr  N   Ni 
 259  17 605
Direct
  0.9157906666003793  0.0841889095211163  0.8329732287540276
  0.3349860682258508  0.2514994006344031  0.2477154631466632
  0.1674025899479309  0.2526208779267072  0.0837610475810366
  0.4998992555095665  0.7477074318158913  0.7504783505619047
  0.1689446758780952  0.2563525556049384  0.4141973215508238
  0.5818630165873567  0.7494646815777621  0.4989002861571551
  0.5004714409688119  0.5816494632288292  0.4165536621015259
  0.4992546997656026  0.7485253239594697  0.2518956685797151
  0.5813949418298625  0.6617072395359450  0.9174746278262788
  0.3344146435915863  0.5821136643179570  0.0834237861640813
  0.4990212062974059  0.6633864186129991  0.8321804569562248
  0.5822451884497079  0.5811454724210930  0.6643565353400829
  0.4171965403261927  0.4986358425657720  0.5809807365087487
  0.6640399903534135  0.4996779032404860  0.3315042247294585
  0.3328419035136522  0.7483562213975865  0.2527283461561602
  0.5838865395762505  0.0001653518431182  0.4147489989712818
  0.2517368970254310  0.2508523607468364  0.6678369487261528
  0.4184900647912539  0.4161207812852766  0.3331046108220599
  0.5002590456137899  0.4166418377985703  0.7505763640819567
  0.5844080103566737  0.3344841007717362  0.9193456229681990
  0.9999745424095284  0.8313798201979375  0.8356773211486552
  0.4998824581822901  0.4163629464770664  0.4147632946584261
  0.0904656709735607  0.7483421309805739  0.8323551808543014
  0.3347736107316548  0.4994125159666964  0.0000789965373457
  0.2512647207839279  0.0920514323744661  0.9996426974301474
  0.5830079131937255  0.5008889329319731  0.0863780806889184
  0.7502422455552347  0.4170462332087328  0.0014550282406901
  0.5033085866848793  0.3349686353669339  0.9993805080766494
  0.7482403300330833  0.2507603185994509  0.8331242124209988
  0.5845509654297188  0.2495485830584006  0.8333500216182110
  0.5842672721727292  0.5008653269029124  0.2500507505707006
  0.5829179476292886  0.3314126710564883  0.4162144933382905
  0.5827791524643091  0.0018837204784670  0.5819479336218030
  0.0827416660439845  0.0015069881374410  0.5813748954421700
  0.5835140884786260  0.9154104181191629  0.3322062796574335
  0.0006814758266911  0.9159687428398317  0.9262037789964427
  0.5011504911102390  0.1652416685439484  0.1676380269314393
  0.0903853750462092  0.9156475952352376  0.8335472626168728
  0.8302762068751779  0.2495194815614589  0.0845278845364032
  0.2508314816158632  0.0006921400459013  0.0939121520532523
  0.7484667704028786  0.0831280676626661  0.4991684717132697
  0.5847349043241216  0.5018790045277255  0.9180176796912182
  0.7488086812245635  0.0836365592999284  0.1662182103626949
  0.2495903357783298  0.0850888930995908  0.1667895738615323
  0.2512663177712116  0.1728499385091495  0.5842864371634762
  0.5814129061016413  0.8320720886676323  0.4154608881816623
  0.5814437016782388  0.7489155015430972  0.8255767514248491
  0.1722496963443023  0.3327353822863826  0.4989860903393090
  0.2570112968967160  0.1681281395684610  0.4147887625868195
  0.2502106459816246  0.1707742833329921  0.7499761798908933
  0.6659116167898677  0.2495215708723279  0.2503538881237500
  0.4189302627594538  0.1682880988239812  0.7522271008365732
  0.6666538567218949  0.9992417837937617  0.8317338056580479
  0.2522970118803715  0.5826086347729965  0.3335436597205377
  0.8280533488818531  0.0002131746032928  0.4981174837613538
  0.4981702810232909  0.9181241663330363  0.2522029560017962
  0.1672268752633525  0.2516441461205496  0.9159494105173459
  0.5008667241184004  0.1685627895732340  0.6671832724913725
  0.8312269353639488  0.9159167418755756  0.0868226492354563
  0.3336213094278257  0.6641808511418088  0.6661695155476289
  0.6662858080566985  0.2497643447309730  0.5817534973790252
  0.4173388649541246  0.5821409460627108  0.8340952779551196
  0.6654926561625815  0.9994534228775896  0.4987402729119523
  0.7493535247427808  0.2506142695975141  0.4988812224201091
  0.4178687598090340  0.9190843312510223  0.4983476444830995
  0.5818194949925178  0.1674642851072036  0.4163183083546618
  0.5829352684406922  0.3334610720266890  0.0831763789432332
  0.0838620121332768  0.8364864883345200  0.0864127466878788
  0.3345094557336071  0.3349215815647630  0.9993476663637767
  0.4193918594161546  0.3348342944571715  0.7511462963617407
  0.4173741566760724  0.3351019235803107  0.5834105811442677
  0.4176205845100681  0.6662718060519921  0.9167149282957330
  0.9971281773485563  0.5826130536174842  0.4144863712289838
  0.1682713696338622  0.7483958881074267  0.4162797896779327
  0.3346233252002582  0.6643714844044727  0.4987053169828299
  0.3341337667240303  0.3342004253023730  0.1677810964745375
  0.4175787021200598  0.0765054915064637  0.0007464679563884
  0.2507444213019465  0.9959159276817557  0.5829443337494130
  0.3341958168410810  0.2509345549245331  0.4150126989503950
  0.5817272183699880  0.0849184396139876  0.5002110686776535
  0.4189101441648151  0.2529302594482655  0.8342016974146830
  0.4178521486462768  0.0854114568391389  0.1680273073276875
  0.0852012623204831  0.7485319704058770  0.9999851646078232
  0.4167189846740859  0.1675559596521685  0.4150109358967818
  0.3349697583420023  0.8316571438910182  0.6695472879246037
  0.2520218253635614  0.7498825036825620  0.8336592340414885
  0.2516143992535548  0.9993421890823276  0.7431124968558022
  0.5005982723593985  0.9176586090917073  0.7492865887682255
  0.0849840658694723  0.5820997960299698  0.8361476489476894
  0.3387595385893064  0.0001367904307613  0.8325210705926228
  0.1674233945417417  0.8316201597392657  0.0022991495645562
  0.4186914288030101  0.4164554340743509  0.8334739181132312
  0.3290188565345142  0.1683743640708236  0.0000612021810240
  0.2495387525932137  0.9985372167090069  0.9180487426775300
  0.2524814362791877  0.5825506736630214  0.1663289409825995
  0.4984353086955137  0.2498039732157096  0.4166053707761627
  0.2502581882502304  0.9161933378107804  0.3324729129760522
  0.5021242945799044  0.9189997349956105  0.0863033225995559
  0.5015187825812849  0.9977700506634657  0.8316578069643735
  0.2503709503199728  0.4173611160221580  0.6675875962514773
  0.1671458148633111  0.3342147898879681  0.8338724283803537
  0.6645348941874391  0.0829410295817252  0.9164789488505494
  0.5007126885183507  0.0004968306075601  0.3330590379514919
  0.3399523982404395  0.0838597630671540  0.5854323469014860
  0.5009274162878850  0.0004365759382075  0.4980415807163244
  0.5002694200616659  0.0855313234323530  0.4152174310943255
  0.1691396010387659  0.5824894248982434  0.0826182579096638
  0.3360094698792985  0.8317568760839810  0.0029361609283212
  0.2508587537932511  0.7484882573960741  0.3337144710435793
  0.3331985093116786  0.7501425401982053  0.0838314200133081
  0.3356446969306489  0.4984359015402524  0.4994949639780591
  0.0885307068299542  0.4185778943295603  0.6648669988017311
  0.2505277112728258  0.4982277711591340  0.7508840120242172
  0.4997324779811478  0.7494499022465519  0.0846770753698777
  0.6665705139652645  0.5004596835687479  0.1675360952995286
  0.5004757268661705  0.3336531079177590  0.1665916065683021
  0.1657070378720623  0.8315013772742282  0.8333265221624276
  0.2494001067906255  0.9080277541585250  0.8329491675629644
  0.5062712912624526  0.1659291238011337  0.0000654430346139
  0.4184613190701931  0.1685938615803256  0.9088601481620072
  0.1607489559830141  0.0844911357381689  0.5846932174708890
  0.5846127545450867  0.8388053452403710  0.9171040612638255
  0.4995835770729377  0.5807394937794199  0.0851273874943705
  0.3350110665930175  0.8340790992952180  0.4949568922789954
  0.1605660942574947  0.0013642127641252  0.8339896948661742
  0.1668769515810563  0.4180777573846027  0.7511028249263300
  0.7482111604839580  0.2511855545890497  0.3322693778109831
  0.2523473067411542  0.5817456953010860  0.8350156641194100
  0.5012946906422459  0.7492630899889238  0.5822996286622820
  0.1685232106916568  0.3341886569231126  0.1650350554642425
  0.4946306291668136  0.7491178308717724  0.9149327875377306
  0.0841749274322629  0.3306618620688229  0.2471731461277901
  0.2522230953149979  0.6642542350052646  0.5805384890849766
  0.9127056984205396  0.5001945507555078  0.4171806802990513
  0.9989803498759559  0.0119638872952976  0.8325991928479453
  0.9208951337318757  0.0850380452004622  0.0016539833256264
  0.0834680338662318  0.3343811695859274  0.5896853514051428
  0.8300221512548578  0.4171469271360683  0.7532153285408475
  0.9964158414130886  0.4165001817733492  0.0810720943011303
  0.8290323425661372  0.4996765661183385  0.4983769625984490
  0.9978532960805236  0.4975820622346961  0.0021650723554642
  0.9981999872951770  0.4191769534654556  0.7576508034356549
  0.9145841445621229  0.4170455127813837  0.8345333007540410
  0.9984578092627057  0.8340718772049609  0.6550641539769863
  0.5822648218060895  0.9153938158184780  0.1692187206527610
  0.9134993966242608  0.4164440145055204  0.9994705538868665
  0.8301874845397765  0.0847914255552943  0.7473860322050460
  0.0830790277878140  0.3319600453218828  0.4123853343921385
  0.7487320805494728  0.0834705032204730  0.6661781083586540
  0.0818641816725330  0.4173442214214244  0.3395440310849162
  0.9172244027983012  0.1660778077401652  0.4158833258490673
  0.9946802069180317  0.3329671108835688  0.5011705894039963
  0.9994599597216517  0.9151436007319478  0.0849269468032478
  0.9971138410112058  0.3302987327258859  0.6660316651009841
  0.6657134893924332  0.3331897843042819  0.1659281206189531
  0.8327559928984566  0.2500408100786067  0.4163490804095665
  0.8293170547948766  0.4991972956528871  0.6651774066177094
  0.9127129580118259  0.5000153443785903  0.2493670633965403
  0.5855210308865085  0.3348015418793858  0.7501851127985411
  0.8315749983586179  0.4175777260135190  0.9170161467370763
  0.8294295885494943  0.2498782551011713  0.5810965834352878
  0.0831602468428146  0.0852597501526604  0.6664519179556563
  0.9099325888017817  0.7410449969548004  0.8332024682549763
  0.9151206849854228  0.7497426196880630  0.4980911863708045
  0.9998805627753320  0.2495108698638164  0.9162051892240444
  0.8284728236138647  0.6646577331070511  0.6636813815554198
  0.9996513823553276  0.6542308893751227  0.8356689058105706
  0.1607500606783189  0.0017378936244205  0.0036640557523017
  0.9984535553070619  0.9989192280128032  0.3327156564801720
  0.9980823176566400  0.1675904061349641  0.3308812452894561
  0.0755496860758105  0.1675325155911268  0.4139148029284272
  0.9971427862571519  0.0008357639968657  0.6648925863057057
  0.9979695062978621  0.0843793744311261  0.7475689020102501
  0.9073965055280246  0.9197887336950773  0.8329957626817190
  0.8298008653407303  0.9166028365518494  0.9186309184903030
  0.9984641372935184  0.2506576887454094  0.0837109154241110
  0.9088546808493504  0.8325269797360386  0.7423874368875081
  0.9976209987418387  0.4199814961534819  0.5792181831315775
  0.9991912483724174  0.9231987709433698  0.7452949635584143
  0.9140224518035464  0.8324708357285712  0.5814722524260780
  0.9973988607360236  0.1679948394386760  0.1673705376140447
  0.9982067495132766  0.6601194377320405  0.6650506591970121
  0.0820604234141727  0.1660920005495160  0.2466713867125314
  0.0002349286216054  0.0842221240171219  0.0876399736431284
  0.1677201420299501  0.9169309870041003  0.2502657725543675
  0.8298395273941800  0.6651681529694042  0.8347606107980199
  0.6667995043250461  0.3320598265683935  0.3329628079613305
  0.7487669267582446  0.8316092891115081  0.4165027345729540
  0.9980959371943863  0.3341107755574608  0.9998002308104424
  0.9130491343981140  0.7471448481587778  0.0035364391835481
  0.8328689379414450  0.6674384054005394  0.3316809984182171
  0.1658849539177809  0.0798630699869881  0.4148060053074292
  0.9127020363382495  0.3338376311617234  0.2480718175090182
  0.9141799119198010  0.3327531122599485  0.4164888024276681
  0.3330499761365335  0.9171669545425265  0.2519247456653306
  0.0852679787359290  0.6573082231907226  0.5809027977837465
  0.9972438654185559  0.5827556195947953  0.5794848773934910
  0.6653834058048751  0.5841428703347612  0.9176013787237636
  0.5838957970133896  0.4989210717680518  0.7490439459907315
  0.6670077641645507  0.4162400879820299  0.7501596017049798
  0.5815760609067951  0.5823954611966626  0.4981251942164803
  0.6658833338862068  0.6677642222523128  0.3328606932780678
  0.0890210104723306  0.8301652518022119  0.7471988683916168
  0.7454594253069445  0.4998002856987564  0.2494432645666175
  0.1680220373762489  0.9170678033707531  0.4136734655275708
  0.0843851261909260  0.9140561417660151  0.0021483966295408
  0.7495556979103031  0.4171802492151611  0.8348383668697418
  0.0832918844247667  0.8339843720775547  0.2525029195469836
  0.9967101610231115  0.9177920810226428  0.4161658373442602
  0.7481599217130729  0.3335431781484507  0.7495178096874655
  0.6651070582233357  0.4169275008355374  0.5810863760791320
  0.0840191278824818  0.7489637748995704  0.4900361023921769
  0.9972388891003219  0.0831932274382104  0.4157553284489030
  0.0825459743636421  0.8360367779684142  0.5822493774456532
  0.0835973903549286  0.6638074986567923  0.2514065221728589
  0.0809873209094929  0.1666346018416133  0.5845364263124193
  0.7475217829062824  0.7494713125092353  0.0054973848340465
  0.9999942645856954  0.7419615281286029  0.7409747335781950
  0.8318392061726260  0.5836244353561423  0.0860403567138387
  0.0836601258591460  0.5071625170777768  0.2488676214125829
  0.7480942015509621  0.8311686359090121  0.5813377626668419
  0.9983691565310431  0.2500670199834412  0.7505316667533311
  0.0860216622480907  0.7436151375352409  0.6674328807794855
  0.8304444606552439  0.9992572981927454  0.3331702733223029
  0.3394289265608688  0.9992911575951731  0.0011652182952808
  0.6669467758595568  0.7498813627121341  0.0857196617585428
  0.1664285776975432  0.4162364667894532  0.0846575464357112
  0.1690693735875963  0.6638826683580605  0.0016264354097704
  0.9966507172802296  0.2505470991704489  0.4138163787222159
  0.0815482171126699  0.0848434817605892  0.1683751507734137
  0.9975626314568745  0.1663929232665823  0.8328644789502196
  0.8302504583942135  0.4166816516981752  0.0822697372268633
  0.8283884315887428  0.2511278512742156  0.7504469082527254
  0.9969309348002969  0.1662713573328182  0.4986514068545777
  0.6666173205554491  0.7485352751898274  0.2512138845355450
  0.7482260922823284  0.9997970345908765  0.4164774359658923
  0.8305249682725432  0.0846957041566314  0.0904814061920771
  0.7447206349496117  0.0831504606942252  0.0033592804975084
  0.7475772635144352  0.8334967386795652  0.9203270613972806
  0.0003119625175907  0.5095059199871089  0.6643963112964624
  0.7492329205858038  0.9177479086654935  0.8316992040581670
  0.9147714575925976  0.8336097102624371  0.2512929501311574
  0.7474823652072552  0.1674907786465314  0.0857762696539636
  0.0825816947381306  0.4168530713794504  0.1612853095972347
  0.8196275258969067  0.8320142404751382  0.8332088621549991
  0.9131768680475140  0.6677297347987318  0.2519014946043887
  0.7487731194503641  0.5816790316326256  0.4972489607964012
  0.5804787909188622  0.8308215938418040  0.5824000482793861
  0.5820433295080385  0.9987744564614471  0.0861187908900012
  0.0851233296716156  0.5824968707011260  0.6663422420984727
  0.0835774357601944  0.6592896979677332  0.0850030456244906
  0.4173343295432789  0.9167052663838999  0.3329042831521630
  0.6643514911656320  0.6651558323819980  0.6643473241112722
  0.6739412028132017  0.7490181525616517  0.9194065777912974
  0.7489651888829114  0.5831646678023398  0.8327390744172689
  0.6668867875077680  0.9169363845201914  0.7481382628174813
  0.7485791324394970  0.7504421028227918  0.4983767192468388
  0.0818395077153504  0.5821520681467947  0.1675666353553837
  0.6656025067336205  0.0001781612011454  0.3337587964493012
  0.9999628193523094  0.9236318727138374  0.8369898931027940
  0.5842695518144557  0.7505527683782873  0.9168369895388825
  0.9072509009726508  0.8302116451624542  0.8342391218878230
  0.2500833835493904  0.0013442309715306  0.0064776677529188
  0.0848574354928978  0.7470810324300451  0.5786673805947532
  0.0821728580828614  0.7478345738804311  0.0876857452491376
  0.4177596417772855  0.1660252145884097  0.9982065973893989
  0.3332844334068616  0.8329263435376757  0.5824409329516466
  0.8330727350837565  0.0834966522220183  0.0006241576519725
  0.1667549851609911  0.1678606600760142  0.4144537754860745
  0.9977266488283137  0.4197292139593027  0.6687133864796085
  0.0836444831678689  0.3374045843585786  0.5007906265153367
  0.2511683281370551  0.0841544954722646  0.5834390318175642
  0.0831797064526468  0.4185614560995618  0.2506114572845765
  0.9994023413593330  0.8328755487947986  0.7430793084663004
  0.2496274429125641  0.9998237957822254  0.8298747624030682
  0.0017723858736716  0.7407344179899998  0.8342426531610106
  0.1669463979028775  0.8348352348410162  0.4960052760977458
  0.0835868553045830  0.6645373699596444  0.4149613904410381
  0.6653726681163733  0.6676210512254883  0.1676769359564052
  0.9982120424586539  0.7496249302015435  0.4159997247663215
  0.7488423827039024  0.6668555695198242  0.2509349995568319
  0.9982863469499672  0.6660254471293798  0.3330386011117049
  0.7482423536318245  0.5832143466633456  0.3323862937560113
  0.9989042666015022  0.6646085240240101  0.4964372336179004
  0.6657459141239203  0.7498636925933682  0.4161459822049410
  0.7491369697354180  0.7499544281673441  0.3330446852811255
  0.6646236799232325  0.6663718289943239  0.4984687242831760
  0.9985690010154264  0.7494012015294917  0.2521214845353068
  0.7474657761679206  0.6653197341171505  0.5806275493350138
  0.6648127283528111  0.7491515923811687  0.5811303334778675
  0.6662221931188186  0.7481164563227263  0.7481202126408578
  0.0821491243222715  0.7482730647849550  0.1751640818796504
  0.9990927938171983  0.8334708720814846  0.4988995925822494
  0.8320812777487415  0.0837480395332001  0.4150346386081394
  0.7478701158407692  0.6646663846963246  0.7482839786050460
  0.7480669314181765  0.4163715458912679  0.6658774742172205
  0.6652827171872558  0.5836830451516026  0.4156006712262340
  0.9129967273423846  0.7459311374880877  0.6629421256144746
  0.0853910990348067  0.6641729890491616  0.9195219904322945
  0.7490226428381219  0.5013095532196642  0.9180103074028424
  0.6651958840365514  0.5829267905387697  0.5812761572509533
  0.6656166156189808  0.6653131380582705  0.0032873639995678
  0.7482362381020724  0.6667437192349744  0.4156342515806263
  0.9976505641969934  0.6650098306452987  0.1698651739179755
  0.6656139191905909  0.5818993563987717  0.7488262085283325
  0.6650344780058153  0.4158575141589367  0.2494292088291095
  0.7472475473165909  0.5826704875827217  0.6650593884388717
  0.7491241323698884  0.9996845662749210  0.2506212632875215
  0.0864387340185732  0.6618144488210349  0.7502153851676941
  0.6657632779677619  0.9164426184781361  0.2511388816074254
  0.6660664544568888  0.0845256283416885  0.5828342960469801
  0.7482680861493313  0.8325359382029880  0.2503456169953964
  0.0830181257665028  0.5817875270239735  0.4969994361766600
  0.9951204655507204  0.7450994857754301  0.5812381122691407
  0.9153465404089437  0.9164146895190178  0.0031339715885444
  0.9998579985746756  0.0858344408682549  0.9180500800131370
  0.8320716599521308  0.9987293187884504  0.1670370349684893
  0.9146313838635349  0.9992767247876908  0.2504471782878072
  0.8313569784150848  0.0827577018174920  0.2497334705709709
  0.6644725144815471  0.8320714172799011  0.6640719409396647
  0.5826091460059135  0.4994678597131332  0.4153605871953849
  0.7476805529238141  0.8317210168631752  0.7468243645760171
  0.7473777401157837  0.4999596392388512  0.4152978527696364
  0.1677786889160741  0.4994983784227960  0.8345524127389381
  0.9988400727930132  0.7467590101971764  0.9233808973255254
  0.6673614041602898  0.9170885103882164  0.9163212613630619
  0.7470609759081391  0.5000554935387083  0.5818799752049791
  0.9123898280126888  0.5835934051786931  0.8339122496567143
  0.9956673205166837  0.4169853396999843  0.4159494860417763
  0.6653441084192711  0.8320649748415617  0.1679103417694408
  0.7488544178301891  0.8329399894248710  0.0859639979729118
  0.9986775999800677  0.5826207114875352  0.7500826078855022
  0.1691557177756054  0.6642896627805260  0.8344790747282603
  0.6657697122770199  0.9996467930232530  0.1678871589255941
  0.6653459137859464  0.8317073484634518  0.3332089973243283
  0.6660848290727950  0.9149612482760058  0.4170176836165233
  0.8320759870912294  0.8328031134612467  0.3337597289788775
  0.7484330619500439  0.9159068061394966  0.3337090153821270
  0.0829564132458152  0.4989192060436916  0.9181002252248381
  0.7474408457601711  0.9159519170262299  0.6641049411360508
  0.7473581065314954  0.7466086092801375  0.8323420315432691
  0.7479111814805116  0.7482898341232261  0.6638666231824520
  0.9932115625246944  0.7485398816579045  0.0865279146933208
  0.6655947137424706  0.6642958033077437  0.8324901988972714
  0.6641464394476867  0.9169299460605227  0.0864208349409765
  0.9991687732518951  0.5824976709455045  0.9204278399061551
  0.9984149290410200  0.6646019553757577  0.0027384025023606
  0.9991536674225822  0.5025806834828581  0.8356694351853176
  0.6649110360900133  0.9157102824703821  0.5816851816698810
  0.1662439039703107  0.9997583754569843  0.6660443148493536
  0.5833728168459564  0.0847337841212749  0.3329072245708360
  0.2508270739650193  0.0001045457828162  0.4143106639416518
  0.6649173805503901  0.2504548105159127  0.0841861097782987
  0.7496773622921270  0.1671390196118565  0.4162448498652546
  0.2513990365141668  0.0836698644668404  0.4944150571937272
  0.6663431674743732  0.1671193341626261  0.4995365056915214
  0.1664912182507953  0.0001892871085938  0.4980611213678743
  0.1667170505088733  0.0834536139864763  0.2483329336091387
  0.7483756236506450  0.2505551259721365  0.1675165093748716
  0.7482926597770519  0.9998207133455635  0.9170290401053496
  0.6663488431140656  0.2492826327644853  0.4160963254736550
  0.9980867212872838  0.8311207993168185  0.0024534382050252
  0.6669503629040249  0.1678113590447083  0.3331647413149459
  0.6653851713988712  0.1659920558937702  0.0003129714397024
  0.2508710704893490  0.8323026818735627  0.2517001129453885
  0.8317701639559854  0.9948346693142538  0.0034636683867532
  0.7476309262490127  0.0834020570629521  0.8323713016802565
  0.2510555929993428  0.0839827440868818  0.3319665059909110
  0.6661229408901991  0.1666541087947700  0.1674469063656970
  0.2518570061749116  0.4988543397345941  0.0830260495932153
  0.6651180773907273  0.8345477958489173  0.0039015915273157
  0.6665180595561437  0.1678469030017846  0.6658583417548090
  0.3353002469658944  0.1682098097350692  0.4998556177021377
  0.6660267332707464  0.9997439326583075  0.6652760493472266
  0.2508671086789898  0.0864997599009078  0.6724638027658267
  0.7487221917851863  0.0011142387156275  0.7484824153946146
  0.7481912150678909  0.1674385194829602  0.7496775691456172
  0.5835190678191011  0.9982869175420621  0.9159534433372077
  0.7487961365884024  0.5837387852982430  0.1682727532693371
  0.6660587670041406  0.0831270653915428  0.7485658529175261
  0.7481274883633843  0.9151184562023026  0.4989000942269460
  0.6658684361855131  0.5837913963750202  0.2507812164275048
  0.2522760789894155  0.6652571100732845  0.0843056513108332
  0.7484817973817530  0.3329207517355517  0.4164059469122815
  0.7484370902955439  0.6648063484006909  0.9192799501301805
  0.0836647103740733  0.9174117655338896  0.3335175502981621
  0.1674143191274122  0.4996418142178298  0.0008821607099405
  0.9159724714016584  0.0831748036887667  0.1673115798050128
  0.7491235934682404  0.3324382857372944  0.0832164965324131
  0.8311213853859095  0.1670760385035742  0.8326396153629855
  0.1669330559456296  0.0004229161630707  0.3316895985626567
  0.6659685590561980  0.4169271126074854  0.0840153802714536
  0.6651722222449329  0.4990690712488016  0.6649690413964904
  0.9979779780174876  0.8329386508457665  0.1695231606329019
  0.1712889770427504  0.7478620634778190  0.0854559870939565
  0.7483666991687205  0.2509074314875121  0.6650975013332928
  0.6663750077920597  0.4177864976109326  0.9183664533092737
  0.6654888723309862  0.3324573849899398  0.4992245463924940
  0.9989037779442086  0.9156121089193966  0.2515350942984337
  0.6660517456609245  0.2510035548363497  0.7503225205039635
  0.6652483635620449  0.5824886472428709  0.0857280494394573
  0.0837208849590581  0.9187967198232758  0.6637570887455793
  0.8304158979652601  0.6655254975645163  0.0030060181122973
  0.0832551239020979  0.8348595277678412  0.4148928218426984
  0.7476637181378335  0.4165815226350096  0.4989239454001042
  0.6663962890349795  0.3337820746654786  0.8353325641382430
  0.9993767940054107  0.8338824242837612  0.3340862592267883
  0.6662438623993492  0.3339131583075894  0.0004840507186475
  0.2505265284702282  0.0001425962534953  0.2487509426973395
  0.7483277490113635  0.4165993212836017  0.1664562679426046
  0.6649912411272166  0.2496740912455234  0.9169366450752040
  0.7484403027344197  0.3336935961397552  0.2489499682989469
  0.8320988834011159  0.3333013802209128  0.8350460195718913
  0.0826865991821106  0.9178332569571740  0.4977559015699677
  0.0820405588068479  0.0854604479465603  0.0027813403155485
  0.7475959104527971  0.4166286553100074  0.3320528278131479
  0.1658414272830397  0.0857845401898056  0.0863342985699403
  0.8318303044090107  0.1664533012752217  0.4996750137444425
  0.7492634667557320  0.5006056285276906  0.0841712084119373
  0.8298893774034258  0.1680476195948707  0.6664619920457725
  0.0846900824178881  0.8309595508367940  0.9187000323641986
  0.6665198786944296  0.1666210751763287  0.8327141983298935
  0.6650636237828190  0.4159595357575889  0.4151402697761279
  0.1655285337313633  0.0001128530425847  0.1681021470518589
  0.5011290224734736  0.9164824211258766  0.5821931099389304
  0.9985294366820558  0.0006415136987713  0.4982161308478612
  0.8307732341173196  0.7484724340604850  0.5808664035416347
  0.0824733543877971  0.0824113075798340  0.4993538701190994
  0.9132691914747609  0.6642209766226528  0.5805725698376913
  0.9120211618509225  0.5817547319263889  0.6646652293435799
  0.8297624200893556  0.7459354843883228  0.7465875564644990
  0.9124936845030870  0.6622627410537265  0.7473900058141101
  0.6678592263394525  0.8340161794544669  0.8320028067974042
  0.9137582948028472  0.2511171067731554  0.3314358380881572
  0.8289611741997657  0.7478188283270129  0.9196078937261561
  0.2523394797123086  0.3344219863845714  0.2486241440224807
  0.1681321260973526  0.5012833936352340  0.1656048275032871
  0.5828525916319275  0.2504554997819641  0.1664159150831609
  0.5004659875830334  0.4164041914094347  0.2496830253402446
  0.5833091433765834  0.3326766071492046  0.2491601430778273
  0.8306266582685010  0.5830949670733560  0.4145133301545141
  0.8326742217542610  0.6665625879855313  0.1683922553174869
  0.9128017871051598  0.5826298170589248  0.4975732435049783
  0.7480317379808032  0.4995852468066400  0.7494435825630488
  0.8298518629122800  0.5827860675067044  0.7482409579716149
  0.9135251995043607  0.5021007473078737  0.7510599589648136
  0.0826814513518352  0.1686660244935082  0.9178510904369720
  0.8303728788371025  0.5001640654821089  0.8341828889977622
  0.0822665993882164  0.2501370984200756  0.6672071452180414
  0.9144813885875297  0.5010221384062623  0.9173554641390220
  0.8305386710728327  0.5833984918160838  0.9178502029303259
  0.9972581980476819  0.1678126566036475  0.6670100737207071
  0.8327297478471556  0.7489004154948434  0.0856115404567290
  0.9141661615639904  0.6647412128923798  0.0847242325869385
  0.9970557654123726  0.2502822302313011  0.5835974745643752
  0.7486668888255428  0.6661766995996505  0.0859885551956084
  0.0826593548730063  0.2517200347111894  0.3304512299927542
  0.9148756289909621  0.7500808646637405  0.1699806296778420
  0.9132959341016971  0.8321653333102944  0.9234260955687604
  0.7493692123741166  0.0831297710544164  0.3330970762642212
  0.0818550314418457  0.1686510487350432  0.7503556973748270
  0.0836950501300683  0.0021595319621577  0.7481172372744723
  0.9981486327527039  0.9182542453188959  0.5802581166075017
  0.0850777936497960  0.5024373583416746  0.5812881479658148
  0.8320046156897744  0.1675270231717423  0.3328321086689312
  0.8325019257455245  0.1683949616371685  0.1676444174563485
  0.6657323286364049  0.0848600069443048  0.4158348320266212
  0.7493574396658312  0.1667632012619163  0.2497784177314925
  0.0820610569260294  0.9998697378753192  0.4151485490956280
  0.9984266318766372  0.0838527215605921  0.5822412305827809
  0.9975714174349126  0.0830333088555482  0.2499374864236636
  0.9167482714073885  0.9998661992178196  0.0855032122738983
  0.0824797335869950  0.9997298498069359  0.2502492866948991
  0.9990976062061803  0.9992694801786225  0.1677049608358302
  0.0822461890986911  0.9993521611067583  0.0858880356970969
  0.9155838568221495  0.1680874692332220  0.0845240477183506
  0.0831936433702875  0.0027476079437150  0.9196584617708892
  0.0824263491836085  0.2510501618791900  0.8338830176867310
  0.3356696082522043  0.0001088384702218  0.6671607645675397
  0.8294793038220556  0.5828776911152783  0.5811956688421092
  0.9147474001305711  0.2495806211770694  0.8326802222372681
  0.9133183114124607  0.3327996540153862  0.7513182875256644
  0.9153989349571677  0.9158767757883219  0.1683468262718624
  0.8321162474121621  0.7505549522133499  0.2513327055975712
  0.8314146132239263  0.9161633573225312  0.4163545705409590
  0.9153023092748224  0.8333829344474247  0.4169274891112728
  0.9147216452311856  0.9167549985326600  0.3336767786050951