Cr  N Ni 
 1.0000000000000000
    21.1208425590115922    0.0000000000000000    0.0000000000000000
     0.0000000000000000   21.1208425590115922    0.0000000000000000
     0.0000000000000000    0.0000000000000000   21.1208425590115922
 Cr  N   Ni 
 259  17 605
Direct
  0.9121577704283389  0.0835096485248435  0.8355695404735338
  0.9052917458988250  0.8379683353739106  0.7501984409933695
  0.9968813565684487  0.4165469206138109  0.5781821515745059
  0.9985033822151691  0.2482736915762799  0.9190748236075357
  0.8268423370192284  0.6649982614513872  0.6650289060951523
  0.8216752499207834  0.7483965626519051  0.7478723908396007
  0.1676718770121715  0.0004515432248805  0.0044447467757573
  0.9980832882710227  0.9976196611443735  0.3313967727415720
  0.9988961149493970  0.1666717690025040  0.3315975114722721
  0.1660583710675068  0.1673461743222363  0.3243438694356476
  0.9880872127122938  0.0830595149333918  0.5810367147716555
  0.0832438404929125  0.0859133359259109  0.6727508213630246
  0.9032036386707409  0.9186271736506324  0.8348200085143916
  0.8315917735200727  0.9181995762631320  0.9203674982655731
  0.9990217497787642  0.2516782542713970  0.0844799324773714
  0.9965536382979321  0.9229851058841804  0.7477724927834158
  0.7468459304468231  0.8325736905824637  0.4140542955338044
  0.9129160049494091  0.7484433339735624  0.0044511552177983
  0.2561333654225443  0.1671664188778713  0.4160776008901350
  0.9132105558858731  0.8328348942771860  0.5803459195089425
  0.9982336128536288  0.3326785048607808  0.0028239725725075
  0.9138662194779571  0.0833319588022219  0.1669902151374167
  0.8290999834193215  0.5841560952841066  0.4143422350456308
  0.9976937092475706  0.6612377792716205  0.6652254239526721
  0.9146219762431358  0.3326252193980008  0.2476019034361349
  0.9982188611485243  0.2503054784533270  0.2495415273972438
  0.9145954809378189  0.3333278695612624  0.4154687019885269
  0.0827403464528808  0.0836429692569272  0.0048516403630592
  0.0830740630315883  0.3365912656827205  0.2489901197972415
  0.9100820203764883  0.6600687735746580  0.7502637998107031
  0.0813244765596748  0.1719751424715617  0.5805569470584105
  0.1675275908790025  0.0772536527437433  0.4163100736719026
  0.9140958017604857  0.7502230103164449  0.4964768772600088
  0.9994864217432903  0.5830937918446983  0.0845415454110850
  0.9043879595949336  0.4156485267883512  0.6669094862841234
  0.9987412968575798  0.5025823570709685  0.8447802368252523
  0.8291060416558865  0.5015380034029642  0.4961934355789153
  0.6654399742864938  0.8334395907398625  0.1666961881288445
  0.9973744649064612  0.4139964768572238  0.7586980050181846
  0.2538573550630697  0.6660754570645377  0.5812221510147688
  0.9990675619116316  0.8340921734525021  0.6557842553103737
  0.9955648157725638  0.0122989152294692  0.8354936875915642
  0.9142364876914271  0.4158469293020253  0.0015116571482534
  0.0819477689935513  0.2416672139833170  0.6679414728596702
  0.8291985053303794  0.0034700714216982  0.8340481246473619
  0.9973518363685883  0.4156253528876616  0.0809087400149183
  0.7475315689525441  0.0843610228216033  0.6644768217389764
  0.9147932877940552  0.0830478746952152  0.4965874856686801
  0.8313980527922840  0.1679799599999238  0.3316544702887407
  0.0818256700832646  0.0005568610666631  0.0842537709752122
  0.9137325587694040  0.5008340504738028  0.2498229260585038
  0.7491697764250914  0.2513717387046536  0.1659308120584974
  0.8292140126417878  0.4986931172462012  0.8368730422419456
  0.8306872053822659  0.4156740797019109  0.5815282160542337
  0.0823367419079421  0.3353653289894690  0.4056509654645507
  0.5852822111791484  0.3345344697969339  0.7482679059431340
  0.0816810994211830  0.4178750144358171  0.3314287428380485
  0.8310965482937026  0.3321971982787481  0.6648660957982603
  0.0838581648990345  0.4255213289610785  0.4959085023753574
  0.1619369654421665  0.0838050134876109  0.7502184851701622
  0.9942516718610102  0.3260275267384667  0.6685097015966657
  0.9129756817417705  0.7495335033149396  0.8404947957564420
  0.9124795925173366  0.5022552214100308  0.4151807187846173
  0.9123010038230362  0.0853231797285483  0.0042866109717820
  0.7478964319755179  0.3312290281383700  0.4176358691190172
  0.9991936151761642  0.7412335407086350  0.7490767191683065
  0.0043566830518715  0.5094662925535868  0.6674358055026256
  0.7503527959269136  0.9188070463557106  0.8347032862831094
  0.9131360923435200  0.7497088696096118  0.1684801809422715
  0.7478109880780103  0.1664268828384372  0.0853540248172579
  0.0818962752786475  0.0822809549105509  0.1662033869604662
  0.9963329495009746  0.1647460291612023  0.8356629517939167
  0.8302423309794886  0.4162171046924071  0.0839449854182337
  0.8282002834850880  0.2489799079536064  0.7508936328695691
  0.1748471940080881  0.3355701702309219  0.4991462479795794
  0.6662266782992559  0.6661504547716907  0.1665955040506489
  0.7476360718366800  0.0008436296210263  0.4152529629457238
  0.8314664284856352  0.0841015838061664  0.0851786824087183
  0.8287996131589009  0.8337891561261197  0.8366758820739296
  0.7485209208789108  0.7511608533889671  0.8335371214496717
  0.1649353217843781  0.5006789492076180  0.1669610099180254
  0.7476501777983906  0.5823708205474166  0.4973613585737564
  0.9973354078468204  0.4995197828189966  0.1667728895824264
  0.7466011420950009  0.7505113602085163  0.4992215853733554
  0.0880687268938922  0.5860754801132098  0.6664973459731454
  0.8300693782007286  0.5814905031829199  0.9182634493109472
  0.6711657378473355  0.7490585395880965  0.9188818304980343
  0.6639426015577281  0.6653115340286466  0.6668314359261934
  0.4185666615981452  0.9162250736792745  0.3316757007782239
  0.0820879858614371  0.6638626759078013  0.0872281119562168
  0.6668611506503461  0.9197954325518674  0.7499629788773783
  0.5834936634776565  0.0831446895979438  0.1677901062315834
  0.5810971219927755  0.8325189474407657  0.5832789830392520
  0.6658054543762026  0.9997794911751938  0.3326245679491353
  0.0853510243865817  0.7497342772769445  0.4875879444913694
  0.7477987426274378  0.1660941872522664  0.9184986869736059
  0.7497375171419283  0.3310579589611896  0.7502297664742749
  0.1668450081437847  0.9157416538329448  0.4136678974708181
  0.7453717871729344  0.8323446255061532  0.5815887936265430
  0.7493387613338757  0.3325982364681888  0.9165539838918162
  0.8317668685388643  0.9986041343915183  0.3324562918470235
  0.9144632849920769  0.8316909653829402  0.4149624759444049
  0.2505301658099872  0.4170619588534758  0.1651567318139869
  0.6657796629355512  0.4162464369034810  0.5834132994229719
  0.9961495316210904  0.2505765258905176  0.4120713115377180
  0.0820890796089708  0.8367406364037310  0.5836742538959617
  0.9144129520662651  0.7505120339862852  0.3313222579145341
  0.7464750752017237  0.7492893464315723  0.0023676140193903
  0.0876610701984723  0.6586747110513499  0.5785493937122163
  0.0825883377795058  0.5018557282834238  0.2483282768325788
  0.9981431445634842  0.5942504573481179  0.5789570048755549
  0.0847097764667958  0.7427877931472651  0.6634490750740684
  0.6646276303709725  0.5821503028393250  0.9165824997939500
  0.5826060413378499  0.7494942604316089  0.0083594640577318
  0.6648035270391489  0.4149914155207726  0.7494083294172664
  0.9937543886459751  0.2489870389185228  0.7540916825944494
  0.2521952461706269  0.7486812079667644  0.0030850121018445
  0.6650644170145980  0.6666215875308598  0.3325194213529064
  0.3347596117639919  0.9995154785469794  0.0022051452093579
  0.5827927445729713  0.4153221447437743  0.6671579755911542
  0.7477230514383356  0.5005371458664746  0.2489849487667602
  0.3350143667658110  0.9163664530310017  0.2482942860347527
  0.5824393735903114  0.5822989402833724  0.4989131008007361
  0.0830132467042773  0.9173611998303749  0.0039310229493643
  0.1653453787367206  0.9158518306681631  0.2469754641213844
  0.0869194721656384  0.8366506822964159  0.7471018486469202
  0.0833751350699418  0.8341559659787418  0.2482067692349462
  0.0824252391900664  0.6670525838603257  0.2498814118133933
  0.4926166076938627  0.7500326110244507  0.9177350597987209
  0.8311285352141644  0.5825673472518732  0.0848478490880913
  0.5016161010349277  0.7496112623021739  0.5820175021398011
  0.8280991337852865  0.2483053224564452  0.0856121256938919
  0.2505016535804052  0.0850891551822273  0.1679851624337506
  0.7488232281048075  0.0824331663711206  0.4978732205282598
  0.6656237117919931  0.8318844258556929  0.3328197617271910
  0.6660483266616127  0.0845078044231653  0.2509147158137644
  0.0828838070159673  0.9940805524256485  0.5798519928352592
  0.2517013984234593  0.1712143362830126  0.5803201473365753
  0.9975863735057584  0.9175273708282203  0.9280985312017451
  0.5829305601041280  0.6620335643508378  0.9172588107822085
  0.0856886583955872  0.9209295740790616  0.8371632624951457
  0.9953705081877692  0.3329348860777268  0.4970605461024899
  0.2496456555875012  0.0000402768989760  0.0854518165670017
  0.2506840556882701  0.1734642422026291  0.7501758648361411
  0.4999200621476885  0.5003069888698631  0.9998860134982888
  0.4191825307613593  0.1682280671319870  0.7507947227876879
  0.2522851377296729  0.5835709852697859  0.3335066171525308
  0.8302599051660318  0.9168929441167621  0.0861663078453013
  0.4171656697729684  0.9157440765852154  0.1681890399101158
  0.7479237489773592  0.2515344001101627  0.4978695371050545
  0.4996970747624757  0.0842314843614989  0.5820576700446173
  0.0752335756057093  0.1666767220675353  0.4130342940990463
  0.2534879180642617  0.6650125516060821  0.7504691365628440
  0.6656888221402303  0.2497201713870328  0.2511408504038177
  0.4166274092465901  0.5820565859611802  0.8333867801246603
  0.6675905168310117  0.9999893424929391  0.8331509917020790
  0.5815103066907351  0.0837986663066130  0.6658592474272534
  0.8282353247102833  0.9990990801923966  0.4982153445472606
  0.6653159258449536  0.4983045832877230  0.4985619418677367
  0.1668089583095708  0.2516913160849302  0.9190226198154895
  0.4993632076173611  0.5002664456620453  0.1668969066478554
  0.2514130322591713  0.3349644818450463  0.2478162895756791
  0.5822641686984878  0.3329677699273398  0.2502336773817514
  0.5081401671814483  0.1672174675605535  0.0011394699480332
  0.4177464744408468  0.5001516933194533  0.5823317721051943
  0.6652699417453544  0.4989967921413552  0.3319153742463862
  0.3329572092252019  0.7481080543081654  0.2501176255526843
  0.4174529023506065  0.3360534654144552  0.2500079564062033
  0.1650631798366838  0.3330810245804917  0.9996931366269741
  0.4997744858955869  0.7485749591658669  0.7511825940255075
  0.1684973928798208  0.1697794912412927  0.5019552730617659
  0.5811669320593977  0.7492234569500174  0.4984552232056265
  0.5006056810135459  0.7480959412436849  0.4167910328364861
  0.4996957500568015  0.7479156398273407  0.2499974371272945
  0.5835270405982057  0.5813309198784297  0.8339462471548026
  0.4176460201572353  0.3336103944073415  0.0837675315962124
  0.4168825128213420  0.8344992233712362  0.9173099043543593
  0.5834567103563195  0.5822502368530884  0.6663924286407230
  0.5005202220152629  0.9160861730613971  0.5825204998222262
  0.3352298064854077  0.4995493114042096  0.9991087804669139
  0.7468609482273124  0.4996428683247026  0.0845608422121299
  0.4184461881009095  0.2584375180534311  0.0019065838830705
  0.5836568031745663  0.2512877355880305  0.8335112844075115
  0.4186595195374119  0.0837037876090778  0.6666330003609080
  0.6664238111382885  0.4181214088449397  0.0843048466230098
  0.4183811965181446  0.4171501868562812  0.3332237843299853
  0.7474727477031730  0.2503723447963070  0.8347662614702371
  0.4169748849577770  0.5004090973335570  0.7506379034623800
  0.6655143106370308  0.0002296399064852  0.4996407696867076
  0.5842096701136450  0.3339952068257420  0.9162495623224457
  0.7482640653251398  0.1658463262247472  0.4148088877241655
  0.4998194202971885  0.4174865056633367  0.4154233279001484
  0.4988644376976777  0.9173107442568874  0.2503325062883156
  0.4178575832256264  0.0840548900702560  0.1659281538318501
  0.2494064399253547  0.1675882042393696  0.0854999996795402
  0.1661954858936018  0.0000652637075740  0.8362624899728188
  0.1660977443594586  0.0845987890094933  0.5790923365569713
  0.3356010649867064  0.8329921118801679  0.4979065554533728
  0.2522112323501093  0.7483823694287592  0.1683365412681928
  0.6650183604966461  0.1683765631016343  0.3324217150439371
  0.0890022646227601  0.4187111286774938  0.6670736705324873
  0.2513190760366786  0.0004370198998421  0.2487065246969792
  0.4999174972969402  0.7491299235577041  0.0830524460592343
  0.2499132131418958  0.5834146332675968  0.1643937985378333
  0.0830488118709728  0.8339488892029423  0.9296077068219345
  0.2520631796740224  0.6657829535901746  0.9187954054686915
  0.4177708737589395  0.1674355569070506  0.9141463251038823
  0.5812935539956572  0.2509104918402380  0.4982337592609047
  0.4175751560014400  0.5003067642769311  0.9173189514561699
  0.4167229755926245  0.9982847223224866  0.9185335758616446
  0.1698448398452720  0.4183742922157170  0.7535371269733180
  0.1680401357289595  0.3330911501658209  0.8357342288478177
  0.5845805193180779  0.8408868738936560  0.9181763658506225
  0.5827665194082204  0.8336743412659258  0.0850280619166190
  0.4981453780849338  0.9989578648203096  0.3311904890141810
  0.2497410010588804  0.0824409013677162  0.8419754808120987
  0.0831817366254505  0.3347457179912997  0.5811012452133512
  0.5001571274823639  0.9980749644629151  0.4991993757229286
  0.4183607168001068  0.9156423376551075  0.4979170081237477
  0.5833327884130082  0.0821643834833739  0.8344168913803534
  0.1672996170870603  0.5821118044154396  0.0836915121003389
  0.9946364628677031  0.8307998403205417  0.8376318312248451
  0.3451370484019390  0.0835468720464463  0.5841198862540429
  0.2513057823220994  0.7493767692351879  0.3318287971974111
  0.0823050015310320  0.7411915976233654  0.8397443631136497
  0.4180355615843016  0.1666057091435476  0.4142387434227686
  0.2523912632868070  0.4175678563408863  0.3306802586098103
  0.2510033707426929  0.6644561259036373  0.0846001887906447
  0.2517573938186980  0.4990311105594645  0.7516537684483360
  0.3351260059870362  0.6659155084457291  0.4988054692805256
  0.2490389542339347  0.2528257116648717  0.1679551269308059
  0.5002992697554772  0.9989066782442703  0.0016677756246432
  0.2529818086330094  0.9923071419860671  0.5825124510944090
  0.4984765261136911  0.1681675884552171  0.3325119963959176
  0.5801833935681907  0.0824795375289655  0.4990854298334384
  0.5850726322661896  0.3357646894379242  0.0846344753272985
  0.0823843424415759  0.9152312331594444  0.1682135191572360
  0.3329458638672409  0.3328009531497760  0.0024524429544596
  0.4167215129411397  0.3350423241920233  0.7493796739679146
  0.4171013742948436  0.3350734321664457  0.5815375904291104
  0.4177545029633811  0.6652450124688351  0.9169926880334793
  0.9984272904534018  0.5019104965298208  0.4901926555881120
  0.1689700349840463  0.7496762532504619  0.4147391825225607
  0.3347101476724144  0.2519152932960421  0.4138877274110587
  0.3324872806413013  0.2505017737989680  0.9167127466129624
  0.6660586504365070  0.4991652666040486  0.1684421183308083
  0.3340125497046744  0.9172030576837883  0.9198768177415461
  0.0838887757627956  0.7482314277796587  0.0023632946150941
  0.2524174000430530  0.0814691230270023  0.4894402638015568
  0.4177703665932641  0.1673928060100011  0.0915954580441043
  0.1769742272114350  0.8339194926040254  0.8365007421218633
  0.2528851495857182  0.0831376742986302  0.6670144683207870
  0.1678481167374653  0.8314055384818864  0.0034816383501624
  0.9975099896135771  0.6670251516286572  0.8403007549672276
  0.2520889184891586  0.9959611734506794  0.7508021469293605
  0.3356423343436051  0.8332767195935132  0.6666408807338511
  0.4162290582530165  0.3324753070534158  0.9183050698364205
  0.3305855773147446  0.1696764021748405  0.0002537830237979
  0.5006468347433755  0.9169522191293848  0.7499480598288421
  0.2561395608385181  0.0814969116153816  0.5780406278640026
  0.2529508206223687  0.0848401314043032  0.7552282490206415
  0.9983948203229841  0.5064081196940192  0.5777739907756532
  0.4195289898228799  0.1673149208351899  0.0029727513331331
  0.9936813464456176  0.9239446124645062  0.8393023072137707
  0.9979847055495382  0.5019806724083611  0.7582383211012330
  0.0865416853027452  0.7484290544293791  0.5747475303933345
  0.9957351138373007  0.8339113040588588  0.7447959169933099
  0.5813971868517573  0.7514117078217120  0.9180979693921166
  0.0856889730680659  0.3365276009493694  0.4924587699172056
  0.0869753230381908  0.3288479681663639  0.6694148272522534
  0.9088975467209776  0.7477527339489128  0.7504499719263101
  0.1655756823169167  0.1677500771398085  0.4121359262700848
  0.0907429970799832  0.7453904788076920  0.7513912174055554
  0.9951794851930567  0.4164196381821836  0.6686852122613691
  0.0884455047017543  0.8312270501340582  0.8402992095125974
  0.0766550491008889  0.0827967422529873  0.5827220136435159
  0.2520070081026775  0.9157942778486222  0.6662852383442531
  0.2507527316166153  0.9166147831174425  0.1675507575295996
  0.0825548676200760  0.8321256212626414  0.0844787651154630
  0.3330469717161143  0.0842857525627626  0.0851192127201384
  0.3341108881413403  0.9167998174234321  0.0844274821533000
  0.4173684524373799  0.0001115373296052  0.0847945688780311
  0.1687521199016193  0.9182697852962772  0.9212885025509837
  0.3343741844653138  0.8332920538819550  0.8351553098359566
  0.1681627261611281  0.8346608398356902  0.6652938044968431
  0.1686893141545182  0.9181666120311489  0.7500280500165043
  0.2533817821074806  0.8348588039541670  0.7503260157440471
  0.1674744950489260  0.8331301831769874  0.3311937477864481
  0.1679041715344033  0.9153968986135310  0.5817337608724473
  0.3351373458665468  0.7495514285820823  0.5818313743636075
  0.2522774142079333  0.9154177839147073  0.4975207775250758
  0.3338806718764078  0.0005692107054196  0.1662674204734975
  0.3412616269253232  0.0846074942422155  0.7507647306131721
  0.7478079331696240  0.1662435824099299  0.5810755176215662
  0.4190014392944668  0.1683083622359780  0.5827969366832269
  0.8281670823115769  0.4994294582383352  0.6661145969153979
  0.3344508605068714  0.0833707870105851  0.9187042723042963
  0.9139330404179998  0.5834653358464538  0.3317012600745017
  0.3342183767827144  0.0838964726570849  0.2487161314698965
  0.9976192405624603  0.4173835660678111  0.2494765890976569
  0.5017768090639695  0.1676496016164350  0.1673748481946836
  0.9149117743229545  0.2505597423077970  0.1666821054120510
  0.1674100672853827  0.8309198907965264  0.1667195557323501
  0.9978522058202539  0.4993916402536291  0.0014319341924597
  0.1668774342876455  0.9151677033558991  0.0863532444015408
  0.9137283306152207  0.2494681800972587  0.4974988716971699
  0.3367434290987769  0.9978311603854069  0.4975347374837644
  0.9133130859758903  0.5821973243463985  0.0019207771610145
  0.5006919246360526  0.1681487585330963  0.6670196074418777
  0.0805525932533880  0.1660497024519570  0.2485453774411069
  0.7479974839090631  0.3333446373651846  0.5817651033795973
  0.9115868656680739  0.3318299812773620  0.7532809981388188
  0.8310342034738765  0.3322573748185628  0.0014158920031227
  0.1659566591323441  0.3358203000249307  0.1666766875962900
  0.8316301401645069  0.4995344649097263  0.1665452960258140
  0.7477086683792915  0.4150518130912049  0.8346257503431395
  0.8312525477873753  0.5830414600271471  0.2501548225203739
  0.9145304300896413  0.3320045677857325  0.9190320230052770
  0.8320022111860323  0.4172068075051935  0.2503883073997653
  0.9969843364153019  0.5007560658330656  0.3312037893060099
  0.9149037312683430  0.5822182238019196  0.1668273497435843
  0.0819742291695203  0.4159959494086403  0.0004150131974346
  0.8310396160044433  0.4999121126067444  0.3323168356639301
  0.7481700878193960  0.5820377868101831  0.0016029668482678
  0.0825254129777729  0.3340690752777808  0.0835945277606641
  0.9139656736096924  0.4994248380767788  0.0835412599500740
  0.9980587236355727  0.5842123359904028  0.4120764652983516
  0.0813715985481325  0.2473351862476577  0.4969874676325959
  0.8305916410077461  0.4997214261157889  0.0017649309493081
  0.9130545614601037  0.2483970871646846  0.8358341184087268
  0.8284526291462857  0.5834253537412933  0.5804219074397660
  0.9142846278073091  0.1665306099263223  0.9196195517393007
  0.0817607773891473  0.5823665641528338  0.1665473870780646
  0.8317364448312916  0.3334668444490891  0.3325973531425180
  0.0887428865184815  0.5029088914232832  0.5826608610338140
  0.8308118154377898  0.4171307144531446  0.4148429502685298
  0.9145632942226388  0.4170903021270824  0.1660091186859760
  0.0817211967095009  0.3331130717138958  0.7568361805333221
  0.9137321861412453  0.3324756702540764  0.0848587480298837
  0.9138647358468589  0.4170557864703185  0.3317046746156514
  0.9977508287600805  0.4153552494025681  0.9189507221519791
  0.8314803330284168  0.3334594361400052  0.4981320121410121
  0.8314773979947163  0.3339721408969499  0.1665317764981763
  0.8290958165044484  0.4155818620546631  0.7517472829129647
  0.9967061564647510  0.3305747838364209  0.8366627646841737
  0.9138581036236730  0.3318974257014387  0.5808625019648541
  0.0882087508455572  0.5014236489042101  0.7530808965363530
  0.9137716579211077  0.4172054166583025  0.4968739734966137
  0.3357111297660007  0.4175759274751470  0.5830274600917864
  0.8312408956313972  0.0838306869196539  0.5804871777912153
  0.0826375456291027  0.5835861108676055  0.3296035283256027
  0.0839702848020987  0.7503199912086570  0.3324556719015866
  0.4172107074664950  0.4168809448161768  0.6665325557009221
  0.3349263896573367  0.3338278407528953  0.8338338048654563
  0.1677183636128224  0.7490470123764793  0.2496526877321037
  0.4166481893941555  0.4170196604619223  0.8336779051170979
  0.1678666699970279  0.6665588969807310  0.0025254902523783
  0.2510216622096793  0.4992003319121868  0.9194373011359771
  0.2518197119962884  0.8330094468838442  0.9208220569538371
  0.4177868276939246  0.5821851630942976  0.1662099595484650
  0.4173841243327224  0.4997049539777729  0.0826550882901302
  0.3331762394868132  0.4999983885562215  0.1664347944463108
  0.4996508874509480  0.4993781596955730  0.3331543944388708
  0.0827554903140279  0.5829956731081719  0.0030398730973407
  0.3333598315500289  0.5821893478380037  0.2496279554579190
  0.4990077834004568  0.6655020345412852  0.0009945236911653
  0.3343409477041422  0.4174065024367881  0.7504134978103252
  0.1708545995201557  0.5834043865732356  0.7520978349167317
  0.3343321445326828  0.4999335851091182  0.3319899622815822
  0.8299253815136431  0.2490563255661309  0.9180975656936325
  0.3367692870860238  0.9980322959389218  0.6671117169515525
  0.9978528414653993  0.0822855610854924  0.2490900597504570
  0.9148944688529149  0.0005179340410992  0.0851343465178177
  0.9961017211799150  0.3344138532122032  0.3302926148296408
  0.0820084768930544  0.9990702210533385  0.2480897374282866
  0.9128573953141368  0.1659648296830233  0.7506883834369317
  0.9987072618237827  0.9160609847432382  0.0850811593636707
  0.9122249795838130  0.2494966439388595  0.6673983047864457
  0.9983612277378606  0.9996204704205474  0.1665629806768465
  0.0842402395991068  0.4158249874010860  0.8369800420110423
  0.9142970061456734  0.1678342810615569  0.0848115806216718
  0.9128829621437679  0.1672472418814731  0.5824500159984644
  0.0825280513574307  0.0022593626136312  0.9221130912733495
  0.0820952959368162  0.3329267139175799  0.9179746746343918
  0.0815672690907634  0.2498402159783358  0.8363160654974354
  0.8313772215059456  0.2508845320197375  0.2494273670457619
  0.9152193217447174  0.1667091275474913  0.2491512964972009
  0.3344222581417259  0.6654496391556736  0.1673742764944541
  0.1692196490056368  0.5010370827996948  0.4967967451597128
  0.4171906156575289  0.7489696349334217  0.1683585891369204
  0.2509424283999225  0.5001130633996295  0.2486750531089479
  0.3343846225224937  0.7493646060130402  0.4151923922896426
  0.5003333123873328  0.5825137080220123  0.4165067075131592
  0.4994897357506116  0.8318199030420304  0.3315948020481516
  0.2525335859840623  0.6665633111608040  0.4144709593942657
  0.1689670012903295  0.4194941946106550  0.5819689890049032
  0.4174993959182809  0.6668005860959375  0.5826323023780712
  0.4997965180481413  0.6657978631324768  0.4996789354121566
  0.3348496305208679  0.5830183920674850  0.5827153663340892
  0.1713098900697588  0.5830681448671660  0.5809550163043544
  0.3337652325606137  0.7492135241737642  0.7499589926125356
  0.4177573256631093  0.6658776119128248  0.7499474324409280
  0.3352569951254788  0.6657207495537133  0.8344427735808552
  0.4172335503314441  0.5824455399225292  0.0001443591666467
  0.4171737384091634  0.6655633011804014  0.2500319921264838
  0.4172091054728253  0.7489133856320423  0.3320707559962220
  0.3352247922071970  0.7492064418572812  0.9182080357161725
  0.3351215410263538  0.3342273247518976  0.6670985707488578
  0.2521146452833531  0.5003182566601114  0.4139363366147501
  0.4177314706373936  0.9158125825159494  0.0026961254312891
  0.3344657028824064  0.8320626496755006  0.1680673482495389
  0.1693369389494048  0.5828307180041311  0.4126359106771347
  0.4173303981545666  0.8323729485648824  0.2500130684650057
  0.5825388688341628  0.9163686816860740  0.3320862125566889
  0.3341364228960201  0.8328250795930666  0.3311904573467606
  0.2516098098808022  0.8332103744870466  0.4136630963173214
  0.4176608974233814  0.8318866370770601  0.4148598206388158
  0.4182792496197821  0.9995111393133097  0.4148021797918100
  0.2541247718749366  0.8338832966078966  0.5812823996881614
  0.3365500081162279  0.9150199632197100  0.5821360841131804
  0.4186062788155509  0.8324253948796962  0.5827523769658057
  0.4990658393423937  0.8332563699789914  0.4983412580589728
  0.4995278445493690  0.8343544916481914  0.8328967817127073
  0.2522410195937645  0.4176910573765951  0.4984819194908801
  0.9147034076178147  0.0826248813280128  0.3314407066260714
  0.5827440093043114  0.0003284672292154  0.2502594362594244
  0.5832916351203247  0.9991508270221922  0.9170521891701852
  0.6649810423102110  0.0840851872859698  0.7498968884812298
  0.6650539003831905  0.5832818780991467  0.2498217935835817
  0.6651410886094502  0.3326918277994856  0.3328840921146379
  0.0831850316085490  0.9163745623937448  0.3307752677708923
  0.2509236895382791  0.4994624518871815  0.0831415016770398
  0.1670632453389291  0.5004182795130782  0.0015879950527446
  0.5825043154399218  0.0836063804625424  0.3323458239512262
  0.5825269997538270  0.9163507959221240  0.4985067859920650
  0.2516899772045813  0.4161303481064680  0.8359035897475988
  0.2502336276162361  0.3338880150115984  0.9187208899005870
  0.4992752107958880  0.1678604061456221  0.4991257609129072
  0.5006268934751209  0.0001628754840650  0.6661790581252200
  0.4192789146821018  0.9989250684031760  0.7501343634133041
  0.2538629351490828  0.2516372540385297  0.4987123108246243
  0.7487657312928243  0.4167740850392371  0.0009431037815888
  0.6650986640600912  0.4983491902424420  0.8341460718375070
  0.3365879132587560  0.1690087890145591  0.6670089970552111
  0.4166081185389441  0.7494852727075406  0.0015137764242840
  0.5824784262240587  0.6653287926041874  0.0850085982989523
  0.1689122984264236  0.2511562783977677  0.5822153609849597
  0.4992633665507847  0.6669629367031813  0.1671783404610406
  0.9962619754904876  0.1677136369348153  0.4972432697733885
  0.5829064017257735  0.6661937134212604  0.2494785814646015
  0.5826014022812258  0.7492841258706178  0.1670207207921710
  0.5823845970645263  0.6654207674677202  0.4153572382587517
  0.4173464245035945  0.6663615622237319  0.4160191705242032
  0.2518562962745957  0.2518814937866260  0.3297975637529498
  0.6649900651854612  0.0834623024028912  0.0852193358920287
  0.3341608835001674  0.5820946345537750  0.0830994979460029
  0.4178125333018943  0.8330595740906276  0.7498837141802812
  0.3354657075992797  0.9998234292120246  0.8353555210099339
  0.1679421226968013  0.5836290096134611  0.2493297807407873
  0.4169739812050319  0.9159124914382160  0.8341022670529481
  0.4178427456321631  0.0789239012505309  0.0014931298235925
  0.5013679976436710  0.0829235173661994  0.0848605541672235
  0.6658928599636257  0.0001851061161182  0.0022622631279889
  0.8299304809638317  0.8327256848502896  0.4979293282303577
  0.9120531030607132  0.9998973141936336  0.5811755881262708
  0.9962925914679902  0.9983727508674772  0.4972768968831572
  0.0819102954889087  0.9982449682127856  0.4137461698313117
  0.9969902409283828  0.0002791891298845  0.6653946822364279
  0.5003952433975842  0.0832768615870187  0.2494376758455694
  0.9982192978063468  0.5836716533913550  0.2497525434045107
  0.5840602796985608  0.1664994842891351  0.0852705243466120
  0.2515454462905161  0.5834374828460809  0.0007486966764857
  0.0811211430623627  0.2518502600589678  0.1672249044272879
  0.0833111133996507  0.0838591173346079  0.8361888091443876
  0.9979284201753592  0.1681927710554241  0.0034668536650683
  0.8316439415695477  0.9159599617455543  0.2508266474614352
  0.8314262022847161  0.8329870493190178  0.1671732177726998
  0.9136762307667602  0.9162371091707262  0.1669586960663977
  0.8308776760957841  0.7501347589227088  0.2500041176190936
  0.8302181551543779  0.9158758071659361  0.4152406631089609
  0.9973107655720330  0.9157217124100459  0.4144167763996205
  0.9145148270160405  0.9158442275646681  0.3327238635409829
  0.9087068394067577  0.5013001067948848  0.7515161872197456
  0.0818838747027189  0.1668268206258399  0.9191882772482958
  0.8308564738426316  0.4161942731127750  0.9182721715187729
  0.1740823811684488  0.3342811260444986  0.6675060653934615
  0.9134546606961890  0.4998947333008584  0.9191017837452541