Cr  N Ni 
 1.0000000000000000
    21.1208425590115922    0.0000000000000000    0.0000000000000000
     0.0000000000000000   21.1208425590115922    0.0000000000000000
     0.0000000000000000    0.0000000000000000   21.1208425590115922
 Cr  N   Ni 
 259  17 605
Direct
  0.8290585660831984  0.0837826061611111  0.7505787794588793
  0.5006288450250953  0.3342376689340322  0.1678017107255208
  0.4178462478466309  0.8342967334198601  0.9173737367930014
  0.5826725445184953  0.5831786837584806  0.6648002535206995
  0.3368647122313297  0.4987258720521133  0.4970604723876816
  0.6655335002113042  0.5006000633238372  0.3333277506624308
  0.3320411032006888  0.7477540414607793  0.2506162611906597
  0.4187355429177871  0.3339100038666972  0.2483411059094590
  0.1661998061626830  0.3337024476225786  0.0018073055238567
  0.4981729953708761  0.7483962235126401  0.7490548241311954
  0.2519292960331089  0.1740025141063627  0.5833033871690385
  0.4176820640922645  0.5015533465294706  0.4172897007716998
  0.5002884353414367  0.7484024584147211  0.4160032601112763
  0.4998395185541228  0.7489506960310548  0.2500633890399920
  0.5830197651673598  0.5830219558927485  0.8329447031800936
  0.4185914265690714  0.9923221792344817  0.5815226968060687
  0.5009680591466311  0.2503473868714885  0.7519964992688809
  0.5121267401917202  0.0829418913479644  0.5818235158136487
  0.4988983930141481  0.5010024769614679  0.3341800482406050
  0.3372781575610003  0.4973191291778911  0.6653945063754305
  0.4995137969728388  0.3337945248782704  0.3322853366737302
  0.6633052015032601  0.2493291278335281  0.9173386727224213
  0.5806501342632377  0.6617440700126624  0.9184257163915491
  0.5818162561312267  0.3330820161067128  0.4148008789164260
  0.9890443099805885  0.2520075173617470  0.5808909047065234
  0.4166041889668577  0.3335066001192013  0.0844353990660517
  0.3362645726620803  0.0840331038326135  0.5823275379823091
  0.7483127630923027  0.5000164769782999  0.0845308190684990
  0.2515164411011671  0.2519921857692418  0.8355295323729371
  0.4186561487435373  0.2503495626211079  0.0020749837412642
  0.7471147534043225  0.0011758238477399  0.5818941249126276
  0.8303893859019194  0.4148614281151495  0.9199188534408093
  0.6649991778205242  0.4181870994596611  0.0860696873137480
  0.9970221065885722  0.0046823990785169  0.8357663147991633
  0.5824478605889229  0.9977116566813488  0.5819536653323467
  0.0879627827641826  0.9221956845858645  0.8377075256984011
  0.1748922469693204  0.8311716699046345  0.8402034888932479
  0.2498040369484103  0.0012945878425218  0.0866289609427769
  0.2595317889709867  0.5815426937423176  0.8339301587188841
  0.4995457020968241  0.5003592114748503  0.0004338463189131
  0.5833586203064165  0.0834324598445850  0.6669158418553921
  0.2508947589590560  0.0835657880523706  0.1658136827236545
  0.7479968761687670  0.5015410614937916  0.4141108184722969
  0.8312645850544083  0.9169064042642997  0.2486066466979009
  0.5827191375129747  0.5831227495961633  0.1676125158292894
  0.0800482831245845  0.0807201078194964  0.4964532961706504
  0.3340622263855465  0.4185080078644872  0.2495569185213304
  0.5807026323649502  0.3348580635393748  0.2505870283895930
  0.7493716970934173  0.3331790526060003  0.2506259629509661
  0.4989914638932432  0.1670706395072289  0.0009072325144809
  0.7468183549326282  0.9171223465273850  0.6647354894907661
  0.5819657397036657  0.8396429321766653  0.9175261174718689
  0.9126092026690110  0.0015262308467817  0.5813519636520584
  0.1691980763589565  0.0854569021338010  0.7502120375199207
  0.0819909888171456  0.3358200916280629  0.7570265189257771
  0.5014589086716097  0.9149226222314303  0.5822755614812999
  0.8305472277816582  0.9178129372599098  0.0847378746883003
  0.9929127947920824  0.8257702443777972  0.8340550567704736
  0.6680126958913329  0.2514309371284343  0.5817453490141887
  0.0813417676237327  0.7404473461514217  0.8365655269768072
  0.0767246350900326  0.1650980799367676  0.4162464500727541
  0.1677961881566288  0.1675408707371436  0.0022425689954067
  0.2492988711250766  0.5819110312752203  0.3335238367679786
  0.4171071449875409  0.9994196807827402  0.0860032698165518
  0.6643408971369623  0.9994695799752291  0.1679929235263863
  0.1676906781592345  0.5831713343258551  0.0865074552785482
  0.3362320276055145  0.3325124758032882  0.0023014354271461
  0.3363386957393638  0.4155961737252310  0.7512733141747839
  0.5007692470475650  0.2518548055364280  0.5820990801929465
  0.4173270636941216  0.6646001690793787  0.9178268821237708
  0.9945490946044040  0.4153951154841348  0.5799438175949844
  0.1681206682486401  0.7499241240305116  0.5714120102152447
  0.3359773889226608  0.6663944529535534  0.4966908354354452
  0.2502584518592284  0.2508034765534790  0.1672668708647908
  0.6636410634601606  0.0006437101860451  0.0027380794545034
  0.2532805466879799  0.9946183840873022  0.5809535820950462
  0.5817187654780512  0.1648396822350951  0.2490506002943240
  0.5845137408277127  0.0844336734407915  0.4967702430979243
  0.2522473175598278  0.3339345957799981  0.4134320699762986
  0.9990202893707636  0.9166914097221802  0.2490782687979634
  0.4181474213778871  0.1682322901543457  0.9183381472404175
  0.4180997101562981  0.1674436777422871  0.0836956156540442
  0.0836423825904943  0.7493362911060474  0.0038029830082545
  0.2517680730757882  0.0829172169987190  0.4929285006078066
  0.3369000130991702  0.8345435815081762  0.6650442094303163
  0.0827864721438858  0.8337626785481652  0.7500709605453423
  0.2522851971673943  0.0852370053036822  0.6729425805141509
  0.5000607096356187  0.9164586345828402  0.7507547109819045
  0.0843679952292491  0.4946498426272321  0.7526802170221429
  0.3350436394865048  0.2503507603604625  0.5828091021652858
  0.2518840869115788  0.8329430143314950  0.9188684643844357
  0.4184226586689527  0.3330369694430892  0.9195363080878191
  0.3366903494024425  0.1676333606758368  0.0016143519174834
  0.4180559664349320  0.9994245235831252  0.9167513963580546
  0.5000530384861043  0.1659750887220403  0.1664945427107077
  0.4994592237995583  0.3329485308399566  0.0010369720191075
  0.1661488124171737  0.5791733870140845  0.7501854824062775
  0.5821477126789136  0.7523309170724969  0.0063233617966293
  0.2510448071155481  0.7487084725002897  0.3318065243043213
  0.0805334979563160  0.3391430201950710  0.5781353108934179
  0.2514051060296109  0.4180177141036270  0.3305215020966399
  0.5833100405349878  0.0831097586492504  0.8348916814065817
  0.1681685008972486  0.6710758091433748  0.8372261444229189
  0.4176429194303158  0.0848799145306542  0.6727355888163471
  0.6633532533021962  0.5831153150793905  0.0862563912035609
  0.4178465459471247  0.0846933142960384  0.3308274142928155
  0.0800312320710462  0.9275166003569568  0.6669346910695330
  0.4179424539938636  0.5837099708416745  0.1672940263299355
  0.1593136612261035  0.0833888388813119  0.5824866692262580
  0.2506876199597159  0.8319038943737114  0.0869904735066711
  0.3356146743097586  0.8331342039038503  0.4965478349840269
  0.1663378300402654  0.4927091417762212  0.8369411624557058
  0.8308430809534155  0.3330267858793874  0.3304741510186897
  0.4170030385040890  0.8330709827846940  0.0868538236085524
  0.2503366881361542  0.9149602545587261  0.3312799474293376
  0.4992306332650696  0.9166815838722790  0.2502033624746471
  0.0817483540663392  0.8325814047093690  0.9296664364615536
  0.2495439629412604  0.5815762061366425  0.1663180537752789
  0.3346517367318615  0.0844928242639737  0.2491563346907676
  0.4187567795147766  0.1683978542877569  0.7507616938343507
  0.1683017798553417  0.5823308029014702  0.9270699940371370
  0.8309848156208121  0.2496093116628041  0.0850758601591762
  0.4175175126283051  0.4997899000927266  0.9182342105542718
  0.6669638788532527  0.1683268818753177  0.4979523902121722
  0.8286400081586198  0.2494266924135981  0.5817003773711722
  0.1705312997307984  0.4893269694777296  0.6665604208551067
  0.4972399280135030  0.9180272394684156  0.9182113311989303
  0.4177964806267095  0.0842516270233938  0.4939032034596914
  0.5009946778862296  0.7500498096931477  0.5818617905520069
  0.8303538781840484  0.1667336152429184  0.4989539788916439
  0.4908450650681336  0.7503411794779691  0.9180172494374552
  0.7486104525278205  0.1650981784502174  0.2504454236089566
  0.9113835665038865  0.9182939769903604  0.8353534850838096
  0.7458582842670559  0.4974312708451590  0.5813982733193201
  0.0824512744415013  0.2450410246489175  0.6681580844424762
  0.6633600658886716  0.2499350727750322  0.7512501545535748
  0.9982869620589604  0.4159659865114946  0.0865425808705456
  0.9064053151880995  0.4996313239770541  0.7516009724389582
  0.9988573580022929  0.5829032151119505  0.0866879482629327
  0.1680118336741572  0.1676858317134312  0.6705201388892740
  0.9982444191532609  0.4138935955929199  0.9190781539800723
  0.9128156521450959  0.7474830833494972  0.8356847000225746
  0.6651798121636493  0.8329166183776309  0.1678191156671041
  0.9977108327588334  0.7475617790173984  0.5717885335192010
  0.1677770420576821  0.6636331717785972  0.6655814904623849
  0.1668529431145857  0.0793443528793506  0.4160960609004440
  0.0802853100504785  0.1591849149597583  0.5806459395282397
  0.1684271775104770  0.5815041706437608  0.4127857467780266
  0.7475644759442100  0.6647938206152774  0.0857923427905241
  0.0818598547347206  0.4155483299063923  0.4961106354460405
  0.1683039748254068  0.4143696142265992  0.9215108316297185
  0.9926268200436636  0.3365100487838408  0.6651160951425247
  0.2514289885135607  0.0025615316558209  0.9178976830925163
  0.8306508895386497  0.1657349697045571  0.3301097717377158
  0.3330902130685743  0.9166052082183673  0.2512098857218520
  0.9990337364589729  0.5008220085396435  0.3319373929282095
  0.1670149638651583  0.9171313742965650  0.2511533192395398
  0.7484461339301469  0.4994586484208797  0.7505696882157755
  0.8312220319064021  0.5003486571546336  0.3323983626941222
  0.9127672813078856  0.4178737580097003  0.4966370739945519
  0.7467199693362858  0.4168510616233546  0.0008983272155301
  0.8303802337922902  0.5826407404896050  0.4129321505271276
  0.9132442672273214  0.3337831073768493  0.2505691814788575
  0.7473053161051895  0.2495766122454058  0.4962223530200029
  0.0808521318329440  0.0008188002925702  0.5802602592634287
  0.8281135864648524  0.9172570764237232  0.7453688846054657
  0.8311966421193278  0.9168856180890943  0.9261479511567009
  0.9992278511354423  0.2498072277379063  0.0859500972817442
  0.7491961719275232  0.7478915025342168  0.6636512904239041
  0.0838757060477424  0.4238414822818115  0.6647697672205179
  0.8286721555168657  0.2509063201187886  0.9200668857929385
  0.8289035399567134  0.6649813151646352  0.6640464383930423
  0.9028557262985747  0.7468648645788921  0.6637103723422414
  0.9996126247347669  0.9170133190046180  0.9273545313971187
  0.9977822792394782  0.9975104957075125  0.3313622159642396
  0.1663411058139181  0.9999330856669842  0.3302301040460414
  0.1669166235484130  0.1674537888429380  0.3214446750116155
  0.9963672330813529  0.0844448106986702  0.5815687931886008
  0.9957226472122189  0.9162663634212544  0.7454231553041847
  0.1654051536333049  0.2557797457781545  0.4135315155035501
  0.9965025903773783  0.0846950474966230  0.7477054155556201
  0.9148722431590001  0.0837403396722249  0.1663082388377861
  0.9974240343916195  0.6547237741171147  0.6621451263021336
  0.0816234401246691  0.1664385664935926  0.2496171252928196
  0.9937138238945207  0.8366072569202946  0.6656192183796337
  0.1691453628177389  0.0862851027149893  0.9205327208111406
  0.8309544780280470  0.5835673938905026  0.9184305110398835
  0.9975777215095595  0.5878418139967510  0.7500049477585994
  0.8295092886407207  0.0069866852435294  0.8348745994054519
  0.6652970871669447  0.9165807884784885  0.4156490834548910
  0.6641106540340554  0.0028079392586304  0.8338087717136401
  0.9123412075404026  0.7480017152398906  0.0038603872399024
  0.0786253791406960  0.2508473573927823  0.4894781157173873
  0.0824569271444154  0.0018645348308148  0.0863528653909483
  0.9952697577154528  0.4100129976867615  0.7522097225014107
  0.8313895392912436  0.5834963718727249  0.2513219783581694
  0.0841842457837833  0.9181650464031202  0.0023107744940934
  0.0827724124150357  0.7496741321838747  0.1671788554961264
  0.5012668918849581  0.4169652004505057  0.5820370598966870
  0.6662704801370130  0.4174718791062275  0.5817374532786396
  0.5826026782700379  0.5834736216846793  0.4990308276600345
  0.0832213329130532  0.7503839163081767  0.4971781178853066
  0.1728113652337251  0.8378445111828395  0.6639307939681148
  0.0820788382626393  0.7493553897056311  0.3332717452223553
  0.1683096497568458  0.9182248369793048  0.4105884465902637
  0.9965482768842828  0.7467973987686322  0.7534002527140206
  0.6627022941456366  0.4172993473774789  0.9163010232998907
  0.8295654833598534  0.8351060231431886  0.4959710317961576
  0.9969238984247395  0.9170891909183861  0.4129667676341100
  0.7485448500050306  0.9986870715578273  0.2492374632749144
  0.7495025861574380  0.3322593831986130  0.5825159974977550
  0.2497404233304632  0.4171597248210148  0.1683386907098035
  0.0801817780945834  0.3334529964037075  0.2489570368642364
  0.0823704432426260  0.8325372806214263  0.5699605981804802
  0.9110323208125901  0.2494289146401136  0.4966032055356573
  0.9982505201474212  0.5835807177594098  0.4141093210189102
  0.8287024732754806  0.7492479166854553  0.9199464993486833
  0.9141210609038392  0.7499230134992864  0.3316692532957697
  0.9998155627345959  0.0850450393394040  0.9249263142285327
  0.0821409352969309  0.5001271077798981  0.2500155423018602
  0.1699365808344130  0.5817709319149481  0.5731536414602991
  0.8294467571276977  0.4162309188188326  0.7505851525495517
  0.0822026716907159  0.7469296952410412  0.6618781500057171
  0.9968885829049305  0.5814036997271808  0.5784322017935026
  0.9975751150703259  0.6640067425049071  0.4960924507525614
  0.6656705885951919  0.6640396296230987  0.8333188643948545
  0.6637007913050350  0.5831985545140274  0.9165272522689848
  0.3348049482350798  0.6671180209947228  0.0031939860575143
  0.5831556118455178  0.4168384312453004  0.8340320768203590
  0.8293835711513576  0.4160331119285557  0.0851339181668809
  0.8285292681364663  0.2499162002523596  0.7503586026337953
  0.2537996035005370  0.3322563806004322  0.5810979408386584
  0.6653106506058358  0.6659157235690141  0.1670818670465466
  0.8298192053940829  0.9158598805560711  0.4153149961301202
  0.8317506747239189  0.0015492594982269  0.0026322075864342
  0.7472435410894727  0.1682037710397739  0.9184353850149036
  0.7453338614273637  0.7488366891392276  0.8348051678980921
  0.9978133403977284  0.4987640026871246  0.6598395969723208
  0.7350629730297831  0.9189672094796106  0.8338218653379218
  0.9139856034740834  0.7494032696188364  0.1675276655689803
  0.7478771228237601  0.1672472574511155  0.0843404923098315
  0.0817229033176120  0.0827054818689905  0.1659035255908581
  0.9973532499251447  0.1787973692413528  0.8362852236776596
  0.3358230487323194  0.4997345895987839  0.0022514864114993
  0.8301445428784086  0.8249698259693552  0.8367415946972542
  0.6654598308929796  0.6680699029782627  0.3327800676633075
  0.7475690939253526  0.6671874139219244  0.4148995127635930
  0.5824556811585363  0.8306814728477185  0.5820754521150797
  0.5812925643730240  0.1660258727515205  0.0845893838582068
  0.0785608819266503  0.5796365451691881  0.6629677754131015
  0.9971429633928629  0.5826703326007632  0.9215653111317669
  0.4173523177039924  0.9159747677813108  0.3311663481263776
  0.6643052521794351  0.6653719183316409  0.6652760912540241
  0.6677980501179648  0.7481852959718039  0.9192765143309836
  0.8298390841194473  0.6664815149676467  0.8367769194290363
  0.6631918049837794  0.0008463521029543  0.6651798515751197
  0.8285913962877519  0.6650267438365757  0.4939400256386615
  0.2495773226238174  0.4987878206116952  0.2491217511034867
  0.5827390512859754  0.0834025286536947  0.3318723419084751
  0.8227390770632571  0.9162992257300350  0.8355844754711675
  0.0795435242571618  0.2480918277616315  0.5776858416241650
  0.1670596857653929  0.1674482557075717  0.4093838735839657
  0.1686252721982964  0.5819378583487098  0.8393745999249924
  0.0824601680769200  0.8394963719500955  0.6582332169563262
  0.2475413392856298  0.0839060672032793  0.5826357692522185
  0.9992516326303739  0.9160746897202364  0.8365668912063938
  0.4244117431697018  0.0827173774438587  0.5831623918960723
  0.1707150775853686  0.5755525168723409  0.6607413896054156
  0.9911712336010648  0.7446315785604450  0.6624887631521749
  0.9947961825532481  0.4993638021661548  0.7516662498095602
  0.9991150734153056  0.0928006872288364  0.8364093285972173
  0.0845145757907785  0.3350045889067690  0.6688991737783272
  0.5790956106779578  0.7510486803564057  0.9177234903248568
  0.1735172348851709  0.7496516577625412  0.6596760931553074
  0.0846413205211031  0.8294220216661311  0.8412859843433930
  0.1751865477234410  0.8376921858224217  0.7524755303470487
  0.9991599512448192  0.6671180441053206  0.3325733849923145
  0.7469310000162184  0.5846184856091229  0.3314502220637507
  0.9124362324062847  0.5820273061421838  0.4960807143641859
  0.9988338250205759  0.7500977977485705  0.2496589273627949
  0.7474947812218500  0.6659234659963641  0.5806838833204988
  0.6654990371581435  0.7487135557340078  0.5819520733106467
  0.6655544932718365  0.7479765786414814  0.7486492714356568
  0.6651476675836899  0.7495767758127604  0.4150271154879648
  0.7481403623738280  0.7498167177960788  0.1673077050287609
  0.9982573079806734  0.7494612893471349  0.4150856333304760
  0.7478238953389372  0.6671106222606709  0.2496447632935457
  0.7478937028771795  0.7501600875952640  0.3319930202424309
  0.7463217100197115  0.5823109829325220  0.4975406471936931
  0.1682814119830947  0.8364150641626108  0.4944872383236013
  0.0832044952756645  0.6655601374394856  0.4145999535166448
  0.0823879760976147  0.8325159284990070  0.2502882800108374
  0.9961681976022546  0.6643109809892190  0.8373033516697298
  0.1675308132444449  0.4149063131945907  0.4134676109482884
  0.9961891624629652  0.8349666654444780  0.4955911366697301
  0.5010955113655807  0.3339594703684542  0.8340255335659243
  0.7475945575952018  0.6653331261373331  0.7494740532793502
  0.1655945352810760  0.4985349591235199  0.3320983414712730
  0.6653789125436332  0.5837186246947301  0.4150402483152213
  0.2538655451293148  0.4982499324610984  0.5796273407479346
  0.0816203695645031  0.6656879208565863  0.9229521754621662
  0.4187645440470550  0.3337050019342820  0.5829657889680867
  0.6654057822201914  0.5825690185517458  0.5820169620267305
  0.5840220135956651  0.1691095846741936  0.5825063068230895
  0.6646082302603114  0.6660991471888728  0.4982005024143958
  0.3351693879406051  0.2519220651555282  0.4137828159436542
  0.6654647621656904  0.5827000055128807  0.7491234282371999
  0.3355213916352422  0.4166095116617193  0.4141220209755739
  0.7472868559636143  0.5823893483760791  0.6653023264765148
  0.5839209579943777  0.2510090316794984  0.8336108085749114
  0.5836246957009429  0.3339989116684104  0.7502321656969446
  0.6646380865472118  0.4168053977447257  0.2509107404690511
  0.2517528290022385  0.3333103950627069  0.9196318889279225
  0.5017655941384368  0.1683081169312788  0.4983093675303957
  0.3355923544617961  0.2511514014286348  0.7525435737741918
  0.5019919599910904  0.1689793346707237  0.6675706357192173
  0.5828394972849665  0.1665647732640056  0.9178090542958902
  0.4184426679574129  0.9999981844987650  0.7503815798448604
  0.5014632657137263  0.2504726026194463  0.0858045822529525
  0.5830186096273219  0.9994620270432323  0.7502226697854302
  0.1734453572330622  0.3345431587191247  0.6663236510286423
  0.4184125625180771  0.9145645142515615  0.4978280790560385
  0.5823792052994430  0.2506268208990236  0.0018944874154708
  0.6641146524160908  0.0839364906977371  0.9194571323471481
  0.4978845639162234  0.9996658029950884  0.0013808466369924
  0.4994308818366883  0.0826282649647546  0.9180110515505999
  0.5002027740198156  0.1658912709874534  0.3315566998462199
  0.2552603495393443  0.4155027898326946  0.6655653442724088
  0.1685274801413580  0.2508557200054352  0.9198013740639337
  0.9987791750807122  0.6667537951063968  0.1675474766103316
  0.6651497494881176  0.6652310938742345  0.0027200306018261
  0.2526682417645503  0.4161155858978384  0.8369102303664084
  0.5821052283981629  0.9995486610375638  0.9177160822102213
  0.6644657862790111  0.0835585172406090  0.7502798213853180
  0.8312542747210849  0.9984090845298851  0.3316355615610762
  0.6649433736157148  0.5841441203507269  0.2501446057929270
  0.6650158139950126  0.9161932252317065  0.2486437998150627
  0.7485121566070164  0.3331999456594432  0.4140068621208691
  0.8305092239421055  0.0828947575565812  0.4139335528774738
  0.0824721926512628  0.9162270920960796  0.3315375836481144
  0.6642957009334597  0.0842135114842153  0.5811438686283354
  0.0813041340503896  0.4161687869027655  0.1674403664953080
  0.1671544507706122  0.0018407345262381  0.6669083536156607
  0.1663807657515481  0.4982645331152609  0.0029602138965615
  0.7459200574155400  0.0022569495447165  0.7482510187418454
  0.6651916265595078  0.9984306210122034  0.3324969246782245
  0.7470273334114775  0.0839358205984129  0.6654765931979619
  0.5834754637711576  0.9151329962105578  0.4984096469825923
  0.6655686081713560  0.9162672262122714  0.5822043963684366
  0.5007877246969267  0.1664766674288000  0.8342065092899387
  0.4982183385760553  0.8330330452278562  0.1688022800319258
  0.2524895099239210  0.9995143775117485  0.4135922619369007
  0.6653569895239058  0.2498238081152941  0.4135325952800149
  0.8301394666263265  0.0831390077619509  0.5814488649743287
  0.6651529262063109  0.1661400485023788  0.3308795193689229
  0.5843569848358918  0.2508279298700911  0.4987503423009469
  0.2495910303699747  0.8319761101166023  0.2501705836625944
  0.1662834266655829  0.0821619075947507  0.2475795040324445
  0.8295055432153713  0.0014609464916641  0.6656657395076052
  0.7461435027063054  0.0018845763078893  0.9203158421291423
  0.6642380277998138  0.2494107112078198  0.0852327271206804
  0.9968442122039128  0.8311087781416454  0.0057475285887127
  0.4178710629665498  0.1672726980294472  0.4148514164916347
  0.6648158137388788  0.1671239140938698  0.0017212562184327
  0.1666376127394376  0.9984024681495454  0.4961573467441397
  0.8305142987080726  0.0842413598580884  0.0850626936567541
  0.6653048291655772  0.3337794333316119  0.1681527357442261
  0.2508562121270438  0.0829081878485860  0.3305755628819434
  0.6652535166121838  0.1663784093659113  0.1673148212486973
  0.2524783963452618  0.3340898934733681  0.7524585934850218
  0.7472206770324327  0.4994055996036916  0.9182332278772068
  0.8312040993024810  0.0823354356098332  0.2489472725612431
  0.5825063120439560  0.5005146062869441  0.4150584166274792
  0.5016215805038357  0.2500639299405428  0.9167363563193214
  0.6647111346302339  0.4993614551278592  0.4982206498226004
  0.1658702452750237  0.3339291120904468  0.3305116254094888
  0.9965370502571329  0.7477121295793457  0.9222376760480668
  0.5829537078668501  0.1672403707474556  0.7507618425846743
  0.8292207333367374  0.4167995331747357  0.5810491439138680
  0.1667691694661119  0.4153265299511049  0.0846184902352002
  0.8308875811054314  0.4983386045383070  0.0014460097691062
  0.5828808841157760  0.4173903003397450  0.0010845861872904
  0.7477975380919770  0.4163774119741030  0.6664342130419986
  0.1675680473445386  0.3338239457860761  0.4969780879144273
  0.0786983232537600  0.5832819621941027  0.8373973144425420
  0.4999291817190514  0.4171232952755982  0.9180541659616052
  0.5820105607227777  0.8328445322182945  0.2498496801374165
  0.9982275943221143  0.1670063253422369  0.1669368003375379
  0.7476204701593310  0.3345416754358987  0.0844334370919895
  0.8291180194489350  0.1683604795025992  0.8344099687273641
  0.0831228074903194  0.9170129676517478  0.1669925861156945
  0.5823508636126735  0.5000430217530638  0.0843174615370294
  0.6654287743498511  0.4999463063048207  0.1677394839290545
  0.9990555529954427  0.8325164123771526  0.1667968461687835
  0.8311979192204421  0.6643040405006607  0.0024602577010263
  0.7470704877556720  0.3326455524050010  0.7508480327034059
  0.5838380400790631  0.3333646130440280  0.5821258367392995
  0.5000805153260055  0.4174859004486179  0.4152275941817756
  0.0813781975654052  0.0822844539882114  0.3309013439861233
  0.5839780904173488  0.2516772472597440  0.6660434867956103
  0.6651667225948844  0.4995954376007207  0.6661412977725489
  0.1689229959617976  0.7443042772526633  0.7540806033028615
  0.1668044197723945  0.7499701144973562  0.0852573287189365
  0.0821584445256129  0.8339787606874930  0.4138825587593482
  0.7463813483881498  0.3330774553731575  0.9178367271499084
  0.6653858223637626  0.3338910410533521  0.8341120267946833
  0.9986643383249777  0.8334660127475849  0.3318306453518740
  0.6648885313735849  0.3342807355028736  0.0008617780834204
  0.1674461462207891  0.0844463621652327  0.0849154455574232
  0.7482364392833530  0.4168174355929574  0.1681016762983933
  0.6646628349361015  0.4997582449161205  0.0015195825005846
  0.6649719558570227  0.2498961361263592  0.2500277043764781
  0.2547101572399402  0.7471076077116211  0.8368107667609578
  0.0814262539643607  0.9185471868682197  0.4961880912264759
  0.6652440588328954  0.4167272077836096  0.4141167942335772
  0.6647898679152785  0.3334830383496915  0.3317590505446860
  0.2514685190077134  0.0006779836176071  0.2492768567003139
  0.7491427138917639  0.1655868463861918  0.4141522162166733
  0.5828516629249266  0.3342174376230921  0.9174001981391963
  0.8300107653110634  0.1679433399425632  0.6668548635642092
  0.8289523078215479  0.3329932930674834  0.8357745835983752
  0.6646658420145510  0.1671467915071223  0.8338135491941535
  0.9988917079530312  0.0849083377210807  0.0849662947736531
  0.1670060799684615  0.9994381243127703  0.1670287238286235
  0.1659546948818413  0.2520153575189577  0.2484270837612985
  0.9145267736850460  0.4162561662563659  0.0023112123913069
  0.4185583362618501  0.2514062212712981  0.6671272318472560
  0.5012971781128286  0.0834943513798869  0.7509290616815025
  0.3376149895244766  0.6649391016011346  0.6651912205950292
  0.5823827796669874  0.3348946899494809  0.0843058010532580
  0.2502195441746939  0.4993716879625493  0.0848623274439157
  0.4177731805444608  0.4160198528599385  0.0015837155001015
  0.3330133903434522  0.6658332640256160  0.3320259654469594
  0.3344843315018501  0.8338199821788678  0.0029165272755254
  0.4183695510929594  0.4990365614141601  0.5816159296618468
  0.4168301040488070  0.5013952371786642  0.2501245411867396
  0.4179389825905432  0.2506462857074742  0.8355147712527354
  0.1675943249619252  0.6648404569420503  0.4951261725132730
  0.3356194023266322  0.4161915032015352  0.9195204810615976
  0.4174549336920654  0.4175339967682146  0.1673222669708677
  0.9145462005364587  0.4164478875323481  0.1676900761102846
  0.9980860115252380  0.3337818211031665  0.0034456488636497
  0.9972384594737029  0.4989041173713156  0.8415041928392312
  0.8308927217045166  0.3331734826194844  0.1671720170137586
  0.9976730887948793  0.2519154034157599  0.7500609801896995
  0.0827252314017327  0.6645044729106995  0.7499400228596277
  0.0823782938729205  0.5823255404940593  0.1667784480792192
  0.7479655325011660  0.2492750745961045  0.3312309903628511
  0.8302564955591073  0.4170617721968210  0.4135604885715562
  0.1681589046033057  0.3344303067047068  0.8371430456792203
  0.9143431052881804  0.4173226816907762  0.3315089788181461
  0.8303465434927809  0.3332409300615659  0.4971690954372008
  0.9112061945241534  0.4167262328153287  0.6650985676031257
  0.9107164139066600  0.3337797153957955  0.5809581050594962
  0.9968149742490470  0.4167670300564756  0.4140915500592016
  0.9128615279220733  0.1694987363732917  0.9196785964709523
  0.9146061072563628  0.3335321911670027  0.0847007481384747
  0.1659082681862308  0.3340242753162151  0.1675954770186958
  0.7477459036816086  0.4167888238274207  0.8353279102838324
  0.9987891855878408  0.2505637708737367  0.9205159142543787
  0.9153799616449865  0.5008276041237897  0.2503248804712917
  0.0813017769153440  0.4159655718344795  0.0020632770123576
  0.7476973989343615  0.5816629089537810  0.0017867754477718
  0.9143308524384400  0.5812286036816362  0.0027906366874016
  0.6636796762990155  0.9184963431008413  0.9206706071425211
  0.0816476520240182  0.4169409516995551  0.3311524056269549
  0.9144828916724188  0.9170711296967787  0.0036689182509330
  0.8317926267724519  0.9996086140394801  0.1663595227086450
  0.8315723803350979  0.4998718844961090  0.1675522054007842
  0.7480640485524745  0.5005944953158759  0.2510524625723706
  0.8310679514756716  0.4168649549470123  0.2502734662043337
  0.9151385815768204  0.5818788128224078  0.1674196234472804
  0.7477104644906707  0.4170299358911398  0.3318246444134901
  0.0821404589164934  0.3332181940215457  0.0844057919845727
  0.9144650983936322  0.5004991481760059  0.4141114213285187
  0.9940862519415187  0.1658078424580622  0.4969200807831181
  0.8289282184207614  0.4989022849798190  0.6654571696890512
  0.9150888982316219  0.5837729258832401  0.3322787236566324
  0.9987291301296606  0.4996003468260616  0.1674121800016842
  0.9144428635884706  0.2505147511691700  0.1673380684843584
  0.9978560469798626  0.4987271323153586  0.0026614743571050
  0.9951696613482713  0.2500797950198587  0.4132768212448494
  0.9979182627916078  0.6653349305821592  0.0042025967783115
  0.3367288985223529  0.6656741789243504  0.8351553202809949
  0.6653032830363428  0.0826640724569914  0.2491135531523185
  0.6647762327704623  0.8332946430530133  0.4982990510123588
  0.7477708383534947  0.9989722719668312  0.4148748301344193