Cr  H Ni 
 1.0000000000000000
    21.1200000000000010    0.0000000000000000    0.0000000000000000
     0.0000000000000000   21.1200000000000010    0.0000000000000000
     0.0000000000000000    0.0000000000000000   21.1200000000000010
 Cr  H   Ni 
 259  35 605
Direct
  0.9951670491387573  0.1664212762320276  0.8315329264676921
  0.5776638485450564  0.6679594439327186  0.0823303831555954
  0.8284550325706843  0.6652167283445575  0.6674179400018261
  0.7442269007702949  0.7505225581505889  0.8325609879886638
  0.4144151704671430  0.4984137812325848  0.9177934244408417
  0.6611309052702183  0.7493813958149020  0.7507861089277335
  0.6612722729631141  0.7482671983061040  0.5834644157397414
  0.4119623541169353  0.9136833080756233  0.4996896796957019
  0.5806585711878942  0.1649178749359853  0.0848332070227926
  0.4939100080031498  0.9158957758706615  0.4161666543813227
  0.4118311471365150  0.0837296235052347  0.9993810010878744
  0.7433523883218299  0.0828239360857896  0.6681969169253852
  0.2438296144224102  0.4170427489196655  0.1669150247063630
  0.5789401637754870  0.1681914991444877  0.7501145840976839
  0.6617526650005305  0.2487427986498855  0.9178985039449858
  0.7439957621759788  0.5837279096944701  0.5001422619065472
  0.5825604674564775  0.0820815025016460  0.8296777989343700
  0.3290086329823145  0.6680083415884294  0.0009078638090223
  0.9125428040979312  0.5837204732253994  0.0008849145968550
  0.9102526237657176  0.5009940989554965  0.7490289274001967
  0.9118376887972058  0.5828570112647764  0.6681466701328116
  0.9936752497040092  0.5841840912321024  0.4168794666637108
  0.8281349175494708  0.3331901721887696  0.6660604602050584
  0.8285921651073512  0.1667803060473659  0.0004435426577546
  0.5791888613582251  0.2504954878562441  0.3305223790985253
  0.7471395736298106  0.9991262336800331  0.2511991164984789
  0.7444210270766441  0.0010150177114083  0.7491612128812114
  0.5774581651855361  0.0013530876821053  0.5811563018201555
  0.5005370217520810  0.9971766270708068  0.4980566299109376
  0.0768762182207934  0.3332115671420071  0.2509780932639619
  0.7448655067213377  0.5822840380621959  0.0001137445964590
  0.1601712144610419  0.0842018388302055  0.0835185493094183
  0.7452520939977019  0.6660491864227890  0.2506641529847417
  0.5802179413464571  0.1681060215213275  0.5829457945620318
  0.7467106468381839  0.3331111774904266  0.2508038355606309
  0.7479985299520107  0.9986321096917280  0.0831781447680107
  0.6621497092246993  0.2481912354610516  0.0859853373873605
  0.5780470703607883  0.9162380415064153  0.4966298213140845
  0.9116443700009904  0.8327568788232823  0.4190979407543920
  0.7466631824414729  0.0003003120220187  0.9170594883503074
  0.5776534765939143  0.8341017529298475  0.7510247049000601
  0.6628818510690362  0.8344665604669227  0.1660228758136971
  0.6612291745623359  0.4166767048402250  0.9167780467818801
  0.7435273858661566  0.5844165396068188  0.8354149000858081
  0.7462909830555258  0.4210273911366433  0.5006990454951741
  0.6630439187706647  0.6651075993649663  0.3315255526267006
  0.4960940102457525  0.6663913529468658  0.8342883449303498
  0.8278024334832284  0.8323810176771685  0.6658573802556551
  0.8268228568226230  0.9990740924743692  0.5010762985237815
  0.9113002850376255  0.8347926584136764  0.0814513859072763
  0.7453249874980791  0.6662724695506177  0.0856000144528934
  0.1625386525168829  0.3334611636589347  0.6667368499443398
  0.9105824052318597  0.6644460359971069  0.5859049173237094
  0.8273133967487291  0.4996228678013738  0.3370295652456038
  0.6632213649753730  0.1659448038059230  0.1666167812484627
  0.4964831891847747  0.9147080200950163  0.7499517624244764
  0.0753084596912508  0.9174283902082655  0.3333143625336242
  0.7439141252442276  0.8316194851112764  0.7510801358156992
  0.0757772249034569  0.0013667796464495  0.9160300294082755
  0.9951436408935735  0.6672938103563117  0.8329428350084159
  0.9117105043059444  0.7512737550362909  0.8332135370736986
  0.2432130316936381  0.3337738933348908  0.4164737300640297
  0.7444253777867521  0.2468695320041234  0.5027336004619485
  0.6642899449976705  0.0816075533043317  0.2508107307870157
  0.9945093161820877  0.0852612849458267  0.9140816693086944
  0.4959570554740128  0.3346877508572076  0.6671211729111652
  0.5769764891167861  0.6674519766456797  0.9183845939186889
  0.9110088571575912  0.8339349683537735  0.2506741422133994
  0.0789620067050233  0.0000622699771349  0.5837375153816969
  0.2444247468593028  0.1683233934844008  0.9161141708769491
  0.0768221183913257  0.6662662782817947  0.9153693971350062
  0.9965938652063385  0.9989965882835448  0.3328460731637967
  0.9955741692580583  0.0009585126361926  0.5033016970649314
  0.0774060820247706  0.1671253813814077  0.2503658560472809
  0.4069617005673523  0.1706422722590465  0.5820573804185389
  0.2450723051996387  0.3333353654685784  0.5835251911042413
  0.3283010911562796  0.9980554720121649  0.6660403006050724
  0.9090823017702591  0.8337022909700417  0.5856385831812897
  0.2453241489811955  0.0001173304830231  0.9171369995060307
  0.9930757481760161  0.7525007593130024  0.2493996237078784
  0.0796676314421180  0.6655894403741059  0.5828880107568021
  0.9128231678385812  0.6653181203930545  0.7507102519591418
  0.2475586240751133  0.1677179475118525  0.5835417668484191
  0.2454190108757598  0.7488220748487805  0.1636297262776235
  0.9939842369736102  0.2485226178360729  0.4181294144194128
  0.7436703107351925  0.0830729536084720  0.4995683536765502
  0.1614738738609984  0.9159787079675216  0.7498737163718754
  0.1622162688570200  0.0830242191277771  0.7483499012698243
  0.0770256415280104  0.8346698840793813  0.9151245677821889
  0.9108896735518620  0.0833093001674440  0.6685679345794614
  0.9944333147903597  0.0840081383549916  0.7500112014225720
  0.0783934338735333  0.0833466919089030  0.5028357152490855
  0.8279182207196816  0.9168852199880434  0.9156573870165471
  0.2433626372717412  0.3308271888694065  0.9159738997740475
  0.9930801085784215  0.7522149070311577  0.0803065292976932
  0.9953897347048892  0.0014651718598230  0.9976500652187712
  0.3255201368733219  0.4167988964766146  0.2500537662544641
  0.8279823647667981  0.9181718682636086  0.5840606661407470
  0.6603453739214110  0.4992955722886604  0.6683993696250333
  0.5766888355531182  0.4167891293458206  0.6656192533109619
  0.8287473876973601  0.4185632750415806  0.9160899234140956
  0.8295407557185189  0.9161896868652124  0.2509622359907462
  0.6629084910047592  0.8344989486102706  0.9993698113080675
  0.1607130259473191  0.1683263748532924  0.3338435141865207
  0.9943581657991141  0.5836850882142418  0.0822365178856626
  0.0748409166661338  0.4990396895315742  0.9172229082449416
  0.2438265690903514  0.4160687769353528  0.0030892434422825
  0.4117251887504745  0.2515063378506752  0.8330249031459372
  0.1612172622868651  0.4984789643193816  0.6674023219380003
  0.2409225763423227  0.2498787930955837  0.3334316116709182
  0.1607598890690589  0.4994278390383246  0.3325881061239023
  0.3293856257495895  0.8314031340298668  0.6682800462090406
  0.9927954361286706  0.4163843583392443  0.4205640214446821
  0.7473126315774616  0.4158248609604431  0.8340783807773015
  0.0780123035570625  0.4165174053885163  0.9986713192602836
  0.2450761849114509  0.5837955528789031  0.8328424084289309
  0.1617759943499661  0.2512607617738238  0.9162321473857519
  0.0770126783341668  0.4170151777964460  0.5026351353235847
  0.9950761806449147  0.3337593596144502  0.8334812705643418
  0.1586680843238468  0.4970540132731330  0.0015841001354083
  0.1605311685172682  0.9996795161785925  0.1650853992353353
  0.1587840731227726  0.9994193449735437  0.3294760921836437
  0.2461508306830626  0.9161257765881984  0.3334580771003601
  0.6621578438511265  0.4163769739980476  0.7510501551500358
  0.2437886701989388  0.2485474720091859  0.1676847687619373
  0.6633134931228079  0.0835840350456415  0.4164219058313727
  0.9961328205302857  0.5005426011506856  0.3341075545475763
  0.8280267050954003  0.3341166165816027  0.8320772266440960
  0.0740435920683583  0.8344810078642371  0.2498053129114144
  0.7457049828142854  0.6671992732348987  0.9137360804480800
  0.9128995448730660  0.8328865821657343  0.7507072660277587
  0.1596892958088230  0.6660711666147018  0.1645763706084241
  0.1612517259262868  0.6687746095635240  0.3305239076100299
  0.2431945794285396  0.9176894704531647  0.9981856151650097
  0.3302982528392547  0.4181777232096590  0.7511839573465368
  0.2431051012174561  0.5004643211023461  0.4141800214093760
  0.0783016704921480  0.5836414193778304  0.6663033111494820
  0.3280237732781949  0.5834502293756970  0.5826858117604256
  0.5787103156436006  0.6663831884194902  0.5827538205211563
  0.4120965408441886  0.5007013317716020  0.5823175873744855
  0.4945696853005186  0.5828417207530042  0.5825222568696156
  0.4974528165835606  0.3361876161650171  0.1680831143998852
  0.4121282892623430  0.7510142584852815  0.8344560668989129
  0.4955038632950141  0.2487104397197264  0.2545793370405446
  0.4954780026654816  0.6667705115709422  0.9997904647217367
  0.3285319413325068  0.4165651773791799  0.5818965249869675
  0.3295463271909587  0.0855726540528147  0.7513531792267876
  0.5800121895350856  0.4984006422197287  0.7502225944631640
  0.4085528690199294  0.5010162365386707  0.4152677803709937
  0.5831664224349440  0.4991170853190486  0.4134497078082245
  0.6629751354305651  0.4992943945070053  0.3340403938314961
  0.5795666637467388  0.4173461462428590  0.3329440344843629
  0.6626879523710228  0.5849645610940408  0.2497692785212687
  0.5792741735896965  0.4972632998549232  0.9175471459115019
  0.6611758616560907  0.3364047654968469  0.6669214110791329
  0.4950122063036169  0.3305062773436766  0.0018936761275735
  0.9119217962961060  0.0834593120765896  0.1665923593211671
  0.4105117436133252  0.4987901815758648  0.0801241185886616
  0.6660355923401201  0.0825073192213599  0.9165869394667024
  0.4945271083246892  0.3333979273029122  0.8347738338752099
  0.9953018378467924  0.0018324900174347  0.6680270768681490
  0.4119242375391029  0.7480254497819683  0.5030191679521403
  0.9110035526800764  0.0833075642149602  0.8324263131756346
  0.4953946827047888  0.1680494470405179  0.4955128548502371
  0.3277545222393299  0.0823220806264527  0.2500343636788693
  0.4961327504562056  0.1671693723471718  0.6698906995012313
  0.3312670099175468  0.5827107461505286  0.7520643328277650
  0.1591212619897465  0.7494338921018877  0.4177257894745519
  0.4951571215579676  0.6670779111144253  0.3338383806283435
  0.3275456362475284  0.6672657828113919  0.3313888758470883
  0.4940581635387428  0.5010261706995003  0.5021746093669863
  0.5817220890498136  0.2501387401765834  0.1694808025414128
  0.4971942231937104  0.9988044204148180  0.3325688986842852
  0.4104254990042842  0.2465639659589150  0.1673086963753685
  0.4083824868010922  0.0834567215892929  0.8326990052911968
  0.4114517243364197  0.7493431566258637  0.6684066652371821
  0.3275473780795323  0.9994349643355435  0.3295767151662234
  0.4949691489804531  0.9167769667528890  0.9173555876356044
  0.3287412532624954  0.8333186311505846  0.8341316680919868
  0.1610533041353040  0.2514948319954171  0.7487378968961255
  0.5804245776766638  0.9179639777902480  0.1670412536917134
  0.8295898064235886  0.5028173296781256  0.6676814004033000
  0.0774332905793911  0.2492243089823184  0.5018154348524867
  0.9129788727580022  0.4160879497721447  0.5012849187634479
  0.9125325892223264  0.3329019338579648  0.2503121084974723
  0.0758869636227327  0.4143084010265311  0.8325808456151590
  0.1612028012572444  0.7503094542676144  0.7499158306863212
  0.2455661867369842  0.6664688852142608  0.5850743807776766
  0.0799981857208457  0.5843241713052661  0.5014798666265878
  0.5789720657244956  0.8279984705177754  0.5816702063644543
  0.4955094432168102  0.3350219129616079  0.4975417261641186
  0.6633126244432190  0.7492713646925827  0.4163341598660237
  0.0794833130802544  0.7501649898358749  0.6665330518139946
  0.2439915942798888  0.7482832317473743  0.3308031228748066
  0.9126674667476573  0.3319868916263786  0.0820899218595284
  0.4962141185340209  0.8340895625803335  0.3330352203712619
  0.4122032864975179  0.6686113776104505  0.0829876545094143
  0.4131649144799315  0.9172420928305516  0.1663723427837514
  0.2431438416762790  0.4950202783225537  0.0835248170781429
  0.2452288777821599  0.6701136277210414  0.9176513690032059
  0.6618148243356977  0.4173517045428021  0.0852254805648150
  0.4955499148503515  0.5823327560148415  0.2497423306229529
  0.0781275656039582  0.1668369542449695  0.9155009565467939
  0.8280011982526441  0.1667382441396724  0.8330084126923500
  0.9104819641468234  0.1669917809693613  0.5840681252283352
  0.0768764514097095  0.1674717392660913  0.0830209275886469
  0.9935880267473284  0.2496543829196296  0.2510881169780060
  0.9121040322268936  0.2488511532339155  0.5004211895659284
  0.1601305301062131  0.2495520738551966  0.0833391391998088
  0.4106189417584846  0.4987337958416488  0.7501330149322024
  0.5775448464002513  0.6665957695065364  0.7509129950532021
  0.8298749059370405  0.1654529278200340  0.1670250932631713
  0.9117339963131528  0.1657596957770760  0.4200899306370160
  0.8280263575592575  0.9177249622656520  0.0825412419363220
  0.5785064727768643  0.9991388711758248  0.7501014566750215
  0.8298501538296443  0.1663329269606466  0.3339415284101301
  0.8289159259321068  0.4166075436887942  0.0837688258156163
  0.6619295804037953  0.4991838656716805  0.1651980047394277
  0.9940346754705470  0.5838852662505651  0.2497489878823313
  0.9127997933989807  0.7518085171103648  0.0005650832974102
  0.9938505660140720  0.8324215046408957  0.8317220956479238
  0.5798357017097434  0.1693667907889358  0.9168765615569798
  0.6619770486318001  0.0830318761457602  0.7497681712307129
  0.4929346564017713  0.0846015083809353  0.9210696075279589
  0.9939469400143338  0.8321108558999626  0.5018446749209189
  0.7458698532143903  0.7488781117567024  0.4998721492095812
  0.7457113719541546  0.9166157016956278  0.5001494870888518
  0.8298217353671163  0.4992168062199683  0.1619655528315897
  0.9936284246399940  0.2505893672658899  0.0834964507960738
  0.3294643421611488  0.2522941859581865  0.5816985837769887
  0.5799433035995997  0.3338774381230360  0.2502987120669959
  0.0759649477534852  0.4164089196542176  0.1679119297442269
  0.3246622914104317  0.9980733928772586  0.5033664953814779
  0.3280044382245945  0.1644671630150562  0.3332566909434789
  0.2444388558650933  0.5834578586711819  0.0017165087246183
  0.2471038418226550  0.9174663819270428  0.5023012338131595
  0.9945747771773578  0.4168592080494533  0.5838079829608573
  0.9936441138147787  0.0010044560452797  0.1661715816940445
  0.3277751117412100  0.1682439336773350  0.5000131937075267
  0.5787039214753305  0.9993903047135724  0.0846348954445355
  0.4118483315585177  0.7505720635522810  0.1646180272113617
  0.2453198146096542  0.8351603971228428  0.9167709141444201
  0.4100718008530368  0.4187443758918969  0.3341232226624288
  0.5798853610973791  0.4169307931587939  0.1667156538325539
  0.3302343045070078  0.2510522389227217  0.7505982859922122
  0.1611978518959695  0.6655644001081629  0.5044759772310500
  0.2430837616281933  0.6708556146361051  0.0847323745076251
  0.0772378661122847  0.0001162822813013  0.2510980467157446
  0.3285181223122884  0.9149968202247015  0.4168854239114976
  0.3255978384881860  0.8347290765175714  0.3319340523181626
  0.3266964765187398  0.8358910950414346  0.9985956315296536
  0.4122507021972121  0.2500510992894090  0.0011690540796702
  0.9932336050666757  0.7519945732524123  0.4193126232390884
  0.4133212596236995  0.1657736280453924  0.4170545391182209
  0.3287999483202817  0.0830643897242988  0.0832670337404452
  0.2439113501495697  0.9189038648573025  0.1637330922925311
  0.4949835920035184  0.1660217462307186  0.0007387215041081
  0.4120472643457739  0.3313172880467669  0.0818394198173246
  0.2455369708457378  0.0837506014004906  0.5028034500437432
  0.0809940631309400  0.4169138948576440  0.4137665572584016
  0.9153043706990638  0.4976722140605048  0.3333125766478952
  0.3278268644132935  0.9969610375248934  0.7543011600217793
  0.2448300061491197  0.5819124692899887  0.9205331858198554
  0.3266233311846447  0.4979699114197432  0.9151206885470726
  0.4092430347961732  0.3342281960257982  0.1693155386969768
  0.4127787393505057  0.0000799289294914  0.5004658882678646
  0.4961456457437768  0.2498474803124842  0.1681784496790981
  0.5797662414846749  0.9149479457410457  0.5841469854015033
  0.3299929656498251  0.2526491952890719  0.3336683965537671
  0.1600443633159468  0.0009573763704295  0.4204528924518076
  0.8300915609959123  0.4991981982603997  0.2497580467156686
  0.1624501539176799  0.4981313729549617  0.9127667689817729
  0.1607841167250327  0.6634951161153299  0.4173583723885238
  0.4122345832579978  0.0804227898218459  0.5853855669355167
  0.2432617661883210  0.5830004223119178  0.0846066933304907
  0.4955224991499307  0.5015209058613671  0.4149505919034108
  0.7447802798717819  0.3340005586803154  0.5003372299616557
  0.1564818569494707  0.7542217605620821  0.1629739493155071
  0.8279570951185599  0.3302811649141933  0.9198231983527894
  0.4936046014796977  0.1675794396564376  0.5827323734678539
  0.5795446455666573  0.0821038977526389  0.9168331562042871
  0.4123841635668636  0.5015210236239676  0.1704974194400535
  0.1605577116121748  0.8382660336090534  0.4202736427731796
  0.4943945322083659  0.6710979176141533  0.2454487439110736
  0.3283816568507152  0.0018739626550843  0.4172043695180350
  0.7441336575185418  0.2508368597355423  0.4122130103822952
  0.4956102125642199  0.0830220909294941  0.8330352798075803
  0.4960803642593949  0.8350369875511923  0.0824679752353467
  0.1642017402668846  0.8338888670699263  0.2484006275796191
  0.7455385663102250  0.6695176686208111  0.9997616548334457
  0.2469105246334126  0.7499628871201802  0.4199900786958496
  0.4125967838419528  0.7485424706513120  0.4122186087108036
  0.2417837700097784  0.5831792831947640  0.7455521443559985
  0.8275184430168249  0.7496941353289375  0.1669394231670676
  0.1605954301831294  0.3329561327863841  0.3336975512468031
  0.2435377025651662  0.0835937344255201  0.3321797571124541
  0.4115458826824189  0.0850194110670730  0.4991707348836398
  0.4966015546142282  0.9992287970342818  0.6669829738489594
  0.4118746298659086  0.9990020257746109  0.2495932918963649
  0.0779195444881505  0.9166054976192481  0.6671507929854413
  0.4122951121222353  0.9970338611500439  0.5847542195606265
  0.3278600589476949  0.0006347419176626  0.8357872570399769
  0.4117802554228160  0.1680848749275492  0.7504460308539986
  0.4116467374785457  0.0002488376557866  0.9168901632414638
  0.4125536338243261  0.9159023516683744  0.8340138873059393
  0.4117898322804249  0.0834119431413975  0.6687152713429019
  0.1611517874805814  0.0841869999334184  0.9163384133928486
  0.4110143080388303  0.0827893961313677  0.1668318664293931
  0.2452593997077841  0.1674252085221510  0.7497817221289255
  0.1615647363748944  0.0002315528961368  0.6677678092410321
  0.4113262736958850  0.0002546979668171  0.0833962477575767
  0.4111717327579895  0.1647756986900236  0.2508930822691987
  0.4132161675488123  0.2489699495031381  0.3342613434054777
  0.3286842571790655  0.9175122221272605  0.9162150608867663
  0.1614135165073638  0.3335661237969962  0.5009498305045523
  0.4108728326078523  0.8340725443091052  0.9168309333782204
  0.3278109330375603  0.3345505560653159  0.4986044347144372
  0.0788235854251641  0.0004983090388416  0.7494642231220310
  0.3278630014439837  0.9997715154719294  0.1657507675594988
  0.5786317386718471  0.9987042899960157  0.9174374319550230
  0.3277780093580288  0.1667935461136309  0.0006507011194735
  0.1619985375446810  0.8329732829964219  0.6678587852728478
  0.3277094154653060  0.2493001972512527  0.2493955757462345
  0.4955854682990122  0.9999114267857304  0.1668533258605266
  0.2443689196242375  0.0013474597438180  0.4160049306352124
  0.5784738335340879  0.8346858632380628  0.9176798133315345
  0.4128343079229474  0.9983953606343563  0.7505769095557974
  0.4959195386883424  0.0820102987850135  0.2502809631728842
  0.5796830641683715  0.9990962453647394  0.2503943613114866
  0.1609144436462540  0.9178968928270114  0.9157035965250477
  0.3286791506644663  0.4144403802989504  0.0839921064561593
  0.3255743857729161  0.3325305455761350  0.1674647814513696
  0.4953778596048885  0.4154123212000334  0.9181189609889239
  0.2433053051490773  0.0830731156381990  0.1663019529732637
  0.2438805071441323  0.4166322107583104  0.3328620153426404
  0.4112261743139995  0.1664974420145095  0.0838160437308811
  0.2435409165498943  0.9997770988713903  0.2488356564920806
  0.3270484577656439  0.3354482161369575  0.3328937703102111
  0.3278590271126768  0.0004487462777172  0.9999178120439068
  0.4109462144066483  0.4172295143486676  0.4984059420249115
  0.4120207116013093  0.3344685974527619  0.4152043667735407
  0.2442941190221482  0.2511309826639041  0.4996652158869960
  0.4951794393852383  0.1679127976111394  0.8332822741303860
  0.2453822692631048  0.4148981785535881  0.8326703376436272
  0.4121714796798541  0.3318782821789668  0.9179319828728507
  0.4127331712385610  0.4159990168320646  0.8345481773721684
  0.3283524690297768  0.4134653817976299  0.9183395134605749
  0.1605622688373062  0.0016625051582675  0.9987625807585147
  0.2450432209189236  0.8343849009307348  0.4181039241783073
  0.4110819704426106  0.8345909583163633  0.2491153543357752
  0.3285806577794910  0.9148412734620314  0.5844792038844486
  0.2453508258182613  0.7500872134881463  0.6680334381064774
  0.3286711800787930  0.9134531520178865  0.7505097721967136
  0.1610830635281027  0.8331013465298369  0.5033362468170094
  0.4121189420746127  0.9147848824558334  0.6674567792899064
  0.1607725931067186  0.7506645375386802  0.9163125889856844
  0.1610577413237829  0.8337487985978205  0.8335739225447533
  0.3269654896386936  0.4995737556047842  0.1658074279326016
  0.3277586505909724  0.7506167312086380  0.2478671036985487
  0.4107246544787613  0.5003886750239726  0.2522263988121343
  0.4126662265861785  0.2519668171044246  0.4979504544105982
  0.3276825923858323  0.1677846053599863  0.8335483807385723
  0.3273950717104824  0.2492407993820688  0.0839722675099391
  0.4103877834404445  0.1678575154547639  0.9163976958864272
  0.3277768905198856  0.2503998409556562  0.9169967374887822
  0.2447777627563295  0.9994731088435260  0.5861371397928016
  0.9945950204243926  0.9174458732712643  0.9150440959719381
  0.6638685919129966  0.9996056653893663  0.1670030709093817
  0.9951942159714942  0.0830172800098027  0.4183273147868651
  0.0755627294526307  0.8335811336886144  0.4179079952200365
  0.1613131001039330  0.9173484095163863  0.2486360762779225
  0.2441028476070330  0.9167406407164488  0.8339814826444222
  0.2443180783899505  0.7513517251194678  0.9994364108384012
  0.3287417206285442  0.3345110619498295  0.6667547835484079
  0.2457330107774688  0.4980578900027344  0.7501283235321924
  0.4119795205122916  0.3345804853351239  0.7500312529994841
  0.4948586631211511  0.0002534735922079  0.0004453099617825
  0.2454275972493364  0.3335232214108854  0.7496594507172031
  0.2439745163645395  0.1661475347556506  0.0841385652608802
  0.3286123437855339  0.0843472298905005  0.9173311498779049
  0.4128958230663312  0.0003517033345149  0.4142540519840808
  0.3274948703142651  0.0851346432303939  0.4162055807389142
  0.1622647727930958  0.0840020300039040  0.5843474358972770
  0.3276691870873842  0.2503116829076034  0.4176396186390556
  0.4951822782937123  0.2521918099860064  0.5825615514427508
  0.3288064014610304  0.1682481541776193  0.6673136302320681
  0.3278918782490669  0.0828362563301332  0.5849478141269362
  0.4118125123373824  0.2519321012477740  0.6670996304899066
  0.5801947906021681  0.9996603254929336  0.4152133707821245
  0.9117138620689146  0.0834632449026013  0.3341641313877138
  0.9946427105535629  0.2494129628032545  0.5833481577237223
  0.9958754247221692  0.1655592014552227  0.5025082053417893
  0.0775072850025294  0.2497115903784599  0.3341891030100522
  0.8277724148564926  0.1657836998032296  0.5012349045966548
  0.8273028516166533  0.1663404942514901  0.6659920574888980
  0.8274864775187029  0.2492925802829291  0.5838124509268181
  0.8300132746673816  0.2489685694822568  0.4180214923621072
  0.0773272137943943  0.0836346841051205  0.3337727257504122
  0.8281135197190407  0.2503986257377508  0.7494466177202870
  0.9101801349383936  0.1675440898394325  0.7493524913007125
  0.9110395032481623  0.2500458283686794  0.6665248273724984
  0.8284602298131831  0.2472220937063888  0.9160533478781466
  0.8296710083227805  0.2490776910276795  0.0838454790879215
  0.1609548143651829  0.0849546666227089  0.4175501993671238
  0.0762260665444863  0.0003941634822952  0.4182150541681522
  0.4118111442560052  0.7507754134615633  0.9997911766668586
  0.4947938429144274  0.5001740850009869  0.6667708056727750
  0.2465126336761591  0.4166287291308863  0.6669283503194080
  0.9937821928111765  0.9170982165970610  0.5847601649169475
  0.3289853383840119  0.4997645698654025  0.6663867283966679
  0.4117909356725977  0.5829423473930528  0.6670696994016624
  0.3290665616242179  0.4989712126684077  0.8328972935093949
  0.4121508018811615  0.6668555559021949  0.7516753276694934
  0.4123107547727859  0.5831988384440078  0.0005162692002754
  0.1601187162227210  0.5843322840359692  0.9172862721241624
  0.4960085883293735  0.7502352894781327  0.0826686750209931
  0.5782568588617208  0.5830622372163615  0.0004476738583775
  0.4124625177944172  0.0823256040606734  0.3328012442546273
  0.1628636326518122  0.1678098756915640  0.6673751283925123
  0.4965259528878468  0.0818767383703885  0.4164547756594247
  0.3280820264561903  0.7520514858618351  0.0819812518557947
  0.4953054781166916  0.5006858943755200  0.3318349995262298
  0.5803288792684248  0.7509238155067774  0.1662278198364534
  0.3287698636410575  0.7496459790473765  0.7514151648069740
  0.4950137765891065  0.7507073308083074  0.9176775271153590
  0.2448809672743605  0.8352735863899005  0.0822159976583499
  0.2439131263854565  0.9998338811165562  0.7500394192686431
  0.3274550503167757  0.4985052467241680  0.0037066103555393
  0.9101833618677198  0.7496626850289392  0.5026613520757792
  0.3285258342593712  0.8345770467186585  0.1649462967722365
  0.3276860813560030  0.9170401554260430  0.2486284126617062
  0.4956162091903778  0.9163329289504464  0.2503855426317821
  0.3277165317591565  0.9175469756297546  0.0826458241782390
  0.1615372136106189  0.9185615091005360  0.4175860843247026
  0.4115154512333551  0.8333664241014900  0.4154880056125232
  0.3286828412982410  0.8330104119169075  0.5010973757116993
  0.4116120228121334  0.8314375949759906  0.5839239273893237
  0.9932938585828373  0.8336734912453462  0.3345274630929943
  0.4122867050963858  0.6673347478417989  0.9175542746639215
  0.1611711058291082  0.4135871267010979  0.9159266804161238
  0.4109356676424154  0.5838897087714726  0.3325891103111847
  0.3281103466346464  0.4999690841782021  0.4992080511415015
  0.9126731287550917  0.7514577923163070  0.1650726259745358
  0.7450982170801760  0.1669889590271367  0.9170664761479026
  0.4953890078106071  0.8317258665171108  0.4995777439354409
  0.9105365804315831  0.4170966398041378  0.6671577142975827
  0.2448510828133959  0.0007284449691729  0.0823363330626888
  0.6624310914278277  0.9158262178703123  0.4172135710934612
  0.4956394217035879  0.8309709725444500  0.6665217439823163
  0.9117284148689963  0.0007504925993015  0.9156905845561087
  0.2436041835425217  0.2494804310278990  0.0003370373282708
  0.2438616471670970  0.3327499466008441  0.0851159254200095
  0.9945855008651130  0.0838789341668502  0.2508089396407885
  0.0757165971557133  0.6668178168136387  0.4170140173344732
  0.2461210548890969  0.4990100338038789  0.5836565719413002
  0.0786360987501713  0.0838440653171762  0.6671380423423131
  0.2446170292381253  0.1661314888039135  0.4168133228505592
  0.2449018538119898  0.4171969556830999  0.4997921976470284
  0.0785908482662824  0.4164636591845856  0.6665746368785120
  0.0770130021712289  0.5005817362051598  0.2498461121242565
  0.1606402597832921  0.5839604270360890  0.2493059769214634
  0.2431368443480100  0.5002387103991662  0.2495076804819210
  0.1606794359224500  0.7498015491815836  0.2493323085582427
  0.2460239129873177  0.0842334728174358  0.6676169872785928
  0.2465739675481939  0.2508643460752172  0.6672196944494989
  0.1592686518792829  0.4986886769831946  0.1665807676573919
  0.1599178240704286  0.7522168725296112  0.0801616583260636
  0.8285856049484138  0.8334650628725266  0.8321081800860179
  0.0771715107131213  0.0014445641920468  0.0831593470773796
  0.0784846146848146  0.2503504792376248  0.8320289482301050
  0.9946892455546420  0.0837854293540805  0.0824220462729338
  0.1616069575072726  0.1672095315394902  0.9998055204323665
  0.1612240167025060  0.4159346753353061  0.7496905342906212
  0.9941525501630787  0.4165674394185265  0.7492441480498522
  0.1618850934799622  0.4997888093237489  0.5001134141865587
  0.2447999868928107  0.2502516967599369  0.8318662632140601
  0.1606294371622990  0.3330471229317705  0.0008781301182856
  0.1608704594747705  0.2495614938932112  0.4182229870604580
  0.0772781008792785  0.3314333362461382  0.4186275466644035
  0.0772474493082206  0.4165752764528186  0.3319348702753020
  0.0777180810834503  0.5023194252069917  0.4170341651158316
  0.6632349783879278  0.1658653495384729  0.3324914541215537
  0.2437236959098867  0.5836722450001415  0.1668294887814079
  0.9121374377432587  0.3326265170093811  0.4187336778848999
  0.9115152871294752  0.1661237094411945  0.2508736518751448
  0.8300525336612401  0.3332580136593485  0.5015509118904816
  0.9114880360869558  0.3329105713466805  0.5835820074409196