 B Cr Ni 
 1.0000000000000000
    21.1200000000000010    0.0000000000000000    0.0000000000000000
     0.0000000000000000   21.1200000000000010    0.0000000000000000
     0.0000000000000000    0.0000000000000000   21.1200000000000010
 B   Cr  Ni 
  69 259 605
Direct
  0.4813604591462731  0.3148961290701174  0.7694977991104622
  0.4064513846912538  0.6815936664106571  0.1955813089890820
  0.5869350549399811  0.0046794809396832  0.3616125708889991
  0.4352275473413292  0.5793626142385738  0.5777261588500991
  0.6740878977073514  0.3169041163817667  0.4214420426003283
  0.0733897319212796  0.9449114384213347  0.4222372869615045
  0.4020332430711524  0.0502570475593333  0.6576692243975805
  0.5844001825424953  0.0660216813967801  0.4211921256426579
  0.7557836126229582  0.7615059216891025  0.5457357078336459
  0.7350294194537338  0.2617925018211898  0.4272144405373276
  0.6149037604834402  0.1634276756936792  0.3225104549111875
  0.8344811548981433  0.5949497103890098  0.3405671144378393
  0.4951485831447462  0.6111521703655588  0.6222076660409881
  0.0911350560091952  0.0984297378264859  0.5860220002348223
  0.0423036048425267  0.0884529844630516  0.3219306912685766
  0.9200582684631127  0.6680269296692519  0.4943463320300230
  0.1064061040030227  0.9919325121544842  0.4773158909565860
  0.6992590683849079  0.1751225106165711  0.5435532058769224
  0.6685850425728430  0.7482560314447868  0.3398383847212466
  0.5803488954450186  0.4114738810630277  0.4285495003417544
  0.7185283263657013  0.3216306024096499  0.4977977985681804
  0.5156039459594955  0.1354648685678036  0.5855180645101097
  0.5087411410473638  0.2575609569340587  0.8198092702472923
  0.6845975090162894  0.3335555705285434  0.0981304419038095
  0.6617651612022929  0.6600617715785422  0.5712411461024935
  0.7068444760560073  0.1654113024172665  0.3196092577806086
  0.0766859968635265  0.6652541859696244  0.6571912512531584
  0.5058901155767674  0.7178665112941927  0.5030329816986245
  0.8625901560815036  0.6135031865721995  0.5195596687051766
  0.8493827862684126  0.1708458295996243  0.5471932334677738
  0.0727075242576656  0.7427807028763971  0.4165982889487508
  0.6802975873735218  0.6900022801279692  0.4013073998832740
  0.6576862182565801  0.4735596100683080  0.5901455678880980
  0.8435786338582989  0.1711919468943106  0.4642787379190143
  0.5072747741654218  0.4217010390498973  0.6728708692448594
  0.5969658732594697  0.4291930506182641  0.0999903067868206
  0.9853139626763682  0.6767306337683771  0.5486580102551679
  0.7376757180045860  0.2574437946737428  0.2380958841110070
  0.5684982973597794  0.4836020313320907  0.1525339346272414
  0.6771727698529234  0.6067131431379742  0.5102135356783806
  0.4316465561444536  0.4136538931585199  0.4188385089472115
  0.4056470476339972  0.7580512925187692  0.5569826438093449
  0.6552434652719675  0.8404597483098462  0.5767030382281790
  0.9085978253192641  0.9909035122071925  0.4929483250918448
  0.5838466664454993  0.2762866372262419  0.5670872489365008
  0.7360310926856071  0.0710979743021443  0.4259881895923991
  0.4071044454989710  0.7913289337813438  0.3057948762343309
  0.8399545173158477  0.9272729299705201  0.3680876279418496
  0.0931915677123215  0.1805803243891400  0.4942483401643391
  0.4918037061797736  0.9120254226540461  0.6359983685155907
  0.7819684262081197  0.5719034979284761  0.4023935736338091
  0.9918439029210041  0.8390010192424231  0.5587856565921803
  0.3432458867917346  0.6671457802926906  0.4187887970634776
  0.3592423589061314  0.5778144349272933  0.3285893382091533
  0.1263816174200391  0.0852884111273567  0.3254372069179030
  0.5014878674157794  0.3497531539493994  0.2439028422989647
  0.9882923259198509  0.8423990454769043  0.4635104989781281
  0.9964442247837474  0.5158547682404743  0.5787452355087541
  0.7270593993934860  0.0284511466729266  0.4982557748541448
  0.6563562715266896  0.3936653264938469  0.1474881295044251
  0.1465554442010318  0.1592914057615538  0.5783237579416249
  0.4224252962900076  0.0814114699888466  0.7330059102793719
  0.8364002865971629  0.9163879321288071  0.6621878053833435
  0.5002308342013223  0.6615951786793044  0.4286161572100349
  0.5387644605634094  0.5089286774966234  0.3189569554515007
  0.7328498922054696  0.5828302329837792  0.5734103814517921
  0.6580833734834094  0.4178745218193940  0.6560891110549268
  0.5091872435537614  0.8110404546186702  0.2412185305895395
  0.5960241743034701  0.0869808486089184  0.7125922278730118
  0.8428625937388052  0.3387471648726500  0.1588727332739349
  0.7608216097523650  0.7525420637425828  0.3078327214797424
  0.7492876503493709  0.8363807373642222  0.9218465571711147
  0.4944896968921727  0.6688323572092374  0.8404959720952500
  0.6660361047021774  0.8377816516016859  0.1580457649706048
  0.7485787724994870  0.9196022988556717  0.9992532990220103
  0.1651220765586262  0.6685403802117892  0.9987430648592425
  0.6641757083054642  0.7531510192646753  0.9204387201717645
  0.7468794550540349  0.7500711792631910  0.6793864014302440
  0.7474183603010479  0.6698634009891291  0.7555533244114053
  0.5771963045732290  0.7857596990956692  0.5166755779130423
  0.5971953971622499  0.6836869274480732  0.4887375147823714
  0.6677306889653336  0.6691411744596261  0.1667359642851273
  0.9123711786378095  0.0894081137902161  0.3222165872603628
  0.7490167010617028  0.5893917369778083  0.8393233269744564
  0.6644924659472523  0.5019480618220743  0.8416393946704424
  0.7521630712629778  0.5073707420563303  0.9166401590546989
  0.6406227024653461  0.5681696787996965  0.5968690478852988
  0.6896011625834432  0.5064013867915074  0.5003259725172871
  0.6771768578522057  0.4900854951169384  0.3232986541055864
  0.9024593898987605  0.6696751450815327  0.5944131147580738
  0.0825487604497581  0.4147118916742388  0.3279264227241187
  0.1628391172479590  0.4150756812435956  0.2450685474546646
  0.2479837032223684  0.3336540256449327  0.9181084709546682
  0.0027529683681852  0.0825556671357596  0.7576212576853788
  0.0836655466711474  0.1673440728978891  0.7545885305794044
  0.1617359554636992  0.4989772806851537  0.5022073868894564
  0.9211547196143595  0.1693347300055686  0.0795890799796795
  0.0007182383910281  0.9217623328506227  0.0772734076082107
  0.7525444352345039  0.5886215655628212  0.9994891634371608
  0.7568152970554798  0.5060861598984336  0.0784572882297947
  0.7505706063976829  0.1677174457696790  0.4157238285941023
  0.2432252924907516  0.3329219514862693  0.4158398673251348
  0.9199302440725776  0.5048471825187221  0.9160983801299585
  0.8321528198273055  0.5030073426907598  0.6809926637537377
  0.8376865978411778  0.5052384870048153  0.5016376284299834
  0.9245632548220168  0.5030418269737590  0.2454980792676881
  0.9231388820613468  0.5045486484177881  0.0801998493358059
  0.0039755389535823  0.7543726079853602  0.2409137548324577
  0.6626825237572699  0.9307162926688506  0.6139083703297848
  0.6721788197684814  0.8448611847699523  0.3247645396780504
  0.8342197448019558  0.0064157937290081  0.1559711060751798
  0.6715648542688283  0.5100454210898123  0.9931161011800086
  0.6667920008093029  0.4201506617551712  0.9228927125055230
  0.7731547318180664  0.4199054491984982  0.5007221026945419
  0.6549765140207849  0.2365605782401818  0.4853135635844291
  0.7574565063056667  0.4200962682928282  0.3238522486278855
  0.5519391935552010  0.9714958926292244  0.4482693034608491
  0.7517530466638054  0.9213848290802689  0.3105741656169814
  0.6620774602438102  0.0924057027871491  0.2498510220094023
  0.6645115883599665  0.0890117851804075  0.0813384209853779
  0.5804096369896968  0.8356971432618131  0.7572548459781979
  0.4097864070299319  0.8318514165499046  0.7622625873065558
  0.7552268596305757  0.2529993894891561  0.8429814908692382
  0.6686488482506288  0.1725288345708987  0.6738712025265715
  0.6829989413057966  0.2657015621942682  0.5890093663741757
  0.6688111615578560  0.4969572840517715  0.1504448782960644
  0.7770771926063412  0.2367284026679563  0.5120306450999960
  0.6603131925849379  0.3069171817757419  0.1878306342315927
  0.8338571203493066  0.0874199387112399  0.0787814071273875
  0.6675743327151507  0.0028832743489306  0.8394197708890334
  0.4626188607355019  0.8106959924729683  0.4913734542975904
  0.0825450963030770  0.3360877359502937  0.7541733426696186
  0.0830424088298597  0.7534626664329247  0.1595685861421829
  0.9202291765995532  0.3332806259932414  0.4115471142128296
  0.2478035697506763  0.0860815023212354  0.9972737149092695
  0.0680341540439043  0.9010319695538523  0.5065597291728287
  0.2444362748467749  0.3339813830574768  0.0780508562176365
  0.2594166189564009  0.9949466497592041  0.4119674076845657
  0.1828995735516099  0.0727338293937281  0.5858189674742246
  0.0056782137564285  0.1647656964496524  0.6830358549299155
  0.1661881935412414  0.5830665619519965  0.2453251085340155
  0.2473735287833981  0.1658698765662199  0.9175790340316474
  0.2469586329669373  0.8362851939421816  0.0802694171535813
  0.7583594478065223  0.6663503454721125  0.2357322037625071
  0.0832779098688674  0.0871839573298631  0.1607778812744118
  0.1763952821598475  0.7590967315714331  0.3981131256600181
  0.9290619707556579  0.6711629741235086  0.2417768975294433
  0.0057087146712149  0.0006830676883039  0.4908425873902898
  0.3281052808228693  0.1675762541615297  0.1604795686955149
  0.5791402016086930  0.6701242594260562  0.7595614612050665
  0.3292587397130832  0.8376968761919280  0.0005789039105350
  0.6655780666058662  0.8346950953779448  0.9982199758167836
  0.4993699556133953  0.8431762364859616  0.1523151300404076
  0.3897958395821174  0.9062856927083586  0.4981701056577187
  0.4977928389398510  0.2517691472740904  0.9247523834357880
  0.4972463990811415  0.3367183821717913  0.0007873373649389
  0.5787259873209942  0.7519979348214677  0.6810880874535484
  0.4984769360130674  0.9212309028939887  0.2422293103963907
  0.5789031447843831  0.0004082400971339  0.2471964136240292
  0.5745769927042591  0.7525400535374671  0.3050079445191312
  0.4080432226091368  0.6710282139799481  0.7581703166612197
  0.0783381954112417  0.3343041040136691  0.4121075835738442
  0.4101989392156742  0.3370294317759061  0.9231324121974379
  0.0018142403935890  0.2513788670480449  0.0789250284864712
  0.1839353366182283  0.0747931455055029  0.4169384860290228
  0.0052269243731422  0.5869818354307850  0.2467114827095458
  0.2378859016289693  0.5815430207106834  0.3265062686834132
  0.0841993487588059  0.6700719337958285  0.9177330205674227
  0.1663256420711297  0.2508108497306263  0.0787147675926022
  0.3235058182666217  0.5847436496055485  0.5912581991592035
  0.0011195694332170  0.2491596280378838  0.2448131872562431
  0.0017365827048931  0.5847334392609134  0.0788930283594848
  0.0027015587205644  0.4205759539031766  0.0796106627524067
  0.0878474198707265  0.9979416198175449  0.5807554806289752
  0.0846121107327675  0.5046211245574533  0.9159561953163233
  0.2489680153388432  0.1639181478779636  0.5875320512879552
  0.0044732096555471  0.9219268615715540  0.7555221632312265
  0.8429050548564727  0.7626704823309827  0.4002904607863883
  0.2501197230741777  0.1669902180165855  0.4071157335253596
  0.1604190384003995  0.2547475188236237  0.5840003816531923
  0.2391232229959734  0.7537996710145310  0.5044988389073501
  0.2434450583005513  0.6696706871504619  0.0774663550207561
  0.0032923058161620  0.7530731186890823  0.0785463825953288
  0.2401448844011973  0.4980458711181651  0.2440510343626155
  0.0832411895732084  0.1525039846294840  0.3982144979437386
  0.8381669260852006  0.1692648684568731  0.1553558371164364
  0.8372271870232766  0.8380273026958462  0.1551539739029751
  0.1650360167085945  0.5005610050343218  0.6745881789533659
  0.8356692648740808  0.7532964927102694  0.0808789765929372
  0.0818886460063431  0.8434813035317542  0.4090758532653963
  0.0038579518469260  0.9253045853894066  0.2398194701808692
  0.0849631196668317  0.3361090773350086  0.9181364116396885
  0.2496490386753332  0.1693291327297858  0.2421975032202664
  0.0850433784309299  0.8361020751595486  0.9193986037517115
  0.1643828927339424  0.2482332342896905  0.2456938588012984
  0.9187523207520084  0.9198259034281940  0.0003238587178049
  0.0861822016531178  0.5830235473018969  0.3283071856801326
  0.1658343272900664  0.9191502183528462  0.9184448930427062
  0.3302647963138772  0.9092029059289894  0.4063410512452127
  0.9178031780610637  0.8397964428586088  0.7602546237444084
  0.4918454928424566  0.3246228048062236  0.6701997584041322
  0.4763007987894114  0.4933885815867288  0.4846234040024399
  0.4968400026945364  0.4218695118818752  0.0864911561656973
  0.5799122800580893  0.3074351879301009  0.7662738821666617
  0.4801405335705747  0.2474117741624770  0.4052256694091907
  0.5820301292589481  0.5843826852648292  0.1599335857988314
  0.4132639709191503  0.5018352596528207  0.9182394680321921
  0.5834161581835399  0.3312687278749722  0.0875043757821299
  0.3280576939424498  0.3356021436042576  0.9983431792899665
  0.5745509454118918  0.5007247301707113  0.7583348249671060
  0.4027243881651479  0.8227854358181884  0.4040894034536352
  0.1634447772442175  0.9232990186773420  0.2414066595050500
  0.3301385491278956  0.7503477575528263  0.7586064602579391
  0.4979033767084297  0.8366872608018877  0.9997336778969275
  0.3234403939325567  0.4166595188756493  0.2421283571972158
  0.4895714339199242  0.1660450592232143  0.1605443474711373
  0.3311918009471340  0.9205583987235899  0.0778752905339057
  0.1648850467156721  0.8369307735313883  0.9984443338585924
  0.1674565921603860  0.8340190733742412  0.6742646609078705
  0.1675708045537979  0.9237382716625256  0.4177152511548323
  0.2502421429617755  0.0868526086917115  0.1602683014698660
  0.4160031632336670  0.0844554333488337  0.8383231748138414
  0.1670214024863771  0.9176861571960234  0.7574160098862749
  0.4152600971673785  0.0036145864774554  0.9163423192341611
  0.4173629907474926  0.9677554874871573  0.5913562379747592
  0.3951792047839581  0.9986335185782500  0.4074017636664757
  0.5695937255301923  0.7559519534037143  0.1751500426110597
  0.4149637827905284  0.0862465554056617  0.9957655851717954
  0.4127202059916413  0.0837077948136467  0.1598845960720677
  0.5941577934067891  0.2582858646228616  0.6674739267672576
  0.5819508046021786  0.6708250585051537  0.0863253155721854
  0.5814063068896697  0.6636152439523443  0.2427593620675426
  0.4062315917162523  0.5850819462405741  0.1614621279908931
  0.5826138313349805  0.0053721758408564  0.0797610052299566
  0.5416379402258262  0.9750051390173614  0.5763827894432164
  0.3224398316520248  0.0847059324854920  0.4056459046968138
  0.5754923710608071  0.2498200219993381  0.1665583220060490
  0.4810666376425036  0.0799962085412764  0.4159001997445609
  0.4974270642534344  0.0064675807618254  0.8364872216505408
  0.4124198681975754  0.2553528193857162  0.5061950537041202
  0.6665190267870587  0.1664260387029930  0.0001372685537101
  0.4797409531430979  0.1633455062612588  0.3299381762868402
  0.4962658043488620  0.2283022958209067  0.7264596416044119
  0.5817975459912488  0.0044521483433081  0.9183059427362642
  0.7736575332808272  0.1163059081026415  0.5103036029974297
  0.4614244191291234  0.0010861154746877  0.4942638590585379
  0.4030092898931796  0.4088422743326048  0.5111873480520063
  0.2485690234102755  0.0039310722811989  0.9179632400291137
  0.2491000633489921  0.0815785668301343  0.6724353421334258
  0.6002212095154925  0.1769664843570708  0.5632048914727668
  0.4077127374753706  0.7517120360936883  0.6764002969762222
  0.4923434294426027  0.0103311157377649  0.6801831890494857
  0.3322835464878541  0.9939213465163795  0.5062033457650559
  0.3196416144892755  0.3332245750628376  0.6705962007199601
  0.2407922967487131  0.3336378412169679  0.5867720490896141
  0.2473683992854848  0.3353826675441083  0.7526919798567165
  0.4142173508616875  0.6681998717060949  0.9193358870672867
  0.2410758364253626  0.6658996575116931  0.5914793068251581
  0.4965953441779184  0.5015160619659149  0.8373625833322825
  0.4123290643521887  0.6678916418815856  0.0841941629805862
  0.4891082721596757  0.4246312262730400  0.5770705373233241
  0.1629181068751886  0.8387561246300860  0.5037012331074934
  0.2416424217629201  0.8384742147555191  0.4093249952528807
  0.4112735911333343  0.4187015806158924  0.1630667020214944
  0.2479372225025496  0.7511324179089099  0.8384948269874204
  0.0047893807611071  0.3363663872752008  0.8381584542841318
  0.8433786815836735  0.1688496356802460  0.6837247610537189
  0.8365343238963998  0.1672720738838095  0.3262122401957112
  0.0826352029331092  0.4167170310525338  0.1624890869668479
  0.7576893249350537  0.2527334382280029  0.0004830800166111
  0.8373873216459979  0.0862708327273172  0.7594145226279636
  0.9196023916016662  0.0040885212863384  0.5883715594867620
  0.9105257115247672  0.0944495439211517  0.5032081188737132
  0.6642279920103488  0.8979885842855492  0.4097726546076810
  0.0838866761697056  0.0861002987712682  0.9980803480164194
  0.7487626805369981  0.9195844941737445  0.8384477129693225
  0.6648750103976456  0.8371862924715600  0.8393263877561478
  0.7427291584309011  0.9250934331577950  0.6801573664473580
  0.7455502871005956  0.8370361264122788  0.7624904425995120
  0.7393991583008692  0.7708536274392014  0.4089363406135719
  0.9980600731146890  0.7560494727526328  0.7598043077304633
  0.9219272795743603  0.7686299459511182  0.5043772883313372
  0.8311133229625920  0.6711315206102351  0.6808097598199672
  0.7336581331765125  0.9268868131661520  0.5077916834064277
  0.0826959304374020  0.9237557100525060  0.3255001019823912
  0.0025244584159658  0.4167961865460982  0.2453050455709283
  0.0067072033222065  0.5809958745110712  0.4087304234761981
  0.7567338933210878  0.3344768726093801  0.9207753617026719
  0.9128530245885290  0.4246575117954703  0.5061306894143197
  0.8389367518785152  0.3379874354246717  0.6809980324365430
  0.9214610025347696  0.4218246086394616  0.8376142897374222
  0.9249916212007658  0.3366394130420038  0.9133828042064288
  0.9162744846603363  0.9194348369319225  0.8402230098605232
  0.8281877221851902  0.7063347846840630  0.4930435287851256
  0.8358534368073484  0.0857068697133615  0.9202764068654773
  0.9850468640847454  0.9218641112335443  0.4056654631886946
  0.9027864097652611  0.8488856599553276  0.4075847855362394
  0.9192818299102472  0.0015719232047841  0.7584832451855551
  0.4064777181951973  0.2516799693710028  0.3288118589451920
  0.3974099549197261  0.1719245093391654  0.5744011231891046
  0.4111343252995029  0.5018965441368001  0.0824793823821866
  0.4658073686836582  0.9121199544571510  0.4127721185931363
  0.6663367390392589  0.7582700612485084  0.2374609466746493
  0.5017987418029073  0.8934517624254875  0.5314701970257746
  0.8471710386908570  0.3334294482200154  0.5000581655638692
  0.3239744302613102  0.4134575438195532  0.4179795961202897
  0.3275472934508424  0.3359738273385885  0.1624979652528919
  0.9998769482397011  0.8372223120555325  0.8388182202075644
  0.2471404366489011  0.5744427889486750  0.5080847506543876
  0.3949332792944612  0.5026240763620430  0.4194582585977449
  0.3240807231269201  0.3343258068865366  0.3304912140501667
  0.3272149397131456  0.8371723524780985  0.1566674383336235
  0.2436940429939528  0.5011492331165517  0.0797982567574359
  0.7562917713192812  0.5829747734100953  0.1579196540246161
  0.1633857575633107  0.7542871109172011  0.2398039605935489
  0.0011758662390894  0.3392320626713268  0.6755203265245530
  0.9987428098952609  0.5861363812739763  0.7558603416240203
  0.3269930706521366  0.5018798463130062  0.6727332793654758
  0.1659986863691019  0.3347980191681571  0.9987007271391297
  0.0015518875130792  0.0010964694311440  0.8379781041082531
  0.9114814990762871  0.2435466074174684  0.5024323157763269
  0.2460034008506278  0.8288497584591450  0.5883832042450086
  0.0049709781320064  0.1672803834476802  0.8378139228033011
  0.6766869974203683  0.6617055052001863  0.3020086647006614
  0.6633131025261868  0.7515127374649195  0.0872446631533244
  0.0036516348431958  0.4125773421774389  0.4105719973095166
  0.9833559465781957  0.3395598001499985  0.4995271865454423
  0.2479184753322783  0.5845219080670276  0.8383169129741342
  0.2458985355926017  0.9210278842986945  0.1586212344037027
  0.1666452940849313  0.5844671630764496  0.7576287860207979
  0.2383409045031258  0.6661647222078632  0.4143686088973496
  0.2591022393814978  0.9041388001707549  0.5006381609198701
  0.4078907126566302  0.1709230281426423  0.7616147173166730
  0.2470844829949952  0.6685767133642575  0.9190499953842934
  0.1651926271024576  0.4176498818978355  0.7551314599476016
  0.3248890702089754  0.2495639077392977  0.7533890005786150
  0.5544632461094435  0.1555109914476793  0.6677639252578738
  0.4033627023315562  0.2484768002470485  0.6667258646749906
  0.4964499730986628  0.2263376442879571  0.6013056357678352
  0.3282367238677871  0.1649971889731312  0.6702753738259274
  0.4073517648531789  0.0809437902459480  0.3256465410728484
  0.4877602466639693  0.2525345275514039  0.2450623204991370
  0.3207284345372006  0.2520718129563056  0.5853354708066585
  0.2477635713748161  0.0041343643278024  0.0792690382294598
  0.3279696572009791  0.4184195968695664  0.0804961734969728
  0.6586127870163021  0.2291583702893955  0.3766084902095159
  0.1638324370196072  0.8378862860974260  0.1600359946424411
  0.1655052367852580  0.5022364045007929  0.8369248742956878
  0.2439470706517018  0.6687361213082559  0.2413250580744146
  0.1653910788374058  0.7529958477520420  0.0798613151547480
  0.1681228030650803  0.9156587293862207  0.5867708598539428
  0.3310944678278399  0.0853351585580018  0.0780131049708782
  0.1657736397067276  0.7514587321573163  0.7570869246157729
  0.4117851438743100  0.2517136576806817  0.9993100282684719
  0.1663298338177238  0.6667083989705370  0.6752383802437318
  0.4087710518205416  0.3367053688120922  0.2468889159027172
  0.0837988191074012  0.7524402740518069  0.9990827434582426
  0.4093135419548260  0.1682815936843101  0.2420463290406198
  0.0831501547557810  0.7528656559500592  0.8370530456842127
  0.2468499230754020  0.5021404205218312  0.7550336152579771
  0.1657542781870610  0.9210005167301268  0.0785430538347727
  0.4083521793692041  0.2503783702995389  0.1604607725322926
  0.3310645909584543  0.9941751927658619  0.6761799039271353
  0.3306171774556860  0.0831091217193999  0.7537685939263172
  0.2424300975122755  0.5837501922925132  0.1591309748289152
  0.5825161114953241  0.9235395229118172  0.1580664037551176
  0.3301872041669598  0.1676786400364476  0.9967199188220888
  0.4985912246276159  0.0045283726411077  0.9972109378618463
  0.4125317131502988  0.4202990483595333  0.0015520427037893
  0.2429325706983810  0.4986145350222085  0.5904644850010096
  0.1612643898613205  0.5815942685492473  0.5920896657540217
  0.3280338262303131  0.1683954558038228  0.8375536280114625
  0.4025374891150542  0.1681606153393764  0.4147940221888292
  0.3242250507473757  0.2522147540251989  0.4143194732402169
  0.3291948464748169  0.1689130574217267  0.3248519677080829
  0.1638461172502634  0.4179750206746540  0.0793962150643217
  0.3372958074898720  0.0752036596004976  0.5937559630829509
  0.4461483682067523  0.1381008753618454  0.6644077635177961
  0.3213302136933998  0.1760569606069562  0.4970585633069387
  0.3316993946554480  0.0856891537056708  0.9165785662019549
  0.3912634621224291  0.0888809723276524  0.4926549025332327
  0.4108965890325043  0.9129159512288033  0.6854937770448861
  0.4145387554379242  0.0047395769391311  0.0772887422524866
  0.4139633702666287  0.1698099054060583  0.9164603671743632
  0.2470762497520813  0.9172809789380422  0.3236714408282261
  0.3292756635917107  0.5847533446106766  0.7560854878609324
  0.1653517244819816  0.6685320900263598  0.8372511313132683
  0.1720754822890985  0.6443871256772666  0.5034221041260446
  0.2475071102765814  0.7544955413968435  0.3156730666918170
  0.2479523871069676  0.9209405534685117  0.9984259098240019
  0.2452109597706313  0.8382350016197536  0.2386298822181602
  0.2476865777479368  0.0017596143729293  0.2391293391001761
  0.4156075480166070  0.2588194085868631  0.8340244946325664
  0.3284236574309588  0.4196242501173281  0.9194912964124518
  0.4092603194727654  0.4179648689578200  0.8403209397038954
  0.3274467764486934  0.5852113746056101  0.0797032779014530
  0.4033087507527838  0.3284538140369526  0.4171045992752332
  0.3220528858922511  0.3308438075924507  0.5023093863689896
  0.2433659638126093  0.4913189210741938  0.4162370677975260
  0.3225642421596838  0.6665394150442843  0.1607861922970395
  0.4126508456633179  0.9988955384588108  0.2416260899924350
  0.4102374440619882  0.9963601989978130  0.7604625750043182
  0.5815400049861950  0.4198762144837532  0.0026056062527771
  0.4134269948187299  0.8392776715190058  0.0763210828130491
  0.4079763600202311  0.9146790420973817  0.3194931572286245
  0.4143651706513139  0.9223475131263448  0.1563625305783903
  0.3256088290962368  0.9076855412487029  0.5933938884532257
  0.4116445936108621  0.7196267017488311  0.3569485516961133
  0.3212058319041439  0.4159327843473012  0.5898629561813789
  0.2412524002196203  0.4144990286412342  0.5030871456947161
  0.3291230819411303  0.7524143231207490  0.0790558150745828
  0.3140885035527380  0.7530933524807766  0.4104926496763874
  0.4983754873173199  0.7519275297297167  0.0807598771220743
  0.3394210236056299  0.8099858726206303  0.5052479304576469
  0.3283943748710958  0.9183721922543646  0.2367144221298296
  0.4171408337139306  0.8426679209476357  0.5957641005804328
  0.0809502136778596  0.2545051967822958  0.6726698157410037
  0.0790085226776895  0.3377229504473695  0.5902809227846458
  0.3307805100769750  0.9195843928689965  0.9194028297203426
  0.1624232828019123  0.4165232582951973  0.5877228158196027
  0.4138826440984479  0.7520654021425885  0.0015466841022040
  0.5713356646671386  0.5861892246990288  0.6801701319296970
  0.5799509200403447  0.7539443718308214  0.8386734930830083
  0.0026208363068998  0.3341470578630839  0.1625223785268107
  0.3281999616097487  0.2516481914828960  0.0792128808409360
  0.9367331453558764  0.9018703066408353  0.5127545769771145
  0.3309728828811185  0.2516663867999849  0.9159776040988887
  0.8323310771488843  0.9215306279296764  0.5734476761501882
  0.3311417464617611  0.0040558560099700  0.9975096990795380
  0.0820291042596121  0.5024211108384156  0.0802951346778153
  0.4941061125235279  0.7526008025499467  0.7630940513027523
  0.8321369030310611  0.7539871869948894  0.9198621979798659
  0.6638983246891776  0.5907205827678024  0.9170699830797886
  0.0828254564480426  0.4197865395863938  0.6720261272949939
  0.6635786870688732  0.7516689977941142  0.7580247921166819
  0.2438536346083578  0.3327336710595309  0.2449958737722469
  0.4968806953388501  0.7527432511479341  0.9208369449632708
  0.0038423640104371  0.5001470311041289  0.3282962706838087
  0.5827765464596386  0.5138955840735401  0.0675942131016271
  0.3253539142314534  0.8336591836133715  0.3180167365236073
  0.4120914735798803  0.7518541373595296  0.8418723249240508
  0.4973544555197736  0.8359685266835896  0.8394451744326928
  0.2468400580763485  0.8358601206648846  0.9198824595316630
  0.4015747200952214  0.4184117186818699  0.3295557570143527
  0.2474240386754616  0.9175631775846435  0.8393569820880386
  0.2475287554682799  0.7527925567718762  0.1622467222482195
  0.2474802511084631  0.7528638298045871  0.9992165867391748
  0.2464625725774667  0.9134955617630189  0.6754311746795213
  0.3281832784088345  0.2531004542749773  0.2440235934722889
  0.1658768599990529  0.0035436264284834  0.9989264000824727
  0.1611163999661084  0.4130819155854259  0.4158033877834054
  0.2478232775473464  0.6675251261604288  0.7572477604445113
  0.1669244511088984  0.6709810571047111  0.3218776409681258
  0.1637561042650830  0.6687423785678018  0.1611292891648277
  0.2478445227158746  0.8331934043974323  0.7581019733206819
  0.2467213298644382  0.5845961425972506  0.9993416386864107
  0.1653375753570637  0.8354260495351693  0.8376070783986784
  0.4153644501631975  0.9210206217131698  0.9972817707693512
  0.3301958626001084  0.7512189765932398  0.9210634666193778
  0.3276185590839122  0.8318588089785907  0.6751616386176955
  0.0830528795867582  0.5859004664839166  0.9977038318541938
  0.3436571240984484  0.7433872160977379  0.2450006441788977
  0.0830791717475215  0.9206085801261414  0.9990462895251162
  0.4143718307105622  0.7603018087252771  0.1531527784787578
  0.6257652433919391  0.7741305792901756  0.4158159550375305
  0.2436434549106807  0.4180557626953600  0.6723409762322331
  0.9956520502711163  0.1706279661183378  0.3268591009446690
  0.3279583241512418  0.3349784732334379  0.8371547963139448
  0.0832254805096942  0.1611842885363322  0.2514747571107523
  0.3224755764165912  0.7450189389069856  0.5945477509434944
  0.0020378611665788  0.0866913765810502  0.0793947430850001
  0.4155152520708240  0.7069284800106447  0.4725885388652726
  0.0832758741340535  0.1689277365866773  0.0802696372043069
  0.3259105251631690  0.6666972166548578  0.6739669018134915
  0.9207850950976296  0.2532111067517954  0.1614289381960894
  0.3297711322174956  0.6675422278773860  0.8399314464756147
  0.1806330494372156  0.1585969583668845  0.4920725854211189
  0.4970999288164401  0.0855041875145969  0.0796527617515609
  0.4844110449504632  0.5059163003040459  0.1688714686701054
  0.2484833109479278  0.2502623433817090  0.9966004583143235
  0.5530761560633696  0.0758778930679026  0.5097213413895962
  0.5827167438685724  0.2520789438108298  0.0014926893728801
  0.1624991124036613  0.3298390287237695  0.3312783745935099
  0.5787441201986491  0.0855106625236879  0.1638987578107558
  0.5929511863612925  0.2503153535046964  0.8547372853859504
  0.3299284657260030  0.0018537327027523  0.8384777398299923
  0.4985776330477549  0.9233390474678321  0.0762847113027728