 B Cr Ni 
 1.0000000000000000
    21.1200000000000010    0.0000000000000000    0.0000000000000000
     0.0000000000000000   21.1200000000000010    0.0000000000000000
     0.0000000000000000    0.0000000000000000   21.1200000000000010
 B   Cr  Ni 
  69 259 605
Direct
  0.4874338770386530  0.3007950894055584  0.7741174728498841
  0.3257245541252283  0.2496939523498097  0.3339182055462655
  0.9836378323106576  0.1727469071916726  0.4298233890612215
  0.0696023881665049  0.7393937506059119  0.5967841749066267
  0.4332493271590979  0.4105994714927041  0.4205937103923992
  0.9137252779275786  0.6694631945372518  0.9952612058492076
  0.4072277680244312  0.7561748906089382  0.5592460150540461
  0.5893284857998052  0.0770372685469531  0.7042440591389825
  0.7388228247682495  0.0015221378768949  0.6439824207637058
  0.7337196190343942  0.0850164900582385  0.4166674728870752
  0.4225692192872443  0.7571542340296810  0.2681045084140157
  0.3422879299183693  0.5792537028604364  0.4876757955486761
  0.5828016089861719  0.2730856825604179  0.5691964769704877
  0.9270568941722356  0.6854441903609643  0.5100696687291683
  0.3891616881587796  0.6259145382440117  0.3381869307637444
  0.5017270883013335  0.6650094934718110  0.4287300520649738
  0.4044778800873706  0.1014273108217951  0.7373795214224975
  0.2628500542668870  0.1729708574816073  0.6808993292483959
  0.8232846128494936  0.2625195121300135  0.1691209741281652
  0.4908284687945912  0.7303670000822037  0.3129939938030394
  0.6575009946152831  0.4160800322612844  0.6591998650534799
  0.5219055225714959  0.5255113116858473  0.3223700634506939
  0.0120537680346104  0.9868281336782381  0.4098402076680622
  0.1661159858643009  0.8364577962799341  0.9216943357657771
  0.1701556090576927  0.0911799061445791  0.3242498106400468
  0.5032996267659177  0.3530846928922885  0.2429243535363791
  0.6533327715759676  0.3923074540505818  0.1513355374973648
  0.7577887144313848  0.0284641895995277  0.4777842793963731
  0.2708544934479808  0.8393245341415245  0.4910934012062135
  0.7423902708156090  0.9397584165419677  0.5848871945141089
  0.8988508190861350  0.9270147574884429  0.4350706641250401
  0.0118375649112632  0.5956173086534742  0.5063436100250974
  0.6736892282466279  0.6046086809862710  0.5117304570704132
  0.5930358991917059  0.4330075253377638  0.1088076592030904
  0.3458958342603438  0.6761483167402617  0.4105560213044213
  0.8439234121476109  0.1731387073121541  0.4586607030968944
  0.7031698581619823  0.1806682747224809  0.5340680724838787
  0.8418568757442251  0.8319405673496675  0.5605384397081066
  0.7466650530920828  0.7419146749025813  0.5734696544449259
  0.0853935840874026  0.0059036706240692  0.3725319874717812
  0.6914278426663063  0.2850657129439048  0.2762245750375312
  0.0700201345851200  0.9330262843266298  0.4159046713319188
  0.0024659343807701  0.6635305953072962  0.7496846540635603
  0.6833583740197681  0.3332714991662464  0.0975083729677612
  0.5806611371547908  0.4050745209184656  0.4206046841712287
  0.3418088054157093  0.2580591672996971  0.8189335035483855
  0.6757557334396280  0.3154837118734512  0.4235031463479585
  0.5987348870244961  0.0769995535293459  0.4082127516254300
  0.4463367427717387  0.1608451483222339  0.6836425497170426
  0.0837210997777894  0.0054793718474412  0.4567289908483007
  0.7389423812529856  0.7468343926846635  0.4243534689071187
  0.7236485653693914  0.1736533323980297  0.3037107579266598
  0.6560714998409474  0.6612721762735555  0.5700345057802538
  0.5795100648000121  0.6820523851625038  0.1771309026746393
  0.4985842078519925  0.5811256905257527  0.6692200973635225
  0.7568859680956476  0.1322020152965628  0.2373012708844668
  0.8500017099536024  0.1737996405655515  0.5406839015412189
  0.8383430121490585  0.6723654695235888  0.9205272728309692
  0.5128604729132813  0.7216987828481113  0.4900475962387864
  0.0996266467355870  0.6778214708373854  0.6463857106924560
  0.6934646946061033  0.4786785705629365  0.6181625045180219
  0.6685887033151151  0.6738045074346765  0.4154856798489765
  0.5031669247113146  0.5847953931535433  0.0056135456442143
  0.0688531115856832  0.7365629037893281  0.4152956529655785
  0.7164034307758500  0.3223724393843624  0.5019647561946542
  0.4726616585265345  0.6227733431447349  0.6034779782610747
  0.3241887626434226  0.8961215395776212  0.5137644750405330
  0.5269395743372072  0.9138546175895301  0.4892285451900492
  0.5776874712013409  0.8589688607669040  0.5215822202873520
  0.4954936473926698  0.9204687422666251  0.0781267000305123
  0.5640291320564385  0.9744884966917017  0.5743753211642061
  0.4066976138017654  0.0767963620729912  0.3312438304691586
  0.5731850527924321  0.2418960468207751  0.1672869220342670
  0.4885315374362554  0.0772994517762673  0.4129442972125860
  0.4961037031198560  0.0030442580409819  0.8352257147334609
  0.4959653902276171  0.2276496389426003  0.5979654456813865
  0.5779140755402722  0.1637310102345432  0.0794449161049208
  0.4882858228713491  0.2503867052939903  0.2441046415092728
  0.4992066441612537  0.0906537028528161  0.7557985412447602
  0.5807248015375958  0.0011848670788095  0.9148771198336897
  0.7519111317239915  0.1691026290068909  0.7552490810804410
  0.4965305950215800  0.0796726961910200  0.5715367215735663
  0.4973793302883157  0.7379697010968123  0.5882424709430666
  0.4156052911088874  0.0020984393777777  0.9172486739569778
  0.3306789506905031  0.9215340908975758  0.7560331894018543
  0.6000134806293045  0.1730252272012591  0.5598364289288964
  0.3312386035715725  0.8391306157124077  0.6792513337702824
  0.5148687446540448  0.0054393213541973  0.6698163212826200
  0.3304833819962105  0.9963343681163361  0.4998549896842447
  0.5808606162505299  0.2494125171909054  0.8381682328876394
  0.4184362849514023  0.9102065168453405  0.4983612819154420
  0.4971112207355112  0.8400595104758292  0.1550961078103835
  0.6666769840358110  0.8371196315137579  0.9973482691733335
  0.3302646227292504  0.8339526846832610  0.0009261741191305
  0.5796800162747596  0.6669105696570218  0.7558260402022144
  0.7528935141823302  0.6621034944744553  0.2408393884314694
  0.5867472637907637  0.7682088195355716  0.3164287565257115
  0.5769972095699654  0.0019070840393344  0.2418872037214672
  0.5116674258420535  0.7547418693202731  0.2234811676615202
  0.1654492742685187  0.8360103416831787  0.5059220754229843
  0.5949691632720603  0.2475804417115685  0.6637928679186859
  0.3239174003161573  0.4171548825404996  0.2459263153201463
  0.4912128142105694  0.3299309343365419  0.6734304639096682
  0.4821187715959045  0.4798806743320347  0.4919298082541598
  0.4975764290852859  0.4166661172816511  0.0835599451688304
  0.4840641629303389  0.4041234014038158  0.7626731551008977
  0.4864938498330499  0.3403743976756533  0.3382505444430162
  0.5905734342806851  0.3162227119947938  0.2714202124425953
  0.5815358999589760  0.4187447908860591  0.0019306550471345
  0.5837625789428290  0.3349583170551149  0.0868532858245486
  0.4105464772154350  0.3328651553421645  0.0790489409924984
  0.5739282274592251  0.4990555915688257  0.7709686052388141
  0.3273389142773386  0.8326046135538890  0.3241704458514134
  0.1633601106495370  0.9181710626717358  0.2384262651170862
  0.3243875794232660  0.6664768083507873  0.6743681207559171
  0.5839124038852921  0.5804964518293891  0.1680483290504139
  0.1629804420320964  0.9347716818643584  0.4133700302767769
  0.2461723215547871  0.0867758927432449  0.1596386679747840
  0.4129131981294825  0.0862321011815916  0.8384632615188741
  0.3306236154047790  0.0018668793195777  0.8384050611457164
  0.4165486776442062  0.0026074852908316  0.7544504131520241
  0.3348440892457930  0.0051615564761904  0.6761739011806276
  0.4023080587750335  0.9930149590335293  0.4116189603966263
  0.5795076275787079  0.8413251641176627  0.2331271582653269
  0.4136523737588009  0.0861959428290725  0.9968411796993101
  0.4082806412217627  0.0830548499467715  0.1579691608604512
  0.4116706413191615  0.1661187646867398  0.0771609912311802
  0.3315246949174742  0.9195043834827226  0.9175414971266638
  0.0801036722403223  0.9227450186024866  0.8372871283386295
  0.1684448344409864  0.8398157064993472  0.6740423908230503
  0.4932013647716276  0.7505427614844655  0.0841432863986425
  0.2236116966331397  0.8409676653197742  0.4069856587507372
  0.7485699550846373  0.8425726901133892  0.4005900600757646
  0.2500436771077973  0.7512083815086489  0.8389608503628543
  0.4191991479629171  0.2516829152524862  0.3250609282525396
  0.3272092906840450  0.1642971791692846  0.5010764141967827
  0.8442963081836099  0.3448796497546974  0.3296200267488641
  0.3241119676239259  0.1632623916447581  0.8442875469475840
  0.4127347471169027  0.4175885455779243  0.0045190311941269
  0.4930059581195017  0.9188553748840961  0.2370794703590206
  0.3229981827859908  0.9036035271968491  0.4152676843473210
  0.3282777894785330  0.5823114428448490  0.2508951833684099
  0.4130781398097658  0.6692249791162299  0.0845497652727937
  0.4944790363514885  0.4974751767222573  0.8383624128461769
  0.2425679015688807  0.5808378432851029  0.5029052084301470
  0.3964602584079684  0.5015711399028232  0.4309040938562944
  0.4055786533184966  0.3391100029893734  0.2452447220011152
  0.4107268690649029  0.9199255964674394  0.1560693186863413
  0.2454570790172739  0.5017269272476843  0.0807146786551694
  0.2509719194503470  0.6678635233234298  0.7612775272048776
  0.4147224258830661  0.6688243245955195  0.9198828483198137
  0.2521378537233521  0.3343748636295048  0.7541930680045490
  0.2422591026376431  0.3323687165863773  0.5855696387330678
  0.3216413174512410  0.3312553223462265  0.6710433424805666
  0.4091789229480772  0.4053873931157462  0.5162248238832013
  0.8510133235983339  0.3315622224738588  0.5011455247869945
  0.4096709798498600  0.4081892564770691  0.6781331412171401
  0.3298525160895371  0.4134123813185179  0.4247853393786880
  0.4155112626181716  0.4167724624633151  0.1642285073821472
  0.4146673550637182  0.4979591616977636  0.0876231513719993
  0.4810767598033182  0.9123737315419320  0.4017542168085728
  0.6565603536898704  0.7476405150581598  0.2349447086005450
  0.4956966588162779  0.9068403804379934  0.5890082043206836
  0.0005220079605712  0.7597489751343761  0.7561780046875863
  0.4065418339391744  0.6679476371164514  0.7570713596701663
  0.8400643242076943  0.5808559680959303  0.5915346673824395
  0.8337441917962563  0.0843886475744956  0.9187911320989346
  0.9221154318415936  0.1687480544574931  0.7587898599885268
  0.8444686068745514  0.1698897317698158  0.6827617933212805
  0.8272184683741355  0.1714143344539549  0.3115690234948174
  0.9988316724012518  0.2542446987398130  0.0787528181033498
  0.7518902699582700  0.2499897398444090  0.0017160958908839
  0.8349256106543680  0.0853579979060209  0.7539685561431068
  0.9145608555477698  0.0061646854642295  0.5861294508224183
  0.9163425834405088  0.1009105753345444  0.4938895706547429
  0.8398220477168670  0.0078200334049768  0.3156039700351421
  0.9150785664350255  0.0031422047967057  0.0810740581596200
  0.7495070713853547  0.9170297216782589  0.8332142700227719
  0.6635990054483404  0.8318072598295223  0.8363584986236735
  0.7460519200189570  0.9109860303595472  0.6787838591343991
  0.7493447284116513  0.8313654105386171  0.7555436336908194
  0.7445373675454443  0.8389986273617236  0.5939544270230384
  0.1588598443096035  0.8378221082573951  0.3206852829187227
  0.0041575903348364  0.4235070964740897  0.2488751196866064
  0.9124473992035625  0.6728072197504252  0.4110051102812194
  0.8451194824632684  0.3390346957336319  0.9907954510147758
  0.9232156382284034  0.4174957172970248  0.5031048940411529
  0.8394474537503083  0.3373986857713662  0.6779904491752987
  0.8373729561862491  0.4155618777474119  0.7554899229882276
  0.9198855326535668  0.3364324599740454  0.9154572947700341
  0.9165478204930378  0.9208653042337818  0.8368077875115011
  0.9172187158301750  0.0005440524832040  0.7556246386592996
  0.9177676040603083  0.8385429310649203  0.7535825264694050
  0.9235797427683095  0.9204279328650765  0.3207344847602790
  0.8982417792808698  0.8327789757539995  0.3965784011964650
  0.8304510711484180  0.6747709248803244  0.4983311695808963
  0.9004486482491189  0.7778426462151594  0.4926888636188296
  0.2458494256138550  0.9174934408914840  0.1603783431755604
  0.3278327834415903  0.3327534624150753  0.1615632066777363
  0.2438878406230559  0.4985922692704987  0.2476357410701897
  0.9210045331541676  0.5026874951384225  0.9124724141092839
  0.8394782014611181  0.4985901648944120  0.6746817352817630
  0.9253782523770614  0.5018502914033807  0.4145805005926140
  0.9231665193863324  0.5030920058916594  0.2481632855490425
  0.9226369927351512  0.5051223679462052  0.0806161034581262
  0.9155988595792165  0.7494105050184238  0.3228178422905914
  0.6531270549130888  0.8952041975548928  0.5922218821681499
  0.6636151305487703  0.8385128317521737  0.3184507209443238
  0.7475834875642249  0.9219250054641677  0.1605266046462111
  0.6700518646954312  0.5063257935058283  0.9921993740922003
  0.6675942117858767  0.4173268555672773  0.9208889677740160
  0.7731550218577603  0.4153815264689006  0.5018297204309624
  0.6866092077101456  0.3999710430086780  0.5627300858953950
  0.7565670577823118  0.4249165668368329  0.9887129176299891
  0.4838301930686152  0.8204537585180994  0.5043703710645062
  0.4119785245972113  0.8368096970286721  0.7539261265075982
  0.7529278548639715  0.2504330511694747  0.8373800717413939
  0.6630853515973479  0.1642600313090245  0.6641115111702534
  0.6798070646786794  0.2630889203136183  0.5862234463729621
  0.6626646102526365  0.4969317431081439  0.1589563353509209
  0.7821205838694990  0.2429084333224269  0.5030021149546824
  0.6564416386682679  0.2998881843252691  0.1856814302802389
  0.6670980505822599  0.0829335658953306  0.9189287405039420
  0.6736942202441866  0.0860900978969673  0.7561891730525233
  0.5623608182524187  0.9843230741559311  0.4083284222224248
  0.6574847358540571  0.0092300026629215  0.3239605660190626
  0.6607678011010318  0.0882511620982831  0.2446656605134389
  0.6640263059163187  0.0853770274427717  0.0778917849624693
  0.4960861030025209  0.8346146317898625  0.8373391344861455
  0.7543233736153883  0.1818003376542641  0.4044747146178816
  0.0825264004538061  0.3358388183690091  0.5857266937922482
  0.7500159558763297  0.5814778846612071  0.9969512363266529
  0.9173888024095117  0.8377732750668963  0.9163899261038863
  0.5957381081049521  0.6598975666998883  0.4836371499300486
  0.7529247077917333  0.4980378510960642  0.2429015435486548
  0.7502611972623500  0.7540339913006400  0.8344066047587297
  0.5829069789393658  0.6734404441798661  0.9184493436339183
  0.7470166016117635  0.7508036377551741  0.1611892230771263
  0.6666998551759772  0.8412298086795990  0.1568459215543415
  0.6650285725128813  0.0037234698207765  0.9949632797898987
  0.2480381815443409  0.6680021781530753  0.9175503232692251
  0.6653234317375523  0.7538252010479357  0.9190629960043419
  0.7482952037431037  0.7495199644867707  0.6755662739503491
  0.7498383260332331  0.6676985666685915  0.7538069699431137
  0.5758242406997682  0.7426753324226516  0.6814653680104922
  0.7413886123750071  0.7502672311730811  0.3213353081597877
  0.6768016471381388  0.6669181732483052  0.3155153855857834
  0.7532921413423614  0.5893157398132577  0.8319848144646055
  0.6653457733558599  0.4991370079515182  0.8358651534672358
  0.7517952030345344  0.5738817669434799  0.6770113451750362
  0.6677072542752206  0.5709760999578624  0.6034317904252308
  0.6810542182140478  0.4975842992624106  0.5115535645762493
  0.6793829215208097  0.4911673295160258  0.3299355442875423
  0.1864917339626023  0.6629374567482894  0.6788693559574126
  0.9975268065742429  0.1693942694314922  0.0006281315139878
  0.2480286030378011  0.5033886592946278  0.9181168857105620
  0.3294635702525125  0.4170806811395360  0.7554716001376758
  0.0044624783029930  0.4975941458810150  0.6712845595738722
  0.0081595589696813  0.3354591878260018  0.6712241998939451
  0.7524441868288213  0.5795906113928686  0.1631539540536240
  0.6722205427934118  0.7526218091800362  0.0763480951162779
  0.7623311605390969  0.4227461782249539  0.3308579685675086
  0.0843682600211298  0.4177984053553909  0.6715568151144590
  0.0020559125036722  0.4214381175113751  0.4171106731479476
  0.0058480186846823  0.5038541958032035  0.3318290860883224
  0.0800049139773776  0.7506266567308657  0.0023841736839073
  0.0845691294013741  0.3363723372731026  0.0794216071448424
  0.2494584016257924  0.5790048245247484  0.6728702657928771
  0.0021029176702527  0.2547535421700702  0.2451267680860653
  0.0015724306384765  0.5829994803762698  0.0805524283649580
  0.0822246070981739  0.5028675197398843  0.0815114295366880
  0.0814273928936376  0.0001241820064155  0.7568626562052779
  0.0040715499030033  0.5817748914104349  0.9144567777361041
  0.2451546762997492  0.1616886229982025  0.5844274017125435
  0.9985766183671770  0.9198448215879111  0.7544058811210804
  0.9825266956123380  0.7749260840317433  0.4136519587742590
  0.2393828225056937  0.1609891659863652  0.4161020356188650
  0.0856631036772378  0.2516233911468974  0.6734105878986339
  0.2363513631449267  0.7503147111277639  0.5039603315442681
  0.8330984902955723  0.8342101639835469  0.1615500458300760
  0.0856009328548740  0.4174547217919549  0.8373649232799298
  0.8299136827523668  0.7551782360986353  0.0869768525957879
  0.0907494540780834  0.8355302922215699  0.4144130715909896
  0.9981257927361833  0.9192590350367210  0.2387816075496138
  0.0848792678292377  0.3353655970446560  0.9182689473051954
  0.2434180244594253  0.1677689395168228  0.2479562402314520
  0.0837452596807795  0.7535749601160405  0.8351878915217640
  0.1655837170736388  0.2532500470928120  0.2458384398073558
  0.0801693843071811  0.7493344380543903  0.1608499958384263
  0.1654197922040969  0.4174562448971171  0.9191589884983139
  0.0860055810655600  0.5010089482747301  0.2488444367964456
  0.0030271037892278  0.5841484917443780  0.2498315328070293
  0.2476558119715518  0.6689523551487973  0.0828688552925387
  0.9987503835795134  0.9182823871189233  0.0815891627112114
  0.1629275164730199  0.5835301479091051  0.2450357524099931
  0.0841207896692351  0.1688871007992428  0.4170696655099623
  0.8316428328755920  0.1671247046432834  0.1612038293810947
  0.9997975716029023  0.7509964432184544  0.0803872308866935
  0.1618011625877330  0.0830364603723872  0.9230026680559076
  0.0822420271313328  0.0024524167125582  0.5912283297814508
  0.9997835328390514  0.3342404721499113  0.5020546601725266
  0.2496947191125817  0.5830354717176803  0.8385059745937431
  0.9176287299574319  0.2393984457694352  0.4969708463089609
  0.0001678181336560  0.1670231193708412  0.8385665531411715
  0.1626017448886710  0.7515328929107131  0.2410925446871513
  0.1632338495060419  0.0022099938857955  0.0022079265647461
  0.1662516757494794  0.4155483312026348  0.4194329556552417
  0.1620179029017637  0.1654197767748422  0.6723636363801442
  0.0811929279273166  0.0881264538477079  0.1585547534181692
  0.1671210426774981  0.7490135109676160  0.4130561365679707
  0.9201512512075398  0.6674246753925417  0.2467203740164597
  0.0159040182345291  0.0830395994871411  0.4160916716868842
  0.1643371314317887  0.0865880952268286  0.0794271236150611
  0.0003706658346477  0.0843749874450617  0.7564542129980729
  0.2460971888898112  0.1684232602227714  0.9185021599908244
  0.1656028277868267  0.3352207525555869  0.9999687177356609
  0.2471691640086328  0.3341515289028149  0.2478608723778166
  0.1670269469910300  0.4174470448834421  0.2471144568180293
  0.0028676872902963  0.6737693340966052  0.6579009583258622
  0.9163277642727142  0.0848019035714407  0.3181522388493021
  0.0047465263374258  0.1683380710824409  0.6759288281798103
  0.0800832893635523  0.9186704491856262  0.1603933956711389
  0.1638964415505437  0.4189838984764513  0.0790860291031146
  0.9177628681057109  0.1698879273038776  0.0802610022374604
  0.1537828439620186  0.0745649406336885  0.4191766869351893
  0.2448736101069360  0.3347066965983984  0.0807302630594132
  0.2523318275428509  0.9981030415020733  0.4135946133569376
  0.1674439329248181  0.0856728176124237  0.5902860608559823
  0.0917518663235248  0.6688126284530246  0.7495398020329861
  0.9194773233495519  0.2530402314288512  0.9961048020104920
  0.8346426695710047  0.1674378014810980  0.8368001105643383
  0.7488958442966502  0.9199934778433100  0.9974218305531027
  0.8361882066085636  0.0837390154440303  0.2364757370958835
  0.6678721424232625  0.9195603763671518  0.3930587597835157
  0.7447992041750090  0.8337380152052206  0.2376186208112775
  0.7495434521450268  0.8389834198644768  0.0785345095781635
  0.0800488623516383  0.8342554335908183  0.0824024288263771
  0.8479305142167768  0.0973598797986355  0.5950773332480270
  0.6603288978468194  0.9236945280465818  0.2400462646082007
  0.8496431480874920  0.9944211967304903  0.4830526769064531
  0.9186100705048171  0.0022946513419698  0.2370277193693317
  0.9199664664705902  0.7513803421724146  0.6720405512558929
  0.0794824964522657  0.8351663047341548  0.2406437481014760
  0.0035376364965631  0.6713725715667985  0.3371465201545079
  0.0775577671289708  0.8362141454037095  0.9196620388219110
  0.7614178157598658  0.3396026571517633  0.2416804159068096
  0.8264086802937338  0.8316275807597349  0.3149206064651752
  0.7701123772474349  0.3308948286887489  0.5868852057442843
  0.7443916915381361  0.9192438508302330  0.3108817568679648
  0.0985621953774970  0.6531499776273194  0.4135859829267183
  0.8317084178694338  0.0010825424409452  0.8347926558947750
  0.6197113805309561  0.3343005289036323  0.5006573839201304
  0.9153430119666233  0.0835810398417649  0.8373876530568249
  0.1654581023379481  0.9204466410581017  0.7556162794549768
  0.0073812383118953  0.6703228824479294  0.8368463552350094
  0.7668094446575930  0.3353810905775834  0.4202426905355381
  0.5813521487681790  0.9213381802278389  0.9952550261136011
  0.6793299208318988  0.4121834792998452  0.4320918363473015
  0.0010582595444797  0.7533670594519299  0.9179236672221569
  0.6828485321907876  0.3506602700070214  0.3375992308541028
  0.8502893593943520  0.2620844993420764  0.2533616968925467
  0.7515061482240364  0.4184318150947749  0.1590014792622239
  0.6710451606016664  0.4116724961322936  0.2431354241406642
  0.7539284840660762  0.3337062311536593  0.7584107123914979
  0.0000691889753138  0.0893219668229051  0.2398468055044434
  0.7492808001922113  0.8377202414946302  0.9163435644472724
  0.2461442071798536  0.0855001612345020  0.9989927023095752
  0.7478439255760834  0.6692935164493876  0.9175651972608125
  0.6698957561987668  0.5787819163905283  0.2452621523203108
  0.6572069219230821  0.7508502762699926  0.5952797530100438
  0.7593677682792335  0.6574185172013459  0.4063627193222571
  0.8307431333669363  0.7482917267103881  0.2417245497084600
  0.7508955420655951  0.7544349651282862  0.9985291091673494
  0.9999590794593737  0.8359546695711599  0.3226104939020680
  0.9864968104377895  0.8976519031211410  0.4211080845752471
  0.6679062508005510  0.4088462012648248  0.7622984072229708
  0.9984312250325099  0.8357906312960449  0.0006759276210107
  0.6749136794071657  0.3292758308673131  0.6787328281804149
  0.7523838666534607  0.3330408520753668  0.9199092376377530
  0.9980732842093534  0.9199387832519439  0.9190166118409752
  0.6665285927355604  0.3292927848845997  0.8392515172728066
  0.7541117609612938  0.4180403564647310  0.6697772901201758
  0.0819678417876258  0.6677422068781800  0.2469734428157758
  0.8326269776933048  0.0012860032573468  0.1594448781903661
  0.0899341232116451  0.7545446831675701  0.5048493863597440
  0.6798955518119805  0.8317038599491341  0.4965156892468803
  0.6617468800231360  0.8285575369931933  0.6797949046475420
  0.2469392039925532  0.6661482121227945  0.5860690318571745
  0.9215438250984065  0.0834877037201487  0.6751591000922823
  0.7379869772921188  0.9342137714918317  0.4899004892386595
  0.0727551541032182  0.6530718789273847  0.5624263463419740
  0.0091617267554315  0.6822423354098444  0.4719073616614103
  0.8305860714182779  0.8768184350358194  0.4807587813100376
  0.9177766045462342  0.0884220279677164  0.1595892790517967
  0.0872197725857191  0.7617782097775584  0.6831685338852077
  0.8346199973484241  0.0024143932366612  0.6715382584257400
  0.8336623977188121  0.0855296364475908  0.0799877419974337
  0.9157992035312900  0.0853958686674166  0.9994868925637114
  0.8330220871997114  0.0017998892710238  0.9987061658156209
  0.0815325104096998  0.7532247924018983  0.3253646362222632
  0.1638865409501813  0.0025332184376921  0.1586336165736142
  0.9998332416909618  0.7500004440162475  0.2444753423448350
  0.0022586052106227  0.1695247313806142  0.3298425086649925
  0.6644563646335819  0.6641294165781049  0.6735305124748153
  0.6699841430900294  0.3313269922486070  0.0011471931809424
  0.6665293518857757  0.2374028085514455  0.4725628540041441
  0.7681317245668955  0.3485491831443172  0.0664014321428640
  0.7568522042446787  0.2543030081908973  0.6772640988282385
  0.6677080798463798  0.2504019017727723  0.9196523171076330
  0.6692367658229037  0.1680998148355188  0.8387744459489584
  0.0835027256432613  0.8407965210116631  0.7584758267919893
  0.7547345075726664  0.0882795827102447  0.6702813292548652
  0.9994394423129095  0.0034974306283137  0.1594785586047124
  0.6765733846317080  0.4229980946948698  0.0667934335716005
  0.6687281586253393  0.2480427060989013  0.7559069344741066
  0.6676642462438502  0.1675978962003723  0.1590738540233213
  0.7514249417384280  0.4155485776525357  0.8392945404822864
  0.6655869601572011  0.6715530881246543  0.8378403177552709
  0.8346468736469750  0.1684037358272437  0.9991825969855465
  0.7048360373452597  0.7006569508902707  0.4991582056052713
  0.0001651903456867  0.8377455457547368  0.8379690843276068
  0.0093126267408651  0.1669479895456148  0.5134256956984623
  0.9178757237877497  0.9213905703412019  0.6703128996956116
  0.3974209948054142  0.6683040394568600  0.5859484167698716
  0.9825344962935484  0.7422806049240197  0.5685026568573963
  0.0029136853017240  0.4190720042781201  0.5862358836434609
  0.8316682606705356  0.0837524175189492  0.4061689471772357
  0.4952873976968994  0.6689270607027309  0.8383504104679930
  0.6622896194920085  0.9156308027583722  0.7569659103376950
  0.3314888923751257  0.5850554309571596  0.9206814805322071
  0.8415395195666507  0.2549975459610428  0.0755639713963434
  0.4125941866338165  0.6643567203949283  0.2525763941319993
  0.1655270803256210  0.7471930954393904  0.5957559854303952
  0.3128030482837188  0.6730916178356238  0.3233344725127599
  0.6654302712663807  0.9178014756577872  0.9153083626937476
  0.9244339053509546  0.4232046426810730  0.1629351856632235
  0.9145077875530558  0.0017934678842392  0.9184916744406603
  0.9256043497220910  0.3423627489465589  0.2463225344196476
  0.9980122116362590  0.0855422907864088  0.9193456945336670
  0.0849917474921494  0.8338932546104235  0.5923939350924994
  0.0038193641933791  0.3349332885092332  0.8370125547034104
  0.8326642533254890  0.9182531409375932  0.9165905775639263
  0.7555992156684553  0.4975749139424111  0.7605282471682796
  0.7533346196877149  0.5027357538836192  0.0785191490802777
  0.7481276575449939  0.6654649619805822  0.0841908718004977
  0.0062323153703163  0.8338082255807286  0.5098006822670703
  0.0836449700399654  0.6688497471610434  0.9182916619259343
  0.7628693416594807  0.5818542442982523  0.5015594426058617
  0.8342622904233489  0.9182547201996664  0.7523995598174792
  0.6664834513828659  0.5892703877910286  0.7622848176176471
  0.8338397465649481  0.8372291078107784  0.8337539119490093
  0.7540501534735743  0.5769322017393855  0.3273130837327142
  0.7576661280292597  0.4984976089554924  0.4186161132970010
  0.9169645936982839  0.1680487736016644  0.9180125582943369
  0.7713257438023325  0.4974502125429716  0.5827510920387755
  0.8342968920560696  0.8353786418105450  0.6708767544466613
  0.6644886157953855  0.4997216240814650  0.7017096441237528
  0.8328891003440730  0.8373399305928715  0.0000656163045296
  0.0024957103737245  0.4187352924767856  0.9161298292240736
  0.9268250319662895  0.6680211033542590  0.9076161030362203
  0.4025066238883446  0.3274139020743927  0.5945116121238813
  0.6754522263341767  0.5810818953836625  0.4194078976853663
  0.1763577155242348  0.5764636468305570  0.4145380910024377
  0.0044600110941613  0.4170169539754938  0.7544299693676403
  0.1668070603676615  0.4170714450353090  0.7553790999046190
  0.0836002183457545  0.3376253989876584  0.4176636271921497
  0.5018365422483415  0.3238320775910536  0.5519050484097904
  0.1649376317967289  0.3357457018222760  0.1631275942628766
  0.5913069944705666  0.3557416093559200  0.6092704216627171
  0.0018290536049182  0.3372529576402198  0.9976701563817137
  0.4990234547641090  0.4224681291481587  0.5971945111612484
  0.9249701429540438  0.8334071381154652  0.5954403820048739
  0.2402935599421179  0.5842103496625557  0.3233042621701936
  0.7833635662808865  0.7816313462052961  0.4986872125968012
  0.3220069107419107  0.4980470434214282  0.3306091447194002
  0.8357981249056791  0.6706890704276024  0.8307010744145361
  0.0823371862502104  0.1726666941224848  0.2440709688283642
  0.8365895704180782  0.3349553267974631  0.8385416491181894
  0.8499900973539175  0.2541422590424500  0.5949395875268116
  0.9283842228746103  0.1717700955955805  0.5944598938180943
  0.8285074237813116  0.9219853541959673  0.3809647048355705
  0.9235085628800834  0.3374683111077746  0.4143502058499356
  0.9151638423825283  0.9188745965627632  0.0003378576792802
  0.8381412035046517  0.4210302698087648  0.9136326566432648
  0.0010685229003892  0.2519675802843812  0.9180536055890783
  0.0816120008464444  0.6668546255633123  0.0809083263477182
  0.9968210472133059  0.0016026050815742  0.0011371903976512