 B Cr Ni 
 1.0000000000000000
    21.1200000000000010    0.0000000000000000    0.0000000000000000
     0.0000000000000000   21.1200000000000010    0.0000000000000000
     0.0000000000000000    0.0000000000000000   21.1200000000000010
 B   Cr  Ni 
  69 259 605
Direct
  0.4791211841186225  0.3098416669815831  0.7645894970662243
  0.8363449930443292  0.3222405140138639  0.5407256766826114
  0.4973749291469949  0.6692228883991002  0.4200484114341065
  0.8341884839544312  0.9232887310129593  0.6412600905471784
  0.4305652662340171  0.4068398289405086  0.4210558505955238
  0.4923410916056974  0.9124955861021433  0.6531322074935368
  0.0773510382217202  0.6722958358835074  0.6712583569520250
  0.0018099388506026  0.5086604636217298  0.4287118106385893
  0.5001278026628053  0.3487293548484309  0.2457742231019186
  0.7409398872281060  0.0756363131362082  0.4289651503948010
  0.4347383362406613  0.8084780874422735  0.3160141087151146
  0.5009264263036842  0.8325692058669725  0.2546821837365967
  0.5117272086825209  0.2546314440633717  0.8142699122142276
  0.4258157306954770  0.2685314232772832  0.5891240074018997
  0.7463626687571663  0.4382170339417982  0.5798003904071348
  0.3993014791336572  0.5836037544267498  0.2962418303354782
  0.5924592446464908  0.0793449166744724  0.7131917039025935
  0.3418319658938189  0.6718378069396070  0.4081911114995116
  0.6738425443685870  0.6072334244871490  0.5194651836693793
  0.9213191428626347  0.1761569483622212  0.3356663361599169
  0.9240512285247942  0.4227991587495292  0.5747702225261034
  0.5620520080745056  0.4971607797820836  0.3331756584455206
  0.7427289639432177  0.3967611702384427  0.4030395903996097
  0.8356215881212561  0.9163695074101690  0.3503025145677176
  0.4238567012170826  0.9403976331923097  0.6951167476094000
  0.7356410631171300  0.2572061107125098  0.2410206776715385
  0.5845246897243687  0.4334426317069986  0.1085560984908543
  0.7331542451511618  0.0339200647069653  0.5056109280654866
  0.0022571625978859  0.5076943163948544  0.5783557479480567
  0.9946717951453560  0.8435765444841661  0.4293895767855846
  0.4941026162514948  0.0267470036364867  0.5584393960583821
  0.9921599068003805  0.8417997226283555  0.5769244529836346
  0.5785973037380510  0.2662154141821627  0.5731627844868735
  0.6507293500125981  0.3996949450880248  0.1514413720138508
  0.9121804515501688  0.9776801947706916  0.5002448072740497
  0.8453771475268631  0.1761092092835602  0.4658597275944665
  0.5160163126078794  0.4182964191294906  0.6616453447857048
  0.6217877282052893  0.9512579844847449  0.4972951765765021
  0.7157009470193403  0.1638150131309613  0.3221881812668429
  0.5755114548002215  0.3934468608360295  0.4308161086916866
  0.7656336465343840  0.3395961813499616  0.3506858986783553
  0.1767704212547053  0.6713477005909577  0.4561597460268976
  0.6987709952413257  0.1796019704897936  0.5401616534102548
  0.6051126753705353  0.1576507022219049  0.3252451911142211
  0.6659876518315401  0.6906778849877455  0.4091615594858364
  0.0831828435033396  0.0055790342634766  0.3739797683142922
  0.8577911725415711  0.6074947557140257  0.4898828365339498
  0.4742576348419174  0.4150807204524835  0.1997659216574750
  0.6557215435988020  0.6701887286338345  0.5739714560955773
  0.4788914987125650  0.4206570668408037  0.4877499783920171
  0.6840606793675730  0.4796401682975269  0.6136736615491342
  0.6570377278414289  0.7412106324341675  0.3431420395802957
  0.6824635715912273  0.3415854623516980  0.1019564673517922
  0.4240524357007709  0.5920753602616190  0.5720372994025330
  0.0782726431959691  0.0070714160266173  0.4574989628691252
  0.2475474976561443  0.8222288930665681  0.3419305881607081
  0.8459114825860417  0.1799775175243945  0.5469059127292981
  0.4708495349137605  0.0779969019460021  0.3540026538922930
  0.5828157168489712  0.8576636588671305  0.3816499047156277
  0.1709860110744768  0.6740334979724270  0.5414361742186454
  0.4109799796411777  0.0772586367392482  0.7058128874973867
  0.3562109902086534  0.9132801034025930  0.6609575792450315
  0.5928628972843875  0.0637385502167735  0.4226390045600559
  0.6772006581181623  0.4338835249403935  0.3667938202478314
  0.6950962735495905  0.3217050474630561  0.5162012826282569
  0.7602994381493611  0.7591074901001726  0.5463134003896557
  0.4694609516480089  0.1598807377064078  0.4789254887006747
  0.4759921565158386  0.6474770149296655  0.6059590079013624
  0.4274119498162158  0.9985307191330339  0.5040812289946551
  0.7540752946421588  0.3366412694826865  0.9222335242705666
  0.4049057314330716  0.1541870511265712  0.4043897603516891
  0.3126944927487915  0.0882780807343067  0.4123407867915310
  0.6628021848721635  0.1706525586723801  0.1631182615453890
  0.5846005230449783  0.0042511326440644  0.9207199089309860
  0.7707701374771595  0.9972780309712691  0.5978902351306323
  0.5834537815061150  0.0068454912201313  0.0795037715406000
  0.5655276886580676  0.9505018141258269  0.5933555736035975
  0.5140864161661498  0.9469727065547658  0.5021334386488071
  0.4926874780022907  0.0565012596602659  0.4441498945174809
  0.5011418238560982  0.9223249213053083  0.7563364331707784
  0.4078380347495672  0.2494827659125612  0.4927487373664203
  0.4133013621842134  0.2559241557035664  0.8338990274011403
  0.9188671886631917  0.6738127894384253  0.5690516647358169
  0.1662675308405701  0.9231498394374691  0.7556776227026425
  0.2473123427465604  0.0843321680164928  0.6703923435257427
  0.7000340000826342  0.0941340533026064  0.5928891988608949
  0.4085432804608667  0.7513386543774312  0.6787403764479774
  0.5017996767353724  0.0126187404863536  0.6749038506909362
  0.1619019105174035  0.0023697762675089  0.5117951261174269
  0.0882536839222143  0.4202790665087753  0.3266677676321091
  0.1650507288743050  0.5856817393843179  0.2395349893876340
  0.2464964123642827  0.3353653057300091  0.9168847687409671
  0.0025793132783529  0.0887453316657721  0.7594649091268864
  0.0856662714830121  0.1693714408808317  0.7547452300993044
  0.1644271026203037  0.5060283424413734  0.5020454144884910
  0.1662476088837480  0.8373654874128446  0.9991838713809801
  0.0000740492177602  0.9205838589686165  0.0785219486638136
  0.8437141735189394  0.0088277432769444  0.3211480836634487
  0.5792158060444526  0.6737226513195221  0.2444494300914235
  0.3262448453586155  0.4193715050679860  0.2423127691733302
  0.5972703988752547  0.2522089787101981  0.6740306527061211
  0.1522788633279992  0.8398258521744577  0.5067274424055598
  0.4759240624339343  0.3298420239078434  0.6670318528213355
  0.4700843753307848  0.5190795075967232  0.4979285917607874
  0.4972016924432169  0.5034740464026436  0.9990557834234732
  0.5776095215874629  0.3223071543571490  0.7575847579317642
  0.4734443187087032  0.2355680978564700  0.4043746348012504
  0.5821389932737816  0.5904585685865468  0.1605617030904841
  0.4980170616194319  0.4237751840055039  0.9226643375386832
  0.5832837788934355  0.3336790607651886  0.0907736126908181
  0.3271159943302749  0.3348136367504377  0.9950822763705471
  0.5828045838336684  0.5105711728365482  0.7712972414529478
  0.4033591347812179  0.8270127822999338  0.4144376927348327
  0.1647843885487392  0.9195561203373606  0.2394606053442321
  0.3308651711521476  0.7538613932431848  0.7573240230515148
  0.4993094738992119  0.8389778851487333  0.0011197593939362
  0.4146473224657362  0.0856794409141734  0.8426600370128213
  0.2482559537159554  0.0028027735903081  0.9170739616456761
  0.4160256900092180  0.0038672801405725  0.9182582093063065
  0.3389310244403134  0.0098273001802683  0.6663351242452824
  0.3936037939086824  0.0211817868812503  0.4042840497760831
  0.5759765399646298  0.7521422502342667  0.1673349837371988
  0.4143874292601311  0.0846029854646918  0.9964190036515468
  0.4090619443766281  0.0844236808200725  0.1594216844949935
  0.5759340830008608  0.2506303058582853  0.1672344771614614
  0.3300043523125026  0.9199928179094103  0.0763761198670987
  0.1659338344588060  0.9199080281004220  0.0777351114199631
  0.3347566520369542  0.9234471625338252  0.7560958489422998
  0.1451419048256953  0.9387357115612018  0.4215704646894926
  0.2445115583360333  0.0871047682519119  0.1576148120485412
  0.5812621258973691  0.6706400870636453  0.0826054420133343
  0.2271568882633131  0.7519128081899499  0.4984530741212536
  0.8383559359164328  0.3416331983333507  0.6822203137743335
  0.2479324440586111  0.7566924175560896  0.8369323003419056
  0.4018073254206293  0.2478302883634837  0.3248360651421332
  0.4018653795212709  0.1742273443537576  0.5712150350413768
  0.1544429466190679  0.0714349147158826  0.4175495145219648
  0.2462707224522798  0.3345742123336875  0.0751799983337998
  0.2439298298689324  0.9994316138103224  0.4132029401368487
  0.0855541253919250  0.0867095937003082  0.6718523349125117
  0.0059681047365343  0.1697413645591565  0.6775478585683640
  0.1677639336712374  0.6677069046368810  0.3181312245582657
  0.2465420909981574  0.1669993595937452  0.9167742781738003
  0.2460512586135312  0.8368909586006554  0.0778822804528738
  0.2364813122032277  0.5962059249589583  0.5010639921618805
  0.4022387729841457  0.5059737292711829  0.4188186238767961
  0.4062406439486503  0.2501148439057306  0.1591718244771042
  0.3371173857352631  0.7463538191862974  0.2352181271602984
  0.2467543159894679  0.5031670102708808  0.0755596694536361
  0.7550679923864995  0.6625723606951255  0.2374546996489635
  0.5849683499208289  0.6712566327436017  0.7636601947234899
  0.3304932336922725  0.8389842854126932  0.9995342859392317
  0.6675428213671091  0.8365384404673136  0.0030753908102299
  0.4970889027683401  0.9203136203616141  0.0788529328198015
  0.4040350616522065  0.8952504726919679  0.5030191241779219
  0.4108896752228777  0.4187917922305557  0.8371968701566744
  0.4984126507455326  0.2503300921672835  0.9211783773020636
  0.4990332236191515  0.3345657809857066  0.9975373217777282
  0.5873216032025873  0.7453119016506921  0.6836811503708249
  0.5814736280595513  0.0059785590237672  0.2403076696194155
  0.5725405184719108  0.7785421423011398  0.3097085838573149
  0.4141292045643010  0.5876749011211255  0.8434219510080646
  0.0781031028584454  0.3331732505256324  0.4179202371894616
  0.9223968310275309  0.4220162850981430  0.8384442167432117
  0.0846233761534174  0.3354488513810139  0.0778450601435631
  0.9190472859846405  0.9189380401227148  0.8407138948514757
  0.8356042490902488  0.0884333774228370  0.9208445188913201
  0.0051050110062656  0.3381419895183928  0.8396485585545612
  0.8362397299790545  0.0914145228603428  0.6031279207916602
  0.8296142359614413  0.1587945844632198  0.3176233484752455
  0.0855801380592590  0.4197809541888856  0.1587127992154967
  0.7532854483261955  0.1690814017593059  0.0831133994677452
  0.7545666575558543  0.0886061941586552  0.8442441007875422
  0.9078010634919097  0.0101349864834575  0.5963092248701216
  0.9073543392769563  0.0973658304391513  0.5146295630772185
  0.6683545870249445  0.8969393547635816  0.4153430653033194
  0.0836997541543851  0.0863104608127097  0.9973076561016351
  0.7547460697564713  0.9197150323185137  0.8448207566642255
  0.7552094928958309  0.6698469446912060  0.7624813693135739
  0.5884392893657315  0.9181617994928677  0.6896654047371915
  0.7538455581698887  0.8362603756880547  0.7670990310436665
  0.9214512819437581  0.0053128413952297  0.7629851499402374
  0.9214859821859764  0.8381643817723055  0.7627226737744482
  0.0133050972535867  0.9399667439084939  0.4153835329900546
  0.7721867521770669  0.8654922745927260  0.4092595462570927
  0.7265386600976041  0.7716674628790607  0.4110185996583801
  0.1668135735589633  0.7560620077082905  0.7587537473403393
  0.9198933203534367  0.7609468613092927  0.4998611305048420
  0.8373167142610712  0.6690724498822193  0.6780879593707846
  0.7425258970724550  0.9291275212506481  0.5039446237494598
  0.0024341388729404  0.0028901433344877  0.1596401263033827
  0.9246474668834336  0.5049052600971796  0.2435038169838726
  0.0844081433564880  0.4229477087837322  0.5019334731278907
  0.5858491783858069  0.3371897731039581  0.9278312752439005
  0.8918957367016478  0.3838624067688852  0.4884420706228410
  0.8215131560448462  0.6974550282018060  0.4983196196019281
  0.9227987129883934  0.3371672582343708  0.9170804388864111
  0.2479863123567030  0.8330610270821663  0.2429647433963096
  0.3970591746303094  0.9199130057418068  0.3220884210168864
  0.0832053228999450  0.8378059065144351  0.9186307338663746
  0.9218815626371221  0.5045127863244264  0.9180727144918002
  0.9191504452840844  0.4201711879173922  0.6781694926509081
  0.8371481109519430  0.4964615217440527  0.4982974762214773
  0.9239382409053714  0.4215128244876203  0.1575155432386982
  0.8377242503203945  0.5854897390799412  0.0779890945139803
  0.9991029862526271  0.6702461587004198  0.3231205241005161
  0.6781740757915442  0.8981796458114847  0.5943128024937254
  0.6706613194273281  0.8369860058887114  0.3243705380644932
  0.8372482108359591  0.9234809473265819  0.2462814936785201
  0.4962933895995019  0.5869901653016710  0.9187712271483488
  0.7558465585442490  0.4211263092993263  0.8471506923210205
  0.7714377177265249  0.3932524558528086  0.4974615103904574
  0.6443174802990498  0.2346145432575871  0.4846732904007231
  0.2450092600051452  0.3353831747923975  0.4135443663115316
  0.7571726330993089  0.4315795640102340  0.3117209817855817
  0.7602997223829717  0.1792017743226188  0.6138311893580024
  0.6764020233487064  0.2625873384754728  0.5956316295302886
  0.6704660815275586  0.4201269463677553  0.2490710599529199
  0.7715065691753420  0.2453141825916383  0.5116190660626898
  0.6612842822276270  0.3115657047032301  0.1913649378126645
  0.9177866135882869  0.0881206635114308  0.9994080519955117
  0.5864576448928691  0.0863473345770626  0.8443813370999286
  0.5670697930397995  0.9632379808736465  0.4104506817426180
  0.7453223974942065  0.9201090107503781  0.3137689148380474
  0.6612631937780159  0.0920364334452771  0.2513020581794771
  0.6658479527283995  0.0905117855917649  0.0826771091894547
  0.5859599408220063  0.8322408220072933  0.7617556030764571
  0.4138036584099088  0.8432309601227946  0.7477435722329087
  0.7540169251321656  0.2557122160107285  0.8426392717255198
  0.7773530286718664  0.1203795542382262  0.5130294813626893
  0.7549069321939673  0.5070235941668360  0.0794315189770787
  0.7538719556918575  0.5882284380984639  0.0004647801855122
  0.3261097672645538  0.9138368820355647  0.4128231553688871
  0.1646692572675686  0.6711835753209978  0.9977750671513574
  0.6676533780760546  0.7554902234565564  0.9237743919184455
  0.8359015631359203  0.9213731033388142  0.9229894743720530
  0.5825780063093824  0.7552846965024453  0.8401693626158447
  0.8376739907937581  0.5880433743521830  0.7598537428275919
  0.5982724792394134  0.7531546064656495  0.5392337356705373
  0.5942587535683692  0.6619170609925088  0.4817612331612134
  0.8432369683380850  0.3399073115814754  0.1589746587641814
  0.7543206579294502  0.7451225837091401  0.3117433507410184
  0.6682819519022432  0.6710299558346754  0.1602628866819339
  0.7544775050448023  0.9216445676879655  0.1591821173460137
  0.8361583596093660  0.9201421473535338  0.0814300900742158
  0.7694471944997268  0.8509290549804855  0.5959472173140992
  0.3176331073718506  0.3383393263294094  0.6735198276223240
  0.7542573759137435  0.5905340919794592  0.8421102600422317
  0.6684241257349725  0.5059639058448550  0.8432180718281987
  0.7531825807747565  0.5057073912481299  0.9184797909459262
  0.7555350625229547  0.6631817382978575  0.5949180969966353
  0.6853170211728413  0.5009417024741485  0.5145181027145009
  0.7529873771251732  0.5049536623213233  0.2336503403005296
  0.2487626795469259  0.3355948000688774  0.5862527756433483
  0.2472731169114233  0.3372852321736768  0.7557148448734178
  0.4122948940057274  0.6723449189319413  0.9194699654555230
  0.2446714003327762  0.5876241493765444  0.6755982921388080
  0.4891917880154105  0.4121319964070967  0.7603091563988915
  0.4141677815519453  0.6699461899444515  0.0761019563263831
  0.4146833408924177  0.5800106597650382  0.1566001607901062
  0.3831392422657499  0.4223935470209797  0.5063074790748708
  0.6153972316178167  0.7791499563827597  0.4281772219487439
  0.1667833225472920  0.3367045937991547  0.8382385874882848
  0.4113940146823598  0.4242571507859799  0.6745438675756484
  0.9298699406913286  0.3314040179277707  0.4047734920269159
  0.0852190331295279  0.6718641252782651  0.9189296450270847
  0.2477475293086450  0.1666979608368662  0.0782839118351265
  0.3173139963535950  0.5079206090764646  0.5031605490296103
  0.0087579150776510  0.2539413603395930  0.2399259355641895
  0.0027270907657325  0.5870455584205092  0.0792377372465159
  0.8436138859108665  0.3375202631769213  0.9956880884171401
  0.0800455275953981  0.0059202451239671  0.5924111276277263
  0.0841580228863532  0.5060923231243150  0.9167082525248100
  0.3220990479666698  0.2497851795780655  0.5835435666770692
  0.9999242405769962  0.0099572398209165  0.6779914608811000
  0.8257533380856664  0.8208265955467798  0.4974791051618843
  0.2345112858523908  0.1651921388692723  0.4127019822100504
  0.1666505643969274  0.2531496149505286  0.5869203849918023
  0.1098677581535544  0.7376006896039212  0.4876709918643235
  0.0031671446781575  0.2530440913791246  0.0788099857483843
  0.1649836734617046  0.4980890960634617  0.3247838982479216
  0.0029873235462310  0.5850632285359031  0.2447146404971253
  0.3310019792677391  0.6708587693280780  0.9992370931038421
  0.0030231409754581  0.7536202464948819  0.0813015654989785
  0.2476538614397822  0.4993520269845629  0.2378716266972614
  0.9973543293603886  0.2497309755725757  0.4170127717455375
  0.9210791256523700  0.0877237005398645  0.1611991807013159
  0.9215348867746811  0.8375754285764122  0.2453932775837240
  0.1658798671612332  0.5877159574377635  0.7569146030880313
  0.8371096920416841  0.7524418406173347  0.0815794949888986
  0.0912018862370307  0.8376021891082542  0.4097526909795324
  0.0026455696007770  0.8369503089628608  0.3280646738111760
  0.0854185871116604  0.3371668115725641  0.9178393233026213
  0.9174351229357709  0.9196881323119821  0.0002694891509569
  0.2405960670282804  0.5758120503672604  0.3183745386378054
  0.1661853981601448  0.2550036299563780  0.2442025827780313
  0.0830981747718153  0.7535146516964986  0.1612988288066531
  0.3262586466576597  0.9199448598326619  0.2408970059991405
  0.1681609417197142  0.1678291485968827  0.8356755628297307
  0.0698979530227058  0.9173053906450793  0.5102103021845714
  0.4122093568041031  0.4952685695564770  0.2357790824384861
  0.3291429256158592  0.5032204534164592  0.9991980699270611
  0.4501630765694918  0.9388541494498068  0.4176528477008359
  0.6660902543420706  0.7527472459180522  0.2398614403912928
  0.5125915293146414  0.7483902349303527  0.4920855768086674
  0.8205724922128841  0.3179408382573349  0.4372736734387089
  0.3247632558694018  0.4214695940820812  0.4121204713482842
  0.2451869794601066  0.3358986875667777  0.2438538267292140
  0.0842026900151232  0.0864592413335213  0.1608233406870417
  0.1745797295726556  0.7552643799617070  0.3972717071312247
  0.9221137541934393  0.6668789938386936  0.2434595624374288
  0.0188406886506130  0.0777877278828942  0.4142338429988315
  0.3244714540400175  0.1691658991172751  0.1590974126849043
  0.0011834199530865  0.8370235063920418  0.8390027955269572
  0.0034329897851789  0.1695686689689136  0.8380636414176387
  0.7532498348421701  0.5852487468608638  0.1564787586358969
  0.0862297858440384  0.3358301846840765  0.7561907486994676
  0.9999421007862738  0.5874940929708822  0.7560343353699048
  0.4141094289106377  0.5901966477842410  0.6741256959609760
  0.1656429456704322  0.3358342392031556  0.9966846235890474
  0.2471342483925388  0.5882855696649022  0.8369633361997596
  0.0002826460056944  0.0034756282342627  0.8370602087646254
  0.9080824359538828  0.2522483625255780  0.5031906588019284
  0.2384277061511784  0.8368938904788867  0.5871226947417993
  0.6664231954899609  0.5906653324001763  0.4193301529083063
  0.6668316695471069  0.7527266234334397  0.0831842964222664
  0.9231564202734133  0.4222799252671171  0.3219236269469051
  0.0016311162900745  0.3401558953989072  0.5026571964977649
  0.9226173700977760  0.2534098589207228  0.9983816977540309
  0.7702593657483535  0.9870767228630559  0.4030470452500624
  0.9150578273165563  0.7545968558147537  0.6777852657124409
  0.8361163237211605  0.1723687150496361  0.8410293844842444
  0.6678255054242939  0.9195442815782581  0.9219327381050442
  0.8365269791957274  0.0030644618940220  0.1605998991422933
  0.7516513551522398  0.8360260465413536  0.2385956969997687
  0.8268840558518735  0.0177266831819432  0.5005100002245810
  0.0842013587437876  0.8374315729614291  0.0801751369346750
  0.0816832910205057  0.8369200234553614  0.2418755571414051
  0.8401121023032202  0.1730822729542063  0.6871175604821577
  0.6700734903810116  0.9232796453834970  0.2342800456466051
  0.0831114807124852  0.6715095577900736  0.7601150749642483
  0.8371702416100971  0.0851985724755648  0.2382178234860000
  0.7546795938438061  0.8358782998236004  0.0813304891181433
  0.0009383200273857  0.7536102199651432  0.2433736052041919
  0.2504210976065172  0.0034972928869970  0.7529198570460710
  0.9194854646022550  0.7507489467071382  0.3244988021286943
  0.7507502319952850  0.0061100343887753  0.2402162193980567
  0.6653632185699893  0.3957713669489216  0.5719902850191175
  0.0884231626076180  0.6728855828433297  0.3998076050906770
  0.8361440906807698  0.0037713934008336  0.8420558067455903
  0.9187940238417804  0.0887612894401796  0.8412580660069264
  0.7118867627578197  0.3037021907541507  0.4253421644771596
  0.0017359583138631  0.6706537889242491  0.8385953884579659
  0.6651123034160674  0.4029402170060565  0.4552491837959453
  0.5835526622129407  0.9207306183606483  0.0020222431340193
  0.6785205834923631  0.3292877620297057  0.3184250395649394
  0.0028092542498761  0.7542851934122797  0.9195244482914947
  0.6686343321496456  0.5124755314564691  0.3207511422005257
  0.8383174217538759  0.2531397121330162  0.2411578241684845
  0.7641055160958214  0.3424819952091943  0.2430487645451261
  0.8334324066044458  0.8302382383137744  0.3167856795657463
  0.6633283909278092  0.4989603849426570  0.1568395793768145
  0.7526601020381761  0.0043059125501140  0.9226944607425828
  0.6716178042403519  0.3407687309967169  0.6839163473961523
  0.1661384780074865  0.0852171529903330  0.9173839791429985
  0.7534248555256565  0.6717442171160484  0.9229251287997735
  0.6678434503450634  0.5834742145083874  0.2342434634539372
  0.6850773127470141  0.7599673559363951  0.6036536357733162
  0.7588567703971087  0.6624507757976538  0.4029469569113617
  0.8401099696433405  0.7488286693999822  0.2401313878371975
  0.7520232516068115  0.7537205545563694  0.0025174444671435
  0.0003972081332507  0.9200085172008093  0.2433065858903735
  0.9256109349327887  0.9247934204852576  0.3311008051094823
  0.0016076364717485  0.8364884260535365  0.0007511808047998
  0.9227259150982570  0.4213899993310823  0.9982989123641821
  0.0006659227911249  0.9209283271925175  0.9198887226024250
  0.6688902116865434  0.3373176370815782  0.8426522186537013
  0.7591305385964675  0.3359626465899649  0.5971101773299755
  0.7491938402086855  0.4265653775120322  0.6751654909844846
  0.0830054932159447  0.9216462886174227  0.8372270131960406
  0.7554567815441008  0.3398069817188848  0.7631656083016166
  0.6790161594280821  0.4206828143705713  0.7696710511100768
  0.2247300575030183  0.8534264019466896  0.4231085729603011
  0.7002404560959384  0.8206405910780658  0.5057774899573898
  0.6762048430672617  0.8350570549526612  0.6884734754616687
  0.2436047603618614  0.7539819567495899  0.6768718373137426
  0.9193644409974195  0.0905046925404556  0.6801857822850952
  0.7579972977706534  0.7520243555021314  0.6831388306147894
  0.0817051588340084  0.6763404818100355  0.5832940025319613
  0.0068550936837868  0.6748825902470683  0.4969090501276793
  0.8616822393599276  0.9277798686972437  0.4377929654475377
  0.8383338910378816  0.1706273846571998  0.1601257076252054
  0.0819473484231222  0.7608697624660249  0.6769679494927221
  0.8373909177825757  0.0062505878425095  0.6879967451497231
  0.7522480505334671  0.0881423734264573  0.0025423399572271
  0.8367908642201648  0.0874248109535531  0.0819130564000689
  0.8351427858265436  0.0049242117706491  0.0019408745631934
  0.0836342147870455  0.7545148629637651  0.3231231002205454
  0.0036031062751180  0.0881096295426624  0.2404254245952262
  0.6688017434091880  0.8357886350603514  0.8428587606810976
  0.1642947580765902  0.0026245995045219  0.1588919787093382
  0.9184968757387687  0.0044925722983561  0.9205485683986261
  0.9217872603178869  0.1705913647019681  0.2413613377365743
  0.4895288008804437  0.1672978009032326  0.1608705504128080
  0.5844996762379604  0.1691939160546844  0.9218720916614872
  0.6690308082775805  0.6734842599321695  0.8440632679174899
  0.9999596396167361  0.7549948481362182  0.7572590503684969
  0.9196422147283416  0.8366240756844805  0.9214223815225777
  0.0843931915559736  0.0027846869764566  0.2406240640901087
  0.7018585413075459  0.7005612389810941  0.4969670516526261
  0.6714529670660527  0.2545348123468328  0.7625150802803534
  0.6695511802200067  0.6695070705340587  0.6768574647499666
  0.6703487631085790  0.3356000208040676  0.0039090063187887
  0.5963598166621055  0.3316017484433320  0.5096759500655847
  0.8371014130793335  0.1701628908162193  0.0012369471118101
  0.7530020958339376  0.2596595518350156  0.6846941973240098
  0.6726217931138391  0.2544126447752550  0.9254746955078106
  0.6724403176275248  0.1706956387239488  0.8443986233161249
  0.7671034504792164  0.3378747677235908  0.0743131793312191
  0.6723801830916825  0.4283122043816059  0.0674614367804195
  0.7560545408529264  0.0857655759614755  0.6852391823163427
  0.5002138155306169  0.8526057082234627  0.5615275700605110
  0.8353041941458770  0.0902357836707695  0.4114661426129940
  0.0025137978312893  0.1685961353434351  0.9988429513342835
  0.6704749709313744  0.9211472303751627  0.7659116325643143
  0.0107131421646225  0.1685667300571310  0.3298978739640868
  0.8424456514121568  0.2534652955664954  0.0791911727688494
  0.0851552574678448  0.1713107987791702  0.2426898415464570
  0.1615158688906327  0.7565965804065786  0.5935089965748011
  0.0018631419699204  0.0867321140798486  0.0802488077785389
  0.0820063809568418  0.6696162819659758  0.2427302365524331
  0.0833154918880614  0.1687305880345296  0.0791178706789197
  0.6719855335951781  0.8354198025187489  0.1569561650376098
  0.9225043259284436  0.2542377239729254  0.1619651604033802
  0.9178089922291834  0.9227827477901825  0.6811472778345327
  0.0842431498546403  0.5881236941125982  0.9983751807649005
  0.9960280868662865  0.7509859735897141  0.5940521536886627
  0.0831978703511216  0.9203329221917766  0.9992878359054106
  0.7544896995161804  0.7516134893473136  0.1619892229856466
  0.0832722846268808  0.8401335467674785  0.5972605694785105
  0.9041575155189141  0.8383081916499799  0.5969166238670425
  0.9199868725039225  0.1705405137591905  0.9197972622377971
  0.1661564678673042  0.7548451323270232  0.9179215958492625
  0.8348030348372502  0.8374643328320807  0.6861783945396929
  0.8358065790704293  0.9202218106655993  0.7637193316850943
  0.0042180422701350  0.4222678395782223  0.9189677978536638
  0.8371912905721336  0.8362694190345104  0.8429299249855861
  0.8358124610866161  0.8362673146258987  0.0018056052608648
  0.7448788487649046  0.4969924699833843  0.4148355938216383
  0.7525374191077587  0.8369072470254378  0.9230973782309356
  0.7662154978163357  0.5257040409251500  0.5935380194751564
  0.7568037114330465  0.4228025342858955  0.9961085719145976
  0.6676477132791155  0.5071581233283811  0.6978286342364850
  0.0313802708660178  0.8045057861937138  0.5031110963375816
  0.7518401765334760  0.5884575626343184  0.6841337233743187
  0.7619939329176314  0.5895894332903580  0.4940746659664946
  0.7529479965983995  0.6705382692368359  0.0800156926083670
  0.7569778372704383  0.5798210991866055  0.3223284819001954
  0.6690980102262942  0.5931479771168164  0.7651858069492959
  0.0851046088423885  0.4210926314060076  0.9978177710161645
  0.3272389208829402  0.0029779691599030  0.1584208282250127
  0.8367117012613020  0.7501117538860137  0.4012447026055147
  0.2480814087117317  0.0844578043348928  0.8361098646602665
  0.8373557715945373  0.6709389964324460  0.8417693264176339
  0.0053482517431308  0.3373143123388012  0.1602723686169351
  0.9201504424514461  0.6713399348046629  0.9206752781676454
  0.4092032722394034  0.3327387990002617  0.0744927117295260
  0.9218662659037389  0.2549380082415367  0.8395683734750584
  0.1670178823725317  0.4180739285872718  0.2414334577105392
  0.6748196341242886  0.6550926263141420  0.3168833187649517
  0.2472381841555141  0.6705453506837924  0.0784021170404528
  0.0039748910839840  0.4199540839579372  0.7550990710936315
  0.3958964019801913  0.3388002209803361  0.7523915470082656
  0.0040291935209713  0.4173686160305281  0.4081391508150934
  0.2433625985589683  0.0006773768891009  0.2403119130703722
  0.1659514384447306  0.3360760122468639  0.1587183481746479
  0.6668519943122385  0.6726737482463403  0.0017460274392899
  0.3991004316413651  0.5057820858618464  0.5899408911618890
  0.9199451511836922  0.7536763216085334  0.0016346260735499
  0.8406787315371194  0.5041237979647385  0.3196746363803167
  0.0044278091302615  0.2528106491255927  0.9180115989116451
  0.9216882812167929  0.5860549904653184  0.3291803181897444
  0.9184718783835882  0.0044793880419551  0.0805286661717620
  0.9893944750442889  0.6722971760104541  0.6746834569063063
  0.1658672536583298  0.0872495258932267  0.5889904447796462
  0.9394430472950456  0.5736859659145433  0.4987782840131619
  0.9182663024667179  0.8367518237927045  0.0815734854601325