 B Cr Ni 
 1.0000000000000000
    21.1200000000000010    0.0000000000000000    0.0000000000000000
     0.0000000000000000   21.1200000000000010    0.0000000000000000
     0.0000000000000000    0.0000000000000000   21.1200000000000010
 B   Cr  Ni 
  69 259 605
Direct
  0.4863139648041999  0.3071680601395990  0.7673453462293596
  0.3585366298068433  0.5785367282704195  0.3318281612207469
  0.5037402357982229  0.3522894749659482  0.2415911723705461
  0.4692313180952671  0.7665500679817095  0.3181418425408049
  0.4233888392611505  0.7260809211882560  0.2558634310798206
  0.7345245166446983  0.0867362545826710  0.4179868137937185
  0.2625322484455042  0.1721250912624276  0.6793445915884830
  0.8983062282604835  0.9234745053169774  0.4275787376350903
  0.9970835227040902  0.6531233301572197  0.5495756179288432
  0.1494220516510265  0.8407159584348616  0.5905050076340401
  0.4313850334740670  0.4123740385982879  0.4226238773635216
  0.0145223465543411  0.9907263116513445  0.4135413210104554
  0.1696960705542971  0.0908684413532956  0.3256730173296004
  0.5854642766422999  0.0762636413190867  0.7062111817730613
  0.6688137374439910  0.6031249715133234  0.5086258897387181
  0.8241058653805112  0.2598546669561090  0.1699458862832940
  0.3279233415961211  0.8417982661663993  0.5706238236225637
  0.0666882443149279  0.7403609022977035  0.5969289658089396
  0.4150126351167305  0.5772189153963179  0.9243416918008520
  0.5770351891842785  0.2758184223784949  0.5711999604017288
  0.5381973058984574  0.5108087684301191  0.3216008053039032
  0.6543971946729338  0.4172962874262056  0.6575569698126164
  0.8368452219395532  0.4211180124643675  0.6717658688848815
  0.8424459898732666  0.0596773156247886  0.5125010551379688
  0.3419846526603441  0.6730764831752457  0.4143098344205029
  0.9328203010509165  0.6853505005293754  0.5060017909325842
  0.6503714448891270  0.3918068843171306  0.1471867532016797
  0.7563221703072923  0.0306434176500855  0.4793788202993376
  0.2733791302342998  0.8405664487676876  0.4973446928353215
  0.7396437684765549  0.9405081260816158  0.5872285919649680
  0.5012067597202601  0.6661403253151618  0.4210816091806965
  0.4079756744548416  0.0818986872013354  0.7178580358404416
  0.4095274753774876  0.7509427667763019  0.5457224736787650
  0.5940355364253451  0.4349789952720777  0.1039584369402651
  0.7395664243936553  0.0006530308980197  0.6489789628420948
  0.8469492413807703  0.1753521023010015  0.4594752558076992
  0.4764319393825767  0.6276158272418147  0.6006853789905031
  0.7355108743099101  0.7414819255467813  0.4231699385367689
  0.6774935130469282  0.6804745882635876  0.4074524089820946
  0.5255530210256446  0.9175865759359257  0.4916842082260308
  0.6742018814143043  0.3180085836572435  0.4232173620930130
  0.3407188462980797  0.2530369659244607  0.8152302594478389
  0.5554953133472028  0.6738945153787097  0.1598332952406825
  0.7617548090521796  0.1314250559882091  0.2403156597194147
  0.5021014393903126  0.5844267248461211  0.6660772455239045
  0.0711324534025086  0.9341770408616556  0.4178464189802851
  0.6931064446390434  0.2834661124216203  0.2753332245560397
  0.0713998498249922  0.7314197238820201  0.4121796290642973
  0.7010021032576761  0.1849002200727323  0.5355227477722309
  0.6845481784842558  0.3339551520329965  0.0975108751660773
  0.8298630121064674  0.5905564120869511  0.3420879678673620
  0.5767733043347709  0.8610589463681559  0.5218465479689668
  0.5094128427828387  0.5808115606697613  0.0177947200916446
  0.0864408581405642  0.0065780234600374  0.3735912006254228
  0.6571129558894254  0.6583819270916944  0.5693814472521823
  0.7289802285269339  0.1748013690132677  0.3054132392217588
  0.8493036856661594  0.1772463324327979  0.5421688571857023
  0.8380473367590785  0.6731249844439064  0.9203783781857783
  0.5079664051277679  0.7195612761271662  0.4888741652183345
  0.1463840443251085  0.5839035899026456  0.4965084648998728
  0.0005516960262412  0.6601569926118991  0.7421229329275069
  0.0847731878359691  0.0072579980724650  0.4577157520405480
  0.7424933758942829  0.7410696410623944  0.5734748259637684
  0.8389189470818136  0.8315658623341463  0.5603965920302815
  0.3265972675555101  0.8996792588448478  0.5102760153567700
  0.5811159549716742  0.4039352423824522  0.4201686487952474
  0.7140335720343419  0.3257551214131608  0.5031001331686092
  0.4063572177875935  0.0762175474635199  0.6317857385088185
  0.5984043558616533  0.0813527899817819  0.4101965135898596
  0.4943231472974361  0.0884708651047094  0.5782469452295010
  0.4897754905113010  0.0806940976778533  0.4117205743779802
  0.3266753401532162  0.0841195087872374  0.4132794110178416
  0.5726616142826999  0.2415622964909486  0.1679456659617592
  0.4188875036746474  0.2547367344382606  0.5035741275375577
  0.5771591277707594  0.1639312525388731  0.0792924573679213
  0.4858669597610856  0.2498275337633385  0.2466234512494666
  0.4999573431474145  0.0900051401988751  0.7626432911369667
  0.5813355877678251  0.9993518640525255  0.9176171002937037
  0.7511062062765606  0.1691471767235357  0.7575549493973611
  0.4961161936682594  0.9191524129955714  0.0786000800758858
  0.5588812802879848  0.9776603484980322  0.5781802335185313
  0.4984441497427298  0.0000923293388365  0.8388494065701889
  0.2524040791677984  0.0011260823186376  0.4117582813740792
  0.4152393616858196  0.0004579159521968  0.9168604202230005
  0.3305485905690986  0.9192176226467358  0.7563274538743692
  0.5995165724515693  0.1760481039623666  0.5574981454344227
  0.3294305477095484  0.8374892436819070  0.6773720328788381
  0.4924563271330768  0.0229590604644380  0.6761702591324379
  0.3312605317805758  0.9988694895089302  0.4980412011607397
  0.2446067424401623  0.3334462162403842  0.0791660690598825
  0.1529857030784846  0.0766087177363776  0.4196976904554106
  0.9187883394544843  0.1680333381234049  0.0803880807979400
  0.0814659547126723  0.9177094346320381  0.1611627591925446
  0.9197198330915992  0.0884815389587631  0.3252563830232635
  0.9069839150153096  0.6612491381226187  0.5969088865750871
  0.1649200187429215  0.4153106377124114  0.2468342238347117
  0.0030071317538608  0.1670327241057568  0.6776590685053119
  0.1667806560209782  0.0872835152587239  0.5906834601372547
  0.5153231112239010  0.7595400929767575  0.2305042594885679
  0.5895931894745478  0.5788540829198092  0.1653706910615741
  0.5944412559511879  0.2551692926295442  0.6670301167095034
  0.4963861409897862  0.8339713299271813  0.0041012847613701
  0.4907822213633691  0.3311448023651668  0.6690384913807719
  0.4762928983594344  0.4925911535001712  0.4885835392265985
  0.4978323978293345  0.4174403468811178  0.0828195786786838
  0.4862089284812485  0.4091199690718239  0.7620395974738873
  0.4872269293796526  0.3384761830240391  0.3362117744545268
  0.5914251595913690  0.3155767741307402  0.2688075474017727
  0.5784994774158341  0.4185798189060725  0.0003786058288231
  0.5832005726348400  0.3344207726866771  0.0859110418210740
  0.4102085111083166  0.3322062485457924  0.0795686345539410
  0.5800123219535639  0.4997579053241291  0.7678157597314639
  0.3247043394667566  0.8338775076624916  0.3268090376579493
  0.1635223907348601  0.9169962442285681  0.2406774239643795
  0.3253027361799882  0.6663304556904478  0.6755492417781426
  0.3228148525647546  0.4151030092757285  0.2464871181799160
  0.1659841400133136  0.8385792398061058  0.6841329465636199
  0.1638854984339420  0.9331809659001730  0.4139175581684792
  0.2471293394566511  0.0844394220017713  0.1597991063668550
  0.4133077209106513  0.0845167392806139  0.8374942452566233
  0.3288178015629883  0.9993254326207855  0.8412498740608649
  0.4156209494383509  0.9961034301810089  0.7643230930760525
  0.3425670279435382  0.0104211080673425  0.6778984280219015
  0.4023286829109776  0.9986444811469430  0.4105300138894469
  0.5842654981877820  0.8457190461233639  0.2327411979277007
  0.4131286163188029  0.0837716384027903  0.9973135468586959
  0.4083266641589207  0.0822557262664834  0.1575079815355745
  0.4111162840565469  0.1650522586147460  0.0772957854367248
  0.3292364936694748  0.9155167801644643  0.9191647420730756
  0.0810410583680000  0.9209800758068928  0.8387347521464413
  0.1660995472362703  0.8368773144379149  0.4965395729123949
  0.2300270047072180  0.8417426927532821  0.4069252777874058
  0.9169200834914242  0.9204874788395310  0.8376398798670228
  0.2484594429279766  0.7503563674103547  0.8398020424169839
  0.4071105977104286  0.2507150294707592  0.3259835660620654
  0.3237676754067323  0.1660615588932895  0.4957658186362827
  0.2445224706057328  0.1652249186000481  0.9187798612576149
  0.2462782061830245  0.9161409149128964  0.1615377777363509
  0.7517515719943598  0.6652759621015787  0.2309261409507566
  0.5807620242256410  0.6657669757902717  0.7551252887459540
  0.3285061512807943  0.8346361165817773  0.0001322579970253
  0.6676682868733088  0.8359956898651998  0.9989769036116707
  0.4973808641202305  0.8398716132789377  0.1572184095309289
  0.4205006162513363  0.9135817656514532  0.5013391630339528
  0.2471835070545554  0.5825450375066011  0.5082720352449055
  0.3976735142479628  0.5040612310746788  0.4234609898079084
  0.4056655077170634  0.3381401546932416  0.2457896113931412
  0.3286085918897488  0.8338971047785637  0.1639816021651800
  0.2439619945706427  0.5001438778340470  0.0782833871919700
  0.5813978750994436  0.2500599569412394  0.8390603628079121
  0.4967145104844812  0.7381940128807789  0.5877606759024179
  0.5777176521210654  0.0055304536483600  0.2396517807271594
  0.5862483067681655  0.7591209797549363  0.3145072734481015
  0.4076595093717299  0.6690179334542116  0.7576702760166388
  0.8452015761622523  0.3433092481426279  0.3299134451313563
  0.4980966588777847  0.4976300509364257  0.8370332835450350
  0.3323104874557690  0.2515214099055671  0.9187680544208863
  0.2464506192295767  0.6667267834953089  0.7559550046996215
  0.4123261396743615  0.4136788309843033  0.0039754500812937
  0.4954062385401274  0.9205101270951888  0.2377129329252370
  0.3288256324502595  0.9066054076993830  0.4125846626685227
  0.3992584687285799  0.4939288677164946  0.2392427144850931
  0.4088697532650114  0.6713102816239285  0.0884839331374498
  0.9167736431471838  0.0008242030883330  0.7563691190074389
  0.1641405128075796  0.4998820550179933  0.1623951357105520
  0.9224061502547226  0.9196907313106397  0.3201750826868577
  0.8340499429965111  0.0833221560094215  0.9192847414174323
  0.9214084713630960  0.1682217819423669  0.7596766704521212
  0.8426359088121915  0.1722697830005316  0.6852291969651342
  0.8378412154699255  0.1703081749992852  0.3242386475794226
  0.9991967002465681  0.2512915906332996  0.0787482666544138
  0.7513858135701106  0.2468513287309918  0.0016277671831862
  0.8345001922826273  0.0852232166478510  0.7546962684095045
  0.9097017582331468  0.0090962990202228  0.5808001974843565
  0.9243299192929493  0.1009662748897074  0.5008923586838410
  0.8446965792875872  0.0088150466138709  0.3225272021630348
  0.9165607691804147  0.0021935745781085  0.0810978818288354
  0.7488435509152807  0.9167750100032352  0.8340533253565842
  0.6642602643611910  0.8322654735698729  0.8362354426418351
  0.7456809842013578  0.9095237998077433  0.6796358422209526
  0.7483524625591491  0.8314209734556899  0.7560429778368862
  0.9006772754921877  0.8292852757933620  0.3956266079919563
  0.7428123897159615  0.8400430521294453  0.4008620314732174
  0.9993500283499167  0.7581514212253344  0.7562497712696949
  0.8953337774119059  0.7757042356881213  0.4931248947851891
  0.8420570268990303  0.5805823899326352  0.5866324108071377
  0.7412706421568558  0.8390864954424485  0.5934796891213101
  0.1605594203718918  0.8365640183852453  0.3234845661028183
  0.0038585346842724  0.4212603602784677  0.2483803318486535
  0.9079938683938977  0.6723609244839808  0.4092548253897377
  0.8478315026283931  0.3389826794488884  0.9896513953802307
  0.9243875270112769  0.4140535680346868  0.5038279244081756
  0.8389209901927293  0.3290035973032061  0.6807783202439103
  0.8357829520025160  0.4162887981790331  0.7652071620672869
  0.9213783915189847  0.3351644632815723  0.9167505418357882
  0.8347346412983364  0.6728307274400878  0.5017973932769457
  0.9162713058149050  0.8392030774354615  0.7560633303747006
  0.2457959478632574  0.3326815746790714  0.2468143165644553
  0.4146898835635894  0.6737628953006567  0.9206144018845240
  0.0841997329737032  0.4180430417329597  0.9980053297089247
  0.9218097744499675  0.5042746779139055  0.9147774811141816
  0.8381623878523393  0.5134575126465607  0.6753134703078787
  0.9270007209070139  0.4967637960594023  0.4164386936861615
  0.9239606322840802  0.5016188621342631  0.2476157042959461
  0.9234335917262826  0.5047526608405707  0.0799942524831118
  0.9156158086059152  0.7496714624573177  0.3210199263905522
  0.6497354242833706  0.8997373293172554  0.5950038718182152
  0.6567096927782036  0.8408692488765119  0.3200920777144374
  0.7496567595129867  0.9232469964917671  0.1610847614229486
  0.6700910105186947  0.5079771064206093  0.9934618773133375
  0.6666672727236970  0.4173075977884721  0.9261766688629929
  0.7682455111961096  0.4189025292077388  0.5019413976456494
  0.6855253171035958  0.4072365952467873  0.5625492291376220
  0.7639762864895738  0.4202680148639905  0.3303864450355622
  0.7553711409779488  0.5027292105585031  0.0778063724045376
  0.4968656215819265  0.8336372437918679  0.8383142248519676
  0.4101197276699569  0.8355536259070903  0.7548415057915333
  0.7519070062494382  0.2515434619195224  0.8409795566799004
  0.6685609625415907  0.1705094255313049  0.6697950819817537
  0.6754647583699409  0.2661442293366667  0.5874535697270351
  0.6666526825428796  0.4940399114697164  0.1515406649014721
  0.7809458323414820  0.2450637068192536  0.5038225580396521
  0.6569215723517400  0.2995092284690776  0.1850404962016672
  0.6674511759327777  0.0819782976319874  0.9203513715229356
  0.6720259872249230  0.0858310973752726  0.7567181461205057
  0.5609138547338965  0.9890280258343638  0.4100931018801980
  0.6618724659844245  0.0126569385909080  0.3245267792548185
  0.6635950159115466  0.0884713796710723  0.2456777487982222
  0.6651689440529934  0.0854686365775446  0.0780656667826768
  0.7548776879282539  0.1840566078281679  0.4068484563313857
  0.4838647211874902  0.8217467688620496  0.4993825168862717
  0.7531765614146064  0.5837976216747994  0.9992323165431812
  0.2502944574775831  0.3321871228873458  0.7536315366509861
  0.7355695528405987  0.7500589767015472  0.3235116628620575
  0.6637525875646995  0.6667380957427967  0.1630718374075122
  0.7497075056880937  0.7547958276026396  0.8352005742489870
  0.5840808795778099  0.6743927425238266  0.9188232577866372
  0.6660022197960656  0.0035845947343095  0.9963814729111408
  0.2461582502783337  0.6700263242697151  0.9184867310496605
  0.6657383217708766  0.7543283401534888  0.9196942338937530
  0.7462619250579678  0.7502791854860965  0.6754358480728921
  0.7488072797203161  0.6693810215427554  0.7554698351116585
  0.5762714363642034  0.7427797863608560  0.6813931311852468
  0.5950305683163095  0.6644597931457399  0.4808080479463651
  0.7527381479740162  0.4148270704954624  0.1537793458742028
  0.6690257100568618  0.8409271262971713  0.1566108444702430
  0.6600071198035486  0.7540582321638515  0.2345523489671229
  0.7531951515681362  0.5894146621975589  0.8333557514030825
  0.6653065966926822  0.4987586893755270  0.8395995963969086
  0.7523124340622208  0.5796948372014666  0.6807809150804290
  0.6710850086151302  0.5673256407443320  0.5989282016925683
  0.6780838917197789  0.4990400653801754  0.5048805442838450
  0.6792304935203096  0.4849530099067291  0.3278723125626483
  0.4767272161553526  0.9188403935253178  0.4063641586326853
  0.4166358991561063  0.4968014358393891  0.0874753052283244
  0.4162448394272045  0.4162265621880180  0.1647015759658579
  0.4115901056176734  0.4149013605157487  0.6722445948137943
  0.4089802115653193  0.4087250874821482  0.5160966867970013
  0.3203784268321319  0.3334804611924171  0.6699495556228992
  0.2433778924597007  0.3332154954669416  0.5852630111887273
  0.4945709246301496  0.9071075266726936  0.5905229278649474
  0.0850753404665874  0.3342014872161583  0.5877020544150424
  0.0855096558223283  0.4177834735185321  0.6732541804963110
  0.8479585453122721  0.3328860004481281  0.5016633759675272
  0.0066070301322066  0.5013999218262947  0.3306397055566996
  0.0814288358778053  0.7506712738038596  0.0014265629719020
  0.1654889030111110  0.2521358755107473  0.0800780009060555
  0.2463878180635359  0.5833257727427686  0.6750627037322037
  0.0016659339683995  0.2532083391237281  0.2448570180542596
  0.0015563403387362  0.5840581670004394  0.0803156876152437
  0.0834403931960667  0.5010076482161239  0.0800538822315058
  0.0811672749389608  0.0003676351995928  0.7563943111827014
  0.0033445776744208  0.5838471212191437  0.9163769167268851
  0.2456200995344555  0.1621526912085698  0.5834871493417624
  0.9988157416633667  0.9214323960941047  0.7553828628827015
  0.9839505622118572  0.7714479361645492  0.4157991877287878
  0.2424581873520156  0.1613368499363793  0.4143164028402573
  0.1599985263468698  0.3364590530248214  0.6707736463549272
  0.2386050103222861  0.7516705520528044  0.5051050234584112
  0.2473933479794411  0.6688151501648748  0.0835262791509564
  0.0008373838281008  0.7514691140122852  0.0802875701006844
  0.2403050458785163  0.4936967713675849  0.2473563747147639
  0.0828419461229775  0.1705749246945864  0.4154170646067874
  0.8343822331703354  0.1649576691481327  0.1616912026515032
  0.8341190404191270  0.8366592770903906  0.1611860174445479
  0.0860560790213712  0.4159398040382642  0.8388604711518191
  0.8353551665362744  0.7542223021008281  0.0834876056528462
  0.0881467409653176  0.8342698592535636  0.4127973606712188
  0.9993938266290606  0.9187203384266838  0.2402377470714674
  0.0848019896279009  0.3337235793786955  0.9196479958364870
  0.2447666854499667  0.1691430377543125  0.2471549150973865
  0.0825913629506114  0.7532433761125480  0.8370798885401666
  0.1664685706249394  0.2524355758179244  0.2463306904248781
  0.9995651204853884  0.9178281568705584  0.0821802697027966
  0.1643338452805604  0.5819598541420542  0.2459612158811535
  0.0855187006107502  0.4992504122066073  0.2478623706504279
  0.0036625994539231  0.5834485615318999  0.2491687551538806
  0.0816865094736061  0.7493003637792138  0.1617046051826743
  0.1635460388294125  0.0830719414672407  0.9211237657263596
  0.0813813042858210  0.0043294320350610  0.5916753716383770
  0.3281764811886076  0.4125680190717705  0.4225637845291689
  0.3282808596781078  0.3328331810594583  0.1617665019697858
  0.9181458406887147  0.8368304532646508  0.9182404222127915
  0.7542496211694784  0.5798802718578310  0.1580970644403884
  0.0082858905965450  0.3358450332356642  0.6731143729069966
  0.0050536845444292  0.4966668267532660  0.6754830197534442
  0.3277897159726559  0.4995394151385077  0.6726468316515605
  0.2486446542756908  0.5022887550650554  0.9173503920740494
  0.0828100395426744  0.0862399306090684  0.1593862067871633
  0.1681425930816089  0.7494226048349698  0.4130194254693053
  0.9207574941053679  0.6678775835831490  0.2455122369337055
  0.0149610347924840  0.0878234781637531  0.4166271028701423
  0.1653313453345107  0.0848647327078016  0.0816617345212757
  0.9994575927381162  0.1673294639848583  0.0007781663635643
  0.1678673410122821  0.3335574454683518  0.9988959908506162
  0.1669215324741206  0.6651199375101505  0.6746416607548655
  0.6797704458597442  0.6643726210225308  0.3070236843378265
  0.6711276315361780  0.7539646975274579  0.0739913697499356
  0.0042058576301359  0.4195524179660781  0.4166176358586383
  0.0011076326779496  0.3322699870413073  0.5025191709344980
  0.1627098463393487  0.1646794941055469  0.6714874378619191
  0.2484878737607778  0.5840988272968266  0.8371080922540375
  0.9997940691498044  0.0837528277377938  0.7565751867265764
  0.9160042998824722  0.2459781528413836  0.5023581382611091
  0.0006673600601658  0.1659455146418786  0.8389661548096534
  0.1640837617782993  0.7498415523912954  0.2425123347892198
  0.1638562883456042  0.9170920484048416  0.9196243660237414
  0.1636818062996884  0.4140601042174685  0.4200687619916177
  0.8342876920120763  0.1664520840073332  0.8383313469833323
  0.9188671698596268  0.7531014920036933  0.6716312683370618
  0.9202010901187900  0.2508114293004655  0.9964408053325011
  0.0882462866722750  0.6678097467402762  0.7555854176266154
  0.9199124906911658  0.0025645958038592  0.2399053329905133
  0.8402448565325505  0.0842158316032183  0.2409068267692178
  0.7443262543009347  0.8348053881354099  0.2385227943204651
  0.8440964496202176  0.1022177139575198  0.5978829156145102
  0.0823309270537505  0.8338063346240275  0.0816407137802148
  0.8389884408885833  0.9797548346094078  0.4747309193138787
  0.7521142468154275  0.8378457408424865  0.0789591282002422
  0.0806975868179766  0.8346234205678914  0.2418964478624356
  0.7500245869451772  0.9195045093409150  0.9986248631795637
  0.6677840385387149  0.9221234737171893  0.3965494930160601
  0.6623092724365650  0.9268372792692130  0.2381828020352743
  0.0038463805772200  0.6711232834584165  0.3376781652228489
  0.9807210467364377  0.7457646503660856  0.5656789846248181
  0.0847796930035787  0.7537090624910299  0.5027021592367320
  0.9155661263408736  0.0829640651956426  0.8379673602357736
  0.9162145946193274  0.9223904422913517  0.6712568521171401
  0.0021698611331542  0.6700455564390198  0.8352974689421746
  0.5820299594031306  0.9191532651754375  0.9980450165108598
  0.0016008645886608  0.7534873298271911  0.9180006235366356
  0.8373222644943866  0.0877202901564464  0.4144238985536405
  0.8513422476279991  0.2582976141850442  0.2543909644050774
  0.6611021213961630  0.9158766749653291  0.7563943293500941
  0.8248926133596363  0.8275997432974026  0.3147603045693265
  0.8419551280112099  0.2534067968377560  0.0754127597573897
  0.7407791964896665  0.9188994842400215  0.3120292526286613
  0.1617451533381766  0.7492672821069432  0.5933345373048302
  0.1041750248279169  0.6470135849964753  0.4179772889244007
  0.0830500872865066  0.6663681795782133  0.2472478909901263
  0.8317055798517022  0.0006356825091958  0.8355992201154526
  0.8345338546758377  0.0017958468094849  0.1612901115584769
  0.6739948500602398  0.8340057064065769  0.4993109306990568
  0.6719721692527574  0.4090579455194109  0.2393699873508329
  0.6662857560464573  0.3323023808907497  0.8414686583711457
  0.7481208506220898  0.4168248390841439  0.6718462192839646
  0.7527512385315973  0.3345549372288751  0.7622506591894112
  0.6668792021134017  0.4136555416429815  0.7618422702371047
  0.6726249047005901  0.3317019714776994  0.6815445657736012
  0.9993819845704666  0.9188553767777787  0.9191534591852611
  0.7667966378280295  0.3324627838234916  0.5879950306215707
  0.0822395048585993  0.8351776094339515  0.9192567875546754
  0.6177775220423068  0.3391387856441440  0.5001235596918272
  0.1646949768074340  0.9208908859507762  0.7570864187341454
  0.7656321069010558  0.3342580919823097  0.4204059419058740
  0.0008679684855740  0.7494398861796771  0.2442505583409661
  0.6784259831699427  0.4137122262060878  0.4279741766839334
  0.6655470388702971  0.9171977209314555  0.9170054990600157
  0.6832334957681414  0.3500132830708478  0.3354729627840516
  0.9154275693968461  0.0011547909510119  0.9188996690108078
  0.7530340722617245  0.4934249543880697  0.2376150193666077
  0.7631119595931253  0.3371539750494346  0.2406539861324646
  0.8343330340457180  0.0024999017919620  0.6718537034267356
  0.8346200149769973  0.0845541119979566  0.0803955004415870
  0.9170369167621062  0.0841890058771912  0.9997787981923866
  0.8336953800107948  0.0014391665462490  0.9988910680044673
  0.0829318816201964  0.7521947902203232  0.3240408990878885
  0.0007326623316255  0.0873821688749144  0.2408513632985219
  0.7497703317533992  0.8376267345307230  0.9176650648891195
  0.2458714276741885  0.0837899436213505  0.9991650833272195
  0.7486116367700657  0.6702506283093272  0.9164728167132851
  0.6735925445791376  0.5742236593697816  0.2363586659142802
  0.6536583824736144  0.7485336717074241  0.5930464090331365
  0.7670381579382426  0.6506487333209713  0.4040107672423924
  0.8308704390461843  0.7516070347198162  0.2358607413454727
  0.7538387036668139  0.7529986906082994  0.9989963313724665
  0.0002657905940167  0.8338211661753796  0.3225938776698279
  0.9870583551166029  0.9012112705145338  0.4145466952179699
  0.0001645048796972  0.8353953642399583  0.0001182008681684
  0.7521144034307753  0.3332734410963415  0.9239329655567468
  0.1643843091027918  0.0006705958389062  0.1602951969041464
  0.6599290582761237  0.8291024155512251  0.6790517286460215
  0.9982810503118278  0.8382357004205894  0.6785334184827242
  0.6700486811592836  0.1671830761603532  0.8406872531456935
  0.6676778259728634  0.2503966940201834  0.7597008649473433
  0.7536025791102506  0.0889149552768909  0.6711539838878514
  0.7500321220506686  0.4164103728485317  0.8427682208622961
  0.6763762025308195  0.4200880945313193  0.0609393776670976
  0.8353309912129302  0.1667986343299747  0.9997389384261992
  0.6668896084516739  0.1668162507305208  0.1590175635791659
  0.6666545596326243  0.3268391667150742  0.0009753720667721
  0.6653509749972574  0.6709978983504801  0.8371907081693618
  0.7675822103807668  0.3460762926058776  0.0589411899585785
  0.0002740951903466  0.8372857726033026  0.8387035497445481
  0.6669696883731949  0.2496980688002521  0.9195798723425647
  0.7080055798147288  0.6923402971412971  0.4978940146058499
  0.0819923894701633  0.8392605770207572  0.7591892831626289
  0.6641570104760043  0.6630580196307199  0.6724540683403486
  0.0005526443776858  0.0022185573898414  0.1603648952171137
  0.7537807839075652  0.2561504730102532  0.6804857932269179
  0.6642330202999640  0.2409285898832451  0.4730512179102304
  0.7530667618288224  0.5067392186265905  0.9130455573118287
  0.7350151409588693  0.9323921287760188  0.4928607385618000
  0.0823602610487645  0.1694116583300809  0.0809806947975471
  0.0876415431983749  0.6562060991465480  0.5813545231318379
  0.9202050075840824  0.2542079591301385  0.1623309428032935
  0.0102562105491579  0.6751829265779862  0.4602313063956623
  0.0830500294106448  0.5847017110176369  0.9990369498997859
  0.8290081992765120  0.8704664637165810  0.4775030345584377
  0.0818826308479644  0.9177997147161983  0.0005126742387413
  0.9191827758604325  0.0865050069371076  0.1600106380236051
  0.6448199388517496  0.7662335183785474  0.4118491965192255
  0.0859414194127299  0.7570473461458868  0.6831310672406167
  0.7487177168866312  0.7539086079540224  0.1579222007119349
  0.2451318102601217  0.6668860570167924  0.5912731834996908
  0.9213522808233980  0.1695256825020114  0.2431778694272601
  0.9199702211630947  0.0837730064484148  0.6747090745760940
  0.6722021518650889  0.6704594735353687  0.9978696457288472
  0.6687242551578148  0.5856805998211077  0.0792407863480281
  0.0630878855562444  0.8307407237702115  0.5911710636286467
  0.0824421985987355  0.3338022283426014  0.4176772235315673
  0.7599328717873082  0.5801684344872661  0.5039790712021893
  0.7573788197572778  0.5001447543859576  0.4169585301802968
  0.6669034177780969  0.5860653432367771  0.7615374385278385
  0.7596256822789210  0.4977838566224370  0.5898064595318604
  0.7445334422923336  0.5729587548926708  0.3220083673617603
  0.6720919547063019  0.5002643680898953  0.6902040926244459
  0.9177101524579926  0.1666389656573717  0.9185906030006739
  0.7537501163992654  0.4991635316642494  0.7629560375682216
  0.8336468038582447  0.8355792824197320  0.6705080916827145
  0.7511262673131158  0.6676832351907053  0.0827453258940237
  0.0028708660184377  0.4179576227937384  0.9173918962376629
  0.0824064958851972  0.6695571473442532  0.9179315097622343
  0.8353895380490538  0.8365955750953830  0.0006051381964255
  0.8335535836508445  0.9182917486434836  0.7533017228486378
  0.8331428100144757  0.9179362345499071  0.9173394917233594
  0.8333217690833433  0.8373190246399441  0.8348616868561710
  0.9991797304668530  0.8365183982630972  0.5028131802822545
  0.7603475332579752  0.4282336196239241  0.9895987545958815
  0.0045256831534713  0.4161548844397162  0.7571760903216374
  0.8320031915251322  0.9187897399852194  0.5883301093545517
  0.1640794949686817  0.3341999709752277  0.1623288680205527
  0.0028961728735289  0.4204134596120119  0.0793613333861947
  0.0020963561011471  0.3353644150883771  0.9980156006716625
  0.8335336502936036  0.7610774524234299  0.9170801428807701
  0.9234039972559708  0.8366425396618491  0.5938493011571003
  0.3281863446385654  0.9956999784148416  0.3258874372744356
  0.7777630696111517  0.7791396802134574  0.4984631917006602
  0.3278041842483269  0.9998244836008684  0.1596769080161551
  0.8357517620685929  0.6726192664752743  0.8317372989247598
  0.2440025087992468  0.0810034378602881  0.8411904236031080
  0.9262209355938386  0.6696711342751617  0.9170398568714221
  0.0028715198700760  0.3357966382033177  0.1624245736577485
  0.0043059233218700  0.3339898773194449  0.8384000235791484
  0.9241695649933904  0.9166671336841512  0.5149877697148078
  0.6729567267790033  0.5853090657653286  0.4161211885668872
  0.7541179359161833  0.6532985887820845  0.5959352311776375
  0.0827123788959202  0.4159320352292756  0.5028389827993767
  0.8360880292294143  0.3341706673763556  0.8422263906258736
  0.9219044044169016  0.4177522338745903  0.8367363348161632
  0.9176079953603624  0.8352817339221187  0.0808473142833807
  0.8406805339995193  0.5057740969564122  0.9963358090455050
  0.8332421266151099  0.9200982777135547  0.2449019202152754
  0.0875831888874179  0.5823318624369610  0.3302645539332482
  0.0795016008741198  0.9187047935288165  0.3241859721632232
  0.8366060067199474  0.5841351168873578  0.9160329344294299
  0.8247520345936111  0.9158945863216574  0.3776398208201768