 B Cr Ni 
 1.0000000000000000
    21.1200000000000010    0.0000000000000000    0.0000000000000000
     0.0000000000000000   21.1200000000000010    0.0000000000000000
     0.0000000000000000    0.0000000000000000   21.1200000000000010
 B   Cr  Ni 
  69 259 605
Direct
  0.4939840305218196  0.2588056768696668  0.8027034402171227
  0.5966424419787034  0.3942834807153889  0.4168433612342149
  0.7376987551887917  0.7643791779913293  0.4251901906983264
  0.8488922924050790  0.6724163625281240  0.4046823338519237
  0.2599451400648639  0.6840175803605796  0.0091796133912882
  0.1467446972987826  0.7735618870700460  0.3463206127212139
  0.5161497030460400  0.5824575287429128  0.0146401324279708
  0.5853507113678174  0.6773527524062135  0.1822109447082437
  0.5184587330329403  0.9111478878364574  0.5059291834160484
  0.3458358201600588  0.2546300049665147  0.8139906218605184
  0.6559386652069319  0.3385165205701561  0.3871098092883801
  0.7006363558348774  0.1760435462387069  0.5349278804444080
  0.6841391657304856  0.3269144782674230  0.1005511982330882
  0.9165810159145239  0.6061340729480271  0.9134338445980589
  0.5000428932666100  0.5856984459327108  0.6472067579378288
  0.6581882042173094  0.0117066322356792  0.5812693956920569
  0.0055769855112125  0.8448785281937843  0.2683908889753666
  0.7032533442106201  0.6392214045119851  0.5061338987729700
  0.4399552410731501  0.1645484048664057  0.6849415038244969
  0.7345781191152664  0.3502022781409446  0.9971452322983893
  0.3209669128621467  0.8945930193614730  0.5175925168757717
  0.7215308509253402  0.3203192378724258  0.5079418843866460
  0.9926686963217028  0.2446623930575203  0.4980230199155397
  0.8491312833265986  0.8391367465963760  0.5501250840854315
  0.7630627842070717  0.0946875774518322  0.2658193673572039
  0.6942680061510353  0.4687624507393953  0.6004765635227297
  0.0866096951907402  0.4088294364452546  0.7429187947538334
  0.5201887474336401  0.7204657762232163  0.4837750165645274
  0.8450548169353873  0.6694866778745842  0.9153309929966775
  0.8437602036138235  0.1722271089286333  0.5506322084988969
  0.5095194412047139  0.6789921611419056  0.9076451730905838
  0.6034775181710368  0.0735939109552977  0.4114555185113844
  0.6690604831456439  0.6676880712113963  0.5759599325482099
  0.8438982093779693  0.1723309785492615  0.4622721608639069
  0.7281607701978795  0.1580126420393445  0.3104183238600569
  0.5184781138328763  0.5642486609212022  0.3144971616489090
  0.0013759244873005  0.5962363458913668  0.4949448481837539
  0.4124799717079501  0.7616098596226488  0.5642671632002599
  0.5830850109597415  0.0862414378249070  0.7070366546656810
  0.4875386242311421  0.7383564122927085  0.8476876391824218
  0.2467852158057722  0.5776359767333651  0.0971113258155456
  0.7455408930461630  0.0647312481537664  0.4454123457502006
  0.5032036181695280  0.2577542426314541  0.3376898353206444
  0.4158273890442197  0.5916342094545937  0.9188172181620328
  0.1697046423638629  0.8354886622446701  0.9246739597990510
  0.8317636676736564  0.0049187816578644  0.9164826115159632
  0.4294087254510389  0.4176683475789906  0.4005306831980639
  0.3964227394479808  0.6440219762984855  0.3123271812245977
  0.6518178012953681  0.8310435431498934  0.5533866068888353
  0.4863609254834076  0.6652733101267724  0.4276111681837337
  0.2543640774133449  0.1744230312272161  0.6766937960559006
  0.9810490203516398  0.9852759431485176  0.4082282281230536
  0.9121604745469140  0.0021381063467659  0.3662481106846934
  0.0786816202790278  0.8111464934766112  0.3121315018258305
  0.8851250471290804  0.7374459641390130  0.4359796660052974
  0.4358501578287451  0.5844704484239917  0.5839219900277921
  0.0844387539757962  0.5053159549321408  0.8345416336420779
  0.2701278366188457  0.8395116678437554  0.4871080648018844
  0.3423132756493232  0.3170361370554711  0.7555056506365759
  0.6610970235116311  0.3919485359992639  0.1494681849835277
  0.0810097441725828  0.7476874196813311  0.5855150585596045
  0.9175486272885878  0.9291747026708639  0.4204383884785302
  0.5936432190056963  0.4295482199363221  0.1095581798969377
  0.9861910071155935  0.7461921698965999  0.8472461076683540
  0.6595889222460282  0.4214647416363032  0.6590800497486763
  0.4029090145118495  0.1114696657545358  0.7413833883265790
  0.4954597284422567  0.5015688742426262  0.2631895522268794
  0.3473472476217085  0.5068166024466182  0.2558529572909393
  0.7332220548877249  0.2630012058149951  0.2376943439830034
  0.7251256194015319  0.7494114643740216  0.3180194748413590
  0.7499497715455947  0.7528383558936691  0.1656557773125470
  0.7482065703693157  0.7548184400530048  0.8341509136160362
  0.6736862852389013  0.5840398444214631  0.9065444053643836
  0.7483077578237185  0.0018811851966803  0.0823927820797414
  0.2473112365855523  0.6683000621649842  0.9132526432252924
  0.6694561764336905  0.7564855785433595  0.9164561051880676
  0.7399833201098098  0.7541572814648576  0.6617508738339344
  0.7483031625548152  0.6694036557315478  0.7501068717996875
  0.5722425403863755  0.7494281724047290  0.6786815320479426
  0.6111621329186081  0.6698109063441466  0.4995965945521065
  0.7549736003068217  0.5009835663235297  0.2448817019755263
  0.6649781394337718  0.8377176186794307  0.1632354021068280
  0.4096521100368894  0.4042228789759952  0.1569467051324313
  0.7523536640672092  0.5878300207908416  0.8286083186167360
  0.6655301102998239  0.4978613370896088  0.8362103183001744
  0.7553099372993483  0.5848638804542901  0.6757716705329625
  0.6688250646001836  0.5701710717656294  0.5833935396051400
  0.6756346304344372  0.4955754186838497  0.5049551498601418
  0.6817618392613385  0.4933280213043455  0.3316531871782907
  0.4091726793284614  0.4107729099921381  0.6706258206784549
  0.4055201071034022  0.4137100290988832  0.5014220218041469
  0.3210336931085622  0.3324464720042684  0.6620628386571963
  0.2410041254167228  0.3344917338350921  0.5816895457251452
  0.2452893341775500  0.3330872097809347  0.7520540987484765
  0.3348795905794232  0.5012795696572750  0.0028001160954244
  0.2494603323874734  0.6673489600210044  0.7538363482994854
  0.4895175627014269  0.9081439077843497  0.4090864069250900
  0.4119539314942828  0.4983863654504649  0.0926500871862914
  0.7529441880559467  0.5848901180146937  0.9976198838003077
  0.7553593788630785  0.4135786966404239  0.3287335643964175
  0.7519743424067333  0.1764661422504187  0.4093746275641493
  0.4804618752383816  0.8196577074810200  0.5040741017426091
  0.9199441740576452  0.5030384536732483  0.9146499360618126
  0.8385622510690939  0.4977104775277770  0.6747521487954566
  0.9159875254220465  0.4948976288003708  0.4136616398393516
  0.9215735863222885  0.5032850453442171  0.2486321849869458
  0.9242132869861005  0.5050040940930988  0.0821188819557412
  0.9172253780208939  0.7342087016131242  0.3368194060880803
  0.6637734108893929  0.9162238370199801  0.6006398881583097
  0.6610874304211574  0.8361305491515898  0.3227565480217354
  0.7492494003035656  0.9216556408298624  0.1645407141203783
  0.6759070970067458  0.5072410554298493  0.9925540742515913
  0.6709915739219912  0.4132755799389454  0.9314945305733313
  0.7551386202263903  0.4179260295824926  0.5103608118107091
  0.6671950287004018  0.3836750590795843  0.5687970321329118
  0.0821530252620481  0.3323528941761519  0.5819204104799439
  0.6580856138324968  0.1619541573850516  0.6674806584213587
  0.6728677006626190  0.2604614329205321  0.5838381632645014
  0.6600586091727907  0.4955397208216428  0.1565135231650992
  0.7780495190811446  0.2407311795128622  0.5062787513207054
  0.6529004014278919  0.3031014451774391  0.1903912696162260
  0.6646523432794909  0.0855172827906120  0.9177099219241696
  0.6697416152417331  0.0872568086466194  0.7587027114134758
  0.6639257541614543  0.0081094857137926  0.4822661647463065
  0.6504180156474965  0.0068400522497237  0.3332870255626195
  0.6631617981059539  0.0879643493868617  0.2514144232406568
  0.6645800833792570  0.0843913941462100  0.0802299094333266
  0.4958964714947856  0.8388441420432990  0.8357906192145949
  0.4116176253849150  0.8406626495677987  0.7492356225302056
  0.7503008894308572  0.2520600229406428  0.8353526665170158
  0.7693350943154558  0.4349221265668245  0.9941866021059679
  0.9978355659537843  0.4180859866867249  0.5833382006976600
  0.9999688534841087  0.7532333557603054  0.0819760747521343
  0.0017411739512751  0.4954199228145790  0.3281027757763190
  0.1616104877769698  0.0833727678169620  0.9213193424147095
  0.0825472698263608  0.0033234702897990  0.5875015985826481
  0.4852423977635136  0.9226396592059493  0.5982629904648307
  0.8330661547157022  0.3343274463924535  0.5006671117627525
  0.3273721895100605  0.4167519730591150  0.4164478192798012
  0.3243285280228128  0.3293190623698575  0.1626430105508096
  0.9172522843080452  0.8341048651227628  0.9168135388288534
  0.7525945862579477  0.5795981713862806  0.1643974414754128
  0.0070938655411124  0.3331253847548306  0.6686144808138021
  0.9994418410510963  0.5000189905725354  0.6670320112641225
  0.1596617859722760  0.9996322094196366  0.3272733791261282
  0.2420493639166975  0.7567993060503030  0.3290875649248772
  0.9174651152744951  0.6679143552947245  0.2473351484413869
  0.0833530200177819  0.0879257499200215  0.3309303286196626
  0.1660507369141040  0.0873796046316243  0.0781281861766349
  0.3335106103377695  0.4157071494971814  0.7515198806378269
  0.2455616895632512  0.4140611066320974  0.9975527941731429
  0.9976661137203825  0.0878684736049350  0.9172932145121225
  0.1722769549320410  0.6645539926192394  0.6735500812240217
  0.6735315222347550  0.6605419445704515  0.3310556957075199
  0.6721763904978020  0.7543135641884235  0.0831620886455433
  0.1637000153506114  0.0041860230775231  0.0007086379782107
  0.0824417880614465  0.4169017168432231  0.5016535313790094
  0.1627355654003307  0.4132052205677399  0.4178847073229846
  0.0004914799820594  0.3393198903081380  0.5015244024950871
  0.2487112405488820  0.5839046241963867  0.8347905148621629
  0.0009666484926460  0.3347072121823398  0.3306628371713448
  0.9985606509445561  0.1673912443611299  0.8370055753123815
  0.1567193609578584  0.7581167446417234  0.2478746383228610
  0.2445481883633928  0.5030868043478659  0.2524459667914236
  0.6549276917153349  0.7435245500997466  0.2365022207618448
  0.8412337058225151  0.1758903513009541  0.1511079363785844
  0.1648877905856760  0.5011920473666936  0.3338333913137252
  0.0853696454891552  0.7540716754369617  0.0082903071933591
  0.1646143530445632  0.3333842606358731  0.1634232194867344
  0.2501214270681102  0.5814279094013599  0.6712513822713528
  0.0863326761553781  0.3336173465164029  0.2454286832205019
  0.0022606894790902  0.5861069926593598  0.0835812403120682
  0.0001941315354935  0.4200685774425100  0.0805051317050238
  0.0840949451384820  0.9213121563528102  0.6732057145524172
  0.1670920211744259  0.5870784307611574  0.9172443654765824
  0.2426490604903863  0.1622513671414210  0.5795230328135438
  0.9993746941676406  0.9203909138547456  0.7549699753580198
  0.9882813244101196  0.7496612109372807  0.4367305290949427
  0.2436080880187773  0.1642441752140941  0.4156887190332393
  0.0829652784227711  0.2494936647515009  0.6676114631540491
  0.2473264041341965  0.7465103726805584  0.5024197122283771
  0.0005559437633607  0.9330489018393356  0.2317009475960873
  0.0838914294509051  0.4103142211820015  0.8413228883435118
  0.8335585916259829  0.7542487416268586  0.0863451784877866
  0.0961465247760783  0.8321582068500654  0.4142686560177349
  0.0646765923107946  0.9147685498045824  0.3262841706876099
  0.0832698187412591  0.3334387437406969  0.9186887351716202
  0.2483699246963830  0.1656906647832631  0.2475180765417890
  0.0835862032113110  0.7503364006282669  0.8327596374544205
  0.1640466224253697  0.2495466657201960  0.2481765142924680
  0.0803171533487159  0.7521541689405162  0.1625129723848990
  0.1667849769192586  0.4167110205049908  0.9178560635765380
  0.0860878393844223  0.4995286389070145  0.2495881302588932
  0.0013352932584881  0.5811837334273326  0.2501867292270085
  0.2470987208179813  0.5847670366012487  0.9960033530809076
  0.9971602034529277  0.9225495081523015  0.0846646473473497
  0.0793210380515591  0.1622877768294795  0.4125167230596865
  0.5021495239074414  0.4976440445703378  0.8341763778751347
  0.2470952692463212  0.2471667641685814  0.8364418523414761
  0.9191040896586200  0.7600319851914401  0.5214159181051794
  0.5975296098764635  0.4795393701027604  0.6012667623554022
  0.4799062839502186  0.4846713772393914  0.4764448076583482
  0.5863468999178716  0.5143274109943911  0.0670547945975875
  0.4984560898406704  0.4164168611973076  0.7601354058977861
  0.4708638995868101  0.3460847604429856  0.3346430237265610
  0.5646948807074287  0.3079603696096853  0.2679561736214933
  0.5814779035056198  0.4198754617591196  0.0038672662664395
  0.5824246487734883  0.3302349827958159  0.0950476029532574
  0.4124461578114418  0.3305166161697908  0.0794014859180474
  0.5808127820772496  0.4937531864073546  0.7549821607207833
  0.3259818127434951  0.8323394493696559  0.3278125550399862
  0.3271913279964804  0.0826683291024618  0.2478998958958746
  0.3281843226584800  0.6667555527939555  0.6723788112020040
  0.1657975761077797  0.8334893124948503  0.5015616331284363
  0.4960743760027685  0.7603641743006203  0.0750458028331581
  0.3283490375055508  0.0028238267942373  0.8358893254318757
  0.4150945686808038  0.0083947623296356  0.7582769285327787
  0.4120770639549906  0.9339444943470468  0.6780389208869609
  0.4039550867999742  0.9920439724225729  0.4144086104278078
  0.5789939821497577  0.8372847834423759  0.2420023035891105
  0.4120107264824240  0.0830173225564687  0.9998725529008539
  0.4108354176220352  0.0018976028177261  0.0803649637666609
  0.4120207899463443  0.1649387350968122  0.0796460240970935
  0.3316773527083727  0.9238352088890094  0.9148823274227559
  0.0796783660481687  0.9211858815114068  0.8349751152828943
  0.1675374456242733  0.8387407426177665  0.6715846577578983
  0.1576185605024269  0.9252557455670023  0.4122535475709551
  0.3279416835585715  0.1666135669522550  0.1632791779703596
  0.4143000352645734  0.0875387842298299  0.8381005332041734
  0.5927736875613140  0.2474598806063620  0.6559074405734932
  0.3196506348471147  0.4134786028468570  0.2384767590245723
  0.5092609563763407  0.7434202603973910  0.2421467277197501
  0.9979041819213089  0.0854851013885129  0.7552252521215137
  0.5698637906827448  0.9753915039066275  0.5681943590303544
  0.4901342106636386  0.0737169901285622  0.5755258447871351
  0.4079005508002926  0.0784245108558482  0.3353530064002676
  0.5735275937288394  0.2404752995712799  0.1691957490913720
  0.4973834086907477  0.0059597288193826  0.8359719763604344
  0.4894587818689000  0.2404965433044176  0.5915274139843053
  0.5770570279294183  0.0794688888404327  0.1622925852687022
  0.4855767758899474  0.2431811889322080  0.2440894011735998
  0.5812890228238189  0.0869929672867411  0.8376536358014870
  0.5815790134237183  0.0029027584107604  0.9152949815877850
  0.7459639705104715  0.0855615731263336  0.6769500707596106
  0.4964474534035820  0.9207426132454635  0.0828938809501208
  0.4867642191344570  0.0789503736136108  0.4155716419382704
  0.1608509340890220  0.0794414490183177  0.4145069542070960
  0.4969840383746608  0.0016744662736824  0.0005100989659282
  0.3264961587350524  0.9250404028338547  0.7528815124560777
  0.5986922498103765  0.1722939123752688  0.5585494486601824
  0.3270495952046497  0.8402220256416323  0.6771193477537784
  0.5110712910543262  0.0105242604954260  0.6677782867012148
  0.4119309859433953  0.1617884196052171  0.5834530020271309
  0.0015741186218132  0.1716177266790375  0.1591953348894967
  0.0813478182802871  0.9297374925094121  0.1552675055501144
  0.9155092347928991  0.0930302123595421  0.3218775314216657
  0.0020945278419017  0.6659305073590459  0.6706394481426329
  0.1660624794547050  0.4171011768727878  0.2497402629602787
  0.2435923999687634  0.4168012708263014  0.1635777460609423
  0.1645895093405619  0.3327824204842031  0.0004569025269849
  0.2465760284687609  0.3308859193671325  0.0806575074681931
  0.4920140826186798  0.6793283499332692  0.1501920973145202
  0.2264113184262663  0.8320034828556728  0.4020929492532711
  0.2443092818500461  0.9986533102196147  0.4125232908960123
  0.2502846832102278  0.7528043599500897  0.8350066533723590
  0.9200083311183105  0.1688250333736345  0.7557401016725368
  0.8394435665619842  0.1677599329656638  0.6836362839779210
  0.8310741135324247  0.1606018257666237  0.3233106366877542
  0.9999161724938966  0.2543217154661802  0.0791322794852512
  0.7505264470893549  0.2512853176253684  0.0039521211718139
  0.8303510071913512  0.0860547397788236  0.7511210880614417
  0.9136995865738151  0.0046335617687926  0.5835282587057137
  0.8264494932650762  0.9069433702036382  0.4739432087138190
  0.8314126274892638  0.0261628028333253  0.3133869125010593
  0.9159584540774415  0.0047564918560467  0.0813962595778269
  0.7455615298297342  0.9164226711822275  0.8351405656161472
  0.6645714183691208  0.8340971362531365  0.8350154726837311
  0.7452908486466207  0.9163422304112394  0.6711042956164561
  0.6601784181546623  0.8334257612634751  0.6691803333365108
  0.1619591842629398  0.8616997672728232  0.3155421632282055
  0.9187800503704651  0.4173078492599474  0.3326571968527472
  0.9401397155772037  0.6569244529471280  0.4326469438579669
  0.8393022094268195  0.3395734907957998  0.9924332562642642
  0.9191153814096109  0.4141285997619098  0.5002343558076666
  0.8366396038226201  0.3385934495078021  0.6780417341495446
  0.8352787234839911  0.4166237220475820  0.7539266133189819
  0.9175573605464378  0.3356088331807089  0.9154380337937323
  0.9160882974725526  0.9185528747710910  0.8332877969401452
  0.9179366791850118  0.9249840175520823  0.6724449237355272
  0.9144468378297886  0.8427996898829361  0.7487734779524390
  0.9427152610722921  0.9128985744358276  0.3224477177814822
  0.8966995180371206  0.8339699177401393  0.4141426495621640
  0.8426338723723207  0.8393658325140608  0.3142137694995612
  0.8412186789514103  0.6720863567282043  0.5056170303221253
  0.8330272451525355  0.1681971403524289  0.8336707375953730
  0.9160223701817709  0.6692880179885563  0.5887978311678639
  0.7473708640200564  0.8307729749876647  0.5809971745899584
  0.0014688713032078  0.7516774604425912  0.7487884623429154
  0.4035105371695353  0.2492435998953657  0.3331943583757068
  0.3233909400307396  0.1624411416001187  0.4994467291651351
  0.1607307294084526  0.0839079250091973  0.5831938253235728
  0.0031970877367993  0.1659040028414386  0.6744635033202455
  0.1620521751038672  0.4173768335135827  0.0822028996507359
  0.2476720392063913  0.1673878608900600  0.9168282987277800
  0.2493909992364410  0.9227091704683329  0.1611322663853577
  0.9168409558711527  0.7499327428870726  0.1645719211709427
  0.5825904515532320  0.6660865669609156  0.7477348414183621
  0.4955777191565221  0.8464637035254754  0.0049963868150102
  0.2447387146542285  0.5836937234012017  0.5055425918742373
  0.3984336905828510  0.5086685869061430  0.4124287511986950
  0.3116058476010617  0.5052374165178862  0.3429668674317815
  0.4096968450819530  0.9174381096176054  0.1628524103306101
  0.3179795770328992  0.5061914702138385  0.1587918002942282
  0.6689470131447659  0.8373712271148023  0.0013790046485912
  0.4107834769905773  0.6739022603193110  0.0804079227715686
  0.4939748682597954  0.8366432949659834  0.1624462109037959
  0.4153432576050736  0.9118368318923555  0.4979899031555340
  0.5871991912690723  0.2514422762026535  0.8421608419284384
  0.5068046698027533  0.7438341521134814  0.5834358327306981
  0.5773357622093027  0.0044502909132446  0.2467634314447738
  0.3233401577992824  0.9028211099101451  0.4176560832654588
  0.5852883484486707  0.7499709784827799  0.3228504444636752
  0.3233754925553852  0.7493592420232722  0.0745159041472964
  0.4063387865718779  0.6694893393697279  0.7522238406157012
  0.8392300413428180  0.3382369347349009  0.3277957141219361
  0.3254918817827209  0.1625634701566110  0.8382656303694888
  0.4130863285218980  0.4179479414652932  0.0077451395788954
  0.4117202822482804  0.8313364351459217  0.2445753998228505
  0.4139215080184415  0.1967526177493459  0.7711551812723885
  0.2348345058717906  0.9245109778748533  0.4992619795883809
  0.3241894321870629  0.0793631244425307  0.4149116794063144
  0.1650091607725233  0.6706412070605452  0.0009209418288846
  0.1676801109871166  0.5815292973321855  0.7522528837331403
  0.2442328085095219  0.6671669356436232  0.4209634761965202
  0.1688463237455415  0.4988630326196745  0.6687032763352708
  0.3096956098882130  0.2345228562938160  0.7327673455400094
  0.5267994577739508  0.1474285974085802  0.6533040415098871
  0.4020962686733101  0.2521984838935415  0.6665438136751940
  0.4025466023709193  0.2446585242641953  0.5068568205157122
  0.3415848106972416  0.1507913626452492  0.6684590853138365
  0.4792604470792486  0.1624483086065498  0.3333157468961111
  0.2481371501020082  0.8384711124845613  0.0817260629518628
  0.3212039969007567  0.2430586434135497  0.5870080129041417
  0.2480132215692316  0.0038065171368361  0.0798281665510204
  0.4050528246804896  0.0791302771171943  0.4969293504948120
  0.3261190992368644  0.4156490368671572  0.0817789420926320
  0.2467859184828430  0.7530635155123597  0.6720441353845198
  0.3254149287948174  0.0801530310858470  0.5808527233207758
  0.1612645220861325  0.7471821422668402  0.9143685362597234
  0.1590590959206353  0.8421519194025476  0.0115134236900897
  0.1654996165455070  0.9251413786477152  0.0831579154460421
  0.3255993301197996  0.0083058920302451  0.6734538275301221
  0.1679434086963461  0.8387172914328723  0.1591104409183729
  0.3195661512558893  0.0825283316187153  0.7580460156982191
  0.2393946231146878  0.6764847243904054  0.2503770610298398
  0.2488988035726605  0.5003888968573533  0.9195195635013234
  0.1649227542814606  0.7532914663611100  0.0847284433958318
  0.4188005475230596  0.0719039523203895  0.6606202447185258
  0.1638927509251967  0.9200202961718337  0.5875272656967017
  0.3302165766089036  0.0829925604629197  0.9184228590171620
  0.1673175873060948  0.7526018972079268  0.7540947556886344
  0.1729218382215794  0.4995443105598464  0.8361842877904984
  0.3288197034066838  0.0852100627899601  0.0807673979287231
  0.4039704478175908  0.1624263043756575  0.4185117762573285
  0.3315974593917613  0.4198677262702034  0.9225470344366564
  0.4161254162186718  0.4171252903182574  0.8370931911602512
  0.3330226179980943  0.5892769891184020  0.0765145516372021
  0.4027282756579135  0.3290774947887519  0.4236397928868794
  0.3226406102490216  0.3295901349786612  0.5044805771011212
  0.2391289589942641  0.4980643261854413  0.4212009532895287
  0.3302366480847190  0.5967169227619519  0.2546307890430881
  0.2439711484164284  0.5922595209050162  0.1827351812346735
  0.5793836484363921  0.9208742867271152  0.1628917224775186
  0.3299327992214053  0.1671045726078594  0.9990664286612625
  0.4156984451829046  0.0031197552226417  0.9169330647676431
  0.3247718900101762  0.2472715073892193  0.4180910331934944
  0.5026330914854735  0.3332055992864486  0.0049705074057329
  0.3258624647872675  0.1638027870581818  0.3333815285344849
  0.2486343168899064  0.4995970098105610  0.5849475678911841
  0.3251121061546535  0.9946165565866276  0.4991126919413084
  0.1694371121220920  0.5803004723136637  0.5898108518208772
  0.3287359665468967  0.2503139567000103  0.9201099475266483
  0.5016656516132019  0.7671523336829073  0.9317547840690885
  0.5801826876526560  0.7504441167099205  0.8354981206285528
  0.3297862245822024  0.2485828515469840  0.0792372874595272
  0.3292456272762090  0.3334050740034615  0.9998470493175695
  0.2459381030591364  0.0020890350467100  0.9196192780758757
  0.4906643292829146  0.7521576554091044  0.7555630503061364
  0.5965345319370133  0.6721688463413303  0.9178315485546671
  0.4084561099353854  0.0822679285196522  0.1625846487499783
  0.4133100782846008  0.1655324744102998  0.9198784543547428
  0.2495792920523798  0.9212030153666578  0.3279191002164837
  0.3306500238955182  0.5813702271115522  0.7544710170654023
  0.1666096450534905  0.6690876519314067  0.8325453263495793
  0.1658832803946756  0.6633385604473356  0.5079065092000058
  0.1631382648894150  0.7372615697234054  0.4263012869037206
  0.2472669621143072  0.9194773211867618  0.9985502900505533
  0.2460214862040876  0.8385751841480411  0.2436315062570950
  0.1649961953342073  0.9282968332998278  0.2347800520031351
  0.4217553973236929  0.2599502708106897  0.8603289681426286
  0.4084366272569954  0.9983875382233212  0.2469989193724678
  0.4146444635097479  0.2497537269268148  0.9988246842279944
  0.1633281297368983  0.5856170564357682  0.4201562252456179
  0.3572430812601551  0.8096280974714467  0.5018962957987606
  0.3267906938510530  0.9264784397644114  0.6000502771649100
  0.4057154064592899  0.8454958035999248  0.5980645711180530
  0.3255873478574100  0.4162335008834089  0.5842083266023613
  0.1658243184756119  0.4167431561703316  0.5822268962545499
  0.3258491833872367  0.6743394321322161  0.1628180879233529
  0.4113053684204592  0.7564058514748695  0.9991159364835672
  0.4121734310792342  0.9214608729729493  0.9981839175298389
  0.1628499127652344  0.3313393766013635  0.4981431448162473
  0.3285734326245396  0.9175405186481665  0.2454015371389894
  0.4093101614781418  0.8383665016445390  0.0794704328369417
  0.1584794797064860  0.3391798403451904  0.6696095019186382
  0.3276635962629569  0.8357605293721303  0.1623295692769379
  0.3294368332631809  0.9201617737893135  0.0805389303078518
  0.4103174280013271  0.7454219892085433  0.3269038868328592
  0.4083771510008255  0.9140643592554010  0.3287735716600944
  0.3241589412163110  0.7514762246492968  0.4138342944790498
  0.2455342134069607  0.4146501605400447  0.4987298381898191
  0.3978590791596513  0.4358212168966118  0.3135762603085076
  0.2511307968673263  0.4989867280522030  0.7526609706780099
  0.1617282227499346  0.1634849002222915  0.4974347985953069
  0.4080921415477852  0.2482450867496962  0.1629865704702454
  0.4905945921918550  0.4099355488232752  0.2493568550013122
  0.6665976656497923  0.2457095064924542  0.3725792425423599
  0.5808404332940776  0.3954265720504714  0.1958755565823725
  0.4075026775923773  0.9988990289066254  0.5790832429712396
  0.5690495538292440  0.3043044688566297  0.3884430799676124
  0.3295720613365401  0.0019573636296674  0.9988398758587669
  0.4816128730398844  0.3249927428630871  0.5136297856991708
  0.6630431636192023  0.7513700021535448  0.7514499923244882
  0.5712997948535280  0.3309727546585710  0.5822779720030701
  0.3268439206018972  0.2481262355724624  0.2480921581677637
  0.4899040956611062  0.3322023800172212  0.6625503308482257
  0.4045797497519873  0.1636186020834296  0.2473293520286474
  0.2391917520359507  0.5893810962184368  0.3332478513167985
  0.4033351110817258  0.3316436036513672  0.5869874085563628
  0.4129882900538988  0.8276445899337169  0.4054623966059878
  0.3237597160592693  0.7502204499347759  0.5918802862789222
  0.2521140568649344  0.8392970940328920  0.5836319023416835
  0.2455087492428236  0.9226669343860089  0.8358072416653001
  0.1582275479982427  0.6709792218947301  0.1695992886205873
  0.2398989562656660  0.7676327309077057  0.9928402595123448
  0.2397029594592112  0.6680129223757454  0.0931556620452716
  0.3293819539649536  0.3355865054417891  0.3321197224437776
  0.3289577143279681  0.7542894548438259  0.9173549071809196
  0.1656700720814395  0.4980341953615047  0.5033029952262019
  0.3298496184716307  0.8386070282996175  0.9985650620986745
  0.1602124582846598  0.6705940239499486  0.3343848444124954
  0.5782554752452069  0.8349564166241744  0.7548680647544429
  0.2456043165859583  0.8381796694197916  0.7545125363403472
  0.4057452446899724  0.3318140936402116  0.2459794641044039
  0.1642343970950717  0.8360924012177930  0.8342028335176147
  0.2443178377899490  0.7545552250301267  0.1666223635917058
  0.2563143160059076  0.8410679842373114  0.9120495504131962
  0.1630374377127490  0.9251205856815055  0.9187173457588382
  0.2428697423127344  0.9216663927352076  0.6717738707644636
  0.3332804011679842  0.3397270408804827  0.8441536382945726
  0.7591804665126887  0.1767910560896623  0.6057699759875127
  0.4246446048602338  0.7212077176257834  0.4798654896263326
  0.9038792468996164  0.7601110580386009  0.8209522122050182
  0.3276732268544338  0.7536007709969610  0.7506911369956586
  0.4221291372438918  0.4953691229143410  0.2103966731409469
  0.3311803201186369  0.6679909289664631  0.8358624246481651
  0.7539382163033811  0.5007602123609759  0.9083455194846491
  0.4114829073921731  0.7543295049135836  0.6685363659521921
  0.6739427488403890  0.5850467103075701  0.0799797700205301
  0.4025782336269663  0.7610639013278738  0.8307888317247678
  0.0051102448975210  0.8400363599575412  0.6766417572989853
  0.3270887671552217  0.7528968517602592  0.2457711094386763
  0.7586429775670599  0.6590393221611169  0.5913020090406909
  0.4090034224211684  0.7584208107685880  0.1578328818701184
  0.0851966817935150  0.9164048734978210  0.5046194587257427
  0.2471864088217557  0.4160846828979998  0.6681089939760305
  0.1733856204037642  0.4173927878983830  0.7550156417831757
  0.5839578646220875  0.3346715678195054  0.9218777322918925
  0.2464823004433924  0.2494112503400479  0.9995289075056499
  0.5784592613963453  0.2445769434765233  0.0067303780804943
  0.1637369698951281  0.3317577714190751  0.3325983976750689
  0.5767622774282894  0.1617692237419361  0.0836939265947094
  0.5057356654574680  0.2506646882636458  0.9255619536228191
  0.2427089680277390  0.0833173417914940  0.6685716393610828
  0.5807830660243219  0.0013300415815869  0.0808238915727642
  0.5813869904557555  0.0831176512953494  0.9996323165783549
  0.4847694442081250  0.0799197110776781  0.2464653080934561