 B Cr Ni 
 1.0000000000000000
    21.1200000000000010    0.0000000000000000    0.0000000000000000
     0.0000000000000000   21.1200000000000010    0.0000000000000000
     0.0000000000000000    0.0000000000000000   21.1200000000000010
 B   Cr  Ni 
  69 259 605
Direct
  0.4961899808427511  0.2590543705665961  0.8055278255817060
  0.1731354945943370  0.8339980856870119  0.9282122373519298
  0.2520117129705182  0.1757780688446085  0.6777046630320509
  0.9252097194396194  0.9372284938343131  0.4139608531371046
  0.1715725244216066  0.4176926882055895  0.4934598291207827
  0.7426784895232000  0.0658674272891724  0.4462347808062802
  0.5945691305224456  0.4277350984041827  0.1088289359020904
  0.0831826529132349  0.8115550540290682  0.3132371038007587
  0.7338394951153038  0.2612972238015873  0.2371747152385875
  0.8333097663307381  0.0046724851554214  0.9182551686848662
  0.4306148009764753  0.4189546122435628  0.4031355019012553
  0.9956485456903860  0.5782748552233816  0.5070147695836598
  0.4121479474687761  0.5922904893769472  0.9276947226422374
  0.5036759704132404  0.2579778705063227  0.3417167112034240
  0.8644484623850404  0.7519704933261361  0.4257896348765829
  0.3508887581408853  0.5005822334361554  0.2589651835553486
  0.9856626861277967  0.7450537217172764  0.8471329547568981
  0.5884918234641453  0.0858532572096227  0.7071501649626741
  0.3177145482205223  0.7400989385955853  0.9843285675341910
  0.4845614888428819  0.6677288182707084  0.4218336471354523
  0.4262586926759731  0.0120202813101318  0.6513724614918914
  0.6593146826529500  0.4229210677356414  0.6609220315523744
  0.9735674360435604  0.0730067068756032  0.5031430017824057
  0.4133025249948184  0.7563866579595757  0.5627406432278256
  0.1491243645694204  0.4952146399161508  0.5929476826717723
  0.0805869323316960  0.7473121390468999  0.5862613796514544
  0.6627216070611489  0.3902704285526761  0.1490392894903814
  0.3452032389266253  0.3220945734965903  0.7499649134821763
  0.2701235617136096  0.8411870222536052  0.4970510640826999
  0.0840707521062696  0.5053253971376277  0.8337535032254062
  0.4928532714945154  0.7390005562671162  0.8464053095022190
  0.3955026927368144  0.6377537637061460  0.3116646125278867
  0.9183160945990422  0.9986575116723243  0.3559376951524945
  0.5058291730671216  0.5090583628835350  0.2728059916442802
  0.9882506921643778  0.9901479475635140  0.4051245303106257
  0.8393204973583943  0.1766861966458515  0.4610753282310663
  0.6029445922314247  0.0740188975524995  0.4142950719729207
  0.5156213478775916  0.5793998252241795  0.0157560323970225
  0.5916601594455668  0.6729557022729062  0.1693053474572534
  0.7629068559634281  0.0926029242021913  0.2651926621203122
  0.6537393310888732  0.3397378122777872  0.3881530244098835
  0.3529124645870151  0.2564133018819935  0.8031988013589407
  0.7352256860695419  0.3479341734503801  0.9977374274625299
  0.4438630355279821  0.1839269783536407  0.6712790908376688
  0.8980932548047500  0.8494409709144537  0.5177967317193203
  0.1493749297244963  0.7706519621297271  0.3469910362188138
  0.2627315808190287  0.6863777840838459  0.0126354380553582
  0.5000909776427129  0.5834433348116528  0.6631157942779442
  0.5105022928251736  0.9084071854578689  0.5134674210994977
  0.6656250105044728  0.0002285332854692  0.5789782737086193
  0.7140731027209792  0.6503822337520462  0.5181957860076568
  0.9885308070060822  0.2492234101893885  0.4979597330927639
  0.7249112784305271  0.5682210933024473  0.4170296585380169
  0.6851805534323682  0.3242506220005554  0.1007317003471393
  0.7233951084204958  0.8222278184664064  0.3678199943814895
  0.6953367110649382  0.1741674527693237  0.5414097765933853
  0.8391159658141066  0.1760515773080000  0.5553933286721490
  0.8436555274314838  0.6706839933401274  0.9155277633749385
  0.5252466309272483  0.7237421533502718  0.4729253641534608
  0.0808311800380514  0.4042268485778314  0.7293802109326777
  0.8168779650993373  0.6909929516404524  0.3987069396231791
  0.5051737125071019  0.6747318121804800  0.9115562978727151
  0.9196845608674923  0.6045036222275938  0.9122580478725403
  0.6713420671963235  0.6837669407528875  0.5813030590081134
  0.3219255228546180  0.9369038670537752  0.6382459420407576
  0.0025077113529634  0.8420827590206390  0.2639502246336468
  0.7233815612534213  0.3254278951179710  0.5107872140679465
  0.7271698276711756  0.1576278820436982  0.3094033044953989
  0.5958919370873599  0.3942222872483831  0.4199774425696918
  0.4878696479395547  0.2408624898321768  0.5953075171353888
  0.5765965359375566  0.0779482459607947  0.1645628675022502
  0.4064665826753774  0.0792421808224327  0.3356053869527933
  0.5739724505752124  0.2397244932554164  0.1718699370086067
  0.5863268100755302  0.0860719661284340  0.8415607135240784
  0.5825190130164545  0.0019167264497249  0.9171218877436641
  0.7462996302014010  0.0829288386010750  0.6776078192795151
  0.5781938777388541  0.9229396337140249  0.1636125290226662
  0.5733535592422426  0.9730967238119690  0.5649739307625871
  0.4815677725787711  0.0649441758565486  0.5835711615053644
  0.4848501788059851  0.0774809300258519  0.4169048477691309
  0.5001867181748288  0.0032109988991117  0.8371752653016152
  0.4865521990570806  0.2429545096886395  0.2475396653784306
  0.2494482553920102  0.9229153403411274  0.1601416434377574
  0.4974392201781220  0.0029300537976717  0.9994002276110496
  0.3264440648967518  0.9238060328413553  0.7481137363335726
  0.5955129583672114  0.1684738790339693  0.5607996122772844
  0.3279239429226730  0.8371045368707907  0.6689556242803605
  0.5177278906833807  0.0144042862947870  0.6765201674024538
  0.4109658366562056  0.1587349130346525  0.5820678725260348
  0.2498883100811217  0.1676571181609382  0.9169720457893846
  0.1635383254010348  0.4195502164157295  0.0821710668418622
  0.0040220744628675  0.1677758307885146  0.6754656377196919
  0.1630284886772527  0.0829448483798034  0.5843085042352144
  0.2371366466032245  0.0013290482634600  0.4096521503864009
  0.2477376691381385  0.3320465550136345  0.0810871219354663
  0.1607609154516042  0.0847775002539285  0.4150079273678453
  0.5847660622464468  0.6675146890828721  0.7505029786140893
  0.9171782058774147  0.7499612778144553  0.1644381535964408
  0.4932852724812405  0.7511813851785997  0.2429610193013141
  0.4955790102774533  0.7577310981502933  0.0776794237688938
  0.5923882496615225  0.2469199308857241  0.6549642429941408
  0.4931483394045338  0.6784902504471356  0.1550236409401400
  0.5966576969675828  0.4909872865605270  0.5965279777520786
  0.4829128498463083  0.4886062782137232  0.4874843418956776
  0.5869024803195293  0.5124051299557378  0.0659952067129025
  0.4984075119610006  0.4169257870376328  0.7591879682390166
  0.4734704534698039  0.3471816952636750  0.3351426514055728
  0.5653899525730450  0.3087896441983378  0.2710786410337029
  0.5811446684398086  0.4170062348982840  0.0043333159064684
  0.5832636308256994  0.3282102085461482  0.0946812693607198
  0.4130142198768306  0.3311212033996510  0.0827747787589313
  0.5825238533426691  0.4957042158743030  0.7559084600665607
  0.3224405114073692  0.8321589151371580  0.3278933753923637
  0.3265238118675604  0.0837898617325102  0.2475094930440944
  0.3340879159444547  0.6657385782410415  0.6700514905058372
  0.1652119324989061  0.8267805134607330  0.5030795088436688
  0.4111116830928068  0.0021030036034382  0.0790431599191914
  0.4129023386750342  0.1642977119576710  0.0803644942954264
  0.3339754523528459  0.9220533843492705  0.9129025594900635
  0.0811444556281835  0.9206838071159864  0.8351859445689156
  0.1623048018316477  0.8342765915701665  0.6725648921802586
  0.1554020711750837  0.9197912537604851  0.4118654909077524
  0.3288418887693056  0.1670382229481257  0.1632051045478344
  0.4167417571371829  0.0875538207855891  0.8358680474738549
  0.3324193942310288  0.0040316782437518  0.8313844069584958
  0.4202317335903308  0.0074537842456800  0.7573584666300521
  0.4111947616541852  0.9214615377722614  0.6824926018112591
  0.4021509768490322  0.9922375213146117  0.4140895708791537
  0.5709613849509158  0.8414852926438248  0.2366654324709800
  0.4132339799665252  0.0814264166300218  0.9997813520205769
  0.4087692063919259  0.3333749294764969  0.2488719645929479
  0.2292627229072275  0.8289747696148441  0.4073777227834289
  0.8338622692291486  0.4160863796311833  0.7563044937122660
  0.2498139542419106  0.7509202656856978  0.8298909387729673
  0.4049373302508035  0.2484703920347434  0.3344441850413640
  0.3226039497054337  0.1631748517399442  0.4991678511526780
  0.6683571077104047  0.8367621045262054  0.0036506841344071
  0.4903482883281152  0.8365889941062616  0.1616172839181026
  0.4109922614007379  0.9092302988645955  0.4924527503690281
  0.5888271335964630  0.2509954158524103  0.8415137397673378
  0.5096719678200490  0.7459380553454209  0.5780015738553131
  0.5752641560555697  0.0039163407937713  0.2480752889979750
  0.5769852040286826  0.7537269357394861  0.3153500582147624
  0.4115274536576992  0.6671698842923081  0.7490847613167485
  0.2445952164349506  0.5855039113179298  0.5063222891927974
  0.4024041128525880  0.5115805265729589  0.4163027048556770
  0.3146437318237976  0.5058543073792018  0.3457302676874132
  0.4080244367619834  0.9184961669082986  0.1613010357933427
  0.3244257492007747  0.5008724444247307  0.1626156239115541
  0.8386203096620125  0.3370043097693052  0.3252496631784684
  0.3287792880946983  0.1675839679788482  0.8411661582970761
  0.4130131439136326  0.4158885059134543  0.0070479378325106
  0.4038367360640720  0.7453870772270039  0.3250600119753390
  0.3207273771522692  0.9011570542641283  0.4224362718139423
  0.3216770550000821  0.7482010913232644  0.0807169916725645
  0.3159852699724746  0.3356959765063907  0.6589724866744890
  0.4100257688729638  0.6715939841376323  0.0853158198457412
  0.4065111798451300  0.4152095597385322  0.5033837676898292
  0.4150017223552196  0.4937126185954818  0.7539235742032555
  0.2493866382111428  0.6658619091144736  0.7509150052165035
  0.3323549746922046  0.5023277770493153  0.0041002020351057
  0.2437969210358253  0.3332456322826237  0.7523671764958964
  0.2462151523162543  0.3312485579469626  0.5788727063923212
  0.9184747845249942  0.3352603342270314  0.9157607409998153
  0.4959426150527225  0.8416674149288800  0.0056650092192747
  0.9208011841674260  0.9202860972879349  0.6740768145398252
  0.8335434490264299  0.1678176731968966  0.8338399906643122
  0.9211235858699283  0.1694068021343662  0.7559560910960353
  0.8405546767278786  0.1685027749110683  0.6846900915742351
  0.8304791567295954  0.1619064379956036  0.3231029201905210
  0.0013041536361585  0.2537230977108506  0.0782546603001077
  0.7510015814451679  0.2494214458288892  0.0068489454464127
  0.8318569584212765  0.0848027512072649  0.7511254257783497
  0.9153071939685201  0.0101365511737302  0.5795431783096170
  0.8434189814049358  0.9297229897442140  0.4765780508710341
  0.8307887127034256  0.0244779405237030  0.3144861256692256
  0.9166657040459427  0.0031417605639735  0.0833721868336929
  0.7473674105512306  0.9166648538966045  0.8377893365749728
  0.6667278917994663  0.8349801128549027  0.8372931806252759
  0.7467830039817202  0.9158241319815004  0.6713026584873641
  0.6607885434144898  0.8375313441671506  0.6765517199543538
  0.9159329813807470  0.8392743389744237  0.7515217965180054
  0.9469464682654889  0.9108655208718606  0.3189118647177595
  0.9068440866249697  0.8392489042242076  0.4210090261649560
  0.8287242309399941  0.8193475444836716  0.3372592266952878
  0.9148890391857143  0.7490309414604204  0.6759243424295935
  0.9117471273793483  0.7505074242143901  0.5128700126192981
  0.9068638284207453  0.6669076037815970  0.5901843143780527
  0.7444724237026591  0.8378180160010918  0.5933655432463201
  0.1662149211850177  0.8586228879891418  0.3169301867855029
  0.9173780227591439  0.4171913906806965  0.3306319716424360
  0.9127207499757076  0.6630807978413046  0.4182601552091296
  0.8401876172072051  0.3377271966368792  0.9932624672017881
  0.9115286744963440  0.4109251717074113  0.5003907549199742
  0.8353025310460920  0.3393896058246064  0.6801753501193353
  0.8279958946050110  0.6798000793153581  0.4993864696207307
  0.9171971873645534  0.9176978457749729  0.8343193189393746
  0.0019060705047409  0.1716687726740351  0.1597372339237157
  0.4127501164900715  0.4119569781345581  0.6727725180720882
  0.1649247319520046  0.2514804454881452  0.2456381478338128
  0.9203532786076075  0.5020314166281894  0.9148866138053638
  0.8334062524499590  0.4967415120753134  0.6731520428153563
  0.9087535813097056  0.4978036406902387  0.4120628828458169
  0.9222296432783492  0.5024155372221969  0.2465259224836132
  0.9247176725087273  0.5040734394436067  0.0802826691064433
  0.9074722678894143  0.7437840055402518  0.3347413257939139
  0.6576728567561094  0.9001599657978228  0.5838105827094211
  0.6527417922265343  0.8295897296489588  0.3062026034262967
  0.7490781090686531  0.9187488148605663  0.1686650980353109
  0.6748995075071802  0.5058490280027663  0.9920687378038715
  0.6711896781990218  0.4114597534641177  0.9325631560446811
  0.7583841888415566  0.4182054894142117  0.5026653333641310
  0.6750542980444673  0.4022154109108835  0.5683901143549405
  0.4799777725184484  0.8168805377177539  0.4949018268961028
  0.0802209741384169  0.3338453617788092  0.5814387161810849
  0.6616069958784783  0.0021249485815169  0.4789954960671878
  0.6533918522773039  0.0028847378118240  0.3369134705867439
  0.6624460572916118  0.0852826066927248  0.2543873476414202
  0.6645242249525418  0.0830874123420847  0.0819137076807793
  0.4985674244904703  0.8383105897358591  0.8359161234680089
  0.4160455377877090  0.8366580430604028  0.7480511368732959
  0.7506536144051691  0.2509598509532530  0.8358661447449346
  0.6568986856005160  0.1607137235177269  0.6650675839275577
  0.6719988605937672  0.2631671345429764  0.5823598387251503
  0.6626561158620184  0.4941032948806983  0.1537635325073750
  0.7725449301587067  0.2419558852179740  0.5081846267399287
  0.6537453881508323  0.3020021960111874  0.1911238154264863
  0.6669014121509133  0.0855619054031277  0.9197736352612634
  0.6732091986449946  0.0851399169613428  0.7580236680096869
  0.7486936404542769  0.1776873601413725  0.4092365799126619
  0.7551037391820824  0.4144392673254316  0.3263880841072559
  0.7533585803025532  0.5844162521153293  0.9967345513104481
  0.4112792832721763  0.4066381368641492  0.1638222380029424
  0.7481824100655567  0.0002286836825045  0.0843930754611490
  0.2524044176762436  0.6726837038368958  0.9157760215609669
  0.7481197448285120  0.7548752907296693  0.8366799231520329
  0.6728590295330612  0.5845225941685976  0.9088021512777110
  0.7380606938179186  0.7540970538022207  0.6643722519250640
  0.7473483237047844  0.6686583011335746  0.7524341754848689
  0.5794593337126767  0.7512504788765235  0.6738819374677523
  0.6233717526602571  0.6762702604909130  0.4941571593992391
  0.7521531493977324  0.5016348666826682  0.2438425327058041
  0.7430308685735160  0.7346701541375027  0.3225388653702905
  0.7521163083959997  0.7504822701402126  0.1625457558724018
  0.6657213568409188  0.8364674780315705  0.1666508503184928
  0.6694327946508135  0.7561998474702539  0.9182090841158724
  0.9178556441303486  0.8345463437690378  0.9181030875270927
  0.7503026960156512  0.5862642458349919  0.8310724510766335
  0.6650839039462298  0.4967334910591328  0.8394847227416157
  0.7534417378046615  0.5810855326730783  0.6766698763611992
  0.6687188099644360  0.5801477367807262  0.5811400058793391
  0.6753462188414769  0.5026451914243233  0.4969681630315150
  0.6731510175643001  0.5027210587882152  0.3344243786118945
  0.3264900483378287  0.3304351495029834  0.1636550642408234
  0.3305476977405090  0.4175802857808189  0.4151708435527801
  0.8314558467108834  0.3331070080606707  0.5025042146795228
  0.4838723621747621  0.9372009433426614  0.6052314727553648
  0.6631846633011754  0.7430660481106148  0.2357775277559791
  0.4892060989919357  0.9078653525226710  0.4107954115504616
  0.4158199162453095  0.4945414398641407  0.0973478174328338
  0.7527540736359096  0.5757995035010224  0.1632026294942772
  0.7693987147745718  0.4327721974111755  0.9937538269172786
  0.9938067956327461  0.4170857336556639  0.5851281049525501
  0.0113476970231037  0.3387846414563822  0.6697174339304078
  0.9986953999327473  0.4996805250524129  0.3327497591729164
  0.0865568504293419  0.7538529516105505  0.0080684667519761
  0.1654294381164874  0.3349244259186726  0.1625961058171335
  0.2512972979691500  0.5848268133501815  0.6736717695426134
  0.0855737960508291  0.3343187947149450  0.2443261105454423
  0.0030850620539127  0.5854176417143252  0.0820081534593357
  0.0013847915569752  0.4196842592375444  0.0798167446640089
  0.0849751697381202  0.9190636056480673  0.6742109186527595
  0.1713186139920253  0.5887606317150339  0.9179617635265049
  0.2425191922141637  0.1646284928680524  0.5800449982791089
  0.0003393326863796  0.9184574676963829  0.7547776991547908
  0.9805057044235429  0.7421735709351220  0.4277065671070361
  0.2433919544920943  0.1661303079488905  0.4152399811822907
  0.0832200087893083  0.2498263733598668  0.6691625576172258
  0.2475750563897632  0.7454981714447216  0.5038132020569041
  0.0823396461353373  0.5008360070094875  0.2504334291611391
  0.0000521552905318  0.5818650860319440  0.2493612925972441
  0.2478869115963480  0.5848795786044876  0.9993209760675030
  0.0008949793980515  0.7528287165343015  0.0824122468697778
  0.2457569062117332  0.5026964377443703  0.2507083368244719
  0.0826572360820251  0.1662886500225222  0.4116851928937877
  0.9164601666599277  0.0049203063992883  0.2476183904025171
  0.0032964137142550  0.9331565388668633  0.2320557370037639
  0.0848464157022771  0.4104891215022023  0.8353363040270574
  0.8345025432850423  0.7537054821371872  0.0853505914193232
  0.0965028484661406  0.8272925481740504  0.4146613748191647
  0.0703653104387568  0.9148424331078781  0.3221519475222365
  0.0846992224703743  0.3343949096277983  0.9183848646762520
  0.2492610553502005  0.1669983624598336  0.2461725407512549
  0.9966324304279246  0.9225452946999469  0.0859396091498663
  0.1625681499309749  0.5023315915144136  0.3334073428084759
  0.0802923261553112  0.7504454983157454  0.1634331970515183
  0.1674495369952756  0.4161798097401129  0.9181388243897888
  0.0848678414844697  0.7494145816216107  0.8356449977030063
  0.1638998480879568  0.0828252232357856  0.9200581450283485
  0.0858157504118993  0.0017079489679300  0.5916776024832195
  0.9958968280005120  0.4988762026344978  0.6697310016372946
  0.1735875277579597  0.4162053274256905  0.7567097661964254
  0.2473819771892211  0.4184005680420916  0.0024552518677931
  0.9969164456120009  0.0022229433949103  0.0020384973898149
  0.1659833066075843  0.6638234536200613  0.6735628335369613
  0.6651432756494562  0.6641652015303856  0.3238409728748550
  0.6701057511706301  0.7538885797812237  0.0857049970422640
  0.0757057136758580  0.4176974008145274  0.5023078373319431
  0.1623297764879003  0.0008892048086035  0.3251025869899245
  0.2440577225916441  0.7543012497506877  0.3279640224965842
  0.9184390003309306  0.6663175133995424  0.2438738730396514
  0.0876838967511225  0.0905279185701067  0.3276495750893669
  0.1663499719194184  0.0876422809738298  0.0771119743067274
  0.9980862011642843  0.3422089046997395  0.5008499684173862
  0.0834234083215194  0.9291056000318149  0.1558470164256096
  0.2492280860647859  0.5848989372489317  0.8330963139103992
  0.9992703038249126  0.3332004255165015  0.3294346441962276
  0.9994344850880651  0.1671184858013598  0.8368092511664253
  0.1581065580945683  0.7556652310163959  0.2479065340489233
  0.1651174631496481  0.0036602952807396  0.9990829665901463
  0.9978353169397264  0.6672693068352967  0.6744819478857383
  0.1599861196687496  0.4151871827212684  0.4029012522618269
  0.9166825302516052  0.0938585637660464  0.3250154145071130
  0.2518264176561751  0.2480604161667132  0.8373409286592977
  0.9992207904280841  0.0848120672498757  0.7553146468771985
  0.1660372316562525  0.3333502690615067  0.0010037404226280
  0.2432561803886109  0.4165314806931233  0.1640366155117081
  0.1651219926935648  0.4178974203105605  0.2509770364815677
  0.7494495668466951  0.9197032908622530  0.0026861317177617
  0.8328709337510843  0.0928980230301694  0.9206673109962756
  0.0835182843371359  0.6664033266683358  0.7519122681919237
  0.8425840633283173  0.1750628258789902  0.1516060618551210
  0.6644593908525152  0.9068141931683978  0.3986458456623788
  0.9994318052807992  0.7517884956715870  0.7548557305449862
  0.7509562013520628  0.8287565624967316  0.2464921097959454
  0.0865484681361083  0.8447873568371734  0.2286574059650151
  0.0778244750186226  0.8383859675612912  0.0893369119883469
  0.6595085803627441  0.9231607355465919  0.2459107778655421
  0.8918050763048645  0.1126841753327609  0.5094751360480673
  0.7507568078565405  0.8379517239221650  0.0850628577204726
  0.8445270046123662  0.0951878532698876  0.2291216597127766
  0.9196224664627940  0.2533182262761806  0.9960809299550381
  0.8310248594484979  0.0875755992589394  0.6019822887781144
  0.9899150265702505  0.6597769876913582  0.3326486171153967
  0.7481702266932539  0.3351082422894079  0.7571951971913227
  0.1634609816700902  0.9189112005233595  0.7555179812478429
  0.0745937750706717  0.6607598201996698  0.4238144196992779
  0.7511991947158191  0.4172872457009389  0.6721403428610233
  0.8317574689519530  0.0000606693752634  0.8297829665942786
  0.9152896057101975  0.0846743052959773  0.8364729023835935
  0.0017434570002654  0.6595474060159360  0.8330256803609336
  0.6628123974431767  0.4146786733720417  0.7555822294690548
  0.5815932392940459  0.9194841759371117  0.0006110174687961
  0.6639820371680940  0.3325813880536734  0.6718006209445655
  0.0118685346916773  0.7611056108300814  0.9311489444699940
  0.9987684278261353  0.9184555736511182  0.9181142580763612
  0.8387727141600322  0.2546589205242408  0.2385907338150632
  0.7607547091621970  0.3334525213441066  0.5953328110420539
  0.7717873914734961  0.8743855840297955  0.4229178954389199
  0.0830857235251456  0.8411911145612417  0.9202513023719243
  0.7432952051926294  0.9127663760635703  0.3204479544726787
  0.6362245470659778  0.3344440788170624  0.4834921540782576
  0.7461700242711524  0.3258946136937466  0.4165519906524364
  0.0137695626160471  0.9025388546743784  0.4215850635356739
  0.8379996063706789  0.9980861221321554  0.6730957633663955
  0.8329661819933949  0.0843221698048679  0.0843866330031218
  0.9155412365267633  0.0861561356045907  0.0005141235171067
  0.8328988788641212  0.0021325632804236  0.0072033068402470
  0.0680010099839380  0.7293321097327168  0.3435875235035561
  0.9998422450766453  0.0917894222263533  0.2413054778119141
  0.7497575162201300  0.8380004808155884  0.9209958460301091
  0.2487482058272910  0.0854902197090424  0.9975866410353692
  0.7513175029097254  0.6705842265167320  0.9160820223879076
  0.6670447262339204  0.5800401566022662  0.2467612320281561
  0.6407871844780187  0.7725517435036349  0.5859705265192640
  0.9996591253921600  0.8410112475371216  0.0056864747797683
  0.7276650602677228  0.6601733894201887  0.4246843758310273
  0.7543943632210693  0.3319243762265491  0.9122622591919571
  0.7514133571546991  0.6603777259836202  0.2393951138664212
  0.6646414664085810  0.3340680826756519  0.8381065894724566
  0.7522006035733795  0.7552366635153867  0.0023037983786175
  0.9961368748255105  0.8161307912368995  0.3510134717243676
  0.9922531516612958  0.7488212346412572  0.5928389134221493
  0.8307250086903804  0.0896345585060595  0.4136266646597250
  0.6646701410784229  0.9179196841662328  0.7565059666952482
  0.8416428582848902  0.2570548192939595  0.0766593393842082
  0.1689295456355858  0.7456010024735097  0.5900817296863882
  0.0791367989862007  0.6658279178687150  0.2496609725864282
  0.8321449993010442  0.0010168330320597  0.1676669143786634
  0.0770117541851008  0.7459796660888277  0.4976930573164923
  0.6884931245172697  0.8334525848257587  0.4866685422990038
  0.7463739024347419  0.8356832124684531  0.7528382304148562
  0.2485234500166917  0.6644277427980896  0.5902574939083221
  0.9195532215678935  0.0827633308805585  0.6733605496390580
  0.7402228258277137  0.9287332861235303  0.5147096949746641
  0.0792896761690517  0.6588855342915131  0.5884462599432274
  0.9930083754854840  0.6680788173817541  0.5101034681809984
  0.9106578584549800  0.0219175439285188  0.4510948837037792
  0.9214627253074922  0.0897365855217507  0.1564954119542823
  0.0823053157585657  0.7489281788914158  0.6756409853377108
  0.1672477628428709  0.0094204153691044  0.1595738009690166
  0.6828333569448140  0.4224747150867638  0.4151344262289425
  0.0846703980578637  0.1707869094386907  0.2443558807265173
  0.7309262408385415  0.7408654471109154  0.5284968507310103
  0.0830687574347485  0.8343579275010792  0.7564420187172625
  0.6668274310415696  0.6636871901977124  0.6727332619306351
  0.0002800369688318  0.0120469563512120  0.1591407203389887
  0.6623381820303326  0.2265742455930620  0.4757306281414648
  0.6641646539431565  0.2516291122533035  0.7535030514391148
  0.7486518463725040  0.2569106625856897  0.6781089710815194
  0.7484720263256327  0.4159909908738663  0.8368112029156221
  0.6692257820904927  0.1692077216059310  0.8384102302487461
  0.8325126589721961  0.1697902961474335  0.0038066936181982
  0.7478199012989662  0.1713557592639388  0.7535303977950299
  0.6526268417092752  0.3202981447260933  0.0071201751242180
  0.6799678677331172  0.4161675693427972  0.0622684399409191
  0.7706854669990836  0.3461791198607305  0.0806258790262767
  0.6596972414574379  0.1593725676914126  0.1655326635796103
  0.6683910583032768  0.2509254594348768  0.9210948786736725
  0.0007492214069290  0.8359921292954731  0.8378147105940559
  0.6672694160205757  0.6704396957695066  0.8341551087651308
  0.9997462148502188  0.1698397795715326  0.9978053049832393
  0.7647943792626714  0.3440442872378055  0.2350183830769833
  0.0880750928750160  0.4323366966351499  0.6456171170043400
  0.6775594243009833  0.4181699429654573  0.2428219941261026
  0.5018980928456476  0.6539534530534895  0.8233020619903507
  0.0003226520469036  0.7489371195681457  0.2512621940997617
  0.4168882023060373  0.6809156395790198  0.9070347595816250
  0.6656987620818946  0.9178339126172811  0.9201098695667411
  0.4112224977591723  0.6739330346999148  0.2328275018144233
  0.9218337401199145  0.0020319641369651  0.9168216372282548
  0.3139875278668284  0.6694557787661416  0.3327000309680810
  0.9177348776282701  0.0015000828767019  0.7549353477455558
  0.9243493186494579  0.4207037404351688  0.1635958566974059
  0.6787440297015243  0.3259777811624422  0.3012545109128802
  0.9214109195558097  0.3355139599037614  0.2463863853862334
  0.7562202325600538  0.4243001255890413  0.1590656458006210
  0.9988000481499768  0.1617897862838027  0.5005363988772082
  0.0025327075632212  0.1693289900731950  0.3266774728096310
  0.0832608569019085  0.8361359764304462  0.5893951115579326
  0.9304884274634789  0.6931311538501882  0.9142797043737020
  0.8341647045652555  0.8373594283087008  0.0036488503517969
  0.8318343842908821  0.9173417369174817  0.7526514202942014
  0.8334547596971899  0.9149809743137740  0.9188257917477558
  0.8286130474456362  0.8394680022936921  0.8345709189660573
  0.7556038495569114  0.5033295922994471  0.0786343480662251
  0.7670386154888145  0.4917674160184048  0.4141826282745487
  0.9993119534104079  0.8286800899191326  0.5077274382642689
  0.7499137629082756  0.4962528127731207  0.5886962506991588
  0.7617459937511474  0.5753495072764152  0.5049798310946042
  0.6727137659805111  0.5084040084894922  0.6768422021787150
  0.6659872355884993  0.5837827563459680  0.7577969228165315
  0.7491860167999175  0.4979812389642905  0.7577388086356114
  0.7500331448655385  0.5834131313987462  0.3269231638655672
  0.7556751318967354  0.6680257222977383  0.0793875166925516
  0.9165818843890051  0.1689350397622360  0.9170872183314563
  0.0835286707628255  0.6694224859130323  0.9201873729500301
  0.0023640519669177  0.4182906701217506  0.9157171915796370
  0.8301333095077745  0.8371324411086919  0.6719402779074115
  0.8325126789891429  0.6697158455640589  0.8269360091573494
  0.1635791155582594  0.5861793050301204  0.4180014275595447
  0.0013900333619855  0.3332127718152303  0.8369944042073749
  0.3308386479422784  0.4146811537552110  0.7528517826069396
  0.6381750805635461  0.5887381889348476  0.4129599797059734
  0.1637780652506365  0.5014043671555333  0.1669737138036655
  0.9961356392335262  0.4166928672050281  0.7548126882226189
  0.5771744307299981  0.3355055144988553  0.5835875579621922
  0.0787284055107727  0.3329574980560738  0.4137963127545547
  0.4938773856478410  0.3331351406893717  0.6637874906368723
  0.0838814625797420  0.3356211827715587  0.0807520756933125
  0.2396751259374405  0.5862798418152775  0.3331808103971242
  0.0016065393258917  0.3366715930816870  0.9964033937782211
  0.3999772755151743  0.4352036219129840  0.3162674888259361
  0.9197317457643570  0.8335408501505979  0.6025328600195735
  0.4041341904856562  0.3341110457686652  0.5882980544803540
  0.8140714028844319  0.8208353717662680  0.5105092878145218
  0.0005229212470691  0.0887615238051236  0.0770608882439179
  0.9103023370683778  0.8281067596179630  0.2507382433271960
  0.8328697399698317  0.6583221172496396  0.3175178592978555
  0.7700051945225365  0.7649677732629001  0.4277472096022079
  0.9984161236733154  0.0861030318449669  0.9183459163383955
  0.0818063707065277  0.5837167257278743  0.1662632663373501
  0.0827073618078146  0.0846367688712159  0.6716235727860216
  0.8296130453235961  0.7511238926451484  0.5970464460081074
  0.9161308236089124  0.8374516456047407  0.0852483586615413
  0.0032573463649688  0.5019672830567339  0.1645246308474836
  0.8348522774805657  0.9178506268457562  0.2521372215371931