 B Cr Ni 
 1.0000000000000000
    21.1200000000000010    0.0000000000000000    0.0000000000000000
     0.0000000000000000   21.1200000000000010    0.0000000000000000
     0.0000000000000000    0.0000000000000000   21.1200000000000010
 B   Cr  Ni 
  69 259 605
Direct
  0.4797654330367399  0.3132297185467044  0.7643096580423197
  0.1192547718588144  0.0862642982706448  0.3220204661516068
  0.0841202858186103  0.1740135462691484  0.4904272821427466
  0.2709992936914871  0.8356163926339425  0.4888809371324436
  0.4306751193690514  0.4137732371109181  0.4180526400823238
  0.4075416811098094  0.7518515489372787  0.5535928471942632
  0.0158956698209909  0.6854220927417498  0.5931229980108234
  0.6690820789711112  0.6038247848955159  0.5135031407313357
  0.8399124272430160  0.9254584536883728  0.3735767300853585
  0.7415011461106881  0.0767969713959063  0.4228060308909359
  0.4144116351380755  0.7289794398643314  0.2562360681071287
  0.4606632024838366  0.7714793551602236  0.3145707953126955
  0.4949087797015038  0.3616596212179965  0.2412836089339858
  0.3623084340450122  0.5725079919398242  0.3310597421506107
  0.3379874479000602  0.6757475915848558  0.4136719384848172
  0.2635955904085166  0.1809819979775940  0.6741386900631731
  0.7359730248057529  0.2572907956643459  0.2380644446423383
  0.4078866982457873  0.0845785067566106  0.7171707065590878
  0.0703725437486811  0.7520921512157422  0.5766085770919013
  0.9100156228310280  0.9853291815023412  0.4966316288360982
  0.6558919418934038  0.4196056583243614  0.6564050328006795
  0.5478787460820816  0.5144293737510751  0.3255365107788608
  0.5805475520969843  0.2748525727731309  0.5692389664389884
  0.7773962050846210  0.5714556398426471  0.4110883370027076
  0.9149860881741233  0.6603273159485387  0.4901577851314290
  0.3386071196761042  0.2446643538078125  0.5093599975248406
  0.6532282515126759  0.3944658029131911  0.1466911426587545
  0.7342718093703969  0.0332119851819354  0.4970230137400164
  0.9928726034896579  0.5105606250523212  0.5794486701420377
  0.6906639836858489  0.4788609797278316  0.6115026440050324
  0.5918498985752184  0.1646557560870126  0.8479378895902513
  0.4982109348067937  0.6664984101697727  0.4234297518983165
  0.5868765082758484  0.9966758425360881  0.6630882400754193
  0.5984144130630402  0.4331499962283253  0.0995303174279580
  0.5953739130838998  0.0799047948679059  0.7066129758995890
  0.8446485221368737  0.1715592372169012  0.4631658385202639
  0.0925918219529892  0.9955616728635205  0.4743328556667788
  0.7023171407092359  0.1784144335968141  0.5367106291313687
  0.0623834293106481  0.7474598537498720  0.4269668827706226
  0.5030629644781465  0.5853851141454124  0.0053148153159122
  0.6055485835763651  0.1597018533022315  0.3210162980305212
  0.0605168564127852  0.9437658011566714  0.4226718681323728
  0.5018667580131522  0.5839759340600171  0.6668299747337082
  0.8275612022008850  0.5927878371928172  0.3442716574491271
  0.5375394351421224  0.6004320940909766  0.3187267639150911
  0.3341263332684087  0.2573999768681705  0.8116690894568993
  0.6764492987310715  0.3071240673005164  0.4161651092525482
  0.5249292457416470  0.9068976537630646  0.4943078552399245
  0.6718472223060818  0.6849655709593003  0.4057676532399130
  0.6610994578830128  0.7452025530726344  0.3479959685238538
  0.4737050676217771  0.6303759358675640  0.6032906419465520
  0.4267979285811427  0.6710563373161672  0.1909927520495823
  0.5831616211054187  0.8310851161721129  0.4954972952334117
  0.6528665710459590  0.6653716605620964  0.5699109416042807
  0.7191582266173335  0.1676787345636956  0.3174913686890595
  0.5133087240732526  0.2569756361152839  0.8125954701998721
  0.8477236168479381  0.1718491248345845  0.5457500299128770
  0.8579549523200711  0.6088584336609631  0.5223338616573885
  0.5053161021895233  0.7164309515475229  0.4917977808668315
  0.0689342307411139  0.6593237259745317  0.6637481457728466
  0.5786485579475402  0.4061642320000710  0.4180880959656855
  0.8740682723612708  0.8542029237032198  0.5239370696007830
  0.5930142362098483  0.0717463464888958  0.4158583430448365
  0.4062353075418458  0.0768020954371356  0.6297779777268426
  0.7146381638846404  0.3201797871567289  0.4995879935972481
  0.6852845908166891  0.3333534292086759  0.1004321885835880
  0.3216520176600136  0.8901571906265422  0.5221553210704709
  0.7519222407034967  0.7561221363684950  0.5506257965741459
  0.0343729624517466  0.0870825100557460  0.3227999402805226
  0.4863269862777745  0.0759920415054837  0.4125191142845435
  0.4968466792223599  0.0012125672520873  0.8366798069269322
  0.3249957018969476  0.0813251407552860  0.4094940250036708
  0.5760143299182729  0.2450587408019549  0.1669896112053479
  0.5791048290866875  0.1670319463004481  0.0806290312545025
  0.4822526458620296  0.2520733173856821  0.2474320043204298
  0.5020122403444561  0.0908942791179575  0.7581769489616050
  0.5820717415311174  0.0002763113559047  0.9189123378940743
  0.7651377731213640  0.1813730254429583  0.6090206355053794
  0.4959535985868487  0.9186998009522859  0.0794184401412860
  0.5527004796597875  0.9761590117600146  0.5695696327799750
  0.4771739814727604  0.9995119971093709  0.4941708631974834
  0.4321587032659778  0.2600456479543794  0.5012608558805096
  0.4954422313418845  0.4981466334709641  0.8384009539913000
  0.2470479752129843  0.0016305594851968  0.9190523657145536
  0.2475619674049579  0.0816781223016281  0.6719896881640776
  0.6002885386703128  0.1745576338632254  0.5577778324863389
  0.3281272429107427  0.8343843570259057  0.6785880560754074
  0.4884672756320815  0.0225773981989284  0.6772665806380188
  0.3321390787695395  0.9928474681732345  0.5018425724102502
  0.4119286503098775  0.6708265263477691  0.0835327737180449
  0.3953677693801293  0.5021072475531163  0.2455629587409519
  0.3262943050089229  0.8996459185531002  0.4192224435680252
  0.4938380346294441  0.9226537515921416  0.2364806995399429
  0.4123966141519573  0.4171968911259133  0.0039405648689278
  0.3308079223916286  0.2530050143793817  0.9190626449873465
  0.8404803388483870  0.3383134644320785  0.3265549243859271
  0.4138302642817855  0.6688126847449628  0.9195322250022084
  0.2472364465117727  0.6670886079661780  0.7566213283899488
  0.5051598480075049  0.7569795700030290  0.2275223316364771
  0.3208956359807996  0.4170452918675942  0.2458360341164047
  0.5969030607432699  0.2555824430399512  0.6665237809037582
  0.1639845037386718  0.8381067126915434  0.5045646886607311
  0.4925932161418203  0.3314838739751527  0.6661305968189887
  0.4760427171183035  0.4907697416418382  0.4882506711554716
  0.4993839414300223  0.4186342680884009  0.0850416258622053
  0.5801049852171563  0.3237355621274862  0.7591808611198463
  0.4846503940622508  0.3429459867868114  0.3368058570344865
  0.5637954631201348  0.4102873333624594  0.1861322406096252
  0.5823243515273870  0.4205854191058206  0.9999528263467502
  0.5855430792667876  0.3341395230448185  0.0891888457196211
  0.4123588540467327  0.3364977948015982  0.0823325493630493
  0.5775688161112276  0.4985603263728580  0.7691780925803975
  0.4103700343166179  0.8260829363164761  0.3988658256113983
  0.1615744294218486  0.9209188018130823  0.2411912528111936
  0.3224406777577241  0.6647091088920000  0.6732369137675923
  0.4968574893633750  0.8364862466690257  0.0003385944488277
  0.4153141855753349  0.0849432884394730  0.8357325884971780
  0.1663852506785951  0.9199102593512878  0.7555610151359290
  0.4166288546413894  0.9982235699794526  0.7636281109225306
  0.2455011695282760  0.9206596534548613  0.6749409610266658
  0.3947723323871694  0.9959612824089242  0.4109370795160213
  0.5898450440163371  0.7542118136583809  0.1582185859620967
  0.4135985545576387  0.0845973597314204  0.9983646938042705
  0.4104257205727210  0.0827287710589762  0.1592745165489487
  0.4116996375079443  0.1653422305467709  0.0789778053354547
  0.3306234269620917  0.9183495955374775  0.9190475662102261
  0.0843029711433284  0.8358852544563565  0.9180962282043220
  0.1687990369945529  0.8399225430154802  0.6755673617116901
  0.1576359739836536  0.9359595730791347  0.4154927613653587
  0.2474258308134010  0.0853182243905943  0.1599500153387762
  0.4982216606710458  0.5890899085432905  0.2296342023158198
  0.2212299285663085  0.8439337364318329  0.4069392478642744
  0.7363953088146686  0.9269164271820736  0.5104307912286055
  0.2472874006805321  0.7511696944558737  0.8391586556539008
  0.4073295229134135  0.2490767070297471  0.3261648357426166
  0.4035460575168203  0.1756058524592952  0.5666181155830353
  0.2405102976538201  0.3361332915802747  0.5828533591001550
  0.3207258119438852  0.3379471359590199  0.6676054386123671
  0.4092299743401274  0.4115024234134824  0.5125375497487651
  0.4921073156433848  0.4274409610703634  0.5922897744877894
  0.4184496818494116  0.4185504982653950  0.1710046219933363
  0.4134052811619043  0.4959082703216536  0.0858677443621922
  0.4685034377006613  0.9143699612676209  0.4094777648966355
  0.6649768032100435  0.7562979423730161  0.2437045899496083
  0.2442744641570288  0.5746410864943085  0.5042163194514437
  0.3972967741886884  0.5061416871389461  0.4160541047057041
  0.4013132419794204  0.3366596325149148  0.2457127195344611
  0.3260100642954661  0.8348483498969375  0.1622288485548816
  0.2430251097288399  0.5019262585139591  0.0795220815699863
  0.4874012029356675  0.9064519728156492  0.5913951136787757
  0.8482540375945803  0.3322452585105286  0.5017784148815916
  0.3249146660840669  0.4152910824923737  0.4177916644149218
  0.3277105138735879  0.3323311000188871  0.1621341995096692
  0.9183159953391317  0.8376289359454486  0.9191412017991438
  0.7571171054803654  0.5828696078987782  0.1572394565811075
  0.6831973885117192  0.6628644427638248  0.3036519500554534
  0.0048191373014409  0.3371584634445769  0.6734494533272151
  0.6682855222198149  0.7525679512305222  0.0790979412186044
  0.0014940167054461  0.5871341265113407  0.7536850316999969
  0.3263289313015882  0.5011440641003719  0.6719421719199136
  0.1647295750858717  0.5017063565564330  0.9987601744146996
  0.0017217820971123  0.1681496475384153  0.0002986494459368
  0.1710046606479839  0.6652281409569425  0.6771205435163289
  0.0805920014227064  0.9214239690343509  0.3245651659032565
  0.2521159531623267  0.3341253214653762  0.7556260976561825
  0.9969359994222888  0.5885422155635102  0.4160441364875950
  0.8354341838550586  0.0857865087892928  0.9204765062683611
  0.9213539523742927  0.2524881620780667  0.8386310153944039
  0.8450079272591696  0.1702247586158633  0.6818526924689606
  0.8352652289555866  0.1689737169258717  0.3257140055374544
  0.0813736164630406  0.3341786062882263  0.0812508468155790
  0.7544791786766923  0.2488009783134260  0.0024228549687085
  0.8384567045659453  0.0860785873088042  0.7588016227585677
  0.9200712828343570  0.0028357913991117  0.5919458381751601
  0.9106270461605720  0.0921399398586739  0.5053015922655159
  0.6707994572789197  0.9079067768812060  0.4003243008695073
  0.0020177081818841  0.0015416915287683  0.0000386010252342
  0.7483906133947708  0.9197616201237691  0.8374609657169666
  0.6654022279899894  0.8363419143468819  0.8345316831534755
  0.7498598697362124  0.9232104324179814  0.6775176116484859
  0.7473313319437379  0.8383422342820044  0.7584368713714604
  0.8466470958942566  0.3387362817538510  0.9923169962404055
  0.9194289222995138  0.4186111556135708  0.5033195681993471
  0.8396012744170920  0.3397855223735171  0.6786465758149262
  0.8372282107047853  0.4182169501793357  0.7573295612489107
  0.9204179173223652  0.3354229738244709  0.9160081750534563
  0.9182783605196538  0.9215106574570727  0.8404509391923968
  0.9191148806053805  0.0043442037147589  0.7587485460101703
  0.9167059922356587  0.8426161488525916  0.7615457143412963
  0.9193061775085488  0.9153042021660007  0.3122561560245403
  0.8929060670965735  0.8425856003069774  0.4152541618849839
  0.7285462471755724  0.7719134864814641  0.4159767826829422
  0.9990891286159713  0.7561793700743418  0.7608699049208718
  0.9124298467679466  0.7649505067842393  0.4996952125181462
  0.8369739345052863  0.6738339767440689  0.6786926230372683
  0.8221516596384985  0.6990353033611590  0.4956607772429640
  0.0031800784737241  0.4183520095907997  0.2478581176143779
  0.4078721713845067  0.6680922526097816  0.7583336100034063
  0.0018751257703885  0.4140542698896095  0.4117346041726001
  0.1673157859020185  0.4152037738220913  0.7566159037876256
  0.9213273744648235  0.5048577766920149  0.9162316892576504
  0.8343344877566562  0.4992752487858367  0.6842702416982317
  0.9273285742895531  0.4979406124349098  0.4127511324805700
  0.9248051694403432  0.5022980252619977  0.2485642374579320
  0.9215311741979695  0.5047618512912977  0.0799043209635273
  0.0819832176401845  0.6676766125139412  0.2451815503480779
  0.6640859311714415  0.9227326323289683  0.6088156202216084
  0.6648079464902039  0.8417524645569546  0.3257874149801144
  0.8329932223395702  0.0034808033660417  0.1574210382761944
  0.6700123707259708  0.5080922309181594  0.9960273225834805
  0.6693731354631915  0.4198322893555734  0.9260022555660333
  0.7707421143730376  0.4136824779673077  0.5021037058010935
  0.6847871562679965  0.3995843954123138  0.5596834823346112
  0.1643182604281322  0.3317953852013923  0.4994840281700578
  0.7593163792774488  0.4134933153590370  0.3294893101509120
  0.6711318950988195  0.1700953294221806  0.6727643283288306
  0.6779070835847645  0.2629908003300018  0.5863280191304452
  0.6651865863207097  0.4972512729616300  0.1495596102318161
  0.7802647521712868  0.2401925621036570  0.5069167201592825
  0.6590897448705505  0.3069766591137451  0.1885557209877198
  0.7504634207853601  0.0849862581040209  0.9978586572714127
  0.6692459019539487  0.0009681092366798  0.8380510072593949
  0.5567448601839315  0.9795603866311218  0.4200535574907149
  0.7495082915549568  0.9231498723999114  0.3124848241394908
  0.6650152844499325  0.0924364095668390  0.2485171159220104
  0.6657772187905898  0.0854017964003250  0.0795931334841705
  0.4960294915579925  0.8352775312231011  0.8374543558673088
  0.4119950617468847  0.8346168532749455  0.7539236001211033
  0.7557945933233927  0.2555639796827071  0.8396518089217075
  0.7534462427378157  0.1774259054126955  0.4122097585702829
  0.7561833804529471  0.5057351081196002  0.0785949991763540
  0.7533121489147769  0.5866569310187570  0.9988737797184283
  0.9927078073740423  0.3354383229539015  0.5003013335868963
  0.6677187673661741  0.6707100034305974  0.1649655200244860
  0.6667871071428656  0.8370699567156944  0.1585949960972209
  0.7490239817134533  0.7557148500466736  0.8375016370133026
  0.5844695877083451  0.6734595141480504  0.9163887104588235
  0.1653354313099307  0.6684035049227446  0.9985086896654762
  0.6672150033532718  0.6740255908578892  0.8380303698721538
  0.7534915631109832  0.7534326264811807  0.6807840022832748
  0.7506191260399973  0.6717259529236568  0.7563675801717469
  0.5872921955631596  0.7416327346116712  0.5376051408217555
  0.5904777377563104  0.6593726508847679  0.4790005285253682
  0.8423965139826606  0.3393628173950584  0.1591637561810801
  0.7561131971245841  0.7547258645908267  0.3153038180185271
  0.7473612752324761  0.0017444333470080  0.9194876420090686
  0.9231350858609965  0.0842892433018974  0.6757175145224942
  0.7550567704155736  0.5888603955100840  0.8371155212120540
  0.6667403236433366  0.5007324912789357  0.8386643082715131
  0.7543758546806609  0.5017844156080494  0.7635564822640531
  0.6724804915488297  0.5746359349644391  0.6032848266643829
  0.6809232646708209  0.4973140303531279  0.5106202538979818
  0.6802481427204764  0.4764329540764298  0.3280242689400504
  0.1628906445443010  0.1675668999290875  0.6711648018878259
  0.1600672107382808  0.4128742362982379  0.4169949776215822
  0.1663614482304895  0.9194232883165940  0.9174956938542873
  0.1592049315049006  0.7489713690930146  0.2413681137177826
  0.0032141710775325  0.1683308217551878  0.8398722252118002
  0.9121579865900891  0.2451334244782122  0.5021250333417732
  0.2493584717534225  0.5832668012771024  0.8388030005565529
  0.2480665863321846  0.3336598496802536  0.9189108045038105
  0.4829554931364970  0.8154167644146847  0.5044205767676965
  0.0806796978015457  0.4189923996316200  0.6714965430001987
  0.2457782074895390  0.3320569516315303  0.2476770683149123
  0.0023490135341167  0.5043836973601146  0.3326224336442546
  0.1662177501198024  0.7513914845404609  0.9177136059308879
  0.1641886742003226  0.2523019659483771  0.0819990031344666
  0.2445311951778103  0.5810140637060900  0.6738010271203304
  0.0010733239689575  0.2502108765567737  0.2447881879570653
  0.9998364425229768  0.5847265240862102  0.0788818372414621
  0.0030935553430810  0.4188799214242956  0.0798458283263849
  0.1652868183429076  0.0862239523140646  0.7519074347944353
  0.0855804588438695  0.5025444104583897  0.9182062428600394
  0.2438144074093897  0.1601637784035914  0.5826970731352602
  0.0020128395623513  0.9210393585509605  0.7581309130591397
  0.8357081276937626  0.7584297576554315  0.4001199763272224
  0.2449322712759028  0.1630911803622815  0.4111915326639732
  0.1560363879680623  0.3427856957471239  0.6729583994741795
  0.2311103179774315  0.7477054876948929  0.5030947199100830
  0.0019773536607814  0.9220919090169741  0.2384353297856728
  0.0836311947187561  0.3356933709844156  0.9186872469753569
  0.2463788996253572  0.1683711776939870  0.2452361392688460
  0.0833235671472133  0.7526470956788813  0.8371148714684016
  0.1639617603750306  0.2480928652311097  0.2472061533544054
  0.0821400802491476  0.7511652316750496  0.1576008785737464
  0.0830003880296659  0.4180730364227135  0.9987788281769082
  0.0823008676157213  0.5033193123908084  0.2466508522326893
  0.0023884015150708  0.5867877728316555  0.2460493167655717
  0.2468746971975151  0.6694703968102412  0.0792868593567455
  0.0014267817944245  0.7526049166563282  0.0775191825574015
  0.2352237093358695  0.4968737168155786  0.2448823481454298
  0.0770432804975516  0.1505134416898806  0.3965475087246822
  0.8394017676905220  0.1689354672386731  0.1549227177508568
  0.9177705215483618  0.9194777069287517  0.9994629767208602
  0.1627891757910699  0.5836022767738304  0.2438386087673512
  0.8347557411119167  0.7533205493336427  0.0797821376569288
  0.0883896949362723  0.8436758272901246  0.4101671090372098
  0.8353977422605438  0.8364553171633166  0.1555180349213527
  0.1655336920379199  0.0850366611043895  0.9199331225264020
  0.0812500272956208  0.0019949069379275  0.5867435759736596
  0.0812501922683572  0.4134931454392326  0.3304996646232983
  0.9120338740164106  0.6724427422701701  0.5872368192724802
  0.9145954960674653  0.0859679723746426  0.3240951406504918
  0.0001987734175864  0.9213527881925653  0.0769426592456139
  0.9189129860138544  0.1681459792305965  0.0807257757120007
  0.1750365927064560  0.0774408294742485  0.4154125903006430
  0.2455602880921574  0.3330720796608191  0.0828164682993101
  0.2544946906134869  0.9958683836358699  0.4114250111276045
  0.0821866579421499  0.0865900704503240  0.1608823387550726
  0.1663358179307322  0.7530260021379962  0.4035752243691821
  0.9231077399254382  0.6704414048879859  0.2416565980825068
  0.9824445042590234  0.0841091799677192  0.4145452665259793
  0.2462055138477004  0.1673406255245997  0.0824620869506073
  0.1664287466212193  0.0870106415914542  0.5897982123235681
  0.5711377792726765  0.7659888157554056  0.3136941468001144
  0.0035409565995675  0.1676043475206881  0.6743963051021850
  0.1619427334190334  0.5000321662084787  0.1619214520076936
  0.2459724041730358  0.1667658591283730  0.9187466990408510
  0.2452948378848237  0.9178568080267050  0.1601374699756441
  0.7585693068691362  0.6675063480680246  0.2371856695252411
  0.5781186780799046  0.7489774226520827  0.6726807205516242
  0.5821858738862271  0.6698238249544023  0.7567499237436252
  0.5794879349235742  0.0020791764660180  0.2393996027261333
  0.3292676199110940  0.8367058538832958  0.9984101725908592
  0.6661511863028489  0.8362415708865449  0.0013808217592393
  0.4961671881724924  0.8407210962515971  0.1589587302433330
  0.4162285933281381  0.9080183016002628  0.5033584911085490
  0.4988597721744901  0.2526253002784675  0.9246658698147654
  0.9217592057796686  0.2518021865993630  0.9982150369277577
  0.7710981417681366  0.9866255688545629  0.4093241362753714
  0.9108848804161381  0.7606222202879829  0.6807606937392706
  0.8367788211348564  0.1697781305503389  0.8385512246280300
  0.7488330602857545  0.9196018110688199  0.9991801916914602
  0.9169792300564188  0.0021134139394156  0.2369924005944481
  0.7497718981934743  0.8385570106197255  0.2379838355435616
  0.8393272173338997  0.0897294947327502  0.6001163361593198
  0.0833247034113839  0.8364313234616616  0.0787489974861168
  0.8251628662748102  0.0176011919569759  0.5143812270515721
  0.7507612463779780  0.8369114606192359  0.0796750919694904
  0.0822968857094915  0.8361598933192604  0.2380893479879011
  0.0828468878296794  0.6686153309808461  0.7555833585427275
  0.8356045375285145  0.0862740604355071  0.2382578157188470
  0.6658751581748553  0.9220548501511915  0.2386546767983670
  0.0019875778754397  0.6714384639916913  0.3287587397410812
  0.2482668722798991  0.0022615246822965  0.7547961567771153
  0.9177488751682614  0.7611723221233958  0.3163251786032447
  0.9193009291048699  0.0861123369191169  0.8392684931605483
  0.6188543998370643  0.3329696904173866  0.4990860114855317
  0.0009292599984352  0.6697585555780190  0.8367691793764535
  0.5812380094690562  0.9184015697151274  0.9996713571836745
  0.0016961245836551  0.7531529810691940  0.9171721872280885
  0.7651542981474680  0.3316462042693195  0.4177167686670529
  0.8356168834375328  0.2539513704818543  0.2396528800961202
  0.6749620125872187  0.4026306589371508  0.4250048150740386
  0.8343131531986939  0.8404692612774541  0.3146803266175724
  0.6770253002949254  0.3334747847135430  0.3218748807441351
  0.7495064403719106  0.0060813988089955  0.2383804319307260
  0.7526804531721003  0.4946692011461519  0.2370823691884322
  0.0872642851923487  0.6610550213627809  0.4145956931048934
  0.7612802568971149  0.3429412537445184  0.2407308551770702
  0.8340498561186568  0.0027952540076181  0.8401641318907934
  0.6697353165638896  0.4134346589583725  0.2378492763865215
  0.6640918379389608  0.9176549438203859  0.9185672305191619
  0.6756913132534037  0.3336362525261047  0.6784654228639030
  0.2475581923549562  0.0858397720838408  0.9995863187909411
  0.7508913744385568  0.6719076334737020  0.9179560320462556
  0.6743584916961963  0.5771838352191891  0.2307572419966434
  0.6727957055227280  0.7533914222572978  0.6020195842825570
  0.7658807903131749  0.6622225629837746  0.3967334423211207
  0.8367931585007704  0.7560881863049111  0.2346027045366412
  0.7513455040624929  0.7540766722799503  0.9996025204569133
  0.0026834341748134  0.8372974132086130  0.3143027507098449
  0.9853146078644417  0.9039267275350362  0.4011831574129200
  0.0018776215803593  0.8368064157967667  0.9980318547629662
  0.7556920568057716  0.3348488914687920  0.9230171594690453
  0.0017601066955979  0.9205827426705206  0.9189988007336415
  0.6710549860087394  0.3358301778236878  0.8433575430837951
  0.7674949222869197  0.3300704241973234  0.5873847151285916
  0.7525268241606715  0.4197554211277851  0.6692683386184951
  0.0845389782219273  0.9205621729622854  0.8374189965129756
  0.7554226294833899  0.3382883465601810  0.7599219309465188
  0.6682685214362555  0.4129288528331915  0.7623602667712186
  0.1145253875205722  0.7393974895119025  0.4986869727684212
  0.6800881873975725  0.8208507582804084  0.5092417471754924
  0.6633322585657064  0.8352528016639206  0.6771248532233354
  0.2398566551771681  0.6660216184174459  0.5891976907835357
  0.0026563654609678  0.0858949780290070  0.7572193852459278
  0.7483749880679120  0.8424563298337342  0.5984049205434784
  0.1036806596573689  0.6630637853542563  0.5796327745660271
  0.0064640356494672  0.6864700713011815  0.4974472435678429
  0.8447166397479927  0.9226491735577735  0.4706410792147299
  0.9165202986130827  0.0857469359709309  0.1579908417774124
  0.0790618142638134  0.7526474423712457  0.6741244830736987
  0.8366253239440081  0.0025021211368993  0.6750797562994306
  0.8334726235862459  0.0849250283608827  0.0777468761880442
  0.9189164953253093  0.0854026519913466  0.9998277425523630
  0.8342157576704469  0.0023433520100819  0.9984234781855297
  0.0792415874088032  0.7528056517624224  0.3295151183452530
  0.9930947034256424  0.0865204215589886  0.2397999631898166
  0.7487083260875802  0.8375352635713694  0.9187919958297893
  0.1626150087906866  0.0035801294206933  0.1623717796628444
  0.9183976654937267  0.0029023191847783  0.9196416036665678
  0.9227387896734819  0.4205140888385732  0.1628240707628494
  0.0024742404343108  0.8380033099208702  0.8396267378609835
  0.6743174693302452  0.2513647792907576  0.9244176380846749
  0.7018229946971161  0.6955785889630149  0.4950695775765687
  0.0839824515686981  0.8362277867613177  0.7563096421449105
  0.6635673279800344  0.6665051933779370  0.6746300870015068
  0.0020559765360454  0.0035956134420726  0.1604092743995257
  0.6657254154872098  0.2332405230212725  0.4746701385549883
  0.6727626311491934  0.2542867704032719  0.7586867599690703
  0.7573388366813896  0.2587258961467429  0.6794815916675150
  0.7532725566742905  0.4189848184002440  0.8416335411739624
  0.6800629836639585  0.1710166069918033  0.8401232459831494
  0.8367369567579068  0.1688283025942141  0.0005026595593121
  0.7589412596507734  0.0894939358580293  0.6800574770498015
  0.6707340270683082  0.3293937937866441  0.0022532552208092
  0.6821138289563937  0.4199422721207809  0.0627412481631082
  0.7689592504041687  0.3392331055233599  0.0695229769676304
  0.6654385737576612  0.7563599917058434  0.9191344712583890
  0.6643155778012527  0.1661975708713727  0.1607888093123399
  0.4017598717058166  0.6334062732647043  0.2699234089196691
  0.8383244474794174  0.0866434725707855  0.4125579169908524
  0.9177633605978370  0.7563030648474403  0.8391573124262678
  0.6628950897893849  0.9216382045365650  0.7523128515916506
  0.3114381661594866  0.5763436878788192  0.2447020955764841
  0.8419800216229358  0.2537742219830580  0.0772455972775385
  0.4161829132518723  0.6239993512567158  0.3965293801727123
  0.1680929150777823  0.7575429181027256  0.5967798146151643
  0.3144921075747134  0.6674655809705301  0.5020146037002607
  0.0031965205779585  0.7512075222968595  0.2400674706356112
  0.3944088919367057  0.6643788113748301  0.5814583065841940
  0.7491863372777954  0.9212765623783722  0.1581062110896241
  0.0003587895203149  0.4174250869784467  0.5862173907710306
  0.9175856053634769  0.9246397747458077  0.6788268511695751
  0.4966961616644561  0.6699897526581076  0.8377426236561775
  0.9823284092060226  0.7671747694218007  0.5952580763287810
  0.3315263420245162  0.5848117725909261  0.9202958124487747
  0.3092740288362534  0.6569347570551021  0.3266319787929704
  0.0831919353824584  0.8400047743664230  0.5970805716390069
  0.8329674799480180  0.6723172287778030  0.8387816072037366
  0.0023067251678494  0.4197918016184248  0.9174714941981622
  0.0836911586591745  0.6689689647680837  0.9175844810816915
  0.8342612240339017  0.8363448902646329  0.9988887461797628
  0.8342665639416302  0.9223019166093374  0.7590529911729296
  0.8326908584647140  0.9201221140514468  0.9194918109894717
  0.8328494684104387  0.8392969572458416  0.8395715666722374
  0.7631802659997152  0.4242424604905400  0.9930524090407641
  0.7504194455237534  0.4874698500347490  0.4185708733364827
  0.0256670620861364  0.8090713624239050  0.5010116481269435
  0.7725340360942324  0.5004420097676204  0.5853987257984971
  0.7642238012757423  0.5896503387475267  0.5046447628811738
  0.6696946409531958  0.5028096503339623  0.6970994441581132
  0.6674982397580029  0.5899499671925374  0.7636843327402875
  0.7507536664646544  0.5850952189543727  0.6815746051635025
  0.7420033144699801  0.5693682156778577  0.3217158538642833
  0.7528873669844874  0.6695456443387636  0.0811721826274468
  0.8311794566188139  0.8421988783965136  0.6785066805372145
  0.9195778200737715  0.1688596038032455  0.9193239567826571
  0.7978963607961520  0.8166969140262091  0.4988427809033591
  0.5918608597035642  0.3598916280120614  0.6066922892583200
  0.9181750752751126  0.6709922394025942  0.9170543728131357
  0.4090713323190776  0.4171623531771126  0.6713792062777703
  0.0029408722153858  0.3356115768455992  0.8382601673562085
  0.2351611772587492  0.5778364311951421  0.3301230368095103
  0.6802689916862507  0.5888969346847146  0.4228452566387829
  0.1710080627451028  0.1607761363343272  0.4976356121626523
  0.0027230460719311  0.4186389319465253  0.7560006351782578
  0.4915395527976681  0.4510443459982604  0.2687194952097600
  0.0802124934396052  0.3309381202810818  0.4145943068807125
  0.5787623699346990  0.3238076893403287  0.2607323692645368
  0.1632811533141718  0.3328553826990143  0.1647331663162440
  0.5866174285411416  0.3165584922475623  0.3916383293225822
  0.0013474116755743  0.3350510309529465  0.9975487620420863
  0.5036736485563507  0.3291180726681061  0.5508798057656242
  0.9138154897292100  0.8460515744157392  0.6022949100616586
  0.9200183787244495  0.3359285764598581  0.2443740466583472
  0.4129217378675477  0.5013052575151069  0.9206400789435116
  0.3131733822956585  0.5811418289624224  0.4168462445271306
  0.1635032502977066  0.5849381587089809  0.0788989063966317
  0.0026125176569315  0.2514775130192499  0.9186076862686208
  0.4559748426738377  0.5456981655871310  0.3266037810052370
  0.9172761617434498  0.0035944221080252  0.0792100248141911
  0.2473676397399007  0.5018761878720412  0.9206191564930384
  0.0821712704171917  0.0855456051247732  0.6705009600392785
  0.3200008807491090  0.5810930858183734  0.5886514444048150
  0.9187129503925784  0.8362491380331517  0.0777937864716142