 B Cr Ni 
 1.0000000000000000
    21.1200000000000010    0.0000000000000000    0.0000000000000000
     0.0000000000000000   21.1200000000000010    0.0000000000000000
     0.0000000000000000    0.0000000000000000   21.1200000000000010
 B   Cr  Ni 
  69 259 605
Direct
  0.4877284082477309  0.2558599537490786  0.8147926963197137
  0.7407617051379206  0.6916373645008629  0.5024956989173208
  0.2567972631310916  0.5022596511228322  0.0018039052398587
  0.7323897196138316  0.1613658295197162  0.3090256628429533
  0.6534236116926965  0.3492726268360712  0.4008040209752843
  0.4252883918594199  0.0920510491839649  0.0950851942736972
  0.6777397997355097  0.3356491009753063  0.0973421975175493
  0.6504338990302342  0.8384243990752027  0.4204460111336461
  0.8207930161873028  0.8416737431887913  0.4437660184991144
  0.2462815427866912  0.9284790213367895  0.2424935419482707
  0.2480168349814927  0.9158578402521146  0.9194954554059926
  0.5594605438267524  0.8936633442395341  0.5708255021827662
  0.8183680798905213  0.2599387822651218  0.9976866036783785
  0.4385865764722774  0.1838833947492655  0.6741156205532971
  0.8542205697670965  0.6725939899822194  0.3985196436008667
  0.6640317516097212  0.3512941718842004  0.5912451943168487
  0.9116801023412826  0.5973566115991742  0.9125117874222668
  0.4984662723845317  0.1736253003518741  0.2324399291634145
  0.2456757638131805  0.8109568067474048  0.5187172148474704
  0.5128648694852420  0.9290373351047377  0.5130302345992844
  0.5037159594758537  0.9936186080631005  0.2652092499046355
  0.2465194316457554  0.0866017382538068  0.7526117435036369
  0.5168202976082549  0.5781528292774041  0.0347302290936823
  0.5659031677579530  0.6623552913152050  0.1590587132088528
  0.9902312048474990  0.8385591702833174  0.2602275425861055
  0.6636041402781264  0.0106984676489500  0.5964977217753736
  0.0919216562970226  0.5184325356638311  0.6458028006895089
  0.5121503673004953  0.7390692451262302  0.4885215384911010
  0.8442648920637528  0.6609717023496978  0.9112523601733339
  0.8530943902258091  0.1600975759211470  0.5807143340737840
  0.9933419416602512  0.2371096158506737  0.5043379258726580
  0.7062662119145078  0.5831346168405165  0.4145335210856112
  0.7415256476141269  0.3382377552037166  0.1497790289130156
  0.6844133581016488  0.2206322348176393  0.3474155724433056
  0.9300660148479060  0.5266171345165819  0.3308601839366704
  0.5016955940899028  0.5260344455509386  0.2625988038265684
  0.8976534736844560  0.1016437593302711  0.0814457602226966
  0.0757872339932734  0.9999206575561349  0.5133802761633108
  0.0663599082721634  0.3242115325760171  0.0134163984236376
  0.7362244524037718  0.2602907090494651  0.4021695716027806
  0.5933305683250180  0.3214149451339707  0.3486885518437984
  0.6698048086156557  0.1669024494679093  0.9223034849775449
  0.1634068125141338  0.7488926728245469  0.1671820741448100
  0.4439346966620330  0.6674109454408637  0.3205398035741516
  0.5711918601123614  0.0764679892316730  0.7325722400016845
  0.6873753424095298  0.9056340617189713  0.4712077851071980
  0.1556321030741714  0.4172315869383609  0.5138675537364893
  0.1047249713962287  0.7711447152733979  0.5879564186046878
  0.8964982537054849  0.7340148107476190  0.4317916284827280
  0.7412635307052160  0.2580912614758900  0.2286880433828787
  0.0053620780524025  0.6596182364205154  0.7501431651511884
  0.3997496370098376  0.7449306470806629  0.5780020615761550
  0.5866359523089658  0.7241436707703960  0.5302243375348511
  0.0074153142329706  0.5813276272472595  0.4707838745231387
  0.9895363737283337  0.9852610857315827  0.4261404295946804
  0.7792792978182346  0.8105187684479620  0.6773950060545977
  0.0807916573656013  0.5083031314733201  0.8352825430522649
  0.1761729693288061  0.0675060233638496  0.3276823074575064
  0.3513523829589113  0.3366602353159354  0.7401368194152136
  0.6726825492409297  0.3908777427733089  0.1606161897392067
  0.1608930168247460  0.4982248071118939  0.4224845486090967
  0.9291524538910008  0.9341262428982255  0.4026150125473899
  0.4155886153214670  0.5746669251890953  0.9316465900742051
  0.2387667842759845  0.9973278049770763  0.1862313251670248
  0.4209084035431501  0.0041913841336871  0.6509393584371628
  0.4318379285085488  0.7596202765189813  0.0959998425038740
  0.6628570881137853  0.4096214378735817  0.6527795507005251
  0.3320771468727031  0.8332218918372510  0.9171634972799715
  0.9095300494930011  0.1636667575231727  0.6503119269667299
  0.6635865605085934  0.9122668162170660  0.0813068715159291
  0.2466267618294724  0.6698657731708525  0.9179874453512042
  0.7497436897870579  0.7446374938527919  0.8333268299475022
  0.7469590803431596  0.6660199444561755  0.9111431050683040
  0.7356636732500150  0.7299220426612149  0.6703377035547980
  0.7471729813612578  0.6619182430055510  0.7520060648033197
  0.6621449111306491  0.7463130291473277  0.7531306497870974
  0.6600947812929865  0.6429362850105517  0.4975458713599766
  0.7496901585928852  0.5005450935949386  0.2504696861295118
  0.7312593835496759  0.7531779288771376  0.3261819654594597
  0.7445635586527900  0.7500235436556075  0.1584986843156341
  0.6652773866052919  0.8377588340146618  0.1653007155292941
  0.6672385841678058  0.7476619013135970  0.9112526256793342
  0.3508571369770371  0.5048034150672247  0.0009691129777024
  0.7492076712061552  0.5814649569472997  0.8261129239856777
  0.6628550985286980  0.4975633863255024  0.8304413682367733
  0.7488683238992442  0.5798613861571450  0.6713989968907293
  0.6641654905133693  0.5758191856599564  0.5842477046333696
  0.6650872657615911  0.5237933738599670  0.4903579877997811
  0.6660551934084541  0.5061470906428867  0.3406277438366301
  0.3319076057926851  0.5851969172767661  0.7574868874827652
  0.4141906968599065  0.4979697010321040  0.7572537746838413
  0.3321097371544952  0.6664045929617569  0.0038155275453688
  0.3258043018650438  0.7514219308836266  0.0790348958863414
  0.3314334113905028  0.7433882996694201  0.4160549755016987
  0.4013841804473033  0.7562069694144026  0.3339111116220399
  0.4142279252777951  0.4148282934772338  0.0016950391947996
  0.3257687914934803  0.4170474480700921  0.5860549126594621
  0.3302510772067834  0.3336417647872529  0.8394749996995339
  0.7463011936521945  0.5785973157040978  0.9959546863767420
  0.0929952890014100  0.3506885746660451  0.5812206006067812
  0.7412543996726216  0.1646047992377975  0.4118327892416098
  0.7484723883434133  0.4203387059843896  0.9954426298239574
  0.9151215887855413  0.4983160239129791  0.9129781187478585
  0.8341405927006366  0.4983981375812398  0.6681898126255994
  0.9218170390184773  0.4996862571719222  0.4246529815491895
  0.9179529115324453  0.5026733947414714  0.2400817162700203
  0.9179594084942682  0.5024827982885752  0.0816023722986172
  0.9066903628370786  0.7475488105341546  0.3310616993520502
  0.6640097980407076  0.9119809220866657  0.5793546973388759
  0.6656803143017137  0.8426117935500186  0.3148145657231387
  0.7484477237224224  0.9176890134095235  0.1594290839526803
  0.6671943764100480  0.4985519447432524  0.9920402815954578
  0.6662781503308789  0.4132163520248084  0.9167294294892345
  0.7579295595221984  0.4205673223729340  0.5022737250949030
  0.6648742580788026  0.4429765382576152  0.5611378033128640
  0.4922966296759724  0.8357553206536282  0.5136357353152873
  0.6669699337183689  0.9978407522095073  0.4975715325006136
  0.6636970437718444  0.0742116916553262  0.4262044526674877
  0.6808743795238706  0.0896358751568953  0.2394620029864866
  0.6637936406476331  0.0766576041010304  0.0769693308172858
  0.4986661631528677  0.8276272089898411  0.8321237227075676
  0.4202457011789164  0.8266721470553570  0.7536740763433339
  0.7433266559902528  0.1684345759521077  0.7539077046235765
  0.6697887940507291  0.1656483810037673  0.6657890213666163
  0.6667446810334031  0.2491262970507700  0.5798140890506791
  0.6668315352258842  0.4982835850406538  0.1657883239542659
  0.6640199188977872  0.1707115266102638  0.4943031323347352
  0.6544454782972448  0.2990263779874086  0.1883293738207205
  0.7491650314920150  0.0777290318422108  0.8338591511420301
  0.6701823939018142  0.0766532513835778  0.7533567468556533
  0.7478350182005810  0.4269208610969556  0.3316022188209902
  0.9972289950707464  0.4056464086063124  0.5850324232139352
  0.0818007063847404  0.3328925057239724  0.9156214844632740
  0.9933839380213048  0.4162841978679612  0.4053297340405322
  0.1623119658575495  0.0841418610351464  0.9182019813902487
  0.0013614363857122  0.9406903576979980  0.5828600990161686
  0.4092834304271777  0.4140975154240536  0.5050030140001546
  0.4088590686055165  0.3343735469650707  0.5847704769641011
  0.4135778727137803  0.4166357751062730  0.1667629620251041
  0.4188270729109335  0.5037408170680951  0.0889104008745396
  0.4891511592387462  0.9133682140112531  0.4180616601444020
  0.6692672807199330  0.7513715937591616  0.2420988162656364
  0.4748183663856826  0.9336624680120310  0.6009941570154115
  0.8310992009364847  0.3383751842671448  0.4965949202240155
  0.1410943826332672  0.9813050098634141  0.3367381433685228
  0.2474610175007542  0.7474697799205792  0.3426839894024338
  0.9085022471509928  0.6738191985325307  0.2400494596244755
  0.0783903339147458  0.0844437003938212  0.3302770727391207
  0.1622818851582966  0.0856455072693843  0.0794672340775284
  0.3315942105280161  0.4138993737043561  0.4174896988492299
  0.3306924962168170  0.3311326178313765  0.1661524489199721
  0.8310827021546832  0.8318266864334577  0.9993610309289799
  0.7456588035338179  0.5780652460999045  0.1640653901989093
  0.0029330221658146  0.3380389453369254  0.6752894478693594
  0.9997253337551824  0.4883601515327637  0.6653800324222038
  0.0654313744730694  0.4068467572599000  0.4819506635619496
  0.0876006242773199  0.4148356553889738  0.6709548081847014
  0.9937425067542988  0.3349911859625686  0.4937679083358287
  0.2450703023709072  0.4092412466154590  0.0020784890189605
  0.9960251428622384  0.0013529739420904  0.9992707798646965
  0.1722468914208550  0.6696319993689535  0.6721849364751789
  0.6669319216570676  0.6619646505909476  0.3403284169560161
  0.6650875076546210  0.7479888320030215  0.0806068806230516
  0.2471745303052629  0.1710180624160394  0.2481042697422239
  0.3141807164703134  0.3381375470020111  0.6531484022667535
  0.1636573004181616  0.2468574288523359  0.2498379443583223
  0.1627766477734219  0.4981621279479803  0.3259171881482902
  0.0818351580612808  0.6688420358041137  0.9192167704167573
  0.1726697098341993  0.3288117194235928  0.1723645227359054
  0.2551196039470329  0.5837098356033078  0.6752379007037306
  0.9993703023139933  0.4128685575089872  0.2456352065909111
  0.0817455312822205  0.4195519623214217  0.0009522760946332
  0.0030100476922606  0.4162599027113260  0.0799252984046666
  0.0843848998273617  0.9244204428366892  0.6774710048820625
  0.1645477265602775  0.5858841992987066  0.9164556628196834
  0.2436386954193832  0.1705470004428511  0.5856031852330421
  0.9989650221237660  0.8354286305893570  0.8361922507137142
  0.9981430877140181  0.7412621093987546  0.4300774728580166
  0.2460860768128841  0.1726477189579059  0.4206767161514353
  0.0862527833572204  0.2556973999437976  0.6712443497243477
  0.2588881689092127  0.5840951858729148  0.5021074055205943
  0.0787791897745337  0.8351447435929246  0.0815793350295646
  0.1654873253106992  0.4172069604442756  0.9193382400486760
  0.0873088532718322  0.4992928743873874  0.2442970255688884
  0.9933628792514562  0.5852122546894255  0.2532510361516964
  0.2479253956333587  0.5956579381680526  0.9993395945736284
  0.9970082025488697  0.7490830525551535  0.0801778955274989
  0.1653695348165976  0.5004661511468622  0.1666074743326563
  0.1621769027693562  0.1678398829954960  0.3308980843239949
  0.9968547430461050  0.9283510270137042  0.2318380156819612
  0.0856493518227768  0.8254943909014976  0.2466547200362670
  0.0841067039237318  0.4123330224174749  0.8385957369940017
  0.8293718369631291  0.7479250695356691  0.0793474416241666
  0.0963639417938793  0.8206432603299464  0.4183571115391554
  0.0673244920397041  0.9004080551152270  0.3148691137091794
  0.0781282507843989  0.9170964170314756  0.1605699397338321
  0.0833047477183489  0.7543047358999160  0.8388389407772393
  0.3256908618613208  0.1684184761321984  0.8412892123600487
  0.2480772011866690  0.5876159814170832  0.8374659169361411
  0.8303238378335906  0.4149063900418299  0.7503914672389254
  0.5744922525687466  0.4987652512474340  0.5874213031369133
  0.4881233205805271  0.4951076547210382  0.5050691495414276
  0.4945143666112588  0.5006618036467061  0.1668231027869901
  0.4990614866789597  0.4154555308794272  0.7541234124844189
  0.4958138464800080  0.3332533764278471  0.3393231124364372
  0.5766591794259900  0.3345622824931408  0.2507484384015314
  0.5784802251405617  0.4188992072720439  0.0003881764351807
  0.5779778179400401  0.3307031995186696  0.0859804408677608
  0.5014033481421015  0.3335453152121746  0.0012409667298684
  0.5782179120041900  0.4963879833671600  0.7513186521583395
  0.3231813462219120  0.8342129386736152  0.3378549868876480
  0.3279146620531869  0.0007462144847965  0.3398175850677421
  0.3290233602516938  0.6646551519510682  0.6724083972879809
  0.4791418527834787  0.7072218503471959  0.1741347486148108
  0.1528770676162144  0.8329507531030060  0.5134347668204406
  0.3277976838370498  0.0827705832118883  0.0830718212556523
  0.3312822791205510  0.0029498626347222  0.0038493453933340
  0.1613484567050866  0.9170854508155204  0.7524985989690777
  0.1591038222222248  0.8359949773923840  0.6684083147881709
  0.2415839470943092  0.9117924162894125  0.5051573026257850
  0.3317295082687090  0.1693630848345832  0.1644823250145929
  0.4127834877705250  0.1673703564453078  0.9222416439525252
  0.3344444558004139  0.0007238984796194  0.8323622549535356
  0.4156085113144460  0.0005911718612728  0.7538754253404408
  0.4070439374862619  0.9103807474085408  0.6800601769685123
  0.3948107702440498  0.0000439493265423  0.4239223342637582
  0.5764711745897647  0.8373994107913998  0.2549871582238604
  0.4135852219212964  0.0818667162317843  0.9970167698604264
  0.4154744557516492  0.9953782715909938  0.0829983326762786
  0.5869737047107291  0.2411728902060506  0.6604826071746945
  0.5202168769386257  0.7336396308157032  0.0799005921518884
  0.5028881131618406  0.7465497484948723  0.2704445100709097
  0.9956833611651483  0.3325149346090478  0.3274841793841924
  0.4991474091057668  0.9980980667808745  0.8334582977245996
  0.4915118744582055  0.2394296967370323  0.5974666047003006
  0.4930492356787955  0.1664634644941927  0.3349219781165462
  0.5666326480339796  0.2343447779575878  0.1755610500131140
  0.4911068267454675  0.2627058082353187  0.2576217098894880
  0.5803539217471463  0.0788878803812073  0.8348233847582243
  0.5804696676860387  0.9941943270642778  0.9118485040988307
  0.7357181756607404  0.0750213005816000  0.6659160502373267
  0.4961750422592577  0.0034846461579910  0.1624020146244864
  0.5714463387721720  0.9912136524647205  0.5696177883289678
  0.4896570085951022  0.0688548085404385  0.5870941929577598
  0.4889643049095305  0.0916429041852224  0.4182701673810273
  0.5824901848398659  0.0843157861782817  0.1553353599984222
  0.2504494755208048  0.3333342749560121  0.2505055132816435
  0.5018186045338916  0.9925775482284088  0.9953926467741216
  0.3304198959269742  0.9190198458844642  0.7533839063390030
  0.5829404867366984  0.1637624043832816  0.5797603911701665
  0.3294269931208381  0.8337189247155196  0.6753729650102912
  0.5108604661843050  0.0094310273731508  0.6800892476625197
  0.4089140768099799  0.1688071063358656  0.5829195204022747
  0.1648143434883028  0.3315362057077905  0.0021152114070842
  0.9967582747077793  0.0887967697896613  0.7560249655741340
  0.2491943278107104  0.2498180571244765  0.8377179017824451
  0.2477424892243237  0.3332432834443553  0.4139834828266149
  0.1626215677163984  0.0043428151121107  0.0006171312783690
  0.2513152907021765  0.6617863460438665  0.2525454629224554
  0.0008221658977527  0.2540402881652106  0.7533698659706315
  0.1666277046574809  0.4145413961442975  0.2484874481087903
  0.4144582564071725  0.2496403295435916  0.1670025801443720
  0.2361031018911825  0.8275713348638126  0.4203873958785458
  0.0960489755888833  0.6668948936327210  0.5933724880122581
  0.2490012816295919  0.7514678278024591  0.8363465396240913
  0.9143032216451336  0.1683479010642106  0.7522960721632456
  0.8177661478933616  0.1595075809570087  0.6791765044347636
  0.8372555583807294  0.1608632152792071  0.3248355726201963
  0.9347703980095473  0.1859451636505686  0.0763137218224027
  0.8338471106353698  0.1614583600915099  0.0025752360559881
  0.8271272120037900  0.0769361825911615  0.7541702807486818
  0.9183744685619378  0.0082669972993787  0.5891535355020557
  0.8350527357597110  0.0038166260465064  0.5024187785707614
  0.8385959137312564  0.0029711308361549  0.3273052743990406
  0.9121323701259065  0.0002619001226780  0.0765376043129180
  0.7507502777398503  0.9118926619336239  0.8373793137357092
  0.6627621666641573  0.8265506093036533  0.8361873314556207
  0.7551016306509726  0.9093600142940553  0.6686824262213469
  0.6717943614810077  0.8256332701428167  0.6668986698981287
  0.9278381236215334  0.9281053854388367  0.6711949192827813
  0.9197167824312510  0.8358089458559138  0.7573809630874705
  0.9243745237901949  0.8945598919391414  0.3178080327191870
  0.9168615810268027  0.8301213455418005  0.4189069332454469
  0.8312097603053918  0.8386735677428390  0.3251371984210927
  0.9229999392671462  0.7509787129376219  0.6631188945539881
  0.9234742741344559  0.7491569607677833  0.5233842015919205
  0.9148870443748847  0.6658216830637916  0.5907980466028113
  0.7574986110431726  0.8426243702669964  0.5902998049369006
  0.1608912271898889  0.8319119200118349  0.3336791767477706
  0.9163051481516526  0.4216898391298907  0.3289348033084313
  0.9428633162330216  0.6527830452706136  0.4317078680221656
  0.8471141124030446  0.3494558830289630  0.9909591029818853
  0.9146708606631595  0.4135997538656135  0.4999821725134741
  0.8441135818695731  0.6734841855332769  0.5025855535616820
  0.8324315771223164  0.1640067086635466  0.8264274657578384
  0.8290034179055066  0.3350491652480397  0.8302981269192437
  0.9174762555573515  0.9145240055627148  0.8360052019279566
  0.8314743880605687  0.3336731626651401  0.6696808210148428
  0.4137735360931511  0.2527354612984227  0.3364409900973037
  0.3246624007793358  0.1708043652690756  0.5004919039474636
  0.9133684618094590  0.0865284612578063  0.3256646427698047
  0.9963142275867539  0.0051417025608436  0.1562074271218174
  0.9966313119317135  0.0868020936685279  0.0783763790534596
  0.1623169676745372  0.0885347618500562  0.4204103847501745
  0.2499298480090360  0.2462042688256234  0.1637397035965528
  0.2372422953650905  0.0065034084801712  0.4065922602095934
  0.1671062445568101  0.0924406095094610  0.5873026596825219
  0.1614007802947084  0.1704871554637989  0.6690293928052015
  0.3324308789335715  0.4975445040450120  0.5019981552740991
  0.4133231255730909  0.4974225421779112  0.4163528093441390
  0.3326910769904436  0.4980950955051971  0.3363734126022004
  0.4095637575616164  0.9194542933058146  0.1652166694396054
  0.3349743456715193  0.4971887024502350  0.1675547457200250
  0.1681784808132260  0.4180216802401844  0.0849707900886478
  0.8355812625460816  0.3426782900085414  0.3282563786641240
  0.2486491224269490  0.1689108866146283  0.9188854769448912
  0.2447438347611256  0.0044236892024618  0.0817365373760336
  0.9118474794626277  0.7474383779842191  0.1561794282537305
  0.5790533653443098  0.6627905746835826  0.7516087242726762
  0.4990692386240261  0.8295098635609737  0.0044869856037593
  0.6017550553012464  0.7502226942530622  0.3430215854430892
  0.5795133234121609  0.9100767810954379  0.9978480814542394
  0.4988198132304590  0.7470916961310549  0.7493263668326418
  0.4916550494113779  0.8219234420684958  0.1624506152788013
  0.4096734279694436  0.9161032495776260  0.5005084685700751
  0.5838162597221577  0.2494565680396169  0.8343414832953190
  0.4979710389891087  0.7424341338556909  0.5876751302326931
  0.5915716792209664  0.0191718233479720  0.2336897838127101
  0.1697174853959862  0.5869752454934910  0.7559915258426817
  0.1618165624585947  0.6682823672178154  0.0008530612296456
  0.4051116163381419  0.0873640292185514  0.3371940246247170
  0.2525015518458296  0.6553243697874975  0.4120373857667965
  0.1611403491786433  0.9150186258029527  0.4206164857612847
  0.3269804657113792  0.0880273759620634  0.4219299686735012
  0.1750060814175112  0.5011988747026753  0.6785977486484051
  0.4113824012893756  0.2495890406393982  0.5036771159319229
  0.5190731576736661  0.1396010149417262  0.6675142842318850
  0.3279883273223135  0.2494838994853145  0.7555279556422773
  0.3266362134323442  0.2503633145321625  0.5827954734420652
  0.4005618168311376  0.2666776560218963  0.6713639107436851
  0.2444533378251451  0.8307097002245712  0.0799999994989450
  0.4105627881624976  0.1723066271935821  0.7617671408855714
  0.3308945549578485  0.1713449367923743  0.6684424847818707
  0.2402542645609069  0.9137459882428115  0.1530998636986216
  0.1634757977203021  0.5778122432668176  0.5976671785990034
  0.4073915910642747  0.0916764915190299  0.4995387556961070
  0.2485664954517145  0.7511816803108970  0.6762919561818728
  0.2542106638473136  0.5046282962842938  0.5907403350983534
  0.1616867272838273  0.7505489519861779  0.9196256890392990
  0.1612889327859753  0.8343904298644282  0.0012903472348635
  0.1583760901585751  0.9197600567489420  0.0790018275279572
  0.3286613648085002  0.2524717888717927  0.9240432079947931
  0.1615298355619887  0.8373112446351419  0.1614421370302900
  0.4101662036069986  0.1712310910333477  0.4192714370805732
  0.1692930711995520  0.7440004239974667  0.2562701963741796
  0.3282983839503393  0.2536107055686448  0.4189506005811291
  0.1624128105749459  0.7506336311384750  0.0782647511011113
  0.3320083068420914  0.1750815200040246  0.3356035806368577
  0.1591714902067137  0.9238552067731316  0.5898639865688518
  0.3110061610914453  0.9995358601366056  0.4965798724331087
  0.1683215095522583  0.7557474541449125  0.7554088234206808
  0.3251082509103120  0.0894194973932106  0.5830781231873901
  0.3295268892424221  0.0033019590492325  0.6694170064218099
  0.4992772374814495  0.9138518820546080  0.0850769946361780
  0.1670389793321096  0.6712822418722818  0.8378256243974320
  0.1678678145245876  0.6552169760920193  0.5056010649185132
  0.1644907339482046  0.7326232706869514  0.4198569836226054
  0.2445056248934576  0.9179314989967778  0.0073878865116561
  0.2419757425685418  0.8350364415769980  0.2506158915757386
  0.1567656175835667  0.9188644094464199  0.2435790064884165
  0.4040667820746697  0.2495977300770198  0.8445964043538192
  0.3301464226020964  0.4159756698610823  0.9198536797530119
  0.4155424423110905  0.4115173914495654  0.8325759587579915
  0.3306250170952710  0.5840238775959501  0.0854846155460903
  0.4123059983137636  0.3310706380716096  0.4214337030891284
  0.3283085328500736  0.1663639995415102  0.9992668965065111
  0.3271175629690625  0.3329210458002426  0.5022348520085056
  0.4179375605979844  0.9996172893078634  0.9168392246173593
  0.2528644335266679  0.5001262396520080  0.4170772128999211
  0.4151275936812118  0.3339099055729162  0.0837029840487327
  0.3309483173407793  0.5784768838593518  0.2529985864123044
  0.2495475651256784  0.5805640455105137  0.1682875360067886
  0.4084514041217284  0.1680935234503751  0.2508270118063613
  0.2518273043756752  0.5031837838509431  0.7594356748654533
  0.4102324396024661  0.3362431358301312  0.2497405746060297
  0.6461993752420320  0.2548936083301216  0.4223118795970792
  0.3942306615745417  0.0059901331482312  0.5659491959193009
  0.3379226060585078  0.9229057624237715  0.9161843987071387
  0.5828096782371118  0.7430498538407262  0.6686548405785303
  0.4998997290954151  0.7478606012741128  0.9173498438684133
  0.5801636170972555  0.7469857327004737  0.8333729311616369
  0.3303743339985798  0.2530565387617420  0.0815828745323334
  0.3312791313730698  0.3351313397104662  0.0016202200441109
  0.2481848592429698  0.0044495178564817  0.9194953631333873
  0.4991897606133733  0.6651178788497544  0.8339362651447355
  0.5852279490317150  0.6655730686242549  0.9134911655075093
  0.4027695469952978  0.0767865695837879  0.1784113070485240
  0.4113756461208313  0.0848234725245856  0.8414214852887063
  0.2411961371023389  0.9149960953696713  0.3366049169560018
  0.2491074778202339  0.6694633515485439  0.7569431004456136
  0.4100341272065128  0.9971382786452501  0.2560216721598029
  0.3355521512083974  0.0875200505837631  0.7559099837416311
  0.4092771055942954  0.4067599835425131  0.6770814792375267
  0.4050009248481635  0.8323593709122735  0.2473720045072089
  0.2395658090669117  0.3309795317577416  0.5778613314821414
  0.2490390992804296  0.4157439400446908  0.4991284860877970
  0.3220583678378613  0.6647025258149146  0.1664204887534009
  0.3196433979036566  0.9135979486532282  0.4205938019050492
  0.4168982490369375  0.9171567147208103  0.9983826440813396
  0.3322689930903515  0.8297553087167451  0.5003399518950433
  0.3324303456016226  0.9168956878599832  0.2547384202799450
  0.4062502316491838  0.8348925452530552  0.5884578170204900
  0.1694904554322752  0.3344025126301079  0.6717374324737543
  0.1813120929285518  0.4218620820421097  0.5994344583409796
  0.3278311766164226  0.9212627660871923  0.0812617907867675
  0.4191764807346763  0.7478047226980716  0.0038476500153370
  0.4037257674509533  0.9172668683668969  0.3398286733651679
  0.1623982845737714  0.3287978916051595  0.4926572322854653
  0.3277105532377144  0.9179101051304774  0.5873502574709387
  0.3224148748291039  0.8435765127141007  0.1654198600981613
  0.4086696246971818  0.8439759485879240  0.0824440786004600
  0.2488572148348584  0.5776725044425483  0.3316291482652568
  0.3308283367513998  0.0824020688407866  0.9193916414541181
  0.4939072837168965  0.4976886492562090  0.9962199488359001
  0.1693944388859633  0.5007961920100303  0.8355621746807397
  0.1639905117573779  0.1717848127700994  0.5010839462743860
  0.3325669417442397  0.4163070898556890  0.0834600816485036
  0.4963706213537474  0.4145694804715933  0.2506385943193590
  0.4083358724742383  0.1767729102126407  0.0738618209513727
  0.5801345177965063  0.4143995105921610  0.1637007021971522
  0.4157705567502937  0.2546270255594013  0.9973260558761208
  0.5675596029591085  0.3349880778536587  0.4339621066180107
  0.3315696709619293  0.2515578485472691  0.2503722816543541
  0.4898436505604202  0.3290810192224333  0.5108706764699722
  0.2489996917072541  0.5013836138371484  0.9142402880432635
  0.5753044933863997  0.3298994015755196  0.5850119203138078
  0.4118662268013649  0.0920066236974783  0.6729618773708056
  0.4970726891979345  0.3314294810586773  0.6660455301697124
  0.4127994024225619  0.4126037225645682  0.3351845941777795
  0.4092574199761411  0.8347921145082737  0.4185940065515639
  0.3852087566602795  0.7578873172033285  0.1723337984313562
  0.2522140504359202  0.7521860428644822  0.1673493442707861
  0.2463892466874299  0.7476744855943672  0.9998985567270476
  0.2451285129539610  0.9224908417352700  0.6741213818984132
  0.3303979063752319  0.3329906486106599  0.3346800425559890
  0.1591543144465142  0.9195798638110518  0.9197828410620940
  0.1778570428111539  0.5078617272324576  0.5090218931689662
  0.2445436853376510  0.8433552056106729  0.6005898950500681
  0.1682330733210357  0.6605132486648261  0.3315431557719192
  0.1664497407705510  0.6605593913406054  0.1676822810006209
  0.2461905836957944  0.8361153820112182  0.7523203227504724
  0.2460234162956261  0.6676435466470605  0.0844073601868452
  0.1648263166025455  0.8352015750714824  0.8375535516902289
  0.3349291723509725  0.7444605894808549  0.9206644128454763
  0.2429086890434327  0.8269942907853806  0.9201070795596269
  0.3291567147347422  0.8349953590256326  0.0055197794437604
  0.2474944406143115  0.9173603328834661  0.8313558991625454
  0.3304061319118107  0.4166978994095222  0.2516772497406231
  0.5804011888141900  0.8284640800050689  0.7474700002302296
  0.3181569466182342  0.7530999732122322  0.2576547099088610
  0.0805964041965510  0.9131247200525756  0.4981392010855102
  0.2530700719970125  0.4217874790455308  0.6792433430323925
  0.7525333736161424  0.1696464725935527  0.5810636440626880
  0.2509260079536775  0.3337150371749865  0.7544262591929116
  0.9159462303094903  0.7525111959114386  0.8313413144531102
  0.3121290639257364  0.7526791814284469  0.5851041673527144
  0.6698907870159405  0.6635753293570414  0.9936634935867756
  0.4189526147791120  0.7483600843712893  0.4909498999555967
  0.7467490736476847  0.4968657416810603  0.9097106546518190
  0.3323453631075704  0.7485057278729061  0.7534086899993853
  0.6677261269744343  0.5757942821294338  0.0804384272304084
  0.3327596936624636  0.6680397896482169  0.8368531609169227
  0.0026500396415881  0.8373203580018409  0.6797352051276165
  0.4119169699285898  0.7471035561799979  0.6699872154419405
  0.7535555510954779  0.6572102983151019  0.5873794179208787
  0.4163431523944027  0.7468346123803647  0.8360240171349927
  0.1653253268422454  0.5859665981352976  0.4167618433778329
  0.4990901685875995  0.9133442377143074  0.7503246441227835
  0.6579414519047962  0.2469791252257257  0.0811733686008292
  0.7463309563993785  0.1600542379527308  0.0752409290601939
  0.4978373425762974  0.2508341752529213  0.9165597383266799
  0.7337435920490741  0.2379422480304023  0.9939746377806113
  0.5826044547039315  0.9932415737638396  0.0804540568704966
  0.2349103314764320  0.0130479582159665  0.2756903904134092
  0.4871365293416561  0.0825927721220746  0.2522064401284122
  0.6652408797894616  0.2134816355831748  0.2566639743087007
  0.1624519718866878  0.4101679387119118  0.4143127113880132