 B Cr Ni 
 1.0000000000000000
    21.1200000000000010    0.0000000000000000    0.0000000000000000
     0.0000000000000000   21.1200000000000010    0.0000000000000000
     0.0000000000000000    0.0000000000000000   21.1200000000000010
 B   Cr  Ni 
  69 259 605
Direct
  0.4786912736035031  0.3085629972694031  0.7644491833135804
  0.9299873920957458  0.4428303438869246  0.6042470230462391
  0.6730892759180275  0.6113597690549420  0.5142401920401175
  0.9955569456233889  0.8440674357806962  0.5735097948781387
  0.4146082220094053  0.7968663025196073  0.3081588407764385
  0.7421863920064002  0.0752178078124287  0.4246490295466135
  0.9238134797082119  0.9981921680123692  0.4852871987586449
  0.9947900082586723  0.6611365090534190  0.5552218295225025
  0.4281816880671684  0.2641446314262019  0.5903008151926246
  0.4066133829880097  0.7558511002117773  0.5510003945666747
  0.4308948988829824  0.4148710737690969  0.4168719378363676
  0.3413390064883081  0.6675375175251042  0.4214241069748899
  0.8437348933834129  0.9239184091239133  0.3646725519859546
  0.0862311324193928  0.1852563061892953  0.4599685572811165
  0.4214685636782274  0.0829627898872326  0.7335047937294552
  0.5828843595123058  0.2738976661905277  0.5674769324343216
  0.9919310840252373  0.9076525715225430  0.3601096853841994
  0.5024882181347720  0.3508692628045357  0.2436176388594681
  0.1503402339627350  0.0884493076246261  0.3364171215754446
  0.5939159063132662  0.0805599854126991  0.7117979492720583
  0.5393787072412838  0.5087748129558506  0.3174252301929606
  0.6573224390354300  0.4183017332607722  0.6519600630974698
  0.8228783849096645  0.9189104873048235  0.6521292391687106
  0.3598404921056344  0.5780095716505862  0.3272368922724290
  0.4985443972593300  0.6608820282919916  0.4188358679088875
  0.5087402077568972  0.8131016577981713  0.2427389747656142
  0.6504741984734448  0.3951983405931125  0.1491792670455830
  0.7339932264831383  0.0295357406278301  0.4993389549433316
  0.9899453291041217  0.4948995464928808  0.5779537412836350
  0.9898590983724568  0.8678832974217383  0.4354974892386262
  0.7295918420905706  0.5782651350692487  0.5717679251337311
  0.7762474780573354  0.5717132904834996  0.4062637974142719
  0.4956688609002796  0.9186186892063886  0.6430637061747362
  0.5908387505829767  0.4317810125178523  0.1050782082687949
  0.7377195805012152  0.2577469492181644  0.2403765558826818
  0.8450432640938014  0.1733885654868066  0.4637091789635047
  0.7096725083431352  0.1682198585874773  0.3205093374509587
  0.4906305582375185  0.6019664063683745  0.6352752168452556
  0.8298019018735510  0.5932984564012891  0.3406862252877941
  0.1032270977041690  0.0012692364024753  0.4702560096024725
  0.6743126491912046  0.3121857331525655  0.4216781442064538
  0.0128823068249935  0.0883853326237975  0.3393223521433544
  0.7495769228048245  0.7595331238960344  0.5465227096243672
  0.0812387096127730  0.0788169801222395  0.2916205208346865
  0.5886297200353059  0.0653021910873708  0.4214185227261395
  0.8996512891291403  0.7486758830779849  0.5622732891652832
  0.6152353658087707  0.1632427971023691  0.3223485195401943
  0.4337612867812703  0.5818489138907302  0.5755576814321826
  0.5897630461935144  0.0045583033887844  0.3632383120971918
  0.4103152534318502  0.6788781004816645  0.1903940336180077
  0.6468643003073078  0.6705347934773491  0.5706651355093054
  0.4068031661018039  0.0485862527331573  0.6583316805032766
  0.9330598535255903  0.6977077319725392  0.5082761064914297
  0.6781563741184923  0.6911347791840782  0.4016155166097472
  0.0759528948554758  0.7536071364493130  0.4196245659479034
  0.6569026342153906  0.4786167647797611  0.5893344177567381
  0.8446397884840062  0.1742098682300918  0.5476299543992446
  0.8603048719978788  0.6054262378174595  0.5212686900292320
  0.4963628954611747  0.7138381164256368  0.5223731785923517
  0.0815349470262493  0.6668740739320692  0.6663965712847081
  0.5058013474813170  0.4205804208764317  0.6691362811612185
  0.5100382950997665  0.2557945332410775  0.8168379391379168
  0.6685907428883499  0.7499201838302375  0.3417503859769535
  0.5789972150285991  0.4100418608442138  0.4272158867371627
  0.5246681858503283  0.1323900429945263  0.5808827690813844
  0.0777397607625083  0.0851661888516050  0.5713104935473445
  0.7107467092379206  0.3239770354092021  0.4994571441454014
  0.6814824674989960  0.3380835985642083  0.0981006513169554
  0.7078390487124502  0.1745854510038285  0.5314774846481544
  0.5827634063903490  0.0055841130458076  0.0797504571771603
  0.5460765011434795  0.9760190220237801  0.5784595002688884
  0.3183035077793386  0.0837940201496363  0.4102126149901376
  0.5751853332395125  0.2497435872401714  0.1666872019403817
  0.4837082299776737  0.0781546909178518  0.4159637392771394
  0.4997189042224245  0.9234067588648744  0.7590361120751660
  0.4096693272437079  0.2532691063640467  0.4943229847938705
  0.6662341695288148  0.1670592306905946  0.0010487980627075
  0.4810817199037992  0.1618907286934645  0.3303400368175493
  0.4123892187408014  0.2591536670638464  0.8361314657604443
  0.5833995293575610  0.0048394356105050  0.9192166341515839
  0.7570766890539626  0.9935668816579604  0.5982202793602615
  0.4648554598240355  0.0004298859962284  0.4961688088955185
  0.3294650747077190  0.8376801114544903  0.9991627379204838
  0.2480789564165419  0.0032801702093950  0.9167017219473779
  0.2497799799324109  0.0834134825896310  0.6714601003017189
  0.6108757577397634  0.1746937627173575  0.5667837993283230
  0.4095586713607904  0.7541058549923852  0.6820827903169203
  0.5014499322040578  0.0146409149886856  0.6791888539801867
  0.3308556828337728  0.9955926557479220  0.5077368665157989
  0.5781255698497644  0.6707214259601333  0.7621493831894820
  0.7589068878384098  0.6666976754120663  0.2389235720407448
  0.2487424179220474  0.8357490141959666  0.0770192764004835
  0.2471209459290250  0.1659341191590770  0.9188524929848302
  0.1663223972080898  0.5838021540692585  0.2446060303335595
  0.0061093113910761  0.1703473664437909  0.6814612426566786
  0.0875581862623167  0.0838708783103870  0.6720669583444095
  0.4989448964781528  0.8426999824638113  0.1528088416665433
  0.6657842975292309  0.8346059088962775  0.9997565794945664
  0.5816314081183737  0.6640722224834423  0.2420474582405120
  0.4977472734300771  0.8373311617286174  0.9998827002101709
  0.5968593309482196  0.2541375389342724  0.6670794741168677
  0.5824210460544148  0.6722148921995961  0.0875839822757603
  0.4912760633214255  0.3246030738822810  0.6670437354607613
  0.4745609334652091  0.4960312262179454  0.4833648121755628
  0.4945207110051975  0.4165101537074219  0.0820026011422368
  0.5784147692384032  0.3093300049367744  0.7618188463422415
  0.4804945536008654  0.2481268142556780  0.4040617411176269
  0.5836690846580793  0.5846043021559811  0.1600064982955426
  0.4123629583750467  0.5014963558249141  0.9194151411024190
  0.5821617100557053  0.3328683538098451  0.0882221288250025
  0.3278149064667784  0.3359318727868773  0.9988083832737321
  0.5757216228364703  0.5015189526656413  0.7584808942640968
  0.4062875012170459  0.8225032742288888  0.4056233743891279
  0.1676114641722884  0.9189781274862886  0.2375989510114682
  0.3301407198493428  0.7507479245350448  0.7595035706354341
  0.1635603702416899  0.8488640949697208  0.4978917178084343
  0.1664458283462220  0.0012526231599658  0.8371141297224328
  0.4152598817600864  0.0041953032461769  0.9173975881303186
  0.4206229956883662  0.9685753476638228  0.5920106059059330
  0.3947679365324442  0.9988175323130067  0.4092317242508864
  0.5702234701749261  0.7570581143118831  0.1756258176119634
  0.4149971232744217  0.0853686390259406  0.9966029344950436
  0.4124347465528915  0.0840375935469631  0.1609238751302279
  0.4889226652211908  0.1661108827340032  0.1618546894085274
  0.3315880136645052  0.9205550264842018  0.0764492479058371
  0.1647511533239151  0.8363484478371691  0.9964891195265358
  0.1669372276849038  0.9185205577228772  0.7587957405874231
  0.1552440453369045  0.9319923015496815  0.4132512012410948
  0.2497274781740838  0.0868881974039311  0.1583930232164632
  0.4150242539603537  0.0849577124062579  0.8394520251885342
  0.3227248647400136  0.4175359953602680  0.2436012064203686
  0.2386384680073272  0.8433581628542309  0.4087112469554652
  0.7714145483527237  0.8674145193232247  0.4040803695831465
  0.2475175986121384  0.7516012506262104  0.8390023851087539
  0.4048308682422606  0.2505132740227607  0.3296834731725024
  0.3964069112382559  0.1714496408812964  0.5750034393718807
  0.4981510176686714  0.2525415977962657  0.9219215043226748
  0.5795427884267979  0.7530165879025276  0.6820421086418617
  0.5795557828931537  0.9997593231853109  0.2472217973176577
  0.5743756580047417  0.7544411785432593  0.3044782187813617
  0.4094287263200360  0.6715405405308970  0.7616003378194601
  0.0779625708059181  0.3322289797976516  0.4166456310497079
  0.4113398434302569  0.3360050322151884  0.9210934580259136
  0.4973191227314864  0.3362696516856049  0.9991945584728769
  0.2461337340184147  0.5827235518907207  0.5069334893050742
  0.3952971034886311  0.5050746913503448  0.4181691120717737
  0.4034363324541929  0.3391482433465354  0.2433434432171959
  0.3421468751405992  0.7428248330523897  0.2458921257431850
  0.2447343104800442  0.5017389924656775  0.0800703241694838
  0.4990903900533989  0.9228479741729869  0.2428875143396089
  0.3318791557311482  0.9077618634191604  0.4087654733956400
  0.4115841924737201  0.5803446021010538  0.1615270229080451
  0.4132122997141974  0.6675231329985318  0.0830723904248451
  0.4065336995531312  0.5028791200728149  0.7570369622932296
  0.2431408305460900  0.6682518542743364  0.5930832214986276
  0.4147710564377529  0.4194957788334222  0.1640745830193126
  0.4146946742421591  0.6687172765956678  0.9197041637785953
  0.4138854440762945  0.5013123933631890  0.0832825703966515
  0.2468321485611968  0.3356045803899958  0.7544350666079325
  0.2442765749975751  0.3339757494246547  0.5869149527762605
  0.3186370317163885  0.3370022686261925  0.6731478686887218
  0.3986842910735737  0.4130962067529870  0.5076061095695694
  0.4868877679733681  0.4254539815109725  0.5738850438581218
  0.7376668812757530  0.7728380358352340  0.4176472142994532
  0.3911014317889624  0.9069589472348010  0.5009236225649566
  0.9164003804035044  0.7936881490963862  0.4793003413079381
  0.8362725461570050  0.0874206435317489  0.9212970681776635
  0.0054558214377773  0.3358926995003174  0.8396312735145288
  0.8391663112699814  0.1717403514596514  0.6844894871768047
  0.8380208017834133  0.1700400364895684  0.3285002410273399
  0.0834690916658253  0.4179553309253161  0.1630744368130914
  0.7556960686526284  0.2525967030709084  0.0001333461082329
  0.8353248313029964  0.0896927401494948  0.7610355286191185
  0.9170641175239896  0.0070757173004275  0.5886520143639032
  0.9080244242032466  0.1005321614992408  0.5099922680459285
  0.6684884064994114  0.8972674028450022  0.4137444988013719
  0.0833414335949144  0.0862060255896061  0.9980926742908722
  0.7526732213796686  0.9195099765739068  0.8393699012766231
  0.6663064569440840  0.8343913008162717  0.8412705388329618
  0.6685154774640574  0.0084193460736567  0.6746198068938020
  0.7466364611277124  0.8343083573997558  0.7670725423338831
  0.8267469543927888  0.6681051268253211  0.6808875434959489
  0.7400379148143623  0.9272669152344705  0.5059639314283986
  0.0859775138579945  0.9232524787712308  0.3200695773783234
  0.0015930935738739  0.4182808720852905  0.2465071885556974
  0.0106470903283129  0.5919577626847876  0.4025817698481647
  0.7545258573520679  0.3345402922975265  0.9208306391145296
  0.9199987016853742  0.4263481171045985  0.5030061832740876
  0.8364734957370443  0.3371978021460492  0.6810384523525692
  0.9204179532597689  0.4203666416829180  0.8395188949274307
  0.9232188052941398  0.3367472835994642  0.9154940995841095
  0.9160030507582332  0.9199244994807686  0.8400532431561349
  0.8374612169666582  0.9194840382496826  0.7615840255060615
  0.9181131030018951  0.8346082493414460  0.7577939999858384
  0.0175872616650499  0.9629185020213071  0.4318225495897043
  0.8303354995150568  0.7049881766198097  0.4959638912444734
  0.9962784726454487  0.7522255600981900  0.7560940460896336
  0.2574092954190667  0.9902663899263159  0.4147531997787707
  0.4668727647247790  0.9135105167092382  0.4165256134638253
  0.0029777878248265  0.7513196304681620  0.0781649113422022
  0.9193902676210723  0.5035001609287758  0.9171136012170388
  0.8347350668598662  0.5013033579996397  0.6781666255597567
  0.8278966859376996  0.5046750884847345  0.4941866912408099
  0.9227864883099716  0.5021507819658533  0.2472936339628812
  0.9204792632768609  0.5852849255654553  0.9986126762227694
  0.0051854272458988  0.6754891728988318  0.3298507181561983
  0.6696619639194794  0.9157161102257110  0.6055597888720161
  0.6732548750427466  0.8446749077362102  0.3251269141084417
  0.8338446780869297  0.0082283980237558  0.1541282633576649
  0.5799906650267315  0.5909295989547730  0.9967270497970585
  0.6646042704833873  0.4212180768886404  0.9210795571278901
  0.7710862238333527  0.4177304859193779  0.4993961521203980
  0.6547897842831524  0.2361074896292863  0.4826060676377916
  0.4653475543741653  0.8109438956174043  0.4934382008126121
  0.2410960661448419  0.3313198636500931  0.4153280830436596
  0.6837141775949738  0.2653048662551718  0.5858413950831658
  0.6658213824751023  0.4976128615525046  0.1525049736945438
  0.7782684405537711  0.2428893283762255  0.5059287383936601
  0.6609714981506901  0.3071498987186876  0.1872857150950972
  0.8348596173050675  0.0889394814376481  0.0797444824795260
  0.5876244851025858  0.0862009895408228  0.8443768095620227
  0.5562178070446929  0.9710804425540189  0.4499620534953248
  0.7548230742027126  0.9228955362108930  0.3111912350104639
  0.6633362087631071  0.0941326116772963  0.2495813295576983
  0.6644036292315181  0.0894260586880398  0.0813471291295008
  0.5812877351135707  0.8357996800945511  0.7612576413436836
  0.4115590159759564  0.8333459340345459  0.7625667711480907
  0.7532433719689224  0.2537081836353779  0.8436093503938946
  0.6684084566198469  0.1669168287337952  0.6736653373817904
  0.7498470584270810  0.1774852496340122  0.4176955835525444
  0.7556407135254918  0.4150835421246920  0.3270150566487354
  0.7510819662021786  0.5886116067442472  0.9987245029677027
  0.6668204230944543  0.7586556698512885  0.2392185954602178
  0.5867840164793284  0.6807503230994485  0.4838875813081100
  0.8414662238829174  0.3399884045515236  0.1587469130622822
  0.8339639158677786  0.9187500054250312  0.9201139118302393
  0.4940940682458467  0.6689004009975020  0.8407789088908383
  0.6683858997752511  0.6692763704728573  0.1668770765653941
  0.6656624631341572  0.8374993976673628  0.1581032392260948
  0.7511511803543104  0.9200214034176895  0.9991467614713949
  0.1652053610650847  0.6681707041095374  0.9983782406347740
  0.7498759464868237  0.6679498669637117  0.9217072852921075
  0.7516887636903330  0.8534654739595872  0.6005511959993838
  0.7461860571560759  0.6671669759773210  0.7581251863866395
  0.5755156895162730  0.7785970774914586  0.5187265570150911
  0.7615443192145201  0.7553154950723164  0.3120417381431141
  0.9982865969418089  0.5841992743823262  0.7550411577068187
  0.7489532148797514  0.5869966016641736  0.8384825077650658
  0.6640611886754250  0.5017031551748439  0.8395392242812387
  0.7504959235574394  0.5072677290997076  0.9176114898174362
  0.6384850152537860  0.5737150928342221  0.5985155073568788
  0.6887128832653933  0.5090610321540434  0.4999886016109422
  0.6742488885239597  0.4880925802879092  0.3211753892094251
  0.0055556588442131  0.3360450302023503  0.6772429569300322
  0.7547104857383999  0.5817318194044305  0.1589164397093961
  0.9977881756015970  0.8346433169111832  0.8371253156127834
  0.3274027147961895  0.3351465770509275  0.1606996506404534
  0.3232081463868378  0.4172972802002881  0.4166958712950505
  0.8512026010767141  0.3355314333588630  0.5016352327334914
  0.5036271583382776  0.8916003900111309  0.5394543119045956
  0.3253936116195830  0.5031612485970445  0.6737186750663369
  0.7533499263056116  0.5059369979973025  0.0801219249163615
  0.0846627213097064  0.3354596705034918  0.7546508138459169
  0.1663355338564247  0.3355365402334858  0.9985470485679327
  0.9259501356160315  0.3325001116906737  0.4145049844620057
  0.0836213042595069  0.6692119327587102  0.9173834855691385
  0.2490725929339773  0.1677480114740706  0.0794545245667514
  0.2408587639495927  0.5053339975856177  0.5881010169247289
  0.0005971557136953  0.2537604143218453  0.2405701732255920
  0.0016633056599387  0.5848565102919799  0.0790090630631351
  0.9214502964043515  0.4220676647326666  0.9963493712765865
  0.0967081679684815  0.9925865202854657  0.5882589330600727
  0.0840161699795274  0.5044659102384642  0.9170562277309003
  0.3235541505559345  0.2509989954308646  0.5855950624244717
  0.9993393803331679  0.9201090691241072  0.7523621814783539
  0.8087583867593167  0.8223427125461914  0.5055519284344451
  0.2423163264123342  0.1653088193543751  0.4125977254808822
  0.1706994134237570  0.2511526018571078  0.5882881308178477
  0.2351951558702622  0.7599088337379496  0.5033857973079066
  0.8382784217548277  0.1704192738206839  0.1552515939560977
  0.8360374778371598  0.8350595052106828  0.1535745632050934
  0.1648142617381499  0.5029118509095631  0.6722867897546554
  0.8349249711191407  0.7514470334420268  0.0809787911505809
  0.0833697862062978  0.8523849462070338  0.4005153859851265
  0.0034253250549044  0.9214833716039801  0.2320065724988439
  0.0854433477910930  0.3364810106789021  0.9190007886053838
  0.1665647528116261  0.0876177584819858  0.2378687001194878
  0.0829906520334490  0.8356152048957057  0.9181834977815333
  0.0831425612860681  0.1725252717841773  0.2439583673428740
  0.0845679475056954  0.7516381992539506  0.1574203533978003
  0.0030951933382715  0.2535810471169322  0.0790375739643574
  0.0886007360607419  0.5857259089273934  0.3283328381101509
  0.0043503689991390  0.5864012159390702  0.2477933384376072
  0.9174266599345909  0.9190834643735692  0.9991506368179056
  0.2367131598933178  0.5821717426828119  0.3258641803778369
  0.2402955482338090  0.4980455464398088  0.2438588972261811
  0.0087216678378002  0.2452126896559923  0.4143994362183233
  0.2450700508240615  0.6690124686151830  0.0768991646288500
  0.2477217536532318  0.0856547113200697  0.9980161996248468
  0.0756674362384846  0.9130717928035544  0.5092598637592026
  0.0008791887048453  0.0015422858801217  0.8364039632506547
  0.2486802583194490  0.8276248984304301  0.5911097172352149
  0.6774104162553545  0.6635499500416782  0.3021885518432874
  0.6636209217975484  0.7515551009925460  0.0865193210946666
  0.9235235621808490  0.4205758097866795  0.3273492938362116
  0.9908187803871865  0.3319711443542097  0.4993452967176884
  0.2466738751780620  0.5852561480758651  0.8384134484753646
  0.9129179739927754  0.2434831168551527  0.5059383719379926
  0.0843324026807373  0.0885675405575765  0.1621637774952392
  0.1758138342162175  0.7596545079907806  0.4064741233975632
  0.9259551643361779  0.6674539873973814  0.2405937299425294
  0.0112291005785313  0.0142887686706190  0.5276181531707119
  0.3290629380348274  0.1676418878836141  0.1601749125883254
  0.0043057026938088  0.1684546121645745  0.8378093851061645
  0.2466090875946975  0.3345750995278416  0.0782823644140841
  0.1663861086704110  0.7531212674700766  0.2386986976144622
  0.1649551228617552  0.9199541676395953  0.9160556677799698
  0.1630756725520307  0.5021877160931596  0.5022108801918400
  0.0862713198421102  0.1678993590194403  0.7534721689114349
  0.0015390132678095  0.0864491644917870  0.7568087747764046
  0.0035035257164979  0.1710203634478552  0.1619678789181642
  0.2469601520332811  0.3347488187098754  0.9193106763467332
  0.1840839646285683  0.0677014857094527  0.4269105426045722
  0.1632761018340138  0.4155071829658140  0.2449042599894332
  0.0821121364267114  0.4161609409075295  0.3290223963847773
  0.9033915414933454  0.6586270197184882  0.5960138845764411
  0.8360670363379492  0.0057711155332972  0.3079019848677477
  0.0006006348255290  0.9200909142763829  0.0766758796184718
  0.9117593896440902  0.7507488317725467  0.6744439594578800
  0.8366678491473917  0.0907132009822753  0.2374733430666251
  0.7756969574853557  0.9877661471643030  0.4056465480825679
  0.9226960161162668  0.2535203254449619  0.9976218960331146
  0.0804039677720838  0.6683771032731244  0.7572893432699823
  0.6676455542721180  0.9189194161636981  0.9204253420320848
  0.7512977482384494  0.8394752457756919  0.2339377548420511
  0.8365987266962365  0.0884426901391620  0.6006937053631864
  0.0841803444531006  0.8360130601241186  0.0773784531599603
  0.8306667237748323  0.0141946345483132  0.5066360498072160
  0.7497784348904921  0.8363479192155014  0.0793774413605421
  0.0875601688966579  0.8366462191439109  0.2372382035631680
  0.8363420532881712  0.1697093017627836  0.8408075748332675
  0.9181786315831122  0.0075532369171589  0.2318645008789454
  0.6695439185853398  0.9244614890087895  0.2371535527661640
  0.0053078192839907  0.7502065150455626  0.2371147434307116
  0.8357332290934673  0.0062984647675516  0.6797737335893415
  0.1651417651293020  0.0850239480595592  0.9173326403784423
  0.8364949801420921  0.2545969775810146  0.2411492117770453
  0.0798918221976227  0.7558306250645881  0.6742620312245025
  0.8354844719309634  0.8403983562836128  0.3079777897075379
  0.7502606876081940  0.0093432144610444  0.2356854149000576
  0.1021202556351994  0.6662190849542522  0.4090389116396932
  0.7513989880451546  0.0872614443797600  0.0014228969716729
  0.8355587235947459  0.0038005311927187  0.8405812653981036
  0.9190366950588698  0.0871731482185441  0.9991600977387904
  0.9190522271994328  0.0862169803103382  0.8384828715321049
  0.8346636550612340  0.0040998453083036  0.0000588945358177
  0.9990545957074412  0.6683152135388682  0.8367602287963389
  0.0867434326915295  0.7560369156401506  0.3244257234332464
  0.5832457241848273  0.9203173258769691  0.9994001305601584
  0.0003235910625573  0.0875934654395440  0.2423472039444178
  0.0006198881732922  0.7517127962316341  0.9177231281590116
  0.7486838860429715  0.7494972853421894  0.8404992453636309
  0.6647428864881739  0.7516651598607567  0.9209930897507115
  0.0835651295587116  0.6734150820939389  0.5773694196704855
  0.9180651586196178  0.0037067649888534  0.9198150782654435
  0.9147434977995391  0.9208459377825140  0.6725354299858393
  0.9924655748194883  0.7498390231740126  0.5862717804640206
  0.8389213706735938  0.0878076073503107  0.4110058913005909
  0.6622488515382169  0.9215204478489536  0.7644564029483140
  0.8417519966980944  0.2539506796550415  0.0773651845050132
  0.1678930819072795  0.7513715038743313  0.5980653586977691
  0.0854783811682854  0.6695156151954103  0.2444787453339084
  0.7486378426785715  0.9228039496180175  0.1553201085461930
  0.1164001426282128  0.7509238090804580  0.5026182497795757
  0.6894068036083385  0.8216612765905845  0.5049356825223515
  0.0195756559571330  0.6941727747950629  0.4732372966927459
  0.6651876445320135  0.8362579936399291  0.6854851291745426
  0.8541388379338596  0.9162826193876700  0.4579794936742597
  0.2475305606972096  0.7516930539580394  0.6788629381052727
  0.9200682834185224  0.0899083309563644  0.1579183206490549
  0.9171258590274769  0.0876694956746556  0.6798898663357673
  0.7430218711823031  0.7527725563926243  0.6819088486943020
  0.6682061344892418  0.3364419333166574  0.8415804723160281
  0.7546940932057806  0.4161398878126066  0.6767744173767682
  0.7546784666627835  0.3346330822471923  0.7627934460558121
  0.6763220650065200  0.4188861121870554  0.7637474458547775
  0.6754479441930191  0.3329992663564241  0.6800261568262753
  0.0000527874369074  0.9191940413292707  0.9183951110837797
  0.7700309387454866  0.3357816420369851  0.5877490735165121
  0.0810120967215642  0.9186334565663248  0.8353765144307582
  0.6835016016495155  0.3966710264185919  0.5618591814809863
  0.2489543033715584  0.0013237766478187  0.7568909401401258
  0.7649950280986453  0.3322768406162374  0.4181557511510046
  0.6744881855500314  0.4061732666571067  0.4252780994084183
  0.6806825049204065  0.3332865893832396  0.3266961269083816
  0.7529920666518535  0.4941965262297373  0.2367466550842599
  0.7619302472031656  0.3428392961257193  0.2413539915336285
  0.6701721601959695  0.4113640350314083  0.2404085344362343
  0.9203580508544539  0.7595878835516306  0.3131763825713237
  0.7524481389874303  0.0036563355299830  0.9209905254906569
  0.1665211571669856  0.0030920192395434  0.1580607509737695
  0.6706602792941428  0.5749399979673315  0.2339581343037962
  0.4166228529278605  0.6174234406464107  0.3951218768047591
  0.6732790374570750  0.1695517786431456  0.8449099568975379
  0.8371711557906424  0.1700554882628850  0.9997890688779771
  0.7552474573692045  0.0872083578360864  0.6804683697998094
  0.6685752210169290  0.3332877893564053  0.0008148331138467
  0.6745555354996076  0.4242317549419440  0.0644369887670706
  0.7656120606654016  0.3368503243688107  0.0719038992746883
  0.6633551489271984  0.1703079666027961  0.1626697712095418
  0.6718713964703313  0.2525939036550688  0.9254047016077094
  0.6639615600449336  0.6688844659509845  0.8405159059194998
  0.0795920215841137  0.8353140505472567  0.7562998957934988
  0.9174768413953649  0.8349567983612475  0.9198982921446510
  0.0032786645649790  0.0047062047458807  0.1568442082750229
  0.6984763402941253  0.7011155479789795  0.4934809618107935
  0.6738103392185316  0.2517919684083116  0.7599645622583601
  0.6555455346039872  0.6683677166201453  0.6726082957405377
  0.7520937713508606  0.4197310485399715  0.8439064038344324
  0.7559095730407860  0.2559012943835415  0.6798570770422292
  0.6103255383578603  0.3407709251443476  0.5002113398743029
  0.9159140868465927  0.7505569921330785  0.8384942563406621
  0.8390642143245409  0.7535202881638881  0.2321912486280057
  0.9164409133156862  0.1718225165813849  0.2401347932446508
  0.7486304896904649  0.7519545493415218  0.0022426707085921
  0.6649391032058870  0.6698725596339190  0.0015236283251273
  0.0031023155792728  0.8370270558475703  0.3060964164542581
  0.7519312240491467  0.5040104057393687  0.7601679715559108
  0.9164251620930980  0.9225657721369658  0.3015314662172170
  0.6672856247533723  0.5886198422070243  0.0800320333178123
  0.0010941540204230  0.8351050589842081  0.9984227584697688
  0.9972828280878280  0.8348048889693928  0.6727976778287194
  0.8427469833952977  0.3381551110609000  0.9946593541741289
  0.7427030022146446  0.6715677696897957  0.5945252133941354
  0.6634921845642788  0.7599516973918661  0.5969558616182647
  0.1694606834366434  0.0002678867225114  0.6747563820827525
  0.7695891479522841  0.6652410803292599  0.3935271880039987
  0.7532656320273516  0.1708702420724188  0.7598737262313535
  0.3173187668546212  0.5799376092163750  0.2421590320490073
  0.0872307679056156  0.8333337826082908  0.5921288211416652
  0.0021046587662643  0.4180882106883878  0.4140233400978288
  0.7680407078395778  0.6062239849996360  0.4929631878929360
  0.6681149678893562  0.5032593215014933  0.6868766501819322
  0.6606603399564090  0.5878015337652519  0.7599908355516291
  0.7404134282696694  0.5859127674380462  0.6769577720460255
  0.7437847381009994  0.5735474252279599  0.3177281051877934
  0.7512192597140298  0.6683987473602820  0.0821395809293196
  0.9202766960318478  0.1684061199699779  0.9189744697295640
  0.1649118595966309  0.7519723898706625  0.9179242347566990
  0.8291591338968589  0.8331156922491613  0.6838056319131049
  0.9174781951531401  0.0034678234931218  0.7577021194619453
  0.0041870432578236  0.4213990290968139  0.9180213159657603
  0.8344357093286198  0.8332271116221581  0.8409157617653072
  0.8339588472792785  0.8346304063993227  0.0004896312977518
  0.7483047006092540  0.4874333597359301  0.4081230368593789
  0.7502079233954395  0.8344339103803809  0.9206826411885268
  0.7509587118510002  0.4909974672184268  0.5944872220279314
  0.0285138216743396  0.8099836898437747  0.4953903631671370
  0.7564569054475960  0.4220231588944130  0.9938776841348379
  0.0031131383571705  0.4185576661761398  0.7575325340441740
  0.5717404296169322  0.5865802043034435  0.6828341584888991
  0.1649819511912987  0.3352346404995805  0.1608818331043203
  0.5798972304862779  0.5137491364384745  0.0738851450225114
  0.0845522715002673  0.4201514236491378  0.9984460897125255
  0.5797041171193765  0.4206917619672050  0.0024816791011530
  0.9059184946076486  0.8351625854229562  0.5942188585395135
  0.0824631827026804  0.5026545612313424  0.0809122331379607
  0.8416509343701228  0.7644815945674751  0.3994411262794327
  0.8327673864561196  0.7506006790529887  0.9206779359516889
  0.8321406915523926  0.6681463583380389  0.8384432002007254
  0.0859171511770125  0.4185199777912093  0.6725088216920061
  0.9175720414028953  0.6683263070058149  0.9195114066099882
  0.2457997486612575  0.3350548554528984  0.2444471594968038
  0.9217626057286210  0.2515929094611216  0.8398769685323705
  0.0046255750435059  0.5029144705089135  0.3307407206949518
  0.6775704157198472  0.5938743303810458  0.4136283923936614
  0.3182845716713856  0.6809442660851569  0.5109348232491510
  0.4066896426495045  0.5899858964582270  0.6746713179878560
  0.8621789832325640  0.5976713880939980  0.4281447118090874
  0.6641575935123086  0.1038622906051590  0.3723107078044126
  0.1666841623320552  0.8388498347541903  0.3206227448153127
  0.3240486331469199  0.5005900640501961  0.1590747805265605
  0.9124211952228057  0.8554504744417935  0.3857343225206977
  0.3109239481791746  0.5786161119295085  0.4123907688876394
  0.0856350608978622  0.9188302285850350  0.1567860301324171
  0.1643112607863027  0.5846707245384849  0.0787065642546883
  0.0048564837368602  0.2523955762349520  0.9183303507818227