Cr  H Ni 
 1.0000000000000000
    21.1200000000000010    0.0000000000000000    0.0000000000000000
     0.0000000000000000   21.1200000000000010    0.0000000000000000
     0.0000000000000000    0.0000000000000000   21.1200000000000010
 Cr  H   Ni 
 259 173 605
Direct
  0.8256330075349193  0.7479000588993416  0.9176261106723045
  0.6560580112732238  0.3365780686754231  0.4981121051222322
  0.3286626770519633  0.5840233790072085  0.0832134519359610
  0.2488226292425322  0.2485814009651620  0.8280796286552979
  0.8215192966556771  0.6685244286021333  0.3360165043350986
  0.9109031999318261  0.5888895246863153  0.1719284317234344
  0.8285177227929489  0.3327580120927786  0.4979050618719190
  0.4133265328904847  0.5855188231543405  0.5050642979738321
  0.5784133219160181  0.6684647809625993  0.4170756126554245
  0.8246849541201385  0.5016011587519948  0.3372153882619133
  0.4082202220228827  0.4164633686399177  0.1672547223549712
  0.6585631696875003  0.1664461782783686  0.0004685912611364
  0.0777413650849858  0.7504269753898946  0.8326883622546486
  0.4949672741263908  0.4184162598494329  0.2528772987718938
  0.3336895568563388  0.4171855140704512  0.0851508377850347
  0.4119067633108689  0.2466069445690376  0.3357303961590222
  0.9961835464954214  0.6669147512057978  0.6637903969728952
  0.0773484762637262  0.6700256375942962  0.2515462860177932
  0.4107185644787415  0.0029671658210491  0.7482005546388374
  0.3272846751593563  0.8369795572910761  0.9982331018715276
  0.8256870096396460  0.8341936909181316  0.0034260238895109
  0.4107028804808885  0.6686739047067926  0.7473005236128321
  0.2470027106444058  0.3350990131308281  0.5848808103632802
  0.4107606226244269  0.1673447381650467  0.2519124841574200
  0.4139952553171539  0.4177591738383265  0.5049307412001089
  0.8253007550129974  0.8353790620687076  0.3331288527360056
  0.4131117359599428  0.7514590540057583  0.1680342137914838
  0.5784359216459098  0.4208476371182391  0.1691248232436676
  0.9092320999134693  0.3339384392098874  0.4164527419144723
  0.4106890464260868  0.5863995155090026  0.1681871649798011
  0.8239116394674552  0.0784373771255544  0.9182847054764468
  0.4922828564982717  0.4134291665449817  0.7505634131038182
  0.8225563245571134  0.4976197729448918  0.6649474951482952
  0.2466031902852956  0.5886962626211318  0.0004157464827942
  0.4138815105209859  0.9983026163286197  0.9135371852139027
  0.3288103695173932  0.6697785364536605  0.3349579468602703
  0.5781548916103795  0.7495994241879670  0.6654222405093122
  0.9111823431650919  0.4158692505506968  0.1679371033526254
  0.0786445355990565  0.5835851953060934  0.8301480429975883
  0.6622953714832425  0.5829435192136011  0.7456041688391385
  0.1602500109181432  0.7521307599456931  0.2505451580116925
  0.9086563104572156  0.5858933423069838  0.4985105886314496
  0.3276118720679775  0.7484304230082827  0.9120435973128636
  0.4940829706528644  0.4168639730515021  0.5831294578109547
  0.4134827627982877  0.6667718785679299  0.5838285204958936
  0.2448473985131987  0.7521218309245232  0.5007076738113758
  0.1585527180572197  0.7525986203434702  0.9116172580422264
  0.7443905994564251  0.2497893462959230  0.8364124888036930
  0.1626948015845885  0.5033356673396659  0.1683448990921020
  0.3272241619048379  0.7517394327896921  0.5849464590770019
  0.0744209943905575  0.4182873689629099  0.8288811186575958
  0.2440099643735086  0.5852371627271752  0.1655887270317635
  0.3288540581257204  0.3339909672847846  0.6628246873906524
  0.9943280140925600  0.9151984426964328  0.2488010398199167
  0.3263724578013387  0.2515117981670004  0.0816336679109746
  0.1612808713035193  0.5836076053127535  0.7483319260372892
  0.6600360721692600  0.3331760412469528  0.9997145400142838
  0.3287434173801689  0.5020420129703802  0.3326726716551132
  0.9923966862897212  0.1639960900179662  0.6698569669895112
  0.3314688383555736  0.2469414973304765  0.2518134201321232
  0.3285103774605502  0.6652806023311983  0.9981644811359555
  0.3286701419196116  0.5003162069029177  0.8310979206843930
  0.9094439940512808  0.1633969303105230  0.9131853956560485
  0.8227817606375701  0.2519756176174562  0.9144621509359812
  0.3290400026280733  0.5004237078071098  0.6673195992495515
  0.4075679857537213  0.9972094890188763  0.0798921951581213
  0.6585545722266694  0.6637136083728483  0.9965352779319736
  0.1594601874778723  0.9969139958684099  0.1663789154618690
  0.9089486232061108  0.9169378435077157  0.6655139266617419
  0.2414159910431838  0.9169103061123830  0.6666678688287747
  0.5785006099084394  0.0830910242744356  0.6642869659110120
  0.3301315147583168  0.9153523134981177  0.4191396849682858
  0.4152310263930696  0.9991111319233493  0.2551715790119443
  0.1623891790333213  0.4998982210919763  0.3326283570222611
  0.6585314770796511  0.0847416697984800  0.5836589939562882
  0.2470253644652406  0.3328255926095767  0.2492316714351989
  0.3299486394110532  0.0813101404827797  0.4251751410945544
  0.1646698837463704  0.5843204440564669  0.9156931378089807
  0.3283257456672690  0.0827929428639575  0.5838681401905350
  0.8278270867144765  0.9160737942670623  0.0845422382511114
  0.3294802729128141  0.0875636889999710  0.2513012219635002
  0.1638171766519459  0.1645011902581721  0.9974184204276413
  0.3276319626533982  0.0786750592021223  0.0807969422478935
  0.1616704854563033  0.9939655059464259  0.9976310983018224
  0.2430660496971734  0.9199355760082187  0.9975732084526764
  0.9092086250128547  0.7479908157449617  0.9979997052236427
  0.3254905683697604  0.8334263744171549  0.8286177985645704
  0.2430367430790147  0.6639234649096069  0.7500399664924924
  0.9034878272483227  0.9992383207128305  0.4170098854110377
  0.9924032602207941  0.8309106551667145  0.3339521024475511
  0.3284789745812542  0.7519090744091959  0.4204211864488598
  0.9079960829239310  0.9945405476430097  0.5844048458416713
  0.2413546595575529  0.9127999642276419  0.1686091339135655
  0.8268489336742958  0.8311993991352215  0.8299827392998675
  0.8228300263370640  0.0817706041645980  0.5826979623942544
  0.2430736118009471  0.4143421076038813  0.9978611408042251
  0.7442300789927406  0.5018709219030923  0.5831646817725892
  0.8268682507407370  0.9157692538877552  0.2501542170385744
  0.4944590680807047  0.5846377509919226  0.5825423352381872
  0.4953497595102529  0.7498497894029742  0.9154720014994605
  0.5784612578038473  0.5014465973218261  0.4178477494095827
  0.4956839729461735  0.7502923606050519  0.4185452930434476
  0.6563899980361813  0.8376714986611261  0.0006429020315076
  0.7395801299838997  0.6644957369201411  0.7505348383418606
  0.7400123770854022  0.4991599102621690  0.0846398746659340
  0.5784481787079980  0.8339243837584752  0.0829414327090040
  0.9922053980238602  0.3327324316517764  0.4963760267626360
  0.4078719514349086  0.5863575930814139  0.0013889555042009
  0.8262341437568161  0.2522225674478599  0.5824906976208205
  0.5772527948012055  0.5798060688866277  0.8359781602541184
  0.2461980665824742  0.4995748581312956  0.2543974401969225
  0.7404662055441655  0.7514406523688915  0.1717570509889852
  0.4920387523496308  0.9162987766870235  0.2558931900354435
  0.5736798052294453  0.6661285696677633  0.2534566047847496
  0.7438996057947460  0.6695298383928452  0.4175145042592112
  0.6648432412341393  0.5000162455156609  0.6652369783859429
  0.8233883066319114  0.5842592215156710  0.9146234968450406
  0.4102614819983763  0.7486750868722571  0.6647742249172908
  0.7423492066398701  0.1649428929496840  0.4140523760898083
  0.5772874652538137  0.9961711579428799  0.4194272248425668
  0.4121102415743973  0.9982248392960418  0.4203882548830858
  0.9114031939024700  0.1664592660250750  0.0916418781453590
  0.4110908554794447  0.1681192647174378  0.9131873465131173
  0.5735666827396303  0.6675556803138654  0.0795329773757703
  0.1615935504441146  0.5024274788032522  0.5015752235450400
  0.6628223679103981  0.7520802073021862  0.2503669477032246
  0.4122939447271072  0.8292095789142029  0.7448940799444702
  0.7437591274897336  0.5014594169351009  0.4154361208412412
  0.7433744814598958  0.1635940356677184  0.7474018565726919
  0.4137605121683923  0.2508095593312923  0.5030231174553146
  0.5830925200592590  0.9168266143760410  0.6633935841558406
  0.4910433981349879  0.4155467502003807  0.0808340776856816
  0.7408233499298424  0.9170889185821074  0.6652637328147375
  0.5790294510755293  0.5854958562381283  0.6624119846411659
  0.5725700459647322  0.0826954748717154  0.1690032215755454
  0.4941078552495138  0.9200270921717174  0.9121429558553920
  0.7432228564502223  0.3328260346973286  0.4170821659087189
  0.8263731390599922  0.0788322804947940  0.2511309172362887
  0.9925370803900857  0.5016826897250688  0.6676574636088954
  0.8210086820366825  0.0831485947458434  0.7490089799906723
  0.5776829767444128  0.4173752521752123  0.8359968382524079
  0.6605594195368460  0.0000116581778111  0.6670750587296737
  0.6581114004429112  0.9155785891280254  0.2520240514296562
  0.4145854463655376  0.1671587621610435  0.0817598321518436
  0.4934787907970138  0.5845400044231323  0.2503818641955574
  0.5796809204844692  0.0831711084812009  0.9991090951663881
  0.5809655975825585  0.0824327885572946  0.8325177445930100
  0.0781875314890443  0.0782223936702821  0.9969202242020747
  0.4949844777337594  0.8318287921167423  0.5007653297976941
  0.0783959023774223  0.5016959300707544  0.5860710272987395
  0.6610142263451644  0.9123615855110777  0.5831889406017011
  0.0794614477287680  0.1663464637391471  0.4139216079082503
  0.4960156706838050  0.0837182299759096  0.5847768234257760
  0.6574416500953815  0.1629302540005891  0.5006250952801079
  0.4946867267982892  0.0834863005508674  0.2524291956340373
  0.4948248851673077  0.2514079871289731  0.5837591876546316
  0.6591668073017103  0.0012404985470376  0.8315299145969869
  0.4124002617246963  0.9158588677304614  0.3372761383686941
  0.7412088791096012  0.2498049642020908  0.1675020940342717
  0.8262780883962347  0.0806966302431261  0.4158520605225318
  0.0762756869574559  0.1646810432574130  0.0870248205138481
  0.5782950699591258  0.5018730579565882  0.0816134242057664
  0.8251072620317839  0.4172573814050095  0.9157312562164843
  0.9096088072108853  0.2490684335967654  0.1693300888437474
  0.6587544833815744  0.7524265350383302  0.9126600050956897
  0.6587615165503493  0.1663309996684990  0.3349129437169133
  0.4948011954422536  0.8336888083149334  0.3355754167344326
  0.9048378259707135  0.2482211936456123  0.8336258075714015
  0.5801263481416021  0.2467220665906839  0.1681349899467083
  0.9945132746451311  0.9148882538058885  0.7489898424977053
  0.7420809681390065  0.4225811168156535  0.1676243896393158
  0.5784254100400011  0.7532852140357529  0.8336592430330688
  0.9937535333982075  0.9200016310859043  0.9159607168652247
  0.4980304645081478  0.9146907107106603  0.7499062492889128
  0.7432467764114070  0.9989332302788948  0.4168852757473511
  0.8271237235987415  0.6717859151161406  0.9962117872829546
  0.4128969675147870  0.3325197301626904  0.9135182047400492
  0.4132609564072027  0.1675958486866432  0.7484786865330924
  0.7431238635404033  0.9997840422810608  0.9183658490351361
  0.7443916653210108  0.4182538403608652  0.6667364777238336
  0.5813570067320756  0.9164823165935900  0.0001458042123964
  0.5771104041681121  0.3343084951354333  0.4173034207373604
  0.4915479209737179  0.0820215941555049  0.4192877287093873
  0.9938413244985002  0.9964012847122214  0.1718987664096342
  0.4140333518230089  0.4160554498412946  0.9992599401581419
  0.6616697128983979  0.6694217283993745  0.1688430285671585
  0.8285197416666102  0.9972367218782013  0.1675969653911145
  0.6602683780845483  0.7501390005018421  0.4175004416792978
  0.7434697194040573  0.6688803273934338  0.5819197727324351
  0.7418103720993386  0.5000408536584360  0.2504433103529117
  0.5787392175841849  0.2503137688054317  0.8311988374331829
  0.5771726634308713  0.2500202909585025  0.3360529333627719
  0.5769401765558564  0.2504064430552185  0.6642397932325218
  0.4979515114324592  0.5878389374200186  0.4183503973652072
  0.2452183043453490  0.9154425237544417  0.8306202291416209
  0.6585690661144266  0.8329301630227046  0.8338515716752954
  0.1611908262717655  0.0828699586337346  0.7475231978994258
  0.0752909791035772  0.2510749277276727  0.8270429660089955
  0.9926576523241583  0.3372418980859123  0.8291089731208529
  0.2463784496611170  0.1628149182406798  0.9127858022944214
  0.0786346434072378  0.3370543432955774  0.5809391687699645
  0.0788574941799389  0.5037521209131244  0.2540961326135233
  0.1637594893806829  0.1622640884328701  0.1707531780420781
  0.0756320157402247  0.3320331417255260  0.4209292058001145
  0.9142385480303097  0.7526996951433647  0.6638914576575914
  0.9135955160805180  0.4971375824708568  0.0828061872456804
  0.9965409124912685  0.7543120032627656  0.7487960094234700
  0.9897984531662503  0.4174617334095452  0.2528459773657853
  0.1627307824884663  0.0794394019607695  0.5863704623351899
  0.2471796049509209  0.1642840732513047  0.2500403395365510
  0.9097210952392177  0.7516613644716923  0.1685501826770984
  0.9887052900819450  0.3356604266324129  0.0051821087605438
  0.2438664878382788  0.5850820956139985  0.4981919844360944
  0.9071197528975055  0.9993990425797237  0.9193965327307150
  0.9935185006357203  0.5019544277247923  0.3312200360506282
  0.9962913525511046  0.6690090220417255  0.3322687843004398
  0.0763574082082035  0.8334472919949805  0.5798325531358941
  0.1624572399347456  0.4197376488828122  0.9173747450651131
  0.0799406109047094  0.8338335831746049  0.9136280830838761
  0.9953316370033761  0.5840801030360266  0.9125924820739978
  0.9088771503437200  0.2489207795382975  0.3357280242341110
  0.0763843424594588  0.8340835546389852  0.7533592648002253
  0.2442078688016164  0.7498545611444141  0.6629898364900821
  0.1621779332640698  0.3324675844705828  0.3352903776269316
  0.1652724506730835  0.3352836921168202  0.1706029009239561
  0.2452889345286310  0.1657121338444443  0.7466432096952977
  0.9913694513861557  0.4191870004307053  0.0888553277574252
  0.0747951435927232  0.6686314485271048  0.4131677780045047
  0.7439737401313871  0.4179862178419573  0.8342192871021653
  0.9089581791748249  0.7512662257238548  0.4999935163869568
  0.1593955389550601  0.0003531146515938  0.3402872546889475
  0.1620272070188711  0.4175772288268610  0.7453059741821555
  0.9914279494702632  0.3342057001300651  0.6672579608321018
  0.2490256429996492  0.0797832200721411  0.5019129317226010
  0.2473822470750371  0.8321236238597961  0.4194680667346669
  0.2461212550766549  0.9145922956422162  0.5000965028042890
  0.1608455767342668  0.9109279283955026  0.2479876216733091
  0.2426240149348167  0.0854712438269013  0.1688110752769136
  0.1643181010252310  0.2493795456947297  0.0847442055751784
  0.0758834306352910  0.6667652644037604  0.5864949668197206
  0.2419927820793067  0.8329182852573492  0.2524016599679028
  0.9070067662348094  0.1655470460054806  0.7476166927637513
  0.0754342828803896  0.8344338527231222  0.0824062581671883
  0.4116826121688353  0.2488283773158874  0.8326275114453631
  0.8261638872145175  0.0000709237003530  0.0012401502440795
  0.9091434493023625  0.1692659732173516  0.2500364263465124
  0.2471553075774715  0.3348989830633500  0.9145594935895253
  0.9918585589016665  0.2508022790448997  0.5826379033778327
  0.1593736967641854  0.1659801936234343  0.3371421861080651
  0.0773777633095070  0.2469146467166553  0.1680017027914107
  0.2455015033801605  0.2550520685530290  0.5062543434029166
  0.9933787886464486  0.8344240912001791  0.5015631336817693
  0.0780795369592016  0.1634259035444407  0.5878409406246494
  0.9946824905479379  0.1679819874453301  0.4974225716246456
  0.0809083087304875  0.6682340640462119  0.0839332586734017
  0.9947172848418844  0.0831854782247852  0.7451217999797191
  0.0785222173879470  0.9992935511247505  0.5843576075557874
  0.0809726828947474  0.0012283654072913  0.4155895172954594
  0.1626501053275322  0.1651054626159224  0.6706324672805097
  0.2456403621066355  0.4175084130961758  0.4192794251890993
  0.5756802808303499  0.4968867171611182  0.6645724743245566
  0.9952917404531773  0.6650714932162854  0.7524147692265758
  0.9914206278386956  0.3351213512440874  0.9164866810350938
  0.7410242109391252  0.1602220723473625  0.1669402125968116
  0.8230897999669845  0.7525074196409820  0.6649804608366496
  0.1621562119181057  0.1635255016464124  0.0841351812782744
  0.0785104695803840  0.2502349912159166  0.5841705936214044
  0.4927713136852925  0.5031962738740234  0.7501584437220473
  0.4144455107075893  0.2535909039630662  0.0801955317716041
  0.4985517233066992  0.0034620790174820  0.7480549121372486
  0.7428875424358266  0.7548519338691702  0.7488238532323345
  0.3286331305282932  0.1649228095988993  0.0809075814920384
  0.0723223043064111  0.3339135999282256  0.3333083653937325
  0.0765102610210135  0.1648226401444199  0.9981241225465040
  0.9081366979933937  0.7501338119563299  0.7528466032865040
  0.9918739313686512  0.8308359641324687  0.9165543373994460
  0.3286014192365843  0.4174065418299194  0.9977216762794189
  0.9937283310918638  0.4224299872660857  0.9997447084561129
  0.7428739138374157  0.3362263753424054  0.1670721024417578
  0.4944775174388276  0.9141549434645119  0.1651649113494476
  0.3284302448327689  0.0819678776597161  0.9915347025359358
  0.7383531494604186  0.9975856426522822  0.1668908403212494
  0.9899847335458009  0.2492218152773792  0.8310940872349067
  0.9110025893020598  0.0830585618313035  0.5837356199973677
  0.3283542377887242  0.8351814196179697  0.9138102000342628
  0.7413423395131400  0.2522182375364224  0.7461277605861056
  0.9923517198070023  0.3363985880783334  0.5822528392267062
  0.2449112410801487  0.9990832708465399  0.1654509994062918
  0.9076526334790438  0.2541516085178114  0.7454693079019908
  0.2432144207767179  0.0042678850708233  0.8296703883578138
  0.6617179726660333  0.6650117683012352  0.2544407811292215
  0.1571270463831349  0.1619312072928504  0.9096086579000953
  0.5803541958873915  0.4151551065478177  0.7474950323835677
  0.0738413612981145  0.4197756917481503  0.9184135122223158
  0.0787171018136966  0.8340030140280671  0.6672944611075308
  0.6590317485562689  0.7505634285612126  0.9996247394085569
  0.7423562180416658  0.3347274053704029  0.3289419490671841
  0.8243885205116627  0.2509046454697316  0.0053784875695803
  0.7446851766389775  0.1654290153995601  0.5027483663772844
  0.4912211119750342  0.2496606725692939  0.1662323579077442
  0.9148650585528773  0.0802567702110417  0.2516135052332660
  0.2445854693629375  0.5014592876122368  0.9993803550057396
  0.8260850953832688  0.6679444565568062  0.0885238674744628
  0.2438205974855552  0.4176230555333261  0.0865677830848265
  0.9091255757192048  0.5840912034614697  0.9148927665523781
  0.2429109861271287  0.5825793273455331  0.5874523711949080
  0.5793314886222185  0.0847308150577562  0.4179560665793643
  0.9910768218686313  0.6690612403161896  0.0837178611480232
  0.0765276404545665  0.9112743798628156  0.4192163584181853
  0.4936892715252821  0.4174573051575874  0.1666293716734507
  0.3292083790341543  0.0824453805902663  0.3378493322764766
  0.2502814525326727  0.3341861950289634  0.3372712923023281
  0.6641814023376978  0.5820492785824241  0.8348166883107212
  0.9931779668522820  0.9967217778232709  0.0814769044398110
  0.1636833658629014  0.0798441492764097  0.9970111282383866
  0.1625044723651517  0.2512301634074106  0.9974925794127761
  0.9101398622734178  0.9986367923298947  0.8289869650698654
  0.0744363895998723  0.5030935864922047  0.1648730840341152
  0.8296140119706232  0.6665444133330330  0.7505318174155005
  0.9938815399117523  0.0830087639498811  0.8353307813446483
  0.8214845269322232  0.1653836600278437  0.0842874919325277
  0.1621607189842784  0.3375661795644608  0.0825481889878179
  0.8285459083077908  0.5012407691046723  0.2500695546709296
  0.4882635495193469  0.5841107814356286  0.8330842194606930
  0.0783802501061130  0.2479084644200629  0.2561845361537171
  0.9078634570165729  0.6646666762305088  0.6658264000906938
  0.9959188475934676  0.5845547404026974  0.0030287124865360
  0.0750521695566374  0.3354597908575309  0.1678547695011516
  0.5764222424632771  0.6663810442532836  0.8325667706854679
  0.0753263363450418  0.2477461721029892  0.9165024434931076
  0.0773669304109011  0.4211430907094786  0.4172786979100383
  0.1632413068367414  0.2491866559603912  0.1699567248640840
  0.1655721993335179  0.6690876778492243  0.4188355020834465
  0.9104330345831345  0.5020049823623436  0.1688726376408939
  0.0733614683849590  0.5023961857734242  0.4974199025308108
  0.4091043904669638  0.5853233970511426  0.4158865572817791
  0.2477259356092004  0.1669371184418720  0.3381109292102152
  0.1641926479504914  0.1671232272573486  0.5838901165834659
  0.0801468524515675  0.1665657386512205  0.5013582124313144
  0.1595307988291455  0.3332059587260493  0.9145469074221626
  0.9898760171186434  0.5009293306735577  0.5795681532145726
  0.4999891430432866  0.1655241789623295  0.9149385950157698
  0.4942739874791651  0.9160372876907055  0.6626509704158549
  0.9131554012809932  0.8358014037954871  0.0025065299757255
  0.6596167548205205  0.2500515717633327  0.5010986303681765
  0.0771481226306685  0.2521236371278384  0.0829276777182708
  0.9890658412880292  0.6706122242694069  0.4193125021539494
  0.3309062937220933  0.9176667034528143  0.6648759673755293
  0.3316102093946544  0.8326224676616504  0.2514006234532966
  0.9918989062181546  0.9989641179147626  0.4167665667947854
  0.2490038150304989  0.4999150087309338  0.1674256915422084
  0.1617242708202128  0.9125598933418012  0.3366388449578863
  0.6615270656786435  0.0812044522156937  0.1673261579919255
  0.9981250242771507  0.1651874519960279  0.2537218786343863
  0.3280396710373313  0.8361191508785660  0.0883803253491642
  0.3270852559193076  0.9977026280093882  0.2532371208889284
  0.4108367390432133  0.5838234912142500  0.9115908633992933
  0.4135899399067763  0.8332898689545118  0.8325183059562729
  0.8267326599851045  0.5006512745460451  0.0831454794238594
  0.1603564539913493  0.0809107851470174  0.4990151372569816
  0.9076202970607382  0.1652962451907870  0.0021954079142757
  0.3290177127854783  0.0824756156622530  0.1658999976801776
  0.9091722360547473  0.2515216651242178  0.9198357117665825
  0.5717538567034760  0.3317680074374456  0.9981654085036733
  0.4988492224044764  0.0004523100376122  0.0830082084432223
  0.1599395565865832  0.9983150812181645  0.2529876388494521
  0.9090118504997668  0.6690122315212479  0.3341700506820515
  0.1627014460555306  0.2499762990551270  0.8287264685730267
  0.5759893507752604  0.5841838328884756  0.7493905367642091
  0.9097266398041063  0.5003413595438013  0.8318746210552319
  0.2469216923498370  0.2483612699118787  0.9151693544973559
  0.4155571224863721  0.8323254076252281  0.0012759111089888
  0.4107199891212066  0.9160297489661230  0.7474550408487428
  0.3282079190713680  0.7516165235415815  0.9998420585791746
  0.9083389188938846  0.0799476078311482  0.7486075539882818
  0.8242097051949615  0.3356352824935938  0.7475582428320342
  0.8253281170947530  0.9199707590467373  0.8316551236133056
  0.1623207166880496  0.5895233249703242  0.3342019532263694
  0.4913800723286427  0.5031740898182749  0.0820356853101663
  0.3286900691868790  0.3337524586371753  0.7518185900928599
  0.9915841370142392  0.2457550434833317  0.0018173202384461
  0.9920439093765097  0.1643568275698222  0.5831168767766983
  0.0785753071791572  0.3369011740788150  0.0013204980267713
  0.9086779841709099  0.5031035515968870  0.4990515851936809
  0.4116911174791062  0.4172179552120465  0.4142181380913302
  0.4131045218859091  0.3369450546086520  0.3339422403746683
  0.2398741366924094  0.8316522502986734  0.9993415707942517
  0.8216592408660429  0.1682626149481557  0.2522992642255946
  0.3254314803168398  0.6644768714578220  0.5838616927943537
  0.9111614502801346  0.5866909991981666  0.0826816840740947
  0.5782493568440806  0.4150133784066852  0.0816299455957068
  0.5764655517076667  0.3341239820302975  0.1677188016163971
  0.0775627958359620  0.0765412167251012  0.0865325628848734
  0.8257578468392430  0.8349509614285566  0.9167278774992611
  0.9055168815282748  0.1655035603172159  0.4984034714381606
  0.0772641802058359  0.6678378894856516  0.4994870129431773
  0.3284960783612995  0.6715606085227752  0.0866013611715416
  0.7491340052860480  0.3349890970613937  0.0002256957065758
  0.8227325720646909  0.1659912188246585  0.9173956655701156
  0.2477338119991051  0.9978545991071013  0.3372474301998918
  0.0792398555876645  0.4170334212070549  0.2512678322766523
  0.9917280279006556  0.9191577652482117  0.3364331942750897
  0.2438567542224070  0.6742959481047909  0.1691792801907554
  0.0806277577499217  0.3342464255604851  0.6680763077422389
  0.7389340417491755  0.9166138175337417  0.0832705297276556
  0.8273262265259504  0.5867278161305830  0.6646733464203415
  0.7424501535782193  0.3337109953548091  0.5022662103127072
  0.8252586002643294  0.5826417367624673  0.0024181885345990
  0.4933174993374134  0.9168627644670894  0.0004940677247273
  0.7362223948383583  0.0816658429366093  0.2518049020770110
  0.2463550524799742  0.2508332210990785  0.4168577638851240
  0.2430999037506317  0.7522829517921258  0.0840307368836589
  0.6605064785691966  0.6665448933603797  0.0827266328628814
  0.2477088530362920  0.1666863191102206  0.5026893033090415
  0.4916648630100631  0.4999862209617580  0.4168805695805891
  0.2491168472392993  0.4215808089384285  0.9113419701246126
  0.6602040722664976  0.5808143074546275  0.1670507316203574
  0.0795795805581502  0.5846180048548715  0.9182026422192177
  0.7431287440151063  0.4144565194925879  0.5795149900511983
  0.7434681268021104  0.7516902148186856  0.0810835329553573
  0.2425993427482303  0.7525263300225590  0.7509722976831856
  0.1588667831222272  0.7507106285585287  0.0023491605106794
  0.5756860517653889  0.6678583825231966  0.1671201541151061
  0.6606356302703639  0.9981545359735964  0.5805600685101728
  0.1617995055713561  0.4185523789441726  0.8314471843997029
  0.5739804397637186  0.7540958571537413  0.2513244579699251
  0.2464343851782854  0.5886101425380962  0.2535585561940720
  0.9885554377017419  0.0805053583930851  0.0008668537478289
  0.4120194415219874  0.9980416749314893  0.1674896207466784
  0.9925947810763709  0.0783570028090066  0.4992067943375506
  0.2497579460063561  0.4973833679563581  0.5014062415852685
  0.4136287249249205  0.0821081076251941  0.0814076395900010
  0.5768090411301690  0.3342788634542844  0.5832872961590738
  0.6606295398845135  0.6673758002562384  0.5002681387209529
  0.6609609717283501  0.1669221337909038  0.8314699304396064
  0.6608159336960506  0.7500559585945764  0.5828227037252078
  0.7447052675097544  0.5839235174661910  0.8331528774155188
  0.7402715732082428  0.2492780093843784  0.0002220168224015
  0.7422336983842558  0.5841654522931787  0.3353924034683363
  0.7432711394273471  0.7505417373282213  0.4994551269738562
  0.6606751283314830  0.6669930033005160  0.6646597034910581
  0.5784820261243333  0.8317497606443893  0.5829107911442671
  0.6613487159228807  0.4179108944818614  0.0834268747781925
  0.7394947272975559  0.1656453096502754  0.9165454386845459
  0.8243178022870291  0.5003888321527874  0.8333599805896404
  0.5789299251686938  0.1671379587731924  0.7485496402628565
  0.7408852676899130  0.7495906327122466  0.6644966596265586
  0.6597485513538064  0.4171335088284095  0.5818149483977949
  0.7422018664764755  0.3347094873735657  0.9149838340868365
  0.5782630176663037  0.5847548977067019  0.5006364816908239
  0.8255528267609835  0.4989005598476460  0.9988190070323206
  0.5755602694231325  0.7509649729232037  0.9980374209567263
  0.6601684745895817  0.3335018628701337  0.6664191011342921
  0.7426985238182031  0.5845147403556490  0.6645157937558605
  0.7425340675826076  0.4197557055479856  0.3348204756871516
  0.4945727023692141  0.3328043161005293  0.6665619323773188
  0.7432245543022624  0.2492903263112882  0.4993625972496833
  0.7428792485446886  0.5851142644218753  0.4990139622123669
  0.6588726670362446  0.2504201895716827  0.7494480663496746
  0.7437619949822533  0.5833933723683649  0.1681688913235432
  0.6592951933938613  0.1664385007576243  0.6654524961708862
  0.8273941214736663  0.4162463496943492  0.5805268078663535
  0.7423712975724231  0.7505716436362121  0.8343145328431174
  0.7430896513185635  0.8332493484230009  0.4167684903639844
  0.6597874081036379  0.5821247329114874  0.9183283066555519
  0.6608198441071329  0.6676063987950952  0.3367127018791935
  0.7422871504419977  0.3317737215136634  0.5840358744095923
  0.4967768669350136  0.8307531982849173  0.6650145564638764
  0.5770073939972700  0.4991142475236219  0.9166545709596307
  0.6610045783294627  0.4981597380058447  0.8333672054571106
  0.5762129779077086  0.6670133784264192  0.9172180867541757
  0.6584997652284542  0.2502292884636854  0.5843664334050794
  0.7432652794000275  0.4997418096972153  0.9163579655217563
  0.8256579682430523  0.6693860277816064  0.1703579351203326
  0.6617711865115820  0.5845344859547934  0.5825438017893947
  0.8255848910849135  0.3338669233230485  0.6637386311775930
  0.6603780326124792  0.3337657168015563  0.8332414916246949
  0.6580741744230181  0.7514386839541144  0.0834980057342355
  0.7421947843032635  0.3343533120185188  0.2491281367788693
  0.7419765279286568  0.8336368576589646  0.0844227469576573
  0.6585712687397447  0.4999186625421713  0.1677374651534834
  0.8251868040691700  0.5854740351441718  0.4168099182008996
  0.7432450533641312  0.7512219957949078  0.9971864060479448
  0.7435389359718270  0.6679161421506796  0.0826636754244070
  0.6576266940643117  0.3341623903411163  0.3343345873322980
  0.6603615207910940  0.8343774983333422  0.3345069236708911
  0.5772575706422636  0.8354610427678717  0.2520837097037230