 B Cr Ni 
 1.0000000000000000
    21.1200000000000010    0.0000000000000000    0.0000000000000000
     0.0000000000000000   21.1200000000000010    0.0000000000000000
     0.0000000000000000    0.0000000000000000   21.1200000000000010
 B   Cr  Ni 
  35 259 605
Direct
  0.4974516221832138  0.9188321151142546  0.6548358443162190
  0.5151796303325554  0.5097656087931214  0.5909770083978411
  0.7583579792723483  0.3265313024729963  0.6904881191135577
  0.8317645137191613  0.2505404219079728  0.3320956235767949
  0.4964844890729042  0.9833435452804002  0.5912713027564575
  0.9185073049534331  0.4965286686894529  0.3331203453294062
  0.7461739143252548  0.3348390400353663  0.5029597420992944
  0.0818269838525336  0.9145492167089851  0.7455396699275788
  0.0003250364049310  0.7550128786806229  0.3357602309884440
  0.5757379394979821  0.5635187365165801  0.5583524927814681
  0.3183853334327150  0.2654318023362182  0.5140395163249685
  0.8202552312181480  0.3377613610222397  0.7478345497063498
  0.5716836816231831  0.7431487025253450  0.2295729606987608
  0.6787877923913297  0.2514258565269510  0.8382693907803476
  0.5779708464280995  0.8360870758484297  0.5027907460774734
  0.8196143901200773  0.1628266838951413  0.8972595952657285
  0.6502204545932329  0.8232117040561494  0.0887782358806467
  0.2664352287597593  0.3224134253417252  0.4866860187914855
  0.0801920206984767  0.0832967134014635  0.0819331337991686
  0.1659314832695618  0.2498834088062896  0.8381335998665056
  0.1640270794493833  0.7532611065663132  0.6690845845393971
  0.0061087434943299  0.9243841124771370  0.1670904906145903
  0.7318894097405237  0.3447930182620522  0.9863305915838907
  0.0873635978406580  0.5849245759846183  0.9157339834901707
  0.1684325380798999  0.4197667563095764  0.4985811606618749
  0.6560329126999876  0.4218651197716972  0.5164715365881591
  0.4995863200593377  0.6044365561446716  0.1721034464798163
  0.9198767827949349  0.2360155224143508  0.7615223379358179
  0.0837323746533415  0.5019933755941330  0.8329767703900103
  0.6670020820856394  0.4967786844416331  0.9207456626458015
  0.7645781633073554  0.3924327944855769  0.9260015941478132
  0.5833121203553061  0.9226920442750616  0.2514656552261846
  0.5821498506130343  0.6606861586100883  0.6671135342214863
  0.7566857290024577  0.3943895427174472  0.7504215243241337
  0.6466184593617521  0.6614540951562680  0.4170376697983005
  0.5808164365705073  0.8334852680314073  0.9186650247225978
  0.1656323930912551  0.7519297146631144  0.2494735191046578
  0.2487364866096286  0.6674265024174925  0.4165624142322172
  0.6705595839579744  0.8325480443650086  0.6682927422134725
  0.6785297640009527  0.5732497943052267  0.4126467511551541
  0.9129839679757952  0.8368355985468667  0.2514036798742736
  0.4890735955126700  0.9175490498632480  0.2460773476062050
  0.6615154545137301  0.4191642626937254  0.4144036617170057
  0.2482177082531413  0.7508182904430943  0.1648422540426954
  0.1682632245049307  0.6668339042049187  0.1650161466801052
  0.5835741606197415  0.7507572673107530  0.0002616098231373
  0.3306661102195648  0.9180795561942809  0.2480093752368510
  0.9105671899425686  0.9175486790899740  0.1641163200615232
  0.9161054434105338  0.8358369557158185  0.5819039810208998
  0.6660525212539335  0.8334444272449654  0.9925228710441829
  0.7517289269231663  0.7498893921357852  0.8326527665482508
  0.5845836922537563  0.7530394779883058  0.8349483048427272
  0.7513573487180079  0.7511070458276354  0.4996725038880532
  0.7539513804346374  0.6674618202694436  0.5847974001053390
  0.7502766622911791  0.7526222039708806  0.3361342984035042
  0.7511252802387893  0.6681900384010167  0.4177259470375748
  0.4953290609238750  0.9178733435686423  0.4185564204256608
  0.7479121047042613  0.0008180328933203  0.4179794896511267
  0.7485915076125168  0.9990645071742534  0.0822392223713597
  0.6671596953610874  0.8332575128015064  0.3331885325871214
  0.6671529131362800  0.9985260470840337  0.1686685761743061
  0.7582518729562403  0.8329480321183169  0.2511320298416306
  0.6771188280006982  0.9188472347801550  0.2530606582707135
  0.8312662301254532  0.9206098112068102  0.7480605538752307
  0.6666782432078603  0.0851128434561758  0.2503603621521219
  0.4979359732348634  0.4973966694457100  0.3338203454571499
  0.9146463801823550  0.7498912214048038  0.8323344155352420
  0.6678196585064343  0.6627710632885422  0.9984954660082519
  0.5821725564007564  0.4145194519730934  0.3298790597187339
  0.4967994384333271  0.6675142101436253  0.8344442018225947
  0.4960950636450085  0.7502412773099628  0.5840795951521093
  0.4802222444214335  0.7571734806961933  0.4066191666511402
  0.5775255940780011  0.6513530079857170  0.2524717194047316
  0.4045502547576704  0.7514295593072461  0.3303603039298819
  0.3278525256231408  0.7501393189361667  0.2479933840029106
  0.4984207075411158  0.5845033680362961  0.9175507051298473
  0.5823424471884939  0.4998147260762041  0.7527176419521936
  0.4986534356829190  0.5844840705020968  0.7542031421507273
  0.5852455652355785  0.5876362163287291  0.3444050368768597
  0.5827939977195313  0.5000320661816289  0.4125999983576252
  0.4926188298166289  0.5874857126222954  0.4083183309596943
  0.4963175806135385  0.5780786781701642  0.2622286003411147
  0.4988860905860536  0.5021229273048418  0.1668125676037023
  0.4986431734194401  0.5850965746285594  0.0771790499307864
  0.5722163827640477  0.3303736424675978  0.9220360070979928
  0.5778506960340019  0.3284774710027761  0.7534450285364197
  0.5810470536382536  0.3305487080578471  0.5870660111605951
  0.4957834235416390  0.4165624738730712  0.4131228567157316
  0.3268651001405919  0.6650504364008850  0.1649923579233000
  0.4950452199925234  0.8345362718007181  0.1649309285195583
  0.3312146795956050  0.4175021322875890  0.0852409388813644
  0.4141752946858822  0.5021339051284953  0.9195122436176510
  0.3301749212965182  0.0835018580439131  0.9162674161926496
  0.4124702501209579  0.0843140084122071  0.6688512155030689
  0.3295806003260079  0.0018830929913564  0.4988350192758579
  0.4119946476333282  0.0013332453500764  0.4177110199439328
  0.3299884573139067  0.0840722289281921  0.4172536123417603
  0.2482158570423438  0.0823343449313644  0.1684827742972392
  0.4125688766485351  0.0851552577846262  0.1674297036119656
  0.8313704700321056  0.0000680649842464  0.6633974549472769
  0.9182569002966441  0.1661958027857680  0.4187379446638557
  0.9235607504622525  0.4171560706743269  0.8353593281139421
  0.8335193295443741  0.4997537346569061  0.1669192519413086
  0.2483849302851141  0.4170965390794840  0.1659710234441148
  0.9985643305295883  0.9157019941627578  0.5787664876940222
  0.9135307191902283  0.8354888438840897  0.7482776214615378
  0.0800264808311968  0.2514620325052405  0.0023351864876922
  0.9979461768150971  0.9167315897947043  0.0720466000535891
  0.2465514785055098  0.5828826205612609  0.1657167016382548
  0.0022522926613114  0.5023904992588337  0.5025900377409718
  0.0800821165710358  0.0840885788174221  0.8336095447724118
  0.0113580724798565  0.5034939987092588  0.3328033096013140
  0.9183390345660968  0.5011749474928595  0.0845059389874646
  0.9969244173515309  0.9162633629471112  0.9190468718065657
  0.0844162799427411  0.5869500049476386  0.1648988499568961
  0.9988419372086351  0.8354596639833044  0.5008762925379677
  0.1669752954405225  0.0829641697140328  0.9165979622774392
  0.9944439805613219  0.1656916587153345  0.1699746968900676
  0.2478215920097006  0.1675068420989274  0.0840416172578356
  0.4152654753258321  0.9152331324605850  0.8339704166425873
  0.9959945023641990  0.0839972835586763  0.2519298547632693
  0.2467746548004330  0.5815971386170482  0.3331134271174792
  0.0823637730571371  0.2510763817646470  0.1689085238618939
  0.1647818457106590  0.5018906058676448  0.3329490302564421
  0.9146893037205679  0.0009000221517983  0.2500821157362695
  0.9973986493488189  0.6710656463793747  0.8303573634966863
  0.0838394819502456  0.5841382466401692  0.3337189695013502
  0.0840277418765191  0.9161371370603388  0.9973467373380510
  0.1632576733837004  0.2493811441429137  0.2475878124570380
  0.0030793588861032  0.3336442341301408  0.0019170093084264
  0.8349446021976504  0.5846368513387852  0.2477461755671706
  0.2487399077597876  0.0003320039200441  0.7507569485896480
  0.0825087506731785  0.3327686198970792  0.4134391674474068
  0.2482633183418613  0.1667198943490161  0.5853904651832821
  0.1658326279159870  0.1653228276366942  0.6666298036178909
  0.2512466502443616  0.4164198300531145  0.6672692245269580
  0.0819767986370274  0.6655251892068196  0.5824036041565670
  0.0830801267331085  0.9128590836390266  0.8425534221624453
  0.2512995966790592  0.4157455151001423  0.8351987409557560
  0.1682391541003544  0.4148326419695328  0.9186460736970189
  0.0832278275245017  0.8312766000072028  0.9160837941332567
  0.9981916840402368  0.8297283998165219  0.1652949533098669
  0.0002145515020488  0.1655204997488561  0.4963394574958364
  0.1694231507451578  0.4974067064173285  0.9997801503613538
  0.1674692985651436  0.4183974861336704  0.7472667431168879
  0.9995952219204849  0.3362550668069521  0.8335285902604209
  0.8329696676229857  0.7474048186785174  0.9140933279334045
  0.2561767668056810  0.3286524978568359  0.5848447680502454
  0.1641308076252674  0.0825003704159779  0.2492991004984884
  0.2494397036878022  0.9170841070432187  0.8332742160092392
  0.2499214212944731  0.8334804050943899  0.9156716460878446
  0.1677129465929454  0.8344881054445540  0.8349874009038517
  0.1660832506353672  0.8331908487297303  0.4986014296909173
  0.2465220722282962  0.8346825737734693  0.4176846608377442
  0.2489990911290673  0.6661331971367035  0.0811795348575635
  0.1682965271876586  0.8336595498831643  0.9974167739037995
  0.2512830676973771  0.6654413495733081  0.5838942767712225
  0.2480959893553229  0.7508080803924242  0.3325259320632818
  0.9181537041437031  0.0726734942119048  0.6578475652572728
  0.9177326075688239  0.0008157254374571  0.7491159342065660
  0.8322301842265306  0.0787427761995436  0.7459020633926364
  0.3311804940063670  0.2499102828335131  0.2499504377919977
  0.9986578503021345  0.5017631266492952  0.0060438663887148
  0.4083111271264108  0.8387994857247936  0.2480023705038356
  0.7500653928409620  0.4977788444695306  0.2459636011519922
  0.8285836957197535  0.1666527348820368  0.0012391094081424
  0.6668319166051753  0.5870985881321450  0.0830408616951144
  0.6645247242922291  0.4994652803082242  0.8239424853969051
  0.7526927796504849  0.5006807077819886  0.7514522483701090
  0.6714163362130972  0.4962644578790660  0.6762584770939786
  0.6729910883799570  0.5838534779857933  0.5869462558007034
  0.6612723154680809  0.5156902144515048  0.4990369761438624
  0.7501500926092222  0.0018757314794265  0.2506759557101418
  0.7483507387004177  0.0006759569528368  0.9155846989863963
  0.6585004414910299  0.1640655434024230  0.0076680116122878
  0.8341280283590484  0.6682530695428417  0.8321270392145244
  0.9162176773900984  0.6677990778626227  0.5835246551144363
  0.8316411593680265  0.7501825580541058  0.4188971184370516
  0.9176236184905380  0.6669607598292830  0.2488328585317476
  0.9161623748440327  0.6685218193437635  0.0821884159860181
  0.8329897087335892  0.7492693416462637  0.0804703704198342
  0.8367437729426259  0.5047964266334357  0.8324050742356429
  0.8352484057364511  0.5834535117946913  0.5854938233238854
  0.8360155231410727  0.5016550873005189  0.5009702511904446
  0.9158427779226767  0.5907436387466894  0.3330286216848672
  0.8250703825603124  0.5001912755717245  0.3282384963938242
  0.7475991718792452  0.9184262231681783  0.8349460665175861
  0.7503542643937823  0.5861819666796674  0.1686046079569179
  0.6644380695030100  0.9191167175807989  0.9158025651916786
  0.6649878070402325  0.8344092405543186  0.8340132761816859
  0.5830013571242681  0.0012769370390393  0.7517419997440603
  0.6601516322910694  0.3320123271603865  0.3338667813393845
  0.6642138580552155  0.4123393412702582  0.2489703506818343
  0.6622277538981013  0.4157666419483392  0.0844185223094303
  0.7507563999990712  0.1575246677996748  0.7459558879139729
  0.6706658710230566  0.7539995980487778  0.2502605769597627
  0.7498105231729677  0.2406705367472791  0.5017240300771170
  0.8324164470580663  0.9167318038931234  0.0806691731209898
  0.3290381134089905  0.9204461475560549  0.4172209328654076
  0.7505011783840299  0.8323934398637913  0.0805425858633179
  0.1670604342569775  0.9999719651623097  0.4984354364385905
  0.1688148682333326  0.0027385088010496  0.1689605134238209
  0.9934934957809584  0.1664067956653320  0.8289806251111045
  0.4977755656330713  0.0830366548805119  0.5833276567362480
  0.4948775017366151  0.1647172761400552  0.1680989136749375
  0.0018715760086653  0.6593983247274545  0.3334062936193382
  0.5786401822099585  0.9993756200421722  0.0857302949812723
  0.4969271333558409  0.0812298791149389  0.9177759041618190
  0.0836879414368672  0.9193508409561317  0.3343200741635358
  0.1640265968575522  0.2482894860410417  0.7419945238087292
  0.9990996986212572  0.0001085983882174  0.9989221762949683
  0.6674830756347303  0.9200035796759248  0.0813435256597959
  0.1650793957353265  0.3311869696973991  0.1685645789779583
  0.0857432026480724  0.7491716030204583  0.1661172115110497
  0.3304078308169675  0.9180979116193801  0.0812006579276196
  0.3326345837174641  0.6661358508546079  0.8337833140603974
  0.3290544796556693  0.7506582574389282  0.5851906934571092
  0.4979265735229628  0.2489275515921990  0.9202153790004096
  0.4134437746752164  0.8337689289152860  0.9122662247860172
  0.4972770012479161  0.3324690963560508  0.3305261402412290
  0.4113691917688194  0.9185459978928995  0.9984894707826321
  0.4973608754797955  0.1678553437533699  0.3337659675599433
  0.4968981664400463  0.9995142195280908  0.4950090887146337
  0.5791519570177133  0.0022987132845788  0.9157902442326188
  0.4952484188956789  0.0002327353821742  0.3359250073071190
  0.3318703423003950  0.8349868855043892  0.9984646551007843
  0.5803188270660681  0.2490989060189858  0.3337654136370309
  0.4076708347032164  0.8377172461503936  0.4142376688307572
  0.8330123171401285  0.7502305786747964  0.2499731419543863
  0.8339032524807444  0.1656364927121728  0.5013048409150807
  0.2482809679029540  0.0003473604616149  0.4153802200097971
  0.0828813183818836  0.3331508015186727  0.5828708046121791
  0.9222533815857258  0.4210066036635589  0.6649035568469061
  0.8414185048176259  0.3305268182586549  0.5037014401585044
  0.9165734675903142  0.4152714034486161  0.1660909385553606
  0.8327191129927913  0.3365779340375565  0.1645451932013192
  0.8352242654229461  0.2546746780408318  0.9258312384039070
  0.9213890092160593  0.2465957133919440  0.6600189961089532
  0.8289011983218264  0.2428868819782945  0.7366128487905474
  0.8315140503430375  0.1591348341333993  0.6595818786069342
  0.9190165099878203  0.2481649406624769  0.4994300989881785
  0.8346457742204905  0.3375754907815606  0.8450704255606293
  0.8362678396936440  0.2445795195308513  0.5861571803252157
  0.9160801411667444  0.1670074244059962  0.2493980601255962
  0.8306839605083887  0.1677597015776324  0.1638840681314936
  0.9140923972739735  0.9148993981674755  0.9991522335794687
  0.6603671980170824  0.2482608223701290  0.5839114703766936
  0.9988627884713924  0.6688808515366855  0.0006038820874480
  0.6630454098140436  0.0813420018352811  0.5811597715091072
  0.6651137566885484  0.1648522667993449  0.1666378965691558
  0.7464544998684918  0.1677501852825103  0.2473650572272370
  0.6637496465064410  0.2489685895058741  0.2475420698935287
  0.8310272822361464  0.3375019165206693  0.9955359451706659
  0.7479955725146705  0.1681545533454304  0.0837905890151074
  0.7536319906905029  0.0903791132558389  0.8354025026342008
  0.1692174233998886  0.5854039159781498  0.7499433944195978
  0.0825435703292757  0.5859575068824540  0.5022133700934763
  0.2490977994861525  0.3323654887616446  0.9153505003754098
  0.0003925506047588  0.5838093503452083  0.5832128075782715
  0.1670231598376340  0.7502090988232976  0.4162199391909863
  0.8347389152471407  0.9191497810367923  0.2511084531152248
  0.5823894366759814  0.9152210242812515  0.1576396342205164
  0.9210539865013304  0.0779306246039816  0.8304651575280037
  0.8325284579559402  0.9176426048370264  0.9149447564686944
  0.3280512040975298  0.2535990165025691  0.4168523121527746
  0.1667679124414425  0.3352270054718146  0.0035219858004438
  0.0835039321498132  0.6665272285709222  0.2482685483404743
  0.2490444650264352  0.4147087174765800  0.0012380451478499
  0.2496463445767942  0.7521736929903917  0.9970087101127735
  0.3312629405528266  0.1668978554572785  0.0000710473117799
  0.4173495108018820  0.6667141216856952  0.0838993935014012
  0.4130082962587406  0.2480373359644618  0.1672769717784926
  0.3292146258528046  0.1656623525869736  0.5017452261230758
  0.3347044742586744  0.4999094101528485  0.6685290882636578
  0.3325434144913461  0.5841119984182233  0.5829803934887517
  0.3289350109428065  0.5012552994136666  0.3316005043937855
  0.3285665327964770  0.5824800774155426  0.2474559195364191
  0.3306289161970190  0.4994136350785628  0.1658168105384498
  0.4151794700805628  0.5833582827754604  0.0000289068932437
  0.4158104062569292  0.4170204908988007  0.8364631553563975
  0.4149016257881728  0.4160868178297072  0.6707989138841155
  0.4271427515700790  0.4276149269674292  0.5002438113787255
  0.3332526831201654  0.2500073096295165  0.9188438693173701
  0.4972360614100407  0.1652366535747322  0.5017705024786741
  0.3348667180058857  0.2484974615497882  0.7488385530168270
  0.4186826670668097  0.2460083453479984  0.6732951879649469
  0.2479675906611378  0.0838701581848789  0.8348808923954979
  0.4992457114835366  0.8340718941950658  0.8334368769311448
  0.4140611861784945  0.3330722707647412  0.0865956743445277
  0.4123129221518266  0.4185152782858514  0.3304574851760932
  0.3576728115697941  0.3518101162583471  0.5023586884940942
  0.3350864433600005  0.4214200842522501  0.5892301126440884
  0.3299978478254898  0.4177184859886371  0.2471151553193003
  0.4176659980031422  0.3327406584956389  0.4129651880862405
  0.1679077163753348  0.3327711615617765  0.6659650147630993
  0.2460158692083687  0.6661455336958660  0.2507567471070918
  0.1665108731079990  0.7506281341703632  0.0812062278409366
  0.1657861178909658  0.6657150834460344  0.3325961298912818
  0.0889818790341313  0.7510194684318736  0.3331914791792355
  0.2484114101641371  0.4993708518085019  0.4164955377595773
  0.1670758864050199  0.6674573365258970  0.9994539240580183
  0.3301140158994566  0.0823265273041595  0.7524466542596009
  0.1661302283064284  0.9170575470180452  0.4169266924071422
  0.2477439008139483  0.9182245061843574  0.3330880563642046
  0.2514642521456864  0.6660689030815210  0.7509928853775339
  0.4084036496818356  0.0015566987768763  0.5838257293242884
  0.4137462187790896  0.0847441565563743  0.5009256854061382
  0.3294451747956404  0.0847427497629380  0.5840224423201670
  0.2454214339994959  0.4999948858784082  0.2485717033918808
  0.2486491014326638  0.8336420388741218  0.0813252471717508
  0.9994968785428775  0.1676842588248819  0.9997464270425774
  0.2547758761048008  0.2491747168525511  0.8325395787224465
  0.9172182064701352  0.3317249817337268  0.7506594343436828
  0.9979582822423912  0.2509791459558063  0.0852386819975516
  0.1670489937726221  0.8319485721670637  0.1656952196891872
  0.0823849038595684  0.4169275144696314  0.3316492523381353
  0.8466808154563769  0.3354841870448568  0.6588382688735993
  0.8326090167534057  0.0006179106123197  0.8323162717647433
  0.0826958748705328  0.0003473988248968  0.9158080324284489
  0.4888527802715832  0.8230732099499156  0.4929824730798705
  0.0829286490192398  0.3330905632556933  0.0854983458717312
  0.6643292769909609  0.0805811422309854  0.0857072662612431
  0.0832303808037644  0.4128360334407037  0.8332952423499478
  0.3329583469757071  0.4179469832449940  0.4127008709007202
  0.9170983766398908  0.2517009481567654  0.0015738472484674
  0.2490121930916078  0.3326759437927398  0.0851182896036280
  0.8449114741332084  0.4251380455042651  0.7521977158144373
  0.1659803200200518  0.4164129493237364  0.0846099380033482
  0.4183888682465248  0.3326855667348928  0.5917833917373049
  0.6011530120026821  0.4790647305954310  0.5870573937820007
  0.0835759452902144  0.9992703416892529  0.4158473881588243
  0.9980106494119823  0.0003103470565406  0.3337966929640962
  0.0818481781876871  0.0849539910437408  0.1714043825663978
  0.0804485301388722  0.9991675126141709  0.2480383151031479
  0.9958547363717172  0.0107678771907405  0.1637622533572091
  0.0817395867711227  0.0844530102533809  0.9931972348527150
  0.0845150485534644  0.9944873196467792  0.0842379420491940
  0.9914111927412209  0.0875398636112306  0.0818162442103030
  0.9992429582899832  0.0823947624716116  0.4156856002033243
  0.9160938511924126  0.1663233763621761  0.9180992649496109
  0.9146428528156980  0.7512226590136247  0.5011392425907386
  0.5840060740265284  0.6001728654518796  0.4749763757970343
  0.0804883901455204  0.1661434402923599  0.2498891419840660
  0.2500385974865707  0.3335574536932648  0.7506821795183771
  0.0813346337095082  0.1727720013123331  0.0852506043929180
  0.0839289399177089  0.3343398371184226  0.7480955835140553
  0.7464485489054882  0.0815755470273362  0.0025821880496399
  0.4157710638965695  0.7502961343670194  0.8333182415341677
  0.8314952802559763  0.6675713871188741  0.3331495938375831
  0.9111299658870132  0.7497706466266676  0.3344383359891048
  0.9157639170108952  0.6665957520407132  0.4176982592781516
  0.0003473508041076  0.2509771113425915  0.9193967563556374
  0.8340724112576013  0.6662608112210113  0.5014207730655288
  0.8334237987458771  0.7515730099126177  0.5833484433834477
  0.0808173810144035  0.1675326330727255  0.9148731444168602
  0.8317203408677671  0.9170185194583762  0.5821939570894913
  0.0807267223237687  0.2485431264387143  0.3304299609397925
  0.9146690623241008  0.9167542393558238  0.4980499292153797
  0.0030614406832986  0.0790932833005282  0.7469145004642310
  0.0006572927311730  0.9970562784503517  0.6639426507809321
  0.0823886966435502  0.0807163878534293  0.4974868233064501
  0.0836816259219464  0.9997062309285595  0.5796687668975161
  0.0017505540437181  0.0805959601421045  0.5793018969222884
  0.0001301741113227  0.9986427093823033  0.4982326584590632
  0.0813976584357785  0.0818264937709729  0.3318004985386818
  0.0841667777939564  0.0031750411221063  0.7494572350249291
  0.2506960277793940  0.5832460520661320  0.0009036493912804
  0.2485349313179001  0.1681140737489576  0.9177244410300650
  0.8381034886132279  0.5031280199003217  0.6665662129836559
  0.4129878453198001  0.5002963190600939  0.2487730311831911
  0.4850139464562093  0.7569102076309374  0.2545383909846868
  0.2468449368863741  0.1638706453169236  0.4135382562711320
  0.3323819168120781  0.3323831508179029  0.0012323348227493
  0.4100954899399870  0.7525029073118651  0.1652296834481265
  0.1642137589813176  0.4166483909828655  0.4095040908223342
  0.3276951342250075  0.7520723969145710  0.4154190374299674
  0.2483426974652031  0.1657625307183491  0.7504633156631778
  0.4130864871425493  0.7507459336963741  0.9980694637162805
  0.2471175095143023  0.2485806382612532  0.3311382730532517
  0.3324281559452258  0.6657128805657327  0.6676229014460756
  0.4132174719277793  0.6658994544845638  0.2443376057970593
  0.1646883069602053  0.4170727905836401  0.2484265663835082
  0.3287047639678564  0.6657530991238447  0.3309624014459066
  0.1613289064093134  0.2492741751459185  0.4117485888788563
  0.4092618624659021  0.6676581390561258  0.4138333622601352
  0.4154458460323652  0.4998852304733733  0.0834414801143689
  0.4141063670049276  0.4164635898888064  0.0017700085784559
  0.1652299267389587  0.2498395086166595  0.9263104599482973
  0.9154517361609790  0.7512020056739732  0.1654759877959260
  0.4146619072984267  0.1638041344121553  0.5853123267926469
  0.3321095332858196  0.5824030352672007  0.0823295190177375
  0.4145031690586592  0.1649144002999817  0.7532345467090246
  0.4147238032376185  0.2485677536671084  0.8358128180578382
  0.4136720074423612  0.1659261381377189  0.9179104248086036
  0.1680765893298443  0.9159813995123200  0.0804267015581734
  0.2511559046108363  0.7497049921272834  0.8348582873468507
  0.0835719568491552  0.8267654799226976  0.7499899668616103
  0.9154228811363081  0.7501400354434818  0.9984134825097439
  0.8339489908625652  0.6681564274155344  0.1661929188991151
  0.3337663904440000  0.3342092007877772  0.6710018278524158
  0.8327840765198750  0.8343364337879722  0.4997642641339947
  0.3331209973113576  0.4163598094711443  0.7517812228996819
  0.0769625372149270  0.2501672082408536  0.8334334554918806
  0.4156805453888234  0.3320396785752509  0.7527110769961133
  0.3338857037721416  0.3329956808459311  0.8341552430999776
  0.4076740276735752  0.7495495407831205  0.4996049846166303
  0.3295644321276562  0.1679559596155295  0.3335463066568504
  0.4124642793274179  0.1657354754484186  0.0843717155569590
  0.2513437401795947  0.6676451626589067  0.9172264337418178
  0.2480822659665997  0.3331940031437116  0.2503713857869512
  0.3330277889116918  0.4992002722634436  0.8354467495449149
  0.1685788637676566  0.7487715415020556  0.7577646356615836
  0.1649592268629130  0.2490296499747073  0.5841434947742284
  0.2537231208173159  0.7492585296049034  0.6687699583740335
  0.4125396041828836  0.5864667833200861  0.4980052609613354
  0.1667176530991084  0.7500398304558895  0.9150857313216001
  0.4128098386387983  0.1665986955645472  0.2512294727980323
  0.2496022964651058  0.7499071939688771  0.5001904027762852
  0.1678229802396323  0.6633430472619655  0.6660548610971642
  0.4147942328100789  0.5838428155409693  0.6697576862456174
  0.3324269526653452  0.7505450840001621  0.7529918244091609
  0.4093519737377102  0.6713186489323770  0.5839602371598939
  0.1684359262301481  0.6659474357884770  0.8338146968692688
  0.4152924625814319  0.5837559718902497  0.8356450963961292
  0.3323962494995373  0.5838977531245922  0.9180466520544648
  0.4125631476408488  0.7506375250348614  0.6681382388639222
  0.2344503614106790  0.2374061617180278  0.4958750322358820
  0.3333244648198312  0.6672431395620179  0.0010298803827503
  0.4189993966335596  0.5039100472254152  0.5847935129742355
  0.0836349945501284  0.2497394712822321  0.6634122114273640
  0.4144610593752400  0.6670870285718363  0.7524444020885949
  0.4144971511949975  0.5025454173651718  0.4158643527518354
  0.3300674431939097  0.6675161395861208  0.4995496736522346
  0.3346321242937106  0.5008318349617868  0.5011670482092812
  0.1602897286558215  0.1611944464421849  0.4984229292705275
  0.3313493606967935  0.7507467515851605  0.0815761744429078
  0.4111759868424818  0.5820819323720990  0.1653391026619774
  0.4140804967400948  0.5001095614252891  0.7549483445411698
  0.3291423933870424  0.5826374174734497  0.4158714599727194
  0.3333755429239426  0.5831206581222355  0.7521451782265391
  0.4084459093087270  0.5833754384630416  0.3314184026520648
  0.1642818843038125  0.1656552518724750  0.3306232311061715
  0.8322835626843528  0.5835761802551973  0.4156656404096242
  0.5821878769279942  0.9181662530972680  0.3397544520613703
  0.6578504971978897  0.2363708739370604  0.7488896664196341
  0.0831818038654293  0.7497529772806754  0.5006218019926975
  0.7416755049474669  0.2384694805581516  0.6643330416281316
  0.0813371053947032  0.7501394450878511  0.8328967103557106
  0.6620594811942296  0.1602608233055717  0.8366609210442920
  0.4991047438482650  0.7502638282318539  0.7530431764180807
  0.0834179786139358  0.8339848038288742  0.4167536176009765
  0.5831288851667842  0.6666865332034511  0.7567894939155008
  0.4982039337054306  0.7498140283937516  0.9164557085610586
  0.5832171555596043  0.6681354820962360  0.9163390682260021
  0.9168269444072462  0.8338477685032267  0.4180604008075040
  0.0818727512967766  0.8345621275108175  0.2502541154130325
  0.4911949474939516  0.9213637962394730  0.0822032041068852
  0.5665834530584948  0.8429322102891762  0.0703417182109927
  0.5796634129499758  0.9223835212494751  0.9968013066578421
  0.5828142596646908  0.7507572003653309  0.6694569163852483
  0.1650197757055838  0.0814320305167389  0.4151553100715262
  0.4939095038214905  0.3311073571706298  0.5030315179634257
  0.5772315327645340  0.3314566462269625  0.4163612241249445
  0.5821722671635509  0.7457228701831885  0.5020930904468023
  0.5059128358165865  0.8988618312065754  0.5663244991732040
  0.2513428591221591  0.5014393046429867  0.5839673648613963
  0.5930035735948653  0.7648727630205090  0.1453378235599691
  0.3298060072719319  0.0016648032251417  0.1665500152878100
  0.4976604497023639  0.4991696039110436  0.0014834640022744
  0.2488055460116271  0.0003281914689005  0.2505586546567712
  0.5805537748225568  0.5003850783377015  0.0847251165722380
  0.5822488943013729  0.5839155410101402  0.9996497274789233
  0.5835806410306803  0.5015656697712546  0.2510149389274205
  0.5876977104722804  0.5816358831903937  0.1647166457262247
  0.2487542762148278  0.0844488504326108  0.9989915062088095
  0.5774836767552505  0.4193909642550050  0.8363633612933019
  0.4893135196961308  0.6687021298508384  0.3285411117385895
  0.0838490063429101  0.9164588272878296  0.4984676267906191
  0.5614669524838107  0.6855518199677395  0.4094345046882719
  0.4948537475512461  0.8399567489975295  0.3309116903069453
  0.5777502777292151  0.8297748759282233  0.4117003950348668
  0.4993426878904825  0.6681496278155147  0.9982653993788243
  0.1728418078257745  0.5007561365163137  0.8338257827122273
  0.2522629478415374  0.4982546238571303  0.9173565408270611
  0.1656473359382758  0.9175680781506892  0.2506619141210867
  0.2481275395744086  0.8352473621230611  0.2484574150876326
  0.2479058791543699  0.9181000743708554  0.1656336293028932