 B Cr Ni 
 1.0000000000000000
    21.1200000000000010    0.0000000000000000    0.0000000000000000
     0.0000000000000000   21.1200000000000010    0.0000000000000000
     0.0000000000000000    0.0000000000000000   21.1200000000000010
 B   Cr  Ni 
  35 259 605
Direct
  0.4103651343185959  0.0781751273594889  0.7581912970691415
  0.0026621074372136  0.4991477960005161  0.2532955827959724
  0.5943083622570362  0.7442274805493415  0.5852792571250368
  0.6666103297310711  0.6107814443270269  0.2968639251311629
  0.8352532496835966  0.3323064742751421  0.2486703578675755
  0.7826501343633487  0.5056352825017091  0.4725383684510043
  0.6656015846324490  0.4010679219149005  0.8372929457418240
  0.9310572502964429  0.4589088755621679  0.4193681844006729
  0.8781075394252850  0.3398354369474636  0.0216538959868618
  0.6753774071076893  0.7401834732623817  0.5057427743590174
  0.6544590571357788  0.6820824028283399  0.5755515819424277
  0.9324552490035750  0.5411189304668785  0.4228040738133623
  0.6499456214993662  0.2485158116015526  0.4991360979332666
  0.9058316493557497  0.4236358821233670  0.5657747515369019
  0.8377723235588310  0.3662651116702700  0.4300719967369183
  0.6691094157129892  0.4394610300344370  0.3547867579533017
  0.7561691137129876  0.4936786860818287  0.6554609515502291
  0.5909062985154244  0.2523188537527202  0.7498721070089883
  0.6324751238110274  0.3961524726670176  0.4111858784300341
  0.8965100069643648  0.5032708219703518  0.3582077533467297
  0.6654299341686852  0.4915053091580880  0.5810262622798271
  0.6720024465054880  0.2500297719978412  0.8358938377111145
  0.5940629267633573  0.3156703544052677  0.4950251961611528
  0.7453028320772676  0.3406587318614473  0.6709126829123779
  0.8392134990216662  0.2546139775233610  0.3487914761494712
  0.7535156713485563  0.0236833487704210  0.5092508231097953
  0.7373086579856128  0.5788209473876187  0.2634053764523974
  0.8227731502891624  0.5735296082455532  0.5095483615364129
  0.7541882046232977  0.1376586699059973  0.3874910446546225
  0.7563090288298149  0.3988351889029291  0.9160961879143222
  0.6215103255437960  0.4154411948232478  0.5831890749924769
  0.6590900899446939  0.2488835800970598  0.3574613628633900
  0.7463180475416156  0.3406430775617029  0.4926591220585804
  0.8446302086613936  0.3190615577536101  0.7722725257653780
  0.9014250510327912  0.3451744237069759  0.8271970237911300
  0.0031421908396398  0.6700386827132486  0.0002056778600515
  0.7469643748945246  0.2408380445799456  0.5193780168800104
  0.6572109005146055  0.4101219150100908  0.0742702854223412
  0.4907673973086755  0.1604946371434260  0.6691370621636196
  0.4122872881701969  0.1642138814433043  0.0821572347718390
  0.6584213339275328  0.4139417227567390  0.2406412067623377
  0.5817158418973022  0.9968575946130589  0.0841080109510214
  0.4992651372343723  0.0779024881818597  0.9201080980269407
  0.7515048887375543  0.0007916050202299  0.7540186671020984
  0.8448202279868693  0.1668632197227837  0.5231528826478624
  0.6651744562988287  0.0723831557342628  0.5853671450217257
  0.7493102845801900  0.2469643704469539  0.1617597112565169
  0.6624716951268423  0.3405354652478056  0.3235495652951647
  0.5789274282770727  0.9967252635820802  0.7519492826893013
  0.4140030519603481  0.6688270383212644  0.9164676059942469
  0.3311584222961720  0.7491109404271172  0.5840201140597869
  0.4970716919375073  0.2474600085444741  0.9188590894658009
  0.3297849601970282  0.7513728534007789  0.7523203076578870
  0.4884968902827727  0.3315518153919932  0.3267820638650902
  0.4156363104777242  0.9163369067138233  0.0008150349607286
  0.2494836637537006  0.9153177310209906  0.0017370876964618
  0.2491798818826994  0.8343773436630165  0.4177613011661281
  0.1689863473037051  0.6687950467585954  0.9996086411643512
  0.0837474090689659  0.7498658722447543  0.9986300447450183
  0.2513760525619198  0.6669841805887697  0.5829601693686171
  0.2479619444886473  0.8338757460156940  0.2480568564630312
  0.0071118584575556  0.1613355143168859  0.6706155979975528
  0.0027120341492840  0.9150671692550765  0.7509115346393841
  0.6663583398208333  0.8341444370772062  0.8355574427947469
  0.8391050726514536  0.0764091543286588  0.7512041733243378
  0.3298263860201130  0.9172580964509544  0.2481986010401358
  0.7490403222347916  0.0732273985142582  0.6706686947692683
  0.8406042821397200  0.0798952611496956  0.4143748910703886
  0.0071372537804313  0.5063683482175807  0.8367552493522301
  0.7504575308361060  0.5060579041949466  0.0843780646290259
  0.8346806827643550  0.5963242975436452  0.2433527056067006
  0.9210333274487618  0.9158678402458487  0.6698517722831172
  0.9195998196618841  0.7531801679123413  0.6707345089847020
  0.9197700791852591  0.9179929904655006  0.3327769200544308
  0.9176272857180470  0.8358334449960452  0.2508443154642486
  0.3327222501622051  0.6665086923147435  0.4989652591886598
  0.2499013991958201  0.7500941442545257  0.1661205813506473
  0.1674030288777950  0.7533077686000922  0.2529020744984488
  0.1669662738607328  0.6678565315941588  0.1655590390250515
  0.4973449438831338  0.8346446043897808  0.0003564177102116
  0.5795418853162773  0.7534742166484155  0.9991362416520160
  0.4127634877963480  0.7530534888644550  0.1665550021092153
  0.4930102086323305  0.2455601647639472  0.2441242062661082
  0.4951334666457110  0.9983339280024083  0.4986188683395080
  0.5797709040590964  0.9987401905831225  0.9178219165593609
  0.4954523996167527  0.0009709038945538  0.3322332410418781
  0.2482328720877638  0.8344566967585448  0.0820457637926891
  0.6601551775371346  0.0845368259488739  0.4158895631925519
  0.4135289499375452  0.8361472468087289  0.4165452299813753
  0.3298705358063745  0.9188292659614360  0.4169272899008564
  0.8342902331167353  0.9171845786192022  0.0841496387321085
  0.7440836531997221  0.6767645305759870  0.2494254446440224
  0.6620286278068038  0.5866415963669115  0.0849716862419893
  0.6610532870914254  0.5049778899100754  0.8358135418753334
  0.7456606897306073  0.5204005469144181  0.7614556568618827
  0.6610214916228329  0.5912172051294791  0.7525253156841913
  0.5749445430861601  0.5866344500575207  0.6713552635325812
  0.6541898906644629  0.5328780616762152  0.4931079744032045
  0.7490359705750229  0.0797504318381826  0.1655580329710708
  0.9179790013037257  0.5953796709988182  0.3328715888104122
  0.8101448269129440  0.5219105670785148  0.3111391651468637
  0.7498534703201785  0.8326806563625385  0.7550625386252995
  0.7542388155042568  0.5906757603831090  0.1579738217353845
  0.2487117090055370  0.7503771970350486  0.9982911912242088
  0.3300964038007190  0.1654617949022727  0.0000742699742716
  0.4130164515243186  0.6685043609420966  0.0806409610887163
  0.5795298415156098  0.3300874753618024  0.0784000330328755
  0.4104872164116847  0.0780392922197625  0.4990633392005785
  0.3314912674089715  0.5847515020801504  0.7503736634913609
  0.4098659984256294  0.4170418324418452  0.8361930708899480
  0.4840708654339927  0.3329323918208136  0.6628408821874611
  0.3311438444552887  0.5840730769929818  0.5814074589215482
  0.4125118321516760  0.5832762523776821  0.3299635215463954
  0.3300768772553943  0.5857793111011604  0.2491298017968288
  0.2499506450111298  0.4160668007678841  0.1655670625720473
  0.3320395102074180  0.6677083205288888  0.9984927717074920
  0.4122445928723146  0.4141535255625444  0.4978211010811595
  0.4089864399155232  0.4181839388679036  0.6665948737862584
  0.2487543452767884  0.3314841858572877  0.4148112170084325
  0.4110188138619947  0.4146230256833828  0.3290024819958113
  0.4129138552041894  0.3303290427072622  0.4142986474420239
  0.3278310210810501  0.4150667143509794  0.2473990131218928
  0.4964066395689417  0.8341959643309448  0.8342180718575161
  0.4113131542336991  0.3314953528260722  0.0811781205817887
  0.3306468782239817  0.2477300284865238  0.9179800443265003
  0.2465892729439377  0.0829408910243246  0.8372390188356595
  0.4918268192255004  0.2468673048465750  0.7530272502063747
  0.3280596631492104  0.2489829420235419  0.7507217971145739
  0.5835025023766370  0.1659523056390791  0.4152053461856726
  0.2466275877994918  0.1633690153884166  0.4161347603204837
  0.6651787376378030  0.9155106968495047  0.9171093601474516
  0.6591987975695209  0.2358496327996787  0.5986323968598504
  0.4961945914386250  0.9195560824875415  0.2469019866023369
  0.9248692730588968  0.4197310938135664  0.6712974999689999
  0.8465478927471293  0.2965227510194975  0.5057578614112487
  0.9086181343947385  0.5053673049653483  0.2552368635292454
  0.8348304686593555  0.3291649423119574  0.1532182482603881
  0.9173556448257619  0.2482706727715416  0.9997683291572683
  0.9283992196026182  0.2433033999681808  0.6691040202828178
  0.9140753982061832  0.2470874705767245  0.8314177744247397
  0.8370820826515004  0.1510586270634263  0.6644308032135856
  0.9300451699816265  0.2394170695296959  0.5021881833834319
  0.9139783174696907  0.3321281010273689  0.9239704030316787
  0.8444361626379306  0.2406197870536405  0.6004984816687290
  0.9198340888810680  0.1592349820284362  0.2439247274284216
  0.0047045139567373  0.3261537748428434  0.3335178681116816
  0.8366494004142535  0.2510331366851324  0.0771887821221581
  0.9206326061220317  0.0771434132878306  0.8352959314896030
  0.9216586847668740  0.9970558764227726  0.7509310345877004
  0.7495104248985049  0.9994367605915397  0.9187656435343972
  0.5797199391572878  0.1638492107823999  0.0834596740708705
  0.7511219315509012  0.5902362121287644  0.8413830016229032
  0.9209969711438036  0.6735388277209193  0.5885450708864719
  0.8370843772902844  0.7569572685899637  0.4199019405462309
  0.0037518243866429  0.6701177444634949  0.1666369676635434
  0.8331766191649418  0.7521558576794529  0.2491903541586952
  0.9209104231786159  0.6701819893656755  0.0822580087748698
  0.8363717036228601  0.7534853514752758  0.0805779778726994
  0.7491944809082269  0.5064582859579723  0.9172333831961855
  0.8479263929225395  0.5903043459219064  0.6011664075805565
  0.8394735044929227  0.5781034222130202  0.4097498909444915
  0.8368878747563304  0.9170618146062943  0.2503587024640592
  0.9191070235270030  0.8348951151992638  0.9178416897110334
  0.8361032471436658  0.9995137577886529  0.3319277461465220
  0.1673199491543106  0.8333219119621627  0.5002427005089239
  0.8345781643984457  0.7521615530907537  0.9182021948053294
  0.0828209293306496  0.3332318569184733  0.9179774642628135
  0.0870286385003239  0.6699799069905549  0.2523774377260125
  0.2477349217372760  0.4166378569876006  0.9989569702088729
  0.2496589749777285  0.9982965256726193  0.4170568882126450
  0.0854969386836981  0.7498628042804276  0.1668660266006713
  0.0864615379389218  0.3338161593848288  0.0839367437946284
  0.9188134337493417  0.6744524274960216  0.2492527676160327
  0.9966233688771247  0.2492230126726844  0.9166779006114535
  0.0842572974742168  0.9170141300337494  0.3340134722370579
  0.1653389917706148  0.0821052660759782  0.0841135027680002
  0.1653194583593657  0.2498250411398411  0.7502141641404224
  0.1675693348025822  0.0809124088819407  0.4158703725928151
  0.0014374836752543  0.0809794356427549  0.9161724331956796
  0.7499840034262248  0.7540291095096343  0.1654372449365717
  0.7471660231316526  0.4961356692087061  0.2168628391683830
  0.5785961540709759  0.9162940813001161  0.4997533945222262
  0.7501645554562351  0.9163980069702168  0.4985103807806866
  0.8337284334593924  0.0808533483683387  0.0831628310567347
  0.6607849559638466  0.8373685969904601  0.3314854196227212
  0.7511617984537723  0.9148918656535635  0.1655099123809405
  0.7517396922892960  0.8357572895396247  0.2491216265532621
  0.6658280932447180  0.9143290186192767  0.2499303120700183
  0.6651173382707330  0.0800206845897335  0.2440020760569653
  0.9242983306271282  0.5918677081776348  0.6756696444292288
  0.7498987822452302  0.5856444626923354  0.0016695088820525
  0.5756298994749482  0.4174563840409504  0.3230583887359383
  0.4947031017093233  0.6682332317933827  0.8356213244123516
  0.4934768400466288  0.7525681279884131  0.5848974837711495
  0.4894014524945708  0.7563408599291854  0.4125035231293224
  0.0854289942812393  0.3331153117008911  0.5822909161839402
  0.5823825450379504  0.6703049253631396  0.2461579216745673
  0.1686618735060421  0.7536203233471469  0.4178997183653288
  0.0878321414477602  0.5842363457829820  0.6675479372300179
  0.1683780474126851  0.7509110397880230  0.7515448278615064
  0.4964670161869976  0.1642354033942858  0.1640196988932837
  0.4135973043949173  0.0810057854268076  0.3320501295427681
  0.3312985150862853  0.9986973621115435  0.5011121456639889
  0.6852119511274235  0.4380422683567021  0.4972171586636119
  0.4967942228307430  0.9995792857636590  0.1669427498427757
  0.4121933308376529  0.0812394440937536  0.6618596902197965
  0.6426687293971916  0.5888821676952795  0.3976507776032676
  0.7566123188486802  0.8505965174204808  0.5857614129946015
  0.4128067105270616  0.9982220994206045  0.4164180491176018
  0.2484115836063818  0.9990272179295924  0.2473449988818747
  0.2492803653225162  0.9167863045400551  0.8330326745430204
  0.2502049759859769  0.7497765516728165  0.8321107727681606
  0.3286113888147101  0.0810606469726782  0.9191448182140141
  0.4134370607137641  0.5000068530947007  0.9141492346166566
  0.4962647798098915  0.8328191891879780  0.6675908163760449
  0.7508800154648524  0.8353456708912531  0.4162837636960092
  0.7529434376368874  0.6665211199845777  0.5787241045108598
  0.7473738790716179  0.7588357427676095  0.3327208770146829
  0.7479769641597896  0.6971247630530639  0.4227510563691346
  0.7479396722687239  0.8358400092811322  0.9181574512853184
  0.7485873062869115  0.6660648520939545  0.7555356659689033
  0.6612222392070507  0.2484601168793442  0.2466541306867264
  0.7979937756582361  0.3257669305473853  0.9759849904173447
  0.7474178327023668  0.2401457607868613  0.9987846601042445
  0.7496294777623782  0.0771406374046429  0.8345802448932901
  0.1664142539066047  0.5836699291006596  0.7489813037912152
  0.0858966425100753  0.5853886694928593  0.5020942910124654
  0.3287285044886470  0.4155908060246756  0.9167189210876033
  0.6641426289944492  0.9162106147949065  0.0817689156750584
  0.4130748077549597  0.7540080514210066  0.3315181749797415
  0.3292574540388047  0.4166013755042055  0.0811509742854918
  0.5746572198872925  0.4133187361580221  0.4950082631680320
  0.3284540902677608  0.2485219985829948  0.5820403390777230
  0.1669689226284307  0.1651187036061469  0.6676345968297402
  0.1675920529061414  0.5012452338564263  0.6653774716252190
  0.0864146466962337  0.6688625721627227  0.5837271626394598
  0.0856713426870188  0.9979378708149219  0.7516142498947621
  0.2487380526589333  0.4166176370161633  0.8340611927953550
  0.1685293422025062  0.4187525415063902  0.9168055966612148
  0.0031372001329520  0.8338424786546028  0.8338366728409968
  0.0025379151276728  0.8349487263517458  0.1660598992777194
  0.0874603506332495  0.1613949544446559  0.4156798896675418
  0.1690321362787441  0.4999415874926179  0.0000632955940980
  0.1663299879727623  0.4171418383668162  0.7503658942642606
  0.0027965844315539  0.3345911738814245  0.8377775136809895
  0.0068106002755715  0.4181728468501364  0.9217131539060992
  0.2482380128023182  0.9156077048487957  0.6654137700912278
  0.3293027848299904  0.7524275970152348  0.2478898785035240
  0.5783416365155962  0.5852264849578190  0.0010430637802029
  0.5758970976977690  0.5046433944226123  0.7519236347805849
  0.4946653020067159  0.5032776699935787  0.8368292809596576
  0.5702594323196750  0.5833610798994879  0.3201487577706797
  0.5925831005837126  0.4905508261750240  0.4084790174798979
  0.4933883131079894  0.5802711883975055  0.4067488676483256
  0.4951712690437002  0.4984409561643507  0.3275397149498386
  0.4922468196623953  0.5850596490916152  0.2442082545445914
  0.4917228290766691  0.4978550232155209  0.1605761456533632
  0.4932194439540581  0.5858983887174137  0.0773797260515574
  0.5774686746705713  0.4143603150433692  0.9999820917670106
  0.5517628999415649  0.3402503244996634  0.7369346852609470
  0.3308263212028856  0.2460164669058302  0.2484429803326656
  0.0073596234631027  0.3270092040192181  0.5002312487635482
  0.2482776793771260  0.3325807509074860  0.5839721129631311
  0.1683449744808781  0.0792800341860094  0.2476922861640100
  0.0046791213675710  0.4201854637602686  0.0851272963370505
  0.4900401974312514  0.3306451885385887  0.4984492251728312
  0.2483465639136582  0.6687452158640782  0.2514706269435264
  0.5781615307204628  0.7529525045986347  0.1648135430416772
  0.3312832743501195  0.5852283665846613  0.0806351507909793
  0.0041276075697035  0.9164020142722167  0.5852238802544896
  0.9207741848036503  0.8355439928838801  0.7534052551429434
  0.0816717438640670  0.2478806149783828  0.9994190939728995
  0.0823117562294446  0.9165227171994238  0.1656645235677009
  0.2491442379380132  0.5849057980954595  0.1675086676954143
  0.0030063280948807  0.8341136479982669  0.5013508918288957
  0.9965193810846146  0.4994190172432888  0.4956245227292350
  0.0842887394323804  0.1633678264902634  0.0810336582217094
  0.9965952566363525  0.5025596506903843  0.3479822776815062
  0.9224704270458586  0.5027162294542763  0.0816306569008330
  0.0007110559216770  0.9146156741492808  0.9162893409111997
  0.0864731531724815  0.5879816030608757  0.1675183628014945
  0.1675871891602574  0.0807540059201388  0.9164284409233217
  0.1616327000935394  0.2485886163350694  0.0830106137764830
  0.4162750941206271  0.9138760658035943  0.8352737378339093
  0.0851857053301112  0.0817961041660172  0.1644688176040226
  0.2509756814811516  0.5847267452509380  0.3337433635488229
  0.0067282922873627  0.2469911881694186  0.0853705891849936
  0.0862734719636820  0.2465267972254639  0.1663943950489591
  0.1688653364832852  0.3307675835598211  0.3331638419795805
  0.1687362594290213  0.4163623412862188  0.2506535644421081
  0.0045875271645611  0.0817050195565844  0.4161266753298814
  0.0032652123537069  0.6698859853085128  0.8350608312300519
  0.0848115475260698  0.5857191178024976  0.3359565441183471
  0.0826296869945665  0.9164447220399123  0.9986835870582946
  0.6628648578346747  0.5866752254696672  0.9194268478190324
  0.0066321669455490  0.5941857337951387  0.4192981717211946
  0.0033084442303732  0.6722710158664947  0.3339878756267979
  0.6638782365362633  0.6766049912795286  0.1604074281054226
  0.7506143266136122  0.9158003565749280  0.6766930740309117
  0.8372905482441381  0.5076674227977774  0.8346464392686758
  0.7504334401962796  0.7537521422362971  0.9996675044107881
  0.7500979418138305  0.8344009233732672  0.0827033659620419
  0.6631348332851869  0.7539766065718526  0.0809426094375059
  0.7493112069300117  0.6724649025458322  0.0804913326776173
  0.7626132810571532  0.7648777685997999  0.5100997771279230
  0.8350268482372178  0.6713641581681902  0.8379987405766941
  0.6651326658264618  0.8348552198949637  0.0002771429330878
  0.6627872127988601  0.7570946747178950  0.2466968460496455
  0.0026637146036358  0.7519403579871918  0.0829401749193866
  0.1666084019964615  0.8335264202057242  0.9992732736274599
  0.9182063825137352  0.0802831423660873  0.0003833991251576
  0.6992642091861243  0.2005714751507734  0.4243418721414901
  0.6665572334623940  0.5149309168119756  0.3040958296703355
  0.5783011796715481  0.6706149454269978  0.0814818493710271
  0.0854182151530643  0.6685773798680107  0.0830105022572684
  0.7449092143855267  0.6094732065120735  0.3520503824648574
  0.6383350576931178  0.3249068300385524  0.7963503903018835
  0.7072237596517172  0.3267905379098831  0.8857809153505529
  0.6638377667975268  0.6689436488214379  0.0016986280546413
  0.7423182409430246  0.5980460954177343  0.4730712765866762
  0.6572299787469535  0.4897098169925881  0.1516390845358213
  0.6639508665558373  0.1648724387072671  0.1639730239955491
  0.6572213551014823  0.5801763565798325  0.2133406537405783
  0.1681543292405955  0.5851434848307735  0.9179743760458711
  0.0871582596253526  0.6705088576017799  0.4181890001478902
  0.0020533744427029  0.7516474206513425  0.9167001647310580
  0.0018704078902379  0.7527513685642712  0.4185841347994302
  0.6664051884667709  0.1590242400959903  0.3258115001566164
  0.8165948979236786  0.1961947369858427  0.4274362717066504
  0.9235820113379044  0.5091060063594629  0.9215799766916094
  0.8359190417894705  0.8359141924887080  0.6708167323403126
  0.8359647866076246  0.9166478130670315  0.7532369573121566
  0.0041367153856363  0.8333187354184822  0.6680426666516821
  0.0075453655256050  0.1604336529425634  0.5001664399219589
  0.7509529942833696  0.9174624361474237  0.8352024648043075
  0.8339398286801294  0.9982266141400951  0.0008593346166583
  0.9176227780452589  0.9161878489026128  0.9998682349440788
  0.0034450188831167  0.9968811523233053  0.8351471020236394
  0.8329252983660581  0.9156499685771869  0.9179677671285711
  0.0063673822516015  0.1598890316988827  0.3309152284320823
  0.0055532127631962  0.2453381425030837  0.2467780766996546
  0.6826423837625816  0.7677987703970712  0.5946710800526565
  0.7539509972628555  0.4255069418724767  0.8263116429489974
  0.0874212714749194  0.5862770778752621  0.8348652770235603
  0.6631043280660709  0.5050481106404517  0.0028725640280573
  0.8337319903776269  0.8349279934098444  0.8359714277785412
  0.0018026675912982  0.5897637168384343  0.2523982014169163
  0.8410087838655361  0.5022187128215142  0.1584509629659197
  0.9212249816975316  0.6720863969820098  0.7538851428825275
  0.8374808054512498  0.5930650781761857  0.7564948808746573
  0.8351020561922750  0.2430188961794848  0.2466179174431443
  0.1665433991046837  0.3337404183504118  0.9996305379961115
  0.8341807035340129  0.1647630268068255  0.1621803421435088
  0.7493923718567554  0.1622656138937532  0.2425789429273156
  0.7788697401179727  0.2939710082832867  0.4163937130540731
  0.9254543922945845  0.2363157757974554  0.3240330456138656
  0.7478356638958003  0.1558717236661948  0.5908575323890441
  0.9295863181466246  0.1583380739343308  0.5886623858163768
  0.0855298624035380  0.4184447287347576  0.6668779919121731
  0.0046597686839887  0.4192907550189852  0.7536585348303761
  0.9214887810865240  0.1605726971433958  0.7505810212203662
  0.0081067567341111  0.3335262475975783  0.6634623396858738
  0.8381927460995303  0.1559836936716650  0.8333610930082042
  0.0846458940104004  0.4158792460381960  0.4997244321691450
  0.0870561148771179  0.0804306722211233  0.6686419401770898
  0.0016305755203284  0.9987901463944022  0.9997676239088381
  0.6633864552760186  0.2460571228466136  0.0805204866857283
  0.7476219459607618  0.2430168609838786  0.3234111172138724
  0.6776067690040065  0.2326329326097716  0.7437723265900418
  0.7494930084842102  0.9954091857288186  0.2466469298283079
  0.6633020230642226  0.9947077110066918  0.6706329420110434
  0.4884692396817725  0.1564530360055582  0.5003403749676993
  0.7529796269318841  0.1530282974635872  0.7483734382510749
  0.7492019672470871  0.0755148935881350  0.3248290591427646
  0.6642664735120003  0.9978138161109220  0.8363555850825540
  0.6547138604930298  0.1569939486932911  0.5143846460928253
  0.6622476306493134  0.5084406294362064  0.6733683530084402
  0.7524622149534703  0.1109374822570606  0.4832514536057047
  0.6648398118335483  0.9991263276003363  0.3317317745534800
  0.6641582652401627  0.0765364149490965  0.7526850081711519
  0.6643769593180654  0.9167422133655254  0.4163916933897965
  0.8365398857405514  0.9966564785283375  0.6687558893234777
  0.6627728237225390  0.9985896768393905  0.4994169408326911
  0.0845461794418670  0.8337127173887224  0.0821934477740468
  0.7487312964739605  0.9893170123621940  0.5919771420453496
  0.6605169087498308  0.2345512021615857  0.9244065231407003
  0.7600259819306477  0.2345342467578786  0.8340520432749253
  0.0050910381305249  0.6703858265895717  0.6686796520854658
  0.8348387289969101  0.0790806164746015  0.2447875240222171
  0.3319841857286911  0.9162365201299170  0.0819350881213067
  0.5680389025393965  0.3315394593775803  0.5882124309858165
  0.3292566512721973  0.4157289403707022  0.5816513003235860
  0.4889919655119099  0.4235113271922484  0.7512142988846588
  0.5759743355818964  0.4225288517374291  0.6658812312718779
  0.2489606926818444  0.9978099984614073  0.9176209735234988
  0.4940857292254985  0.5853917754807006  0.7526656283182115
  0.3314548251097199  0.8353632948310427  0.1645131231044557
  0.1681046108633217  0.1641924562979378  0.1663497160288214
  0.2474312828811554  0.2489142346811279  0.9997951581012473
  0.0873272746217032  0.7508967160179425  0.6675557224702566
  0.5816683795755428  0.9167986158451726  0.1665427332819673
  0.0869754866782574  0.6685126100270569  0.7510888280243806
  0.0059203280101239  0.2448982972934365  0.4144777951270182
  0.0038693436485690  0.7516568397242621  0.7518449468871788
  0.6631016534205546  0.1515687068587676  0.6681539238371180
  0.6605929983129361  0.4245184329460774  0.7477431877741871
  0.6669149638242871  0.3275853221826121  0.9951108614879500
  0.7452112167840050  0.3284214909871543  0.0778425883618591
  0.6702734856576740  0.3093136400859029  0.4354573809950625
  0.6620907772206939  0.3296890043412741  0.1616064370923408
  0.7757608669140835  0.3321621990792755  0.5839468079295380
  0.7446736280461215  0.3317235410041907  0.2415301591898302
  0.6531893459780966  0.3279436818646772  0.6725885590856049
  0.0039036494308637  0.6718352737070730  0.5029967993684561
  0.8343031841935046  0.9978794299276832  0.1652089237036711
  0.7480046535201004  0.4281512787716756  0.3070739651957152
  0.7475888886266062  0.4236747310312801  0.0058618448156135
  0.6699041125299848  0.3355314448323669  0.5477197653998205
  0.0036004972090143  0.7530248689993144  0.5853808325158280
  0.7089424763496182  0.4175523558902106  0.6175705119964225
  0.7483322378504980  0.4097171694839285  0.1533614892420722
  0.7496755095823244  0.3214868437399461  0.7619636391145719
  0.7354318838079873  0.3940773010229632  0.4099877157480022
  0.2498659780024302  0.5838590720855810  0.4992119168575612
  0.9180837152095935  0.9162728001567805  0.1658958756866498
  0.9207067453352082  0.8348747473882459  0.5866090106073053
  0.0863002660459481  0.1641374590169041  0.5855761721991521
  0.9201242894164738  0.6701443470945904  0.9187858978246892
  0.8350064468847579  0.8359175728879285  0.3339201682556961
  0.8336357333785342  0.8353698080905769  0.0002167330096704
  0.0020229154378228  0.8349155282451852  0.3335923724585692
  0.9185175569978049  0.8348324516008101  0.0823695909505609
  0.9190349368237528  0.7529844024828586  0.8358981274844443
  0.8361450894831355  0.8342761749385978  0.1650768918138124
  0.0867986005290448  0.1639875664420038  0.7524698371015018
  0.0062542980302696  0.2466648083207508  0.5854444376496136
  0.0058607716723158  0.2451585470813032  0.7533704556953318
  0.7491377875020433  0.0034633889997500  0.4165513343356557
  0.9220461688848025  0.0773309230842852  0.6675571354418353
  0.0017561245897257  0.9170425387025329  0.2498410187754813
  0.0866108569794721  0.2466702462473464  0.5000792835702600
  0.8358138880594580  0.7530193294004546  0.7551049668895428
  0.0859314967300022  0.7522628046657794  0.5011164839918469
  0.3292153836034409  0.9974579338809572  0.6674513497652144
  0.9194438506223173  0.4099489428909725  0.3353222818302150
  0.8266053548862542  0.4304658379157982  0.6119321534148984
  0.9209996161261466  0.3314428637002004  0.5867102490973386
  0.9164455687222400  0.3898097617538508  0.4816837173816220
  0.0873392887106368  0.3288431510221740  0.4152854163327552
  0.2497532997055189  0.8323659888601621  0.5840037378048036
  0.2487460081337419  0.9155884684871632  0.5018364067962343
  0.1675848243766009  0.9157543321692195  0.7508344378374361
  0.3308719296994594  0.9982558218221556  0.8345903020699965
  0.2478016989737923  0.9972763589444297  0.7515052118836139
  0.1659991232899834  0.3330348858579840  0.8340521463271316
  0.3310045855837209  0.9986041718220847  0.9999696833951210
  0.3312980039398987  0.0819092224852229  0.0814983513256637
  0.4145345151630765  0.0815401096383716  0.9999386153765901
  0.3302792762174819  0.0813367907709632  0.2482453784476153
  0.4127545179130208  0.9999769254161318  0.2484448368120045
  0.4144010499292926  0.9988441584750730  0.0827542262654684
  0.1673826702962571  0.9154427398981480  0.9181811215418302
  0.3315240739909059  0.7518085274218564  0.9162770434017283
  0.4887774661185471  0.5800641650338813  0.5837441075392584
  0.2483402446297151  0.9983477875017248  0.0814856711629626
  0.4129414037001699  0.9906697317030444  0.7499483469174250
  0.1683670166759149  0.5016297888306079  0.1670052342245865
  0.1686625474436022  0.6681228746927700  0.5004050708919466
  0.2482190113645944  0.4165399156845515  0.6671336652711086
  0.2487757490991285  0.5008019379271647  0.7496658150936771
  0.1685168845420466  0.5009390422017619  0.8328815828408718
  0.2498529569324216  0.5018848498321614  0.9156892393891722
  0.1664958293556988  0.9163016804583745  0.2486334332978892
  0.2502201348805612  0.7523687686458254  0.3334131346241159
  0.2484004767200501  0.9160759546597844  0.1649723027923321
  0.1674388177880368  0.8357031198991468  0.3343740997045171
  0.1681126451729205  0.5847148847305964  0.2527916995823062
  0.1675812804130732  0.5840503613104667  0.5829869849280357
  0.2496851742963926  0.5842235252213087  0.6670173822338433
  0.1675669023794079  0.5007999421613323  0.5004555449206172
  0.2495716960212969  0.5845710252388772  0.8322218749144032
  0.1650854261245462  0.9158520854443667  0.0818716928162406
  0.4945072078869110  0.3319896934479744  0.8360050108491940
  0.1673158770527738  0.9980267409147373  0.3320568014186860
  0.0016859225147687  0.8339536655778439  0.9999578673540573
  0.5784350550606652  0.5023635237568926  0.9181454360188422
  0.5787667252947183  0.5867579606158431  0.8356645817145080