 B Cr Ni 
 1.0000000000000000
    21.1200000000000010    0.0000000000000000    0.0000000000000000
     0.0000000000000000   21.1200000000000010    0.0000000000000000
     0.0000000000000000    0.0000000000000000   21.1200000000000010
 B   Cr  Ni 
  35 259 605
Direct
  0.9242107020835056  0.4252622132578749  0.5534201916715864
  0.8406255945430509  0.2654027625955444  0.8345543710343226
  0.9719047584555855  0.4874156467415816  0.5857089614642675
  0.6854523838289319  0.4171253784951955  0.3600289747373190
  0.9318194472324061  0.5211446181436625  0.6470142742791596
  0.7527781164760627  0.2655044673858460  0.7449180822000636
  0.9259274391537257  0.5431273495269748  0.4121911739155618
  0.6780690114851203  0.5569399528593780  0.4940509758377916
  0.5796871527928109  0.3239945184646679  0.3562265758698401
  0.6634439562124183  0.4068089955032589  0.8384479114041224
  0.7532805088563957  0.4541251748632259  0.6893659810689247
  0.5406127066787243  0.4864782447924246  0.4316327354387350
  0.7250860077690583  0.3058023115261765  0.4664956206907670
  0.7234595023048467  0.5553442963420351  0.4211278495496810
  0.7596849939540586  0.3201645111089952  0.9762403278954929
  0.5784284464929536  0.6523697734759889  0.4889698206313337
  0.9408497951109831  0.4614542386235700  0.4077093746473475
  0.7431028853233971  0.4285048986275499  0.5578584427537290
  0.8298707972995044  0.5592747220737407  0.5116297582474832
  0.8251977221215597  0.6677329602487971  0.4225957304801199
  0.5407643116208142  0.4938893185493602  0.5834412029500273
  0.8903813220750392  0.3328314055609317  0.8354364835765872
  0.8148389701592922  0.2644718624527554  0.0177884921659034
  0.5851389474445740  0.5252456961717038  0.3809501709948580
  0.7478699487391273  0.4111761350384974  0.7596121532422039
  0.7546441927592189  0.2490069880022792  0.4149934541504406
  0.6601983794495697  0.2638794095391324  0.8362474661143106
  0.6056858484784402  0.3349615933278265  0.8272356322102715
  0.5396171268945356  0.3362503264615579  0.4244073370293608
  0.0806703266464495  0.4903977460486333  0.3429798298325388
  0.9971007539101504  0.3403500576633473  0.4122182113350529
  0.5854668342846596  0.2521508724407844  0.5794449301526927
  0.5796158407027634  0.3353797478404374  0.4972316612100625
  0.8242631886861794  0.4891479850690625  0.2548407525378422
  0.7790008802513280  0.5210246823483524  0.3143058837224524
  0.9166150885291005  0.9149918603504530  0.6694684562629537
  0.7469522738085936  0.4981588073610310  0.0844422485245677
  0.9205897332187242  0.0760994759396658  0.4966497709591302
  0.6750930800147076  0.2078395966972085  0.5961170614343375
  0.4133969565859306  0.0818769589695826  0.1642762881568590
  0.6631502840892932  0.1509263556694160  0.6730138201214415
  0.5771778979495267  0.0799262886309607  0.9988850753714522
  0.4118321466184085  0.0805031083924121  0.8334164855865454
  0.9251751103753454  0.5070928972373560  0.7485996010253312
  0.8322546791372059  0.5867320702152395  0.2543249010085490
  0.0838019743083224  0.8343191035753611  0.5845275479019111
  0.8324862467612852  0.9132783593996386  0.4143909344096520
  0.7481312232309049  0.9991971366771351  0.5848853943125785
  0.0841956553560478  0.8336648600959017  0.9171055900288886
  0.2491962019076319  0.9992237992137475  0.0803456995035241
  0.4113347172827820  0.6660746805593263  0.9159761404665319
  0.2488926524519340  0.5857378895663387  0.5000500996282445
  0.4972080659510821  0.2481592502769833  0.9174936903346078
  0.3294198369994191  0.7507137640639301  0.7491897874384146
  0.3304397597043505  0.2459224819028186  0.2479312191586057
  0.4951162208606109  0.8338327824233226  0.9978133812776075
  0.0857966462661745  0.9159873059392829  0.3314928848635387
  0.1696596592414361  0.0795328598140444  0.0805862485446001
  0.1662333310288442  0.4156977193932406  0.4159215105718890
  0.0832819372169197  0.9179716693529615  0.4986684612321244
  0.9177834390386285  0.0021295246784382  0.9172423827927493
  0.7466931184523835  0.8343051369875469  0.0809466016027277
  0.7454987832386515  0.6737982104915824  0.0792485213096762
  0.0864327740742063  0.1627481243078315  0.7514204492422643
  0.6633102555445272  0.5052162447748602  0.0057035792459792
  0.4130880858876984  0.7509961014997025  0.3310540080076044
  0.6637426911640629  0.9167650287900330  0.5867143809279671
  0.8331667297367157  0.9962173070272949  0.4970626855687394
  0.8318215142561624  0.0837566917311890  0.9176558614051286
  0.7450411627092229  0.8354758799159275  0.4160302794178422
  0.7462148624376188  0.9984092064689809  0.0823627636614924
  0.7445999887082470  0.8337910102870438  0.2454264632103719
  0.5792754864960753  0.9164496014306147  0.3326855515100833
  0.5782371869574925  0.0789688541839520  0.1643846641334133
  0.9193759262995183  0.6752105930813126  0.7575015005294731
  0.7479867461866312  0.5879261895893649  0.0048642549255069
  0.5814634050795425  0.4256924562240826  0.3447919846944659
  0.4933512790585487  0.5015179515474026  0.9991119938587875
  0.5766293574699003  0.5560278485316528  0.5095609877356017
  0.4148524774451359  0.8333617516233764  0.5847644091949008
  0.5772883997994753  0.6746187304937016  0.2433387553590660
  0.3314199344041193  0.9159009599770230  0.0810090437843149
  0.7498074496096968  0.5907578659750776  0.8418233516702496
  0.5720452351380446  0.5105530166176786  0.7510200384060509
  0.4958145600970726  0.5847618734731549  0.7496598772915944
  0.6684487542880488  0.5102876032747558  0.3266777838736071
  0.6492134110667973  0.4747933434315881  0.4388289005477832
  0.5035899468737072  0.5847451703635025  0.4155725112463072
  0.4950666556547996  0.5034524535211385  0.3350014954133033
  0.4124182775741388  0.6682827864528255  0.2488706057462225
  0.4947989253097096  0.5008854452515653  0.1667593361600861
  0.5763629156361041  0.6705036483129840  0.0801218134237279
  0.6608130344837148  0.3326794432700454  0.0067806872741888
  0.4884540491705612  0.3338570850053743  0.6699379376176878
  0.6394387779287852  0.3590254495502101  0.4255040685457825
  0.4815272232290159  0.3315071824314788  0.5037191990590743
  0.1667599878596102  0.5833524490082708  0.2494285251147131
  0.6610580433193241  0.7560280116127505  0.2432739527226653
  0.4146054473314484  0.4172043867439220  0.9989114257763111
  0.2493917829465184  0.8336646982302554  0.4166576407189805
  0.1669945769002390  0.6683584952826148  0.0003184950862477
  0.0009689290766894  0.7532831871848744  0.9177643625035821
  0.2478161433867948  0.7497278509555462  0.6684944005908643
  0.1655229696490761  0.6680048744358233  0.8349907786738200
  0.3320088971555610  0.1637162337207170  0.1619254506976876
  0.4109346854732994  0.6671268483677769  0.0821478638511783
  0.5788787778633442  0.3318985332056900  0.0839584557680048
  0.4145287888910608  0.0809992648934890  0.4995028144028570
  0.3281016824705823  0.5849784928601883  0.7505189976048906
  0.4919599228608288  0.1607776878815600  0.6693116899130165
  0.3268108211487724  0.5858738965277632  0.5822326954291034
  0.4158552291991356  0.5851771072531742  0.3332957635200243
  0.3339443843460930  0.4156415715397161  0.0813312163386792
  0.2496287549229958  0.5004176919494316  0.0834175964331864
  0.2476949909227120  0.6664438905728904  0.7487304539704033
  0.4134887259751884  0.4165965361890965  0.8330114024224717
  0.4022537979555985  0.4134467561265831  0.5019046490627446
  0.3323891844170063  0.4143028546856791  0.2482184061759625
  0.4069222386496975  0.4163272380953051  0.6695229272726890
  0.3288891586557394  0.2428694032350225  0.4156303535295470
  0.4117909520817650  0.3328275600278635  0.2485668880242535
  0.3293552725390140  0.4153819846233643  0.4156535466221660
  0.4968691279791903  0.7511144976143611  0.7522823992827493
  0.4132025964077001  0.3336306980945332  0.0811729620958948
  0.2494595485978616  0.9999170033071054  0.9149214016445421
  0.5733205559084854  0.1600247538745578  0.7512414153161755
  0.3299383729045922  0.2473086997509663  0.7516004148439887
  0.4932816626399643  0.1600159515288146  0.3302114157380013
  0.3313295999210707  0.2487056555058014  0.9158099088789619
  0.2515299198013198  0.1622509697322816  0.4162932520249010
  0.2489987138850700  0.8330574545285176  0.2486805476939118
  0.9194372270299325  0.0792978703412145  0.8352625569696580
  0.4126636963504656  0.8347802232411857  0.4171574480776290
  0.9243097796136049  0.4200635875763692  0.6584218395768039
  0.8290284126080804  0.3066775649025429  0.4812730278776499
  0.9250532800463586  0.5017071943238225  0.2439953351719968
  0.7457062582869217  0.2430532899205303  0.1648151734025943
  0.0053535530057285  0.1573593593579463  0.1632892173821951
  0.9272194093474008  0.2429808130928520  0.6614717247739035
  0.9320046808293159  0.2416647754654823  0.8363413166814447
  0.7470637838212327  0.9163552090373646  0.6682237364119734
  0.0075073076457231  0.2362829256451997  0.4125745549613679
  0.9174807180117184  0.2470686417242755  0.0021855712917050
  0.0029784434477783  0.2425298305292106  0.5819492572255492
  0.9193446705338505  0.0765134318324963  0.3294618796624952
  0.7617989526340604  0.4175237703147161  0.2952942282748515
  0.9228929325790058  0.0751479276370280  0.6667278015738598
  0.9174311061311557  0.8360163925487228  0.9190324219755774
  0.4897847917246282  0.1576714595627923  0.4987585714317244
  0.3294218523537727  0.5827227919288398  0.9161265053310154
  0.2501219037020816  0.8313703504160203  0.0824497830048916
  0.4133947558514872  0.0812113600963162  0.6677166530535237
  0.4976499125522232  0.9165707551638536  0.5845932207225389
  0.3311745228850158  0.9160226404201430  0.4164360114853309
  0.4143236681507316  0.0800310151421751  0.3324797099998830
  0.2519257372391402  0.9968764418500675  0.2479701464792574
  0.4932390188615023  0.1648078586797116  0.1655044863694042
  0.2493941485159184  0.8335812430848304  0.9158853307455904
  0.4160810998716650  0.9130887810001200  0.6659263985397635
  0.1666321714458529  0.6699150859649154  0.6673810778779997
  0.0028234743920050  0.9976976169418006  0.6680362137901423
  0.9189086793023046  0.0730000690248521  0.1638983679731404
  0.8333416540776508  0.2331844056164390  0.9272831382832235
  0.8327930945068693  0.8356776492602545  0.1647660287597000
  0.0039124567307337  0.2476826968608847  0.9204204566114923
  0.0884517746993169  0.1606937024708528  0.2455418599962141
  0.4947690017171473  0.9988612865442501  0.9972131774462257
  0.4957596784119572  0.9971283683514015  0.3320318725314740
  0.3303171152424420  0.7499108867097729  0.0820994954622508
  0.6624026594098569  0.0788301423861072  0.4127716609102127
  0.5788776626918091  0.9169314574869235  0.5004568350279607
  0.2494546185100491  0.9149461604034339  0.4997353625702370
  0.7478585678463990  0.7535747320476198  0.1622546608697812
  0.7475227124164573  0.6724047500967344  0.2409368985568682
  0.6572597360951631  0.5008534083348115  0.1570344650464630
  0.5772212486090380  0.5856636153046524  0.8352576461987250
  0.8449386943587817  0.4315304147903112  0.7422475579363477
  0.6679819230271437  0.5201969554864428  0.6758779970238750
  0.4897069454943311  0.5857216730871392  0.5809889221924057
  0.7469144391421277  0.0768477960753697  0.1647913209273801
  0.7485825552079147  0.0814324896881788  0.8326958354809921
  0.6550795426696903  0.1534198872854561  0.0016740365190220
  0.7491090584893985  0.5143143037956897  0.7630532626613999
  0.9950182669101240  0.5863384000513829  0.5877644416607517
  0.9177550725449597  0.8345554703718845  0.4139497776831924
  0.0006591304190437  0.7530232759704695  0.2501668248654454
  0.9155423126884443  0.7520219241145075  0.3313226471671637
  0.9235688794824317  0.5062018182657269  0.9200134117168312
  0.8351506925959978  0.6696707448883159  0.0038759000032949
  0.7498931761717713  0.5102615174981839  0.9258809331480645
  0.8321348200825130  0.7644952723730261  0.4155260427480756
  0.8247762264512638  0.5748898217410201  0.3999811776823433
  0.9183270534944222  0.6010946690060111  0.3288419120520101
  0.8684382113823692  0.4911428793035026  0.3416523995272221
  0.7463186455576412  0.8350252497539513  0.7538768111347038
  0.4970080780846106  0.9966081690909229  0.5004461003738558
  0.7480702331318355  0.5927558474254588  0.1540192309921029
  0.5749404303194957  0.3327874403255080  0.2520356642928804
  0.4938062981227888  0.8349006549802614  0.1636503365254534
  0.9155868496108348  0.6704407897201611  0.2457218260917100
  0.2515943590313426  0.9956641101862699  0.4181636665089665
  0.7462873305324877  0.9975969984364561  0.2468772202792532
  0.1691072017066896  0.3284386120706818  0.4979347794289146
  0.6431374233299151  0.4945769714774250  0.5668348414988895
  0.4146446702921066  0.0811467869138639  0.9976233799429037
  0.1688180947094135  0.7533288230488487  0.4184008798298596
  0.6635699435683208  0.7541363700409310  0.5869262973429373
  0.7459686875635267  0.8365165028848726  0.5853488349051864
  0.1657479591284682  0.3323115259617382  0.8342310821863553
  0.2506009542264407  0.2484102887097407  0.9967757339222968
  0.0018755750160526  0.7535786392122179  0.0835267191745001
  0.9256783386606998  0.4242937313320847  0.0036695199209940
  0.0212892575082116  0.4997041500470704  0.6710515766018144
  0.3306223593344738  0.4168535527978926  0.9159995143397918
  0.7478564052525659  0.6753769584815440  0.7598865546101302
  0.5781745956335280  0.8320606388734593  0.7526062495982454
  0.6636354498576423  0.9167463344689085  0.4159169902459011
  0.6736536179313209  0.5951417819176934  0.5882211535559536
  0.8352537186571418  0.6708574993396716  0.1629173216101142
  0.6625123741948096  0.7586131516507777  0.4134125117071382
  0.7480488623658464  0.7548890985065447  0.0018135172452483
  0.3263178790254990  0.4151482736011430  0.5844714792281809
  0.1688459718865845  0.7530489431823092  0.0822095257727363
  0.0049487551895993  0.6718816780891865  0.3325237566618199
  0.2465528955270048  0.6661298526374969  0.2504807740067346
  0.4129865898965397  0.8333403371605191  0.9147676644050967
  0.5761976187078026  0.7524346979654417  0.9994386794452971
  0.3307293629728211  0.9165155492001578  0.2494628692459668
  0.8372946790315612  0.5188447698392145  0.6822646959959259
  0.6627035531654375  0.9167907890504325  0.9170310925488665
  0.0014898417379373  0.7536504805292616  0.4152743049652370
  0.8391844826151228  0.3305488038290638  0.1643917832660235
  0.3283341714256828  0.2446312889198110  0.5853242852120498
  0.2476704841126373  0.0808949334458473  0.6679885173238852
  0.1613730689770409  0.5010088577740645  0.6643527242158229
  0.0014797190662732  0.7564344835471438  0.5858373082037794
  0.1664408970979417  0.1639776127263488  0.8335932879281452
  0.1685200420534867  0.3295121490490522  0.6676325482899795
  0.2494969239287254  0.4999263279037632  0.9172231166993600
  0.0855368674681344  0.8357194715530413  0.7515257504675097
  0.9189350052452532  0.8359452033420697  0.0833752871023524
  0.0867623059763254  0.1601679106320247  0.4144281327179535
  0.0047344325536897  0.5848900539820835  0.0848393684053189
  0.2458986518489939  0.5004393349528520  0.7500535110190933
  0.9990149317509647  0.3324269522705497  0.8345846262738188
  0.7487399998442749  0.7539991395181713  0.8361349501588667
  0.2486788149194920  0.4139931875881923  0.4992546602810907
  0.5777715890445398  0.7511571606338932  0.8328578924501455
  0.5784251825328509  0.9975419892698260  0.7518948083933966
  0.6634986014958386  0.3292751287131137  0.3094665445056489
  0.6612552403965707  0.4205205505199659  0.2520974837587305
  0.6646620039883125  0.4135534067147548  0.0845067716575827
  0.8386088932470276  0.1599521302686621  0.8353485406718574
  0.7581282819856019  0.3240524598923311  0.5718175518953745
  0.8421472016159867  0.1522300022972669  0.4968139258536149
  0.9213587989619632  0.6712485673136515  0.9200813590288089
  0.6648028350874629  0.0818412670922430  0.5829926313303408
  0.7569839310389290  0.3216041113790369  0.2393992270305841
  0.0027520857533258  0.9957846393617092  0.4986975514625953
  0.7486212212708514  0.1549547639552304  0.2441392247482796
  0.2524661381468385  0.1636705654801869  0.2472863599407039
  0.0006341505714422  0.3273610519240450  0.6636676189107754
  0.7534662838931987  0.3267176626614632  0.0832980410212505
  0.2487661545144186  0.9159547432389636  0.6676497074537916
  0.0859710531544350  0.4170579984732152  0.9996265932171642
  0.8314154289717758  0.1611897050389937  0.0048902831598567
  0.7487884204347697  0.9979392654478300  0.7517311388383833
  0.0825575046047650  0.5883926045464968  0.6666974534856209
  0.3301911857017246  0.5833235044738089  0.0838050872559633
  0.2476306319416852  0.7523952613060684  0.5000561384553506
  0.9177489459338544  0.8369662633953752  0.7514766006166491
  0.0856004540029452  0.2476368867938689  0.9988765854366249
  0.0854754743999530  0.9161951185249534  0.1653955230123406
  0.2478527770824127  0.5835112642936168  0.1667945460592871
  0.0810099323739573  0.4985014966260913  0.5764125561807464
  0.0040020139192974  0.9972784064713319  0.1658245603078767
  0.9861764900498099  0.5100630191376530  0.3324573521767676
  0.8363289235802035  0.5860383996279578  0.0846588242118569
  0.8328662948695407  0.9179001591294219  0.9173173059039863
  0.0861791249238547  0.5857323847786875  0.1659658483326614
  0.9188581680516963  0.8357854214884426  0.5846846311752804
  0.0013330589292421  0.9984538829876791  0.8352095839667868
  0.9184621047428200  0.9999003377224173  0.0823278896393186
  0.2521360969209827  0.2474319298400547  0.1636053262859157
  0.4129510548726004  0.9145747727576496  0.8335341192601713
  0.0053197124243340  0.0787988208359938  0.0812666003739494
  0.2468453200594246  0.5852934129631975  0.3299147190768051
  0.0887095924380131  0.2429849877042839  0.1638081608115530
  0.1688591196994174  0.4133793867424136  0.2458220289108027
  0.0862252657279084  0.1609652962539102  0.5836023087554488
  0.0861647141387942  0.5868996839699252  0.8351152147258090
  0.0774894375870279  0.5879230413084382  0.5093966930889520
  0.0849549059505443  0.9149048149887701  0.9983038187880185
  0.0052769987210058  0.3285534212611329  0.1638358930969111
  0.6619232548117119  0.5878060949889978  0.9200923922664270
  0.0032118582783293  0.5929042706138229  0.4177692644467482
  0.0848996009170674  0.7530216440199350  0.3332372470896098
  0.6610004965532916  0.6726294092584774  0.1610206118902597
  0.8324096216950729  0.9170315352144739  0.5849692514316250
  0.8388583525582645  0.5081316551107289  0.8358401404527702
  0.7476230534355799  0.8353390871654282  0.9179850839779471
  0.8322770235980314  0.9164825270143770  0.0821810772524011
  0.6607144618172182  0.7541365788391224  0.0806984500356548
  0.6626383775992833  0.9174392581424101  0.0805247187618399
  0.7479660943590204  0.7554854433421099  0.5007367697785527
  0.8352628821397435  0.6739582987457977  0.8404326708564003
  0.6624884014325967  0.8351089960149112  0.9986696418521526
  0.6617336274653187  0.8362711128936142  0.1619067170559623
  0.0845021732444184  0.7519680052656745  0.1655538817854396
  0.1677789855445797  0.8334566292797352  0.9991482085348337
  0.7549734698704473  0.6109364245737859  0.4992243288790906
  0.7602962947097127  0.2383344678721684  0.6577493320177488
  0.8403995592265469  0.2257309150533396  0.4049367433948671
  0.7011413075975492  0.3317254166103996  0.8989492030366295
  0.0850195520164150  0.6691973871291574  0.0834238941531891
  0.7509347572079486  0.2374477102304052  0.3209193042763534
  0.0844276105897745  0.7535696247043521  0.6691870938419960
  0.0859753411811657  0.6696053571229581  0.7517449116434505
  0.5768924730735324  0.1595960366095368  0.2456066227469415
  0.0007870383767495  0.8356104894052960  0.8347846707566230
  0.1664899851523823  0.5839560818085491  0.9177592949188244
  0.0026803861618567  0.6734713324686179  0.6695472809820900
  0.0845205039442894  0.6695230092936347  0.9186971662207521
  0.7507413586138335  0.0762369784091193  0.6709505269524405
  0.6640572414187098  0.1584386692635456  0.3288459141723663
  0.6607714297091749  0.2400555374928260  0.7404882391740620
  0.7490115413241160  0.1547038721644274  0.4114621580321941
  0.0832529936290361  0.7532054894986824  0.5002811955705054
  0.0842395369397330  0.7525857900391639  0.8345620574276359
  0.0032138447879460  0.5880724616896005  0.2471384243833833
  0.0071514858969935  0.2390356014133709  0.2447564329660894
  0.7541125692276255  0.4270280491414166  0.8494393039984907
  0.6592480888520486  0.5883884983760762  0.0818768602777281
  0.4942837227739258  0.5849133928421754  0.0827139372653978
  0.9175403922621571  0.0798218906233155  0.0009291940172412
  0.4942785891987382  0.5859661867523113  0.9173756878321341
  0.7376311387851066  0.5116305614570086  0.2294373368691132
  0.6599462949245557  0.5920171960864337  0.2409876414715040
  0.0855335634814197  0.6700901466964658  0.4186420373609911
  0.9171021597063790  0.6730519379471560  0.4179148597462816
  0.5779105395207136  0.5935043349443192  0.3210982743026729
  0.8362308874169000  0.5014544257066835  0.1633486547990004
  0.7358376028974267  0.6001335754352365  0.3300735193508499
  0.0031858183910412  0.4184710975294389  0.9179489048403893
  0.6943841925864246  0.3351105280829716  0.7864547490619431
  0.6649690029295255  0.6761310987067979  0.5017763418816832
  0.0027254320179801  0.6708258246065857  0.8353989561498785
  0.8329498763378276  0.8364172195901802  0.8363619383937171
  0.0868818928862447  0.4096659286133345  0.6668214948180660
  0.0025141547169306  0.4159574551852180  0.7496617301915346
  0.9240787565520741  0.1594627314977968  0.7499592139641625
  0.0113392521344582  0.4035249677984030  0.5783148957967233
  0.8361148646054901  0.0797490297181472  0.7514346564340225
  0.0897095611413323  0.4115007035735417  0.4984422455266787
  0.0860026496447880  0.0795767920060298  0.6674043895728093
  0.0032442145727154  0.1634557924621753  0.0012633622476027
  0.8317879384569796  0.8359169824222212  0.6709986544324503
  0.6607255903970753  0.1636115062038686  0.8311192247071240
  0.9181932731721845  0.7562238996852507  0.6714442011944403
  0.0047807312252483  0.1585324699862984  0.4982082365340412
  0.7477210046434264  0.9169813857827859  0.8344422558823303
  0.8322089594601498  0.9986140475483392  0.9993991450627897
  0.9173323126367771  0.9173881778315361  0.9998158715131201
  0.0862117677592890  0.0794942709837367  0.8343103220572637
  0.0036085120118382  0.0801240608044070  0.9184123104812011
  0.0062610587039585  0.1577635413863620  0.3286414825935628
  0.6615454342608934  0.1594508663626091  0.1644518835726113
  0.7444304326326532  0.1595378014225186  0.9172876412389589
  0.6618921394181709  0.7521374171930982  0.7537324798204728
  0.7480949017171644  0.0759448116369936  0.3292531449038647
  0.6629831465869441  0.9996311755291283  0.6686017104668946
  0.6593501420374818  0.1598392684468011  0.4937242416023471
  0.7524149524777585  0.1626807249929460  0.7493200818065560
  0.7488876798273049  0.0787529921052109  0.4972350338176826
  0.6639581582375870  0.9969457669912164  0.8340073968131506
  0.6632638742646862  0.0776733005096864  0.7538358202129568
  0.7510810103028067  0.5992762791375954  0.6783743583840098
  0.8343443895015701  0.9963837955853148  0.6688725296463591
  0.6625313458575300  0.9967966601640547  0.3310927811198341
  0.0846999339445550  0.8341775944757891  0.0826146122381128
  0.6625403596682624  0.8362689354362266  0.3302082561151911
  0.7502417187108991  0.2414291138495242  0.8368304934760742
  0.6641780844984225  0.9982331121013821  0.4996282961694377
  0.6529286826995264  0.2359666334609130  0.9228602529304246
  0.8401763552921185  0.0722994979774566  0.5830363832184093
  0.5733153150408805  0.1587483277469146  0.5820571731133548
  0.8314725723648995  0.9159749553559299  0.2465244417281933
  0.7464807393192228  0.7564837819210897  0.6733480798694788
  0.9221490937362899  0.1572235874039476  0.5815751652808245
  0.5772878379469077  0.9160881657592885  0.1635739635157606
  0.9220697399331026  0.2380233723903815  0.4955502511464796
  0.8333661205561231  0.0732576398598592  0.2461043648681800
  0.9143862760242937  0.6048615886475679  0.6744122895219721
  0.8350437990389546  0.5954910394598608  0.7603950255903498
  0.7511257476260822  0.4163447968781519  0.9980073182851810
  0.2500963023703495  0.4169452353869491  0.9993258988793925
  0.8338125532705100  0.1535340486537184  0.1660133336240717
  0.6625690530104293  0.2399981191885711  0.2440397860801101
  0.7476312196344309  0.3358157111932091  0.3782711585588439
  0.6614154619552711  0.8338282082503423  0.6703403727345443
  0.9225095624143748  0.2336193776693203  0.3225057954913196
  0.8343111538154496  0.7537905462008098  0.9201788917288829
  0.7629449283638349  0.1482223106816519  0.5856120550122773
  0.6623592807599050  0.6714860134053513  0.8385182616444995
  0.6617332276181891  0.6709242604758118  0.9993943012970652
  0.5832986493786969  0.3376764161560751  0.7345335153987456
  0.8335460016354983  0.8359638869866839  0.0005197673458181
  0.8376934112600964  0.2375508336906538  0.2400591156458734
  0.6616830502348061  0.2450110082132200  0.4085000679382175
  0.1689379872911051  0.5866979547566287  0.4176088668369936
  0.7528542975789821  0.2233198631207172  0.5054570287221989
  0.8408207032253834  0.3948981822114465  0.4026520710621108
  0.6590182505739910  0.3076512319350082  0.6415863954799355
  0.6571299583052014  0.2835492476259500  0.5219739306442489
  0.8316430662819371  0.9952636541999843  0.1639887860054950
  0.6891036046061007  0.4158606703095421  0.6348054917256458
  0.8354077228987384  0.5054225607507129  0.0053282153771972
  0.8084852277041877  0.3372842666249243  0.7839551543671349
  0.0826159814526226  0.6711386069887253  0.5842442504034877
  0.9181309499141875  0.7544175267684022  0.1650810093955371
  0.7512407216327772  0.4132677865991257  0.1689113161780721
  0.3294257325510660  0.6698461945066824  0.4989691813018906
  0.7432926550899315  0.3953877957804360  0.4688446302538894
  0.6634549030444129  0.3319593378588527  0.1690335952933870
  0.8459055718074440  0.3474550877212159  0.0013512618556636
  0.0023822631119749  0.6699619308537923  0.0018243843946907
  0.1657577717286882  0.2477193619088559  0.7516330620343010
  0.0015128837289695  0.9170080554231884  0.0824128914099438
  0.8302097443684755  0.8359724465493996  0.3279344751327694
  0.9196936979795287  0.8324260922685299  0.2497716978591219
  0.0026658724052652  0.8344864000396814  0.3324232415746280
  0.9176039103882989  0.3295746147794804  0.5704957304212972
  0.9179343298411509  0.7554464907179291  0.8372410778558986
  0.7478787566374721  0.9969912376817749  0.4151758146194885
  0.0042660275923002  0.1596655278669394  0.6662126807374594
  0.0019489859206781  0.9154016914340917  0.2487135051762298
  0.0033515044008399  0.2456987551721687  0.7487898346462447
  0.8336621896895753  0.7564804927110218  0.7560636711702271
  0.9181736976172566  0.9982134750270152  0.7518373234760826
  0.0017541813419503  0.8363760547252233  0.4996057986691836
  0.0043863583436777  0.0762630928754041  0.4134059841422617
  0.5769312100256223  0.4176408235734663  0.0026644480249157
  0.9167058924429987  0.9141151375203106  0.3306042592224410
  0.8324774687428015  0.7544495072251514  0.2463280778841303
  0.9243838028746102  0.1552987789409773  0.4117295793074282
  0.8323916469008109  0.9951306316159928  0.3308773957533829
  0.9178325057148554  0.9166004810675525  0.1646651154187418
  0.7466188939140581  0.9164925471308408  0.5011463859524395
  0.8328190090717437  0.9989445514473957  0.8341963012695437
  0.4137645094758980  0.9980073401210627  0.2475826254758640
  0.4950844889604663  0.9984525547282131  0.1644040752729797
  0.1674895089341190  0.9155528820371556  0.9160368933516314
  0.3306977238485039  0.7502607352952079  0.9156759441684482
  0.4953495741330039  0.6671700457562104  0.6662252459271073
  0.2493306866631359  0.9154445979203661  0.9981069552534430
  0.4127907114830773  0.9977311201805302  0.7497282449651268
  0.1667879380645975  0.4990545990601228  0.1668067000671657
  0.1659479518998952  0.6686538770809373  0.5014480997732449
  0.2461899280024057  0.4159047149089270  0.6679760529479729
  0.1649454605999835  0.4149542085985689  0.7506198015077784
  0.1674671352489718  0.5004670267653301  0.8355235604604684
  0.1661636216229080  0.4163442292954573  0.9167817276986329
  0.1692307050774684  0.9157852737856425  0.2486760395834916
  0.2486181687097489  0.7511226467308763  0.3327143275030642
  0.2504098332849812  0.9152008607474050  0.1649585572372876
  0.1673682342986267  0.8341708836864428  0.3325870889679536
  0.1668811949747057  0.6687492535095414  0.1651501410501997
  0.1649930885204929  0.5853498416110196  0.5830821699666746
  0.2458652514771480  0.5841495323748193  0.6662413426707077
  0.1709820678311015  0.5003925855253042  0.5018134176884825
  0.2474199701267301  0.5839967883556021  0.8335128778580649
  0.1672572829989144  0.8340007831709012  0.6672331076803072
  0.3313610064719423  0.9971988489153450  0.6672880469133492
  0.4119831762392461  0.1632177984113485  0.5847473732245728
  0.2510168694916551  0.4159121116524547  0.1647554596785273
  0.4121369098387268  0.1642117164081991  0.7509817632386205
  0.4144779037333697  0.2494983366424723  0.8338442033408244
  0.4137852741653241  0.1653212548628220  0.9159989053603170
  0.1687667430602985  0.9151975553097684  0.0818794857942632
  0.2492302052132739  0.9153741609767198  0.8341227928655082
  0.0021478464046614  0.7542135913718879  0.7530262493182280
  0.9994162882525696  0.6733767318821282  0.5019579681058760
  0.4776690492561246  0.5016460677698261  0.5017082521210373
  0.1684977810759907  0.9971817004490560  0.9983752925315879
  0.1693879273231213  0.9968947322024981  0.1646514294063396
  0.3312489004369251  0.9984954439432722  0.9979142714121971
  0.5667036980211957  0.3422382871733448  0.5900407766285420