 B Cr Ni 
 1.0000000000000000
    21.1200000000000010    0.0000000000000000    0.0000000000000000
     0.0000000000000000   21.1200000000000010    0.0000000000000000
     0.0000000000000000    0.0000000000000000   21.1200000000000010
 B   Cr  Ni 
  35 259 605
Direct
  0.9208534952235683  0.4286276504930447  0.5549461100238755
  0.8347374817122095  0.2634281746455604  0.8399940295198991
  0.6761255644886300  0.5641655023114167  0.4913271783452866
  0.7441618886577482  0.4304279396213390  0.5528659850353312
  0.7510786908194139  0.3265627436692772  0.9757874963754675
  0.8326989927683911  0.5692102692806599  0.5106698095977530
  0.5761808618503466  0.3641788285730458  0.6759901737274832
  0.9191975015996586  0.3381763923926763  0.1748001089166143
  0.9277965186227881  0.5476907751758445  0.4099602634418790
  0.5843728054975104  0.3239314841994284  0.3495983144220981
  0.9703850055182108  0.4869300301462572  0.5901758463680998
  0.6903614080350130  0.4200390817926721  0.3619179278459569
  0.5425727055771959  0.3437202620496224  0.4191344473271474
  0.7480534675622733  0.2694536733137976  0.7475313177454779
  0.7337260023024729  0.3157908611346361  0.4780950318656044
  0.7309949201750020  0.5677091387159433  0.4247230482277929
  0.9410989677264202  0.4647545257312351  0.4079338460251766
  0.5435598395448474  0.4883638318221216  0.4260827277624573
  0.7443621021643200  0.4136225069757081  0.7631331421196265
  0.4953389561840105  0.3369624902173321  0.9185079005939136
  0.5901327493814746  0.5418877802334038  0.6026941715014631
  0.5421504311024493  0.4913807423549688  0.5653216560125447
  0.5863448842579841  0.3241173024782191  0.4900058793183406
  0.7812928752802794  0.5201739777932707  0.3067553051832122
  0.6159409602239779  0.3293951465450485  0.8391468652590635
  0.5827100299012526  0.2661052181111156  0.4186840503036603
  0.7426080068498623  0.2506747269074834  0.4202323499316209
  0.8283678739678825  0.4856150074421099  0.2516779113753738
  0.0722963410776843  0.4895025476166481  0.4857320923132490
  0.8861203892116323  0.3318074595447091  0.8393915535653728
  0.4093083063384070  0.5810670478650539  0.2467795829330445
  0.5854336333025015  0.5275458884203441  0.3733431451663479
  0.9957971333823397  0.3409555068564835  0.4173162147364345
  0.7493797426201658  0.4515386463419917  0.6897954104991133
  0.9285244520822317  0.5218687123436575  0.6490931086479635
  0.4953107176533182  0.5871069484868295  0.7509997880938516
  0.7477646024615576  0.6719870940176704  0.9242739290533654
  0.4126057535100756  0.7532231717034444  0.3336988291824036
  0.6608479050987359  0.2360047410786806  0.5863322257256514
  0.4143582128400589  0.0809780649057413  0.1648175960694985
  0.5791420327926928  0.6765722286522973  0.2411330201539265
  0.5807944647914882  0.0794659328468096  0.0001681270605702
  0.4118848604459935  0.0804078163961959  0.8342481299812439
  0.4123253909906769  0.8355207620380571  0.2491604364647956
  0.5771663989145522  0.5084211212898897  0.7501984449524370
  0.6707505118425234  0.5096643023127360  0.3198753664763682
  0.6487795746849628  0.4815720472897733  0.4338568602320585
  0.4146457316104060  0.7504832641756303  0.5005322197156519
  0.5771020896297491  0.5677954904842474  0.4998792133656142
  0.3292414633294722  0.2454901217618626  0.2475860532850278
  0.4948726051573252  0.8348454921443728  0.9990772485028444
  0.2484084544595744  0.9985381368211860  0.0812688525298280
  0.4114761330965618  0.6671070743886527  0.9153305719053743
  0.2462650943795006  0.5828604014816346  0.4994856673672815
  0.4969826556019470  0.2400240744737478  0.9177406441786659
  0.4121748248504082  0.7491542573038968  0.6656862677515201
  0.9216212231512076  0.5043719576705583  0.9198484809305877
  0.8357126036042133  0.6709038400373053  0.0027672167360365
  0.7475684470577759  0.5103573820777523  0.9250190443807463
  0.8332227804809575  0.7521541293492634  0.4156612756075394
  0.8308625418312173  0.5908958052811726  0.4080447407735666
  0.9208082753760259  0.5997723736699330  0.3253698720695848
  0.8713953962025215  0.4969984051236421  0.3398682622008949
  0.4931303106647738  0.5026012805620442  0.9996292421369489
  0.7463930392040800  0.8363225777911379  0.7548076921614614
  0.8267678665075789  0.3235211658179926  0.1510751017877054
  0.7501933654495613  0.5928009787799017  0.1504881963444167
  0.6622196453454224  0.9182977567851642  0.9169560877690697
  0.5769377325896030  0.7546399640278136  0.8351567818748469
  0.5787601999709792  0.9978891725654792  0.7516357560561062
  0.6720291164773491  0.3382316893239717  0.3011712691179976
  0.6616279710429008  0.4246381026590694  0.2482853000868427
  0.6614662311409858  0.4165284448039716  0.0875488455693927
  0.8337013617014442  0.0809957807377928  0.7527608207869216
  0.7665605642260362  0.3253405930891159  0.5770649354803576
  0.8370885261959998  0.1511489195994088  0.4970312134355165
  0.9192065225100455  0.6714311993782855  0.9194673106792232
  0.6627481831108685  0.0788999026632298  0.5867136375945459
  0.7582550733221022  0.3228488077315452  0.2421061292650264
  0.0029672775660782  0.9943694286394725  0.4995925274121000
  0.7494958596295170  0.1550385796798527  0.2450525510625341
  0.8330085233896961  0.1554971234158142  0.0040844850443801
  0.7490897352999333  0.9962270555416695  0.7497148809800741
  0.0821142375882681  0.5881326309112802  0.6696555586928392
  0.9192659445486872  0.6705116394860234  0.4130676258378118
  0.3295835045182119  0.4170380879269198  0.9156393370622314
  0.0168668795693294  0.5000153114516759  0.6766900936869722
  0.1677962864759439  0.7546304922701983  0.4190700025105844
  0.1717747898477314  0.3261993621024687  0.5012366827460460
  0.1652970857092210  0.3308101933588470  0.8343553349294976
  0.8334147326092409  0.9151339729707513  0.2493813042212958
  0.2488570160715323  0.3316443782850128  0.0805004113666211
  0.2495066450471648  0.9969066978240106  0.4180911212833979
  0.0012120177843700  0.7545418276710470  0.0818896055704442
  0.9203224511869197  0.4206231426167343  0.0044074823356133
  0.9175565692501210  0.6720754803405257  0.2446437492627187
  0.0025342672362610  0.2467757503434777  0.9205177413687498
  0.0840633814404705  0.9166384653224882  0.3327385810850241
  0.1679360648921756  0.0802259726418438  0.0816167235875129
  0.6638284383345180  0.9131816149046591  0.2506819068289040
  0.5794037840855911  0.0772646146071130  0.1657130181188460
  0.9205175475955961  0.6772536569106162  0.7579210204896223
  0.7470656226659890  0.5869662564348214  0.0057453484356406
  0.1649816516018306  0.6672869169386442  0.8359864211335979
  0.4140456544668252  0.1632888872018923  0.0809310853011569
  0.4107476344342851  0.6696819239029179  0.0794420733534661
  0.5814145021437289  0.3309466851364885  0.0864465394583664
  0.4119243329584180  0.0797028068051561  0.5004997962356724
  0.3289086536665990  0.5829157925866378  0.7487979696834712
  0.4108597079959684  0.5847797817247055  0.3404471557340569
  0.3160004574973830  0.5861696815151626  0.2499046053723085
  0.2487327823268672  0.4997073741250992  0.0818285554544357
  0.3297569035647633  0.7502143719456866  0.7491391807749098
  0.4139910503419169  0.4172820104156350  0.8308857331032534
  0.4083010171506766  0.2450999145318388  0.6711432729575755
  0.3270882792546692  0.5832593980176621  0.5819505603353521
  0.4055737126817950  0.4109752679546610  0.5021057493685241
  0.3292537997224627  0.4113429108654735  0.2471628323708076
  0.4110547129677132  0.4165036467369004  0.6695270115973715
  0.3302014381630881  0.2452562061229015  0.4169577682180849
  0.4105965593612939  0.3321822586868942  0.2484460135194672
  0.4068072641053990  0.3275157544539354  0.4163037067153348
  0.4959502979083711  0.8335047941142113  0.8334441324223841
  0.4130053601488364  0.3304648830359138  0.0828869578994796
  0.2493287432905424  0.9984773758563672  0.9154018051731817
  0.5754062203148214  0.1615461248076680  0.7507566944659680
  0.3310846171988897  0.2475507953070032  0.7508012389972998
  0.4901522184768653  0.1577667300376025  0.3311467543937013
  0.3294711884835985  0.2468519309146817  0.9158801982611912
  0.1680890473168158  0.0786963959538963  0.4165855642698183
  0.5820168273315648  0.4265688139765826  0.3422093197222730
  0.9168174843371621  0.0785645229304489  0.8354891593021340
  0.4939148771978244  0.8335620945011077  0.3318789379385026
  0.9236731707292207  0.4203346591114412  0.6599830326465049
  0.8336733324450661  0.3122384753555331  0.4847330799857500
  0.9276895154898138  0.5016925020227646  0.2448334894695164
  0.7435811139235000  0.3321330153862371  0.0806605875702777
  0.0051420113988702  0.1599993028101052  0.1646359588116419
  0.9237340059250146  0.2379686697746011  0.6658879272083088
  0.9280688348526565  0.2418327033968501  0.8390010364328697
  0.7474472584301792  0.9143024401267199  0.6673864051596873
  0.0063100981698809  0.2362798695373227  0.4147594103012222
  0.9209795976735010  0.2446678914675985  0.0034358418431320
  0.9121309802404042  0.3280761755326769  0.5719991067804513
  0.9204702303627864  0.1552596710934454  0.2431373761217230
  0.7673026535587918  0.4182808079615008  0.2974902408860763
  0.9192456954510639  0.0778894785760609  0.6663038516991284
  0.9173523763772961  0.8389214425805842  0.9187733178696063
  0.4876447758744620  0.1559224532580124  0.5023497156947259
  0.1637809546566175  0.4144559624198708  0.4150290502036382
  0.0822967781009124  0.9173210439074019  0.4997890510799011
  0.9179081409700960  0.9996752826618660  0.9160528056407674
  0.6630421092329183  0.9162964693786759  0.0824919255554843
  0.7465088347512435  0.6748977328605679  0.0768802714162129
  0.6601691173618471  0.5043843152210429  0.0034592213792550
  0.6632727759590560  0.9155615358719322  0.5861478613913210
  0.8322386870585302  0.9962340483777340  0.4982488367617134
  0.8328541289404393  0.0789150139291731  0.9165374441420872
  0.6632732465087230  0.8339050848600730  0.3332789314954295
  0.7473101642346043  0.9974648486515441  0.0839372008384777
  0.7476392931246678  0.8371766950842467  0.2496176854851969
  0.9180881911397115  0.0752286117662801  0.1653559280405172
  0.8344429095286409  0.2391523855876029  0.0793888001417368
  0.4982696202363594  0.5821475695931804  0.4119770096735730
  0.9166610223053373  0.7505373381276801  0.3315054323958816
  0.0869344236625195  0.1608627986480796  0.2477943842396967
  0.4143065682590037  0.4162493418621073  0.9988385523626467
  0.3298242128900485  0.5826096341797270  0.9153263198080441
  0.3308032699556994  0.9170759476639250  0.0816076203165624
  0.4117879266872264  0.0798034994898210  0.6688919724978389
  0.4961046021599159  0.9159006649804702  0.5845469829740867
  0.3299084534586098  0.9962793115738895  0.5020079764804819
  0.4128776957583443  0.0795473189708173  0.3333457832267313
  0.2508336516321225  0.9969496667359030  0.2489129761812806
  0.4935137195234913  0.1627269915234588  0.1652611002085670
  0.2483588608325797  0.8340617587038206  0.9143457239177075
  0.4142141592048980  0.9152596302766648  0.6675245719405136
  0.1658741639021720  0.6677348186087219  0.6663454609059600
  0.0002182244640703  0.9970692373199926  0.6687815610220230
  0.1667525344239760  0.6674032011044504  0.9984326758303219
  0.0855062213240605  0.6688407206349068  0.9185298589270083
  0.2453010082667682  0.7482543927965523  0.6675310378059391
  0.2477934144687020  0.8333090023937484  0.2494602530237988
  0.0832816018058999  0.1628506373164843  0.7518302457322533
  0.1669669018302433  0.8342221994534145  0.8340333812551926
  0.7475003245126520  0.9965470174418029  0.5847705341147104
  0.6640702687283641  0.1601902008266536  0.6664991360696036
  0.8336410518174850  0.0780299212472320  0.4158304804245366
  0.9213651906467178  0.5072217460767721  0.7502033990321645
  0.7466693021303193  0.4981941057367997  0.0853851896184986
  0.8340383615974772  0.5859872913099711  0.2500307340310530
  0.9161916444862571  0.9150441735364860  0.6677994598004073
  0.0823340066821956  0.8335877786390726  0.5854129319133048
  0.8338879088668188  0.9148966081736924  0.4172618601729428
  0.9188420732981487  0.8329132319807455  0.2509609889589570
  0.5780972121834619  0.7544322750402019  0.1635778399692725
  0.3268439062196948  0.5846137684583737  0.4172937431971275
  0.1711911586440300  0.5852099577971075  0.2475581907878709
  0.4845612482678567  0.3305841476843882  0.5029143209902217
  0.0005596048455635  0.7545241465281098  0.2492223482017920
  0.7456266596239846  0.5130401907990806  0.7623789268901280
  0.6626830860574859  0.1591791944508356  0.8337136822102091
  0.8335968239909756  0.5194412486454228  0.6830088548891238
  0.6490728557557875  0.4818055469486089  0.5462475252622079
  0.4127964367230201  0.0818731068449308  0.0001302503472498
  0.4965110104270099  0.5842645576454785  0.5816020971325575
  0.6533450284393389  0.6733683364696502  0.4964289049181462
  0.7464519107750049  0.8356640465306432  0.5843964272214111
  0.7486208813530736  0.0768241066225171  0.1669066331507210
  0.6621087306010823  0.1580401773361409  0.0016716880552547
  0.9956275046384773  0.5856304940718718  0.5899816487967000
  0.9170000636513661  0.8320113506250001  0.4148096746943881
  0.6654508910451731  0.5176925720276671  0.6756347646830611
  0.8421498632168698  0.4302887919130873  0.7417668435344539
  0.6606864067288654  0.7521046886895313  0.4150724769992943
  0.7484358294762967  0.7550092609389951  0.9987647795640466
  0.7477852810203982  0.6786535269851504  0.7598196721942038
  0.5765752292955052  0.8322888518620253  0.7518487770499699
  0.6617046978436926  0.9142309060900480  0.4165605251467328
  0.7453371094937310  0.6829280332255075  0.5943786124928473
  0.8349978535305879  0.6727022951746511  0.1637298522614616
  0.4934093865141849  0.5014039074822919  0.3336575188239654
  0.4104596119086500  0.6756160423624588  0.2500651575384444
  0.4940184735356161  0.5001375458759518  0.1659931472287014
  0.5765291676818477  0.6716848193999705  0.0822529075856666
  0.6580773581747785  0.3313638864396206  0.0082323910884722
  0.6483262614024555  0.4278631610816456  0.7347337553087129
  0.5701463053389463  0.4219378549703048  0.4961732624695530
  0.2489222725982554  0.8344100990344658  0.4189390941612309
  0.1665228971512969  0.7530184875913666  0.0799811672413932
  0.5775786307627676  0.5875143638848325  0.8340379225864556
  0.2492447491246836  0.9173493749437871  0.5012983581490554
  0.3296260352198996  0.2455344050242765  0.5871584220585645
  0.1664871079567283  0.0796517079240335  0.5855367441941364
  0.1612040923665704  0.4999828484120595  0.6659668531558294
  0.0016905714381240  0.7541378108097645  0.5852751523271145
  0.1657179012423425  0.0803799650481976  0.7517657025421185
  0.1674599239342071  0.3286304482596790  0.6697541333413332
  0.2500952362110110  0.4984680007444234  0.9165411088086234
  0.0844574170049755  0.8342880435649997  0.7509990655764643
  0.9197194973223362  0.8359024527218379  0.0825694536543883
  0.0873437154024746  0.1599352688804126  0.4170414671924661
  0.0046754804636580  0.5861522340022756  0.0822294402769146
  0.2461174265176398  0.4994709755987388  0.7500146027490358
  0.9964075658168482  0.3311851005010036  0.8373010139844644
  0.7484171362950653  0.7552912660121478  0.8381685564822099
  0.2434595732174887  0.4119332946299436  0.5000400903974078
  0.1674644607881627  0.7539217773582934  0.2489887973002088
  0.2468627599303835  0.6715101929430642  0.2486410427727379
  0.4132372923198516  0.9151251837800576  0.9994455714667150
  0.5771529808250196  0.7531564010870468  0.0014609533457778
  0.3301639048328469  0.9170048709751787  0.2496950959069392
  0.4948331004577848  0.8351984986487754  0.1647496927461951
  0.5792777775888311  0.2469015742994602  0.1688613051901216
  0.4962682630080708  0.9975715577060308  0.5020973681854300
  0.5789548244773108  0.9985883702764924  0.9174669072323636
  0.4948406849382648  0.9986327275361991  0.3332142543590857
  0.3315221293814890  0.7506964426500834  0.0806231560441585
  0.6610540494507248  0.0787781501552969  0.4149554202172612
  0.5785846705220783  0.9165100496111314  0.5006905006856436
  0.2512803558608490  0.1640558755781505  0.2481192009404099
  0.9964565402465484  0.3269651383538715  0.6661261343340092
  0.7501324596012811  0.4228449693750732  0.9968557624181212
  0.2476034061409017  0.9155268689554712  0.6684704198840423
  0.0861007632280821  0.4163886405591812  0.9979805314077567
  0.7471726016756065  0.8372708597972974  0.0813532242597814
  0.7501172315911018  0.6703856919816442  0.2413461718479454
  0.6553553045828691  0.5025647513203646  0.1583906598761640
  0.3287642193949774  0.5838852576741304  0.0818729306417750
  0.2461986395542773  0.7521948769560490  0.4999772804972065
  0.0008780184236433  0.7535138141172444  0.7535961074943619
  0.0843391442212571  0.2467749452661606  0.9993648818967409
  0.0847020677259659  0.9165387791527640  0.1662901785565364
  0.2472264548740658  0.5837388073052027  0.1614616541916309
  0.9968331775809600  0.5051349288881740  0.3314861840801667
  0.8370508362143765  0.5875939593254415  0.0836076348819476
  0.8336398707959518  0.9177719774841302  0.9177456894885384
  0.0875611772818761  0.5867323425466833  0.1648691326922641
  0.9183241061103158  0.8347587343160245  0.5835294692741032
  0.0790115655301825  0.4973296292792974  0.5850715556871023
  0.0025454694732578  0.9971883767502230  0.1659883261723794
  0.0862253286027884  0.0796111965698321  0.8332019169939211
  0.9189743108455747  0.9996423762666828  0.0846829137554285
  0.2499236137050150  0.2467539255451974  0.1654452767180470
  0.4138958808514804  0.9144939792727269  0.8337299830286681
  0.0873417907171077  0.0799728178182875  0.9986465940025264
  0.2466941892204459  0.5833639147313354  0.3351337241449299
  0.0874736730555125  0.2442486667045466  0.1656401783906776
  0.1661935697789367  0.4134769054980076  0.2466576341732221
  0.0045059016069925  0.1598822352863166  0.4979331592473272
  0.0856481567447537  0.5865692450767732  0.8354332162433515
  0.1697199819180941  0.5877121510797528  0.4162453573416037
  0.0847157114339380  0.9159746412976675  0.9991548584960535
  0.0883858966459022  0.3297829582422507  0.2465575928853947
  0.6613474628624828  0.5886483840628015  0.9195383386689180
  0.0075948306717891  0.5908740097189372  0.4132633114029122
  0.0860433242780098  0.7534002961784013  0.3322884327914811
  0.6637461274600732  0.6739834570595274  0.1611663669129989
  0.8320437978459220  0.9152557053595181  0.5837276188599018
  0.8357722100614365  0.5074626228406238  0.8357600417551123
  0.7475142126067926  0.8367380948643034  0.9180390083646710
  0.8330828268011897  0.9168618756651851  0.0828476122015613
  0.6623453686543078  0.7552405867512111  0.0809754070245008
  0.7487075883725629  0.7552983850831909  0.1632528079549936
  0.7467176196868803  0.7502715035417313  0.5006977107264464
  0.8339864373389417  0.6742168956513723  0.8410988856814320
  0.6627506346397521  0.8361865361728250  0.9990898802073336
  0.6647037683446100  0.7552563463502188  0.2454644856589681
  0.0846562316423712  0.7531100949204469  0.1641757213230068
  0.1673422590199242  0.8346857740529500  0.9988990427931462
  0.7476541549804316  0.2404198380616815  0.1634200410906970
  0.0045956574866646  0.0789288974882341  0.0821578247077571
  0.7499307034661633  0.1527572510368256  0.5868976936600824
  0.8324140447873136  0.5962951560403722  0.7607204041877141
  0.0851964313331771  0.6698554621287713  0.0814614108796249
  0.9206558873900030  0.1568398237470154  0.5815683136267581
  0.0839307596253841  0.4093831799951988  0.6687538390558507
  0.0001488722316936  0.4145329341528606  0.7516569778961026
  0.2504609196499164  0.4162357239616892  0.9975797476736110
  0.9203405297117668  0.1603179608234987  0.7522729180379131
  0.8343444105222158  0.1585253057826663  0.1633502886750602
  0.0077724697973490  0.4019215818112592  0.5801569860250686
  0.6645185668887743  0.2393251604794631  0.2476495278865176
  0.8344185882948294  0.1631710045631229  0.8368270536492828
  0.7492420374276816  0.3345066631939721  0.3819238955337327
  0.0902860772273199  0.4016505550310972  0.5055642606083356
  0.9187866321672407  0.2290213089088787  0.3270641201697616
  0.0841051702075461  0.0796515223991287  0.6681683008976310
  0.8328092480433739  0.8342348766094497  0.6689293584976214
  0.0008697365964371  0.4170502281650748  0.9180949327276768
  0.5688897873716341  0.3287652290218907  0.5852777939134360
  0.3271112941965891  0.4148301122780209  0.5855259173131730
  0.5077258103463480  0.4166371206994617  0.7409904553098476
  0.5839923789945816  0.4445783500385449  0.6364091993546259
  0.2480514980255765  0.0812940936493056  0.8336739382778143
  0.4952295718710232  0.5017530468572706  0.8309464168334944
  0.3301648156207254  0.8340355909629913  0.1653931495273655
  0.1674829564021092  0.2469072010290728  0.0814354180115613
  0.2495025322759749  0.2481257745427676  0.9978251169543353
  0.5794233527454445  0.9152899357781908  0.1669560967184197
  0.9191728519330788  0.2376177623380605  0.4966832071099330
  0.6611729931812039  0.7530729484228891  0.5847895518809952
  0.8337717409709279  0.0753586004915089  0.2465697895442451
  0.0019098473508248  0.6704768214267108  0.8372615646308940
  0.9125676501191368  0.6057712891863061  0.6750847418765134
  0.8328377929165873  0.8374143134396451  0.8365422394733255
  0.0038944592432202  0.5884582035424570  0.2456900516324648
  0.8389361732932505  0.5017889782677830  0.1602947664394780
  0.4956298041703620  0.9160201145843020  0.2496604157971240
  0.5779395577373685  0.8339001643909857  0.4168731645123516
  0.4974617150877475  0.4252334125306915  0.9148081556831125
  0.5791878998134727  0.9154331137726633  0.3337895366202434
  0.4973966085231792  0.3323844937962980  0.8292052704899266
  0.1681374468056105  0.9971142209513755  0.3329167563016815
  0.0008836118695481  0.8359226419561864  0.9996711466370891
  0.5764849613880544  0.5869011085950601  0.0007107070052209
  0.6609274405123081  0.5061636646663135  0.8351508284961033
  0.4941855282968583  0.6692875463295974  0.9991845782414707
  0.0850525335762380  0.8350444205746840  0.9166856840146075
  0.1659008794292724  0.9154468600226788  0.5848612509162577
  0.4933256054410398  0.6707777895838273  0.1640444961543552
  0.0011678271259406  0.9173575162190639  0.9171733345598788
  0.4813759407941706  0.4987215979617688  0.4970810333802583
  0.1673693730395954  0.9978984067382154  0.9982390850538544
  0.1680494035223773  0.9973370835200326  0.1657657002252487
  0.3311449522300630  0.9986649673502033  0.9985398463717877
  0.6629959699310654  0.1588999656164481  0.1659846688177400
  0.7489175911428846  0.0801025254411985  0.8328077076141774
  0.0012975011117596  0.9983137464871467  0.8341053538702659
  0.7484195581420479  0.0758403567792159  0.3320608577206043
  0.6630050836263267  0.9973848827828037  0.6691041192324392
  0.6629410216474121  0.1540964980355816  0.5030735685779847
  0.7485561502583200  0.1640546919899588  0.7507020287954096
  0.7477014708280930  0.0771808815930308  0.4992099961505553
  0.6637966222826698  0.9980777066689477  0.8329683765443933
  0.6639915829201393  0.0802334681545070  0.7507639105050266
  0.7480062571281447  0.5994104339373826  0.6783558219766171
  0.8331850336992433  0.9965005867015659  0.6679135679395670
  0.6633310956941739  0.9961733197152294  0.3333866340408758
  0.0840937974186185  0.8349694453691140  0.0821964237187350
  0.7473235949829528  0.8329592007993893  0.4170025670154003
  0.7428021666650438  0.2446555881003557  0.8390839342671736
  0.6630628771235986  0.9972685422327213  0.5006112987059689
  0.6591906624361381  0.2355950333420726  0.9215812278132008
  0.8349416088166564  0.0758381918713802  0.5833053195569960
  0.5761373594750951  0.1570987597370276  0.5869346526778837
  0.7477712459527914  0.9947958836731545  0.2499726605719038
  0.8330399811573578  0.9980412393029597  0.0000534980601566
  0.5718882501566864  0.6739125941163775  0.4145592610552418
  0.3292739262754076  0.7530799340079618  0.2493432740516957
  0.3305574950036802  0.9986820415607184  0.1647870012401970
  0.5763864585727104  0.5064583876749619  0.9171436558162726
  0.2495726592540647  0.0803940699183155  0.1655970179135199
  0.5745940568765937  0.5013916120585974  0.0823280950420633
  0.4936296926090756  0.6697105742151908  0.8340158513131432
  0.5768104269858884  0.5039695879305769  0.2492057781016646
  0.5768291546188385  0.5877529619484581  0.1635775394374662
  0.2488857868431326  0.0807007658806007  0.9985025537667845
  0.5831406618295389  0.4185875452131066  0.8333642620294184
  0.9178578365668544  0.7542708755349061  0.6693940347417521
  0.4923377980063480  0.6714955762459762  0.3311784092822506
  0.0845533519195927  0.1609500425060305  0.5846989593284871
  0.1650145924816604  0.8354905921445848  0.5020576579932737
  0.7470739573563518  0.9172565045980695  0.8341567084295983
  0.9175048816527166  0.9180090131567000  0.0006327276620260
  0.5795016568986877  0.3209731038445424  0.7537093809496854
  0.8335585890825563  0.8368022760444657  0.0006198411857800
  0.8373740293737093  0.2389205669315642  0.2410804279240398
  0.6624623447471470  0.2517689070333978  0.3698192804010735
  0.0795069700733481  0.5832431829747040  0.5010184065228597
  0.7574275050271663  0.2273366587359381  0.5088212674209309
  0.8385970186090144  0.4005963247766095  0.4013188166677656
  0.6556975524105721  0.3161105893306855  0.6610118015283427
  0.6597862107490964  0.2623356024360647  0.4764813015299941
  0.8327394498490114  0.9952377769159177  0.1659238680685305
  0.6925093002932985  0.4147369216199012  0.6264161387189573
  0.8342399162916304  0.5063271280520839  0.0038483414238139
  0.8049132880001438  0.3382953172115513  0.7898797553044954
  0.0824640864909338  0.6675468960834248  0.5837405758274942
  0.9181272642300732  0.7552665959280456  0.1645609061107884
  0.7525841835577333  0.4126548514281855  0.1688063808145995
  0.3293017132583645  0.6684501142085675  0.5001491521007804
  0.7371946947344764  0.4061665118709655  0.4631412302425011
  0.6649168685537028  0.3308386467207164  0.1705527689893534
  0.8378378380471949  0.3317234772103398  0.0072874741756885
  0.0018355633095757  0.6702250286930252  0.0000698917527320
  0.1645009337161648  0.2480072920165877  0.7519322165193589
  0.0016759889403279  0.9170262911306339  0.0824158554845155
  0.8314173024570430  0.8341237010924818  0.3324948761697204
  0.8333496462129096  0.8358543245278479  0.1653153503236098
  0.0018731538177894  0.8341643970639588  0.3332689817906369
  0.0013172793578466  0.2413745606834896  0.5840964518536467
  0.9175416046152550  0.7557019875323772  0.8386053471997783
  0.7471574584560653  0.9967004876146321  0.4170046013557215
  0.0014567024320525  0.1594023117110539  0.6683274626850834
  0.0009032115472811  0.9153206098812471  0.2495873627278098
  0.0006576210475435  0.2457841312985400  0.7516835158906313
  0.8334383257765434  0.7572248120639226  0.7570882022374684
  0.9163310233418901  0.9984344147031993  0.7513293695177272
  0.0011735052379548  0.8344936035229561  0.4995758412678043
  0.0039095519170270  0.0775856552906895  0.4160130932795069
  0.5769705666238600  0.4184010974358471  0.0021513763990488
  0.0025652412233886  0.0792295848585897  0.9177931581370107
  0.3311850442470533  0.9979599803679329  0.8333813227805899
  0.9186416229598973  0.3323426430256343  0.7502710026149292
  0.0861481252827216  0.4150037077825290  0.3260729471144153
  0.8407297433681963  0.2373414977932485  0.5823139507460406
  0.8321045723249275  0.9158350242465614  0.7511331227357864
  0.4953240777339191  0.8346718627978340  0.5015473246080332
  0.2491261425773011  0.0792871585688564  0.5015517556910885
  0.3326005145582236  0.5002100409541234  0.9994621157291002
  0.3279676021404487  0.3290607402560575  0.3313670194636428
  0.4133493021018453  0.4145470706912569  0.1651539970555640
  0.4907157806676251  0.3318047249987290  0.3335994765678499
  0.3296500195855845  0.3313061927656591  0.1641520571885252
  0.0879419575190748  0.3230350961197477  0.5875198831398152
  0.4117499104336672  0.1624542656547323  0.4166057425715129
  0.4078976088481287  0.4137004260385177  0.3318276235459804
  0.1700359007193518  0.4984096525941529  0.3272878197638613
  0.1663092260312955  0.1620661831460843  0.6693039430547264
  0.3268781538899765  0.3288005045635684  0.5018968414897856
  0.3294650459270386  0.1622446196733451  0.6699259220758039
  0.1684434092555339  0.2454614383804708  0.2475003206865475
  0.4943039328925977  0.5056422442975674  0.6641442275843676
  0.3312166073679864  0.8331809906014889  0.8325661829763390
  0.0003178835739797  0.8346682740963918  0.6687198783925674
  0.4133737368451627  0.9981739304461740  0.9162639012015636
  0.5784720706019477  0.1586413144294083  0.9175950329311037
  0.2487113433639688  0.2460868678701259  0.6698713045772584
  0.3306746546472714  0.2475048079730312  0.0817026667225717
  0.1656438652626096  0.4124419057693059  0.5872231270666627
  0.4139891063872677  0.2474565106079005  0.9996716964798311
  0.3316058131921238  0.1622886877068835  0.1633690746066781
  0.2479860711104468  0.3293424920964982  0.5869452608672447
  0.3305980214208131  0.4987811417386399  0.1653351857422951
  0.3305968390313025  0.0791471606354223  0.4170184649224241
  0.3307773655546256  0.9978543288311306  0.3332813546637223
  0.1662832232746186  0.5841649900852820  0.0809688291276478
  0.1669864712476787  0.9971598281135781  0.5014847240190476
  0.2483138121176379  0.8330709891688198  0.5844915349487319
  0.4139981078554228  0.9983071690119133  0.4178630051461487
  0.3311147441513422  0.0801335670003260  0.2486416645644068
  0.5769446916120269  0.6705866187471271  0.9178206829545984
  0.8396808188023865  0.6761499860334921  0.4997320319691670
  0.0845859947120813  0.8348995194135893  0.2490316983691191
  0.4955081013342746  0.9167126714958320  0.0818469082030129
  0.5783631847819858  0.8355130472175156  0.0817385861657690