 B Cr Ni 
 1.0000000000000000
    21.1200000000000010    0.0000000000000000    0.0000000000000000
     0.0000000000000000   21.1200000000000010    0.0000000000000000
     0.0000000000000000    0.0000000000000000   21.1200000000000010
 B   Cr  Ni 
  35 259 605
Direct
  0.8561402659907069  0.3722356305245968  0.5772823643332479
  0.9904409026063513  0.3335037570438085  0.4038559392001995
  0.8305011935781177  0.5686605245328549  0.5162656706102170
  0.6686536961186512  0.3323552419058426  0.5918392388236343
  0.9126649231352515  0.3989822897359723  0.2457374930234122
  0.5405186944846627  0.4951342695100125  0.4103370957900914
  0.7494458726317812  0.3389399876607078  0.4805101818169078
  0.7378755314301457  0.4866475908576269  0.4849761308961493
  0.7565930771709898  0.3167301270722136  0.9713442849129152
  0.5409601354643900  0.3435031388358343  0.4111165212714343
  0.7539275231394892  0.2567209555092293  0.7507678802615302
  0.9268708461508672  0.5426563608160428  0.4209652953896390
  0.5688249196060423  0.6570604405061192  0.5066488149400780
  0.9259544206275032  0.4179754167086568  0.7461649256267510
  0.9664920637037229  0.4870948135364616  0.5843324061949312
  0.6740392318552094  0.4201444375171846  0.3468595980563477
  0.9283071142263720  0.4600200453044735  0.4239677055874737
  0.8586262633955128  0.4282210776780542  0.2990023487006066
  0.7423063200884700  0.4457177723677159  0.7020020182650607
  0.8258298900103225  0.4920085980462163  0.2585597416206071
  0.5989468577698090  0.5965233475017966  0.5515601420502872
  0.6207463558968550  0.3583713800269918  0.8442454612990712
  0.5913032109893706  0.2683002601776061  0.4212238826484784
  0.6604524816282571  0.4810588447287816  0.5903661838163878
  0.8384679472315686  0.2508795294750518  0.3336924463530898
  0.9235666602959296  0.5181930083483602  0.6473291092675819
  0.7706728919185616  0.5246055146608881  0.3071796253226033
  0.9293077319719799  0.3755192920214559  0.4400210877755751
  0.6518163560647957  0.4040721533652203  0.9776853887289341
  0.7422214040512055  0.3923119822773687  0.7662047633057159
  0.6005884418602785  0.4213460234128482  0.5846243410805083
  0.4875268073818850  0.5069908074186864  0.5818130981742338
  0.5860456570570720  0.2642922080098584  0.7434233249877410
  0.5807743854278841  0.3270593341534658  0.4815357470237232
  0.8867633979550313  0.3377463196672161  0.8351176896391530
  0.5777193911011921  0.7567003604061125  0.8339895375635691
  0.7461023921172093  0.5890859075720211  0.1477252202710261
  0.8623780479221832  0.5092799679486697  0.3499714222283520
  0.4145802928121126  0.0815807757482257  0.8342634940754703
  0.5800346107409102  0.9970000640439813  0.0837396457032881
  0.9209381955863085  0.5962459679097079  0.3310620296752183
  0.4153926406443030  0.0809852876421772  0.1653213957526320
  0.6655498394729175  0.2324561355040139  0.5956533637737375
  0.7488174071013638  0.8382331070529603  0.7523512099895504
  0.6630923628027503  0.9176744196570428  0.9175088132842800
  0.5793600344146178  0.9983493243160887  0.7500726754122155
  0.6807601720466917  0.3279452837872883  0.3122834907524641
  0.8340580052928772  0.6026977707285073  0.4160158493166974
  0.8324010166612236  0.6738115539502065  0.5017287487714395
  0.4961585530882796  0.8344589733299155  0.0002130307077992
  0.2500708285947509  0.9994816916588966  0.0810410238988774
  0.4089684187565816  0.6708780026235341  0.9170208427226764
  0.3279216794000601  0.6696615949569988  0.4979226821715046
  0.4988789890391922  0.2483432242910213  0.9167723247456863
  0.4130598921899387  0.7525206038561749  0.6651542587441270
  0.3315687006530237  0.2465225365670042  0.2477767044113542
  0.3317913630471933  0.9175212419328858  0.4175442375893323
  0.4152510284069392  0.0817481440205490  0.3329528858103979
  0.2505706525186788  0.9980182102318674  0.2493411796131126
  0.4958081406412751  0.1639755016921046  0.1656226729740870
  0.2498006350781292  0.8335550345363042  0.9147857772803940
  0.2490843898616009  0.8339505152249646  0.7515005170852371
  0.1635502344775960  0.6673077616651353  0.6662105872363184
  0.7493945593281578  0.5114943422473276  0.9230704010388118
  0.0843440078798827  0.9151019064625141  0.6674086646928343
  0.8349764122772496  0.9156840542812424  0.4164061466396072
  0.2494564512488880  0.8359308885035751  0.4170631694330090
  0.1662405982727736  0.6674486625163311  0.0009381244344145
  0.0863884053499352  0.7516384649036599  0.9996478783119753
  0.2476626945259287  0.7501657215571886  0.6669642056632644
  0.2479824835257829  0.8351263996246272  0.2495449133513886
  0.0042758571368682  0.1595743006608863  0.6686674677601966
  0.1666796565265961  0.8343453385174608  0.8331512406737994
  0.8370941416374423  0.0753785228341939  0.5809923231310682
  0.6674531389095824  0.1472875682871942  0.6611802292930428
  0.8357721486848906  0.0780848270654422  0.4133867915219059
  0.0053775028149702  0.5053004859105767  0.8355329896082868
  0.7460067059482398  0.4975991848186603  0.0774880487978484
  0.8330861296201393  0.5893472078520757  0.2500084767634481
  0.9173906569622914  0.9150156655785604  0.6670183409454880
  0.0841969680424861  0.8355081969995695  0.5847397752046125
  0.9180337404138085  0.8329811055154001  0.2500372802716325
  0.3248455914843260  0.5829951571710122  0.4130229170791362
  0.2476562724959779  0.6671629701227365  0.0858240257189694
  0.1648278526691370  0.7526360196229915  0.2504413234933882
  0.2457198793958259  0.6683537768997917  0.2492025889278506
  0.3303348111964892  0.7501504203551954  0.9164599501622214
  0.5774063008449071  0.7538074724530710  0.0009385261243449
  0.3307143706262716  0.9172010217232353  0.2496400110288410
  0.4956078273774079  0.8344577679126085  0.1661128213024397
  0.5782789003739490  0.1616866173113757  0.2480863964486352
  0.4969061302001702  0.9995854416631066  0.5007317605196552
  0.5806537292612722  0.9977768400735848  0.9172652633018025
  0.4954137615321881  0.9991122260716042  0.3333037440622520
  0.3302248350617656  0.7510815666089679  0.0826832164824336
  0.6626895342188863  0.0808731105395911  0.4135153664841268
  0.4126208716687426  0.8344976155399308  0.4180364408685209
  0.2508657180768668  0.9169108877229012  0.5008437542825489
  0.7464764793590777  0.8377210648505613  0.0832210433870548
  0.9175885743094973  0.8334667759597872  0.4161122099478237
  0.0862828398301683  0.7535481752686307  0.3346672025938415
  0.9179578006178177  0.7531902678491209  0.3325734158584268
  0.9197926232551474  0.6703470250097766  0.0839493996882796
  0.1653381426381697  0.6683980096336037  0.8339731431394650
  0.4148064499674773  0.1638132703453882  0.0827848446374601
  0.4099541947285666  0.6696570918968079  0.0839599598774791
  0.5756880883062786  0.3319951173992958  0.0795033686368652
  0.4152702254757796  0.0824614593300347  0.5001156220057342
  0.3276302705866568  0.5851465078162487  0.7484274101101639
  0.3251542054838333  0.5851930809862000  0.5833182521626260
  0.4058870331501769  0.5848905229035323  0.3265946978419161
  0.3255124614551853  0.5830651753815184  0.2485045027281633
  0.2482208977294081  0.4138713430134315  0.1661146500007163
  0.4103909096544183  0.7513617654335546  0.0027704627922157
  0.4101373726689924  0.4180663552856089  0.8356730759808362
  0.4984592746683784  0.3321064877350340  0.6702664891494037
  0.4060807776266592  0.4129010424013138  0.5004112224768691
  0.2493867513529818  0.0825063012889765  0.8348628160137800
  0.3330718456848829  0.2488210639832796  0.9159578829219543
  0.4983439956429963  0.1651479785651641  0.3303386459796719
  0.3325256586477290  0.2486243310797852  0.7507195314816953
  0.5772118778019112  0.1612627167817007  0.7532612513026763
  0.4946460563315717  0.8343168843721503  0.8342281320565359
  0.4137016167794869  0.3315117900742287  0.0829842270359481
  0.2488583511837892  0.3293252093238036  0.4155078798924819
  0.4107419637966466  0.4165963572530921  0.6691967375875987
  0.3276430758475235  0.4125294277162156  0.2469058729603753
  0.4107461839531182  0.3287534439563702  0.4143688307438991
  0.4073058783671048  0.4139504044509210  0.3249476706601486
  0.2505772426716090  0.1621832570711314  0.4168172550073528
  0.8357890494601576  0.6723959900323355  0.0021658928782212
  0.4913899020566853  0.1596240895516117  0.4998440180352760
  0.4959605545756077  0.8341683105925904  0.3320187337638206
  0.9203409604956564  0.4165388981354338  0.6500332308697088
  0.8502145369629761  0.3158469480196198  0.4916656873064716
  0.9245377723883141  0.4984676256178850  0.2497572519869720
  0.7470210621235344  0.3275859411936673  0.0784541002281599
  0.9249001399403975  0.3275780848214183  0.0810798593353113
  0.9256784107620989  0.2365891243804174  0.6654123344429534
  0.9168163637165758  0.2422216762572224  0.8382443214669121
  0.7490484299808741  0.9170884335363590  0.6674675534245318
  0.9256117973975804  0.2362114483987521  0.4953496676559150
  0.9217818626860707  0.3330761135035082  0.9256805066569069
  0.8467077857030169  0.3150803231009474  0.6639628717189641
  0.9199736191192631  0.1532856790574331  0.2413529040366686
  0.9440168392685898  0.4058091726134498  0.3377910122339587
  0.8342295136545996  0.2382667026974892  0.0827206047459124
  0.9196772069095799  0.0768408390838019  0.8368509127490386
  0.9233716771639321  0.0777393867413302  0.6680771106790214
  0.7460987195392221  0.6739618992680049  0.2445396698249498
  0.6560536576407400  0.5859912847186382  0.0795863063177574
  0.5742610841559760  0.5917915340396970  0.8346033780803040
  0.8324514598107656  0.4287987166000324  0.7491659161043138
  0.6639414011288398  0.5139403059949822  0.6852560746367553
  0.4985270598581130  0.6021197791405487  0.5771180396337555
  0.7534264402714034  0.5103908090896009  0.5858928944064453
  0.7483600907230163  0.0750793105356226  0.1663766681064187
  0.6643960491343042  0.1626422605845839  0.8310722668284620
  0.6622462646459636  0.1582461253769534  0.0013510162636164
  0.7507991553140589  0.5956164058346511  0.8410580240359923
  0.9950320439446567  0.5852249339531206  0.5902799105226912
  0.9189254402668330  0.9958929550527356  0.2485184675852939
  0.9200467221110245  0.8366824712496713  0.9192339813852071
  0.6602983695518797  0.4148282062349775  0.2436724746836686
  0.4146536848764066  0.8335811617246802  0.5840420026092581
  0.7499163608222336  0.7554758217391184  0.8382719754448222
  0.8356336788718112  0.1554486265150752  0.0032878302794898
  0.7519707168584393  0.9957140453687766  0.7482754648631420
  0.0828477732219781  0.5872799225474393  0.6683174968862006
  0.0031352950742626  0.6720199271380416  0.5044384344496639
  0.3288226917505887  0.4173494656693239  0.9184127433519566
  0.0157592311002467  0.4987187270524956  0.6715110094772770
  0.1667420090124704  0.7543092974537516  0.4181365263928086
  0.0892691401712747  0.3245716633147195  0.5855036751373752
  0.1675513991366716  0.3303310961314447  0.8347537478840238
  0.9177383864106724  0.7549744601723434  0.1664980640123314
  0.2518224820757953  0.4165790046787296  0.9980190749077692
  0.2524375196801679  0.9968517459379688  0.4188480476078127
  0.0840327689759781  0.7531866933944859  0.1661775529500030
  0.9193413904280510  0.6725957775097627  0.2480726175408876
  0.0003358759296779  0.2470020644872805  0.9153713639068005
  0.0846640442497248  0.9178964532598926  0.3332518918844996
  0.1705807427571094  0.0797889648778750  0.0807901907501856
  0.0896160721421697  0.3253807252830205  0.4137325550091719
  0.0834688087639419  0.9182970592146440  0.5003061980010679
  0.0018512347419534  0.0780215292575876  0.9166188019032221
  0.6637523215095910  0.9164365101417862  0.0829379080827979
  0.7480956004630740  0.6732368253824054  0.0801997715271568
  0.6599902026164565  0.5031779630798249  0.9969912775146437
  0.6634942243383130  0.9156453780461202  0.5846895280978245
  0.8332872881183533  0.9982776820921054  0.4979992440687111
  0.7485585522999189  0.9985960087570921  0.9170454311769800
  0.6621348194178007  0.8334341699950653  0.3355412988621573
  0.7476601638614448  0.9964605302021110  0.0843266489113020
  0.7464714114480410  0.8325073696392756  0.2505028517218494
  0.8385207742712646  0.3183985790946075  0.1502837162867559
  0.6641170684051086  0.9128185203978639  0.2507266623422116
  0.7478260345913832  0.1539217530848808  0.2413041134714013
  0.0047732471664262  0.9947656186497316  0.4990485175756361
  0.4135724876050052  0.0808202192017572  0.6675139119840814
  0.4113149432753228  0.4177178740720273  0.0006981527884529
  0.1636774576286548  0.5826828307298637  0.2503610149061972
  0.5698410129523883  0.4269096964058519  0.4865194545584007
  0.7469266048235208  0.8390648891330442  0.5844245070030316
  0.6643033769611733  0.5908163150336708  0.4103369330380663
  0.6555954990958712  0.4311077408085263  0.7592340178391669
  0.4140370641512263  0.9983089991788868  0.0815608370475947
  0.6763474637307013  0.4093731835323798  0.5190438763536337
  0.4831922008936502  0.3348903052046232  0.4994293118888525
  0.6628121753146784  0.7533654350322684  0.2473744248573669
  0.3276043144356293  0.5846604476628844  0.9173830056404255
  0.3311935196023362  0.9176653570448743  0.0824144753333283
  0.6641031471568059  0.3162367183651681  0.0100810400637545
  0.5766172354924868  0.6706399703771068  0.0825255406201031
  0.7473752893147371  0.8356337906824430  0.9178830481177537
  0.7495993378726908  0.6770214609935048  0.7600663679103288
  0.5775002704867244  0.8351211041424744  0.7534871981709349
  0.6639879238646783  0.9148789104855671  0.4153440658641457
  0.7465460648474248  0.6772108293904482  0.5893015658235760
  0.7470974480580628  0.7529501444897303  0.3335954642279730
  0.6608815889043780  0.7533143646569934  0.4151586127759172
  0.6554919790031351  0.4152289620093926  0.0764114970011884
  0.8347008293539855  0.9158182980439593  0.7523474563181389
  0.7642145165683244  0.3206950590469062  0.5791751159997102
  0.8365125283231982  0.1470215905812866  0.5002543350277110
  0.9206044655760585  0.6704922562802482  0.9210489211343124
  0.6646636688965667  0.0792145057273018  0.5807690485274216
  0.7468169461295979  0.3263271420663337  0.2339903548091261
  0.9204061210799517  0.4190562590922836  0.0050603778226249
  0.5789368256864378  0.0785702950147906  0.1661300036195089
  0.4938779310425982  0.5012190861574206  0.1662028284274676
  0.6394147473101258  0.4803094718649579  0.4192741304893831
  0.3316118085052959  0.2475093638423350  0.5852801096535091
  0.2492995259848326  0.0819541477373502  0.6685496543117785
  0.1634433626429780  0.4996146784416369  0.6644258452938349
  0.0830164903826437  0.6676195792417826  0.5827973471936634
  0.1681252451335748  0.0808562954089649  0.7513376624698050
  0.1689739274820796  0.3284027189709325  0.6686861427952924
  0.2487335491587467  0.5004618795213301  0.9168641793686294
  0.0010130454535416  0.7535592798663929  0.7526382268402624
  0.0025883889272087  0.8349039396729497  0.1657722626475698
  0.0871890602446088  0.1586692734082474  0.4149925884507781
  0.0855274466942026  0.5858489334652162  0.0004462149725580
  0.2461843950218545  0.4998612245113624  0.7506797499910631
  0.9974588163497716  0.3308040587539710  0.8393795212422585
  0.7497497352459669  0.4149271699243929  0.9906254703569065
  0.2489939178599174  0.9159989502911904  0.6676041620030914
  0.9209301474178735  0.6760910961280207  0.7575905838746916
  0.7480869068874493  0.5883051572406673  0.0059364785969712
  0.5750467690593971  0.4268424508031241  0.3367338161005972
  0.5730512093231378  0.5110168113959007  0.9180772247476766
  0.4932655792209953  0.7526845616928387  0.5843920535120120
  0.4912356573788502  0.7562318056520581  0.4125941069060892
  0.5789493332802091  0.6681653546797383  0.2487148014651071
  0.4115192220179468  0.7513230039692880  0.3297035323901883
  0.4121911231592896  0.7520554872584502  0.1675126620036790
  0.7486097466949495  0.6702765059958267  0.9209477528008295
  0.5720361223501276  0.5110959101940800  0.7542927910452432
  0.4933638050578116  0.5897259951824942  0.7528334896525584
  0.5779911917353759  0.5699095171861271  0.3436923645420051
  0.2484565490729772  0.2462575849677306  0.1643935463536310
  0.0140811481851903  0.4018133682944812  0.5839857238956784
  0.2458068327292813  0.4130462361646232  0.4998886178107676
  0.1712143873647395  0.0768694319418655  0.2495599302567557
  0.0863765945139452  0.4155669271111799  0.9993629132277326
  0.4784627181928682  0.5822843754803554  0.4043212768684177
  0.4885776752482850  0.4997976454476785  0.3247348354731621
  0.4120873164438842  0.6683950340925261  0.2498337061600353
  0.3269035362441474  0.5855924708647471  0.0865836144124554
  0.2460596503084876  0.7517111524630660  0.4998327894189396
  0.9181784902070631  0.8363955744069044  0.7511022061191547
  0.0865955569698989  0.2450087827354994  0.9987444421215721
  0.0850210916787445  0.9166774692982509  0.1649868462182248
  0.2464183609640099  0.5823915709832318  0.1689963215467704
  0.0032127751800759  0.9953840314444808  0.1640549606029527
  0.9932356790212667  0.5018135537058933  0.3432277248993557
  0.8395191777287196  0.5886162175315625  0.0823849548510611
  0.9199124515963578  0.9988838087461622  0.9168296976372046
  0.0850194432647022  0.5833068542219442  0.1676503330072033
  0.9174810603633088  0.8370531652053498  0.5842050175954505
  0.0775159644381820  0.4975977201839325  0.5812936597119350
  0.1691430051098651  0.0796382190456658  0.9133184812798895
  0.0062639619507973  0.1589763285464345  0.4979527875130478
  0.0907071799514201  0.3278976494549444  0.2437900654990218
  0.0861927247021585  0.9158194950895838  0.9983464821001320
  0.1657316453694010  0.5838550058203743  0.4159462715573632
  0.0846316594421977  0.5855189521485590  0.8338668611450443
  0.1701325363161385  0.2461868678304834  0.0808989358471984
  0.1624011046603147  0.4137753663752090  0.2499031722856528
  0.4150552079455000  0.9161439401329797  0.8343435937119490
  0.2495786496619729  0.1637451986892864  0.0800887704567899
  0.0028597045758258  0.0761401129021925  0.0814653220876340
  0.2447966287217045  0.5820448592754971  0.3314325828930419
  0.0069351909601714  0.1553722254581908  0.1605557281768621
  0.5784687243735521  0.7526541573003735  0.1661511275180423
  0.0034324787800589  0.7527818638279671  0.2499466211045395
  0.6610037110786647  0.5916699855710235  0.9205229918053616
  0.6618100042735724  0.6720749197651438  0.1623881542981206
  0.8336466149933827  0.9169274718244881  0.5832908998113131
  0.0039726141925056  0.5932359727072611  0.4178210429317176
  0.7483285924185283  0.7553204883171621  0.0003012765425142
  0.0028352346819908  0.7523131640887123  0.0829226048072866
  0.6627136540678294  0.7537613731988366  0.0821315371098241
  0.7482452832500407  0.7540846418235234  0.1638958546476187
  0.8321228158450800  0.9151456792805102  0.0832567095566209
  0.8362297108638778  0.6745788773808112  0.8404385255175653
  0.6634354961359468  0.8354409608943086  0.0002238518856990
  0.7466938282143077  0.7541485036567668  0.5023811097843665
  0.8387117967339708  0.5091303710946429  0.8374076459111933
  0.1680233629198624  0.8335618851489800  0.9995272243558274
  0.8333141726059335  0.7533821759539273  0.4178549424920096
  0.2514265595168734  0.0807409638220180  0.1645875560556766
  0.0869814877044286  0.0785688461042389  0.4998022467577358
  0.5764823051084956  0.6723268342616521  0.9188424343273803
  0.0846774663567619  0.6682354315873323  0.0837150295182567
  0.4826181769644554  0.4179018733242694  0.4103042463728181
  0.6365719807636695  0.3583586532657448  0.4122492714665216
  0.5773869069598481  0.7519145430978520  0.5002458976175631
  0.0848569684484292  0.8355792480640288  0.2499095820473475
  0.4969435944046748  0.9170726640384234  0.5840685289545301
  0.4963791260204722  0.9167964859077514  0.0830895152177491
  0.2471524762737280  0.4992573986205583  0.5840013722170897
  0.5786803068721962  0.8346409390351424  0.0834042807228363
  0.3286755876658279  0.7521144694084351  0.2492974255984904
  0.5799726886960106  0.9166790134227700  0.0003402927008169
  0.3317005743323738  0.9994699458034388  0.1650991858403258
  0.5792645887551205  0.7576036846868848  0.6718163847778957
  0.4898005203210948  0.5065960044505459  0.0003091124446484
  0.5729147996225722  0.5020771884265409  0.0809583250555049
  0.8340207349520065  0.8366488095135803  0.8373807965180345
  0.7476177720698649  0.0768155579917749  0.0010297361091660
  0.4962312303331143  0.9171399341309900  0.7507255370455866
  0.4969397350097105  0.4156722493369332  0.5844278681941267
  0.5796408282173781  0.8345269453898309  0.2501546530053939
  0.4942513094857739  0.7522263739506654  0.0840668542436246
  0.5778167040684156  0.7524465456517403  0.3327601300086071
  0.0016684524854579  0.9159305929292150  0.5843498480135748
  0.5792130688445510  0.8345349919371134  0.5834659515794742
  0.5776689905886904  0.5936574418065660  0.6727437409997260
  0.4934556362535714  0.7530227564460135  0.7504006933858889
  0.0846096014707549  0.8362176506121176  0.4169260480847130
  0.0019928615566319  0.5857120878989555  0.2498514259012022
  0.6638768749468492  0.8370032332889266  0.8351013016903387
  0.8379748655404293  0.5072355526543548  0.1595971464915614
  0.4942361134611790  0.7525863166514848  0.9181202037093034
  0.0031856113693067  0.4176448080678829  0.9195213409689471
  0.6659520131657355  0.7578571220328744  0.5867375242988490
  0.0024284656341080  0.6703545186534052  0.8366407693138602
  0.4122298968570671  0.2462299769714439  0.4992353260404530
  0.4898970636267657  0.2475825181547216  0.5834585377727541
  0.0859271870121571  0.9980623924423024  0.7502535146725839
  0.4958651875076885  0.2495984918836041  0.7537030029424444
  0.4971265472763239  0.9986869547991964  0.8335340075697355
  0.3330479976714123  0.1656718775098609  0.8336609127529622
  0.0850971228241826  0.1633167280190735  0.9161088026791262
  0.5849050168046108  0.6787543679494900  0.5955946137629651
  0.4823119703225925  0.6704575557322072  0.4900107405903130
  0.4954852968992891  0.9163841313667128  0.4162586008597475
  0.0007451102557585  0.9154746483009082  0.4154776704362819
  0.5767041014553868  0.6745134256574686  0.7536402846492247
  0.4967726420165023  0.8358547202453172  0.6677583868788405
  0.5809377056818902  0.9174927400860768  0.6673731759740097
  0.6627595743422273  0.7547924698644902  0.9183813479293359
  0.4968693955000075  0.9166994126541130  0.9164404213282440
  0.5785714862218003  0.8351892172574050  0.9170731005338816
  0.5797284181756497  0.9171677507665086  0.8333206884082746
  0.6623868408003305  0.2385836383507377  0.0857453223996875
  0.4929229418611357  0.6722880850105082  0.8345279539071141
  0.1664109563494766  0.8363220560942128  0.5016295386939089
  0.6650883175698596  0.0791024200024453  0.7513851128304924
  0.7480897873715217  0.9972718195403372  0.5823293803172104
  0.8363097707981075  0.9968096275868727  0.6663928383119354
  0.6645070696896858  0.9990308073678811  0.6665057088526456
  0.0852599233929101  0.8343940964756880  0.0823024738350489
  0.7536662978349512  0.1577412965806999  0.7513661522210968
  0.7526459321088816  0.2404108431043752  0.8433997765964302
  0.6646766930479240  0.9976414183966057  0.8334492084960720
  0.6647271069208626  0.2361306538826038  0.9214790345059265
  0.7503013630374428  0.5956784811406622  0.6807536160354023
  0.7475839053253756  0.9952884743962757  0.2498770938011098
  0.6641330115702229  0.9965773652838295  0.3331325702236887
  0.5782445952792364  0.1545086250987558  0.5824285103891921
  0.7485465007007401  0.8343847175323481  0.4177180904352834
  0.7482722210675651  0.0774090611915043  0.3299105325386942
  0.6637196438461364  0.9968278367901350  0.4981305744710119
  0.7469989924571381  0.0765097905529017  0.4971326360796347
  0.6659980119718052  0.1644159768865094  0.4991480588335897
  0.5656825381227587  0.4325438365850783  0.8380159154618730
  0.5846012650449346  0.2521692335088505  0.3290599445079807
  0.5792430521468069  0.0803052805683631  0.3322643081660863
  0.1676570485235884  0.9981629292702499  0.8326229300201419
  0.1686175333038472  0.0805573406459586  0.5845873610356771
  0.5806864024393145  0.9997418670072762  0.5823602744750542
  0.5806525379364020  0.0809123221858837  0.4965793445303949
  0.6623979515873262  0.0773513845131470  0.2485155883943579
  0.4964141743797547  0.9983494330065052  0.6678163355747783
  0.4126144935254271  0.8331428639649950  0.9174688783058507
  0.4142317600714560  0.2477054098839642  0.3311165800890732
  0.4971885131082200  0.0798314288165446  0.0816567810280924
  0.5789250097547123  0.5016635027895322  0.2459701392787463
  0.6733605919002112  0.5946181991823262  0.6021646983706037
  0.5769473149559674  0.5867424892218029  0.1645447283457317
  0.4972400946333870  0.2494287329180868  0.4150265607989758
  0.2507455486356500  0.0813944021216158  0.9971584128571823
  0.4956395044332723  0.6673532957753732  0.3312652616711188
  0.5709555126121425  0.3503945500905259  0.7644424214712880
  0.0076966656849338  0.2403965693807515  0.5821958365970094
  0.6679537333600445  0.2966579741938379  0.5037974439780305
  0.7358888608769171  0.4123142212430150  0.4203774761026531
  0.6881476654335724  0.4110145726690604  0.6355635809006771
  0.6780225309123740  0.2442372728711227  0.4037214900842113
  0.8063035945112161  0.3277862988120228  0.7869171204148242
  0.7596967479248687  0.2368526309020893  0.4968605207356781
  0.9178314193909201  0.9148969306316878  0.1664828365132190
  0.6310119602565658  0.3236105732746343  0.6771659175751585
  0.2459823707921870  0.5838183073915091  0.4989148030494669
  0.8329614395656068  0.9943060035074951  0.1665782061187408
  0.8404810624071540  0.3292699792050394  0.0066213385416032
  0.8345347428248746  0.5047657320265241  0.0040838263186685
  0.6594214519253079  0.3284422375322812  0.1598926105669064
  0.0012356997238183  0.7542733972695501  0.5845354001555629
  0.8353709113662879  0.2394149990869875  0.2383977925892179
  0.7350642002127697  0.4124420875664274  0.1528624648855805
  0.7618717423339828  0.4262527700110724  0.3097790642841083
  0.0816044350507352  0.5839798018543266  0.5024917716539874
  0.8323600327977169  0.8347273395245766  0.1663711070884090
  0.0053992874462977  0.0762830136767395  0.4147780755798361
  0.7482919447317621  0.9974720407844483  0.4151246606238593
  0.1676065036655331  0.2476142546558041  0.7519875637513841
  0.0015259505261174  0.9152722350099005  0.2494700861946341
  0.8322927378917260  0.8333560471115319  0.3326902172709422
  0.8347530677882755  0.7577977784609354  0.7559243551772172
  0.0018405365549601  0.8344512761664200  0.3326445976397293
  0.0016519656339801  0.8355670261042758  0.5005110210811949
  0.9179984904380218  0.7553481485634823  0.8382058901152466
  0.5665237153998779  0.4227034574332763  0.0004359450596050
  0.0852488519631380  0.1630130172296384  0.7525203057215186
  0.0033357272099881  0.6698161115930976  0.0014912823369939
  0.0012838142160230  0.2451315188875474  0.7538812392726225
  0.8326456461699873  0.8357686804701921  0.0002999006377847
  0.9189940384198677  0.9968835560428769  0.7510234048661647
  0.9189014907127575  0.8344148791111670  0.0837099012236386
  0.5757022105055789  0.6692730682316268  0.4134540081158725
  0.5886258104586594  0.2564042071103940  0.8372915878278565
  0.1640975383696789  0.5825066882190660  0.5827324820667538
  0.2450304149373167  0.5841244648836201  0.6664245595099862
  0.1664234128202771  0.4984226455359917  0.5004215202976910
  0.2475685082865059  0.5851786566037193  0.8329920388895404
  0.1673081117173038  0.8337900145386843  0.6671314518641844
  0.0022484173203912  0.9153330327954934  0.0820971526365529
  0.0857588589144137  0.5009620856766132  0.0825160343581202
  0.9179475113971994  0.9161860589667333  0.8358016307495696
  0.0045137291502753  0.5015400995549669  0.0017376217698702
  0.9224545938753440  0.0758447611697271  0.4979231915165230
  0.7481665818647778  0.1548634823560687  0.0846337658696728
  0.8315998454134568  0.4161792974271220  0.0834113387325667
  0.9213811761231258  0.2435461830077153  0.0019750311652125
  0.9214802677043809  0.5028918077240753  0.0828423721161974
  0.0030074301896491  0.5862472352741315  0.0840776696252323
  0.9209725378206024  0.5872925741424029  0.0011204992351908
  0.9265852810857538  0.3120296484034268  0.2381009264949367
  0.0863680548843538  0.4143538984255885  0.1643463883737378
  0.9239942698927457  0.4129934228923103  0.1552614114881793
  0.9193911898539298  0.5881703953972571  0.1684971290475705
  0.9240540229259050  0.5062754406326673  0.9202568066588492
  0.1661378667366528  0.3283637790331392  0.3312117084014129
  0.8461881711844764  0.4024319588466006  0.4014468605943838
  0.0061705520002501  0.4101997121230842  0.2421423280854421
  0.0074788839458110  0.3260340020861804  0.1611741422835240
  0.0876107082782968  0.3296461394497975  0.0803578502797083
  0.8704413880957564  0.5000335166709129  0.5732394594099567
  0.8363930479716409  0.5887700879827434  0.9213478733888548
  0.9207587362185097  0.4246221208483982  0.8373912793230330
  0.9208818932660142  0.5889519576315823  0.8365964729169160
  0.8337594866814777  0.7543388812077118  0.0827736053173244
  0.0056548939155715  0.3306435344151538  0.0003295846797121
  0.5816168326484026  0.1662641740703045  0.4143602198398875
  0.5715110528681009  0.2338764261150779  0.6583411342802987
  0.5784670392494093  0.0787910221972501  0.6690620269076304
  0.4978612090990507  0.1652021397105498  0.8340658896790427
  0.2509146350781558  0.1634371713142764  0.5853610792662874
  0.4959092390173467  0.4155320841132863  0.2468800493149056
  0.4139702175215272  0.9160442663236364  0.3331615273956681
  0.3281910685567030  0.6683827177366016  0.8324490295522128
  0.4137906725459415  0.9160129778420127  0.9993879135667979
  0.6641309896920667  0.9176732929263041  0.7514120838195788
  0.2509692626095999  0.1627771560677241  0.2478529215258121