 B Cr Ni 
 1.0000000000000000
    21.1200000000000010    0.0000000000000000    0.0000000000000000
     0.0000000000000000   21.1200000000000010    0.0000000000000000
     0.0000000000000000    0.0000000000000000   21.1200000000000010
 B   Cr  Ni 
  35 259 605
Direct
  0.8262240712273350  0.5673361791044684  0.5074993970453759
  0.6644318186421090  0.4934657782529565  0.5779352890557261
  0.6559100096855555  0.2687034980502914  0.8266230729668691
  0.6010088918071634  0.3393655937995164  0.4869474465743551
  0.8389155390677006  0.4054883963549739  0.8367738073945572
  0.8299347916232642  0.2445872411492410  0.3515788454544463
  0.9092170068307427  0.0832880200510960  0.5894153129467946
  0.8965052805476531  0.4937305395519184  0.3581351527139432
  0.7394407638821814  0.5749112705634366  0.2609105432655199
  0.7576355278389284  0.1126939551062771  0.4042168912670961
  0.7493862467001023  0.4040068508466930  0.9204288350412384
  0.6206392377772432  0.4172208826355245  0.5815174449469247
  0.6583025732991861  0.2386831802405481  0.3562670949721187
  0.7546630809559017  0.3109665323268188  0.6998428735683050
  0.8880518991519153  0.3326199122017989  0.8343404734803874
  0.7506079161433294  0.2615219244338684  0.9155390604867071
  0.6286845259976912  0.3912753348325219  0.4127849647106973
  0.8384122344513983  0.2610014995491698  0.8310562365260523
  0.7580840579932707  0.4853584315022915  0.6527104643113670
  0.7814390903728681  0.5000629115178086  0.4732660883002259
  0.9712179225519022  0.3336710736764553  0.4159834006221203
  0.6717925697941505  0.6072199207731972  0.2993131771077826
  0.0039233856613584  0.2430378560598590  0.3317434308639970
  0.5059463662545184  0.4966595242236651  0.4271520612991469
  0.6560612857422136  0.3992599752381336  0.8331751873676705
  0.9319587057626080  0.4579900684309591  0.4261441273859252
  0.5802818743227748  0.5903515627527210  0.5621127568774262
  0.6696608240229067  0.7551278950252217  0.5008271261354202
  0.8519003092719962  0.4310852126823853  0.3106869886729415
  0.9351822701050414  0.5375777606940342  0.4199926450233905
  0.5818133027915994  0.6509993225072324  0.4991666747903865
  0.9152460945390243  0.4219859963632526  0.5620187990308217
  0.8258324715532007  0.3562788394533354  0.4305532375072025
  0.7487912834203534  0.3297478041839971  0.9684613438984507
  0.6701006872134398  0.4333269374258946  0.3539461218597578
  0.7482820476947200  0.0762662200753165  0.1650557955445978
  0.4949752793272972  0.6710347115753333  0.6660417671716958
  0.7518615029804551  0.5117785905137614  0.7533395790926910
  0.6750545838177545  0.4398880226501793  0.4919198412334734
  0.4958342917223521  0.9984781334302474  0.1656672561320928
  0.5777239091903364  0.5852657234233375  0.8331854990994219
  0.6476975719844156  0.5941659640852374  0.4027703545950577
  0.7486613453168102  0.8406643993277746  0.5874608384532345
  0.7536706350979619  0.5884612568308082  0.6726809684883009
  0.6529453047572338  0.5404795268957705  0.4942132510319500
  0.7499764775518284  0.1595957226809414  0.9173507135883209
  0.6629476416842495  0.1585972644296223  0.0009535372599667
  0.6605157548634814  0.5880044443190918  0.0862098680742562
  0.7447345505428237  0.6742266646846741  0.2488254558366007
  0.7481064850763740  0.7585550218940246  0.3300097935020936
  0.7510654057714524  0.6959919995906562  0.4176247076460655
  0.7481916627211241  0.8331925183995029  0.9173745483463734
  0.7490268939000412  0.6669777309577058  0.7536581939068273
  0.4134013429361700  0.9157381579544553  0.6666725730642935
  0.7489883486249347  0.8329039918911243  0.4181952025353605
  0.7570047102210562  0.6627689410706549  0.5888468172709336
  0.5756842824880266  0.5868352184109016  0.3187027699528530
  0.5987584965406677  0.4915059203897351  0.3977875682117531
  0.4848653692890688  0.5880110387387295  0.3923478429461791
  0.4957842371932315  0.4979222861428448  0.3260351622664594
  0.4918002999635609  0.5850178617283621  0.2491170359425459
  0.4909990503644833  0.4972354132979739  0.1627485690030920
  0.4914574594129914  0.5860229778203938  0.0794500909932995
  0.8342028868252389  0.9161077640017329  0.0813585894534585
  0.6534907813090041  0.3308025683705109  0.9991522158381312
  0.2503373057430212  0.8335100333922619  0.7502846026740515
  0.5838209627939150  0.3335575223721567  0.7590652316557337
  0.5657846910476740  0.4310273487938889  0.4909920444622550
  0.4926369339727531  0.3311831887834389  0.4989871497608858
  0.2465387238369134  0.6701863877046456  0.2502631092970701
  0.5772932424466198  0.7533966495923796  0.1636315963672159
  0.4117992994993679  0.4160928284445513  0.9972397696955809
  0.3298658572165938  0.5847849571038115  0.9167850752042213
  0.4957449711972582  0.0785749544406530  0.9168320619671916
  0.3315577480199463  0.9987706542502822  0.6682345713486136
  0.2508824112800761  0.9990452195160486  0.5859736456117934
  0.4147485951096292  0.9998656636568325  0.4157926290578790
  0.4141913385073761  0.0807454043515408  0.3332575961995466
  0.2482161291771431  0.9994952775103022  0.2480952897803844
  0.4947475052485754  0.1625587719373004  0.1631210316699997
  0.2497843354082174  0.9150532230198254  0.8343028915230194
  0.1677982404433115  0.7526423398435123  0.7519967478763375
  0.0847489334453131  0.9160414348947559  0.5014109566122515
  0.2492344658160751  0.8347163251765641  0.4177953525542176
  0.1667859629375146  0.6671603617551906  0.0010680802009390
  0.0842953406541930  0.7496843496666054  0.9988247273397667
  0.2502586943006532  0.6669893427962534  0.5831832253820918
  0.2466530210354205  0.8325824727775202  0.2477409812964960
  0.0118948527179745  0.1625602306918770  0.6750458800005926
  0.0850541354434549  0.9153482635377180  0.8346181352835527
  0.8358178297142975  0.0790496635900409  0.7543586834649925
  0.6601080480779601  0.1507983430501861  0.6659844473191013
  0.8450460599061428  0.0738775192384840  0.4167892386772023
  0.0060012260053786  0.5060575222062629  0.8368807373590059
  0.7498294992844259  0.5033391921430354  0.0902407266377954
  0.8374507706991360  0.5948544086941853  0.2445368087473979
  0.9178211186086285  0.9149234032961866  0.6710057932361597
  0.9211460717870790  0.7536536392362178  0.6712499403467603
  0.9181911838475604  0.9163756498388573  0.3334564502468063
  0.4946704287507704  0.0003411890896781  0.3321488385735188
  0.2485481900876022  0.8349786576345066  0.0823267207685523
  0.6588323428177898  0.0812324384967034  0.4156064732693907
  0.4139633837458833  0.8352367411129827  0.4164893124033306
  0.3303415743475749  0.5848926104851770  0.0826025932019463
  0.1697025508246372  0.8337874754421505  0.6679698829353919
  0.9187268134241720  0.8349392802551846  0.7520094029560662
  0.0844062251639613  0.2469602950846282  0.0023540849904296
  0.0829641061871041  0.9167576681790500  0.1656008614027865
  0.2477687548146863  0.5847131280052097  0.1670368629849845
  0.9975750849348733  0.5000015476842012  0.3402861512924336
  0.9216614655496169  0.5042750388502375  0.0839336403468399
  0.9183322133975365  0.9139485577078645  0.8350434978864266
  0.0842460136594429  0.5856965448098163  0.1691495109286799
  0.0016685003774821  0.8347867357731298  0.5013041628774524
  0.9971311387864573  0.4989485352042637  0.4974073471453369
  0.0010307475762332  0.9961409838888060  0.1644864229526186
  0.1685649114820217  0.0800469048225355  0.9170630423094240
  0.0019368508376102  0.0786859374933296  0.4160003751274828
  0.0903862218670737  0.3326666018995849  0.2480711322186784
  0.0842143485034860  0.9159180683563405  0.0003421012697745
  0.0840094482322513  0.5839116523223752  0.3347133129062830
  0.0027045892012276  0.6701192458589734  0.8362524275781099
  0.1671337337258937  0.1632858651249678  0.1658843601049188
  0.1682176249900276  0.3323515268708302  0.3330075797359807
  0.4164892083079624  0.9138870986495669  0.8334512304875358
  0.1649982229412673  0.2483365321791374  0.0827868317004055
  0.0035504660275120  0.2479804886280611  0.0848719705333089
  0.2510670277358836  0.5845582865633735  0.3338160377484550
  0.0020499344035239  0.1612040705741381  0.1651326985884133
  0.0862845661449561  0.4178890002836583  0.0001473373590686
  0.3298514465070393  0.9176409428935612  0.4170727719805600
  0.1680024689487161  0.0794607193595025  0.2482769316638309
  0.0146416114169145  0.3308521028126487  0.5092988736576398
  0.3292211764285769  0.2474077209867257  0.5840443755097313
  0.2505362305679151  0.1642882343575370  0.5859547497352859
  0.1693047116216722  0.5014150727390133  0.6678287119061211
  0.0868882278649611  0.6693588379810188  0.5839736556872500
  0.0863885567590083  0.9971482559371048  0.7531719554265346
  0.2502808869490317  0.3319613358164087  0.7530122536124355
  0.1665757357676089  0.4178608816840741  0.9179452797481629
  0.0025506050218834  0.8338627088972207  0.8351505890305534
  0.0021046285965743  0.8335053742457992  0.1655580742086832
  0.0843643381751066  0.1588446557991238  0.4175898072825079
  0.1670923202068628  0.4996756271647191  0.0011177600324271
  0.1668734405957564  0.4161360230476197  0.7528924323718745
  0.0014022357600831  0.3336739590493372  0.8385416620400619
  0.8344143745694285  0.5092134108100103  0.0067533821587479
  0.2515360263749008  0.9169540800137306  0.6662312022817153
  0.8327922878823397  0.7508068027238297  0.9161326427123861
  0.9187564093213906  0.8340428171149051  0.2504858077733431
  0.3311313692700326  0.5830021012474477  0.4154343123817453
  0.2472298030822053  0.7491591517419349  0.1660881700691366
  0.1642710259183005  0.7527316357081097  0.2525918591022557
  0.1648527141425392  0.6670652979527338  0.1654109937662787
  0.3304337631250368  0.8348236253308442  0.9998078835134983
  0.5794620721254329  0.7516351739789454  0.9984005048137500
  0.3291804192115160  0.9170560586937598  0.2486078845187059
  0.4955919516630967  0.8357390921682303  0.1642615374366216
  0.4915440715071785  0.2443869544216924  0.2433578323381188
  0.4959245284691531  0.0003703728763458  0.4988398505480698
  0.5797023371831501  0.9967630050423671  0.9173719719830972
  0.3308826767472498  0.2476024237048277  0.2484449116843628
  0.2482725616460372  0.3315694926384972  0.5854503053660454
  0.7487646434183947  0.5861190503320485  0.8365404595399104
  0.4938793281979574  0.5061073550113793  0.8344216752628357
  0.9178607823121678  0.8351477996069556  0.9160286243125122
  0.8110796498771422  0.5204151453765382  0.3121975891517555
  0.7479291440261002  0.8343182121604140  0.7508438714239094
  0.7532340424459318  0.5919885606789568  0.1572198910425994
  0.6631689529395306  0.9167106337528701  0.9170337730292450
  0.5797344774020359  0.7504942676681883  0.8335824216052526
  0.5782159065949941  0.9974686944123616  0.7508408306387034
  0.6625925186015426  0.3343985786927634  0.3249850989363127
  0.6604199342010252  0.4109139575710620  0.2406606113871886
  0.6573258526829848  0.4119867550493188  0.0760775142955583
  0.7488398246100944  0.9990574751408077  0.7530431215045754
  0.7438905485519439  0.2391980143281314  0.5171118349405053
  0.8448060554207216  0.1632584577220441  0.5287776303236803
  0.9195842424917464  0.6698727973921587  0.9176160293354572
  0.7466329207632035  0.2447925108228600  0.1607755691213569
  0.9196069479283525  0.9948731557146230  0.4173454439971967
  0.6585520376038634  0.2462229284906527  0.2436837055856027
  0.8410040082922903  0.3315041843935422  0.0087554645996713
  0.8351325596731648  0.1572668837574638  0.0029240925043449
  0.7481112173674651  0.0788567212128915  0.8340005284525891
  0.1688728939648963  0.6690290766411788  0.6672749253332246
  0.0870276425805265  0.5853119381482741  0.5020912440671812
  0.3306113539556508  0.4164033586654121  0.9175354931979894
  0.0080825988514448  0.5035292808196538  0.6708744523990966
  0.1684516609367728  0.7533352961700769  0.4178061662930517
  0.0885879242874000  0.3339345651610053  0.5864052952402299
  0.0838517710165096  0.3323005541566726  0.9189921085732068
  0.0856879872724400  0.6682699860471728  0.2525017312704313
  0.2474681702166350  0.4166999254938149  0.9996182840269786
  0.2511117684831455  0.9970405268566378  0.4176559152605079
  0.9183229501719142  0.5893634960129438  0.3319828061372712
  0.0853496909623131  0.7502126337488416  0.1659805109495934
  0.8417108813843195  0.5712401606700395  0.4085287189414213
  0.8478126428631925  0.5936853416848072  0.5980550978128346
  0.5719475954217027  0.5062868271776153  0.7503898360538294
  0.4123637250314844  0.7556087673517621  0.3324984920441018
  0.4921826976507418  0.7573252209990670  0.4140682492073668
  0.4959749491688355  0.6679706445662965  0.8322490545047500
  0.4134670839964833  0.0808972475812924  0.8345679606248726
  0.5805513639574428  0.9965074190702979  0.0801260787905133
  0.5764551159900363  0.4115048456899726  0.3210408006108513
  0.4120808922707411  0.0813295913195860  0.1642547206965014
  0.5704754045032028  0.2510651397531894  0.6694601605637793
  0.4959549992216545  0.7526170652864042  0.5853030365194896
  0.5817195874131845  0.6713314682212315  0.2451433484476771
  0.4127009415910627  0.7537881795875759  0.1651454389792842
  0.6645152105969810  0.6675148175576590  0.0014114075173611
  0.7499864955153612  0.5861604067106542  0.0029311162186607
  0.9252824217925602  0.5932640291894379  0.6748495934213909
  0.4086493712565221  0.3292992762769242  0.2445953113087939
  0.4969561547261179  0.8326379651594924  0.9990140456907760
  0.2515035221019889  0.9144364026099615  0.0012322499993645
  0.4115184459248495  0.6680842616920044  0.9178289717648492
  0.3312915923958016  0.7511403155063436  0.5837297413072534
  0.4962381700121891  0.2461848693991433  0.9171934552689067
  0.3302456774037215  0.7523572144781379  0.7510366748609607
  0.9223569969976433  0.6725220051051007  0.5868422277100620
  0.8363889196418819  0.7556202793437153  0.4200811956679029
  0.0034801672877138  0.7531617664570834  0.2506949668942045
  0.8343346965301512  0.7511222731684410  0.2496096545826007
  0.9200528831793080  0.6705541767023463  0.0817608154895013
  0.8363760957321965  0.7525093560995950  0.0802601681314485
  0.7482926399835101  0.5078062137761885  0.9228838233340865
  0.6600816743633634  0.0773215766390833  0.5847553927773292
  0.0862775836997411  0.3316667570168160  0.0848235730587956
  0.6639439909077218  0.0762474480969260  0.2412996100456049
  0.6619535848113022  0.8387490717038478  0.3314695025258425
  0.9301877592472563  0.4216475008484487  0.6698226523597700
  0.8328077200570255  0.2958235234242712  0.5150537405537021
  0.9151826779853613  0.4967819072648413  0.2566057118768476
  0.8340153292899706  0.3249625131415853  0.1543403092927219
  0.9216449595530859  0.3332624092710393  0.0841894560038762
  0.9302762159516514  0.2494965489346729  0.6737501636288877
  0.9319902488059708  0.2431107200105089  0.8365259092383606
  0.7478438160307292  0.9179233905918855  0.6686273607489355
  0.9270689735005667  0.2419906352410862  0.5084617603172512
  0.9231672509769007  0.3333296153559628  0.9258023919587969
  0.8434077581262581  0.2411381915372612  0.6041635376064758
  0.9169525308047308  0.1555483025611135  0.2424952141201522
  0.9160577504564249  0.3341095566924145  0.2468529859833172
  0.9179033304948250  0.0782189318586507  0.8335899860779014
  0.9197147586456585  0.9950273968697393  0.7541818887346662
  0.9206856606482333  0.6735123408560655  0.2495971255666095
  0.0022769298341901  0.2465829448668282  0.9211208781045591
  0.0849823829727551  0.9166982437660438  0.3343602368783337
  0.1685325381504542  0.0811140847351788  0.0828972987684625
  0.0077611932852817  0.1619740696673792  0.5036761617573252
  0.0852149360512978  0.0809964281848790  0.5028987543279004
  0.0028995413968211  0.0785386587785745  0.9174550902538267
  0.6636999191338282  0.9158172494041230  0.0777858214290422
  0.7496897302395044  0.7543004154283769  0.1662372106116209
  0.6568956842977756  0.4925459539282842  0.1489486526042863
  0.5771083806329982  0.9195431991658793  0.4991505976197168
  0.7482501810944906  0.9169919118210693  0.4996213547988760
  0.6648822891015918  0.9981676719564667  0.9987712379451693
  0.9189138806584712  0.9975324295340517  0.2481047004109702
  0.4953933745387047  0.9180416895615845  0.2474811469915232
  0.4944845256621541  0.1637658950415378  0.5003256805079215
  0.8347090072952452  0.2425864961340821  0.0825001263387319
  0.2477649657544002  0.1638401442706527  0.4163964601603770
  0.7508600822098274  0.9137880610852425  0.1630686652570640
  0.7513638662440006  0.8362252958645942  0.2482323881947702
  0.6645988451160714  0.9135833068344175  0.2483597471931936
  0.2507065762160186  0.6664788448152164  0.9169641196365744
  0.3311425036603625  0.1649199088400854  0.9976693136476908
  0.4127508361159641  0.6671676239191265  0.0803993811736286
  0.5762502507851683  0.3289360662853962  0.0791726637310050
  0.4146616076841298  0.0826278480028169  0.4990718737025550
  0.3314824968111116  0.5843317691949559  0.7512170073884326
  0.3268290534958626  0.5848487031456699  0.2470613032521699
  0.2495536480416607  0.4150978506013811  0.1663689275079645
  0.3304648018812047  0.6681659666544910  0.9990419145212736
  0.4122158722897505  0.4163478429439524  0.8346285023250689
  0.4959994824789368  0.3314693613218871  0.6694758510357302
  0.3303790605930738  0.5840119168500817  0.5829347297913772
  0.4050685768647453  0.5843548875129381  0.3273396667757191
  0.4116074296640049  0.4078027493849244  0.4989907548392563
  0.4076441737398501  0.4133467620137439  0.3266669640200980
  0.4126710985462737  0.3278794366927950  0.4144669295968494
  0.3286539218834718  0.4127824192330670  0.2482343512772731
  0.4109564812335798  0.4149856886398461  0.6697376502816903
  0.2470377709547791  0.3317023555061269  0.4159719483248230
  0.4967301281960181  0.8336323903880395  0.8335992316903851
  0.4123010101855972  0.3307162734257620  0.0796207719359264
  0.3298934993920558  0.2482294119417643  0.7509373636251443
  0.5879820731907672  0.1683227736947072  0.4126445945031303
  0.3314566067292126  0.2479524753073090  0.9174190362705572
  0.2492456654767543  0.0828531741538293  0.8354786975002826
  0.4957877677455921  0.2481365238577802  0.7495451453089228
  0.2502063939657416  0.4995027579057599  0.4164129345852742
  0.3311378317829832  0.0810788834659904  0.7520588208277146
  0.2485671904528641  0.5001870092250936  0.2492102582753499
  0.1674282106347540  0.6678490241551027  0.3349332820325584
  0.0845852909146200  0.7523980151649913  0.3353234911031275
  0.2500591704237031  0.6686992563087648  0.7503698059408059
  0.2482701746778011  0.6678308094198072  0.0826264886551785
  0.1691155155397215  0.3332288611700714  0.6699262330584080
  0.1675769807221287  0.9167444021242961  0.4181518723915585
  0.2482898129553254  0.9168807035146345  0.3327901619481590
  0.1661961750835994  0.7515309659498324  0.0821127843409665
  0.4141030128283092  0.9993160162060444  0.5836613851524861
  0.3299502448154474  0.1645953723949710  0.4998300848809286
  0.3306418818037002  0.6690968025376743  0.1652676707465212
  0.3316676968177132  0.0824414580257330  0.5837970184163045
  0.4134976142159795  0.8336544247519794  0.0820250353482867
  0.2481834681055604  0.5000423708807473  0.7520344455245338
  0.2481591221789003  0.5000467946300128  0.0837870242134910
  0.1668094950608946  0.8355834714208124  0.3346895589035422
  0.2491429752238200  0.4160186109878097  0.6689817605751649
  0.1649149450244135  0.8343052244246444  0.1655007755776368
  0.1670284577663094  0.5832525729115965  0.2521644324174015
  0.1686881194408100  0.5848348175665665  0.5844332019124839
  0.2501801855008806  0.5851149524413095  0.6681690269238288
  0.1682658595291463  0.5000995404951245  0.8350155652750270
  0.1699695365930666  0.5020661257194071  0.5010990758905139
  0.2493646594955874  0.5012712429792733  0.9164915958124709
  0.2491431458547490  0.5845886781624097  0.8328533752023898
  0.1672627374657368  0.9163875441032907  0.2491824447647980
  0.1682783636288491  0.7511845454420614  0.5839565890313808
  0.2484960096763769  0.7527439466950704  0.3334182407421117
  0.4126125210567689  0.0811584807996818  0.6674918246311912
  0.2482488455899915  0.9160280748323656  0.1653761050391551
  0.4132718888824394  0.1653914500297942  0.5844821558195289
  0.4122828677136690  0.1646657470703098  0.7512605907060830
  0.5480196401851570  0.5673077829769718  0.4766619193791540
  0.3312826852603160  0.9978827776982521  0.9991968212197693
  0.3314086823747162  0.0810551287851541  0.0811137618629928
  0.3316788584651969  0.0807290660326922  0.9160221161699168
  0.3307486978233404  0.0810233989586716  0.2494498285315126
  0.4124573259211754  0.9993396024501592  0.2483905905701105
  0.4142532679622303  0.9988609631722301  0.0822174207025097
  0.1677451109476005  0.9153947417578494  0.9178257041269863
  0.3314004742658438  0.7511796190528514  0.9170278780248287
  0.4902551709064051  0.5859056773890404  0.5854940343964842
  0.2493444816446032  0.9983856974724560  0.0819180775212694
  0.4136826038268941  0.9975182177939185  0.7513477726556950
  0.2492184732057343  0.4162522548047268  0.8349333037526947
  0.1663474388544136  0.5009474110518385  0.1677545888645229
  0.0858621520303032  0.3342432543779090  0.7542905104090836
  0.1687307391436356  0.6679009294627846  0.5005931739472317
  0.8328714789089668  0.0772861635081528  0.0831852968677653
  0.4140809054739099  0.7503304352155361  0.8338284712846898
  0.5709640467504973  0.5005769830951032  0.5847590506906084
  0.5759898651043703  0.1596213711774328  0.9166046342643024
  0.2486279780878202  0.2486839392839864  0.6684712546487472
  0.3303474031057325  0.2472960003910784  0.0802987642601825
  0.1688508724757034  0.4180663916809941  0.5857664749647263
  0.4134685457766859  0.2477526146122728  0.9983511730100102
  0.3307256065648298  0.1641114123485874  0.1647886279213525
  0.2489709632905337  0.4147021081695483  0.5007586873567467
  0.3298595019554945  0.4989063434197055  0.1652061849371919
  0.3306908180044611  0.0810525816493237  0.4170305558681686
  0.3305954269009518  0.9992470164087125  0.3327960599734616
  0.1662733377076873  0.5841786022307724  0.0841745294440253
  0.1677222232154778  0.9170259513755885  0.5846541923920279
  0.2503385593428130  0.8340092137077001  0.5845268398613025
  0.2496569707998121  0.9168197733332917  0.5017987804501871
  0.1683341465385890  0.9159193036471441  0.7514932093594644
  0.3316330721526590  0.9978096938630078  0.8336577371804270
  0.2503281767266349  0.9971515720575113  0.7520166098953432
  0.1669288986560969  0.3326454332302645  0.8360170170551696
  0.2486772167740486  0.5834208742255788  0.0011679889643228
  0.4134531317205847  0.2475640996064641  0.8344377865804178
  0.8360882140605865  0.6735421486140533  0.1634105410275069
  0.3307814025141962  0.7540767142407310  0.4161467762892813
  0.2497714611130077  0.1654066249926741  0.7528590936322023
  0.4133730889112368  0.7511336287472593  0.9995470223411701
  0.2473229933112853  0.2465573356793950  0.3328530009487525
  0.3309815493589813  0.6681323537055310  0.6667346327264088
  0.4104430442164442  0.6700488176096794  0.2472889531680882
  0.2487035045641188  0.4144163385671852  0.3327241499953911
  0.3300306857227579  0.6709781820324348  0.3323642846917903
  0.1680996602163649  0.2459580356398410  0.4181749899062208
  0.4118625501527390  0.6715562184986932  0.4136305810674820
  0.3298948906548984  0.4155606587835637  0.0809692552946388
  0.4121908191114328  0.8358066531397674  0.2484507690215931
  0.4107930379224994  0.5004008221963818  0.0816762801737574
  0.3302242539846872  0.3313908529344674  0.9988138585079691
  0.4096832948071727  0.4986382951273222  0.2465035858651039
  0.1668378572269331  0.4158221822545046  0.4172727523339152
  0.4946949990406255  0.7544249909744444  0.2459484327833898
  0.3289125217235720  0.2466854712517504  0.4165603781508510
  0.0859966882642698  0.8338319991697668  0.7517301379206701
  0.4136375196539437  0.9976242600045840  0.9159808594545941
  0.3290494999635429  0.3302531560297088  0.1630147652387007
  0.1680289305305190  0.3316391592738616  0.5018966454701959
  0.4128364135163691  0.1627287296585655  0.4157506933285554
  0.4114689633713147  0.2455328650045031  0.3307724956299402
  0.1682957411745447  0.5011707561948650  0.3340410707133795
  0.1690609398757021  0.1644008697417518  0.6694276252924203
  0.3289840989496717  0.3295909605932901  0.4996248297994979
  0.3305881159816373  0.1651952090096393  0.6684697595383897
  0.1682384390239776  0.2467073176823811  0.2481792281799510
  0.4921584208149173  0.5002663306895708  0.6685360717871106
  0.4133349466578259  0.1642172397379758  0.9164530842890294
  0.3322534172114678  0.8338958538769569  0.8341054212472552
  0.1660852129333496  0.9159603125024396  0.0820366928805873
  0.0853406149555897  0.8344854719241006  0.5839234530739137
  0.2494608475765723  0.8340687865527101  0.9171115581234149
  0.9181518329415279  0.7516457404485037  0.9985766856944150
  0.4132114796112776  0.7521946438857440  0.4999499064389834
  0.4110526895396593  0.4964384679689590  0.4134309837616308
  0.2504955850009712  0.7504674384677462  0.6667305851766442
  0.4114941059576959  0.5863323121614475  0.4972748237755615
  0.1675277238225262  0.7509667012631863  0.9179993097423119
  0.4123322636182933  0.1633818083675305  0.2474519028874695
  0.2500150807372756  0.7513422045258623  0.5007506525673983
  0.1677146755660306  0.5852625518203548  0.7499066166890086
  0.4107065522059238  0.5859522010958398  0.6684186019908075
  0.2505655169868082  0.7507299652996949  0.8337474221241962
  0.4115456201100481  0.6693129747414530  0.5833561976301830
  0.1691623172328195  0.6688821358453375  0.8343966706889973
  0.4118092082103925  0.5015302309088633  0.9161881692352158
  0.2490021937181403  0.7508534236389924  0.9999301219894082
  0.4123892463671825  0.5859400328506860  0.8332321381611617
  0.3310197008871397  0.5002654229644412  0.8335889390011773
  0.4125916015785658  0.1634375137565270  0.0808903098399956
  0.1686753139079435  0.2476306232204135  0.5852415043702653
  0.1676844217824569  0.8341105335787995  0.8347076524832746
  0.2484419008381622  0.3304977895226465  0.2488233674624139
  0.0892821416512125  0.2489392294422284  0.6707640474344129
  0.2499205851118783  0.6681855096374149  0.4165820663245542
  0.3328158167807093  0.4981080770324581  0.4995407534556971
  0.1683023747610677  0.1626777106511363  0.5012321378633231
  0.3305452390636081  0.7513417802947701  0.0821211696279779
  0.4114881065385586  0.5844002485898048  0.1650323916529339
  0.4131065039251167  0.5008910688583826  0.7516851077263418
  0.3316031482499092  0.6688330261586247  0.4989517016993871
  0.3281968302219883  0.5000776846361935  0.6711567036871096
  0.3292297838473801  0.4981467039667717  0.3315816116989222
  0.1683981518464892  0.1610834545391369  0.3326050100526637
  0.2477850195547605  0.2473767991371207  0.5012905533646348
  0.4129535410294306  0.7508501386824120  0.6668255357220821
  0.4055747188177679  0.4989997281339154  0.5920186188201950
  0.3298690273609153  0.1636509478915073  0.3328850627144940
  0.4125425108024280  0.6693990667532550  0.7502185898463973
  0.4117638991708388  0.5830280486726165  0.9983283055595508
  0.8350134517902353  0.8370717485138639  0.5036094561867340
  0.4938856791684298  0.2489565946422547  0.5836087902739312
  0.2483110107665364  0.2479264138668919  0.9993582267741004
  0.5803264220001103  0.9160286455809623  0.1641857499239513
  0.0056319268684410  0.2467393375931573  0.4221138848368375
  0.8339110531115493  0.0760289106880248  0.2444600475614070
  0.9218129419372494  0.6718121088177718  0.7546131916921094
  0.3318675161994922  0.8344308293939696  0.5001230152492682
  0.3331241672628777  0.9167243742518434  0.5830837869409486
  0.4144356516998509  0.8336631655772870  0.5838744283575817
  0.4145916803540993  0.9174750208162630  0.4999600984469539
  0.3318935894491232  0.8340967014688436  0.6667260943481755
  0.3325732766938582  0.9155594096835656  0.7510922957502686
  0.4118076517552398  0.9174154559459962  0.3323340182426534
  0.3311329222975848  0.6676710198414226  0.8340503324606978
  0.4143565189316758  0.9150856563757157  0.9993454992199056
  0.6637398818628191  0.9160406632383097  0.7521356342385396
  0.2491490105776890  0.1629981780396024  0.2483301601433230
  0.4139068010674772  0.8327342531780736  0.7498494261609598
  0.5793170414315247  0.0792632848084503  0.9995482221739801
  0.4134344808010246  0.9170146892136304  0.1651625718013055
  0.4953435007566342  0.0803859370633422  0.2466902928911935
  0.3323845802227109  0.9155921035826686  0.9162033297822775
  0.5798331092179551  0.9977385920279862  0.2468127920621615
  0.4997298550553390  0.0848085637465110  0.4155324312939795
  0.5790061651655387  0.9994317610727965  0.4151152273064009
  0.5792099001130575  0.0800963765356408  0.3298267220145243
  0.1686702453202334  0.9974264715909980  0.8352783130515462
  0.2500941744902960  0.0813630658078862  0.6682079275542955
  0.5780438936611698  0.9982299632396042  0.5836079990880285
  0.5774134179443638  0.0814892510472184  0.4996963673474438
  0.5788567897151384  0.0785459486807981  0.1634752710698132
  0.4947997795169298  0.9969602254349508  0.6677043927319585
  0.4148340588121139  0.8329219359221786  0.9164800791025434
  0.2485350828913170  0.2470344052852241  0.1650274118979622
  0.4958029296832532  0.0801101620894809  0.0814803868712454
  0.6683125381928781  0.5899450374414136  0.5936634157809515
  0.4934076166846928  0.2424125300662865  0.4152795910789667
  0.5728344129436673  0.2468792508446715  0.3251996437627357
  0.5824187695093587  0.6768552366152656  0.5898775240312923
  0.4950098923921752  0.1631352792006334  0.9984525010469983
  0.4111368829777648  0.2457914013171892  0.1624017918797187
  0.5785268728537020  0.1617263281507566  0.0817295703613166
  0.5773324091339096  0.2442727181229306  0.9985166466432379
  0.5780076190177251  0.2461499585841797  0.5031753532744579