# Initialize LAMMPS
units metal
dimension 3
boundary p p p
atom_style atomic

# Read data from POSCAR file
read_data POSCAR.data

# NOTE: This script can be modified for different pair styles 
# See in.elastic for more info.

# Define interatomic potentials
pair_style pfp_api v5.0.0 CRYSTAL_U0_PLUS_D3
pair_coeff * * species Mo N

fix 1 all box/relax iso 0.0

thermo_style custom step temp pe ke etotal vol
thermo 50

# Perform relaxation
min_style cg
minimize 1e-12 1e-12 7500 15000

variable etotal equal pe
print "${etotal}" file energy.txt

#write_data CONTCAR.data nocoeff
