Cr  H Ni 
 1.0000000000000000
    21.1200000000000010    0.0000000000000000    0.0000000000000000
     0.0000000000000000   21.1200000000000010    0.0000000000000000
     0.0000000000000000    0.0000000000000000   21.1200000000000010
 Cr  H   Ni 
 259  52 605
Direct
  0.9151811934633645  0.0004533978155065  0.0839496827003663
  0.8261021217303071  0.4166909787640459  0.0845329279311592
  0.0803063110046310  0.4996318541814714  0.7500540122333612
  0.9957683225000801  0.5843792506562371  0.7506172194131878
  0.8306666276170604  0.5859440410005413  0.5808260942219982
  0.1638820771473237  0.7511046077686846  0.5859226815150322
  0.9971604227585581  0.5840355236057344  0.5831891917141749
  0.8319159756900641  0.5846054382235705  0.7496699521061322
  0.7463999716195537  0.5003905293001850  0.9182403824563802
  0.7490440683844298  0.4176066169441565  0.3337902163899512
  0.8307445513852818  0.4166905769219729  0.7473022087887390
  0.8332845046212818  0.5844049746649416  0.0828877198149601
  0.8305329689968901  0.6655875955575233  0.5014925254313739
  0.9974263978024208  0.6706398418067776  0.1669551959345041
  0.7467103543709744  0.5008835980434745  0.5829058631318746
  0.9969771264231891  0.3345030264387557  0.6664000352641068
  0.0791075913550010  0.4986091709583307  0.9158036193999819
  0.8306059814448015  0.0827809934547752  0.4170927920231469
  0.2434871665947210  0.1644242783860902  0.9165702352872821
  0.9968304648355055  0.1664032596025596  0.5014812229669754
  0.0816587714209824  0.9986079117825188  0.4187988617737249
  0.9964366577427073  0.0812439584305577  0.9151720095247996
  0.2460981937673035  0.9986822260021778  0.5838726202125657
  0.0819631160535799  0.2506617932932020  0.9971020609478201
  0.9965165438017209  0.2495370154223671  0.0859914025055499
  0.0806932422561208  0.4990931017507483  0.0811861038677825
  0.8309601450798970  0.9156112422623630  0.4174869485038853
  0.7471382369229054  0.3334891845223469  0.5813453483128824
  0.2453062897669784  0.0819708993546695  0.8314930247373941
  0.0801153895082207  0.9154096092078630  0.1676876694656397
  0.9134586702955527  0.8346855361404422  0.7472717431592700
  0.9128057181380714  0.6675398418185677  0.9167285879733622
  0.9944437450431687  0.8358819402259295  0.9985198725689695
  0.9964403095926104  0.8335165737669060  0.6669456562579374
  0.8292877454993506  0.5851346287019338  0.2522678090265195
  0.2524143238392327  0.0822658492046110  0.3339459069388405
  0.9982618757520845  0.4135355105258204  0.2541790412330777
  0.9141201080344245  0.4994539506692349  0.4212356348350132
  0.7479142497904848  0.9174009121767472  0.6660818507909816
  0.2471467696206833  0.5828212950378673  0.3351243603993436
  0.4130051768092734  0.6690214886918496  0.7530021071599098
  0.6666725681359970  0.2493591999889072  0.9158695656829073
  0.4148018720523886  0.7517070144448872  0.8317464022465578
  0.2461912005635025  0.5839988657385844  0.6676724656641547
  0.3300502028265213  0.6651031313307769  0.5018970685707074
  0.5807863680615196  0.5828850127005095  0.8330429490778392
  0.4126993849739619  0.7510640476098713  0.6682409041247587
  0.4115574422913692  0.9175436227886077  0.9977232500686818
  0.3299910284973229  0.0823206211331241  0.0832546612095285
  0.1626351544073557  0.0001130647250939  0.0003102423798642
  0.2454823836508745  0.5007912005104682  0.7493754292312459
  0.3304349229423078  0.7494328357404297  0.4149761445391397
  0.3302118638118044  0.7498574479889984  0.0831092593551823
  0.3293506432908891  0.9158166341749273  0.9156839195384717
  0.3299621215006796  0.7506790667055531  0.2510978482354391
  0.4128709898153637  0.9145065678719706  0.1673807009155260
  0.9145448168551165  0.6656589743775200  0.7489557781176610
  0.3290556344435335  0.6680346081333656  0.8312949057226307
  0.3290732040304480  0.7515481129694275  0.9141059224034543
  0.9142917892549411  0.9151616588325920  0.6667952537163840
  0.4949597847370870  0.8356421796965424  0.3338877271671504
  0.2475645073591347  0.5838395532361288  0.1648261340029611
  0.2463635279516094  0.9175651789249563  0.8333969056355842
  0.4140989886484538  0.8335864114959581  0.5838961954055395
  0.2468314516747749  0.4162652051081179  0.5017740097985581
  0.1630802821454700  0.0823246024814997  0.7493956348387174
  0.7480414022600376  0.9183355904240653  0.0001764991385468
  0.0813496186733556  0.0808351410798864  0.3350005994668761
  0.7484300190594979  0.1657925505765542  0.5817422069400781
  0.9963565213161848  0.6642393180345174  0.8331545060442467
  0.1640224712930244  0.6673208254580061  0.9937700193353611
  0.0789753750050775  0.6686266191602874  0.9142801184654982
  0.9141476092549646  0.0829695529936931  0.6657744878364427
  0.0793858644125773  0.1669201354258829  0.5849283216244375
  0.7472559908112802  0.9205950882352985  0.1697864409583108
  0.6649865028660853  0.6680785074817617  0.8334676058784888
  0.9142898595922848  0.0014353784533571  0.9162176108696704
  0.6651725772051864  0.5063847011312936  0.6586072072512760
  0.4127244828246056  0.3336620966509601  0.0818850806469895
  0.0816071818902175  0.6684064795557931  0.4189513411830491
  0.9094408292084032  0.0831036780497653  0.3355487386470040
  0.8301116652177141  0.8342491910966865  0.4994102733378502
  0.7454913539280313  0.6679580224862151  0.9160462728799041
  0.8302555289649143  0.7476144905242214  0.0830296171361309
  0.0838742306402147  0.5001912338047398  0.2505163103080055
  0.9133405350608582  0.0823557159581524  0.8329188181303996
  0.0792408540877916  0.7508555036316861  0.1695117817026322
  0.9946416906430356  0.2495513316016351  0.9113889360854120
  0.9139316010170792  0.2492968045242062  0.8319828344520209
  0.9134505809813470  0.9997953168367569  0.2513852575993286
  0.1603798070330739  0.6687140185115017  0.1683081753833762
  0.8291627907216191  0.2499220267126024  0.0841820046585570
  0.1619553788642991  0.0817293992976679  0.0821219248569016
  0.8306231055394709  0.1651497337384505  0.1676251310086145
  0.6649985911514266  0.9997452957134811  0.8329031718246224
  0.8299702233658988  0.9991373102312058  0.5003988161247576
  0.6607845680058686  0.5011070179705643  0.8359117548909768
  0.6616430286385668  0.6683294658485733  0.5015631848880318
  0.1636174304058415  0.3325581586580063  0.9976864845843713
  0.9106448581551071  0.4176987061040120  0.9984870350774601
  0.0798974143449237  0.4138934063721140  0.9953870474696856
  0.9148307459053544  0.4174843417152481  0.5001084814819468
  0.1645671648970913  0.4171947421993794  0.5838341129024903
  0.9948161592604882  0.3350831648068031  0.8332203494958264
  0.8300562122041206  0.3343753727365264  0.6652376332948808
  0.9122867934882869  0.5841188179577079  0.9987986567822967
  0.0805473363930060  0.9154917060509057  0.8323048668366219
  0.9975299912702622  0.1650635941203018  0.6662306950877868
  0.5825556242200167  0.9972225893558764  0.0815474818658344
  0.5808949446306005  0.5845483425210506  0.3346837376721271
  0.9976496986852994  0.8323816648217094  0.5013325229753904
  0.7491265964201386  0.3345397693151088  0.2534495185007964
  0.0783292964926498  0.2513619705430467  0.8321292373122129
  0.7474172227492427  0.1652700710588486  0.7489050421112841
  0.5802991883645380  0.7516297448979264  0.6677655849097723
  0.9982849229953347  0.8344293949179969  0.3346231841083078
  0.6619433458784106  0.9141326252551224  0.4188720848860348
  0.8302826544410105  0.8336171046190597  0.3338535246615506
  0.9968961782327691  0.2495203579523484  0.2483737066339805
  0.9120419344317896  0.8361199431454501  0.9159516018606297
  0.7482581473062282  0.7495181367422377  0.6659617485399455
  0.0794610383953166  0.9986748931539756  0.5833056168030768
  0.0792298650897481  0.0827535457411913  0.0017474911495093
  0.8266250674262594  0.6649018994570930  0.3325794680938414
  0.8300800100435416  0.2495586756453240  0.4191787471314138
  0.7472191545630974  0.7481535731343021  0.8339782824381614
  0.9976357666493905  0.0817780498364410  0.0834932817966854
  0.8314607536248746  0.1652585028180809  0.4991706703516954
  0.4156835052058816  0.0846689097869051  0.8303016928062347
  0.0819275379451256  0.7490202570651883  0.8341283233395809
  0.4965484086252891  0.9165736408383043  0.5835652550096335
  0.0803071612677183  0.3350706993659014  0.9152563907898222
  0.0801995247222290  0.0830418612943653  0.1661187991265405
  0.3291706196051023  0.0827805107842469  0.2501561065174102
  0.4132378047310541  0.2491563124625124  0.8342611222921013
  0.6618178227183847  0.8328000112670360  0.5006340934502638
  0.5804267256750104  0.9177401615532195  0.6658216568748087
  0.6649343603819966  0.2479617060881099  0.7494506180475567
  0.8297882962680123  0.0830312634011871  0.0855850708809876
  0.5814528459092373  0.4179143904190435  0.8347849977790505
  0.4141149718003566  0.3358781100999150  0.7508700926748876
  0.6637922309929598  0.5003463076276594  0.1671769630318189
  0.1639070823192274  0.3318239246833912  0.1659434219739425
  0.6615060553364087  0.7499619990522297  0.2504136964242281
  0.8295092748440653  0.3330870040560411  0.3344980936122077
  0.7500976090046393  0.9980017074330344  0.2513733796445677
  0.4962258258840696  0.8333253026479190  0.1665970519500972
  0.9117666908913117  0.1663736422661140  0.4189816931076707
  0.4923691071166618  0.3318108554982440  0.6644597025619511
  0.5802885337220935  0.0816576343876908  0.5008847762456441
  0.4981062825485598  0.0820892736511684  0.7512677480836888
  0.6641580123609863  0.4168348972875594  0.0837039010779519
  0.7489351559743671  0.3332738243325234  0.9156486465744633
  0.1673958279561982  0.1691080365539249  0.3335776994341126
  0.9149247515299954  0.4140481924134943  0.3340889044698472
  0.7472283835956750  0.4173147068792127  0.4998434569684145
  0.6625495415011300  0.7501400385594650  0.4173669448013748
  0.2459001858750961  0.8320441663697884  0.5859257289484984
  0.8309320461040264  0.2491027327741770  0.7485320522789838
  0.5828588054007326  0.8341649987470124  0.7498568001810110
  0.0791085978317038  0.3330767938251886  0.5847529451794585
  0.9983281465996964  0.5872341939199467  0.2528527492327824
  0.4992398116486828  0.5009440211097853  0.8342857031816560
  0.5786209130007278  0.4166101097707769  0.5010292236180320
  0.0793842589633028  0.4173964389956860  0.8325201982727407
  0.4123493125124650  0.5856023635406864  0.1665819923708494
  0.0809367460014187  0.5010937046928091  0.4181416074987699
  0.4960269638175022  0.5856563453414135  0.5844706536881048
  0.4127688969702604  0.5016807575373989  0.4179214951737048
  0.5811385685510858  0.5847336372498775  0.0006708227143455
  0.2477038788260862  0.4169973818500821  0.3373031245094165
  0.0822523093433144  0.3332030547584818  0.4187185016060627
  0.6621663232282734  0.7506444453370674  0.0827194597435112
  0.3314451063676951  0.4163157583552351  0.0802845791762961
  0.5788448446014737  0.5852854693495521  0.5009298889450138
  0.5820664322803315  0.7512319937659393  0.8325609210750975
  0.6618888217938891  0.5865138186640568  0.5817876583407946
  0.4959319127435624  0.5020899795796214  0.1630970877041545
  0.3309148844475091  0.4208567158394900  0.9157136365645515
  0.4948920394389471  0.6663222170320832  0.1661780603216254
  0.5821986771491157  0.4149985932733038  0.0022405146495286
  0.5816998201211706  0.7504542243123453  0.0022959694572372
  0.3289228894769157  0.5013109243299207  0.3349263491306464
  0.6618524250085853  0.0819604813480676  0.4173562387532654
  0.5828209501543951  0.1665085169046032  0.7503106182472972
  0.5802706957239542  0.2488611905401380  0.4990832782544744
  0.5802677631729992  0.3349202972651059  0.0823464834174461
  0.5850139030842585  0.1654441400993546  0.9185566420275475
  0.6640298688209670  0.5023137258020974  0.3351908119127412
  0.5783609149731765  0.2496367036088458  0.1679272485128150
  0.2464598523742012  0.5880085015449703  0.9977418681617569
  0.7460407623564259  0.5008552834259686  0.4174336160170094
  0.4132079662752883  0.0813919894472817  0.0013759282542668
  0.6682766440892098  0.3291679222504131  0.6640604204432872
  0.7469865406682572  0.9982839876982782  0.5831011160876528
  0.7457690447219336  0.5841856689881727  0.3344242443719233
  0.5827274034018898  0.2505395799626537  0.0032388679784907
  0.3289821918993665  0.9992810800382249  0.6656733437414708
  0.4139304972855813  0.1650417023881303  0.5831018436535425
  0.4137104883047540  0.1682521256767260  0.4164780110921872
  0.4146027466820592  0.3330705618574368  0.5849321402924448
  0.1643318911746150  0.9994358204632783  0.5023839591365686
  0.4135899878751583  0.9150550294177292  0.5018533595468561
  0.5800151957617481  0.9982467964032290  0.5834934430521748
  0.3303510105888173  0.9980821295966580  0.3331080303333611
  0.3288971436193110  0.9169061670893309  0.4184247542429536
  0.4960602544868943  0.1673549688462668  0.3335725289572626
  0.2449708879902731  0.1663525389459780  0.5831799329292393
  0.1628867911686326  0.2496110943670327  0.7508874744065568
  0.4975340512202632  0.0824085861669707  0.5831374460593000
  0.4114289202883973  0.2509266514402804  0.1678680970006512
  0.4119028374873946  0.9992824454244141  0.2496091734276467
  0.3310075968023928  0.3331299868860893  0.5015356111603436
  0.2492844619607358  0.9172005204240895  0.3354984362861240
  0.4132221117404831  0.8325621425965988  0.9136093331530174
  0.2470354046312573  0.2496925976302554  0.3337229480917152
  0.3302485802008992  0.5843756532977321  0.0836522988381548
  0.2455674974590875  0.7504205677477086  0.6650686820587356
  0.6633272317346771  0.1644612132864153  0.1653978171975891
  0.5814239181291891  0.9164386031448444  0.9996266562290981
  0.4955969269984258  0.0853612891969744  0.0821948691944691
  0.7480488982003609  0.0837764954438031  0.0003424269445132
  0.5758646973110801  0.9960286047918778  0.2506636233404357
  0.5793035773558156  0.9161102563616343  0.4992859401402542
  0.1617731803433403  0.6672455629432728  0.8324744467484700
  0.4115674245997338  0.5827377886913269  0.3358787966318936
  0.3301246261598376  0.2495978336972079  0.2498501033976023
  0.5772300294491325  0.1701410242722981  0.2513477714639681
  0.2459755774366180  0.2480050725112463  0.9973681531393624
  0.4138737761571092  0.6673183725768093  0.0831936174881673
  0.2468918488459978  0.2483559388640100  0.8332118131536180
  0.6622019028063928  0.2501531567273760  0.4180748186382309
  0.5003825276088294  0.9993202772165450  0.8332404323859001
  0.4101754536318230  0.3305087220634624  0.2484292141994645
  0.5783644865854189  0.2492377090342816  0.3330384144812578
  0.8290902916658979  0.2497736038342322  0.9154689416090829
  0.3300692945106027  0.5008923614669577  0.5016668572783523
  0.4954764572185243  0.2482310262505510  0.5822874146201379
  0.1639072549318326  0.5835260372392236  0.5844369758275991
  0.1599854010913618  0.4172709543535897  0.2512783349470938
  0.1631810038574677  0.1662977931821399  0.5021492153821699
  0.1634678456665476  0.8359171319182659  0.9991160210754951
  0.8296446503899598  0.9171079992474284  0.9150165414642293
  0.7485510216829244  0.3325623797123250  0.0843950071803455
  0.4122004177952244  0.4147743654796248  0.0010027108744292
  0.3284309952034500  0.2479133979567980  0.9142521010931359
  0.4139723232588513  0.6693398268263882  0.9146555012974600
  0.2461485535608687  0.9150488889802648  0.1660917669536387
  0.1625973990031437  0.4171079238057553  0.7498870609993926
  0.1618550811748455  0.7470212971551536  0.4184365148731718
  0.4116577079728334  0.9165848993643808  0.3336594806960251
  0.4144496393834285  0.5020126293004921  0.5842617632467748
  0.4125531733920019  0.3335538326330849  0.4172706334182846
  0.3327306748492201  0.5034829000369698  0.1650070093147680
  0.4111379511415790  0.2505485793948731  0.9997393834609988
  0.0792988387476753  0.9176509952681349  0.6655614968595633
  0.4947410018025080  0.5020243246660524  0.6648633409803826
  0.4137240244551444  0.5017200537163069  0.7488738684181274
  0.4149630537091469  0.1606188686136981  0.7506504489693157
  0.6600740701539825  0.4138263510820417  0.3351979517205847
  0.0780546596020961  0.7529982116721829  0.0788385515740246
  0.4133339338748785  0.2486569503974344  0.7482106194624046
  0.3299931404426326  0.7524216593732974  0.5033333588573228
  0.4130880183022573  0.4203316990445702  0.2503112384740603
  0.1624915643574531  0.8368139086829531  0.4171705312625127
  0.9139193353411317  0.5024908129657356  0.3324539037832084
  0.4960324742209318  0.7458529104108045  0.3344762037026878
  0.6634215470965905  0.9993323383290104  0.2513827207984641
  0.2461924911148067  0.4975606504210654  0.9967162286412596
  0.9947321129298251  0.2494087359968620  0.9986888411664319
  0.9952858974574741  0.0827474082019614  0.3353216145140622
  0.2484401030876051  0.4159604537126144  0.2483976697388008
  0.9957528598208313  0.5819699129452460  0.1639397735915788
  0.4148459089628941  0.5049230255327902  0.9978807773004897
  0.6632154763457290  0.4176216745168057  0.6652690142256307
  0.6668649998297884  0.2528400521999916  0.1687658363995646
  0.9965634359220844  0.2502364330288845  0.3392949247820983
  0.2488189794739642  0.6729572955641904  0.1681856244659764
  0.5792690467329760  0.2524759426712181  0.9151819704057514
  0.7425570010687894  0.5849293356219426  0.0832337597070450
  0.7462131559374677  0.8294493342329643  0.1687751182645774
  0.9174075876426825  0.6680191831558544  0.3350592624574297
  0.4134024080400550  0.0791174322208208  0.4174139062551458
  0.5797520877338999  0.0832820571838324  0.2503251461040488
  0.6655084623870852  0.5013590547427887  0.7480917081113971
  0.8310129769095291  0.8384697919499901  0.0840271257552777
  0.4119699933856582  0.9964457592032040  0.8319150258855285
  0.1642705520694478  0.6687014604844286  0.2567571065394472
  0.0788412237433893  0.1689329798378495  0.3333359442586422
  0.4135882926715315  0.8299829493336053  0.0022773359074404
  0.1637416254087202  0.6695141920531549  0.0813023477454878
  0.5791751823278599  0.4165206307486973  0.2513044842448615
  0.1665040086695993  0.0819413111147554  0.3334900156290843
  0.9935647849587517  0.7530034544236672  0.8327442332226932
  0.7495703472398856  0.4996687624359696  0.8292755289498192
  0.4953772935603497  0.1667959346504447  0.9176529198525577
  0.0790512911636743  0.5889943103415975  0.0805732075129474
  0.2444292374880652  0.4963557953487849  0.1646047408684159
  0.4965033410447670  0.5002888676094970  0.2546761826178107
  0.5798232610542893  0.4164210068107033  0.7454632633090224
  0.9955718915300992  0.4159377029533221  0.1638475243908986
  0.9140079229306097  0.8335424667997151  0.1678763531531098
  0.3275953902169154  0.2490530557880526  0.6669217333364234
  0.9143266050277442  0.4156925998022878  0.0865717762060773
  0.9962992425859671  0.4996658415673945  0.2504255094491654
  0.3300502169279814  0.3343303229829504  0.9140571336269417
  0.6662794797298156  0.1665246223950944  0.2542401180523585
  0.4937807071354124  0.9968683577616084  0.0823810522001134
  0.5802445871495717  0.3321787822158545  0.6649929611290293
  0.3311584762198692  0.1610156230077761  0.9172370334654865
  0.0807742953048071  0.4108211654855709  0.0844007359430600
  0.4123255891008498  0.1664451120930114  0.2497696898426205
  0.3288825400602266  0.0829069769401194  0.4180063101725548
  0.4129729444127224  0.0832301136726146  0.5024935818748920
  0.3300205485581229  0.2499395867580322  0.4175670068495104
  0.3289757878602779  0.0819207111221017  0.7494657091171539
  0.3296831059993235  0.9991904780711701  0.5021443842584482
  0.3291904865739308  0.0830889975792015  0.5838015169912173
  0.3308307258404625  0.2491918261279015  0.5828828636083738
  0.3302654701518675  0.1650993831558828  0.0015053522683865
  0.4122920864730823  0.1672178333663811  0.0827337985522128
  0.2469544062209677  0.1663930532220200  0.2488164906927992
  0.1615608922461611  0.1660598247528112  0.9993541472690035
  0.4136952006925368  0.0827726492013759  0.6662554355553159
  0.4130379337833890  0.9993083475990399  0.7485784510000451
  0.3301214585307013  0.1671295549227857  0.3333121346119285
  0.4951498467023049  0.3328757320290288  0.5001384427846940
  0.4961564518790710  0.5841938875887008  0.2506660731323125
  0.3302096672501365  0.5009270704994002  0.6671933113464340
  0.3295247547231830  0.1638102683468338  0.8314712356614644
  0.4962027762061252  0.6639228671408032  0.3339652493395034
  0.3294855754786959  0.0798585406212631  0.9160468784676363
  0.1640739908098842  0.4998088845046350  0.3358102679788212
  0.2472885253579329  0.4150827173080046  0.9985163682557148
  0.3291603606752900  0.5840177522667463  0.4187246844364269
  0.4964244649209186  0.9987929353598611  0.9984565611897177
  0.4966782153561294  0.5840675495436013  0.4181195912786487
  0.2472667436671098  0.3319160682917143  0.2502433600817368
  0.4126908989151889  0.4168720950266088  0.5012185604232654
  0.4129778918415885  0.4171567011272967  0.1639155635130749
  0.3307044954557355  0.5843541902534444  0.5852394337170482
  0.3299583072711810  0.3332489227387125  0.3348906323455707
  0.4123111947243979  0.5855022045425612  0.6681094784700010
  0.4133631078497538  0.2473407161657559  0.6656989412086657
  0.4125404231575359  0.6663131948397711  0.4173608616485396
  0.3298614032025916  0.5844645921581784  0.7499437853984283
  0.2457617304831465  0.9992202721594512  0.7496488984517762
  0.4953791845702738  0.2510827212178774  0.9172855685846291
  0.2468774765089073  0.9159214700824857  0.5018345648739310
  0.4143725668223978  0.4184945609970036  0.8324784881763571
  0.3306058331551333  0.5019137131105423  0.9995798209720014
  0.2484533460237289  0.6670118333518630  0.2522985183996080
  0.2462276059969612  0.9164839309520227  0.6658634456255227
  0.4132726515424023  0.5880503361858478  0.9990880008795167
  0.4142101979342959  0.5013468430975174  0.0824251665533717
  0.3297933842764135  0.5839435698699029  0.2505781473175658
  0.4121460582683826  0.4174489691981841  0.3365431039848168
  0.1638770902681864  0.8325857685983289  0.5026335237536783
  0.4145581901442309  0.5015457013675817  0.9149429501159064
  0.1645206318856407  0.8337594550982665  0.3338196906452889
  0.3294675974693800  0.9990715176567794  0.1667023262424390
  0.1632518377348067  0.8345462114383885  0.1675930774665071
  0.2462461993035399  0.8346171547472377  0.9154533899277938
  0.3305126221904996  0.4173959395411511  0.5841612051959838
  0.2469539970280235  0.2500404547944133  0.5018980183635207
  0.3304762195195901  0.4171355068192025  0.4186680929317616
  0.3288293042076459  0.2485992345365507  0.7520720248638408
  0.3289724229223190  0.9996237933108312  0.9999789637852008
  0.6644258155733770  0.2508056373578197  0.0833539508038996
  0.1628614334233694  0.7521985336457430  0.2512828917289449
  0.4955615850487574  0.9984869663749260  0.1669808973551924
  0.5809938492547716  0.0828441458271728  0.0012923248562765
  0.0795126540797612  0.7526798425467133  0.9958350476706160
  0.4946668557911864  0.0825864948810197  0.2498646703890353
  0.4130485949822862  0.9142884519066967  0.8332186512026574
  0.2483558710778785  0.8322996172907307  0.4174169495498375
  0.3278672674238466  0.9993673400642797  0.8324353837550204
  0.4117815992571286  0.5031009822165798  0.2510111409417548
  0.3306606003618121  0.3344352619310184  0.6677497532574064
  0.1633957977619503  0.9992815798451695  0.6658240997249909
  0.2452164592887896  0.8337428745698767  0.7493941670700642
  0.1625045555848025  0.9171557192673279  0.7495520962584172
  0.3311173318728720  0.5014012495873398  0.8319946763879812
  0.1639748237777163  0.7523010546433553  0.9158095430916365
  0.1632112222542355  0.9158562656153129  0.5841222473746059
  0.3299185805455451  0.8339280262871882  0.6672566938089262
  0.2471044385531047  0.8336263491634414  0.2511571514048908
  0.4127753461396106  0.6667024542627150  0.2506647726589679
  0.2461369689519182  0.8338746851008036  0.0827665880683498
  0.2471901015177192  0.7496838755816276  0.3353758138793233
  0.1629429134356727  0.9168329426106289  0.9153910698544667
  0.4134680668733092  0.5844679329496203  0.5008863118278736
  0.2460836252691103  0.6682546360600784  0.9144105749613445
  0.2461415646029513  0.7508713877318741  0.9983260283469295
  0.3299115701322064  0.7503315566648578  0.5867780727363884
  0.4136298301990727  0.6681564491680965  0.5847892962967464
  0.4136495070683118  0.7504352822784001  0.5010446463010522
  0.2461838978103694  0.6669442983005173  0.5848937312407220
  0.4138574155365478  0.8332067846111461  0.7495473587041058
  0.4144825156753715  0.5848071169712440  0.8324551584577443
  0.3303160364970493  0.9157996373406386  0.5839855742133574
  0.3313102645832451  0.6680132570044041  0.1673645896479694
  0.1624145911563587  0.7507025297108795  0.7491210463261316
  0.3289381970659551  0.9162994967180496  0.7493440091386185
  0.3293577183675617  0.8340196894837952  0.5013066133937871
  0.4139408367447587  0.9164168605332091  0.6657739474191816
  0.5800147643395474  0.5016300667302591  0.4185466515248681
  0.1629700589262223  0.8346286343351152  0.8319592070489360
  0.7468389542310249  0.2494263702424941  0.3356017578533663
  0.3297093378077565  0.9157206825870924  0.0834894476670743
  0.3286121235579308  0.8328327135258992  0.9995206512076559
  0.2454622121046712  0.6675992199285783  0.7491815968261101
  0.4127943249365291  0.8323859789011973  0.0850033465314468
  0.4124631457393118  0.8334308391042420  0.2503102695437332
  0.3299335501554275  0.8333866726167688  0.1668641015030130
  0.4124982660232516  0.0827186482057808  0.3323002753196421
  0.1638318375153028  0.9165817453338280  0.2504530694209243
  0.4112843491734529  0.7500434519924973  0.3334941597333252
  0.0798741599293872  0.5834169757569665  0.6665636328021437
  0.3292560236103007  0.9153135558987542  0.2496990018148902
  0.2450863914350478  0.7494701499854627  0.5017365048318175
  0.3305540126440107  0.5861276155546733  0.9142145101491427
  0.4130571337671748  0.9970376302020856  0.4176377544208901
  0.5795233817606537  0.9985767924481999  0.4176677464843099
  0.3298029187739792  0.8341001920789952  0.3341510460117871
  0.4966996094034293  0.3327899166570847  0.9996282866049321
  0.1638273133512838  0.6662645240242558  0.3375581422017882
  0.4106478123072924  0.9986579684977404  0.0835566414513219
  0.2467644011548898  0.7531155573753729  0.1667685572251313
  0.2463483871402773  0.9987400334535713  0.0834340887040371
  0.0791625930439333  0.6678305069539354  0.2519543822755673
  0.4968378070595615  0.3333746515465832  0.8332072839452834
  0.3296988804956701  0.6685709325579535  0.9982071505307303
  0.4128100306571754  0.0832299428727767  0.1657516586238045
  0.2481684549412874  0.6687226501180881  0.0817226198327662
  0.4976987941267513  0.4166998934629598  0.9167453837925240
  0.1632580014863084  0.7531416053310691  0.0817255736225732
  0.3298052309595076  0.1662508412675739  0.1654835826090336
  0.4974563743355048  0.0828598950228306  0.4168884383339067
  0.3290125787793568  0.3337955901957610  0.1645166899809608
  0.1637352334746959  0.6670889218544237  0.5019245438481564
  0.3299444971634260  0.6681979323594269  0.6679658806063730
  0.4131106504752575  0.7481461242179700  0.9984377272898298
  0.4129959714538997  0.9988728916843173  0.9172999126728126
  0.1627111105735985  0.5840249021143653  0.9145075922886133
  0.5786493958733583  0.0827428213707746  0.3349706651672464
  0.4961080437916491  0.9994744943234530  0.4998020723187764
  0.4138136228872053  0.9994270432694983  0.5836038463615258
  0.5814267293744183  0.9992002162819265  0.7497820798460685
  0.6633448870442452  0.1651439556271607  0.4997490497327496
  0.1630368826889548  0.5003707621648666  0.6666630737931942
  0.1632430577113431  0.5009641806505477  0.8327497693136925
  0.2465354923315904  0.5836281288982127  0.8321327462812144
  0.5807049263654813  0.0827396027526832  0.6664244160108805
  0.4963589422105599  0.1672606341793126  0.0016030750570232
  0.4986638216957461  0.8331518814515352  0.9994955483604175
  0.5802383687051663  0.1671320707453816  0.0835817579146577
  0.6631232957014939  0.5840550451804364  0.9173080900808966
  0.2473958214666185  0.5012433027498956  0.9144484916824557
  0.4132789742871098  0.7502865030231676  0.1672867442710714
  0.5822402318558502  0.9169768762600201  0.8326361745895712
  0.1635657691909286  0.4999812020690670  0.5013788790816953
  0.2469599330747609  0.5012070503679270  0.5845104995711473
  0.4123048324919514  0.2501840871178675  0.3336289334545296
  0.1635770106250869  0.3336902384254117  0.5013473631106617
  0.4952447302481415  0.3323886851699761  0.3344490124464312
  0.4965989301915619  0.1661316000843103  0.4990998184208578
  0.4132731269739109  0.2492911565485781  0.5004214219412491
  0.5797035899099526  0.1654401273187091  0.5819286691672443
  0.2474662327903664  0.5004502336515015  0.4188908488788579
  0.4978047843633425  0.1650913969089530  0.6662108235574861
  0.1639079796175089  0.5831656523417494  0.4187354685456591
  0.5821196340815152  0.2494783938710144  0.8311722892423183
  0.6641276403843740  0.2487827762774552  0.5820412851454655
  0.4134640233390930  0.1641343558854584  0.9165835732351022
  0.4993069503577474  0.1666106308784454  0.8332386852273813
  0.4982493521440461  0.2481725841264986  0.7494823919160862
  0.4958019579534256  0.3331344193034136  0.1655548152968655
  0.5794028371697584  0.6676576114093498  0.4171872270804178
  0.2466661942203240  0.5839637931844768  0.5022850878714181
  0.1614397938664370  0.4998041777270146  0.9978420564993122
  0.5813707325375292  0.3351112812227444  0.9177210632955233
  0.4969056391529103  0.4163549719429498  0.0822434862002468
  0.4955535964649367  0.4158916357097818  0.2500292138723195
  0.4944090427006209  0.2516448473063975  0.2498479469513550
  0.2463783079329937  0.5014040774647096  0.2514717704270184
  0.1636380827510002  0.5823170513330626  0.2512831758266703