Cr  H Ni 
 1.0000000000000000
    21.1200000000000010    0.0000000000000000    0.0000000000000000
     0.0000000000000000   21.1200000000000010    0.0000000000000000
     0.0000000000000000    0.0000000000000000   21.1200000000000010
 Cr  H   Ni 
 259  52 605
Direct
  0.9133175574350251  0.0007106562566358  0.0837235255207139
  0.9137706470321270  0.8337391012081629  0.7482932322030592
  0.9977858117795055  0.5834771377822099  0.5792719093390301
  0.8326969036888134  0.5003191092386392  0.1659430456832319
  0.7432961038984178  0.5030012503839193  0.9164189971139989
  0.9956015624031784  0.5845687060033840  0.7548400834105633
  0.9138604785539782  0.4180196637025376  0.6655089455904624
  0.1656812285654862  0.7510431783766894  0.5899871886994331
  0.8308482022362415  0.6649188400639933  0.5008482965585371
  0.8314598446578291  0.5847055416645418  0.7502970377774689
  0.7502345154312168  0.5011845089749165  0.5823177537944810
  0.7466797494614168  0.4174208572933029  0.3327009619841395
  0.9129496555468902  0.4173739957745437  0.8343439543817820
  0.8315363636921148  0.5829541452735292  0.0869524094118782
  0.8300644315556690  0.5846457853217506  0.5817956642334889
  0.9154079562381268  0.6665441446643973  0.2500854127818604
  0.9967408464143167  0.3356780376318278  0.6677151452199008
  0.9953279039568288  0.0819888640714216  0.9156295022756856
  0.0802941397481191  0.4983157078673853  0.9177327444217575
  0.0794636089558011  0.2509920502728091  0.9971260122678213
  0.2467153057311224  0.1659600927596811  0.9170267316775003
  0.0807151632916650  0.4961731090153428  0.0833039481637668
  0.0788360006343666  0.9956377018268376  0.4164732359245455
  0.7474043747194424  0.3374157155790470  0.5809011791137236
  0.2478790111972803  0.9994250984991704  0.5854761324840108
  0.0832453205765979  0.9154020880971082  0.1673095144538944
  0.9962908008084396  0.2518013302212418  0.0829144699799977
  0.9168365826509388  0.9993508813483599  0.4171488548822820
  0.8305916627459560  0.9137395729079466  0.4170336362251489
  0.9966457950589193  0.1666261726683894  0.5012079568293066
  0.9146449396758587  0.6679161986555321  0.9170102997184999
  0.2464150232320569  0.0834152796832990  0.8320538166242254
  0.9954970159808080  0.8345803592011894  0.9993605397511047
  0.4125012536373731  0.7504982562345911  0.8337340416567066
  0.4127877673635581  0.7507724356471525  0.6678348952343833
  0.5814465545032318  0.5847928622752195  0.8324391733956872
  0.1656850454652348  0.0007863506936097  0.0001903655391585
  0.3296910723748723  0.0832200296359103  0.0828364121778892
  0.3290980098464135  0.7504940146493907  0.0835103468948788
  0.3303056239657328  0.7477940557191082  0.4165549779597318
  0.4144400111548234  0.9153640809043033  0.1649914166417807
  0.3298065858844614  0.7501999191334763  0.2496223286724164
  0.3289206154569440  0.7506784207589419  0.9146564264083142
  0.4126995346589726  0.6689804977552557  0.9163763518114485
  0.4146379717315803  0.9161171205420886  0.9990780019983077
  0.2489520200074834  0.5857656505649177  0.1642728334467344
  0.4943013027889732  0.8375508837905071  0.3336228058825515
  0.2459242743347269  0.4995877196659422  0.7495901298458773
  0.4129481017193284  0.8330064170063822  0.5847007458119039
  0.9980588153042118  0.7517261591127795  0.5833704971331456
  0.0795218442561304  0.7515658218894088  0.8337816032437633
  0.8328691809866003  0.5822747598488880  0.2501461202298716
  0.2499076626376054  0.0839037641399606  0.3335610754744555
  0.9142288340930945  0.9154483180126260  0.6674059285434014
  0.1605285649936530  0.4978892355683892  0.1677879051322267
  0.9146333909268460  0.5851220068786689  0.3323600817873780
  0.2470820468332972  0.9182882895590739  0.8342051947560446
  0.7476585681427265  0.9166935410842056  0.6657255084395153
  0.1598690066551753  0.5003156866934690  0.3321541739927905
  0.2475765842354964  0.4168169786160561  0.5003480282397107
  0.4129121519849213  0.6686746781461131  0.7510902755678140
  0.6648668589670477  0.0845644715822861  0.9157773761822308
  0.3297427293487906  0.9166562365025996  0.9129601816230991
  0.2463380834371191  0.5833727090607618  0.6667043872641958
  0.9151617939866019  0.6666433555663112  0.7496319581306126
  0.0805962701745966  0.4144932169098934  0.0000464564883133
  0.1646681553489274  0.6677395294048464  0.9986492565752938
  0.9969927423827852  0.2507092424591106  0.2494646711589801
  0.7458795595483843  0.6683933799788854  0.9162423594040913
  0.0795192779059462  0.1638282939159761  0.5852312193156975
  0.0806924577785960  0.6672257007744798  0.9184771482351720
  0.6650040267922400  0.8296667024980350  0.8337164628877233
  0.9144281278034471  0.0004936338299696  0.9169313951060227
  0.7455074434395732  0.9207725900077028  0.1678474845240409
  0.8279960848661766  0.8342754809260179  0.5002282251772708
  0.0825786143752369  0.6679485526768532  0.4172177610542547
  0.6689614633435466  0.5011832183972201  0.6670318149569402
  0.8311728459403377  0.9991291064986351  0.5023386312181076
  0.7492426844031705  0.1623638679687373  0.5829463759796225
  0.9963350463595216  0.2478026084815161  0.4179389567771549
  0.9981814380257137  0.0826112436836663  0.2490418866865535
  0.0780997120175330  0.2524124473879272  0.8355895150081342
  0.6624293740812206  0.6684226004611725  0.4990933519383209
  0.9159583859151297  0.2508420231268607  0.8349229892317321
  0.8314386379824473  0.1670430623460655  0.0003066381909896
  0.0768085083660943  0.6678602979691741  0.2483195198205985
  0.9975464166447016  0.9151181443579253  0.2523448953239686
  0.8317010256613395  0.7502853561703363  0.0830217958242749
  0.8306707053574657  0.1661853220466078  0.1666848459166690
  0.0791667693371472  0.7500676234572883  0.1664752756626915
  0.9141367061007133  0.0817477080139744  0.8353275397630974
  0.0803740793356901  0.4991025339343086  0.2485861775721585
  0.9954607758909760  0.2498193023114547  0.9173633988883105
  0.1620330824219627  0.0825519543750856  0.0814287517436476
  0.5796100246225067  0.5845935161872362  0.3332524801413436
  0.9985949830209112  0.8344173407846652  0.3325686997630664
  0.6647410681653710  0.5015582933914627  0.8331020955895330
  0.0802212091045356  0.9982591666121221  0.5859455551588801
  0.7487707841496003  0.7492822669039801  0.6659257955993723
  0.9132259289344756  0.2493191613361807  0.6660187784488693
  0.9958450408618532  0.3356748919728159  0.8336095789397970
  0.7465396419875417  0.5809977136490291  0.3332586779066821
  0.9972253392528143  0.1652369217283861  0.6677267845972372
  0.0805184973046911  0.9155291145496096  0.8330577768923015
  0.9981914689162391  0.0832414437230904  0.0835764104127473
  0.0029918601708699  0.8320637325088616  0.5026926169577870
  0.1634985973996042  0.0831090998854603  0.7506967865645997
  0.1639600755431167  0.3330431926602428  0.9987803929401923
  0.9121046966807018  0.4174224915639412  0.0027076502606232
  0.8322437241755866  0.2484387700518484  0.4208886555566885
  0.9132399205771605  0.4180245882588617  0.4993897319691713
  0.0787101724046094  0.4167099445256676  0.6660122368338194
  0.8315617202756266  0.1654927566153664  0.4994418977613226
  0.9972659938183164  0.6673420252886896  0.1662432833224940
  0.9136412234838645  0.8348070438676051  0.9167832859857216
  0.7480357545183910  0.9172785175612356  0.0013229675527171
  0.4963036834154452  0.9160405294831041  0.0841847101923319
  0.0792840254996305  0.0849778411494389  0.0022012766216211
  0.9949534764504294  0.6662513943428264  0.8331816924536012
  0.7487847500397246  0.3352115799867599  0.2517613912821898
  0.7483129354550073  0.7482456592989807  0.8343441188382987
  0.9153208135257026  0.0834620451220445  0.6669499445836539
  0.6637085428999151  0.1629257922552563  0.8332550308033024
  0.5801588379689826  0.7510699582632103  0.6678314993903740
  0.6645489501787097  0.6685242200156973  0.8336406504586620
  0.6669413496099276  0.9149655875283034  0.4182796677039879
  0.8314235941183726  0.8340331626603014  0.3332169259544867
  0.4130006440568792  0.3333174693708886  0.0787933255596837
  0.4144950975315125  0.0840633697953803  0.8317887609176456
  0.4129072162735738  0.6674223707042343  0.4147552338710875
  0.4962034422772600  0.9170862736575238  0.5851441204241600
  0.6600772892282923  0.7510715314126720  0.2508572796591843
  0.2471078860322723  0.2505910960899240  0.1653359218422779
  0.4965955229170275  0.8328283958690287  0.1654697259451734
  0.7476670316024974  0.9986819339253962  0.2483877063802818
  0.5802428446636196  0.0805665920459529  0.5013969513522855
  0.5829890181750393  0.2489712806838791  0.6677832157539358
  0.6678271628216874  0.3363893488771386  0.8331841797244085
  0.6622895929509243  0.4156285272093019  0.0834217236265476
  0.6626942051272467  0.4170675833996492  0.4171902438823052
  0.9143526908239024  0.4167262864346839  0.3327301871032620
  0.8303138410606136  0.3358657837499351  0.3331404809298484
  0.8329812122350863  0.2498090699620976  0.7502611668193724
  0.2467330703784461  0.8323831709195704  0.5858231418984781
  0.9145897005740252  0.1668392256426644  0.4176428724306001
  0.9974124380531285  0.5836528393779185  0.2499463442295094
  0.0787761863288487  0.3388863233051468  0.5856941094414493
  0.4139154867947493  0.1656699552730533  0.7484065407400878
  0.0808431124743899  0.3355873488839316  0.9175986271968708
  0.0786870468066211  0.0830973436734590  0.1663216850195631
  0.6617904775194418  0.5825906530036424  0.0825055136394729
  0.3283211984171488  0.0847242056049321  0.2495085912037628
  0.4128000888356747  0.2506692638316633  0.8324142740549629
  0.5820733532428864  0.8321913407924770  0.7504740573154164
  0.6624464786274221  0.8326198281645076  0.5005642857300612
  0.5798040231466890  0.9176413524649822  0.6664459347097166
  0.7476210220113725  0.9986974483172547  0.5845253955256662
  0.6641099029333288  0.2473160379411222  0.7466844691143841
  0.8313556010617222  0.0018720611761197  0.1671456762641014
  0.6616514200299307  0.5836849873795181  0.2510583928846460
  0.5814787249641505  0.4212537275052257  0.8328234279875472
  0.4930752751127422  0.3329806349560536  0.8325258622657193
  0.4982222397378216  0.5023707548368627  0.8350876368188379
  0.6651473513066762  0.4161427123688271  0.5818673813372648
  0.5810555468408344  0.4171120621035230  0.4998799863115328
  0.5811812233610827  0.5844337530304636  0.0018711133148805
  0.0799427698268888  0.4172500416576808  0.8343092489362079
  0.0823188580781908  0.3335583096400648  0.4174654457574612
  0.0811028728683602  0.5004423045879616  0.4163803511492006
  0.3311194294654474  0.4125330131318166  0.0822099611920649
  0.4991374466568457  0.5014251374570287  0.3347778418186872
  0.5813165237089972  0.7504679748210086  0.8326955757777689
  0.2461735428393565  0.4150184011999504  0.3340313460109522
  0.4968937464697192  0.5015351305628307  0.1660939356790648
  0.6627110042573299  0.7501108425602110  0.0817663035449518
  0.4112816317726183  0.5841932253415000  0.1662088709808241
  0.5798160474711601  0.5852756380627995  0.5003008151293604
  0.4956001197039613  0.5857842428105098  0.5848260958942948
  0.5821425231169534  0.6688130611331623  0.7493181754184993
  0.3272804477866527  0.4161181186664524  0.9151279997450478
  0.5824118181298346  0.1659417135537021  0.7509651055396502
  0.4959710439012811  0.6678142680623214  0.1652449063809619
  0.5803797959581815  0.3337002715289825  0.0831038358142436
  0.5809766088105205  0.7499115628902717  0.0023988860136358
  0.5810398073809343  0.3326506701221165  0.2505551632595777
  0.6632613495278100  0.0823026908132937  0.4180615130834404
  0.2471006447738895  0.5837318710522300  0.0004660620052340
  0.5822471313496003  0.2485051218354661  0.4995902843221238
  0.4133884338614557  0.0831042520105509  0.0001138335834092
  0.5818559835739671  0.1620535310745881  0.9159778175225047
  0.5803610264568662  0.4151072168569359  0.0016081657183265
  0.5800268674077487  0.2490881166770655  0.1680694558301231
  0.3324836237169709  0.5022007869823020  0.3351730919661067
  0.7466850372406653  0.5007357427161703  0.4149235917860475
  0.1645050080021273  0.1699779308057646  0.3322706950244754
  0.6625977537696538  0.7511476069304209  0.4184924890240936
  0.7479322708247818  0.3327890188042059  0.0840880566469416
  0.4116229688622315  0.3318363536267940  0.5848915197984698
  0.4954741299275397  0.0840185169537979  0.0826053649539747
  0.4116871967344449  0.0820648829789642  0.3324463302711524
  0.5795125637513295  0.9972223512506918  0.5836486276980414
  0.4905603660198133  0.9159462931192104  0.4154634885154130
  0.2443226450903401  0.1672556893005827  0.5828391753623223
  0.4975865896753143  0.1650104161917717  0.3336437709058028
  0.3301790225515328  0.2487047709655743  0.2491151625251565
  0.4123596424580377  0.1641274507449280  0.2499419968757798
  0.3290736934986599  0.9997895830865157  0.6663065076467521
  0.4133662448343693  0.1675823078888802  0.5882049027909263
  0.4153345912159754  0.1633288317425790  0.4123116338620075
  0.2463903693948914  0.7505903169151720  0.8330547086108293
  0.1655568359786732  0.9146879847836001  0.4170002962651226
  0.4940174133527477  0.0002012252656031  0.3336283870927946
  0.5814530388775110  0.2512023118042059  0.0043145593890185
  0.3290115726353124  0.9166096269713199  0.4178653042190140
  0.5800635980350165  0.9142671457810195  0.0003056207905692
  0.6631183512851064  0.2491803945516876  0.4175636746330482
  0.1627439414646991  0.2501485954839381  0.7506382304701005
  0.5805078963290110  0.9994794710995053  0.2470095589901365
  0.5795922496775225  0.2491633451140865  0.3318517464010226
  0.4127069869208474  0.0010658808619848  0.2500372606317785
  0.4137327516428527  0.5840270321619815  0.3336683372812012
  0.4970528888127203  0.2460060960850681  0.5845134547005547
  0.2478605650811070  0.9154038127477782  0.3346393861363052
  0.4130858155414673  0.8325983643410603  0.9161792106585011
  0.1637831345684700  0.1665895279755772  0.5023487334449959
  0.3293088233476543  0.5860469414133223  0.0835184736613871
  0.2459172604885970  0.7500282521861441  0.6658027682947436
  0.6649173103257812  0.0849122917732785  0.0838745148481671
  0.2473128071222921  0.2498152484814202  0.9989735169103949
  0.2424710739059632  0.2497246816785507  0.3334529616728412
  0.4977136210579328  0.3311356483917827  0.0002212573669548
  0.7472271224883741  0.0806114891579900  0.8342495345988475
  0.6629797897192030  0.1675933876227102  0.1683203509730792
  0.2466717708295322  0.9159291032310360  0.1662143269489316
  0.1645736663673160  0.5824888224762490  0.5837889713233793
  0.3291191143799814  0.5008031806378616  0.5021814407842643
  0.3288677242076315  0.2480908247268338  0.9144489691332713
  0.1636899243915380  0.8336146897461819  0.9997031371781266
  0.1622103036697498  0.4167610518993363  0.2504788106433877
  0.3295057002537678  0.5852386464669059  0.9150039476213214
  0.2471088881863873  0.2490510742580048  0.8333100397179690
  0.8303371532564222  0.9160598227256302  0.9160118933053133
  0.4972813344942936  0.7516431733696507  0.0824216449251648
  0.4119530116857824  0.3305788709208660  0.2533579459203849
  0.4963667607257661  0.9990424614046071  0.8333751398685288
  0.4980332163612770  0.0817171809921389  0.5842933099640050
  0.2450524869451784  0.2494233462097459  0.5031066533234019
  0.5801493684667018  0.1670908267628647  0.2495371775054448
  0.3330806542212563  0.5013358277645189  0.1672635070569688
  0.4929534500697823  0.5018838270521200  0.6612059057227228
  0.0804758357367112  0.9185073809642915  0.6661387180775786
  0.4135869182626012  0.3303215134393994  0.9153179559921282
  0.1636858710674511  0.4164277097731877  0.7501060653590639
  0.4149294326914488  0.2498093174435961  0.6666349142515228
  0.4135352547248308  0.5000819809011579  0.5845074988689862
  0.4128289564188714  0.9160238318305330  0.3333953681831364
  0.1632337690537313  0.7487729866765621  0.4134915811140913
  0.4138035068032122  0.3308938694137916  0.4183837072089930
  0.4100086555373239  0.5006630962053724  0.7484596292929647
  0.7481991443987159  0.4123980113643640  0.9171097573798389
  0.5784587334068688  0.9151736046413732  0.4172210522661131
  0.4958535842210963  0.7470457376076962  0.3343296716618646
  0.4132133530777145  0.3332422686921854  0.1663450212810797
  0.4133194014833574  0.4205069155028280  0.2500526652762307
  0.9940111414769676  0.3364556908146711  0.4156971314109332
  0.8292689277781469  0.0012005758796832  0.4144049014521924
  0.0807140484089543  0.0868530082815338  0.4166453708135904
  0.7482723744884011  0.3336484456351771  0.6705342378761757
  0.1644498115324786  0.7498013841061650  0.5015284202268534
  0.6654392065746932  0.2494569534247630  0.8342058503028852
  0.3265772249607960  0.9170223796801850  0.0014840545418496
  0.0827670604872274  0.6640576218941463  0.8308411751016685
  0.5809372735606722  0.5010462872085550  0.6658555758342208
  0.5004374341340685  0.3343857017705352  0.5842937085892168
  0.4152494477629936  0.5022693086031382  0.9980705708954992
  0.9978163595574630  0.5835615460101510  0.6672029582742478
  0.2457931624525177  0.5020954228419817  0.3345176704192042
  0.5810177716437323  0.2505627598086803  0.9160854566876820
  0.4147332833709680  0.4211889752933692  0.4187397673745580
  0.7469604192032945  0.8298477202483635  0.1670016741232806
  0.1674999754916939  0.6677899767350485  0.2491819897520628
  0.8342649538094179  0.4995613619085414  0.9164282491527156
  0.5831199496188462  0.9992275320598337  0.3356143422120491
  0.7473073983709064  0.2496848194166915  0.5835064293374780
  0.8314793436298488  0.2467340149640332  0.3307338874718439
  0.0798026971001197  0.5872883358607256  0.0817920290945794
  0.5809692826641032  0.3337853166446337  0.8321954636521764
  0.9953538504262998  0.9150649451908019  0.1636675477970254
  0.8315255204688441  0.5840856211289304  0.9968242394276868
  0.0803895160679938  0.2509219093718217  0.5842831238293091
  0.7516381586098181  0.7504281515379048  0.2502446568135085
  0.1605804963202906  0.0810087128690823  0.3306240822502329
  0.8327825461837490  0.9136112307907256  0.1673899722046213
  0.2469446513827008  0.4987188052476283  0.1661684840818863
  0.9154828518348891  0.8329490515112496  0.5012182535257448
  0.9150868018547698  0.7488122691479625  0.4167568199980830
  0.4131086629483006  0.6672145578085330  0.5050268081319949
  0.5806348667239231  0.0042107455469893  0.9995137202834881
  0.7514645150372637  0.1684600854710603  0.8339513230935357
  0.3315237777621470  0.2506624714609833  0.3372175722821205
  0.7427169874813905  0.4996998161568570  0.1667617249164527
  0.3313291002429992  0.5000032808464701  0.0808055881254355
  0.0780533048340210  0.9969977440437012  0.9991947677284815
  0.4128905452906724  0.1648391156437809  0.5007390656151549
  0.6636742826680296  0.9195971126246718  0.8338384686930805
  0.4162619256425301  0.4194479347155899  0.9148473833727976
  0.4971218439114476  0.5011032861847787  0.7486245241461535
  0.7473391895370390  0.6706710669628265  0.3338610484641977
  0.6628946545634686  0.5043256298258917  0.5805005196980547
  0.7478725523914576  0.1649013859092828  0.3336190108466077
  0.1669710238400329  0.0026052591178631  0.4185155556835399
  0.3296218454507601  0.0830002361322737  0.7497324108272435
  0.3294854652846868  0.9997691722037363  0.5022101471760407
  0.3284275330699942  0.0842824708324276  0.4175388293390482
  0.3293398611972109  0.0837860172010676  0.5849526273064757
  0.3292994911405474  0.2495804423156698  0.4195915677736571
  0.3283118507732247  0.1665490853425454  0.3346830188301794
  0.3299918638606799  0.2496430141105671  0.5846711033304136
  0.4125856058694797  0.1656214381064432  0.0827159982168814
  0.2461621676237132  0.1674112909607408  0.2482333321280359
  0.1624431935420345  0.1673658651568131  0.9996809111781736
  0.4132674216222889  0.0831409940353562  0.6668389986642889
  0.4131441226145521  0.9998662320869672  0.7510123645082295
  0.4129921489835692  0.2484923759547381  0.1666983080309716
  0.4134492997739534  0.0820819085333965  0.5018256377695106
  0.3305198241275619  0.1659353333860865  0.9999727776119075
  0.4978944022310670  0.3317283762605409  0.4996051278096382
  0.4141211290792465  0.5024404211027640  0.2506081334622593
  0.4128031772885724  0.4166910491685118  0.5027640106586602
  0.3307785418742339  0.0834144079317088  0.9158028253787979
  0.4133420937391750  0.9163952905025824  0.8337278592563281
  0.2471363091006540  0.4156708508363165  0.9991602459886748
  0.2477991310067812  0.8324703486921045  0.4166705390987686
  0.4951230619250442  0.0000195376935868  0.9996606908122080
  0.3304138091902566  0.0009841864096838  0.8329602579387588
  0.2468993433621637  0.3329326400023915  0.2501813691935834
  0.4966676199663464  0.6647077446055382  0.3330380809960048
  0.4142866858996960  0.4175714871709404  0.1656314715015515
  0.2469786161801874  0.5848942627657007  0.3337022324627320
  0.3300094898017942  0.3334147505647399  0.3350145300972470
  0.3305141405885266  0.5840809772665884  0.4174698345903616
  0.4972306397453624  0.0823092480467742  0.7500359216402969
  0.4964482985814809  0.5835972010604911  0.2498688408952539
  0.3301556446269384  0.1653886336875516  0.8316843205286943
  0.4969742942710525  0.5839291239886686  0.4178070847778814
  0.3298093703128759  0.5835240550660902  0.5848335561079901
  0.4132780051037959  0.5031065391344370  0.9151176094461967
  0.3297060559983829  0.3324333267883816  0.5012341569835539
  0.2466988041090868  0.0000638656232891  0.7508024370658275
  0.3288647879058175  0.3321877820667898  0.6671524553887282
  0.1642705212659349  0.9995451410528858  0.6676252457691487
  0.2461625946141741  0.8336551758857934  0.7506947776116347
  0.1633809355939571  0.9174875190998557  0.7508398951101865
  0.3296371460182968  0.5007258996592493  0.8326363493659731
  0.4966069046601839  0.2482681662771795  0.9160680545423178
  0.2473631387559579  0.9158055971586212  0.5012585167366026
  0.4133592940847333  0.4178965396743480  0.8316212314145931
  0.3292117199045221  0.5001422852216328  0.9973359629936527
  0.2498746378235507  0.6668342463772320  0.2488614093130440
  0.2471005333189380  0.9170038421602118  0.6668804879244381
  0.4121726623706856  0.5864576125212502  0.9995715284987849
  0.4153950356149163  0.5001407324405932  0.0829412297475962
  0.3312484618850306  0.5840046402558193  0.2499295858164321
  0.4137682141141790  0.4176280372269613  0.3346355255040648
  0.1647166454574008  0.8341481184660092  0.5011161696805272
  0.3291488350811039  0.3323981437037327  0.1667381309173442
  0.4138919943742836  0.4151803291360109  0.9994405252442820
  0.4131325819289317  0.0000595302096808  0.0829903178063288
  0.2464301782755587  0.9996543254227860  0.0835607554939459
  0.3294126684549326  0.4166560460923961  0.4182710068424297
  0.3299594590037386  0.2492189967320901  0.7501488259444501
  0.3298550732734573  0.0017258097806816  0.9997034708738907
  0.6648283888702867  0.2502444441814290  0.0848870369531210
  0.1635628155839097  0.7507450939399822  0.2489572937948302
  0.4962011683387946  0.0004154886520725  0.1659134468139280
  0.5803617928516470  0.0858284087729900  0.0011324049981388
  0.0800877062180361  0.7512698151947930  0.9991210602758792
  0.4973240781085784  0.0829275823375663  0.2485797957248239
  0.1649804323458844  0.8330389802960426  0.3329981406708977
  0.3299264414175406  0.0000744721702200  0.1661409586769009
  0.1644951868598523  0.8334324847079195  0.1668771078100295
  0.2463902266863712  0.8338337543957753  0.9152934824993948
  0.3294366880994501  0.4164488523728380  0.5839469091752718
  0.1633234419578558  0.7512935596666568  0.9159565690811369
  0.4112255978817381  0.5848823960996933  0.6676654719427967
  0.5804924206532701  0.5013868660543686  0.4175047749202774
  0.3298985067249826  0.9158928101036889  0.5848754669391573
  0.2478553625472304  0.7495530794959978  0.3337354034287269
  0.3296360686568912  0.9171797169108860  0.7506791843605116
  0.4132634952253411  0.5831571703895656  0.5013928264477633
  0.1637064597009362  0.7508523289711180  0.7501186410955477
  0.2463373487178456  0.7506686684699075  0.9993902628691894
  0.2478352788393859  0.8332488395434875  0.2498468944576925
  0.4128276371144360  0.6682841026325218  0.5870360654793807
  0.2465187362172021  0.8332071865442956  0.0833371047234823
  0.2462387456832975  0.6666193415849493  0.5848284606860978
  0.1636508410242779  0.9164475018278382  0.9153407488701079
  0.4132667337628244  0.5846785462100976  0.8324226739968018
  0.2465525098292823  0.6674343363590906  0.9165120753296822
  0.3309853728659007  0.6675698754946258  0.1658383768973924
  0.3291577842056752  0.7506615699315341  0.5856772282314011
  0.4132548678566715  0.6671495782923401  0.2493717620573865
  0.4131733802931106  0.8326700871585923  0.7505102953031949
  0.4123993419857501  0.7518581485890281  0.5010932089920221
  0.5791662723247012  0.5006704025818696  0.2501187218426639
  0.1639627552847177  0.8339333417976319  0.8325398886335660
  0.7483107992216390  0.5012837735403947  0.7499143884722564
  0.3301252096936042  0.9165684350815440  0.0851826760530282
  0.5809397640698980  0.5861099556733236  0.6661392820344102
  0.2456322278771468  0.6670597903191149  0.7494676913512925
  0.4966604032009936  0.5012522137127310  0.5011241779360327
  0.4124595272148652  0.8340285722370709  0.2489370517997054
  0.2467652306604207  0.3322616473198075  0.9150310948844145
  0.3291220477511119  0.9994206623660845  0.3334373270905495
  0.1643971546673469  0.4175671602312207  0.9159029269950583
  0.4115100063105541  0.7505910976274898  0.3328243469163721
  0.5001210665600794  0.5012893747448254  0.9998095851438251
  0.3300399215009072  0.9168921218589241  0.2494544678970526
  0.2454150641350554  0.3330007631264990  0.7504327394878020
  0.4133778668103997  0.9164603975798962  0.6667984614216016
  0.1633246515805771  0.3347002385596458  0.6674536889749021
  0.4135605664729500  0.5028597128190380  0.4179908599093123
  0.4117305987229228  0.9160905038546303  0.5010343774194417
  0.5804971364852747  0.1670052467291839  0.0837212548183638
  0.4976271843157550  0.0817741688152729  0.4171874845550582
  0.4130145950919141  0.0830297566216582  0.1660574548527798
  0.3291401034875430  0.6679913087011253  0.6679836544916472
  0.4993262422664839  0.4169461364018761  0.9159089843273588
  0.1642965990237897  0.6660451684689568  0.5012430291067536
  0.3294895669981964  0.1667822793431005  0.1651685824002661
  0.3296042891226766  0.8328649299010940  0.3333839226528934
  0.3287041851186937  0.6676459257918275  0.5011433013448952
  0.1635207345064840  0.6665310588245505  0.3339587883564982
  0.3295306512506032  0.4999513647930440  0.6662742282104278
  0.2480070285478767  0.7503280247986162  0.1658697081097814
  0.3290232549861821  0.5837583656176678  0.7497725122806451
  0.1634979142704860  0.6676758990148342  0.1651607872050580
  0.1645346595933078  0.9169240465862557  0.5848147547233349
  0.3289171195538058  0.6681237315082678  0.9990962632356910
  0.4135772042453211  0.3325045442320707  0.7496957146680243
  0.1632180030355613  0.7513848114730725  0.0824044708299774
  0.2468596442181816  0.6683653255203365  0.0827902270501283
  0.4965134186602469  0.1670123666903821  0.0001500875862388
  0.7486276588465417  0.2484781793615354  0.6678378626929589
  0.2471093269844830  0.5005084761022330  0.9163703640185901
  0.2456539394248275  0.1664044490223124  0.7512970271137158
  0.4125684747896943  0.7504354270514902  0.9991822446724553
  0.7494967631413373  0.2508588269859823  0.8332455969441899
  0.5805332045452617  0.9994786564692055  0.4189878905609915
  0.2467424190557203  0.0011136776645434  0.9155207079529533
  0.1639939500415906  0.5831693135963893  0.9174565900888012
  0.7461738357744989  0.5008357007705456  0.0834719395554567
  0.4946111989453271  0.9987772236536470  0.5002868655226150
  0.6641218521083148  0.3331155930744854  0.3341267344402187
  0.5801114078362635  0.9985760574946428  0.7497900085210090
  0.2466125789802266  0.0836630521070645  0.0003709867958057
  0.1627275667551881  0.4999820326210405  0.6665598349410352
  0.5817781558249518  0.3341736883590327  0.7485619077632845
  0.2469010856937963  0.5826483104776031  0.8334315024189370
  0.7465835515342399  0.2505277847707700  0.3341960374856202
  0.5793998210391045  0.6676452535032120  0.4169388148611519
  0.4967947488894409  0.9156042929281236  0.9168267412984445
  0.4954328602374011  0.7505205615482001  0.4173246626947750
  0.4974560991965138  0.3321374190244231  0.3341908566830621
  0.0797010848760341  0.1678734314782884  0.0835745856353785
  0.4137630864852551  0.2500275214215675  0.5013917399234302
  0.1635666177389616  0.4996241393364946  0.5000659117877141
  0.2471009753550795  0.5001982526045621  0.4187307573550072
  0.2465446946155897  0.5003794479792845  0.5839391231472169
  0.1628738199061102  0.5831893398124885  0.4167970481759031
  0.1634018613312480  0.3345737947252664  0.5010763192609509
  0.6628876909248996  0.2490110042479037  0.5833813843789803
  0.4985169015492346  0.1655147025302990  0.5001262264912473
  0.4969248801658888  0.1658961630345302  0.8322078207709543
  0.5809377938203951  0.1649524905043416  0.5835338422358425
  0.4979531040906944  0.3324456713370195  0.1666730268074099
  0.4992008988713755  0.1649162102600798  0.6677855786476015
  0.4153640581417193  0.2485295557723211  0.3345100351712634
  0.4132341448734724  0.1661295047502759  0.9150984275654375
  0.5801798215313657  0.2489145159613921  0.8316579855474794
  0.5821237837511716  0.4171851423907846  0.6655355679020731
  0.4977382198042596  0.4167513985677442  0.2508263956396954
  0.4127753046715736  0.2492890715221137  0.9987163696248418
  0.2474063502843844  0.5011863337454280  0.2499218067233491
  0.1634835047218084  0.4988877387202988  0.9999209891514551
  0.4984548180232798  0.4167180859818770  0.4177095916862096
  0.5795056531496990  0.4158344937111578  0.1667568483097085