Cr  H Ni 
 1.0000000000000000
    21.1200000000000010    0.0000000000000000    0.0000000000000000
     0.0000000000000000   21.1200000000000010    0.0000000000000000
     0.0000000000000000    0.0000000000000000   21.1200000000000010
 Cr  H   Ni 
 259  52 605
Direct
  0.9105087217449511  0.0010913888583012  0.0839219571369168
  0.0789522856879609  0.5007253850353468  0.4165088325301893
  0.4951636058570266  0.5822625217168220  0.5823948532307403
  0.4119293802719988  0.5011924914743658  0.4145252593830122
  0.5789771900623785  0.5819500498148191  0.0021335952928360
  0.2457626995916207  0.4174764115257951  0.3327785958068554
  0.0798203615345385  0.3326802607749000  0.4165479547753517
  0.6630030295075048  0.7493846221633205  0.0841192946485909
  0.2449291311463198  0.3326203324095040  0.0845035908820862
  0.5795806366869236  0.5001596367071309  0.4151773024969606
  0.5813307467923292  0.7490907144856470  0.8380806741015597
  0.6612330566027105  0.6684422156484253  0.6662572944509128
  0.4952509078213554  0.4985489853810400  0.1669134921527555
  0.3282827250275765  0.4140036672679753  0.9174097809714935
  0.4115068846069885  0.5004305119296603  0.2509689808671217
  0.4984060984993165  0.6665004065820197  0.1666336552588575
  0.5797504161093259  0.7506582750133828  0.0027874826316345
  0.3287963823937225  0.4185311221580368  0.2486153118586829
  0.6622033896484606  0.0848562300232074  0.4170792783641346
  0.5797044795520447  0.1681158995079324  0.7498981200680548
  0.5795483294226843  0.2504248160581836  0.4997730699677371
  0.5797226302993974  0.3334318587879466  0.0846052825658977
  0.5792819992718579  0.1664859509441940  0.9192922163700696
  0.5792254313538898  0.4177450821500744  0.3329332161116094
  0.5800360093495783  0.2504455783735862  0.1683497496082872
  0.2478765530157391  0.4181574375838161  0.8330143883014461
  0.6615793624120678  0.4992110557753963  0.4980921947151744
  0.3305946467835050  0.9998771740358661  0.0009987710332170
  0.6638709641682803  0.3336308811700797  0.6647954444456429
  0.5829693722410465  0.4166070169622629  0.0006548527014181
  0.9137493668597090  0.4160008775160452  0.8310738389020480
  0.5791086102749236  0.4184208773437159  0.4984413933311042
  0.4131261404615574  0.4999575105411352  0.9172610236659544
  0.2449898703158559  0.8332458412870656  0.5831527944971068
  0.9967018131711346  0.5827949417380333  0.2503630428557608
  0.0779901450060070  0.3328273826726911  0.5839011513397817
  0.0823103707022439  0.3349399950213018  0.9182925035074193
  0.1582068774672680  0.0828128113573006  0.2511935221801895
  0.3334526683372154  0.0801503762762974  0.2513281153867119
  0.4956406560117720  0.3276129967659979  0.8382968764177389
  0.7508170638866348  0.8316157211320536  0.5823815421139079
  0.5820153209944551  0.9150730838751108  0.6680876822892419
  0.6625138468047612  0.2492472228137121  0.7490556959163726
  0.9129249880268956  0.1668003998693252  0.0831587875545064
  0.4944003370947672  0.0856849076384278  0.7506369547432024
  0.4960115345493610  0.5026777101408099  0.8325414871809480
  0.3284583692865617  0.3319023065575702  0.6675751007525529
  0.6639608468180461  0.4992704661058128  0.1672126732727446
  0.0779409200855637  0.2503445735771481  0.3345335248020828
  0.6623464581015591  0.7473374457822082  0.2494814159090536
  0.8291629228216539  0.3357218969912900  0.3341363125875568
  0.8288480069589811  0.9165591129443461  0.2487506547384028
  0.5827133022654597  0.8313658380820250  0.2498759977578695
  0.7481477142209333  0.9998598640065507  0.5821783784976927
  0.4961224432310006  0.3326280716768807  0.6632701467937560
  0.5807165240746907  0.0851409005017017  0.4991524704323713
  0.7481967778404740  0.5842247096820622  0.3331909851228503
  0.7455494415633103  0.4118910406302451  0.0015491313869394
  0.6616837905836658  0.4166838349648996  0.9169989269459095
  0.0788789530756634  0.1669099772542472  0.4173820523323244
  0.9962903813386085  0.4171713690659040  0.2503675027048109
  0.7477121744063666  0.4174824955836691  0.5003254558995257
  0.6629326370127920  0.7471961287741141  0.4170761313002684
  0.9131363026652187  0.3354480954815707  0.7506329963209393
  0.7478296404225997  0.8317902994648568  0.9210836064447333
  0.6648166810769127  0.0001104540599035  0.6656684270489822
  0.2469081285012028  0.2488696060707132  0.3329899830199969
  0.4079262264048866  0.4162876131724288  0.0000171949697592
  0.7473836906003359  0.3357162412045819  0.0836659780444563
  0.6640892496305197  0.1684709155166839  0.1665767845492545
  0.7462708622833325  0.3349243254566561  0.4162781741619755
  0.7470803097973094  0.2495961728450738  0.0000746306434549
  0.7455756965106317  0.0841046202264412  0.0011034655602972
  0.5819984398502190  0.2511467695674557  0.3310953410420046
  0.1639330828502805  0.5839587838693376  0.5827762105296138
  0.1609346242794817  0.6674571625647664  0.8335985727526801
  0.5785827065509088  0.1671785432570665  0.5810258719749629
  0.1613008865374275  0.8344553228143314  0.0008178979228892
  0.5806458880311514  0.1678306078592297  0.0856480163871508
  0.1615895921439398  0.1666749698706262  0.5005904645007233
  0.2468755000705471  0.2496755223805976  0.8345745191444470
  0.1628698266195059  0.3333570519503504  0.1635850984334427
  0.3287756757480204  0.2517330821920218  0.2499993243381941
  0.3278563574222865  0.2507847907709710  0.4165759677053495
  0.1611252119391428  0.7499483413884175  0.4159180362637001
  0.4121040211333628  0.9201229542807384  0.3335399942892783
  0.4127253656845762  0.5007083751310796  0.5824703523740384
  0.4128737792282502  0.4980002076723689  0.7505333109119756
  0.1639961204866532  0.4165026961235030  0.7518906840003914
  0.4108512853136647  0.2499766108931737  0.0019967571164350
  0.0799115607255643  0.9169951129591546  0.6641572889407754
  0.4991229978466395  0.5821396508996267  0.7508629484838775
  0.4134578116978601  0.1652767849842804  0.7508739816190944
  0.3294315332572545  0.4996305025331438  0.1681634800243884
  0.2444990360377970  0.5837384781974302  0.5013609530585799
  0.8292456490563619  0.8324148280436304  0.0010767174543992
  0.1628404037826771  0.1653018748737044  0.0009496265851350
  0.2451470233497977  0.9169680713995125  0.1675735538022246
  0.5782827022458856  0.9171784942572864  0.4979115330047439
  0.2445070774579656  0.1628593348067910  0.5808775966325295
  0.4995157341026604  0.0847047016443710  0.4176592199305096
  0.2454347936363941  0.1649966504284119  0.0835160007341806
  0.4111936787488836  0.2507391043538040  0.1655102742894435
  0.3297556165446946  0.0000336237960910  0.6660108921585082
  0.4128368959936960  0.1634999960662101  0.5817677845282052
  0.3300053629738169  0.0820703486240775  0.4165850728976471
  0.4961635281464171  0.3348733147063365  0.4976479722884544
  0.1610811899819643  0.9990259670738816  0.4984699262273010
  0.4138074780730748  0.9169537729019789  0.4977522350216490
  0.3275601945289359  0.2495307809864296  0.9160635864488871
  0.3299194023271884  0.9993458194774902  0.3339808356288662
  0.3290331258618014  0.9178591134814695  0.4144970057000489
  0.4087588122006248  0.6684404786800012  0.9198772053346409
  0.2474043861295672  0.2503611975976518  0.6687227138408753
  0.5800019187303406  0.9961941520883056  0.2501272145952445
  0.4110956762266438  0.6673806039342250  0.0819083692129480
  0.4135958276396288  0.0003217866637736  0.2500128558691804
  0.4123175579870378  0.5839975524775074  0.3330030883068335
  0.4988425133595304  0.0848326606275144  0.9178955454804369
  0.1594693169044328  0.9186962082318840  0.4158230567284311
  0.4147147519945717  0.9185415074061509  0.8379454222520544
  0.5805322595253846  0.1715886671863199  0.2478290334713673
  0.3288503905747389  0.5850653014764039  0.0846064634508880
  0.2428767244913670  0.9182049878729557  0.8338692177902882
  0.4972915940034525  0.0856536670758694  0.5818575204036268
  0.5799844337949689  0.9175966446940393  0.0011774537446340
  0.4977608587198895  0.0836284718972494  0.0842711905798647
  0.3291239113815673  0.3355019813195028  0.4974002674585308
  0.4116562088879466  0.9223727676245366  0.6620084699884529
  0.9127332746009197  0.1691706807164451  0.4189644717835878
  0.4146025947339174  0.0839777633892723  0.8338586184007247
  0.3255325415747181  0.6665898993764694  0.1681451250450504
  0.4987013399466082  0.8320690276588716  0.3355695439527024
  0.5836623491741540  0.7466114403429703  0.4936904652611112
  0.9128300507628089  0.7491480942085270  0.6654404174316579
  0.8306445926708873  0.6668694123392542  0.1669569240981871
  0.1610060327302952  0.9997134481762218  0.3331253557897347
  0.9149350439016765  0.4154153050100606  0.1675925862483624
  0.9136668209715192  0.5013369947705006  0.4175868764053081
  0.6625629392698785  0.9157275917492915  0.7486498015819665
  0.2447291619403560  0.5835891399493780  0.3331491158744240
  0.3291445815682473  0.5010583092427177  0.8323406475858696
  0.4107542674848985  0.7523946166132228  0.8340403020426895
  0.6632180730037347  0.2494947656770954  0.9179523327959973
  0.0803332687138747  0.7484871828168735  0.8347373576146706
  0.3312896600815234  0.7508874775440132  0.7512881232636679
  0.2454786404073893  0.5832646320082845  0.6658111896161850
  0.3282557771085348  0.6662625035449535  0.4994380432939641
  0.5789445980625403  0.4996774372448743  0.7510196145268495
  0.4113709268255379  0.7466264253820993  0.6664851344904775
  0.3287499392357925  0.8349450743123759  0.0009125308332056
  0.3294235823957816  0.0812773184180668  0.0828871194737771
  0.1615959068468215  0.0014782442689700  0.0016588983874741
  0.2464811994313252  0.4168647535470211  0.4972512019292338
  0.3287216981290095  0.7488441135872741  0.4160216897738340
  0.0791560569732581  0.7499141207532039  0.9997527067772545
  0.3286188507627965  0.9180614291431028  0.9203985948606895
  0.3279010098570396  0.7493181285871109  0.2492359152103953
  0.4120059412142230  0.9169440246948840  0.1675819836219071
  0.8302559988908794  0.5841217725505109  0.7517455459209659
  0.3256647499199812  0.6679852515876898  0.8334008132854032
  0.2456541458520500  0.4991678736668694  0.7503443961683247
  0.9961911418566325  0.8335365935229025  0.0008990115496262
  0.9126588093777493  0.9130434480161014  0.8336365548286193
  0.9120885688237059  0.3326159292089956  0.0827660659352597
  0.0818237853232660  0.5011089217921706  0.7495117049558710
  0.0791868137611384  0.7501065511632067  0.6677766322137270
  0.8301137376014146  0.5850165714829644  0.5824888658641552
  0.1648475942793839  0.7513574149925000  0.5832335611616795
  0.9972909062190188  0.5838312261425912  0.5830802716359752
  0.9131150172436352  0.5810749001598893  0.8288226887019403
  0.7473485060451603  0.5869262756628134  0.9999289776221929
  0.7489437652358574  0.4173497148907437  0.3335452482552440
  0.9179990074522425  0.4166360375176357  0.6668474174683301
  0.6629908316935723  0.6663088985978375  0.1665793924588866
  0.8311769319316342  0.6645472135725227  0.5009868757124207
  0.9140193201380167  0.5824713849923496  0.1681008629607740
  0.7437287982471500  0.4137981111077588  0.6659706483268921
  0.9962793095927261  0.3341272321392154  0.6685377574646428
  0.0805018734988992  0.4989467601209965  0.9179312182942957
  0.8316459826353096  0.0021561893268651  0.3331926751460417
  0.3297974005045293  0.0818979333998396  0.9164511913291602
  0.9956048669177672  0.1677172183040089  0.4991185829754986
  0.0785520291560412  0.9994347904920231  0.4170795818755382
  0.9966594002480446  0.0828162316822795  0.9153781673243633
  0.3300126507001607  0.0022911306849630  0.4980036124886150
  0.9948537607284079  0.3343048765261752  0.1670068431695566
  0.9949687944718379  0.2531209463914472  0.0840053995726659
  0.0803980127402458  0.5003398899441356  0.0832650082070499
  0.7445729805840477  0.9138091281195539  0.3333014887031904
  0.7461483061817773  0.3347742413245349  0.5817939459425009
  0.2480310025392720  0.0818312802946638  0.8348392425587345
  0.0790770415611282  0.9171511626231964  0.1684189848020817
  0.9994232073079303  0.6681204516294612  0.9972647061514263
  0.9116866454185251  0.9162818644708070  0.6658721964870963
  0.3294123015698232  0.0034712248444714  0.8339561897215690
  0.9962702928449696  0.8313340219929231  0.3334970599339900
  0.0804275959531619  0.9167540843451126  0.8334430986455561
  0.9900592179966966  0.0861621569994228  0.0833853104909166
  0.9953073706860095  0.9153585985385957  0.4185673426536942
  0.0786406214154019  0.0840141922120632  0.8347430994295802
  0.1635486013570071  0.3335158623675837  0.9995995371923139
  0.9140554292619021  0.4159705248172986  0.0009290853477204
  0.0812619140053387  0.4158304696707958  0.0006528849219649
  0.9972026585379468  0.4157255843208572  0.5831290464486637
  0.1600660431306957  0.4158522845449877  0.5833096740984953
  0.9964569819922908  0.3350126135081162  0.8328787291923737
  0.8299686189683427  0.3324568960413755  0.6672139740209766
  0.9137609077910773  0.5837954109594718  0.0024063285819615
  0.8294968681398379  0.8321714564346216  0.5018259561932144
  0.0794042099323530  0.0839627144378402  0.6647848581057235
  0.6630046982834598  0.9999463809528033  0.1673410643207646
  0.8282928892164988  0.9997190340035084  0.5015284858303583
  0.7484094631755283  0.3365760830835040  0.2529358069796468
  0.8285218879475119  0.6663417520718319  0.8310443252734921
  0.9119657963695839  0.9163069488566113  0.1684680611208171
  0.7463047526637849  0.1673148099690238  0.7499232836890175
  0.5805939990881940  0.7489017252570759  0.6664028813299747
  0.6616876810471662  0.6650088931404030  0.4979874369688174
  0.6637485553809788  0.9156139138978316  0.4142903361632750
  0.8297426171712033  0.8296201930447527  0.3336196099279670
  0.5793633314449566  0.5818534680481746  0.3324472407017544
  0.9132649717787257  0.8340805657409405  0.9156625554974935
  0.6625484444420611  0.8346068707815347  0.6687513406010066
  0.0779256366655361  0.2519427736102037  0.8362430471869777
  0.1661924845456980  0.0842191441441638  0.0846985777656069
  0.8297787602062640  0.6638964275370385  0.3334026511614632
  0.6622078792741477  0.9976061592678697  0.8321424722232723
  0.6622203224393359  0.5001522576103071  0.8344827313736589
  0.9941426379042478  0.0847539078200579  0.2520104125132003
  0.4114617070456055  0.3332678129460107  0.0832894849664268
  0.9122505213068857  0.1668766912833831  0.2517741152757669
  0.7493641830866535  0.6656498410367905  0.9181242320461237
  0.0804001967286160  0.6681839252793438  0.0837335980628355
  0.1616603195835488  0.0837670363360181  0.5838559822859867
  0.0020026872083774  0.6678780239480059  0.8330789767482560
  0.0788779288944935  0.2521314223643391  0.6656510531931860
  0.8281553400035500  0.3363043650131969  0.4993466605448847
  0.9120057606282131  0.0838758833732571  0.6653881500153709
  0.8280293785784190  0.0007802986052719  0.8320600016464325
  0.8291303636202606  0.1672691642316771  0.5008130986895463
  0.6639439648866189  0.6676137669288592  0.8331426617841418
  0.0790508666730299  0.7498489653280356  0.3352401495652254
  0.7440185088094304  0.9170126703430281  0.0026068831206999
  0.7476562696030484  0.1671537011400556  0.5820766894923836
  0.7467431567643062  0.9162418010345854  0.1691389656494456
  0.6598761211021430  0.4993199571934017  0.6669674724476755
  0.0811373409599102  0.6668589519490821  0.9168076288193315
  0.7460691081325693  0.1673150558873651  0.2503013265586796
  0.8290987574615386  0.2523769076322136  0.9166007225030725
  0.1613495082089437  0.6677637549639487  0.1700025836501954
  0.8310927217956908  0.7482340337632719  0.0842217774266946
  0.8304604073461394  0.3341043178975971  0.8336562731704976
  0.1649270749869388  0.1651388300101627  0.1673787681869632
  0.0811660837285552  0.7483392338937257  0.1668998671297288
  0.9127169833084116  0.0857701678506685  0.8330841964451637
  0.0793122832382799  0.5001151665243212  0.2496523462398423
  0.9105831926196762  0.7482247996752698  0.1677935329803222
  0.9972425851466254  0.2510506143905650  0.9154651133050160
  0.4922737412824191  0.2516777828464011  0.3325363542068290
  0.5770848001325818  0.0034365699332365  0.6668881794631836
  0.3262001344123117  0.9140063688961407  0.5017713738431965
  0.0745442117393877  0.1675634603979609  0.1684780529859520
  0.4915366892048402  0.7481407102428658  0.4983023543863936
  0.8322968876068122  0.9206833268268982  0.0010197449206425
  0.9113836241070490  0.0790649402567199  0.4177028890478441
  0.6672069118823025  0.9176681147242881  0.5020718032547523
  0.4090499007313396  0.8299051972637175  0.3332025197288415
  0.8305189330335488  0.9157837527187478  0.3355172829101480
  0.9147840025818934  0.9996013663041047  0.8322423217830228
  0.4135775463055760  0.9170079799361575  0.7496708798622042
  0.5802196787511122  0.0836045010140820  0.2514766972329532
  0.8297926387588477  0.1622436755565297  0.9158970126876856
  0.4115160654259364  0.6662531698232796  0.1683635780962643
  0.6631313131507124  0.0867569161986966  0.8346690856490682
  0.9148202973820950  0.6681301220745832  0.8315992506456561
  0.5785305482601688  0.7508200900157107  0.7521272523146516
  0.2491698372286726  0.4174021864226968  0.5856193901460996
  0.7457619378775261  0.8336018967069485  0.8298441628400399
  0.4958111354111605  0.3325685913815254  0.7506790414280015
  0.5771492718987593  0.7494239302874199  0.5802600160968496
  0.3287597370135548  0.9165399186131011  0.8332901509562020
  0.6618016381456164  0.6661240472062300  0.9208321555927738
  0.4135074106526430  0.1674805080943779  0.3330745410580285
  0.0786111972469367  0.0821543707977040  0.0836834348561746
  0.1617765364397142  0.3337206581931851  0.2535115457232738
  0.9938364139903234  0.6668887635876103  0.0852833843137959
  0.2453135318247378  0.2512863344402456  0.5804259209315458
  0.7474128155609356  0.4991740519320160  0.0006270663036269
  0.8306231572163200  0.4194447080170467  0.6662554340941366
  0.6614362837856251  0.8321759268302806  0.5804147555450450
  0.9124287904440168  0.2462020153425280  0.7492130019592295
  0.7433185089777564  0.0026989048405133  0.3332747460486046
  0.4951436920605605  0.4168193192108393  0.0007339682026623
  0.4964238358508287  0.4157224107855829  0.8334157399048071
  0.7490886326339683  0.5031473788937777  0.6677160121849582
  0.4118606166856413  0.8342220056522389  0.6657309977074348
  0.2454765036807953  0.0826406100076988  0.2507992778488051
  0.2416412710473720  0.7523040640316782  0.7498237539947393
  0.4985779403251474  0.6682053102012079  0.9181435176473299
  0.9981327845893958  0.9971673772011976  0.0832135349846505
  0.4132381995969427  0.6658365163203487  0.8329667830366835
  0.4937333925709644  0.8310110800484085  0.2478396165267762
  0.3260953713355730  0.5016122006673273  0.9202460117130489
  0.4126248381617936  0.2539919366927174  0.5819784156258349
  0.4949649794699607  0.8342206467952640  0.0833066764006649
  0.7462899283667740  0.9200947497035821  0.9136480937413231
  0.9139457762747729  0.5822829999422635  0.9153882600918813
  0.4103626912191062  0.5853291234567579  0.7485071445504103
  0.0761321316286658  0.7511170339024954  0.5791347759839799
  0.1673321218277203  0.6677114129040407  0.0815808375818054
  0.7463049693552272  0.7486114461930414  0.6660301603496515
  0.0787880411797686  0.8326468119103380  0.2508973402296971
  0.0771137990767835  0.9156764239593829  0.3336062630385226
  0.0787760930491182  0.9157385802856176  0.5004004647086637
  0.6636716129547842  0.9171493065855932  0.5842005175046199
  0.7468171231613570  0.8328809656585727  0.7474046314499441
  0.0786427351447951  0.8339163673926711  0.4171349263178158
  0.8289187847962310  0.0027293361409785  0.0010819319152637
  0.8293895836174494  0.0006168155453586  0.1677826081670638
  0.9957078925231089  0.8334064788946990  0.4999901068929308
  0.4968197926433369  0.0012861191335857  0.8348619551423021
  0.0792854127854958  0.8345305511093964  0.5836615439411529
  0.7468140297705366  0.9166158100874789  0.6659007873537365
  0.6634707288914232  0.8315902785311887  0.4971584756245611
  0.7450389024715703  0.0017120689227466  0.9171791813637418
  0.5778853972161351  0.8338673854074062  0.7513629397050468
  0.8298124053378856  0.0004940435558343  0.6659598827090901
  0.6633771115149059  0.9167259081846084  0.0844769210904194
  0.5803851476869855  0.9153651154131990  0.3332532053768543
  0.9128480006578695  0.1668994866390412  0.5824564243102177
  0.9967784128911303  0.9164683638056811  0.7486723842427085
  0.9962313436402219  0.7520214827455086  0.9162418597016467
  0.8312428893753973  0.8330387483029049  0.8335032086862136
  0.0800946024711712  0.6664240388603102  0.7492635211532396
  0.7460569034211452  0.5837901876049498  0.8329272595023852
  0.8292588025373170  0.0830161072013780  0.7485902012425034
  0.6613120649003712  0.8333318166902235  0.8346246531890932
  0.0796057488599002  0.8338411275682726  0.9170146657634548
  0.7451503296163035  0.0002918217033141  0.2494623739957867
  0.5804748649279460  0.6664999836282474  0.9192125927578084
  0.6635603679844422  0.8323302576351366  0.1668059826839011
  0.6633048626452457  0.7513556293985751  0.9197029161700898
  0.7460647177197391  0.8306337261526960  0.2500551736025192
  0.9937659407914213  0.7502820154846734  0.5843743673758964
  0.8308690804603869  0.9178537739348684  0.9158278163727777
  0.2452727109580347  0.7509009571478086  0.8343993584331671
  0.9969683833232905  0.6657621860907579  0.5006178470277999
  0.9115254932328150  0.3349786555196817  0.4172137775766897
  0.8297400202765285  0.1676132330667220  0.3336822489217258
  0.8293635020992630  0.2510560154949174  0.4171955738163235
  0.0798569077448944  0.6666233422618926  0.4171621948926362
  0.8297435477896810  0.2508904318277328  0.5827449160974167
  0.9957709273181116  0.7499395745425590  0.4162656866316475
  0.9119018760604467  0.2512021689048945  0.5000350191249947
  0.8287178637228920  0.1667564240419288  0.6659227686056496
  0.7459225379874488  0.3327560074862012  0.7501192024377998
  0.9116209998007369  0.0843037820249103  0.1680870845865657
  0.8297841213899112  0.0843236306160836  0.2507290438141578
  0.9137392900312511  0.0001937865871069  0.7480132541715185
  0.9978904286843051  0.5831830677945454  0.7505824335997237
  0.9140534908631766  0.9995185754714726  0.9165161311089234
  0.8290933811143107  0.0806472317530819  0.9162907645193998
  0.9960239203123389  0.8338549460960633  0.6666457415596442
  0.0793592638215420  0.8330289142087053  0.0849891243500109
  0.6622216922933726  0.5829852062974120  0.5831164721176033
  0.7459973502073537  0.6659838986992418  0.5829403395544839
  0.1618315870307711  0.9163745270080492  0.0846603132525045
  0.7474585338374967  0.7487785888204012  0.0015689138876542
  0.7464141466616135  0.5836115194440326  0.1673632417885283
  0.7460097489392999  0.6668809716584926  0.7498045962503784
  0.8296831618947829  0.1665629676422663  0.0008426791655850
  0.9973762280352849  0.6663854418669110  0.6664047123526057
  0.9957319496216324  0.9990758860547518  0.3336447174361437
  0.7463755724720742  0.1675128928500400  0.4174968930310097
  0.0777486677643421  0.1672194775781418  0.2522132217237263
  0.9954347553348544  0.2512321355898892  0.4173170298054332
  0.7462720361192684  0.0001228796834195  0.4179193822253079
  0.9126886247785914  0.0841377520093189  0.9992932719265987
  0.9113094782614074  0.2504785108106564  0.1676862808354107
  0.1625521587688402  0.6670262084753600  0.6654160251969692
  0.8291550188540402  0.0839954197396562  0.0843924662104460
  0.0798699513901453  0.6662362728218388  0.5827838769781067
  0.0802546060035839  0.7503076794026632  0.4970978796296343
  0.6636345671443019  0.9150694479562473  0.2503975520714292
  0.0808819287418332  0.9986553510668673  0.0845192474668436
  0.1620872077189022  0.0010386621894594  0.8326115032422555
  0.5795508134215814  0.5003795993255965  0.9168729657537373
  0.7475469050316855  0.7474264702378164  0.4994946706367904
  0.2462000989799784  0.0837040105807586  0.6653973840021152
  0.8304816279186870  0.5009090000484806  0.3333251855549059
  0.6625812753872579  0.3349422382220221  0.4988898255035830
  0.7467024689969656  0.5004559557497513  0.4168054525865215
  0.5792717930654988  0.3338814803149375  0.5819521743529250
  0.0792343812406435  0.0004956776040411  0.7495592253163890
  0.7454477203073242  0.5004010958260697  0.5822777748691893
  0.6621104013748254  0.4155222986246796  0.7503049121948664
  0.0798269654767136  0.1664697023637259  0.7504497590937659
  0.2450188162574209  0.0821312252587707  0.4981353041975576
  0.7449788629151705  0.1665632164281760  0.9172346747188795
  0.7458156376839929  0.3334847945006402  0.9171202301912200
  0.1621090406899705  0.0837164074979095  0.7493286171713973
  0.6628136953342779  0.5829369809899438  0.0842630752699908
  0.7449159300903829  0.4158964358784212  0.8332826373041025
  0.0787912603828439  0.0835493682271340  0.5004939873165439
  0.6639411562215728  0.3339986966818930  0.1670394294517253
  0.1632031899990344  0.5830605340108860  0.7498358210744320
  0.8290953992178366  0.2508324168742690  0.2506289489784234
  0.1615193749752180  0.5003183822071939  0.1669554236594596
  0.6632972795962248  0.1675985460995911  0.6655789374303801
  0.0795298204514420  0.1667570476985931  0.9166406183423155
  0.7459459530253879  0.9998685409701618  0.7486620901524100
  0.1622406707699505  0.4183455791390972  0.2504261091061757
  0.6635296897488806  0.0846074234139489  0.7481199622385666
  0.9984063320010931  0.9996733565111767  0.8319574491955744
  0.7465646523314927  0.0832533983326387  0.8322918574215120
  0.9961725936475397  0.0001056685347786  0.6669399241761276
  0.6629436826200636  0.3323963806172310  0.0010063329272162
  0.9947797534514335  0.9165814900421464  0.5846381405649378
  0.7475460743063942  0.2510541759858647  0.1675989712186688
  0.9122534806245952  0.0833464045295837  0.5012097777818798
  0.0775940535687377  0.9995369767597739  0.2509463660723092
  0.9972136395827552  0.6661177602102072  0.3340065181021995
  0.8315167192270629  0.4993198922994133  0.0008965835151799
  0.0776015597839396  0.0837642644194537  0.3345891967621255
  0.7468013105569998  0.6657349518418959  0.2501074162905241
  0.5800551971442117  0.3339924866327447  0.2501372856402175
  0.2448931210796143  0.9175259290505787  0.0016866070081245
  0.5804322025425045  0.7488307294701306  0.1662793525078987
  0.0784781157671249  0.0842465300647719  0.9997619579606273
  0.7465727896015721  0.8326175877468752  0.0843699516540288
  0.1622364570602864  0.8343996380059517  0.6664705239085423
  0.7465409573971069  0.7487387064799820  0.1668799875419709
  0.0793148398031553  0.8346644323962078  0.7488455629479506
  0.6626619723742818  0.6663487257818782  0.0034554472457936
  0.8296797902111241  0.9152194443701265  0.4184771614836695
  0.6629185849239753  0.8313802187109244  0.3335571200426581
  0.0796724504492256  0.9161842119750118  0.0009260667115826
  0.7471822316935628  0.7478134442438242  0.3337473165052453
  0.7466984435225020  0.7483391643430791  0.8338487822169675
  0.7469717994768242  0.4997177703074407  0.9160192804213603
  0.6640378945487398  0.7481124587346762  0.5819482257186042
  0.2456361466617795  0.9985258622154732  0.2507145092887894
  0.3280038801793554  0.8341649702137148  0.1676250516090878
  0.9967866561530072  0.4993711388649148  0.1662739974750411
  0.1611163876899194  0.9166919130241803  0.2504818893161068
  0.2448831624387713  0.9171913263227882  0.3340211653519873
  0.0808982330755969  0.5832535572567089  0.6653654894231569
  0.8306132573987810  0.5833022423883101  0.0840093275222366
  0.2453355037995175  0.7502077012942489  0.4986045886914509
  0.2451746306325859  0.0829416670245209  0.3350979052728805
  0.3283135165392369  0.8311255084323323  0.4990526357904916
  0.2449137363234072  0.0001538457396732  0.4158183650007060
  0.3280933401454053  0.5861827882949462  0.9175813926723411
  0.5798716973376786  0.6659004903001682  0.7504365316141697
  0.3289229413406698  0.8343545316062019  0.6660435879873944
  0.7465175010331502  0.5832297384859422  0.5002248696942240
  0.4102824303317637  0.8341407279060269  0.0841059016997586
  0.7448536264813814  0.5856375559731343  0.6666665447720461
  0.7469858601283222  0.2512666487051818  0.4997638276312243
  0.9965862260316202  0.3335139378367446  0.9992863097303465
  0.9136693988739296  0.8334905111999900  0.7487336740457743
  0.6624789213285440  0.1686606792089797  0.8338688414249049
  0.1623274760019179  0.3335548015200022  0.3352497323451955
  0.6620907084136691  0.0837116011751747  0.9189866462528813
  0.7465048389950114  0.9179131424159976  0.8310393219573148
  0.0804847821718299  0.5829954195003688  0.9999236118004808
  0.9958354799148701  0.0003267964365074  0.9990144593122821
  0.9134462473309565  0.4992303776618365  0.0835666569736702
  0.9970446381566908  0.4996915934029165  0.0007291577489168
  0.1632954655129907  0.2489602060565041  0.9166274214730260
  0.9967573008075080  0.4173856960314096  0.9172931156754387
  0.0809247025639135  0.4170537583286844  0.8346153633050376
  0.8284262890102327  0.4181036740025979  0.7509220457959084
  0.0801731574518926  0.3329137459389592  0.7507370942550671
  0.0794965737101494  0.4170340463100381  0.4993868892909842
  0.9958907286030350  0.0837404631175383  0.5839298297742676
  0.9966773242022851  0.3343951293157334  0.4999459783958440
  0.9964068983009841  0.4172151056311920  0.4166810602804974
  0.0787843989669543  0.4173526995013257  0.3343225788172778
  0.8306258346123701  0.8326355602572834  0.6657873574420492
  0.9127358032013245  0.9998053702663133  0.5838035578460872
  0.9973122250767232  0.7514393591884124  0.7494771828705115
  0.8306178308784820  0.9164526141688540  0.7487674126798290
  0.8292731942298727  0.9166489903340749  0.0863508688791147
  0.9146101187261512  0.9162040056401122  0.0004454707917759
  0.9126317281164421  0.8332076074122053  0.0848561381358822