Cr  H Ni 
 1.0000000000000000
    21.1200000000000010    0.0000000000000000    0.0000000000000000
     0.0000000000000000   21.1200000000000010    0.0000000000000000
     0.0000000000000000    0.0000000000000000   21.1200000000000010
 Cr  H   Ni 
 259  52 605
Direct
  0.9127088590264358  0.9999819582752246  0.0837006756356817
  0.0766283313435461  0.6690718342885152  0.9135622473494852
  0.9122456095136426  0.4164002948391188  0.6660968849337987
  0.9094384215573355  0.9174947149093270  0.8317324124112725
  0.9126660073430133  0.7488743825425624  0.4999701980049271
  0.9108855559864217  0.3330292056787165  0.0841121355690210
  0.7452074957981942  0.4155718231966217  0.6652175724492883
  0.0800346599838792  0.7481996996053184  0.6642409711975383
  0.0803090306403464  0.4997712769589693  0.7480816037614028
  0.0794605434582152  0.7501663689197763  0.4984228862800069
  0.8299877848698697  0.5834556171252572  0.5829986333552898
  0.9962699294351125  0.6634385511541799  0.8300309674597306
  0.9960177848400144  0.5829873793734465  0.5822457364849817
  0.7460944167395891  0.4129585636231839  0.3325988575808069
  0.7499549092878329  0.5841988122568437  0.9995420808829524
  0.6616191575893725  0.6667199163641073  0.1664985536016385
  0.8293663927836700  0.5833433710596923  0.2515207806305554
  0.0796310522626298  0.4997094681043244  0.0872949463999283
  0.9964682127249794  0.3341004377686708  0.6654759539928524
  0.7467309301590956  0.3356322662558528  0.5851448120954927
  0.0774653613192140  0.4994818542870585  0.9141873950959132
  0.1628135618526564  0.9170455029581157  0.0839041687130311
  0.3288742892323673  0.0827067286779616  0.9161854786548075
  0.8298951222102253  0.9163889871139599  0.4211188298593979
  0.9967391368259191  0.9996033107803115  0.5000715191193855
  0.9962369635348036  0.0843955632755717  0.5830401603392217
  0.3292609609841065  0.9173384072116441  0.4171088024712137
  0.9959205174647336  0.0848097603076960  0.9136594114806600
  0.9948947469543873  0.2536245229702451  0.0861162283427151
  0.9958438526003732  0.3331735133663726  0.1667860102782392
  0.2516790592857974  0.0813509228493487  0.8345776802714772
  0.7419407237841190  0.9140273392432123  0.3338738275180436
  0.9947550358767341  0.8334814876337527  0.0005530895305637
  0.2440871275179402  0.6664613216716219  0.5801573881302422
  0.5789993549841111  0.5008301496270590  0.7491505896648873
  0.4125973285810965  0.7499208447532817  0.6619039598937735
  0.4163070833832710  0.0834366733466595  0.1673273469482545
  0.1608487967021686  0.0010703675513896  0.0028101160762623
  0.3281892498048710  0.7489190788218811  0.4173975899412894
  0.9946609144068919  0.7507776733544294  0.9184963972102317
  0.3261350756966040  0.7477707881924053  0.2504423540078650
  0.4116056131666838  0.9192552538092013  0.1691824871535039
  0.1625562665659254  0.5828652065818517  0.7495118824595844
  0.3262358900198548  0.4987146765149711  0.6677296418244596
  0.3298063704080766  0.8333742233256967  0.0012431708790085
  0.4956135356318558  0.7477126467728873  0.4189710340418680
  0.3280962960333055  0.6676819569759818  0.1715035151647401
  0.3296027672037183  0.5809298679503293  0.7517761890350256
  0.9113009204025665  0.7474860091730546  0.6655928645350477
  0.4944775619982888  0.6680672949837267  0.4979956160698163
  0.1629769947962775  0.8320220469778061  0.0043897333404264
  0.1633987486909473  0.0016633716204577  0.3326837881575900
  0.8306640165772089  0.6672547509776595  0.1676655199887712
  0.2453049131130602  0.4999606879884528  0.4157144892340360
  0.8318317034731493  0.5021676413718679  0.3322272853209839
  0.8287957689391605  0.5013744669618844  0.1668553758200952
  0.3297271166770306  0.9999726885788168  0.8312385161902927
  0.2455716354457264  0.5816667008666345  0.3344600956661466
  0.6622319800902108  0.9146790283402350  0.7499252523848079
  0.8301735778224723  0.5814920485601801  0.7504235487708617
  0.6606597539286626  0.2502103775520207  0.9166036691587286
  0.4124639274171845  0.7493525772073708  0.8384380456639656
  0.9108766351810264  0.9131913279020785  0.6666244749762887
  0.2451490236067769  0.8332425171686993  0.7492708291478070
  0.3290943991514213  0.9158611111044618  0.7495316241405212
  0.1639586020501493  0.5016358009947419  0.0031958378416547
  0.7465166985739387  0.9168924765405775  0.1681573425894331
  0.9119213820100780  0.0888189701489122  0.6655624251196889
  0.5786434186700671  0.5833311058840344  0.3331100391329808
  0.6654096660600430  0.5836526960604356  0.5831823553929596
  0.8285243868748541  0.8328976468333518  0.5008726692784410
  0.0786666468744721  0.2529678134900708  0.8345735207570900
  0.9950402689131164  0.0840399163580528  0.2512733511736322
  0.8297249536052108  0.9987349196305892  0.5007601116394090
  0.9971437797071557  0.8331067076384989  0.3343940800717773
  0.7473741395142999  0.6661192594892452  0.9165396222242148
  0.9986956649847154  0.9160186572657570  0.2518196177368544
  0.9942768900143043  0.2513109122393915  0.2499675792814260
  0.6626907416501940  0.9988048708496358  0.8319678951895840
  0.6618428688674529  0.6667018187556563  0.5006590579581623
  0.1613404744572943  0.0835517981388893  0.5843161796749896
  0.7469047667812727  0.9130984644883973  0.9991212746532060
  0.9125982288558158  0.3344201695075739  0.5821136973024251
  0.7450138146983794  0.0846301286562159  0.1666759054582161
  0.8289843912803079  0.2514579413004181  0.9168742133223979
  0.2476457283915121  0.6680908985399161  0.2508457483481821
  0.8277025004060360  0.8334092188986658  0.1674735659160062
  0.8286343191678441  0.3304164189546740  0.8335569009370071
  0.1629660970504011  0.1651189570993907  0.1677957302084482
  0.0783061911683063  0.7509438552455177  0.1666963110985727
  0.9140859997224396  0.0885581436317769  0.8325534476162402
  0.0777768692210996  0.5000676638393947  0.2494655786838982
  0.9125190840679708  0.7507557565437614  0.1668574863437803
  0.9968317208061227  0.2518675777423154  0.9184054200731746
  0.8277071483567123  0.1668904653023141  0.5010373515886685
  0.9146080081623036  0.7421085628716276  0.8357328915345140
  0.6655385536173204  0.5001229115620869  0.8343536836100096
  0.6654030222450316  0.6671403539010379  0.8330324150650489
  0.7460473641837434  0.3352664995333096  0.2501967501764083
  0.9130464775452752  0.6662178939419613  0.9164512426963136
  0.9967292683923323  0.3334823685987280  0.8328490061987484
  0.8302177297037602  0.0856427235519248  0.7472341834779367
  0.5791901619837091  0.7492042912435434  0.6663425344590643
  0.0793473426549895  0.9136013018993541  0.8340961475566419
  0.6631843938517069  0.9164447320837501  0.4151953875265576
  0.7453078772753675  0.7492905435145873  0.3350305107682563
  0.0751973598030134  0.0879906409761025  0.8353059269886146
  0.8310025384200419  0.9164183548335814  0.7506975136230586
  0.6624599018648744  0.7502904643557706  0.7486505466345073
  0.4120581308289258  0.3338503963657570  0.0823149256471253
  0.1643941621471965  0.0821343397452198  0.0848443868888734
  0.9129448062279203  0.7504419961916395  0.3342862663012081
  0.1646299244612331  0.5829352151072843  0.0843417711976351
  0.0795322424253065  0.9970214970216976  0.0836783518617602
  0.9959855685917526  0.9179704506700983  0.4192048508463022
  0.0803460024268439  0.2518110972334194  0.6651030449974391
  0.1633488813832395  0.3334576242696554  0.0003015126959521
  0.9127217807332173  0.4160725601420791  0.0012407353320722
  0.8283973393006994  0.9993586362489261  0.8322220205486860
  0.9953834812464812  0.4163262315301642  0.5821197705328953
  0.1632696436620589  0.4158291663517885  0.5821097620251251
  0.0801925960232152  0.7514746059914924  0.3354229098542327
  0.8293292457714733  0.3337208551518994  0.6676653601631071
  0.9127879659729692  0.5828926714063287  0.0003678641859967
  0.7454265861215646  0.1666896805123949  0.5827576007735048
  0.0793673175866193  0.0841126986903431  0.6645797808438850
  0.7461809791897314  0.0005108843196068  0.0852915255587067
  0.0769178344710955  0.7458340645353021  0.8338835112879578
  0.4956250295933027  0.1674796214558780  0.8345434985344468
  0.3279212349761481  0.6676338329585269  0.4983100832198906
  0.4106756913463083  0.9187757518502337  0.6677900681909816
  0.9932964540294527  0.3328853735866923  0.3336548257763003
  0.6606822293755555  0.7484470024911856  0.2481988233349134
  0.8247408940650004  0.9156431729438210  0.2456208009399490
  0.5788090396588046  0.8322933272582035  0.2482728789462059
  0.4970494653233706  0.3332588954512608  0.6673061844719457
  0.5800087685918905  0.0829426731187291  0.5009437329456410
  0.7451689834912698  0.4153526900877321  0.0012103841070434
  0.6617877377567051  0.4172866645928612  0.9172998414666305
  0.9954736845696882  0.4160549909306799  0.2498913835974882
  0.8300801324216639  0.5021193932873093  0.5005446792551488
  0.8265386220091712  0.3376412821417900  0.3332919704391216
  0.2452774061339273  0.8340670254853658  0.5823549128342264
  0.8287398516440183  0.2509772707945183  0.7494119964007376
  0.9127525715116446  0.1654498634927966  0.4184537761561763
  0.9963857149899594  0.3333226812092924  0.5004466120161458
  0.9952754911941001  0.5834140404987956  0.2508832888581864
  0.4964958191180899  0.0852751089884453  0.7501177131752292
  0.1621174970972959  0.0844402870697383  0.2508997217432259
  0.0805279357645430  0.3330329556536268  0.9174108687449724
  0.6615303436732287  0.4998350913637294  0.1657584312708812
  0.4952858650671493  0.3329086463865227  0.8340515090518951
  0.3302398309401760  0.0845531545319567  0.2523880863706879
  0.7464440506426266  0.5853347200690884  0.3298457641113229
  0.5780704505134052  0.8333986293645639  0.5833453382018597
  0.7465946512310632  0.8319825897363249  0.5841013207696616
  0.0785999170879967  0.1668474727414734  0.4163558646589604
  0.8278057218488031  0.1656932639412545  0.1667861532984749
  0.6605180492034347  0.2494994641056289  0.7491776160751072
  0.6627409603013069  0.7480344214654178  0.4179690680579933
  0.3282193016594858  0.3324791385113979  0.6673700945976021
  0.4922061680709543  0.5004135848813094  0.8342955106110798
  0.4103632641772948  0.4992660746209145  0.9184812909638587
  0.6620614417583865  0.4987714643282941  0.5008385511050631
  0.5785263718007017  0.4160820193222374  0.6669408898299549
  0.2446081536805260  0.3303539467889632  0.0845266914902250
  0.5794008084732306  0.4169865221565090  0.5010617894367853
  0.6613859061922988  0.8330622484559495  0.8323677432428485
  0.9160183884729448  0.4163015841217885  0.8326280717326450
  0.4955439739647962  0.4993112804808616  0.1659443940667324
  0.0779315027495236  0.5002937678710445  0.4163731925946377
  0.4145912359400817  0.5001413140744219  0.2498516671739421
  0.4128279266315040  0.5003390868683918  0.4148026685943876
  0.4915390821954059  0.5841626927503302  0.5781965831072478
  0.2444686620710659  0.4174940017983270  0.3340128777835328
  0.5749940041959124  0.5840018183773438  0.9999647402366033
  0.6624652733139976  0.7467192552158638  0.0866143575949223
  0.0792317223666099  0.3328401556259564  0.4200798477783121
  0.6620005681773956  0.4175059272312577  0.5818601391643653
  0.6628608891970809  0.6680777457003735  0.6683043386967137
  0.5790802705540476  0.4153558820538015  0.3325570155303717
  0.3289671456169930  0.4150311055443519  0.9177545879189145
  0.2468691610560456  0.4168320941246801  0.8334619953237259
  0.4952998582425253  0.6665947455144020  0.1667216531415546
  0.3312170282884592  0.9997941294441167  0.9999287380622035
  0.5756868668679983  0.7502723447618670  0.0011447738551231
  0.5788204131025741  0.4163184677389002  0.0006377794579603
  0.7458028737830711  0.1691361526035497  0.4184244838913374
  0.3285811979830422  0.4156639907417585  0.2507754269153514
  0.4961831489011155  0.1678530852186829  0.4987842702162662
  0.5779590529426958  0.1663497893333608  0.7510179933658847
  0.5783221193427543  0.1659776798582719  0.9144024511316188
  0.5790825397327113  0.3339698797298190  0.0825631177935183
  0.5776151247964215  0.1664704049654551  0.0817347255030811
  0.7474114426450725  0.8341812166695344  0.9170134150388033
  0.6577668066764604  0.0844284975873050  0.4177448374178266
  0.2450097635267219  0.5830859022181384  0.5004670124597461
  0.4973751254927349  0.3328779485084716  0.4988007007520447
  0.3302355681783387  0.9166605165236907  0.2514880453188598
  0.4132838964630047  0.5830415846849656  0.3335544960732078
  0.6584840836950683  0.9991175600041829  0.6673820725754547
  0.1615695402572655  0.8330751054063540  0.3345310963643501
  0.4120010093501118  0.9182356551689735  0.8324177498569484
  0.4970514060585756  0.0856041088037835  0.4195331877688298
  0.3303045686933124  0.5816471366591550  0.0848404808264286
  0.2482067785022710  0.9173541180760693  0.8286232923332510
  0.3302863730135753  0.9996686648162125  0.6670038842069108
  0.5779510630385039  0.9169565193720239  0.9994464785699427
  0.4968777631356130  0.0836012997862456  0.0830279070858932
  0.7457696470870643  0.3349497218551371  0.0824391646284929
  0.5780560566649081  0.9986544634509349  0.2518204464233031
  0.5766433540029376  0.9157056953079494  0.5009648407928905
  0.8312675421674147  0.1685552701388651  0.0002939900937826
  0.2417837767079192  0.1650741119373090  0.0825549975242742
  0.3305212438775985  0.1686927807251259  0.1696741839978965
  0.1631515503685522  0.5836966693821043  0.5814664841763407
  0.4135222805778401  0.1661990347407828  0.5821237264109923
  0.3299775417884427  0.0847652642555874  0.4169300061139977
  0.1630753681136681  0.7522341827297870  0.0846823223514762
  0.1624485280738826  0.0017749202980106  0.4999456539073808
  0.4103459961362735  0.9170738691328150  0.4983790283146314
  0.2474478246156046  0.2498056229908653  0.8341018780006417
  0.4127276714764085  0.1671924783349670  0.4172157539130230
  0.2467952775162597  0.9180885447374929  0.4984905875537809
  0.4123200358057068  0.1668226209312303  0.2506304367827836
  0.2462679165764743  0.1676435374243417  0.5846825779738943
  0.2466932204123702  0.2497579773944339  0.6657372019371813
  0.1643910817000894  0.2486339443247749  0.5828144008842292
  0.1627658005115914  0.1655945642121390  0.0010908321180035
  0.4999479418273672  0.3342262484671598  0.3322855003425890
  0.5788447368448394  0.1675223832005208  0.2497371618800538
  0.1633171668642200  0.3334795484804143  0.1671208720050718
  0.5775503711341375  0.1663510967118914  0.5825825310757653
  0.4961813891482257  0.0833600407457293  0.5833658059930328
  0.8286067957214773  0.8338486874271721  0.9999810367200396
  0.4115124945279232  0.6691291936002681  0.9176211380130342
  0.3282400391654376  0.3338702243513811  0.4988427529071109
  0.4110141582490042  0.4149849955780649  0.9993044518979689
  0.2447340579308576  0.7504651012548479  0.0029552919239504
  0.2451673848270013  0.2502722568558773  0.3314374416551384
  0.2470070424374806  0.9177973904209504  0.1697751620122678
  0.4969464607073568  0.0834171009149015  0.9155054722084072
  0.7456465043863301  0.1658843173300880  0.2475861341784008
  0.3277520612735341  0.2499959328911796  0.9160273994360592
  0.7451908993789625  0.0842920400470068  0.0004575498758442
  0.5780389975545726  0.9993746230448092  0.0826657911427099
  0.7451075768972992  0.3354910112959650  0.4158244803417121
  0.2453014087362977  0.7499679475906238  0.8330566471302999
  0.4147423798592066  0.1657430151554564  0.7516406774204317
  0.4933772118255366  0.5814067712087500  0.7548697127090419
  0.0799310866047053  0.9170688375926959  0.6648748936262312
  0.4120313939960043  0.2504262302356544  0.9993227808639963
  0.4119084763029427  0.5008449746075406  0.0852888979659438
  0.4124197212204686  0.4991349219298719  0.7534325244196058
  0.4131630409865334  0.5019789534831692  0.5790567850104276
  0.4112813017159079  0.9165021721041799  0.3342325609980897
  0.1607479557461012  0.7501916453437443  0.4166475401764030
  0.1629278250933718  0.4162955140278396  0.7513635278823533
  0.4132819626648333  0.2480437868462050  0.3330666705752186
  0.8266258778957356  0.0869994361778915  0.8355232908498943
  0.2460876401853253  0.9167683736600007  0.9200717657153703
  0.9137272952556358  0.0013600667936493  0.6648537868864881
  0.2450935056370568  0.2494007625445623  0.4207855742532551
  0.3313912359100125  0.1659885171199356  0.0805470323845507
  0.8267859333877254  0.4190098324492763  0.8346509271933488
  0.4134941929202226  0.8300611687319090  0.1667470149334506
  0.7480193137453508  0.0005680583902392  0.6659077022463298
  0.7444481466661772  0.4995032593814206  0.3328960949393342
  0.3267482204757006  0.6710806962389297  0.7498164528372542
  0.8296136210837534  0.9158633661880355  0.3335981073053047
  0.6605669284601783  0.8366708618868506  0.0840535943928592
  0.7424135525676332  0.1718240639048276  0.9994743325597568
  0.1658990764598077  0.5012865030213701  0.9140730599913828
  0.0791932601919882  0.6683073516782547  0.0039312744361996
  0.4116311099775162  0.4122798092120608  0.5826674771341633
  0.1617244147922825  0.8331568001264807  0.9133431441433624
  0.9965341443495336  0.8324208783054101  0.7482487574013196
  0.5790047278360489  0.4992006852466042  0.8360049423549301
  0.4128216533519947  0.7508328055251783  0.7500606615004365
  0.0812183663706554  0.3330356249526658  0.3314024588231810
  0.0798854743746295  0.0013237330207694  0.8329464378437142
  0.1574799730609971  0.6657599078141951  0.2510967128494875
  0.9122699448412642  0.8297140823692530  0.8335434478649166
  0.4167120782313926  0.7492930310315714  0.2518661883047622
  0.5771921718106495  0.8329666668101809  0.3378347541832835
  0.0770098028233184  0.4996285316625600  0.0010785356085098
  0.7456038168882873  0.9990896991074854  0.9977960656715622
  0.9117860666269491  0.9165871584315164  0.2504424026209890
  0.5755057344313292  0.6680194297105911  0.8343692494475677
  0.0756465804461747  0.5874429844354598  0.0846170386033413
  0.5788600428713504  0.5837708619066955  0.5841016747232279
  0.2459782601392103  0.5850258816478018  0.9166027387127901
  0.6647517587405822  0.7497737933047069  0.9977586040310756
  0.6645054387715562  0.9156602074979621  0.5042317738798319
  0.9943873498066652  0.0834711905654011  0.0043413245094019
  0.3292861461817726  0.6704480531937529  0.0815544555370492
  0.9146649333295663  0.0030631250137940  0.8338685749688843
  0.4126321357997633  0.4982458499212213  0.6659444656669351
  0.7448617545778616  0.0031829330950457  0.3326587139639928
  0.6629791806730770  0.5831335596822556  0.0008969680552377
  0.3281560703622048  0.5867091046745072  0.6634167300169145
  0.8297543908455025  0.0834609233751216  0.3332870675422119
  0.0756890508298590  0.0861797391253330  0.0848160561584155
  0.8286790768163923  0.2477594393161895  0.3332252291118461
  0.7468172533896656  0.0810082945226973  0.4183090323091244
  0.3285460113702776  0.0822868949400462  0.1650140615608318
  0.4960135501359950  0.5852778961002321  0.6666884984105720
  0.7473367601610872  0.5830694139160931  0.4200207780899213
  0.2463748183760543  0.4199889574829517  0.0847393762142121
  0.1633316259691637  0.0831028077253157  0.8333332575544276
  0.4103283123138212  0.3368920866363212  0.3325747554183796
  0.4135534237494590  0.0017966349173911  0.7498741343900768
  0.3297653085939559  0.0836192049535974  0.7491079037373995
  0.3289021153088599  0.2508242626665708  0.2501686723076564
  0.4134272034102859  0.0849056202657310  0.3340866948135627
  0.4122525507081802  0.0829790751635296  0.5004429413580107
  0.4133721112741601  0.3332890920735527  0.4170926175205064
  0.2456487920145369  0.0000821911396958  0.5829967125107367
  0.3293166427818025  0.1671964662721467  0.3331966200297737
  0.3303250789068713  0.2505332706590077  0.5834593763595254
  0.3291008539163617  0.1667696181267028  0.9975954031435034
  0.4143960745903034  0.1666393607331893  0.0829566539926969
  0.2462839009651914  0.1665922087138414  0.2504543224216769
  0.2450426390521944  0.2495436531335999  0.0004094439430645
  0.4131981504577979  0.0842092249234519  0.6662629682452155
  0.3293551174330397  0.0841339328316119  0.5838753351427940
  0.4129605057042185  0.3316415617988402  0.5831104452253983
  0.4946807341342475  0.8334817069565230  0.8333966932113321
  0.3284682120303338  0.5827975665488381  0.4157411434745287
  0.4122845629566488  0.4165204012089301  0.1663131909425329
  0.5788872383453608  0.0832656421646348  0.9993904115029558
  0.4126588972902907  0.3335776564110877  0.2494706352823889
  0.1634192283808009  0.6677023903613970  0.0017925034777491
  0.4130913529591422  0.2497205768196687  0.6667178747605673
  0.4966741258437863  0.0842982989194980  0.2501995867531149
  0.3296630245400666  0.1664809873455167  0.8332958634910141
  0.2456241995509746  0.8337692344894871  0.4167039580086281
  0.2458427102492643  0.1661814000022737  0.9167066647981343
  0.3279456139529089  0.7532024464907858  0.7495612761351794
  0.2458140327661917  0.4167236036335308  0.0003491116956500
  0.4126169981932285  0.5836905915240418  0.1684259294575565
  0.4958267541985096  0.0001674747926523  0.9999485108140920
  0.4966564786340377  0.6661922650479198  0.3345495775857461
  0.2451525279446704  0.3331767599449447  0.2500605893234284
  0.1611397166351506  0.5001271198268303  0.3338761973217463
  0.4966327662063410  0.5828872122602151  0.2499472261437137
  0.3283350786375248  0.6682594233131753  0.8349002892007958
  0.2459971061714570  0.9163368819758912  0.6657315370404420
  0.4121645986529883  0.5826196774885684  0.0011104816076630
  0.3289163343059317  0.5003105975037826  0.0012096974157557
  0.3293399071362027  0.5827328545634359  0.2514053325874716
  0.4133648538005705  0.4190015721799306  0.3326426539956482
  0.1627800160001983  0.8341147477612498  0.4998183382763653
  0.5784375215886540  0.4154140158425845  0.8335179281291617
  0.1628887394645196  0.9175875015407953  0.4168072124739576
  0.3302844740477577  0.9987155261673097  0.1683116655022805
  0.1622710484457605  0.8343408600016399  0.1675823506007264
  0.1619205670564354  0.8322054904797201  0.8306972027732081
  0.3282112335282361  0.4158896294402912  0.5824009517103417
  0.2467286612491468  0.2496424265173059  0.5027117350407543
  0.2454263728569529  0.0006242153498472  0.7481279515415195
  0.4124968722865759  0.3326688580077806  0.7505745544327229
  0.1621367211494033  0.0001408999103602  0.6661504834774025
  0.2448342388059863  0.7507952318241111  0.6647192271104203
  0.1620445750088485  0.9158881311140464  0.7490186108362852
  0.3299655039004571  0.0819236940794123  0.0815952156814920
  0.4947665413382536  0.4158556913192026  0.9178069757798939
  0.4130392676116864  0.2501439525500301  0.1668807611836041
  0.3288411200284015  0.3327748417347028  0.1665616296795287
  0.4956878836162242  0.3329291022907283  0.0002599407261874
  0.4138289203726770  0.0841484636697645  0.9991173059494250
  0.2462436833443985  0.9997462492012845  0.0843252575266334
  0.3293772333212203  0.4172188685602183  0.4155430759565599
  0.3297310119189365  0.2498084965852406  0.7499797765719651
  0.4135021812441046  0.0002167494088020  0.0836486086664934
  0.6618952242516531  0.2507224827804037  0.0837346790635841
  0.1613513489572118  0.7515950660964101  0.2510057551767273
  0.4963860400415573  0.0000019209136495  0.1679632819800064
  0.4125510820469139  0.2502365108985369  0.8338399305630533
  0.3290927783938797  0.0008419590193930  0.5003029141839020
  0.4114456805320753  0.4156400975838715  0.8344099590620062
  0.3303086936157342  0.5000525655640703  0.1689534479305373
  0.1621967247657303  0.6667145749096626  0.1672244013518792
  0.1623808102483709  0.7495529810223811  0.9161992238548818
  0.4961337803086470  0.5829637800558680  0.4162339264851024
  0.2457853980402390  0.3327753551947822  0.7502365675014138
  0.1613966692978420  0.7497141816696417  0.7488541540275414
  0.3291209226369419  0.5825810293756238  0.5801613927185938
  0.2457699101801723  0.8332841552023518  0.2516086917590781
  0.4103095069090444  0.5842779132536081  0.8355976797095259
  0.2474735303638383  0.8351781643553299  0.0857721554552153
  0.2465021189416894  0.5830140586271757  0.1686639548940785
  0.1614552930492712  0.9171353581053228  0.9172446211843799
  0.3282185243387967  0.8331599423835826  0.3344393330666602
  0.3281945669100099  0.7515962413485825  0.9173736990070552
  0.2452115729525432  0.7498849057280448  0.3350220830811295
  0.3280327734648187  0.7509678094276718  0.5818396638831198
  0.4108701200684949  0.5836332016363760  0.4970632554627497
  0.4113611966043343  0.7499496577000981  0.4992389137955460
  0.3288291322574123  0.6675765105374323  0.9992265698418550
  0.4126207122618046  0.8347807589487699  0.7495264723894184
  0.4112583852186241  0.6671687722072933  0.5807905218974624
  0.3305435501270749  0.9168648954632499  0.9160434104451205
  0.3291217700123635  0.9167194850150026  0.5827834853729329
  0.1631517172692685  0.4156592982303113  0.9166041283778703
  0.3300471137467864  0.0009728273902478  0.3343964013500385
  0.6615956825326278  0.4164076593422956  0.2488790986193565
  0.4129088744873208  0.6650492730021714  0.2514998932125500
  0.6599829231284153  0.4998405977716484  0.3329981348897094
  0.4128497264268821  0.0009400160977517  0.2516218377201486
  0.1624647936909870  0.0834675339552989  0.4165574787989424
  0.4119878529188804  0.8343103219912286  0.5825256033246908
  0.7462787590571380  0.4172736502044369  0.5002607046678925
  0.9938743895697754  0.6669559395210514  0.9997639742494259
  0.9127581156029084  0.6651394735867882  0.7481226356681596
  0.3300283116123098  0.9174753185988896  0.0853177592967633
  0.5799024246506430  0.5842372135959565  0.6682053388298843
  0.2437365347624398  0.6675144305587331  0.7492577206729477
  0.4959821430776632  0.5001018465374907  0.4980983798496017
  0.4122707062338982  0.8340842900507618  0.2523393676182679
  0.2451182749716782  0.3327389824586490  0.9169243475307640
  0.4938047716753007  0.4992573251662132  0.0006790857134268
  0.4121625746949732  0.0014742396676884  0.4170811132717492
  0.4953839937050084  0.7513178745465721  0.9177761963031582
  0.1612827239998038  0.6663625278833138  0.4988334593107728
  0.3293961302063468  0.4998900773056332  0.8336324215625707
  0.4119481410919887  0.7493124372748520  0.3360142802357330
  0.1629027945780253  0.9172555237496692  0.5829098392649780
  0.1613374231096882  0.6658907713412416  0.3352363691585544
  0.4960088487429833  0.2505473442959166  0.9169323092191164
  0.2444733519432858  0.7515222774519629  0.1671259832036774
  0.4130132635164157  0.4156595746206704  0.4978529339960349
  0.9955574434200836  0.7509951979973393  0.2511476888486747
  0.3278203620926383  0.6693074761478004  0.6641144499574118
  0.4133269484657967  0.6666826498403398  0.0843325685914921
  0.4122986766826735  0.5840352377509932  0.6661706268429179
  0.3292367378774106  0.7521782220601083  0.0842036527532626
  0.4120954427322996  0.6664172698152013  0.4159873655049325
  0.2468962550966615  0.8325681881245289  0.9170067745201934
  0.2451324295260775  0.4993361416386353  0.5824532390620881
  0.2433967755541309  0.5828217152062191  0.6651599446739596
  0.4963160300749415  0.1669671799578452  0.3335869706284181
  0.2462569983969672  0.5842791428649697  0.0026313592486200
  0.0792055033003020  0.0006279983654398  0.2511018714866499
  0.5781591150696930  0.9992730471336480  0.4171139177564083
  0.9926867889195908  0.0827463195959104  0.0857055261903366
  0.1607015602961311  0.5852546752223358  0.9166496584538997
  0.7456642106567194  0.2506437468785213  0.5006501762770063
  0.4951370661303215  0.0005581060997320  0.4996947480547639
  0.5788209125215535  0.3334934495522783  0.7504616930699858
  0.5784973473676387  0.9993242062201062  0.7499035864457450
  0.7450204018072343  0.2507011990971525  0.6663101811282808
  0.2450492981264490  0.4995472283061261  0.7495919276231093
  0.2465261778489324  0.1672344742369732  0.7504181038195086
  0.2451548808212292  0.6693353592962872  0.9171062845421972
  0.7443658500968767  0.2501077218393560  0.8330385562393507
  0.4964424645658486  0.1668182118055576  0.9988008868979172
  0.9961169357254039  0.0833396456277012  0.4183283262476136
  0.5786110415555420  0.2500092532224253  0.9998343057143787
  0.1629402399524478  0.3329097809686135  0.6659622200723778
  0.1629419512880397  0.3337902744958849  0.5003652521351346
  0.3287317912784573  0.4998603358897494  0.4981649279672200
  0.5797465674172204  0.6660668171646971  0.4170602358487144
  0.6628472476222556  0.2508698952697935  0.5834639246280362
  0.4989274152017857  0.7489955379216060  0.2504932394634472
  0.4125409802213898  0.0825053810320255  0.8343767629790833
  0.2447738818291253  0.6656377039701706  0.4167038534430502
  0.4959239302796413  0.3334622344721508  0.1653137013918493
  0.5792617167799489  0.9171861694181497  0.8326180356967938
  0.3305638023013051  0.2501560965370710  0.4168185507694809
  0.9964200410859695  0.1701651756040972  0.8328043313149905
  0.5793625599766811  0.2501813740556416  0.3324703972691430
  0.4123749038050891  0.8340648882520265  0.9167964775865890
  0.4128694411212201  0.2503275354293145  0.4997289826626956
  0.3283929899514750  0.3327563804566495  0.8336628982006196
  0.2457193740965587  0.4170780000055291  0.4996519286044219
  0.4956113926334629  0.9163372458516081  0.9167744005139961
  0.1618518701902872  0.5825975039774661  0.4166651584453556
  0.0796617405604615  0.1686564949669030  0.0850865190254735
  0.4943105459826079  0.8330619098626849  0.3351003025536320
  0.4115963124444517  0.3326360414234784  0.9172672512010829
  0.4970816655099836  0.4160558207959204  0.5823694353264420
  0.5791162655445419  0.4166488905902211  0.1655838198524607
  0.0788281510948883  0.6699175284474006  0.0864683126902975
  0.4954378332003692  0.4164443292597696  0.0829898730214782
  0.3281522043958170  0.6661223346994526  0.3346154756152824
  0.4967075201828736  0.2502994978485526  0.2493801119443828