Cr  H Ni 
 1.0000000000000000
    21.1200000000000010    0.0000000000000000    0.0000000000000000
     0.0000000000000000   21.1200000000000010    0.0000000000000000
     0.0000000000000000    0.0000000000000000   21.1200000000000010
 Cr  H   Ni 
 259  52 605
Direct
  0.9118169600163100  0.0015130964832377  0.0850219567486495
  0.5780012188730613  0.7471473540387448  0.9977471988666043
  0.6617424849997897  0.8323056210560160  0.8335486394785292
  0.7442743106699123  0.0855351906299107  0.3344654208022204
  0.5792316035069230  0.4164027117819548  0.1671150425373127
  0.5780028420209359  0.1669201294094389  0.4176761275774161
  0.4135698710458190  0.4991287259484203  0.2497651129966592
  0.5789172585959259  0.1669700063654984  0.9148876530528094
  0.5789061203338391  0.5838147484276671  0.4989128117313110
  0.5798530260342409  0.1692331224955334  0.0818685378397652
  0.5792274034222004  0.5842393393167387  0.9993474560659789
  0.6622458522208647  0.4993960447989216  0.4993740287037990
  0.0817028899863665  0.3337946066053447  0.4167983341401986
  0.5797506193052745  0.4985325972186289  0.7505178502541501
  0.2431340632330719  0.3337823112890990  0.0846214529990988
  0.5790144341317776  0.4169507813207817  0.5004416060650672
  0.9130145794404524  0.4148657316146253  0.8314768065291088
  0.2461576676309563  0.4167245075438617  0.8337328604748550
  0.0772038873770721  0.5010757662938962  0.4179161087508190
  0.3296382305336315  0.0039758422365784  0.9983072861726552
  0.4136846895885535  0.5010953149221756  0.4147724228158231
  0.5786310041417607  0.4177249056460443  0.9988508498147181
  0.2445956715981432  0.4173685817224772  0.3314335703014463
  0.4117827219101074  0.4172581725803785  0.1664055351438790
  0.6648290337153387  0.7496219838531422  0.0821039459738467
  0.5779734478087868  0.1666817223789843  0.7505717723552836
  0.6605664206262416  0.4169505905724347  0.5826449052407269
  0.6606898183904821  0.2501554239861652  0.0839749216419783
  0.6621369334520221  0.6676095370175895  0.6682543152894698
  0.5790894615342999  0.4147042500787935  0.3336244197962613
  0.4951792857745509  0.6659721886142943  0.1675715955381668
  0.3290612818887284  0.4148965278587610  0.9178910435850037
  0.4132082091395487  0.5004353584765312  0.9151583284677542
  0.9955914513909448  0.4166086216861645  0.2516630530743852
  0.8281640539450404  0.2504336355341872  0.7486437397734398
  0.2424291843616831  0.8303584297021811  0.5831548386210739
  0.9945164342875970  0.5828397586885908  0.2513765384295631
  0.9076268540202946  0.2492548427383492  0.4981428040498154
  0.0797461879479637  0.3336227990427920  0.9182501299109113
  0.1621629568667388  0.0839817538697814  0.2507843122098958
  0.3287899200144372  0.0844524473011931  0.2503730613486163
  0.4957770361944700  0.3335960975378794  0.8340751937354741
  0.7469244658092595  0.8335864755122171  0.5811596675747219
  0.5775458561816169  0.8339459423795297  0.5822459131502830
  0.9111317041318294  0.1678665616294889  0.4188873333448156
  0.6602699904330477  0.2499502226163454  0.7491501877040835
  0.8275455151642801  0.1664500842855328  0.1673591526765317
  0.4968635159964542  0.0854385480093395  0.7498783094140669
  0.5782574993019896  0.4996040143547960  0.9169312762141636
  0.3281261613215778  0.3307065198472279  0.6664107064598682
  0.6608003373831368  0.4976066778275116  0.1662020563952021
  0.0788466224248561  0.3341314517457270  0.2498460418912166
  0.6622922855359071  0.8306069305936993  0.1692167255543146
  0.6625592403780964  0.7496537831975741  0.4166455842366071
  0.8279116753536954  0.9163639982295460  0.2516248106986808
  0.5798478947278014  0.8315951940237364  0.2507489775948483
  0.7458776183590695  0.8338014457574773  0.9152097975861290
  0.4965549243168045  0.3326717608202716  0.6659688440254528
  0.5798389943397079  0.0840513064665901  0.5002052754291648
  0.6606786111170759  0.0839845059105857  0.4181360366565364
  0.7454395507592403  0.4140275344729882  0.0014491395560627
  0.5786007835476522  0.4165103792744098  0.8330733776523419
  0.6613117110349549  0.5821854329624161  0.2504677551892699
  0.8273442012107259  0.5014681807272263  0.4989378219782452
  0.0803762313848361  0.1668880258901270  0.4174534037976875
  0.4963786281184929  0.3335425361391007  0.4993955582647280
  0.3287900798346531  0.2500998178261756  0.9199516221172577
  0.0777820578679106  0.5812971185917059  0.5007892083766052
  0.7464416868617822  0.0849691464663849  0.9996970283730511
  0.4947391481339143  0.7503103324227585  0.9157728146510737
  0.4972343812189923  0.0844278007725414  0.5826513337191723
  0.2444317496551098  0.7503181894433502  0.8348303057110968
  0.2462056536169080  0.8335194889270380  0.9158876460905868
  0.3299703258684974  0.3294575823733391  0.4983581548827576
  0.5832597355530372  0.9998968585950432  0.0823460401360764
  0.4975648674977426  0.0844702592786751  0.9160363338413244
  0.2458130750821654  0.2505725999625124  0.3330380700552614
  0.7446558306719510  0.3348257739017864  0.4154880621716602
  0.5803994276228316  0.1696884827048016  0.2504402980905793
  0.7466406230714787  0.1675976066728712  0.2499245870680696
  0.6615591704211080  0.2515488675523052  0.2495386310180933
  0.7449672780312071  0.3342128178648551  0.0826830758493632
  0.5788883868809753  0.1659636684329356  0.5820459729771783
  0.4092032449214650  0.5035920506992688  0.7474974602667355
  0.4111355520095651  0.5837556759697313  0.6664672876779989
  0.0788567819953644  0.9169086094915161  0.6659689575967569
  0.4119241229625959  0.2494587877391527  0.0004424619374137
  0.4144895411864011  0.1650425198536001  0.7510140680571771
  0.4965953981072127  0.3344131484950791  0.3329112447413774
  0.4119736329228662  0.5006793258782607  0.5857006721814271
  0.3282224950915738  0.8296262018698117  0.3338055680287444
  0.1606335794816694  0.7480243355291838  0.4172708206372366
  0.4111034969278336  0.4996362322709331  0.0886108854226197
  0.2465602378582542  0.5002448554056658  0.7482309706627702
  0.1617228969928466  0.1674462886565841  0.4990931299908891
  0.8249552914430084  0.1669859718021132  0.9995021916436139
  0.1649696489003387  0.1680940965239301  0.0027450755933579
  0.1613761119760529  0.7504831079062626  0.0831577863819437
  0.1645080609797634  0.0013591049157407  0.4995993003701922
  0.4122533276157004  0.9176348419572505  0.4982502672172308
  0.6620022107681491  0.0030220785704971  0.6660019654757371
  0.4121139923874742  0.1666744558776546  0.4155770548648778
  0.3306869403640815  0.0002371657068346  0.4993491540901028
  0.4977408711262092  0.0859603292394580  0.4171102482493901
  0.2468971445033387  0.0831020320099833  0.6658704726528656
  0.2474362633973211  0.2503151141615746  0.6624365203089931
  0.3306509659160662  0.0002803507905951  0.6674694354975997
  0.3284249761233993  0.1683218159628843  0.1680307260357494
  0.3254087431519061  0.9147148501463550  0.2472581239185412
  0.2466973184721205  0.2494520040087336  0.8381278470933803
  0.3296146353249018  0.0840882141708619  0.4162476407879354
  0.1605748478365475  0.8319111532904819  0.3341704032587838
  0.4109634703278904  0.1681646478530608  0.2485902072624211
  0.3263501853196420  0.6663226330197900  0.9997583232074729
  0.1621414925052117  0.9157929324164822  0.7495719316322058
  0.2464209210606823  0.5029396813026979  0.5843745584726036
  0.5809649555588294  0.9223035702306959  0.0018166304215481
  0.4113381279548606  0.1668665742922250  0.0848540893750288
  0.1613973061376042  0.3342534471750972  0.1680056249278082
  0.5820210706945410  0.9998617944928266  0.2501296913908359
  0.5795989490610510  0.9163782885691761  0.4994088289450355
  0.8277163061384722  0.8349537224375250  0.9985873505454285
  0.4129945309787422  0.5825052019247866  0.3319153172212829
  0.2455013946402200  0.1654939816310004  0.0838621177639674
  0.4099590616114976  0.4146751439771351  0.0002392545690985
  0.4120589934942301  0.9193389280385603  0.8327061012354420
  0.4123049163422213  0.1659951844925744  0.5826990413038960
  0.2449147539242397  0.9163983831930724  0.1675083517640413
  0.4105342554877164  0.9198695403686146  0.6679166754796432
  0.8272304952981369  0.3335351578996047  0.3335499693275273
  0.4959735352931231  0.1675772165448595  0.8350590215122100
  0.3277642124638332  0.4998401322594571  0.6665299494344085
  0.1630136975339616  0.5843091402412602  0.7501732950690450
  0.3277144112967127  0.6642499854677424  0.1694155515619575
  0.4965775550201658  0.7484228098736717  0.4175908977420459
  0.4964193494762487  0.6661563018765688  0.5006054455866147
  0.9143919718237628  0.7484314647686925  0.6660798718275728
  0.8292662762189762  0.6643951143309528  0.1689452164780032
  0.1609091482347050  0.0005351726823018  0.3318825202614124
  0.8277486348637831  0.5007457287282781  0.1676508910512286
  0.8283020508493829  0.5003812601382560  0.3344657527855120
  0.3296743355468211  0.8302312058279070  0.0004687784236671
  0.7467859249902358  0.8333562633930875  0.7515293854304316
  0.2452459313602121  0.5813973542840992  0.3331664685414171
  0.3271862656572807  0.5857358173104451  0.7500351012024157
  0.4127442521795903  0.7504421820529202  0.8350719931454702
  0.6615022667688198  0.2507196886412542  0.9165866422982610
  0.1613293449369705  0.8346015536719026  0.0016024418978263
  0.2445676601814774  0.8326510574085099  0.7509313811285804
  0.2454201469496930  0.6683680080236136  0.5820578405697885
  0.3287651286856066  0.6674520147976146  0.5019578616959579
  0.5796831000949383  0.6694999158319205  0.7482163819006010
  0.4126688795056123  0.7495001600178856  0.6669573344731174
  0.9113385281982551  0.9177030461572797  0.6662250533155408
  0.4122747044611820  0.0879223144804951  0.1658399125202696
  0.1603031165212747  0.9964657267144063  0.0010414163868425
  0.3285824235876971  0.9168989607982164  0.7504070503358310
  0.3287993793873001  0.7525344541139009  0.4156742361969844
  0.9954873914165997  0.8331348828712919  0.8313676706924302
  0.2453761108248026  0.5036583912227446  0.4151952973731835
  0.3284254915175550  0.7491568131223645  0.2520671005336422
  0.4112893514935896  0.8329809933818604  0.0817632515090715
  0.9937932747865448  0.8348264962319173  0.9987764498660828
  0.9950518842486917  0.3328361763196868  0.6673884598342746
  0.0819258603988060  0.4964132335157681  0.9141410940724165
  0.9114781938256998  0.4166558210759247  0.6660168510508836
  0.3291748678918775  0.0824893321853655  0.9174291621803820
  0.9103332776810751  0.7488057623055754  0.5003016141302833
  0.9954358830697445  0.9154047082604186  0.5837470238158485
  0.7451186614497433  0.4157131571554526  0.6641305268301987
  0.3294334828149877  0.9185680094682928  0.4217468194334573
  0.0794355387051461  0.5003686790579426  0.7487892762228820
  0.9942735646417524  0.2492451611988040  0.0844258116116229
  0.8280683586451203  0.5844832062726056  0.5832408359844944
  0.7438197366317493  0.9164368429514547  0.3349174434398030
  0.9949080761134723  0.5831785907141382  0.5816945564726129
  0.2461274922114542  0.0817084242945818  0.8345739959787445
  0.7461908239950515  0.5837861040840819  0.9998010524460601
  0.0766801774923148  0.6687980145152974  0.9159726977351147
  0.9125476858470650  0.9995258019842606  0.7485039826084628
  0.9932371817988652  0.5834287187375982  0.0820099793452709
  0.9089143958442557  0.3339650365404188  0.0836751455000217
  0.7456289999400479  0.3343382190472879  0.5845983890438069
  0.0789612602278907  0.7489218495190163  0.6659483955625509
  0.0777506141383409  0.9171391534650953  0.1680973907653283
  0.0797669424030057  0.7486211872697169  0.4983439545765730
  0.9123867740723631  0.0859044654047861  0.3347375418920173
  0.9960244961157211  0.6669465777133098  0.8327140156443467
  0.9951111387615560  0.0851820515290044  0.5853726313449018
  0.7450573112600422  0.5007652158297493  0.4153750544245163
  0.9954862954319897  0.0806871283165049  0.9153183829081992
  0.5802822670453687  0.6627598826662088  0.0832514854499471
  0.0823935746770136  0.3336369492078218  0.0844708170540041
  0.8274186029701379  0.5843897677770268  0.2503140814249378
  0.3286882038738366  0.0002620122586774  0.8321230428795808
  0.8295675203708966  0.5824099098646300  0.7498409114992182
  0.6607087510846342  0.9996238306542734  0.8284816812428522
  0.9961314523491920  0.3332523381175291  0.8324576980775545
  0.8282658992404889  0.3334049068391342  0.6671029913290776
  0.9122954028720065  0.5819144089668852  0.0023347880763873
  0.0778423756314488  0.0003817709518273  0.9159564908223529
  0.9948192491099095  0.0839483468601230  0.7474939765314791
  0.6625706366340871  0.0016926298065910  0.0028173450637631
  0.1623669049637077  0.1630647664919390  0.8325282179064540
  0.9960554081620345  0.9139327887460617  0.4202724172251777
  0.7442761946275511  0.3325775853125524  0.2504216533392064
  0.1642426702075723  0.5004770708447881  0.9996947121432849
  0.9112146162124926  0.4144126005698477  0.0013579953603822
  0.8302609243030828  0.0832293267879001  0.7469086680817218
  0.7454024040373300  0.1665755034581217  0.5834721268994454
  0.1634354865165158  0.4159070578101516  0.5823192328930947
  0.6640236716686605  0.9168104124686484  0.4161142141379387
  0.0775922808097879  0.7494909065026448  0.8325920876300476
  0.8315759075931589  0.9173886371143557  0.7480778331624417
  0.6641486519399645  0.7527920352301151  0.7514149813165628
  0.7515920915473929  0.9159448230196087  0.1719192619116724
  0.1627003595502624  0.0832499079364354  0.0877536186134324
  0.9113641782344217  0.7478556821869151  0.3344230607120400
  0.7450581397054985  0.6644226224859316  0.5832297221591340
  0.9129053352260865  0.6678191559710652  0.9131937773011788
  0.9928166542167421  0.0815581465938748  0.0840434393150947
  0.9937883994011889  0.0882493030545069  0.2528207074601352
  0.5787358603687079  0.7514046084118046  0.6661714077682535
  0.1625098081029984  0.3339368480945537  0.0020414450398802
  0.6628649277406775  0.7500782338455343  0.9157980905844825
  0.7436273492884902  0.7481510818173126  0.3349825909420751
  0.9904521570275346  0.4152853955347153  0.5839126584006716
  0.0802984050278544  0.7499299858673318  0.3348974394207155
  0.6582002609071375  0.4944796025549394  0.8329210819834846
  0.0792876604055150  0.2513399560727532  0.6660170857742993
  0.0776480759752446  0.0838181940507286  0.6652996619998937
  0.8278484130842019  0.8322206461024240  0.5010198149001366
  0.7461405107431434  0.0864850668232919  0.8308663179278920
  0.9102407325344580  0.3342228668679024  0.5835322739803078
  0.8282114216509439  0.0008253283823155  0.5008191400335761
  0.0739161109522363  0.2507988092517131  0.8347179175464658
  0.8275700379434475  0.1665109525587730  0.5000042484707516
  0.9944695806933818  0.9124530233484699  0.2482910485035411
  0.9092163741695495  0.9163502007789396  0.3315367949097686
  0.7478954373420665  0.9158475800350785  0.9965650891739750
  0.5792035121852613  0.6694285358710238  0.5845366555624389
  0.9947268508692192  0.2524578451054403  0.2511924060945102
  0.9128663839496676  0.7492746400926795  0.8341150335014245
  0.5789551283818918  0.5833934281033797  0.3326004004771398
  0.9113143382638105  0.0834034761559528  0.6670835885443902
  0.3273679732407638  0.3344799338421284  0.1660780020878323
  0.1627784050691519  0.5839660206092648  0.0829698185847865
  0.6626784512145737  0.6703823230658772  0.8315862883363797
  0.7446800001272886  0.3314887254507206  0.9155427671836173
  0.0758886936989532  0.5008098542817309  0.2527295518361201
  0.9137923648475121  0.0019793619861564  0.9155997876448643
  0.0785304451092938  0.7484218128348407  0.1664035832632151
  0.9118907996005167  0.6665694100035700  0.2504252094687202
  0.7467399443063528  0.0867098224881738  0.1679546394911944
  0.8273337992044960  0.8323575752223710  0.1686105598070496
  0.2446605048386303  0.6674660503451580  0.2498805410469234
  0.8276627824542210  0.2511442229962395  0.9155902226184408
  0.9965971811358825  0.2516767332421743  0.9162422045794336
  0.1619798784844638  0.1650678978047734  0.1676511079340086
  0.0750637126371720  0.1655283267116642  0.0013060201605040
  0.7492262798130719  0.4980524626987236  0.8328177866345464
  0.9072902455273737  0.9158139858623695  0.4212761823245396
  0.0788893505157465  0.7560428711786709  0.9202731186295428
  0.5783094099927397  0.5809018749066157  0.5867519068617545
  0.3278816147251629  0.7521545536257992  0.1641389862198472
  0.8282942108786919  0.4995178079484981  0.9160056257788645
  0.9946483339966182  0.0045046295455236  0.4178252557843194
  0.3293385606816001  0.6638306908227080  0.4136719299474111
  0.6633487989158535  0.5822415643019510  0.8342779352670193
  0.3331939380517445  0.8333028565494051  0.5830088441077171
  0.9951496433706594  0.3356575757613138  0.0846647871709360
  0.9970180338686120  0.9166450824799405  0.3341822185205600
  0.9904260751640444  0.3350270486004762  0.4168318921213334
  0.4929010052762211  0.0007935694600503  0.0827104546707395
  0.0790452163850262  0.5824020062668801  0.9163397969065239
  0.4158236960864873  0.6662541302694618  0.9997026611979490
  0.0786359378313089  0.5007628898309588  0.1640020531990204
  0.3311252686494299  0.4211383655641291  0.4982876529493763
  0.9935477426133825  0.8334319387754255  0.0884831308667910
  0.1605994333225418  0.2505004426589619  0.8327203903149548
  0.9955682504638144  0.0001300679820167  0.2505686990945004
  0.9984989331217259  0.2505677221560012  0.5005719135918836
  0.7471149759792245  0.9178829998229123  0.0841149491050175
  0.0760071868536118  0.4999156078705638  0.0018853479041149
  0.9106137763272648  0.6706975033401389  0.0027946171451392
  0.4114543943481691  0.9961536097442342  0.1657420200783482
  0.5772476437122076  0.7505795042453945  0.0850568965151136
  0.4971658482736240  0.9159054711171480  0.3338782777556792
  0.1609170913873964  0.0824962999770876  0.0003642452072489
  0.6625316869051526  0.0012081805126109  0.9157536984707824
  0.0744573260677505  0.0002913111063436  0.5006666525268858
  0.3341465932785178  0.2485100832694029  0.8306694451131013
  0.0766162076252955  0.4168736756906570  0.5826262908202539
  0.4123461443702525  0.4127042376621503  0.7502228945182017
  0.4920042452948284  0.0016459219781278  0.2507040415712201
  0.4162241506549939  0.9144244723326047  0.2502325182946275
  0.2505647892014951  0.4135714228664523  0.5839497175908743
  0.4113455000846775  0.5015565590349953  0.0016198720817453
  0.2464200240228884  0.2488461197876934  0.7503870957694196
  0.8253417607632730  0.7484946533226682  0.6664009144814664
  0.2453747408530236  0.4140435503942688  0.4185149709592421
  0.3283181923858240  0.9177867031397620  0.3344480705667521
  0.9916326340565518  0.4997925728764451  0.9163166855391086
  0.5780626955419800  0.8340331570219273  0.9999539765628289
  0.3292876724622091  0.9164813736351021  0.0005661104275750
  0.6616782312143367  0.9132635345776365  0.6658302177929275
  0.7489348056403917  0.9982989369240686  0.8325892275885289
  0.3252039473546613  0.5031533653765908  0.9170382296663327
  0.6613454644721543  0.9197762428179654  0.1678384458581514
  0.2446444715243298  0.9207274000171737  0.5825283314555147
  0.9139206186629113  0.1667238871666716  0.9990253167879799
  0.8291125138296139  0.0012645884829448  0.9991507865662054
  0.4960669524966537  0.0013535994597219  0.8329424015742088
  0.8290367808456394  0.0023030722590825  0.1689068055056898
  0.0781850982115057  0.8322243875642925  0.5833628603941842
  0.9949730590028222  0.8309529144732146  0.5009156847638764
  0.7468187366264197  0.9159446406859153  0.6665051767154750
  0.6627773275135427  0.8327469264008683  0.4997811048605361
  0.0802485548697226  0.9158380398134128  0.3335516300466700
  0.6623668795341030  0.9161618633902935  0.5816510447077624
  0.0788603939471027  0.8321143444433113  0.2501529073135211
  0.0791882360786097  0.9158118174816141  0.5006223361773990
  0.6624878081513380  0.9154061196473581  0.7503198574552089
  0.0778877311784513  0.8329134157178315  0.4179683489738884
  0.7467277174631205  0.0011419167187206  0.9172122920114780
  0.7440129412276524  0.7502480030519859  0.6656974572431502
  0.5779998903987273  0.8331317664732515  0.7498898479497121
  0.0782466961795730  0.6669096075679088  0.7490612370965344
  0.9952481696265784  0.7491363944455697  0.5832975001587457
  0.7448620621647346  0.8309154933870020  0.2523744031103660
  0.7452177059332369  0.0006960787987725  0.4168836268937658
  0.5815658052860948  0.9164896394770776  0.3341680127057213
  0.9108650882939204  0.1679834282142937  0.5832580212383663
  0.9957761960573418  0.9163424445157020  0.7475423371618941
  0.0781298747107381  0.7511024113318847  0.0026706785088317
  0.9121631451467256  0.8341401782545783  0.9163381340809623
  0.8278798126983935  0.0004483304565465  0.6647850920427812
  0.7468728707446829  0.5844658351983548  0.8318055965993780
  0.8282505158516317  0.1681593564379411  0.6664778901851205
  0.5779002652837093  0.7506885894102326  0.8336980115441124
  0.0777406239454527  0.8363520105360089  0.9175181251249008
  0.7458133672193107  0.0021970383913813  0.2519749498125563
  0.5791334603336359  0.6667631161361260  0.9154975150037757
  0.6620381848049824  0.7488166326637551  0.2504309957605116
  0.7463422009611950  0.6669105408334872  0.9163342490027077
  0.6643448845551169  0.9163086600835412  0.0838452113540691
  0.0787573324994725  0.8340397751648139  0.0847590503372517
  0.0780296390973540  0.6664648420769926  0.5826510872898967
  0.9953687959258107  0.6665064040866053  0.5002419570505681
  0.9080063343163163  0.3332664402847044  0.4168983669589944
  0.8285316925738483  0.1675107295638862  0.3344133763513872
  0.8258619265317595  0.2505546852339616  0.4163203211618955
  0.0772410464276050  0.6660164649435230  0.4178151903949039
  0.8273400192661177  0.2504422601455427  0.5832676844777047
  0.9953877980136060  0.7494415112168992  0.4173040667634535
  0.9949488918725082  0.3346564520654383  0.5009448048778035
  0.7453335696425947  0.1674013416989994  0.7488004061115260
  0.7451585822574329  0.3327326154363747  0.7495796658035967
  0.9119737303551795  0.0854869842259163  0.1681041896019597
  0.8290453242645702  0.0840148256567773  0.2525154598717744
  0.9132082788902289  0.9169314073775059  0.8325237434346410
  0.9965034852487897  0.5826507519611007  0.7494823247441519
  0.9122104861007299  0.0838465355543499  0.8313729909697637
  0.8282719262089188  0.0840717633731675  0.9159728446242114
  0.9957169850419941  0.8327464911499595  0.6660507713786632
  0.0768760365991596  0.0817840808012611  0.0013076049561126
  0.6618376038979085  0.4992520372753932  0.6666401893476952
  0.6629136062018285  0.5828498716789838  0.5843162303159311
  0.1613665506399699  0.9162654976758607  0.0838733731500250
  0.7458978286831283  0.7501576028367640  0.9993939932325451
  0.7443456368823950  0.5826442933274930  0.1671023663756225
  0.7455613650429181  0.6672079323318221  0.7492946302086720
  0.7444768727800589  0.2505231473513417  0.0001496289280650
  0.9958524896575309  0.6657049651437378  0.6659646885181723
  0.9944759848028458  0.0015576361076131  0.3336797631280188
  0.6618610309020769  0.9995730948134803  0.4996689168802204
  0.0780740214245600  0.1673664280129721  0.2507174731575421
  0.9960164317585501  0.2493921806491859  0.4162631482501736
  0.1611027633549011  0.6679073208948665  0.8331169220543797
  0.9118002679843441  0.0824459006561010  0.9998006786976260
  0.9114245652142319  0.2510556483235844  0.1676261087954164
  0.1617667401317317  0.6671201186372782  0.6660283350267607
  0.8283819742487640  0.0836842087282373  0.0835113663570031
  0.1609744852607608  0.7491235532368556  0.5824800392614209
  0.8306578388309005  0.9176349238453181  0.9154823485174458
  0.4128969761870198  0.0007059328216149  0.5824104023502912
  0.7449279186558350  0.4167444824497380  0.3331363290751792
  0.1622841881732715  0.0833296517811047  0.7484627377799762
  0.0785105503349594  0.0003610425905631  0.7485111790689651
  0.4957891936914697  0.5000505993318998  0.8327405209381081
  0.6616430935921911  0.4147524141091765  0.7478092864484297
  0.2459848348710982  0.1661355003417226  0.5828865091079791
  0.2461260721227223  0.0835241609081705  0.4990010666898224
  0.6616175309511164  0.3337465699023692  0.5001957000563303
  0.8289537215576107  0.3322518345336541  0.8320628170288225
  0.5782252205080487  0.3333559530904658  0.5832290445304246
  0.7445645702831833  0.4135692492638257  0.8325674679470914
  0.7455698003188861  0.5003675551299621  0.5827277813061212
  0.6625894889274697  0.5820440735946735  0.0827389904621671
  0.0787490811051459  0.1670814952614485  0.7487808564177302
  0.1613788504608274  0.0004279737306817  0.8320424633259406
  0.7449889387160264  0.1682562792463785  0.9151527083659997
  0.9099193643921262  0.5005703098150535  0.4170110099061770
  0.7452391145004384  0.7490355577773593  0.5001301275015839
  0.4128844524330831  0.0009950661597070  0.9165894080898476
  0.7452098710044911  0.2505826928303583  0.1668101502245294
  0.7449323236201281  0.2491872708980938  0.8320298619033522
  0.6617404693810046  0.3339816489462619  0.1657662835780937
  0.2444228478319889  0.9988884089284069  0.9169041744560749
  0.8275260581030126  0.2507954380380531  0.2507868624593503
  0.7452243897164852  0.4997843965570981  0.0833400197139766
  0.6617638767610512  0.1671001149630042  0.6661601770543208
  0.6620981810219063  0.3331977725982848  0.3336975717211961
  0.7467111676419004  0.0000858233999188  0.7477292283711078
  0.2458690705298687  0.0814675098027051  0.9996595495677572
  0.6621118824976705  0.0841592137909317  0.7488829720135788
  0.7451537432934052  0.4166937765691580  0.1674922813452275
  0.8313533922396332  0.0010387252530366  0.8320331894849868
  0.9946288549968606  0.9177823086316921  0.9164659266491045
  0.6612681890891767  0.3328867423973414  0.0003343343945519
  0.6622993131360837  0.5826880880821353  0.9178444103731911
  0.5796065437708867  0.0852972737342537  0.3336589123062991
  0.9954271596069277  0.6662595444205754  0.3344602231983700
  0.8281610608829815  0.5820760399991221  0.0842612201632382
  0.7466168068688385  0.8321849589973154  0.0837404995688749
  0.7480532865311215  0.7495071697289167  0.8333171208847863
  0.7455715254283619  0.7492432604463356  0.1672318879395394
  0.7449858130638608  0.6660156591547934  0.2501774056075333
  0.6630735863452226  0.6659213546718850  0.9985105938906614
  0.2443253494271254  0.9166418569798062  0.0002097019534117
  0.6620094086540835  0.8324572697250094  0.3339795837217671
  0.6636734119027142  0.9169601408800216  0.2519959431291884
  0.8280117745484690  0.8319009187060303  0.3343066158410986
  0.1611834438741311  0.8319892569955705  0.6663120677480631
  0.6626733784057706  0.7503497435456220  0.5825018036274853
  0.0783632007106655  0.8330446519893679  0.7484090246706991
  0.7439485841291194  0.4986636747177035  0.9185637300112681
  0.8258400929924757  0.9166041972262640  0.4168563545156201
  0.0786620567509786  0.0850066671159664  0.3336241384007251
  0.0769851305389001  0.9177651927903613  0.0009062104021562
  0.5786558849443071  0.7492437530910522  0.1677692428803242
  0.5789487759504793  0.3341791440898770  0.2497695480083606
  0.2440159137546612  0.9165841945598689  0.3338179522254477
  0.1629739814343160  0.0838806352301332  0.4164987877050789
  0.2448889869499211  0.0839993177635711  0.3333252891298476
  0.7445996818190391  0.4170241578385909  0.4999320751002335
  0.2449535691771851  0.0003526656240396  0.4162886209594402
  0.9131770345586948  0.6666948508422388  0.7493840914718624
  0.5786044635954297  0.5841542217622798  0.6694414783991539
  0.5784287191321118  0.4159444848687789  0.6667190177144099
  0.7441376097238522  0.5831565897985598  0.4997065936568501
  0.4962184687216885  0.5007465108711796  0.4995470750312899
  0.7453631460914776  0.5825592689389086  0.6672341256402897
  0.2454471209767874  0.3332538013895375  0.9183536634386332
  0.2448766069602699  0.9997364869000521  0.2507456723038243
  0.1631320652956181  0.4161639739861662  0.9164617424312901
  0.8284176369568591  0.4991813180522700  0.0013272452541396
  0.6612298383712782  0.4999113790136558  0.3335213291753306
  0.9934831238436922  0.4998678875963788  0.1672495883856657
  0.6627565590051602  0.1684247277394014  0.5004738837485003
  0.9110472966601694  0.2505220868694880  0.3343234001946312
  0.0786097567608538  0.5845188090674442  0.0015432609822761
  0.9107161640089417  0.4993849126791789  0.0840836357298011
  0.0786977743949105  0.3321748207313823  0.5836492340124871
  0.1618999598010990  0.2495905612569746  0.9187601129490222
  0.1616021140074935  0.3342678075505655  0.3332105281812651
  0.0793616802793157  0.4160629980995201  0.8327088559667416
  0.7464682425246312  0.9151346930035745  0.8323401424151908
  0.0791410209370055  0.3329780710597712  0.7492695816105251
  0.9946593387528410  0.0001081501418493  0.0004853673295080
  0.0795721260951779  0.0855497618629778  0.5002824908660604
  0.9927942041404759  0.4988295433174492  0.0008815827337952
  0.0782783004257220  0.4169916706505314  0.3337086043390890
  0.9952940535530569  0.4144841734102864  0.9162766719942036
  0.9946668765980512  0.4181191060818227  0.4168441677007014
  0.8288940455474200  0.4158792652826849  0.7491040717148014
  0.2448425271837479  0.6664835068654634  0.0842054155894807
  0.0785110234363455  0.4176692846027952  0.4982002091225457
  0.9958385741471467  0.3331233562850103  0.9988513017207858
  0.7453776583990197  0.0842686048945732  0.6661614491622876
  0.8301969674721694  0.9175768585669123  0.0834799480730532
  0.9950345812707396  0.5831049784411110  0.4179058672591274
  0.9107534612504712  0.8310222680366958  0.2516068595586646
  0.9120394884629115  0.0003306696520618  0.5843151140260433
  0.7446639141493285  0.1663453906364765  0.4170393956805657
  0.8303078925134328  0.8341271789178200  0.8325344204526094
  0.9952405139376760  0.8306059785278381  0.3340497493264584