Cr  H Ni 
 1.0000000000000000
    21.1200000000000010    0.0000000000000000    0.0000000000000000
     0.0000000000000000   21.1200000000000010    0.0000000000000000
     0.0000000000000000    0.0000000000000000   21.1200000000000010
 Cr  H   Ni 
 259  52 605
Direct
  0.9132071643301993  0.9995654529788586  0.0835301396106899
  0.5825914411269126  0.6685213585177190  0.7500769306561990
  0.4108108434437341  0.5838513726881382  0.1668985080579843
  0.3280161425001835  0.4169215527649245  0.9158034554086857
  0.4137365988859046  0.6663948251244690  0.5834348372234451
  0.4954037302586802  0.6676991737175101  0.1656123479147528
  0.5804089947587225  0.5842708505016612  0.0018513612509768
  0.5805298600746489  0.7497824652726427  0.0033235830884775
  0.0794750329785863  0.3334538798688314  0.4173556629199720
  0.6637426176346255  0.0821403712510702  0.4172505600127968
  0.2480961277738798  0.4176455970553393  0.0001959395267613
  0.5826331615917253  0.2483145870642895  0.4984566665349420
  0.5814356268652563  0.7498792685794722  0.8333565879670408
  0.5819625224088061  0.1688934979471081  0.9172124156542724
  0.4924053714841209  0.5031229587067337  0.1665855406684653
  0.5801283507133862  0.2493625685416035  0.1723366005160711
  0.7462106661600099  0.5011286757622881  0.4166663347107119
  0.5799458219783675  0.4151359785390762  0.0016058415357307
  0.5846853931618258  0.4175817132725254  0.6660136339943303
  0.3287768859140349  0.5014370775850763  0.3353854693685531
  0.5824442718831949  0.4170441505856747  0.4983938307065474
  0.5816488388264173  0.1661997350213035  0.7503974883015070
  0.0790489232188637  0.4175701060436843  0.8363300837318005
  0.5796726610451034  0.3374933909676504  0.0823408468806478
  0.2445807192978818  0.5836627152953652  0.5018440029534602
  0.5789893092610423  0.3345129741937202  0.2525650269593452
  0.4962425070342009  0.5005646222512484  0.3347205460037225
  0.2478788539104915  0.5836543719966913  0.0000346821040428
  0.2455809626602521  0.4180652102141836  0.3327325362249104
  0.4140521153160810  0.0831430117700825  0.0011299625535794
  0.4958706506908351  0.6671296662276909  0.5011994198054975
  0.6631360024877792  0.7497687834088632  0.0821807589229588
  0.4989130303567678  0.5020852242450051  0.8352189738627901
  0.6631024320689920  0.4162016321354537  0.0833436386084673
  0.6618592483291321  0.4167841376458228  0.4184380637048494
  0.9149275931488140  0.4169597658151566  0.3326970712432233
  0.8320190571773017  0.2499114557741874  0.7488313649612182
  0.2467110770007912  0.8325274195791060  0.5851740978443968
  0.9988443138184634  0.5853192426052782  0.2478237386600354
  0.0795915235422244  0.3351729094290742  0.5846453036037483
  0.0817932781899548  0.3376281533160443  0.9172144197388136
  0.0820007548670993  0.0821068087563852  0.1660101019180132
  0.3297000105743852  0.1668028443182807  0.1668834277148356
  0.4130550438495215  0.2510718217746860  0.8327212104981477
  0.8315079160852383  0.3391832211033998  0.3307644232429766
  0.6628274270383995  0.8332443859908977  0.4994632544793732
  0.5794570453785940  0.9190681239940781  0.6647844158571922
  0.9169424581595070  0.1680826578733203  0.4165504991048026
  0.6630030889987927  0.2485989308432472  0.7471572301680761
  0.8304393139514917  0.9989779438068016  0.1679548590793373
  0.4148075940915564  0.1661954502160138  0.7482260191967255
  0.5819602040233928  0.4209440787974800  0.8335600208914796
  0.4945244484145700  0.3330788535758677  0.8325857665962734
  0.5798536738029274  0.9178705194960107  0.8329198113640295
  0.2482841750392862  0.2501708045069116  0.1670598929194043
  0.6628541455964346  0.7497955904940389  0.2515757359322415
  0.7470843379539239  0.9986716664113572  0.5832876256485513
  0.7478358928968072  0.9985053785943421  0.2497845762936844
  0.4962468219990630  0.8330657448726533  0.1664056767417997
  0.6616608923827060  0.5847639829655540  0.2517328157090817
  0.5839551182759960  0.2482102453196066  0.6678531314769172
  0.5808168051301491  0.0814101435836901  0.5000663415268353
  0.1633909753071451  0.1678380125396558  0.3336104861189654
  0.6632103928953428  0.2494180153728737  0.9152613692558503
  0.6635944614060774  0.7498998717717682  0.4185803415564594
  0.3303353910137409  0.9998994171009861  0.6655535407259232
  0.3299570818082753  0.9990816137997758  0.1674946568350002
  0.8336575984816611  0.1667020664771185  0.8338676782383772
  0.7487638684195134  0.1658999228621854  0.2501947611721472
  0.3293694912613861  0.2494239176319818  0.9153851011600659
  0.5805014253527573  0.1667407525048979  0.2509497354859562
  0.6649078772700758  0.0838240311958954  0.0846945468881299
  0.3304868726476518  0.5845523738048747  0.9154645823769155
  0.4975648179695903  0.0829446455829525  0.5825967059592773
  0.2471761181572170  0.7505528792292273  0.8325700799232071
  0.4968355857893548  0.7514793640503969  0.0831453397584704
  0.2444711569939899  0.2482773882243625  0.5019973808012066
  0.5803110260314338  0.2492424142105273  0.9987418786394084
  0.4974960763852129  0.9982453035033702  0.8332742861210225
  0.2423892723854316  0.2498693957322813  0.3330843530676234
  0.6631970216372811  0.2499696620184197  0.4171705987498883
  0.1642042189414623  0.1677035545667974  0.5018884712262922
  0.4969082031049972  0.3329950333472996  0.3343493776698138
  0.3306303591159063  0.5023310291492191  0.1654579907430221
  0.1640141496718504  0.7490162159262596  0.4171216035343379
  0.4111993804771658  0.9167755529650190  0.3334362189848101
  0.4160221661277335  0.5842053515326381  0.6666873531710460
  0.1666088073493401  0.4168311165747632  0.7494539168029647
  0.4160059874915836  0.2497058055281970  0.6654697069324018
  0.4134509714732473  0.3311418261986637  0.9154530625995598
  0.0807599679138567  0.9174278113569928  0.6657503042139005
  0.4134090162051758  0.4175964187380465  0.6658849423325850
  0.4140774922525730  0.3353055738100973  0.4182274793358360
  0.4116038623219148  0.5003602921464966  0.7470115871333574
  0.4979389431906100  0.2465630160186035  0.5830517131073255
  0.7483139501133865  0.3348795886200145  0.0842622253910774
  0.2478735118967061  0.2507253541313504  0.9993535827487335
  0.1645382537556740  0.5827891087774759  0.5828851007791546
  0.5799289557473197  0.9137271285494741  0.0012966123077034
  0.4953024474192485  0.0837511810183897  0.0836145535975293
  0.4147233992729464  0.3335765933148879  0.5833579512349458
  0.5848741741788356  0.9986249520330059  0.2496761396681956
  0.4945452436899065  0.9163691722502953  0.4162436897251010
  0.5804047383425643  0.9986328640459077  0.5829854995804618
  0.4129461532584436  0.5832710695883694  0.3331291027214952
  0.3294199272158903  0.2485266486207449  0.2478580389925522
  0.4971972514522189  0.1655281476701844  0.3345277035037752
  0.4138221093308311  0.8321019717799116  0.9156824093997161
  0.4139795405601121  0.1684038625770269  0.5841864803065699
  0.1649498096877955  0.8341212377258789  0.9999598341968240
  0.2454438942520110  0.7509285573699312  0.6660942991962371
  0.1658876655706281  0.9143854023740432  0.4175614417790895
  0.2482702369775972  0.2495552622791926  0.8328285557478786
  0.4126894702939942  0.0827805221935799  0.3328674863124143
  0.3307833002293624  0.9175304973586106  0.4175765915280524
  0.4123955473382166  0.3356961445865366  0.2518768871100486
  0.2458255346354497  0.1679266425036832  0.5819461542446827
  0.1643497536320466  0.2505357188385540  0.7499444590772620
  0.4139840013686259  0.4160021984832657  0.5000098150351334
  0.4128587183895809  0.1636854132133665  0.2523066259389442
  0.4093180241434092  0.9999818328692074  0.2491100736200032
  0.1636920189239074  0.4180638821109551  0.2496724480803206
  0.4150484655961346  0.1634465267539442  0.4144904177553880
  0.2474524702742458  0.9148825114749802  0.3349550587250400
  0.8302715177814005  0.9157800578472484  0.9156448966337971
  0.4122582811785208  0.9996344696728985  0.4152913679643696
  0.3297232701091110  0.5835561713163789  0.0831907082520826
  0.4977402821440566  0.3319326837953668  0.9996184607457528
  0.4973572187848699  0.9994965840513668  0.6662193573696638
  0.6622769082870924  0.5831494389902591  0.0817742366726245
  0.4151753347993990  0.0842353656106006  0.8316403567438757
  0.4128541165950270  0.9152876193858123  0.1661327732693440
  0.3286983821849434  0.7488833734945204  0.2502264780902697
  0.3296222333305263  0.7502614198238335  0.9145718583613418
  0.4128889958114847  0.6689355654610629  0.9163126420749265
  0.2486107823509476  0.6682569383193694  0.2492172148748399
  0.4921242160999200  0.8378698644293205  0.3339496489149468
  0.4134139256253021  0.8318280135578998  0.5854262104783972
  0.9981092095790766  0.7520804214670462  0.5835273940340410
  0.8301363589527501  0.5812305208409142  0.2506242506011911
  0.2452187683555243  0.0842560443331857  0.3338026711570781
  0.4131928708754480  0.6657735048311456  0.4189691907496227
  0.1640995675336090  0.5008150826324554  0.1674928906217275
  0.9129259649522088  0.5838943812015137  0.3334590769611669
  0.4109361612366296  0.9161504454646903  0.0000744871166975
  0.7469349160538956  0.9167207203179725  0.6651559720958480
  0.1646011385511826  0.4998888380416451  0.3337731305503417
  0.2461307208750333  0.4998375804252297  0.7489985799352704
  0.4144646911812241  0.6671280723630487  0.7491294247695404
  0.6666204444578138  0.0829130996670046  0.9173795299035352
  0.1631146151571828  0.6658526513427565  0.8328011698419119
  0.4124147349890129  0.7498125561310163  0.8333826077446016
  0.2415582864906270  0.5838179125689872  0.6654976393548182
  0.2486250512258082  0.9174799247138834  0.8338308681224522
  0.5819043902961936  0.5847147007763299  0.8339403997339007
  0.4136118549544290  0.7501013809057921  0.6666936069671549
  0.2460837977019440  0.4164267061705887  0.4991385661728264
  0.3293530412785339  0.0836660494179479  0.0836754539732622
  0.1659906816560148  0.9994933644178998  0.9998473180340708
  0.3311190374144097  0.9165076815312452  0.9154894013502142
  0.3308180172564227  0.7477451036718831  0.4176284935382955
  0.3288264562612887  0.7500153358600788  0.0836684920067144
  0.9130868900744012  0.8319629857991765  0.0831969011652131
  0.8308525588169965  0.4986273820806820  0.3324919386410437
  0.9113207902984842  0.6687154819785175  0.0842748663795048
  0.7474098299889824  0.5006839498794464  0.5830310257098394
  0.9172529901802844  0.6654440130457030  0.2485611719433171
  0.9124501541677343  0.4171720053591265  0.8323516949108252
  0.9120840376694015  0.4179593868504188  0.6665570888872105
  0.8298821322233441  0.5852367183478887  0.5817899201951446
  0.0807404799271654  0.4988069551512705  0.9176264773922354
  0.9979711797720530  0.5838192447685487  0.5828100691181998
  0.2475189550708357  0.1659595680727654  0.9172702356230992
  0.7429559775581621  0.5025539527117787  0.9158579360115442
  0.0792604229953937  0.9960105251281780  0.4194637533970474
  0.8306350708714010  0.4167966322030089  0.7496159592997182
  0.2487809732795819  0.9991869301305591  0.5853301985420152
  0.8310243807322576  0.6646879642264979  0.5020182671367670
  0.9970342423562477  0.2522226821693465  0.0830505239788813
  0.8302058372853844  0.9993940568820666  0.3294951663694374
  0.0837566876615519  0.9142844094777363  0.1665990949080094
  0.2483524047960212  0.0834537518884549  0.8327192982107725
  0.9164009341060598  0.9990228355537670  0.4162400107183185
  0.9153808450238524  0.6700220311694008  0.9147982290272695
  0.0801334196065792  0.0868723730267565  0.3302493625420632
  0.9139405873396955  0.8339271563958773  0.7478036676198332
  0.9963680991585727  0.0824620006011747  0.9164423608496343
  0.8331709067439973  0.5017132512223175  0.1686605105430755
  0.0807481516221005  0.2516634003786515  0.0025022289912794
  0.9968901486620062  0.5852996447168498  0.7514170924911872
  0.0819995972421449  0.4989042863039511  0.0832201950030720
  0.1656232457125516  0.7513203453710646  0.5869489474707742
  0.7474449615470330  0.3331073776116702  0.5835485990671282
  0.8305451581044210  0.5848780504195291  0.7499022986585795
  0.9158793056557957  0.6667613353528490  0.7492502208438794
  0.9141567277830424  0.9146431134192694  0.6674633583316087
  0.7447107125015935  0.6686648341862769  0.9152499644721528
  0.0817795689015937  0.4156565782540438  0.0002542131366844
  0.0801744485415446  0.0845654758238245  0.0017714078669229
  0.8316771106978939  0.6628920102013559  0.3315549480263213
  0.9964281708602820  0.3368893827269718  0.8337075898284712
  0.7470471150962653  0.7489999698592407  0.8340325725136254
  0.9981721071658992  0.0824341419347338  0.0803273266122484
  0.0818917876068793  0.9156016418200515  0.8324501239369750
  0.5805172204914516  0.7508019052426299  0.6662580138466626
  0.1647246543325795  0.3337556573299584  0.9993804121221231
  0.0794532220421385  0.0823568644329479  0.8349521846383964
  0.8308241545215481  0.8316214496129858  0.3326414008834071
  0.9133312747887403  0.4175885830786244  0.5006294067213144
  0.0833135449866904  0.6685776135475149  0.4188458217941158
  0.7481404386386967  0.7500038536331731  0.6664529683964150
  0.9128202578999464  0.2488895534652787  0.6660190468599030
  0.7484198296108822  0.1662592448516400  0.5823208426042052
  0.9988642561383253  0.1686214489783064  0.6668094428582532
  0.4960797747764972  0.9156093766548712  0.0846410009558386
  0.0821968294073570  0.6673010515207755  0.9155374002924994
  0.0024963245197507  0.8317928913158177  0.5026356880735318
  0.8313823131594854  0.4177454752426082  0.2508077924687279
  0.7485212193052483  0.9199885078798757  0.1678679794436652
  0.9119293091607185  0.4174024358602925  0.9994079313711766
  0.6638732013364042  0.0820840618619669  0.7492727574908320
  0.6653529960341795  0.4995950944617581  0.6657221599253588
  0.0798435045240913  0.4168200131718280  0.6628317124695233
  0.6640055689008993  0.9153945803890096  0.4180693335736568
  0.9975955079177364  0.2517564683168025  0.4180367286134703
  0.9148061124132617  0.5849145932462692  0.1676537887144138
  0.9107059980843295  0.8359363510277715  0.9153211830239019
  0.9143409251555630  0.0007548324991794  0.9164016136992610
  0.6642571494486146  0.5014644722782980  0.8331048007001212
  0.1636052716532988  0.6680651310150035  0.9982850052411386
  0.9983161379324960  0.2508619063204311  0.2488793141434129
  0.6636104364247137  0.8335309245482475  0.8336648916140632
  0.0803107417219022  0.1680191625300692  0.5856153499629614
  0.0806348797941566  0.9974503101989588  0.5846055209309061
  0.8275826617303342  0.8329037577311361  0.5011476844516348
  0.5795254543886218  0.5839917366906000  0.3337682745490995
  0.8320009037536811  0.2491252097511473  0.4203297993552565
  0.8303705136742017  0.9997045211943490  0.5031685971797395
  0.0838005486815099  0.2514662218509620  0.8300545143602629
  0.8296117425250007  0.1667389171564083  0.5022760831485245
  0.9981203380515705  0.0830801978251067  0.2528652439978814
  0.9997112483916522  0.8328844579916108  0.3322822609735036
  0.7480464510395036  0.9174177646243694  0.0012803597044578
  0.6622038305058765  0.6688368853302251  0.4956164353571604
  0.9979200240575381  0.6675473533083910  0.8323367591300054
  0.6637332604277646  0.6684962286978067  0.8334682367988948
  0.4129902785153182  0.3314210670153901  0.0817307567917789
  0.9116052459273344  0.0835037289124391  0.6686370285780939
  0.9946097519373381  0.2508730296115705  0.9193360748492829
  0.8307699013061394  0.1668926804814696  0.0009568236398049
  0.0826645695636322  0.6679026776904536  0.2503096149009151
  0.9967374803699816  0.9136660468219022  0.2532719897388115
  0.1631630338352647  0.0822804465776923  0.0818787829508644
  0.8321224576623651  0.7499185448161815  0.0807917046769965
  0.0830509016406099  0.7508279049008447  0.1666436860504446
  0.9149159034856668  0.0823057888471956  0.8358068090611139
  0.0820574420678640  0.4992026748694914  0.2480814024576720
  0.8309286595989317  0.1667244405479129  0.1664448460213558
  0.9092587471158574  0.2489193304324929  0.8325104859970541
  0.1668271544720217  0.0027256434166279  0.4187007849949842
  0.9950514120284151  0.9144107025743667  0.1643100867604917
  0.4125695890977371  0.4208041128417064  0.0829834265498284
  0.8307003471867606  0.7501813197205165  0.1711530217148427
  0.9968630877177173  0.2499282911246530  0.8330647394392278
  0.3292441346335608  0.5830680964776151  0.6659094403100940
  0.8305548973097426  0.5840278441275957  0.0002567865579483
  0.5810475676976163  0.5837682572258809  0.5827642364431220
  0.9153636012407272  0.8328542093656055  0.5007130243560917
  0.0807729414064927  0.2509323247134145  0.9163965483585607
  0.5805939351902794  0.0036721311660333  0.0018483904507312
  0.4996835348487280  0.5013273681211600  0.7469096774261862
  0.3308770607215317  0.2502628518597593  0.3361386115056191
  0.7434489359738646  0.5000302783590693  0.1663297160776743
  0.6697007044876430  0.2511359752383812  0.1692332339692494
  0.9152872250678800  0.7487738491106845  0.4168670655387434
  0.4163905998828610  0.4202962650759334  0.9160083601465340
  0.9133461232920614  0.4178558970983152  0.0891319790913766
  0.0019985403327419  0.8336579525076692  0.9159873963454244
  0.9145530630135751  0.0820387096158777  0.5794335515349907
  0.5842019922487054  0.3315512360529407  0.8328751586130033
  0.5804581036694912  0.2483285953215476  0.0852131410254590
  0.0783107086146252  0.9963891842536273  0.9997389830121318
  0.7447726338057773  0.1663691661363640  0.8330087391988444
  0.8302214409391573  0.3376239632621031  0.4200640566388721
  0.9953267801269389  0.0840372663095439  0.1663126531070033
  0.6643694664901355  0.6675245073616438  0.5863269617349376
  0.5774475821810755  0.0806962393714412  0.9174423888656844
  0.0792552674985118  0.4183078615907810  0.7496119108599776
  0.4957601024480902  0.7467889085594281  0.3341188572996087
  0.9998885290448084  0.0800989703491886  0.6677249934499108
  0.0818170333646952  0.9972839458849395  0.3312866498296032
  0.8283558469243165  0.1633950311817610  0.4144653324488836
  0.8289936626482296  0.9989645196654923  0.4162351502558270
  0.0804901465415026  0.0858610334436490  0.4195985717615002
  0.4964147225074512  0.9999947877211822  0.2494423846780942
  0.5024849455893093  0.3351573883167215  0.5837412705638876
  0.6681709020620644  0.2481036415862203  0.0030776495906755
  0.8297984355587112  0.9997036851864503  0.7503172410948266
  0.1649249296950611  0.0831956077903433  0.6683091229915451
  0.3247552154729427  0.3339500051395138  0.5844727131087079
  0.5829465460120943  0.8327488593559894  0.3326001360238969
  0.7470446297351900  0.4122561415512527  0.9162944298318183
  0.8312948524605177  0.2489881074680199  0.3308717364910759
  0.9147799889761470  0.5806225309000124  0.9169543540978843
  0.0024059898631332  0.6673767459779376  0.0814536434140793
  0.8336491457941151  0.4997065804694549  0.9169541318967088
  0.4920237396113590  0.2495647408561295  0.1670393678141492
  0.0021186150056976  0.5845456205246924  0.3367730240164201
  0.9989260553730080  0.5006116629148383  0.4186136800587587
  0.5822084646559448  0.4999174995573550  0.1674244201856174
  0.7465699182502403  0.8295239423855559  0.1682770386433539
  0.0818033987990012  0.9154116330344556  0.5015528147014811
  0.7469907437461097  0.9990134489102387  0.9174080429049160
  0.7463734611461890  0.8333933347778061  0.7492114571575054
  0.8310286454127596  0.9993107875985018  0.0001998418659987
  0.0827273195837939  0.8322752462511328  0.4173468853041318
  0.8308121224077282  0.0826412094426199  0.0843940955587052
  0.9981186433678826  0.9146308010648154  0.4172075527012534
  0.0822599807006916  0.8332162611381442  0.5851506970558051
  0.6626846028584270  0.9161531332839279  0.7488614967216913
  0.7468779014859298  0.8327109561745273  0.5834906573616118
  0.6636646447688627  0.8334631013554074  0.6663745182890713
  0.0819053347852386  0.9133901606090360  0.3344845834556280
  0.6642130117804717  0.9156920393978684  0.5833060399224159
  0.0828236694572439  0.8327865180697438  0.2500870089351446
  0.4945655619587654  0.0837277972512311  0.9157706095051563
  0.6635885690526903  0.9161218824844954  0.9177492234650120
  0.0814514192237339  0.8345421105114459  0.7500370204977702
  0.1634077200577347  0.1673645308499714  0.1654923425091304
  0.6627434053139591  0.8327449320522360  0.1665742925671803
  0.8304251163091180  0.8331941953510514  0.9999548243726227
  0.7469365094224213  0.8324598203691315  0.2523923540804703
  0.6645926187940835  0.9164668124404104  0.2500991513036568
  0.5807478412861429  0.9170984130228153  0.3339562317039211
  0.1637935049594018  0.8348400488560102  0.6683243501946383
  0.9976859982771231  0.9164312368336641  0.7497692198674911
  0.7476411658794326  0.9153665394964710  0.3337061114674651
  0.8298146260622746  0.8330668549663527  0.8323547400708431
  0.0819508824700540  0.9136502475543435  0.9996565706253847
  0.7465012709396703  0.5852910733635357  0.8330857965316235
  0.8305515526546939  0.7502788574963030  0.7496874467413104
  0.7463675420760778  0.8335395279312847  0.9175871464828521
  0.7455587482349988  0.6660785383350696  0.2512559180244678
  0.8320612666506532  0.9151174565561915  0.2514855193362444
  0.2483879743952296  0.9162292133662809  0.9991092265262488
  0.6654630116948211  0.5826915056814689  0.5832803333867570
  0.9973417100726046  0.7507204675241576  0.7502151590537932
  0.9124344792802463  0.0832699587161152  0.1670366553866073
  0.0810778634827745  0.6671067989115067  0.5838145005835017
  0.9988733212211325  0.6673750589680542  0.5021333507487244
  0.8305551637963303  0.3340731727166059  0.5027781844872696
  0.8312575932112454  0.1656694999077105  0.3314915220279340
  0.9160023501960606  0.2513819994873785  0.3328858567242916
  0.0822751814358368  0.7496141557660473  0.3337117611482240
  0.8302852681314850  0.2500019401203111  0.5833720280156069
  0.0004673145286225  0.7501369003344321  0.4174620089252200
  0.9147773284395013  0.2505370832397584  0.5010882155743507
  0.8304430534712033  0.1667064206178707  0.6665311386934838
  0.7477546015894063  0.3330921322369390  0.7493803748666228
  0.9145897853157297  0.1664729136511426  0.0832961197054227
  0.8312446874582121  0.0831296493566196  0.2498145862488343
  0.9142483106721185  0.9996427246386171  0.7502875064746858
  0.0806195901143662  0.6666728876600557  0.7500762805984570
  0.8301444526270957  0.9997197146193219  0.8350810700439373
  0.8311184035876188  0.0827894776619846  0.9177217848404436
  0.9972161325828490  0.9985279035769680  0.3329334298744214
  0.9981809566768058  0.1685805261400050  0.3323376803741158
  0.8302860254838922  0.9145549945161141  0.4165078463368194
  0.9136638045063434  0.1676156542854830  0.5838666800813873
  0.9980102053976578  0.7498857110144540  0.9158328148765879
  0.0803135880475824  0.7498680609047592  0.6665504860916632
  0.8299587242741028  0.9983056566704771  0.6661658994114315
  0.8309314310808564  0.0845405422479189  0.7502992145989023
  0.0847957631335621  0.8341267868005644  0.9151983599318713
  0.5805107661466120  0.6676842818860569  0.9173444264553557
  0.6620243027480337  0.7516878143522523  0.9176283384357785
  0.9981834493867558  0.8337320970240909  0.6669478694955937
  0.6642366274501291  0.9171402104385041  0.0836254762381820
  0.0823505978609903  0.8333905978982696  0.0834169097116617
  0.0813521875382251  0.7497038485386096  0.8328765435633479
  0.9137587625767630  0.0828896605451106  0.0007724023263156
  0.9141712547635199  0.2502656000418889  0.1669192187731779
  0.1628699784904345  0.6668656004199589  0.6668885839317293
  0.0825835496434892  0.7500689219727955  0.5016049027921861
  0.7482226485675703  0.6678085673109434  0.5825986526196354
  0.1642481533992348  0.5001801214798700  0.8332804219610239
  0.0813074714945327  0.9986219153871457  0.7513405110453956
  0.6655941712933090  0.3327063370112445  0.8325648105207200
  0.6644467801605320  0.4176299781902465  0.7490794185489138
  0.1641546867041393  0.0828953377304081  0.7526642543513007
  0.2476623774723458  0.0838400870485458  0.5024659255917663
  0.5814367257728492  0.5009935223523282  0.9172495584572981
  0.6621350922749557  0.4167134780797414  0.9175966809060820
  0.2491563478822201  0.0834731042882370  0.6656032863009218
  0.7467513464741850  0.4173493023004631  0.8315799059232712
  0.6641740993253141  0.3330356685699120  0.5001889238327667
  0.6622713499634550  0.5007940627301691  0.1667213862003013
  0.6647593655445363  0.4166948536533124  0.5821109411941434
  0.1642759050791888  0.0001717909513255  0.8337185088972928
  0.6651062135908357  0.3337176516526869  0.6658759002311708
  0.7475904379942948  0.7495210663341988  0.4996253180346193
  0.0804991493316783  0.1665633034999453  0.7510706911884728
  0.6645526225170432  0.5004168665904302  0.4998366569063740
  0.7457420253966812  0.4173816080862264  0.3336288760319368
  0.4143408612528829  0.0000314153385039  0.5840791267155753
  0.6644991022160652  0.3340266206608768  0.9998547728817868
  0.7459940532185199  0.5004725442301831  0.0829933324556677
  0.7504009596715726  0.2502982758985256  0.1677996334768746
  0.6631687606368201  0.3334903524123766  0.3343896201451240
  0.6632816887737057  0.3354066095143556  0.1680165435219737
  0.2469027116468694  0.0833997344921271  0.0004663693257605
  0.8308453771129801  0.2508242581483054  0.2484491252235399
  0.7465350622698447  0.4159905005800371  0.1681532663220416
  0.6649111814925264  0.1647633980499622  0.6650896545269838
  0.9968379155204573  0.9172417149481602  0.9158185401677040
  0.7449708434588690  0.9986212519069406  0.7499100454180464
  0.6626922464126269  0.5845486170489882  0.9176186822494675
  0.6630508308025754  0.1660544159959295  0.8328798179199822
  0.4137491377317432  0.9995023431912499  0.9168103782215851
  0.7474480084041141  0.1667462024544695  0.9182440543911574
  0.5817135509194938  0.0819637388173674  0.3339155718998061
  0.6641349502175979  0.1657203032573338  0.5005791815905958
  0.9997441230653447  0.6682380417944636  0.3335030201263859
  0.1654954037832971  0.0001145767970979  0.3328370944329790
  0.7451660796831476  0.7479104958082220  0.1676572978976585
  0.9979295824480866  0.6663647508594299  0.6664775889448532
  0.6630937797371192  0.6673049778265782  0.0005901681697965
  0.9138360832768513  0.9990267440112359  0.2507786442053193
  0.6651572539676421  0.8328244442444392  0.3344226542944567
  0.7447973821855470  0.1664957863620569  0.4175562233151838
  0.7469742592438574  0.7491976993029313  0.3341946540620157
  0.1650395612858014  0.9159328447407088  0.0825456127679081
  0.6636528257770373  0.7519720851014943  0.5828558664928504
  0.7469939052867904  0.7498988176947307  0.9998640167011404
  0.7449336630115161  0.5846015799022718  0.0005824287641677
  0.6627677770563785  0.6669168416504655  0.1669869614879431
  0.1635881359633995  0.0835797006775743  0.2498510702573639
  0.7473435928427293  0.6678939362326805  0.7500658296149666
  0.5795516468039065  0.4176524566290571  0.3341476992248298
  0.8309713622872127  0.2499130041159644  0.0840750182629365
  0.7465726017658735  0.8330237652153379  0.0821578502062866
  0.5803191065557064  0.7497350277916036  0.1661598256712139
  0.7460276580822307  0.5847879775538992  0.1675203955495672
  0.7471739556722745  0.5009309617119431  0.7491475163807493
  0.2487517661626623  0.9995706510490419  0.4168928572951578
  0.5822231487375156  0.5840977694312318  0.6678128504401775
  0.6649867153724206  0.6687265503644928  0.6688585738905155
  0.4969345067932686  0.4992921781339842  0.5004736366180811
  0.7466172040603102  0.5842966919934605  0.4992574842449747
  0.2475698928624605  0.3332474987468074  0.9154693737908707
  0.7483073934075317  0.5843352247369397  0.6662808280918512
  0.1659119710778181  0.4184500144073966  0.9163245618063927
  0.2460702612947788  0.9999929057614919  0.2497775645725124
  0.4979826970100707  0.5018172572702160  0.9994699000798906
  0.8296538220835511  0.4993816654245678  0.0015972512136086
  0.2466394885095860  0.3334118590990888  0.7500191733145316
  0.9988485588483302  0.5009340056611010  0.1661478531623955
  0.8301817939548006  0.5008778422703235  0.5008631388723693
  0.1647115578494638  0.9992086369018321  0.5029187816435481
  0.5814861803994836  0.0825427188297078  0.6658591711178234
  0.0800130659989875  0.3338592921134640  0.7499720133231099
  0.9983003414664423  0.8309680033803685  0.1671761721771159
  0.7470667497793879  0.4175289058472350  0.5000019556701851
  0.0801607465108971  0.4156781749020973  0.5012988573866910
  0.9154623081731549  0.3341551756892456  0.4171502554814928
  0.9968176988459228  0.3340826433387945  0.5011392948444502
  0.7476568304976410  0.4176493955243505  0.6660202062327101
  0.1636103013806434  0.3339509552275714  0.3332736695910738
  0.9955890123260914  0.4168238309224622  0.5838103182701929
  0.7461100630124637  0.9156559658310696  0.8340767133283268
  0.9132127438585962  0.3344113348711987  0.5844153615111418
  0.9952906233056009  0.9981866319582350  0.9999168526628656
  0.9133907844909548  0.9162498854774888  0.8331042833188222
  0.9978453518964836  0.5001758596950157  0.0003483389512547
  0.7468522484663747  0.1663365270545892  0.7483603597417202
  0.9961941379261182  0.4172483907123344  0.9185082692393121
  0.8316921503864637  0.2493791763385997  0.9174754141927784
  0.9957018388694372  0.3338544047713571  0.6668546824608321
  0.9143383918028037  0.5018155041698661  0.0842733355946496
  0.0818653749381837  0.5834523909835611  0.9992535686727635
  0.8312716613870953  0.8337917802672712  0.1663812891749224
  0.9140003963667473  0.9152426769816977  0.3344110334956613
  0.7472686012770240  0.0828115800044284  0.3331049213960611
  0.9987193648564452  0.5851210005217017  0.4187618833296214
  0.9141719402182577  0.8329964284288848  0.4157059936100433
  0.9131098310919308  0.9971931591994423  0.5838961133996640
  0.7475660077650321  0.9156325713092563  0.4999096830160695