 B Cr Ni 
 1.0000000000000000
    21.1200000000000010    0.0000000000000000    0.0000000000000000
     0.0000000000000000   21.1200000000000010    0.0000000000000000
     0.0000000000000000    0.0000000000000000   21.1200000000000010
 B   Cr  Ni 
 173 259 605
Direct
  0.8057865086713620  0.3210094369982688  0.8135146194179252
  0.5083488125682268  0.1514277668846423  0.7494332761106832
  0.2405210697148156  0.8301423979636092  0.9894217958176534
  0.0399562994171112  0.8065832089467873  0.6783481351692018
  0.5140418629474158  0.0734027242594525  0.1053615946117879
  0.7705114876211594  0.6199935539993535  0.6746365181683843
  0.1741370104263011  0.5087832386966711  0.4490358397618987
  0.5869010153808052  0.0232004647763285  0.2616546626187271
  0.2094661548195449  0.2136118967914488  0.9009589332684642
  0.5570085055120840  0.7423559470377814  0.7227361676614196
  0.3848782833896491  0.7853808064336333  0.0319702172615744
  0.7862591178659842  0.3114281150480091  0.8913653004488872
  0.6863593980290998  0.7906682921258956  0.2925247650467780
  0.3939651596794733  0.1435325593086067  0.0708453662829174
  0.4091764972787892  0.2499847146635284  0.7690916219519323
  0.3584780752606257  0.3409360251976369  0.6368632040143414
  0.8301757112518877  0.4001298572280970  0.4131661650837505
  0.5866034151157965  0.8152058669972873  0.5567236234989092
  0.7274791654855577  0.7191772880912920  0.4968951650119057
  0.8272537042842116  0.1681407358452616  0.7836459251722795
  0.0400132857774446  0.3860891352320163  0.0079341574972424
  0.7979044270291704  0.9110611039192988  0.8744239133766002
  0.5640323708925455  0.9462212649748666  0.6120394173291606
  0.0699606830351273  0.4978831110891664  0.6810538006221387
  0.3624760648504113  0.0693404130338761  0.6472263911684104
  0.2459577310264097  0.6574178811119954  0.9185107191308165
  0.5254389639413116  0.1341268262654785  0.5654851945172596
  0.3264226175945404  0.5591301908164389  0.8356826255428479
  0.9025853575079996  0.2496557874420502  0.0579932021420411
  0.2690347570338277  0.6010539275344223  0.5883649552352056
  0.1982199402120082  0.2711490520700203  0.4344486173862051
  0.3258027598656088  0.8536737669592402  0.8838304994888351
  0.6070861326749820  0.1673322427528495  0.9870102401564851
  0.8934787703943282  0.0290766950822972  0.5553961361390956
  0.2890296314090492  0.5769791329860289  0.2234390227747788
  0.1088204115119051  0.1875965116401966  0.5696301781746902
  0.6406783407697262  0.4516130347501752  0.1765511941516596
  0.6853021761527920  0.8429196395656148  0.9805246764806583
  0.3796819184870179  0.2803514396921180  0.5059005091255739
  0.1758739577472186  0.0460462792079456  0.7689288239272436
  0.7561779676036909  0.9171871763912389  0.6978097910156975
  0.8125967063290137  0.2670992764905232  0.2400639359091526
  0.7763051304083476  0.1321161663877117  0.2065944697044564
  0.9305875073145776  0.1631384597750082  0.3627593233419495
  0.9322982921991111  0.2019025255701700  0.9120631346128042
  0.6246012706258833  0.5976690727398720  0.0782205764742181
  0.1033495967217272  0.8220365596650765  0.5110833655556402
  0.5547944124307860  0.2315043042960955  0.1187991386747666
  0.2504780365542659  0.2445756650505452  0.1953955858622195
  0.8043817054127809  0.9748271461798366  0.9201208806755717
  0.3470122263898675  0.8255816110511043  0.2191828608528125
  0.3789246523834496  0.2484240790834206  0.9550747475802536
  0.5282330023530827  0.4960854972347286  0.2902188554553313
  0.4767256863531440  0.9296924116586438  0.8384114033100021
  0.9422435164055281  0.8888933920126459  0.5704623974082752
  0.2003611033310922  0.9184871885984602  0.9046230479148960
  0.9294118251898367  0.4455825931947980  0.1348781644426875
  0.2191420538546534  0.3843849286837339  0.2046630495107125
  0.5999808604177944  0.0698714294342715  0.4167736144136956
  0.7173417381648934  0.7717369373658768  0.6786860937459572
  0.9511224707829996  0.2072796787247018  0.1925842447832289
  0.0108225667096894  0.6680059501094507  0.7370502888989626
  0.9086301221739571  0.8964583179832838  0.2197447956620999
  0.8148853505505225  0.7027599300263392  0.9729693573744801
  0.3207464297923584  0.5997321079592786  0.0724522837911048
  0.2379605976524867  0.3749868252984442  0.4896613715908918
  0.2646365844575014  0.5273520509630130  0.9683588589158253
  0.0465352666514771  0.2504467979995916  0.8100334012090031
  0.3527805307340611  0.0252446795474102  0.3996246828323383
  0.2832770203135217  0.0106747509069554  0.9941490210461785
  0.3507312761181490  0.4531178616671457  0.5258916653391336
  0.1756050610918901  0.3711444340658668  0.9721842354383017
  0.0041966786928427  0.4641149840711288  0.7744611076003490
  0.0873573417385564  0.8973666856817761  0.5698717386848065
  0.5037052835925536  0.9169801901703282  0.4606347877224883
  0.2020584155152184  0.0860297702418917  0.6963112709657371
  0.8314450512555576  0.8188475838849217  0.6059819243663555
  0.2424294711209036  0.4399951981763446  0.8101655065165905
  0.8957843019289585  0.2237086158015669  0.7704993323291381
  0.9168892795373215  0.4021652601542590  0.6356236616822414
  0.9187352578440536  0.5636022067658447  0.6262257323015485
  0.7832752130388705  0.7581179568307447  0.6306471595889774
  0.9842966745163786  0.2570821243613541  0.9449823593176356
  0.2860871009452510  0.6168791275720009  0.4639163359255593
  0.0652578692421414  0.0525099060305259  0.0753650607216166
  0.6819320940284276  0.7960291926212292  0.3762455435497116
  0.7364591150139667  0.6586759296967271  0.4379608418820169
  0.8441516924175780  0.7634120838654446  0.7668059644769234
  0.9554524567853793  0.7511463307682373  0.4035395350853598
  0.5190855514085886  0.9870170157016669  0.2246363940717031
  0.3469254040775961  0.2890393138161528  0.0930967369159280
  0.5043763096812004  0.4881564968945398  0.1132716308454811
  0.0208934707575093  0.5403706442846918  0.4608344879099146
  0.4635284540405091  0.9259620047363680  0.2069653688213085
  0.4973042439025876  0.8122396564412886  0.9369541976808674
  0.0774210595481394  0.7063747690531861  0.8575539315206105
  0.3444246664698261  0.9402427887428867  0.8944763293327075
  0.2087338677583533  0.0321377917446201  0.3106964765959476
  0.0610952507895726  0.9628360470510009  0.6935892877376175
  0.7604112248213217  0.1463920391233651  0.9665525687727402
  0.3351645330382180  0.5833580602541041  0.2967863621403771
  0.5681023248144027  0.3660287497460719  0.3375099842940716
  0.4775845910515593  0.6148410890918740  0.0709896676697018
  0.6354558038530254  0.2535769124908576  0.8887211706598661
  0.0415504560024669  0.3737936700631957  0.0853979348911571
  0.0656054373642097  0.1616727261370008  0.7027852485170905
  0.4494733539704328  0.6757693465857588  0.2727438388762402
  0.3059241807614141  0.4895287158276904  0.7007514189670748
  0.1170281976432690  0.1256378233707013  0.3842927004884884
  0.7339865390791385  0.2629169014170952  0.2163901756653985
  0.1015166993360268  0.1372163214721695  0.8660503996266922
  0.8481489584472381  0.5734905283695377  0.2381994404356206
  0.8260758225660130  0.5089445672809109  0.7591867728859434
  0.1713714467474600  0.6493001246963203  0.6948779721375064
  0.4085040411079607  0.0715560397048104  0.4369384788681810
  0.9831496564881843  0.9012717050686605  0.3650284524192189
  0.3299068361049303  0.0046499903366576  0.6058759252762675
  0.9367388948063095  0.0531214041145914  0.2718232274443343
  0.7321141912258718  0.7379767166055393  0.0772743036755724
  0.6687292682140773  0.5295536023918681  0.0598083445091497
  0.7615400656180994  0.1276837084002966  0.3595497181379376
  0.0964624941839248  0.4671615480151260  0.9016564843709284
  0.0697921252878257  0.8871759293347985  0.8293687069658545
  0.9247625649946827  0.3301435834530060  0.5013512527005831
  0.4353370535504130  0.2742290674160764  0.2090648572709219
  0.8137327771296344  0.9362705985916649  0.3513184855295131
  0.4341367763609396  0.4125349318851800  0.4035501268619403
  0.5617211626920278  0.3135348751219964  0.2747676974105566
  0.4912174884541732  0.7403681850961181  0.4895625141686299
  0.4096628290040871  0.7002453940308807  0.5082668040807280
  0.6675475947268991  0.2132719571985331  0.4888526802128474
  0.4264039679130016  0.6860099616291178  0.8203936871733274
  0.6806885521909495  0.7509939228074446  0.8531087046842472
  0.7868835690338383  0.5974894491927958  0.0188957458971774
  0.9753953648820154  0.7543519073665397  0.0576763260882304
  0.8753992467231974  0.4404483999010362  0.8543730214708645
  0.2306218921619827  0.4071105696638678  0.0191274781440165
  0.0289993866545707  0.1023923555984015  0.8780007088688659
  0.0231547220907700  0.0127684348531023  0.7476049654313086
  0.5679820298061384  0.9359151360103578  0.9915158444337190
  0.3444495209192467  0.0400951299167781  0.1724668880516847
  0.4895919022128693  0.5013457564817612  0.7548186999048996
  0.6260299991225285  0.9266575920808485  0.4091705220977378
  0.9632472652503258  0.2888731986901529  0.1928526876700566
  0.2465887211610692  0.8498043700087146  0.3190412076268960
  0.1301383608959526  0.9266966256853222  0.0307857269066017
  0.9426448076826806  0.2523006588772613  0.2611157043585948
  0.7727725762808338  0.8420425492116987  0.1767666221812469
  0.2526486138229272  0.3695146489864415  0.3371094599393781
  0.9260942870059434  0.8286715501304269  0.8939211439148008
  0.2850974988604454  0.7103521828287367  0.3558448125571865
  0.2338931353744968  0.7761847315325918  0.7252650975987920
  0.8326962165950914  0.9178805136084666  0.0522723034637858
  0.8478499995296863  0.7166249399276294  0.2699543760936989
  0.3873591918524893  0.6950988312257773  0.1491399737434673
  0.8785466333314860  0.5780523054056322  0.9140675871257086
  0.2394632583897238  0.0878392768712198  0.2506375269516619
  0.6017030256803413  0.8138658202372048  0.1403667399108771
  0.9930214894471272  0.4299542141805443  0.3124952240277809
  0.3037813349440698  0.9775212003844971  0.1495802277246857
  0.6269831853177819  0.9003796058790184  0.2238755056329634
  0.0932033312952241  0.5922730283835721  0.2099135838353360
  0.3786481143588302  0.4218949851845207  0.8882048359630232
  0.9517283432709588  0.7084870353961702  0.6641662639458917
  0.4384030682831643  0.9165553404442038  0.5887398192649883
  0.9474109390043823  0.9060240362296612  0.1419446715980376
  0.4419151254469408  0.1048704936628040  0.2509767940288507
  0.8065207008363727  0.4386098867709597  0.0025088746545686
  0.0246032363616654  0.1103681270304356  0.4714433726358431
  0.2086208610815881  0.5513005841626143  0.0215038702918718
  0.9026409790881045  0.2255678917777796  0.4058765268871621
  0.1563060769547113  0.5497497277542686  0.1610862081467667
  0.9709529253008592  0.8382401749627745  0.6991137194400396
  0.1406060042196226  0.0902096742684966  0.0237868597305310
  0.3295632919627921  0.4295046616835348  0.4324789376117174
  0.0754998660213732  0.6607749748647109  0.9439457437707222
  0.0613438967342331  0.3298127270178137  0.1710210471232903
  0.2337666039296785  0.0916681356465161  0.9712784626261574
  0.3693344555590952  0.0785225814301355  0.9622096429737796
  0.1045318917140102  0.6911199947194843  0.7608884694315160
  0.9718578078185773  0.7899511420422932  0.6058610664743707
  0.2617761361351663  0.9201331516338889  0.6537277990947400
  0.4399134591695989  0.1245177671659024  0.6098411328704417
  0.0439224162750200  0.9031842718788881  0.1762401807787164
  0.3265181110844384  0.1752895495143206  0.3514287645023695
  0.9020048041550446  0.3195574992969856  0.7700500009612666
  0.4930501703604765  0.4039103748252360  0.7366688648112106
  0.5843134674514286  0.4137699717228129  0.6627100961248933
  0.5327423932370354  0.5355692647511739  0.8372743429612836
  0.5919158265516944  0.7158911303831753  0.8280110687683069
  0.4102267023838532  0.8723495814581905  0.9387286879095976
  0.5012667767958935  0.7850301059184792  0.1439019398162506
  0.7433322515943279  0.2695080479907161  0.3225513588253889
  0.6755841003309866  0.1830738060043566  0.3320847764869129
  0.5963567438815746  0.3948587234691855  0.2425664349825059
  0.7508639244358853  0.3591751283574576  0.2531455791468930
  0.4946966888168188  0.3089275541072802  0.8101899964132843
  0.7066490215964081  0.1247394349188107  0.1243277427951264
  0.7689691591210706  0.1601243070963904  0.8657959831648014
  0.7462527680832042  0.0430733765059344  0.1803139751278469
  0.7775319386593852  0.9846409535428483  0.2728289425588947
  0.1294191462976874  0.3313508851046267  0.7982729430194236
  0.7300564321018392  0.0829799381509722  0.6578666237310232
  0.4139192544582313  0.8105155189514915  0.5671829150752449
  0.5889566444031648  0.0971987110176741  0.9198561947570507
  0.8085823018713957  0.0150880738265265  0.6536063123823982
  0.7243376380874738  0.0794660305608245  0.2833422030958945
  0.6519233041397186  0.9438799981881211  0.7704823644872220
  0.6772550150103684  0.8602934690604908  0.7080132799930642
  0.5564117187453366  0.8857344131722057  0.0827613993975645
  0.7085812957688621  0.8818543008305382  0.4330538844164973
  0.4999895537961115  0.0312421485570792  0.3136714647048048
  0.5507919612233509  0.1953537863371704  0.9144599799625799
  0.4348890835130534  0.7757676905197087  0.3313458041392344
  0.3659485096019407  0.9269967313085649  0.2181790227478629
  0.3937751723190350  0.7924881476375141  0.1276841162715857
  0.3794797138831066  0.7689835613547435  0.8589096359162842
  0.7316078664317620  0.3869376024517815  0.8465225128199907
  0.0656202660282325  0.7761234848101997  0.0127166754305248
  0.6873695781967756  0.0778174301232486  0.3824469408979341
  0.8052084910050259  0.0385471627587205  0.3620404962461949
  0.9017740633057421  0.9947876656665187  0.0968947543991332
  0.8306504057677656  0.0939755229800883  0.1312373756186822
  0.7160224828683878  0.9696933407992029  0.8757113478728291
  0.7360965388350955  0.8369895735856848  0.8946402284375548
  0.6460507527791985  0.9002705184049471  0.9109118665467296
  0.8191077407943503  0.9952683179503812  0.8232452152614197
  0.7963025884131441  0.8299266591053176  0.7042274130861371
  0.5750409241738400  0.6503508661609887  0.2509624230774002
  0.7353577565753321  0.6796370296691426  0.1657402291062769
  0.7642626965812986  0.9029437889701898  0.9735257088332773
  0.7275664371182263  0.0000801633009549  0.9892556055106244
  0.6838755047446308  0.6733576136430613  0.6680991652606932
  0.7702619432125201  0.6696519016662498  0.5864566132949062
  0.6794295013768225  0.7454298361338509  0.5850849520889928
  0.6794697557652049  0.8161254597064924  0.5079886342034662
  0.7273506931013548  0.1606282270835840  0.5553219329801585
  0.8935520929135782  0.8637849537657868  0.3267434047149738
  0.1324602351114429  0.4240134977891802  0.1690402284326988
  0.1046024176291331  0.2158783918334191  0.1531187243135092
  0.0697282196206897  0.1674710040478211  0.3084718094393968
  0.1742537118161061  0.4758780381967633  0.9692429211014535
  0.2295140974795046  0.4326655448123506  0.6855035936986899
  0.5941186010742125  0.4996028209899572  0.5888462515814924
  0.1277138929408657  0.3385508934974927  0.2466589593212430
  0.9723767395360892  0.3527317315308044  0.9374613713339015
  0.9827561951994922  0.3084378044209339  0.0297542998773577
  0.0151905502827809  0.1045600851045740  0.3686380514207394
  0.0588815749076026  0.1119922232688542  0.6156210528928062
  0.9678895845251099  0.1672294849157938  0.6389798871493957
  0.1902692443168159  0.6839827836474632  0.3123241371896975
  0.9040044801963475  0.6326436694063347  0.2987528768538401
  0.0687450904395613  0.6360652990011197  0.5825514682162685
  0.7903426774411521  0.6225434516289164  0.9119705390928405
  0.6083820686292158  0.1853149604017191  0.5623307966220221
  0.8837981490024470  0.3498241267010806  0.0507611781562806
  0.9353572726221570  0.5272324613484458  0.9983781114009929
  0.7663084017841327  0.4427455818622095  0.3472568426847076
  0.8996109376193746  0.3241354101728099  0.4067450789544353
  0.8201544635996358  0.3412178582042706  0.3299046931158989
  0.8484610127223661  0.2369818229090972  0.8573711513231315
  0.9232703091501299  0.5176153828656797  0.2864591806026508
  0.8700430999115216  0.4893878131013746  0.4017184735067776
  0.9011579139074594  0.4111119430979218  0.3403784023703005
  0.8258575716694824  0.3434242854031399  0.4933032466524669
  0.9036997619476455  0.4236997287497349  0.4807037928333223
  0.9053666309912890  0.0228981506066333  0.7402940208703150
  0.8660022959726804  0.6539840936152564  0.6455434490940153
  0.3115254063311175  0.2911179571906931  0.7925889284125118
  0.9051848092726992  0.6753966232687161  0.7475467248424514
  0.8686522621585429  0.8962879743150007  0.9421902117771483
  0.0083160262290033  0.6134076442215495  0.2729171116506307
  0.8254196295753435  0.5451385013560259  0.3287434641595698
  0.8254347156784585  0.5635442210004968  0.6031998306497937
  0.4158785801753897  0.3510673790634445  0.0367298367966833
  0.6369331637048565  0.6445294741380275  0.3395066785805647
  0.8476267607436897  0.6870070736651723  0.1740574623203175
  0.8819709561674790  0.6172638783390894  0.5367075912267393
  0.8857378708623468  0.6262523843312694  0.9960280793630901
  0.8873044792610170  0.2737539140325131  0.9631518737119930
  0.7714636729320115  0.0836981322935159  0.0431626938103277
  0.6878941642785049  0.5819143076024547  0.7329576191946093
  0.7593959780140452  0.4279545944775329  0.4928247421232413
  0.5171992599547610  0.2460162450128573  0.5684565618361437
  0.7543053446601772  0.8593416763870203  0.3401093653047757
  0.8926096029584917  0.6812648879538376  0.9084410140862019
  0.9405745392333367  0.7023991881270398  0.2126923122838326
  0.8471755757416469  0.9363867768047185  0.7288782824640939
  0.9194839150209152  0.1637536919432501  0.1100209597770812
  0.9592938460312777  0.9351012259596160  0.7253526308420836
  0.8728476999462079  0.3211164899340466  0.5865433194882312
  0.8964599255829320  0.9401800915726694  0.4989923528913174
  0.6786040681519232  0.2661379643530882  0.5768696974791574
  0.8984821394910170  0.9611666093344355  0.3966626855431738
  0.7261435733889687  0.2550214970745553  0.8384668816723762
  0.8350626314093239  0.8661255140872326  0.4177556402016246
  0.9539284797957381  0.2780843679134952  0.8502495048233589
  0.9308815953817113  0.9115229499855451  0.0370202672609640
  0.8039016385279184  0.1607842603763687  0.6608714635042626
  0.6983391864263931  0.5278350887756975  0.1629452810733294
  0.7002492788470811  0.5849853565736619  0.6056770934121551
  0.1061380885271183  0.7573782559863707  0.3322935229231894
  0.5637501689404240  0.5722491754919802  0.3456594596846427
  0.1562736507594896  0.2047639930063223  0.0623100195895016
  0.1570126340590938  0.1438578896858330  0.7639689581568688
  0.7537941844123388  0.4176663328574571  0.6732452846796901
  0.7536435202713890  0.4419657671002987  0.1691716294212658
  0.6864013884154073  0.4477272895574673  0.2635847105116121
  0.6740635957971608  0.3562299732336341  0.1675872565697985
  0.6694068175525281  0.4268923539651003  0.0847135015752363
  0.5087299551825164  0.3447892620007334  0.0077037867395733
  0.6396802442433537  0.4114151857739228  0.8974803325662496
  0.6156206371751753  0.6462819537472572  0.9915107993451711
  0.5599970596946169  0.7613738065638770  0.0635657366077526
  0.7612094976474013  0.5227173487334769  0.2540350853648055
  0.5064639820239553  0.0922798206224541  0.4046110851337962
  0.5570817225263486  0.4093473986915475  0.8185791170309888
  0.6250524481562301  0.0960324073129379  0.6182260908603910
  0.4237135155550585  0.5659087096821250  0.8013552412351335
  0.4385301249384384  0.8622812846787097  0.3910028178044881
  0.2979428002610660  0.6529867462361153  0.1562473137822860
  0.3321420829698924  0.7527248116159605  0.5660981767411215
  0.3387395297995979  0.7007954015823313  0.0602942664135076
  0.4029941883955903  0.4843341111219783  0.7169526714151717
  0.3384062653338423  0.5795858177520119  0.7387051225872681
  0.4291534643390265  0.5836116194875849  0.5353157261760876
  0.4120221905682531  0.5017013752004196  0.4580739356822537
  0.2298978329497434  0.4896035415954145  0.1927210837095951
  0.6650207681229732  0.1103364767607136  0.4920097653303313
  0.3977516453539410  0.6291330018179193  0.0034469396855349
  0.3423631918623393  0.4716984843558820  0.7994322185029848
  0.3107705534399122  0.8135395020815940  0.6657658502089798
  0.3244049359691701  0.7245807616178398  0.7421383588433985
  0.4496913906130264  0.9873145860977416  0.4056904013125310
  0.4882403934849348  0.1643019904521603  0.0995343800527293
  0.9777091954275743  0.6916620876536915  0.9828943364405881
  0.0194842805576324  0.7403234201616270  0.1455514704505006
  0.3530815737632712  0.8711226772267393  0.3115670963401022
  0.6092192060331515  0.5283729031307866  0.2405814012362371
  0.5890339431321949  0.5837681276943167  0.5223203797838861
  0.4195491063160517  0.4938962216651755  0.5813956770204410
  0.4962934884924002  0.6506602553060394  0.9858792027369307
  0.4346793614025142  0.4437935550399704  0.9742581557298160
  0.7607024049102459  0.0733827905072746  0.4598826287744025
  0.5597312036364188  0.5622657441233685  0.0163486534310125
  0.4510203592306518  0.7136839894567681  0.0709572744241207
  0.5025616044727256  0.5849888841794102  0.2529174093475079
  0.5849425042988520  0.4971031209904914  0.7360268850497493
  0.4588893802656114  0.4634820594326267  0.8387533872776377
  0.8937217583738901  0.1660520673015290  0.5705459479975975
  0.4903453525021607  0.1900447732118479  0.2002240270844804
  0.1052358443055428  0.6906382787827595  0.2309983255056916
  0.0251269499720438  0.7360657013838279  0.2658719077265414
  0.1526499914501834  0.6810977514454873  0.0120341358667602
  0.0068014096893053  0.5899105603806724  0.0277845299057487
  0.0631907643508473  0.4852859360884019  0.0342437307556230
  0.2053361067976890  0.8195593421508420  0.1480887173419400
  0.0055075867411669  0.5257914115636074  0.2159610273959543
  0.2053851855973113  0.3819908566237098  0.5823469499187458
  0.4226278123737808  0.0962578009122365  0.1524170826836656
  0.3217639947270209  0.1445285791552034  0.1494325268228339
  0.0812755891470025  0.6062131763350082  0.6915821402397394
  0.0772866276754360  0.6065354668683799  0.8416195763775000
  0.0501830290982093  0.6802857359067801  0.0625124552373795
  0.6454162682795878  0.3305951712158642  0.8229641704699713
  0.3243573442073788  0.3592652724714079  0.5273360044514971
  0.8873119042892021  0.9713859487451540  0.2915812702608488
  0.4731965926676242  0.1987630970394949  0.8301522112655604
  0.6186536791861653  0.9960901742761591  0.6761099141957498
  0.1435075933816672  0.7070679385058288  0.6209445949219835
  0.0130076154503455  0.8989712739536089  0.6337253769688868
  0.1557468407577962  0.1723290689021222  0.6600383857378942
  0.1268664175909318  0.1245783605641778  0.4856379081206595
  0.2461476810311629  0.2369436872852864  0.3463562988490707
  0.3308278883853872  0.0628958888388875  0.0707993106739335
  0.1124638467565166  0.0463689516054836  0.3218665891047586
  0.1207244183644218  0.9585238766579599  0.7710214853062114
  0.1000316545803620  0.0635626441688646  0.7026005941529931
  0.3934065663815153  0.9786938185284181  0.1101972052575362
  0.0970189522589375  0.9467675735844111  0.9022281108918584
  0.4271720770737815  0.0136180113866218  0.2258958802859274
  0.1436460312633141  0.0911496240139178  0.1248258598886196
  0.0676237163896742  0.8505269783474853  0.4203751979455356
  0.3196679770689684  0.8992769815289765  0.7342513998915400
  0.1206338830972264  0.0579760001036732  0.9232973391206787
  0.0822256176363750  0.0336390591572959  0.4201261252494942
  0.1593782247766580  0.2277335053932931  0.2578292716089364
  0.1529214585746725  0.0810174485078868  0.5914796426265042
  0.2677192122575111  0.9498602289512467  0.3403748393173233
  0.4432867676422820  0.0524760964916704  0.0424908263075918
  0.1742740382057279  0.2982133357529735  0.1553155395184755
  0.0105745597581314  0.3746323191962363  0.4662200353319816
  0.1793076953723650  0.9625832431204420  0.4007424425628171
  0.0499628205307233  0.2331783611546999  0.6339810125247992
  0.1754211790100532  0.9391670280442245  0.2922958447414284
  0.9590112077061799  0.0052415645443091  0.9984805495238714
  0.2670892424069044  0.9298368014477323  0.5012647099982984
  0.6947262492908073  0.3202834122356432  0.9324942646436358
  0.1329067762669533  0.7625593466886562  0.9237370510111440
  0.0382378543099017  0.1056639038928075  0.9820079049818425
  0.1928613841252587  0.1081433978169528  0.8634317548316379
  0.1628372914137305  0.0189465061526284  0.2177598647242763
  0.2659853293409050  0.0805663403318243  0.7967854087901450
  0.5092210459047978  0.5037661139672726  0.5163201501948764
  0.3964727060906301  0.1908329650287375  0.2618272557703928
  0.9005326696312337  0.0046776686092393  0.9006004358239297
  0.5592989871253495  0.0722323454603293  0.7212959383172541
  0.4574629987815081  0.0631413431603528  0.6909898745195024
  0.5062845254214547  0.2480605494386169  0.7270270169474466
  0.6100055437110110  0.1682716683672258  0.4160292234553274
  0.6069127075348010  0.1708627135174138  0.7285350681379988
  0.5712992167635181  0.3941316111101178  0.1310283449718260
  0.4875055165381002  0.9610042148337294  0.6689937547981072
  0.5454631336380461  0.9804486863049587  0.7605170234715112
  0.5294377683807198  0.0469053072890850  0.6109987968615687
  0.5289075661406395  0.0843160144899168  0.2053303646119281
  0.4945769151717975  0.9872959445101128  0.1316109590823233
  0.3754103875696551  0.9725456354963643  0.6890654075822332
  0.5272844146321046  0.1642023831074456  0.6546489546713765
  0.2370529840232297  0.6797576979213164  0.7636874436348924
  0.0590186485736467  0.8419950073539753  0.9157027244555187
  0.1642236095974931  0.6041856655837375  0.6019699770913132
  0.0630710838465295  0.3370816093897355  0.6433820568602054
  0.9843364666392678  0.2659173172974567  0.4587775801731669
  0.0888666350062493  0.0479473231466486  0.8185263825882201
  0.1188335340471465  0.5839359306155647  0.0334175746681877
  0.3269007832041309  0.2350704280102868  0.4383064168897017
  0.9968697888531344  0.2417507599422175  0.1118838970896272
  0.9558177591022755  0.1835149941772055  0.0092558679781093
  0.2308966344382837  0.5467713209171893  0.3042219087223886
  0.0390314877328504  0.2370839788809194  0.2313982370513964
  0.9904336157285883  0.9697748941177560  0.5475810499336086
  0.1893329672459432  0.9968512639187423  0.8547870831372788
  0.8934138605130187  0.4231307985547852  0.9644191566660423
  0.8323597180791539  0.5080284616107157  0.5087548641991486
  0.7931545160876473  0.8795570023533182  0.5144439631080809
  0.9552833881796423  0.5739273505363672  0.3758924602130012
  0.1995212322762324  0.6073137578266127  0.2181891526523703
  0.9209439488234485  0.4830748275027286  0.5832468302812936
  0.1330462555256467  0.6390596331269659  0.1318152146666581
  0.1633370261711212  0.4944801878474256  0.0869280904073311
  0.2614058046978111  0.6290470462938634  0.0094356638904331
  0.6596533302104647  0.8391541568173050  0.8175664795848515
  0.9845422943971600  0.4650816095353534  0.4030926414044801
  0.5700438834478561  0.9069021455295442  0.8326797396788840
  0.7220071197114657  0.1975264163425687  0.0393187811139926
  0.7077114068884145  0.9608070863738377  0.6362770463456934
  0.9144735067883495  0.4939164148911335  0.7863850662421470
  0.8304229627850618  0.6809253923190716  0.3655744494006218
  0.8624673659320290  0.4651776859720611  0.6806732582662571
  0.9560273237734106  0.7513431435673652  0.4975953554540414
  0.8648807039401967  0.5009237613989523  0.1781170070212333
  0.9675540439350797  0.6792892575037022  0.5747466303297650
  0.8728710982257147  0.7298702934114812  0.5696509060046380
  0.1961376208340518  0.1809218101568257  0.5524612572788893
  0.9218198268397352  0.7422213255852754  0.3186071029596910
  0.2103768275520557  0.2547815720460764  0.7325705943993862
  0.7464870812621880  0.9359201315063130  0.1731106854958416
  0.8699089243256167  0.7665690523829215  0.4319502071805429
  0.7280149283445522  0.7188098611458289  0.3362646304008883
  0.9204592880637711  0.6651773954721025  0.4337385667351655
  0.3593812890398174  0.5228668176128034  0.3608505410880846
  0.1334304422975347  0.2233011916470763  0.8436529867949467
  0.9117639297951391  0.7761135334145028  0.1236577135388779
  0.8955610386717884  0.6018921135856858  0.8274485238957009
  0.8095587035577665  0.2520171032016231  0.7499782318649494
  0.8449605552954793  0.9916677642698246  0.9998045769017517
  0.2681940510615040  0.1555511145008368  0.7180973769468317
  0.6628028178158825  0.7188482958283153  0.4278736081312669
  0.9589633296556462  0.4017119064903297  0.8370902613318907
  0.8719878919938538  0.7964511970976376  0.2253994064469796
  0.8178780582990168  0.8873171131310064  0.2472499403976386
  0.8073157016442114  0.6748092555707531  0.0710710570667446
  0.7936562895504358  0.6019564249057164  0.7676190090432717
  0.8830190828086690  0.5699978189336101  0.7131507456249563
  0.9772483793915033  0.6208167647135188  0.6648196046975698
  0.8654210793156768  0.4662712011409349  0.0685715876016894
  0.2486110620794709  0.2264325048950100  0.6316554955137140
  0.8178078160046424  0.5244173737999797  0.8513723263319046
  0.2679507026430894  0.4853059857736899  0.0574575107060208
  0.8402196619760640  0.5917178279892493  0.4289594069704516
  0.2919897986910183  0.1399480040284161  0.8983219830550547
  0.2439790198846551  0.1985382182688480  0.8173082079888839
  0.8558236361770244  0.3911943839018819  0.1567745170234578
  0.9364078735437049  0.6631411465601940  0.0958650687807840
  0.8880330080885608  0.0878471432769745  0.0228188925205255
  0.7056656827422170  0.9303598022985321  0.5337099899837688