 B Cr Ni 
 1.0000000000000000
    21.1200000000000010    0.0000000000000000    0.0000000000000000
     0.0000000000000000   21.1200000000000010    0.0000000000000000
     0.0000000000000000    0.0000000000000000   21.1200000000000010
 B   Cr  Ni 
 173 259 605
Direct
  0.8078387806768937  0.3211487531060951  0.8095673199135733
  0.9433840636661153  0.8410374499400746  0.1628755052179991
  0.8268040005947076  0.5069013156509296  0.7618866442189480
  0.1731406401828908  0.6292886059315282  0.6927050476718675
  0.4137888614684026  0.0721664392751267  0.4265663953155032
  0.4571278171920655  0.1115888774245665  0.2589541495858715
  0.3386031350017883  0.9879393266337143  0.5756807248780705
  0.1041282194032575  0.3930780726945820  0.4474765108880454
  0.6616039025396049  0.5548679069447525  0.0386400521636192
  0.7849612911093491  0.7052797632732006  0.4073849062931871
  0.7704063481304375  0.1407596628654047  0.3484646859290353
  0.0948343040649058  0.4507443843396232  0.9244072591679129
  0.6692649797311105  0.2064485238520500  0.4910989380745229
  0.0770574355143247  0.8868709278417914  0.8277965950474563
  0.9209922756742830  0.3351901170561460  0.4903829021721474
  0.4578520663770460  0.2853487736338366  0.1884818720584517
  0.8143967561445179  0.9335655961115016  0.3427001085637287
  0.4336380336436277  0.4331320562414053  0.3981066775598662
  0.0836571564752476  0.0775494695862598  0.2276514421194797
  0.7366471996583135  0.2546325473377042  0.2119102060633708
  0.7326222994321474  0.7470689609146567  0.0825118084568631
  0.1124275261516531  0.1222960135523868  0.3834666937789755
  0.3448332515907795  0.9421455524742440  0.9019478467601992
  0.9463302757037005  0.7529518358228416  0.4063098624277191
  0.5180979239555803  0.9816630040675717  0.2261674547384531
  0.3616815177130118  0.2853569441195000  0.0879399007207859
  0.4875887299092052  0.5980378250402376  0.0985307827369973
  0.0696247836200350  0.6610723900385522  0.3368915026797809
  0.4542252393792263  0.9357720666587896  0.1954988301021951
  0.4798888578155713  0.8078518141267640  0.9322980534277759
  0.0813672026470730  0.7047293173695220  0.8536142940377248
  0.2051408596472002  0.0215956227976568  0.3164052731711660
  0.0645757549478732  0.9621661321213276  0.6961000639554685
  0.7709929155226257  0.1459678009694771  0.9651024886623091
  0.3352011687018605  0.5870376526099006  0.2987605899070462
  0.5549017291794549  0.3591865622050699  0.3430479043424489
  0.5169902430611257  0.5109177001726656  0.1063230857158492
  0.6399858679856700  0.2484759334507575  0.8816007852228168
  0.7422701143814251  0.9699888086134328  0.5062381377435131
  0.0682324654456741  0.1606746612309318  0.7031831039625172
  0.4455372436209802  0.6773039616345475  0.2709952039239880
  0.3048803537551422  0.4841318053867161  0.7260297303766874
  0.4078570356431644  0.6681030338802049  0.4987125676459100
  0.2575993296525247  0.3539752373960350  0.3350731179773984
  0.4224303327040197  0.6792320168169298  0.8199183287818594
  0.2366992099905231  0.0775609288105860  0.2625228778039702
  0.9745234824669138  0.8387662873279924  0.6961764262174950
  0.4707921591272874  0.0288162240228895  0.4774216619055862
  0.0880235357057126  0.5894850895593449  0.2140369259673751
  0.3889210461052816  0.6982452483919652  0.1450726677356827
  0.2031725684507341  0.5487219778941200  0.0291672351660997
  0.5988301966204872  0.8155934037873563  0.1438704833609381
  0.1508676165435016  0.5558392402622221  0.1644314799214737
  0.9619736910744668  0.5017839182382452  0.3135479121983268
  0.8647876737179789  0.0352656791613690  0.4264817549809253
  0.0262280329112472  0.1076484970251662  0.4689277359515305
  0.6219561002768240  0.9029625917732155  0.2265695780929733
  0.8995917933812411  0.2269037615894923  0.4032714745097770
  0.3749947453401808  0.4282605283372667  0.8968805227833246
  0.4261502288549104  0.2482349230299826  0.2529044363439978
  0.9591944612554735  0.7090298424036393  0.6641738111389394
  0.9430788432544823  0.9167399297390721  0.1304391617214100
  0.8021460195545129  0.4413721804953933  0.9976830061283385
  0.8509810637024611  0.7310434042429901  0.2674884859166168
  0.8841762699587994  0.5795947084404415  0.9179297751951558
  0.2312006985384779  0.7751075988598118  0.7236660591295853
  0.4924809999512875  0.4998234853549930  0.7650463488801431
  0.3448705549183946  0.0426144970652061  0.1713948410372828
  0.6841916845180244  0.7404992565126842  0.8555629602846762
  0.7928209988521892  0.6192724109945459  0.0106228463481859
  0.9749290240275673  0.7540221603897167  0.0544471794243848
  0.8749075018051578  0.4421138808112679  0.8500693808580932
  0.2288954634470137  0.4061589442355060  0.0244077551992974
  0.0331796628114178  0.1039175546239606  0.8751453560531769
  0.0221058039116578  0.0143813636394969  0.7453378009261939
  0.9190818732281101  0.8392900102368810  0.8864122677964033
  0.2815008028317632  0.7046941901339294  0.3617640748738432
  0.5667532329854451  0.9302646991477319  0.9914630805720545
  0.6150231271663995  0.9315979731800891  0.4051324671758131
  0.7805001896674129  0.5269645620733013  0.1257743073824487
  0.2480731968884713  0.8460162766463262  0.3241936426709410
  0.9626598571975805  0.2914238532453684  0.1915893187099840
  0.9370188141587688  0.2489665815407160  0.2562832123395534
  0.1265685489922687  0.9267815583590557  0.0245367494776938
  0.0238055817442409  0.5488925237698384  0.4767826649631305
  0.8497136319046721  0.7656924461312087  0.7691258917685864
  0.1048807381552293  0.1385586850783944  0.8651264994652712
  0.6782952669673369  0.8021996022590782  0.3912354266654736
  0.8161304619487060  0.6987301671705474  0.9741825517756092
  0.8511047501702249  0.1382044547199954  0.3121672691286406
  0.0696114613774448  0.4952097329101635  0.6692675813117064
  0.3526993727820045  0.0864648653965997  0.6560121397567066
  0.2356728604822983  0.6594015380876223  0.9212496602590479
  0.5050773352035787  0.1559314011089341  0.5516076064779144
  0.3250368715947207  0.5578076859854967  0.8462568819960423
  0.9043027625869570  0.2481299721931947  0.0567764503756245
  0.3576967856016290  0.5651393295961225  0.5898790867814662
  0.3265263874243705  0.8552881048600084  0.8891017057367391
  0.6294164043805288  0.1552508984494850  0.9807548394793115
  0.9106166673378544  0.0249312521539809  0.5591911447354023
  0.2883131401232037  0.5789988001007924  0.2229180827613340
  0.1141728851890225  0.1823996067206453  0.5714113214343551
  0.6350873011506910  0.4510051001974217  0.1773784833387727
  0.6846119261180487  0.8419528158586735  0.9808679493821573
  0.2716614043383678  0.5792799330712031  0.5907390843865719
  0.1784536254733824  0.0460868404921078  0.7712041423709195
  0.7368284861951231  0.9076260194088761  0.6983770447404221
  0.7979118830493100  0.9110380231278548  0.8743058389096656
  0.0409501646785871  0.3740045167841752  0.0730699081695131
  0.8283580608420053  0.1706813567945490  0.7820412463541834
  0.7181399168216097  0.7210441701740132  0.5150275360734036
  0.5043493472384135  0.1414750427307618  0.7469588786530418
  0.2399942129575069  0.8303919183821044  0.9889408930343895
  0.0453340423354366  0.8077827734480179  0.6778380999318278
  0.6592084421441738  0.9057045302857414  0.6609238942286715
  0.7712828678049596  0.6188485665888329  0.6855316832241439
  0.1666939645991354  0.5127805258812931  0.4411144730707003
  0.5902138105352580  0.0223504626211019  0.2580103903076945
  0.2112184038736494  0.2156597833118734  0.9034379779189348
  0.5451945766515942  0.7199907090613343  0.7503753502235674
  0.3856200371566914  0.7868494695015367  0.0343869538942492
  0.7902247551668543  0.3091575050639999  0.8889388063662792
  0.6842551948138277  0.7972430196331420  0.2901472252965017
  0.4065485808310610  0.1306197818574086  0.0681768236680116
  0.4113075032688104  0.2417497992481727  0.7715193923492664
  0.3658612517432271  0.3281717974262671  0.6527803107719247
  0.8273772940894518  0.4005198180447003  0.4111620399632444
  0.5700025292287617  0.8164350326827173  0.5257686618578344
  0.1968673546675773  0.2675640756459335  0.4364578483232266
  0.8130365069644717  0.2703042019935262  0.2350191313093421
  0.7651090463809030  0.1269350056464844  0.1933315093817715
  0.9205413212087030  0.1606125372815579  0.3597487827215563
  0.2024148739593225  0.0865188370049534  0.6981144246922090
  0.2590039490090481  0.5204950290619059  0.9771126574087027
  0.0500752534499242  0.2542160455133163  0.8112267992915011
  0.3528028295217399  0.0254134616863889  0.3964430087856408
  0.2759374308221486  0.0192429420844419  0.0033976648208666
  0.3550918950677241  0.4292364053424333  0.5198848412372928
  0.1648257601533316  0.3676633214002634  0.9873750307965443
  0.0039703043793319  0.4591687909746237  0.7730429282450353
  0.3014332277026282  0.9797700811507567  0.1519927670811996
  0.3096999796591133  0.5673372769767587  0.4537951964481799
  0.8263834123255096  0.8287611773001842  0.6091046391701042
  0.5217103264361580  0.7553382808948890  0.4807602887087896
  0.8979485588126558  0.2224045452449343  0.7669574352159121
  0.2159644911718488  0.4294279068945931  0.8345196974989885
  0.9182093799245907  0.5619669523964831  0.6316070273742461
  0.9150299017322077  0.4007326550686745  0.6314068934486310
  0.9879303664301805  0.2607362046914219  0.9413618102372875
  0.8161954033802559  0.7515974863045698  0.6365321913003879
  0.7302733648094180  0.6476442501453950  0.4627672831916487
  0.0072074812468859  0.3217059362237746  0.3702120767476137
  0.1006663009531552  0.8923824518332647  0.5677277461099006
  0.3126490792628921  0.6070325060454980  0.0781064956880264
  0.0169819800577840  0.6685038274410743  0.7354182441221737
  0.9358982011042098  0.2049872558426137  0.9080628835830835
  0.6279864431977420  0.6030132537604491  0.0912705952834154
  0.9151886589025549  0.8933910043616413  0.2238793719271699
  0.3420271959694714  0.8269579073485122  0.2193607389288490
  0.5298961837376127  0.5002500319487887  0.2895712434054297
  0.1133758602503261  0.8226888415344685  0.5161591855798532
  0.9536207334578780  0.2053004925389058  0.1882569656334279
  0.5358078127833158  0.2252166032251132  0.1134236209966934
  0.2662194435281129  0.2445475062557446  0.1982608109378714
  0.5992501115544252  0.0748742318155809  0.4084334544371259
  0.8052156411238239  0.9753790214713807  0.9190714433040067
  0.7400883995710592  0.7614036492446260  0.6619444803318640
  0.3792068082377610  0.2510094326541704  0.9457060552665255
  0.2999935739374145  0.0990551674863946  0.9906463181337046
  0.4742654112726390  0.9364008822177734  0.8274942524920481
  0.2365076747197815  0.3938332164514804  0.2092166994140530
  0.9452185358485152  0.8893072808081425  0.5662930958617962
  0.0240976732495795  0.5913643402840638  0.9942957354871120
  0.3246780790023623  0.7241963166478409  0.7524629946878446
  0.3409670678894579  0.4721021213727395  0.8134131660071821
  0.2277161530978598  0.4949950620325422  0.1962731600234086
  0.4393356440867358  0.5759238195356791  0.5301868018859429
  0.4055997336830381  0.4844442808165699  0.7298058649000192
  0.3347442800532389  0.7054454662091521  0.0591573422343625
  0.3305081047821570  0.5761726182531653  0.7479238829386710
  0.4023814023194638  0.5025406094401752  0.4608945675228699
  0.6599792001062392  0.1087426499800843  0.4865692228532964
  0.3114633169434278  0.8258623142606388  0.6825350707841661
  0.3855254625992383  0.6298995804274963  0.9994684619029637
  0.3369570439988027  0.7322432908704785  0.5568572497181726
  0.2973991794111392  0.6595317517582799  0.1603748349554669
  0.2134811718886666  0.3670252103851385  0.5893111664487912
  0.1047321534518544  0.6846576111296355  0.2411367156399589
  0.0248108204672016  0.7262465729903066  0.2792798191205880
  0.1491409753230647  0.6840164147226204  0.0149959656304151
  0.9758194861646338  0.5813368165856274  0.0762085390494121
  0.0567665919039859  0.4906630864826095  0.0323494139863588
  0.1984103797752353  0.8208405296997466  0.1470981476981034
  0.0026930659631560  0.5211323170457739  0.2200236263350772
  0.4229943626001829  0.1000827645103395  0.1599153510143946
  0.3299514742377990  0.1488617212566373  0.1460852975426721
  0.0811002890361537  0.6014595517069365  0.6866024088921912
  0.0777651636450322  0.6030346901531304  0.8382122083024224
  0.1594172201034038  0.1446430736650103  0.7658064019428773
  0.4482575805164081  0.9913833102147205  0.3800257907093116
  0.9820762096859674  0.6866285933872887  0.9847792235844173
  0.4292085726243377  0.8555239721422898  0.3849646213719894
  0.3399603260783073  0.3331066321154008  0.4949513403373299
  0.7193252165422003  0.1606589979362603  0.5661918991204086
  0.6475446931173549  0.3294961828794954  0.8208078167104755
  0.0451086534837179  0.6710834792162922  0.0633611265223332
  0.0139208318551413  0.7552521080406406  0.1458894220894986
  0.7520047014723067  0.4164235281613437  0.6727543693290325
  0.7502139712091346  0.4326047654321972  0.1641050970657389
  0.6841480109654935  0.4450143174463437  0.2594092214129129
  0.6691966650841125  0.3521090088504601  0.1645312914419645
  0.6697682473527139  0.4140946794065341  0.0834255486014050
  0.5091820249646881  0.3475264319099529  0.9979084967865560
  0.6425231420666573  0.4097295514113526  0.8944987065003385
  0.6171424357982588  0.6481971811858602  0.9977509460734663
  0.5600930717229911  0.7638110702110901  0.0663524126872405
  0.8009129641126953  0.5972586583121119  0.1940609211773315
  0.5871309860785252  0.4973482015053226  0.5815809321387153
  0.0721277814029041  0.6339607315046367  0.5839553821377343
  0.0104790277209592  0.1097659725301273  0.3645362673327831
  0.0741200709793976  0.1555216500925174  0.2964979343007469
  0.0622226631313537  0.1113699000031356  0.6171229330430299
  0.1071290437655207  0.2187713768541326  0.1600518359943011
  0.9736753668068574  0.1667802713358427  0.6390919037205072
  0.1384769059017883  0.4074731972102278  0.1826802559802489
  0.1832446581971985  0.6808746951380127  0.3211922410876006
  0.1164660158235670  0.3249846186283443  0.2506451687258327
  0.9652538130644416  0.3539488463321228  0.9362372867231387
  0.2336861840621184  0.4323041575913730  0.6786920793010691
  0.9833176907875112  0.3073169713617184  0.0282890619376704
  0.1468248410771562  0.5057236628804574  0.8551121991207161
  0.3136523227130510  0.2964933321665918  0.7949169377405568
  0.1303308678181649  0.3328214324184761  0.7970060205739800
  0.9045910273187118  0.3192267030881259  0.7661531510940907
  0.3215783116130112  0.1731458884933014  0.3520960787553384
  0.3899975444366804  0.0799821137805169  0.9645536601580047
  0.2871590797467390  0.0264548877578464  0.9089885180203332
  0.0372883716527613  0.1106528428686431  0.9781219283253588
  0.4316460919605138  0.1340449997440898  0.6106464494539483
  0.0309316113290872  0.8895356432747493  0.1795919067370572
  0.0807279843274031  0.6586167070335368  0.9422539370636679
  0.6307649052816989  0.0825653142325725  0.6182558004742726
  0.5028817081133771  0.1007512212995851  0.3971296763736649
  0.1129792994172242  0.6882513372949011  0.7553627694109203
  0.1092406447506284  0.7576450840907510  0.3403980934633845
  0.8879360582039318  0.9772378806126348  0.2847048343277808
  0.5561495741646413  0.4149513769394289  0.8189133801954205
  0.9786268452522771  0.7917626117785009  0.6053542375318284
  0.2851086388241508  0.9213966090247410  0.6417817636649282
  0.3348828607235215  0.4225741943554649  0.4233008276675443
  0.1285736668539465  0.0867556976022159  0.0362158930394411
  0.0659279614616305  0.8404663139321834  0.9142075830391690
  0.0596078337032247  0.3286695005317732  0.1675066264271927
  0.1575813321966088  0.2030212156879086  0.0601931443144887
  0.1950918479208215  0.1061563179153685  0.8641303820070371
  0.9579905410961330  0.1868628453829040  0.0034962681462383
  0.3261382592189348  0.2399745629712911  0.4374920232375079
  0.1665254974354832  0.5967559615308278  0.5991661319913318
  0.0910659911522098  0.0492657237144637  0.8187838539666885
  0.0648770697612966  0.3369661323523299  0.6360105761781096
  0.2354460849375581  0.5468567697894080  0.3040669907968389
  0.9971254586637279  0.2456157185255017  0.1119620692582246
  0.0356679963017062  0.2352700216595220  0.2323545546610242
  0.9941833154222297  0.9695457599387147  0.5418109783930796
  0.1140009065190472  0.5838373395452288  0.0363779089221831
  0.9815333157698702  0.2674038417539232  0.4586791867514897
  0.3359991990038890  0.0621252471430950  0.0745838195848387
  0.2361835109302532  0.6742424497148658  0.7511893682923038
  0.4233668615776067  0.5650195567185361  0.8102300863190486
  0.3984450992252453  0.9149964877345791  0.5634043922191070
  0.2684882554689980  0.0836390049455490  0.8021100420038292
  0.0167272561457208  0.8997947420306818  0.6307091337059435
  0.1579578993045033  0.1719445554350117  0.6621469161691905
  0.1303013272174510  0.1229467470646806  0.4835322189872877
  0.2511024299885342  0.2446327621967818  0.3496428813949375
  0.1832946602295695  0.9882963825018064  0.6742337797099289
  0.1049182692193151  0.0588265708490660  0.7031125317524219
  0.3946040230241155  0.9782564982504079  0.1150856433822046
  0.0972984020446958  0.9456343293280267  0.9070397269764304
  0.4280504233583489  0.0207382076308486  0.2326085433901685
  0.1340272986478749  0.0958125077298757  0.1306565925600323
  0.0712579770055413  0.8458437789537170  0.4248139392727234
  0.1186559645024841  0.0577138564616692  0.9240883174636600
  0.1894530661155216  0.0674893943424967  0.4130059311025990
  0.1600971601562365  0.0102724418076357  0.2160413301302164
  0.1571388674141844  0.0787509334347916  0.5950196991729507
  0.4523269050787170  0.0480763377031610  0.0463916596355308
  0.1790658128899663  0.2942731176048246  0.1536989482994101
  0.0006155522929564  0.3816787639752112  0.4478827381817528
  0.1757301691761710  0.9651865455047703  0.4019241077128464
  0.0523943296358356  0.2317265155891111  0.6329385431013744
  0.1713906171353035  0.9318884405341010  0.2901828663803040
  0.9620420308213355  0.0063483709334280  0.9960872813459264
  0.2884039169515413  0.9245006300133980  0.5154449068419575
  0.6963073842848617  0.3113767265903565  0.9298768931841591
  0.1619839915357031  0.7058031422783917  0.6381846791403504
  0.1386732788580902  0.7604114631758689  0.9210883520937591
  0.3239365962960420  0.9163421278416501  0.7379695931392162
  0.1624564195341019  0.2260541567955933  0.2630752641412730
  0.2629553771727329  0.9433490053339381  0.3439446272174373
  0.1128359361667563  0.0467180749542829  0.3180562736734792
  0.5085722575696018  0.1270272933450298  0.0982544466390741
  0.6755220057626989  0.8175150700344401  0.5136331057981036
  0.8470710833688037  0.6930023403456027  0.1762620736434789
  0.6646080926829565  0.0920078236605190  0.7479267660242943
  0.6551438499648600  0.9135218642955222  0.7653160708233353
  0.6772604484014627  0.8209925620741714  0.7130327914152643
  0.5563055598817167  0.8850973041948093  0.0852602853036137
  0.6991352361039161  0.8904589185094582  0.4395805458379089
  0.5077389476255623  0.0382295995086122  0.3109805790674995
  0.5653190088386659  0.1832271258169860  0.9113114727920552
  0.4536369592429433  0.9241426993699061  0.2952273169284937
  0.4377490869577543  0.8359162316535064  0.2291415138549228
  0.3885171182437581  0.7961610035071391  0.1297851723444274
  0.3744468213546349  0.7676999508627607  0.8594741536745569
  0.5883407379184182  0.2561940102505285  0.6520775395821626
  0.5043342520600782  0.2456575112086958  0.7244830654375011
  0.5227036916187746  0.1664628010923156  0.6486070148476103
  0.5372485708519440  0.9832247686767068  0.7509508525406134
  0.9038008279521726  0.0082751180774627  0.8987339698262519
  0.5295980861785855  0.0661277995456718  0.5932831709526510
  0.5127377519860241  0.2889224490538910  0.2820490502556624
  0.5324146880491080  0.0831314443715490  0.2055446595053529
  0.5035054023197897  0.4968834231783478  0.5032722269254020
  0.4965402561177155  0.0032184484124142  0.1315410509134091
  0.6050473335958774  0.1760297148208086  0.4113020450144493
  0.5731169206720702  0.3917402460888905  0.1217555732661918
  0.4565112399538105  0.0654824935553971  0.6853926317243018
  0.4876085408825041  0.9649766368278240  0.6578533025266514
  0.5602519390245876  0.0708509203946175  0.7028525131340382
  0.5856616137817243  0.9612484524790368  0.6187331152696632
  0.4892777201653611  0.1909196408501704  0.2030760394070892
  0.8781055251017869  0.2480680760281204  0.4945163230312549
  0.7480458189734536  0.0343852115740810  0.1717868016232232
  0.6728424430162926  0.0009293333870192  0.4490032255337408
  0.7779000153899560  0.9847759831960398  0.2645197979674768
  0.7214104772923802  0.0814182092475062  0.2789456580206758
  0.6695008360320890  0.7462635336430755  0.6001800322222671
  0.7648680204447168  0.6756737978595015  0.6029624068633190
  0.7275802572167170  0.9979958287851535  0.9832859674235208
  0.5994479194697649  0.7522118606367778  0.3349867815645622
  0.7467413244670594  0.8875669362666774  0.7947694176975217
  0.7371338259682119  0.8363909655010752  0.8962567752108451
  0.7143938161007591  0.9635966061310121  0.8756064250174282
  0.6420181489896960  0.8967980929692490  0.9095692494884972
  0.7991000756799965  0.8283183581358214  0.7074728235099474
  0.7438052554174525  0.6863711313391512  0.1687505087021579
  0.6836648390330744  0.6749706685926757  0.6813400105702571
  0.7641917787806597  0.9036854566615211  0.9752202284451627
  0.8333249582210865  0.0918692176077817  0.1253093501696521
  0.9290078574455831  0.0793877590377225  0.1785548252311398
  0.4894404255430224  0.4056669871414227  0.7424959951079191
  0.5793382280281990  0.4165201404124271  0.6629061456892830
  0.5358756929689025  0.5404685698406143  0.8409462732815264
  0.5878160007671197  0.7165467904401772  0.8519620285735700
  0.5092045579683430  0.9094741721811808  0.9200478810139827
  0.4989820294519454  0.7846707856106413  0.1459857867822741
  0.7415977046535090  0.2714342834147730  0.3205490274740731
  0.6788390077822779  0.1854570442973262  0.3281205701098818
  0.5967812235462814  0.3805771125461249  0.2447425165254717
  0.7460903756213133  0.3545354760250390  0.2503371551338317
  0.6271084948392245  0.2546780351134244  0.9816730257117908
  0.7829638782711978  0.2008102133289142  0.1383750486807228
  0.8059663925919058  0.0978603158530550  0.5874852757359694
  0.6266748478806915  0.0900990786315629  0.9027735715822334
  0.7280877997082871  0.0819377565057369  0.6673842354576421
  0.4880754591364029  0.1013220864812257  0.9037747581394966
  0.4389394177498488  0.4455488684886927  0.9752529303705463
  0.8008952707484320  0.0420353044754527  0.3509456098030675
  0.9109611148061773  0.6755807721835027  0.7492438625905802
  0.0006984943869617  0.6022870492323902  0.2781453427616535
  0.8143204812979182  0.5655059189219201  0.3291931553179256
  0.8227448365946957  0.5629120142507041  0.6158338779273452
  0.4126120078108517  0.3715340297461502  0.0363430464978574
  0.8895739829029551  0.6287274347404331  0.9989816897865313
  0.8896156834367842  0.2734405217527442  0.9599903111880388
  0.7759539189767727  0.0789700901441738  0.0384551539744753
  0.6828328656562305  0.5768883899164219  0.7397598396735737
  0.6676255613219151  0.5135407930397995  0.5136463179470826
  0.5152194204984168  0.2553314209088866  0.5692989653910988
  0.8994577939208084  0.6847255441606495  0.9095772342273953
  0.9434976028182852  0.7081791768444103  0.2098541353017800
  0.9285834900101888  0.1579790999741832  0.1061022508563098
  0.8685565335650243  0.6576802441657321  0.6484076138736071
  0.8750451861974997  0.3189817374539855  0.5808701150117415
  0.6705285170606744  0.2622156573436306  0.5794743154898875
  0.9034198322072983  0.9547979540551367  0.3845966793533771
  0.7318702015181184  0.2571054475514230  0.8339509165221504
  0.8326116178022739  0.8662128313759587  0.4186014912556654
  0.9566427194417810  0.2803480499078894  0.8477673948839882
  0.8533878915047510  0.8856399454147985  0.1321849982315483
  0.8086096465360323  0.1599156059682118  0.6664574532887405
  0.8899065121961033  0.8595421719003133  0.3271804994207521
  0.7307352774821604  0.6078236344897815  0.0898804437201667
  0.7541109041865494  0.8548718673900211  0.3442178820134870
  0.8396186583566169  0.9299808239493874  0.7340155894723706
  0.9225241060267617  0.9136562855426689  0.0296741051326999
  0.9590057750174693  0.9381350537876960  0.7231545948981418
  0.8976905307403212  0.9463620364537906  0.4957343903936386
  0.8946761702140437  0.6387434871412306  0.2752562088863100
  0.8777401536879461  0.6155896428346052  0.5502517502449925
  0.7992881855932679  0.6255057589590175  0.9066378874918545
  0.6008236374417421  0.1747018821179471  0.5610598616069402
  0.6167211987693625  0.5358492334062819  0.2498966891856077
  0.5776029901960795  0.5858397505607849  0.5205138328037994
  0.5022604300865927  0.5875402889024028  0.2545570037950868
  0.6938316643800245  0.0837492758948629  0.3794861760292344
  0.7346430537982429  0.3833154152498511  0.8466743362090686
  0.4876192045059025  0.6412596601396876  0.0016149608388152
  0.5703868281759618  0.5739298772697634  0.3431417336330054
  0.5607349323198982  0.5643561007749915  0.0226761859864452
  0.5070780107416948  0.7575192930894684  0.5842719356513012
  0.0625637332571685  0.7742143381106030  0.0104877779034732
  0.5002302110334003  0.4889563452631919  0.6582676353931995
  0.4567424966305083  0.4671740687767595  0.8493189288363111
  0.5843789301813391  0.4990079986543354  0.7398727686650305
  0.3523467542555221  0.8673676519743637  0.3127101717365268
  0.9017181481430712  0.0223152283904612  0.7429402795541074
  0.4523137292669832  0.7154417745073983  0.0714789752885896
  0.6976786759379285  0.5854235858864900  0.6215797560135710
  0.6798030330497922  0.5295162080079250  0.3430761463058604
  0.7608738898469315  0.4465047178380513  0.3477323827522936
  0.8194386419055047  0.3437869324874475  0.3287698798404821
  0.8976403468227906  0.4270865258290409  0.4782377729818013
  0.8879808065437531  0.5313103404050199  0.2629284191002071
  0.8226732828887255  0.3430706517165009  0.4917274768147292
  0.9402820746372341  0.5272650204066958  0.0021424771337134
  0.9039942345369325  0.3297589291226523  0.3935894621061103
  0.8873265561078361  0.3498873869222979  0.0493727840465448
  0.8535228856603850  0.2396615223398366  0.8534187479705707
  0.8487075036914156  0.4981251811702653  0.4120373033978295
  0.8823878721587620  0.4415003330637853  0.3392195014293217
  0.3890594479340607  0.7414706271362208  0.6661044013788182
  0.3677735336137815  0.2490117019426868  0.1767174553428006
  0.3414229375455893  0.6488110014364881  0.8339650246862331
  0.3290412014781923  0.8012994561861260  0.9639188522575189
  0.4304538085129121  0.6332685493589193  0.9010582223253075
  0.2947302494514885  0.9538947975421617  0.0640260095624029
  0.4167698331923593  0.1731154273788032  0.4171558232954411
  0.4709802327345335  0.9354344188340334  0.0282526312064767
  0.3422098391412749  0.7853918629265194  0.3873332428539396
  0.4082244569865024  0.8113510534303148  0.5845895675703450
  0.2430127431566059  0.5979780404856695  0.8371435802690462
  0.4288399225588396  0.7704835363218397  0.3181531846738909
  0.4515821796580663  0.8839822476813136  0.1223822213059951
  0.4457165841864568  0.6894849491845814  0.4105103245927785
  0.4111952973008545  0.2158026820861800  0.5333670262378130
  0.3346791894162187  0.6978241751697455  0.4462644447090702
  0.6380928409582999  0.4791498071669928  0.9945674969582231
  0.5184750304334874  0.3339535461809948  0.4898813043742082
  0.4271630460584017  0.2846781390244939  0.4526459057372926
  0.3070835793540957  0.1813770272674195  0.5266609086787025
  0.5055852564729495  0.4126930871723515  0.5731242716377826
  0.5728245717476411  0.3183395978049351  0.9029525548620599
  0.4495685429345637  0.5345232830972413  0.0429303704081109
  0.5978335568538713  0.1067901117696257  0.3130470878401571
  0.6008730141053394  0.0773667397931722  0.1086814002821366
  0.5498135281401911  0.9982080905028422  0.4357754530492052
  0.6083057660078055  0.2759730136834181  0.3387501328056446
  0.5053394570704488  0.3316579228250754  0.6521893480466177
  0.7412495192462553  0.4964127116689591  0.0502185269485013
  0.5049737079534896  0.7758978481340240  0.3945102893729712
  0.4221801468829652  0.6690064067275595  0.5923352162541399
  0.7410656295148063  0.3381868428283649  0.7454517418251897
  0.2400330712135693  0.7348236412531249  0.9775235065751645
  0.2243228086373227  0.7094775039312931  0.0949827776496511
  0.1180245363245419  0.7450372170008376  0.1143426192477465
  0.3229642816635548  0.3942650099810245  0.5987067588150928
  0.2560789284738606  0.3349468004905212  0.4270478431027019
  0.3630757806549014  0.9270713618438665  0.2163536715528837
  0.5075754260153078  0.5918390282242807  0.6071419319935619
  0.1617246849000160  0.8719265969911812  0.9576962719126275
  0.8284813476055589  0.4252122461674606  0.2500053619967698
  0.6808971734327899  0.3479899179361794  0.5008727701223987
  0.6721021312946244  0.4172078468571194  0.5820913147426235
  0.7560322366053811  0.3392065182501774  0.5888926276882526
  0.7608296694114608  0.4348485903351960  0.4895038796238804
  0.6651160434538639  0.3420407974263163  0.6637359925327003
  0.6579993678657257  0.4146425021806919  0.7528932459831448
  0.4271339621892704  0.3297819340268149  0.5673549006789811
  0.4339390455172741  0.3986104852217948  0.4833029630964999
  0.2702443752951089  0.3264898342205425  0.6721812329618677
  0.3358495268278814  0.3964812997928894  0.7222993111880257
  0.4226332363530811  0.4045849720469351  0.6518389746972222
  0.2892132031377452  0.3252696937589919  0.1639238700809267
  0.3092319402485018  0.8765620963786733  0.1396386470402324
  0.4547868096724565  0.3485160302949418  0.3702869796068322