 B Cr Ni 
 1.0000000000000000
    21.1200000000000010    0.0000000000000000    0.0000000000000000
     0.0000000000000000   21.1200000000000010    0.0000000000000000
     0.0000000000000000    0.0000000000000000   21.1200000000000010
 B   Cr  Ni 
 173 259 605
Direct
  0.8081599649724172  0.3208533459794176  0.8100691925399127
  0.9451152452738306  0.8447978043606168  0.1626956877986610
  0.8270133007862897  0.5067873175190180  0.7622389708445160
  0.1739557841697304  0.6289521560617142  0.6924969760450284
  0.4131546993971476  0.0723117289704930  0.4256563122792027
  0.4539418246358476  0.1101482218338790  0.2567367431097552
  0.3379032525900235  0.9890835401871262  0.5762189482140226
  0.1039859113243975  0.3935006362881853  0.4474394531640332
  0.1123990228045315  0.1224469851802519  0.3834613991837408
  0.7336307788006644  0.7473848608067162  0.0828506748226075
  0.7693961507346214  0.1403907329365966  0.3484177114657437
  0.0943669779735984  0.4507896945033447  0.9246870609332623
  0.9209025955333066  0.3356519966073312  0.4907254362572766
  0.4575841643002676  0.2850075785763206  0.1883850426972828
  0.8143548680928511  0.9335830997629569  0.3440491259034563
  0.4338710120985102  0.4330220657032552  0.3977325280198341
  0.0834202585827370  0.0789284749908833  0.2278766199703253
  0.1049185483347171  0.1391106308889671  0.8638538530786509
  0.2813344276950264  0.7045277902401008  0.3610167837804822
  0.7347443397286121  0.2559639970689234  0.2125706401514180
  0.3050784008844897  0.4844980456622289  0.7257400187773795
  0.4091388220777343  0.6675981536861220  0.4977313281655367
  0.4882139436246096  0.5976846349022692  0.0987705939826749
  0.0698558090676618  0.6618566836755845  0.3362384609749959
  0.4537099344680179  0.9339041651854110  0.1954117919353003
  0.4801992782920004  0.8072533963327180  0.9323565473116024
  0.0822068398183938  0.7044179935993363  0.8531106543710244
  0.3460816414209477  0.9407630053369292  0.9032477885451564
  0.7856104262627676  0.7051040990227631  0.4076132934367927
  0.5172554665914677  0.9809105631145837  0.2259828217156332
  0.6621375539272708  0.5546827358271801  0.0385529330394060
  0.2051125242892853  0.0231561181482193  0.3163571946388633
  0.5176762616451289  0.5101783648010241  0.1065081588984885
  0.6408742251151944  0.2471898415404336  0.8821906003780371
  0.7415660746097742  0.9698932411829710  0.5073997941822675
  0.0679255584129993  0.1610455177601538  0.7032462819401388
  0.4461532219880754  0.6766658356318976  0.2711621201359564
  0.0645217571519543  0.9624197436187404  0.6966486378663579
  0.7711257468823663  0.1465740154483245  0.9672982997501997
  0.3352218157918111  0.5868800142207571  0.2985783336802416
  0.5544859633762890  0.3587068713624519  0.3429834886127977
  0.6692321251562238  0.2067257939752630  0.4911177113912780
  0.0784217517575122  0.8858139094048029  0.8262346152543284
  0.8846431918783646  0.5802585781149829  0.9183933316553049
  0.8516684831046247  0.7320195246115868  0.2677234554133944
  0.2372896548557199  0.0781343941619729  0.2607703462545634
  0.0878346674734390  0.5898687145270476  0.2136766482867855
  0.3891627412635220  0.6970504063058682  0.1453739679443719
  0.5995775650162434  0.8154101426976923  0.1440559297670286
  0.9618184120927357  0.5026372169627711  0.3137798039928342
  0.9747840446618282  0.8387706212864763  0.6962837742080950
  0.8644091868115721  0.0356645391490290  0.4265702021392713
  0.4699527504613504  0.0289103153371804  0.4771268462448256
  0.6213225814417321  0.9026242147335902  0.2264543787697978
  0.3751856054564470  0.4282837018365231  0.8967878257420201
  0.4257573562622166  0.2474141458261429  0.2524941107980184
  0.9593043891926137  0.7089548516854662  0.6640516475748247
  0.0258813647968058  0.1079380860067721  0.4690989487248768
  0.9475719388858184  0.9164754679490129  0.1246925450632982
  0.8988620090378832  0.2271243561951317  0.4035531475880065
  0.8025820607851059  0.4415122337652312  0.9972485271173379
  0.2030241360300168  0.5483186641576677  0.0290160386875428
  0.1505672729890983  0.5557905253831303  0.1641621273911922
  0.3624124607743623  0.2846474360741682  0.0874269051886388
  0.9465789898594489  0.7539117826233700  0.4060329807103853
  0.2314863461718045  0.7751006136663944  0.7244871141557770
  0.6846420436635392  0.7405331823527714  0.8558788612414591
  0.7934669529321607  0.6194403577547889  0.0107591201155285
  0.9756756556834041  0.7554020704980244  0.0539205816668182
  0.8758857724640706  0.4415479552420844  0.8515273727253996
  0.2285221376007890  0.4057552134163057  0.0246850045255718
  0.0328315915744488  0.1042904797612825  0.8762116114470953
  0.0214862328097699  0.0150325300559974  0.7453709640310432
  0.5666618038318343  0.9293162549253960  0.9915299588435021
  0.7807283405046854  0.5271715755411530  0.1259462170936212
  0.3311894491138915  0.0179899988870136  0.1709580935422276
  0.2488598428486079  0.8459886355528708  0.3241735591677502
  0.9625422404873454  0.2911139172627193  0.1917637090338797
  0.9366612491730407  0.2495331552046930  0.2573705942825183
  0.1319190210954208  0.9254446559248577  0.0285115076973568
  0.2574665824312088  0.3540265871372873  0.3349740954284142
  0.0239508413385699  0.5493892413345914  0.4766818221421995
  0.4223943884112309  0.6788324682665591  0.8196211218297824
  0.9196046815801640  0.8400500178657618  0.8850940642759584
  0.4927078662280299  0.4999793364902080  0.7649902852687419
  0.8500520693732884  0.7658346516376369  0.7693580626272059
  0.6145468477509316  0.9314567951272928  0.4057387230867065
  0.6785809115247209  0.8020410926221384  0.3909191538833607
  0.2362607108078577  0.6586485437908804  0.9210210069653688
  0.5049255554677740  0.1557852538984127  0.5516553767791165
  0.3252448154354937  0.5575209912836158  0.8462467001231528
  0.9031929499720259  0.2482870764997958  0.0572381175122856
  0.3580666725429167  0.5641330335181639  0.5892851635291222
  0.1964488731390265  0.2679906248254313  0.4361312156844517
  0.8507369136034184  0.1390510505565659  0.3113202087835873
  0.5453126551991818  0.7193327788054186  0.7507961528635114
  0.3530878250029713  0.0861543675952760  0.6552191435099082
  0.3268355006991743  0.8552300354375283  0.8897117972162966
  0.6356167882128753  0.4503730950356363  0.1773082695972480
  0.6855199171340076  0.8410471227473020  0.9809534247529385
  0.2719686183129161  0.5792341788896507  0.5899466540213347
  0.1795781667998718  0.0458450580181523  0.7696189247501075
  0.7367448001492453  0.9074342304712981  0.6983740742224709
  0.6227467195214458  0.1550087764472385  0.9790324795034411
  0.9103984457448552  0.0250300052766373  0.5593098861584458
  0.2884075583071009  0.5785709638744468  0.2229896848195951
  0.1137954002541259  0.1826591966425939  0.5709736559846702
  0.7617248140293530  0.1231519412788192  0.1950199473015332
  0.8134351129400720  0.2665422992448329  0.2293747082025184
  0.8283340672660779  0.1701903962195397  0.7831000582272971
  0.8267453235534405  0.8285632304197746  0.6095614434836606
  0.5049302314597927  0.1417105381322939  0.7461696613158764
  0.2412487766194216  0.8309160277366847  0.9894201265857883
  0.0453906742486795  0.8074839226287323  0.6778864370524468
  0.6591141643180191  0.9057212375643233  0.6602623594105338
  0.7716041684971204  0.6186793165992228  0.6857755572044205
  0.1666477641736873  0.5131495369575930  0.4410383143505118
  0.5886503677816316  0.0228548574898200  0.2585604470648248
  0.7972820701661801  0.9111654994975943  0.8738251036612913
  0.0406787582932367  0.3734808803776967  0.0733607347681234
  0.3856831865308031  0.7860134604700688  0.0345093036919977
  0.7902708241600259  0.3086684116089114  0.8890641892855075
  0.4116583704032259  0.2415338051300885  0.7704807355652328
  0.3661714784246263  0.3281837286161745  0.6526196297088034
  0.8272578650734115  0.4014831464782381  0.4117672281613101
  0.5705027121101959  0.8163964164074203  0.5253684226067222
  0.7183424906395537  0.7210708863095152  0.5152845816584757
  0.7310888321578285  0.6470645179020987  0.4625284193089274
  0.2116965823379356  0.2180265995996152  0.9026362146324450
  0.6844486164088464  0.7972885833997592  0.2910478739047189
  0.4068880651476652  0.1300426625348495  0.0675237253307733
  0.3130493999487557  0.6054383710206344  0.0775918484771508
  0.0502580211139206  0.2547938672040731  0.8114131222921988
  0.3523200035187780  0.0250104389837863  0.3956557753959721
  0.2797544397719324  0.0159313434712460  0.0026205255334933
  0.3554784390378383  0.4290137374817913  0.5196533150868393
  0.1642507078476863  0.3675648169446243  0.9876831757563429
  0.0040068310198004  0.4587198558649564  0.7734972612685301
  0.1007000470224168  0.8925659610977561  0.5683420190169000
  0.5233457082579828  0.7553337216172638  0.4806913796071298
  0.2589893646924659  0.5195348755410519  0.9772762007296477
  0.2019885515359292  0.0872105545827976  0.6969110753867934
  0.9186063742822296  0.5620755931617212  0.6318689271997097
  0.9152889413423668  0.4008212826916156  0.6319200845512793
  0.9879558372476533  0.2579435392391353  0.9439155177861562
  0.8164589257738492  0.7514989206823511  0.6369551033672776
  0.9201270226013264  0.1608967383871598  0.3600533555330249
  0.3104626969213244  0.5665278599460493  0.4530547556114877
  0.9371676039074626  0.2019750724798361  0.9097360500687031
  0.0653432034368839  0.0490851193188286  0.0768782496325744
  0.8983293080401763  0.2219087251900076  0.7679342026775312
  0.0068378595733793  0.3224504291338234  0.3702681712697440
  0.2155132166787907  0.4286664649754654  0.8350440643151896
  0.0697702771078162  0.4952366110830726  0.6692707185168274
  0.3410150085363244  0.8270721376850567  0.2186771327156819
  0.8167731018298556  0.6990387226247766  0.9744885637022291
  0.6286339407890634  0.6024203692748810  0.0915986683134828
  0.5304918665347250  0.4996809182642408  0.2894635020596039
  0.1137785581795230  0.8230575520021094  0.5164138116824313
  0.5359767269258390  0.2245234533133101  0.1115581366423273
  0.2645864649902057  0.2447133658790990  0.1989345870115490
  0.9133457060376182  0.8926403416088766  0.2279308150624854
  0.8039417172551035  0.9753566163059652  0.9189254711804730
  0.3791382587063117  0.2505915629689807  0.9452519123394281
  0.0176494933299873  0.6682300979212157  0.7356136002129307
  0.4745512808796725  0.9356735290588013  0.8270921031910285
  0.2366286215898500  0.3948049850529364  0.2097490150838968
  0.9453619168924313  0.8892827211832035  0.5663389387662791
  0.7404168023987292  0.7612896715318349  0.6626485169731146
  0.0240725568044913  0.5921249011150861  0.9941782975400575
  0.3021107889872108  0.0981671165841353  0.9905197894907873
  0.5985419192256743  0.0748533524643761  0.4095922676713953
  0.9526391614130877  0.2060005259988309  0.1894410425548951
  0.4884348461535443  0.1008719685504917  0.9030625721802692
  0.3245675108254691  0.7244265813738059  0.7528804227876813
  0.3862564584805901  0.6283815384953032  0.9991978644759921
  0.2275275016927057  0.4951893401869253  0.1962365147962877
  0.4401778804380056  0.5758595379999758  0.5299692820466716
  0.3305063670044962  0.5763452426146106  0.7480340007614559
  0.4029592381147037  0.5024470805159883  0.4607739723836221
  0.6593393639868212  0.1088968645136048  0.4873143480827936
  0.3412239522176150  0.4718995370075583  0.8131809997997780
  0.5077935697275605  0.1261712848121713  0.0991452910390506
  0.3111232172936618  0.8256334250484177  0.6828196584347789
  0.4058954948690995  0.4848768632578029  0.7295754153915637
  0.3355820342689432  0.7036912143563283  0.0589479236871839
  0.2002069845496357  0.8192978445315939  0.1470329674153407
  0.0022338266686465  0.5213053319214708  0.2200823294630225
  0.2137511864680624  0.3670014301906562  0.5891955044573791
  0.1043418285217849  0.6854569972917712  0.2403382430399859
  0.0261031511328872  0.7286847885472280  0.2795426540518964
  0.1494876008501476  0.6840236018198510  0.0145497825995241
  0.9759491334874620  0.5825033500876051  0.0759983618722123
  0.0563412463985640  0.4906345293480983  0.0323685924446047
  0.4191291702153139  0.0961746234811429  0.1589928307390928
  0.3295346041335779  0.1495307128158449  0.1451804164797685
  0.0816245565632447  0.6014474960868866  0.6864994848736211
  0.0781798692798688  0.6028394729232207  0.8380931177597054
  0.6474485502356813  0.3290780643584264  0.8211748649383034
  0.3400032811129202  0.3330934647753398  0.4946029797676073
  0.1595067944079246  0.1451110213087131  0.7649269036877094
  0.3373029179710823  0.7337826166514448  0.5559550469465034
  0.0453834907327456  0.6717745535123459  0.0628129626136747
  0.0725251284125297  0.6340195212550730  0.5837157762109765
  0.0148842247412793  0.7561434201778127  0.1456715485307220
  0.9821781795195276  0.6878957763881296  0.9844924567220527
  0.4479482921553811  0.9911043198134174  0.3800392170451619
  0.7523402335886717  0.4163157360470308  0.6730703634747276
  0.7498866715296284  0.4329917558765973  0.1639790639255896
  0.6850802134930273  0.4439144225711501  0.2591110336244247
  0.6684941118262041  0.3512558520127969  0.1653472085696106
  0.6705748448649305  0.4127982405032854  0.0835405200092236
  0.5086581967511795  0.3481129863810784  0.9978883251019300
  0.6422341984104676  0.4093810179243358  0.8948796107925099
  0.6178772253539023  0.6479847945575913  0.9980788701185671
  0.5606102598483215  0.7633526749684658  0.0665806635310662
  0.8015055156532608  0.5978927689720518  0.1936460202302531
  0.0103294709141134  0.1094126539912841  0.3652841944928232
  0.0737160774330859  0.1560325129966176  0.2969909180935919
  0.0617823479425699  0.1117886189325125  0.6172053986207305
  0.1066567509975815  0.2160083867096821  0.1597767908579434
  0.9733698548723710  0.1668275453345669  0.6395726813648401
  0.1381701036899983  0.4071794794606491  0.1831136041232637
  0.1832630852815109  0.6810995568307823  0.3205490589260218
  0.1158255736650364  0.3256855764731163  0.2509460741000220
  0.9649556208366286  0.3518791837223311  0.9376588556605402
  0.2339219468498625  0.4325043643249007  0.6782646231708512
  0.9835969310695585  0.3057232776200581  0.0293304238810603
  0.1468872449851849  0.5056043643957884  0.8552554375068960
  0.3137559947713860  0.2970897210698449  0.7941184489225294
  0.1302221633014904  0.3334523464393919  0.7966381659912458
  0.9049249948463537  0.3187062956126661  0.7672360110060056
  0.3213674380851919  0.1738455771673998  0.3518768028689134
  0.3914146007601652  0.0799095294057399  0.9642796488253503
  0.2916408355573798  0.0261727410806720  0.9085018833733759
  0.1138653753245208  0.6878481962473834  0.7550222093680390
  0.0594082164240158  0.3275774461696172  0.1672784483295679
  0.2693331747149860  0.0835554225005276  0.8017197265740573
  0.1098115232406787  0.7583469973764102  0.3405312386664782
  0.4315357146446053  0.1342852760559034  0.6102964939965543
  0.0348849478711757  0.8909123803604437  0.1777125360534299
  0.4286655853477536  0.8547183614500817  0.3854034806193151
  0.6303039856464457  0.0835792820738550  0.6186114542727853
  0.9787948677773247  0.7917616102663217  0.6054321486367380
  0.5023114943466006  0.1003801173891171  0.3965781472404319
  0.5565151787882148  0.4145989003053319  0.8190737143587223
  0.4233392746030857  0.5651553330709236  0.8099767496641640
  0.2830367139432163  0.9224979421045315  0.6438670952146638
  0.3349820426758758  0.4228311245669635  0.4232305077454864
  0.1370543817217821  0.0952186676081996  0.0310384296153433
  0.8871807242971352  0.9773500426850689  0.2853110878886023
  0.1959033196261626  0.1092033061715763  0.8619822512030698
  0.0810547029577022  0.6585817157212821  0.9419527291912043
  0.3360070818477142  0.0628632405394339  0.0759262528270452
  0.1122932933334637  0.0469693698183873  0.3182312556175368
  0.2352574082657430  0.5467122607884976  0.3038233578885404
  0.9559408915717631  0.1833038990173362  0.0075347710456125
  0.3260810484697347  0.2400515895617392  0.4370487218310676
  0.0911978630789041  0.0503876984906193  0.8173774807830579
  0.1670718158911317  0.5969524300503551  0.5989331430662953
  0.0356867413533386  0.2359005214521115  0.2323564309269575
  0.9965842167335194  0.2425691148097317  0.1119856203701140
  0.9940753038583079  0.9697376650611244  0.5422139414003758
  0.1138622701682974  0.5837788171895180  0.0363723589927803
  0.9812140001190693  0.2677531080662210  0.4588957554794610
  0.0647813704407898  0.3370248415351122  0.6360981455997403
  0.1829910017986298  0.9891346040684955  0.6734031324316619
  0.1567985986806808  0.2028209259036112  0.0607983893438383
  0.2976264762952333  0.6579128310676942  0.1598219808051090
  0.0677017378905795  0.8407987457470878  0.9130612856334012
  0.2365734261870678  0.6737415905668783  0.7516081117312273
  0.0167891387858762  0.9000817421480971  0.6307731299026319
  0.1575312234300254  0.1726442415428942  0.6615613952247147
  0.1301552652945556  0.1231475214625306  0.4832209977935175
  0.2506346705723054  0.2450630603014292  0.3491637814989620
  0.3963923778123698  0.9768866922242708  0.1134095134510567
  0.1003672837199473  0.9470677544548338  0.9012094856677020
  0.4265479664782925  0.0187758536422374  0.2307447517897371
  0.1367120269542467  0.0943388248188615  0.1322225495920309
  0.0723442866536464  0.8464813862610943  0.4252880592259437
  0.1203551246395285  0.0588680570633774  0.9217787381376509
  0.1900438948762501  0.0679672808191368  0.4123908087261118
  0.1567249281360397  0.0794302038137410  0.5944988637662821
  0.4525686495329140  0.0474699276882196  0.0466154730649346
  0.3963520894913927  0.9161598091839389  0.5631474483247181
  0.0003822404047875  0.3821528651511797  0.4479953480090453
  0.0521211881179405  0.2318785106278017  0.6327770849390796
  0.1709136130970215  0.9333585348452376  0.2909176124198594
  0.9632599209234607  0.0082993753569439  0.9971489178278758
  0.2893414773036430  0.9251230194760870  0.5153998393105302
  0.6963823001082994  0.3117688167363212  0.9298008661857528
  0.1619294380959336  0.7051980932841899  0.6374418218315764
  0.1391831648663142  0.7603753411507617  0.9207546875011725
  0.3256500660793099  0.9152808296491703  0.7380023240716282
  0.1624552393079545  0.2267180791965062  0.2629387025702161
  0.0418460406941660  0.1074198842727506  0.9826419187849766
  0.2621980885664087  0.9434559641638500  0.3448850924466326
  0.1604781861777074  0.0117583449196621  0.2161700646101126
  0.1780749904948954  0.2930980965717062  0.1537056793150477
  0.1748684325610518  0.9657212322946187  0.4019376440571724
  0.1046956386981011  0.0591765091498097  0.7028558329503872
  0.5887704941506288  0.2561945984186105  0.6518991872697282
  0.5874374186279734  0.4971254777716865  0.5816001342719633
  0.8902540625631228  0.6296125703915358  0.9992261897346864
  0.6237661312742506  0.0889038622628307  0.9020902178723204
  0.6546447740629338  0.9135367468737611  0.7643414874914942
  0.6769429681793689  0.8207446182315081  0.7129662099837378
  0.5565879955717538  0.8840510933039503  0.0853566957099207
  0.6987814075456166  0.8901517107931748  0.4404237788810601
  0.5055519721281119  0.0382949817259833  0.3097938427099222
  0.5629907071117833  0.1839290962083040  0.9099492504703806
  0.4529720459426802  0.9232443278954607  0.2949481087138811
  0.4369692009292684  0.8354070778803104  0.2290725451583356
  0.3886724100669943  0.7952596951626524  0.1299097629038988
  0.3748424445305122  0.7672916059471437  0.8595036840939456
  0.5227369200175007  0.1664951464812631  0.6484558585508667
  0.5375613600627295  0.9819636652387896  0.7497408943459236
  0.9031460030005188  0.0083557369395723  0.9029695172033053
  0.5289837228138696  0.0659560776918395  0.5935487940980781
  0.5123478940852447  0.2882650782178602  0.2816940579640003
  0.5305380076937556  0.0827792888524353  0.2046180259946686
  0.5039526726355931  0.4968149192308715  0.5030381293327538
  0.4960722356329762  0.0018391431138380  0.1315131606901047
  0.6050344167040084  0.1759014748271557  0.4118696827558767
  0.5732948667474598  0.3911402598641669  0.1216264506583592
  0.4566773721120277  0.0650934288465506  0.6847412777678237
  0.4862309833511764  0.9637909011763942  0.6575591973973454
  0.5603795208449397  0.0703211467339138  0.7029888352320400
  0.5841732772843623  0.9603593309880402  0.6193069174152941
  0.4878469261839399  0.1897512072853946  0.2017033070728157
  0.8780837066617438  0.2485954326356271  0.4948407224209526
  0.6718672333496428  0.0007870547076583  0.4502573028735096
  0.4392499804936899  0.4451783555760826  0.9752294286022093
  0.7280660336212617  0.0816349065345775  0.6676156249537527
  0.5612609385089855  0.5640295120981890  0.0228697684782126
  0.6653582637923521  0.0920660462936521  0.7482692233651176
  0.7434307416417156  0.0310140270072727  0.1735929459993177
  0.7195946565812047  0.1607069852942442  0.5655921958163039
  0.6759422830276783  0.8175238240852090  0.5140891336378911
  0.7651248684485729  0.6756066275416140  0.6033211562035465
  0.7639179283699690  0.9031190168287100  0.9745355256379798
  0.5112046360419275  0.7445612344256471  0.2485185296299581
  0.7461295379691134  0.8871847378195549  0.7945675284009027
  0.6418521415481867  0.8961340387518520  0.9099466032406079
  0.7993894646727585  0.8283639633008593  0.7078381533716751
  0.7447325368864474  0.6870000079788697  0.1689021799486757
  0.7254943933494985  0.9972740169209999  0.9824524663027366
  0.6700920734970779  0.7458288620351520  0.6007469664862448
  0.6840135859880636  0.6747505370402446  0.6819221205343103
  0.7375042662217839  0.8358461610419121  0.8962128646508680
  0.7133723934803102  0.9628804347563009  0.8748180640966612
  0.7421095194310964  0.2712127215081971  0.3201038650759238
  0.6779369206828050  0.1854677154222614  0.3281902912285411
  0.4896624211081783  0.4057094561560979  0.7426715118728210
  0.5794384002563790  0.4165785768210857  0.6629526896037951
  0.5360852219811503  0.5403738559976236  0.8411310374764600
  0.5882181649682336  0.7161232576931349  0.8522852239248752
  0.5094799582204149  0.9089545283503795  0.9195814189337038
  0.4994470756543138  0.7837673172924851  0.1461817816671434
  0.5965209437090943  0.3801519320604858  0.2447769869287864
  0.7475318356083197  0.3531252152217367  0.2500169645595878
  0.6302651166476215  0.2543474720063341  0.9824627536638567
  0.7845565190385706  0.2010359988604459  0.1386833708820062
  0.7755798482329522  0.9829262186789135  0.2663228266181254
  0.7181903094816604  0.0807658457797494  0.2806616118979200
  0.8057937466394862  0.0981353552955868  0.5875950976151690
  0.5048830488254802  0.2456332384943720  0.7240976602529617
  0.4882531863342602  0.6408234862676767  0.0019278612922568
  0.8305592084867961  0.0900029172871600  0.1266518762787865
  0.8951334898358160  0.6394100025168810  0.2749115484281251
  0.0008468251239570  0.6031906751015057  0.2776709677950183
  0.8147737622900332  0.5657057332965786  0.3289471984291956
  0.8231749761662390  0.5627305001973065  0.6161826893544183
  0.4116923010932748  0.3708302907462051  0.0361984295532236
  0.7736721658328450  0.0764417116500347  0.0395554779546568
  0.6830896148189384  0.5766557000721376  0.7400448115220644
  0.6679393005510156  0.5136378802912244  0.5136248032846237
  0.5152374233086859  0.2554701023251923  0.5691999997575697
  0.8997777810058541  0.6853237885618159  0.9097931785512136
  0.9448354681231269  0.7087666702455968  0.2101111779477122
  0.9185549068227877  0.1611902472081702  0.1093927676377519
  0.8749170494123213  0.3191564765353362  0.5813436977135704
  0.6708069881650592  0.2624929293901024  0.5795349800127679
  0.7997077002747387  0.6256054265504746  0.9067593415492949
  0.7318777360432895  0.2567645115785588  0.8341845049742254
  0.9568862552617071  0.2790438931033162  0.8494879204468010
  0.8562740540724868  0.8881240579090550  0.1325318093998597
  0.8080598628693330  0.1599506030508229  0.6667153856249566
  0.8905947674420639  0.8600154197998666  0.3284759409706218
  0.7312563362433159  0.6079334321917295  0.0898095116029668
  0.7539935236423637  0.8553459835112079  0.3450927501667458
  0.8396298204295805  0.9301710238620519  0.7346969787542555
  0.9304076211271045  0.9163487554805874  0.0230288035895897
  0.9592076655012233  0.9382555439247372  0.7230783510652804
  0.9113586559063040  0.6754678228466467  0.7493762233912428
  0.8973666695299369  0.9463824019257294  0.4962079362291860
  0.8689011847730148  0.6575470131342547  0.6486918110173270
  0.9032531317775453  0.9551175634499715  0.3854001823126745
  0.8326481597976818  0.8664271983492339  0.4197762799899833
  0.6007048777113456  0.1749837994845390  0.5610603582862725
  0.8896889642213256  0.2712892616140349  0.9603878557322816
  0.9016758853451682  0.0225818944276361  0.7426287029263670
  0.6978677912766974  0.5854157693935590  0.6218117383465787
  0.5712561912570235  0.5733609883892253  0.3427992761096225
  0.6175684467228182  0.5351662720651627  0.2498642809313580
  0.5782008066817680  0.5854801677678287  0.5204439915535245
  0.9247380764428271  0.0769109147120064  0.1839477374618417
  0.6928336932807666  0.0836127153761338  0.3806511027968519
  0.5004445191501499  0.4888521850925397  0.6582366993703745
  0.7345496185411039  0.3829568560657985  0.8468749658936006
  0.4525404895833467  0.7145774656642426  0.0717920380130323
  0.0641210219501265  0.7745164724974996  0.0096936188790174
  0.7998554733612097  0.0416077248603541  0.3518473711333237
  0.4570053901004910  0.4674200861858144  0.8492224378527495
  0.5846145470030235  0.4989809268660733  0.7401979896276450
  0.3523388653786997  0.8673973391305685  0.3116051995099080
  0.5096711593458590  0.7573336596809364  0.5846673885494295
  0.6803234997234614  0.5294288165198437  0.3427301572863607
  0.5029324982821785  0.5868701941711828  0.2544645897101394
  0.8481746441488318  0.6943857706370340  0.1763221393317859
  0.8779832104260784  0.6157615981035660  0.5504228193432376
  0.9409298990896989  0.5272126469028490  0.0023461753267101
  0.7608464222372562  0.4469194377487886  0.3476851999762207
  0.8193810944103893  0.3446784208885562  0.3298081659999685
  0.8882628153917170  0.5319050947177584  0.2624565916553290
  0.8978116704187062  0.4275527942766439  0.4784679494268947
  0.8874745867909315  0.3496470997439818  0.0493722524956402
  0.9036159955859997  0.3302898293335352  0.3939625059069221
  0.8538206154942832  0.2388914548683186  0.8544143165235316
  0.8489579384670065  0.4989036775222919  0.4123085828272733
  0.8820643079419364  0.4425778203379793  0.3392854468635153
  0.8226792711177365  0.3434847961448120  0.4920040684573370
  0.3880817026665597  0.7414711034119404  0.6660456736022413
  0.3297119588653732  0.8002738372593557  0.9635073299143181
  0.4308859007943954  0.6331812531166501  0.9008607330528101
  0.3675055903143462  0.2488540456758909  0.1763252935683140
  0.3412540082451647  0.6486595083785325  0.8342359707473382
  0.2990384900015010  0.9574772117794010  0.0711901658639896
  0.4090525994632443  0.8103816910562082  0.5837172078088964
  0.4717938432245839  0.9339282689893510  0.0280047881266418
  0.3353915215729082  0.6977796124499653  0.4461727451635959
  0.4460465379041088  0.6894149291584288  0.4098544239259945
  0.3415296910404576  0.7851939276373451  0.3866094976287397
  0.4289434467357374  0.7702186744399108  0.3183928950558798
  0.4517313388720657  0.8826176385783809  0.1221466933421395
  0.5184926302376001  0.3336044145403811  0.4891385485360456
  0.2430908269596555  0.5971670882477732  0.8373349206307860
  0.4270049542631114  0.2844413429959793  0.4523386608877242
  0.4268240444883726  0.7558810534687462  0.4902810639616509
  0.5058160829601208  0.4125509660282180  0.5728194207641849
  0.5735783358371749  0.3164961696061753  0.9039791557657153
  0.4168876978775609  0.1728575499470749  0.4163299676816651
  0.4501499253009153  0.5337547548489242  0.0433641709941111
  0.5962381283302157  0.1067649640315660  0.3138355840699859
  0.6009735863058021  0.0774391833422085  0.1075942397533057
  0.5490239381840336  0.9979413206010659  0.4367307533663861
  0.6074409722800466  0.2756067621384822  0.3393024045362029
  0.5055639469603647  0.3317306137676591  0.6521142097431206
  0.7416498004898117  0.4962683870924431  0.0503109457870711
  0.5055893745523328  0.7756075272485903  0.3943295491302589
  0.4225022239816655  0.6697545174842227  0.5915577066926160
  0.7414962933912451  0.3382412471161620  0.7459360146761728
  0.2402056807104848  0.7344058143676715  0.9767354274342780
  0.2245610375905522  0.7082372012982596  0.0947592548756890
  0.1186217836883624  0.7448523805673744  0.1134883823785763
  0.6385882859028628  0.4786896028043864  0.9948355081864735
  0.2886054170131962  0.3249703278287480  0.1643282014870230
  0.4341647502307216  0.3984312417282553  0.4828916722141566
  0.4271998001461740  0.3299041643042661  0.5671543962616685
  0.3522706822619472  0.9311118164936706  0.4105329095950131
  0.5080022703577920  0.5915685730077880  0.6070840617557076
  0.1620466379873850  0.8724594172175986  0.9589985916576395
  0.8280329773975226  0.4258079601634776  0.2502236258569035
  0.6808296451719148  0.3480544016650671  0.5008245770213625
  0.6722566672579972  0.4172897377630452  0.5820367668355291
  0.7562096296841224  0.3395419294635142  0.5888250386415130
  0.7609024667216699  0.4352118144341304  0.4898123516976463
  0.6653834045906132  0.3422597393645628  0.6637944645212779
  0.6581496881407132  0.4144264003157331  0.7532198218597266
  0.2706652751624388  0.3266893698427167  0.6722488025440977
  0.3362900854333045  0.3968130188839633  0.7221277545328697
  0.4229201056577365  0.4046809853633007  0.6517469027721589
  0.3069307716384175  0.1817222108101648  0.5261767737266129
  0.4110471547386217  0.2159578117921205  0.5332674736387341
  0.3699955528550792  0.8768155072688828  0.0465824146477306
  0.2915272598932637  0.8209293310243801  0.8006319934301408
  0.3232486650725307  0.3940658011166743  0.5983559825726011