 B Cr Ni 
 1.0000000000000000
    21.1200000000000010    0.0000000000000000    0.0000000000000000
     0.0000000000000000   21.1200000000000010    0.0000000000000000
     0.0000000000000000    0.0000000000000000   21.1200000000000010
 B   Cr  Ni 
 173 259 605
Direct
  0.8047606166995325  0.3262132858235700  0.8073803318404829
  0.9199597000769490  0.8022884856092168  0.1593711314152815
  0.8007225388663618  0.5135405511469655  0.7628848901498576
  0.1806250969726285  0.6158015646042928  0.6910743454760023
  0.4123707861052405  0.0666235444137212  0.4258743557531834
  0.4418919321877359  0.0994754777977274  0.2490355246842048
  0.7473503212803125  0.6841004257491542  0.5137144244029562
  0.3817702702124073  0.9251362831022345  0.0807200875013825
  0.9065416646579672  0.5865211364739308  0.9285523107219492
  0.4360267475661957  0.6797145291978125  0.8246505039280276
  0.7684096605141068  0.1444426662621380  0.3505297698533793
  0.0865887302957519  0.4437770564817793  0.9091527566056599
  0.0938413219404300  0.8168595460844341  0.5002842814431840
  0.3514228335718055  0.9295674996302539  0.8954236273201689
  0.9520762767997155  0.4647104880422586  0.2565880625486632
  0.5021572624435452  0.6178287007266319  0.0805536501020526
  0.5322172598712044  0.8185302059764891  0.0592844975349421
  0.0940210260444565  0.6984406471550965  0.8544016875928583
  0.7238042850576687  0.6302435789245890  0.4546985938601826
  0.7240815388340199  0.2500609155941824  0.2213244680003505
  0.7984715975736576  0.7237218599360502  0.2760974820626916
  0.9478343277772494  0.7621900890885878  0.4055259001121946
  0.2913867161838681  0.6956930193854297  0.3782940083127834
  0.8214226776164001  0.9348343626118657  0.3340482909579274
  0.1303490481784846  0.6050489983216221  0.2900362132521525
  0.5131002800144936  0.2053993238496519  0.3808833055108357
  0.2466914706089421  0.8407925916868776  0.3228917777453548
  0.0919334601364431  0.0556423611286475  0.2102155797417223
  0.0795316836076207  0.1356147780239436  0.2051335660372278
  0.0860819614754521  0.1201213931455634  0.8860774775485518
  0.2584544509012299  0.3324165198390330  0.3030690490229232
  0.2564567784765505  0.0590154789949569  0.2495639887030029
  0.6404455269325887  0.2467845711901388  0.8874353166569098
  0.7479838207392057  0.9678332590206856  0.4978159193719296
  0.0748855427975716  0.1643271724415310  0.6991070147220014
  0.4585574760793963  0.6805825370654847  0.2813360061464256
  0.0633282873435283  0.9640793391222271  0.7071025888455337
  0.7876351647311985  0.1533942603137212  0.9563015244322988
  0.4455645397287318  0.9223919371713659  0.5893024438309862
  0.5667152501122592  0.3421530418641471  0.3268444849217753
  0.5040288867166277  0.5379958466772250  0.0443492048523154
  0.3730690320288774  0.2840939651172102  0.0784908801141962
  0.0871749571346958  0.6599982893651392  0.3316948494712709
  0.6674519127904788  0.2005735914562273  0.5069396660426282
  0.0801368439766886  0.8855592708315070  0.8427374377737467
  0.1287610552456419  0.1325031257603639  0.3942556182140872
  0.8964116316601989  0.8664947203151543  0.1090770530705551
  0.7925234726099243  0.5716782678663940  0.0728812764408914
  0.7282854952510774  0.8492361582509234  0.1810730296749853
  0.1634551301782683  0.5381071152296737  0.1771171142934698
  0.3664292853010321  0.4415074613717798  0.8944654934340774
  0.0004447090979749  0.8175344092371796  0.6913148396214384
  0.5556198480296368  0.2602770560223210  0.4293747394818661
  0.4695724030593408  0.0230959453822501  0.4745455375497166
  0.1091459388733417  0.5981175484571295  0.2075577594380150
  0.8944797539027876  0.2208697296900924  0.4119096636803847
  0.4015628420096178  0.7158341818021561  0.1437597682998352
  0.8248367272910209  0.3484680762172725  0.2136094477209256
  0.2381634104436819  0.6470305795226051  0.6473148389583026
  0.0254193706193391  0.1106173512941091  0.4744224367479832
  0.9432887222353816  0.5440483032744211  0.2808907117892361
  0.8646621965277586  0.0333484466148101  0.4249550456237072
  0.6096545194102759  0.9266837396075515  0.2643241201119075
  0.4526709444158654  0.2923651691310698  0.1901736560836316
  0.9125390977761149  0.3206500705296087  0.4959557369775772
  0.1882290290791040  0.7580165584540807  0.7148846619842224
  0.1643801501674532  0.8385197995155720  0.7463151308317295
  0.6889654622772646  0.7162027498687635  0.8418034362362290
  0.7480621334970168  0.6837394271500449  0.9658549784173978
  0.9863383532809969  0.7232382399798067  0.0562917795956591
  0.8752072057988183  0.4455492076865128  0.8477310270802889
  0.2173578266469157  0.4075743564174272  0.0405296700084958
  0.2208617524698348  0.9219444649319453  0.8891046035127552
  0.0223784466473744  0.0237243944133058  0.7446471634806427
  0.1510316239356025  0.9527224665934544  0.0034408981890984
  0.6894166833496445  0.6197669353582890  0.7429804370697300
  0.7881426366103573  0.7705968666322114  0.0850468715654349
  0.9183882583285625  0.9434354123631280  0.1231498633107487
  0.0851824988210109  0.1783002051991860  0.3454823607981062
  0.9648200364183388  0.3209368843231843  0.1919639238381924
  0.4684212701338484  0.7484454920832313  0.1783548336275231
  0.1158995695498267  0.8721043330314668  0.0193994048950263
  0.4068249605200990  0.6713441232760008  0.5211292610513124
  0.0027662262938955  0.5442915216551918  0.4644937095658789
  0.9661687031620534  0.7470388159521915  0.9821016487754137
  0.8832932325710403  0.7614581617200881  0.7620981547947253
  0.6744022111226556  0.5610460181159758  0.9878511158108118
  0.6753434025828087  0.8086802955331537  0.3910041170101121
  0.3807492140918542  0.3222178465650445  0.6386462783670493
  0.8295822457228094  0.8297039283589651  0.5974799795258050
  0.8910915396426926  0.4136424966461755  0.3880926706529285
  0.9002390334914648  0.2318156318898281  0.7627536539444251
  0.7317509942607671  0.1033927078585741  0.9259494312755732
  0.9014125531604500  0.5862760224525559  0.5655033070618241
  0.0044882721098547  0.9027201616987420  0.3607982708193620
  0.9938015994393845  0.2769743701041293  0.9369935201996928
  0.8190909920609276  0.3938197430862304  0.4150629476915805
  0.3376729307249680  0.8385824303141695  0.8894334224004798
  0.3119581642058613  0.4017776729166724  0.1523026751094197
  0.2725417886626024  0.5896620275300388  0.5982728410928896
  0.1844277127382994  0.0369607882134358  0.7643112680723168
  0.7478440466952527  0.9014499530226809  0.7004529215707092
  0.6859070094318617  0.1187374356289826  0.9952005299367233
  0.9061302622354547  0.0236315153336270  0.5679101183235583
  0.3211470638264624  0.4714722090359014  0.2698355362507183
  0.1210355843130028  0.1784644773174796  0.5750155779427211
  0.6255059650208781  0.4414285187727203  0.1742126998864574
  0.0928971970359812  0.4516945776265452  0.6610019473481860
  0.8259034952697961  0.6980317650015029  0.9657457108156438
  0.8305164020536019  0.1761254498237836  0.7808458944381752
  0.5657199697540003  0.7238938706912846  0.7503474257365349
  0.4997337852624589  0.1349661112457002  0.7438131735066162
  0.2503814004953816  0.8203744001542567  0.9956220811468167
  0.0967738529534750  0.7683279298946391  0.6091376093033939
  0.6695879772972974  0.9055893528934225  0.6639710060044451
  0.7615000835282444  0.6403738436091115  0.7018970900600251
  0.1400238913188141  0.5064733586805130  0.4319141259985620
  0.6029446408625545  0.0791954395840138  0.2639569261032384
  0.3041647571484716  0.6387174139316875  0.0828173080502878
  0.9461400776995545  0.2192277241207877  0.9032945431591662
  0.4230616381716343  0.7996791730705985  0.0314325963781251
  0.7942743900850865  0.3164107187710174  0.8877287968952208
  0.8970679634746492  0.9777345983158646  0.9434747712763016
  0.8437153633652756  0.1341108741040165  0.3164982754575262
  0.3462511816761916  0.0908276557769272  0.6688922024943084
  0.5043967923485574  0.1507672757637111  0.5552889041991539
  0.9084017984884236  0.2655115026930569  0.0505792065965251
  0.1753406346468342  0.3005678925491137  0.4369907660722568
  0.9127383175280042  0.1598633700374631  0.3616969764213755
  0.1992812669060355  0.6613988152742186  0.9456422523596901
  0.3456416919350190  0.5863673464714795  0.8566991625435209
  0.6713142620854028  0.8089263788888458  0.3078630678538121
  0.2488909071410209  0.5229457289555816  0.9815235423347469
  0.0584953090641593  0.2518043012484525  0.8091270693292069
  0.3506078345687146  0.0238986875118241  0.3900612735722613
  0.1449069424170530  0.1139144342857313  0.0327734335712346
  0.3318402197006906  0.4480410448982559  0.5161410415706983
  0.1652078674466287  0.3657828794518558  0.9934750756201890
  0.9814105184891437  0.4850475026825571  0.7486978341479705
  0.5825403668915317  0.7547080969869320  0.0958781048970069
  0.2001158317855818  0.0877801587104631  0.7003160118085187
  0.2488128343045334  0.9719878520183428  0.1248492214070936
  0.6232112390011550  0.2533287132431730  0.9760005343760657
  0.2054748758692120  0.4173309978611063  0.8290075633082954
  0.8229811440621712  0.9081858898896923  0.8480867618149639
  0.9202848824120144  0.4049390046488082  0.6025109173297070
  0.8039038983536787  0.2741492529775887  0.2456282923618982
  0.7896618201784297  0.7648158881748766  0.6308040130869148
  0.8211233601564110  0.2128301100810119  0.1132956890533573
  0.5469097761686368  0.3958405378463816  0.9417445214374399
  0.2143243998035776  0.2137171810424124  0.9063971436061040
  0.9966278404743039  0.3194174865757294  0.3695003677463328
  0.5176477194236632  0.7495011969044783  0.4923369075608016
  0.4069570036547554  0.2426726676949648  0.7762656865806455
  0.9460709079603029  0.8935310683963925  0.5727164823251369
  0.4052654164341353  0.1142454259276346  0.0567806790475372
  0.4970661777696981  0.6139877987092994  0.6525764080537613
  0.0387779421104933  0.5759886137678664  0.0030442070133167
  0.6030971850345077  0.0724439941177886  0.4174957174106764
  0.9499781580275937  0.2394789864207510  0.2031527251873449
  0.0268222250817878  0.6620090452607577  0.7384952646599151
  0.4835672429671078  0.9367594042115425  0.8285613712911654
  0.0603005036277186  0.9859967331915537  0.1662779627877421
  0.3553564185745611  0.8171945849472992  0.2412235134135420
  0.4870794489792273  0.5255852904595136  0.9622795928422558
  0.4984171199654074  0.4558136632185057  0.2454938404911863
  0.3304075243234698  0.1057614586470264  0.9704618211180657
  0.6032195924222787  0.9273531895052362  0.4468477802522421
  0.1248981371282109  0.4105378544949911  0.2748687069707482
  0.5208572272052908  0.2188855623592741  0.0957839679375142
  0.7337643461885818  0.7378852677140548  0.6870306350851981
  0.2856827747112204  0.2251250965153580  0.1908412318297107
  0.8157589247646412  0.9615735128291496  0.9133574470707535
  0.5782540074635015  0.6890167714859557  0.4442759671218758
  0.4673062933743972  0.6469086492639680  0.1768600050670525
  0.5153660771178387  0.6746520443991995  0.9927236239216338
  0.4512503235957235  0.4307371537833718  0.9402806956977002
  0.8386699542775227  0.1376131242515846  0.4164785095867397
  0.4750107486810726  0.1962772937855044  0.1871128540457287
  0.6740233139938602  0.9979416472579443  0.4364809549242745
  0.5674927989360786  0.5827589132007307  0.9907867782161017
  0.4818352923397600  0.7307418009206976  0.0825077298890979
  0.4640068783785385  0.4804909880977134  0.8402736834492658
  0.4832271656775452  0.4862140860759507  0.6531190294065780
  0.6178707731705172  0.0057850945986352  0.5182976935622965
  0.5644234927288083  0.0710419101647827  0.7067002264924936
  0.0258727700871379  0.7181339331398694  0.2693750743665363
  0.1463128487174184  0.6869006828830503  0.0288762974599354
  0.9764536687129386  0.5554716451762588  0.0979225177204614
  0.0682952389691844  0.4837656380067942  0.0338204014374195
  0.2278644661322889  0.7063265439913196  0.2171014714674901
  0.1096666914607086  0.5143008971753216  0.2586788347476441
  0.2398403986663611  0.3350443602901532  0.5884790240332054
  0.1243266253373718  0.6915221591659592  0.2411790328476909
  0.4198274316529589  0.0926268857969663  0.1531512658778153
  0.3309569182197339  0.1446226919062098  0.1396363962413616
  0.0879998835621192  0.5994173556893779  0.6875385601633204
  0.0255562880722162  0.4990261452860000  0.8448394295346129
  0.0563829385220794  0.6506395229330270  0.0679323208402700
  0.6433802562955436  0.3286027675464565  0.8271601792668978
  0.3360692467037393  0.3369565884449172  0.4863805119937856
  0.5018302493559116  0.9703784835044691  0.6619900946050028
  0.0177158980521247  0.7608468809580979  0.1407628197820473
  0.0593919824075984  0.9594054975471520  0.9883292465039767
  0.9789276856878768  0.6530409621990323  0.9924757962986697
  0.4444041473342422  0.9842917743772884  0.3847150844568864
  0.2714667500630803  0.0864122780990077  0.8121312608517122
  0.7408243051115748  0.4124262820464544  0.6659030582097668
  0.7263574271369638  0.4302062491884527  0.1560309402625749
  0.6812757710067107  0.4432297899970654  0.2552274684671026
  0.6608253714358947  0.3454766112636087  0.1577022316020237
  0.6460783534503961  0.4369331512973011  0.0790674547190626
  0.6234173573163796  0.3623438202015955  0.0084010840384806
  0.6389101830781458  0.4052978158781411  0.9048820947083223
  0.6608809966142853  0.6569980775492654  0.9990586809956437
  0.6860513189058682  0.7348550859243822  0.0724964742931996
  0.7822873775454920  0.6737496874963658  0.0625856129222987
  0.1042925119627792  0.7580626649515353  0.3446327626875308
  0.8904193562549081  0.9826631739205750  0.2763217869936166
  0.5013491376831025  0.1015626072023179  0.3993700117732086
  0.6446389206994313  0.4788396948428393  0.8373309813542369
  0.6349819910793167  0.0733006400442834  0.6213348307915173
  0.4175048944561346  0.6585764751256957  0.7265113245944492
  0.4176189052891879  0.7635967363524920  0.4873540910899914
  0.3168954271771473  0.6587989569179185  0.1804414173182154
  0.4288355156426841  0.9235798321889346  0.4884726494432109
  0.3456590994854284  0.7404815475574756  0.0702474835566061
  0.4189252136333643  0.4897934055192273  0.7441705943517284
  0.3393164846572420  0.5740555993725300  0.7467869090449056
  0.4278592465832012  0.5774469640326902  0.4847225893071970
  0.4215226502440398  0.4895746241256492  0.4086085359127126
  0.2098478764007469  0.4815526932999922  0.2500744449335902
  0.6641773443765679  0.1029787221839656  0.4949339152111338
  0.4398611737725959  0.6056430032307667  0.9993210653199748
  0.3431902063095615  0.4959953834550824  0.8195473632161194
  0.3346126806679992  0.8270410370983907  0.6538470310156979
  0.3051061591426663  0.7690679564387377  0.8203463715232225
  0.1674445759984849  0.3069994038227564  0.1543607697407144
  0.5320591830398032  0.0593117202841379  0.5972071922777767
  0.5442506013238980  0.9820129437759546  0.7617633804879307
  0.4946647736827406  0.2380332041093011  0.7279348271408215
  0.5678658229417056  0.3790754048636870  0.1125780475645670
  0.5052545274201058  0.0135084640402524  0.1404394774430076
  0.4994419274223327  0.1188864442017374  0.0903126388576174
  0.5866594814555188  0.1344422659992333  0.3369435358455581
  0.4933134621803190  0.4137028467626175  0.5750171482467699
  0.6078107067834176  0.1717450457448196  0.4314786902951988
  0.5821640688472438  0.2538381932645435  0.6571028977166922
  0.5211266106032864  0.1609155186087217  0.6517676184814637
  0.8326619412888128  0.0022779608155674  0.8193264038909379
  0.5042600227991935  0.2788886211862125  0.2724366757537082
  0.2654011677477951  0.8236308410468544  0.7369592686735535
  0.4651798518006108  0.1765357392854611  0.8236495952059638
  0.0438568990804260  0.1222040475845817  0.9799570067482800
  0.1098802161422505  0.9420970490955219  0.0916757512733475
  0.3278886904382938  0.2393612291420885  0.4287713366673812
  0.2548631389873172  0.6801840717258063  0.5562213824368387
  0.0808669457292913  0.3482307449452387  0.6365689936960527
  0.0202787286975407  0.9639993840140265  0.8204586445670227
  0.9833182515757626  0.2676121240228694  0.4588151680778639
  0.9627906892536261  0.2018223745016362  0.0005583747322910
  0.9927713756623426  0.2669399254165158  0.1085765343836381
  0.2090694059051585  0.5519534634157535  0.3302573922840241
  0.0319015603977765  0.1940575760418385  0.2683255330930393
  0.9924586420461149  0.9727076212437314  0.5473563503125600
  0.1649401543053640  0.4671497551554725  0.9797727025032237
  0.2770952249753767  0.0190869521113694  0.7174759985614918
  0.1527353746558103  0.6940103824711426  0.6419948990918548
  0.4532858413929601  0.0585461067473287  0.6873757488763226
  0.2704375685991601  0.9288403865579128  0.5048752312822250
  0.1754772493616883  0.9109204828596168  0.2685577402074399
  0.0188023597070665  0.9012303759918994  0.6369085879680203
  0.2190627236611288  0.1800351640019642  0.5584466523590254
  0.1373919028046637  0.1207415299389411  0.4917060149266711
  0.2502756607552714  0.2499081657055465  0.3600731338146235
  0.2401091485805236  0.6717879478977811  0.7474069891511762
  0.9856569974435468  0.9307736211895621  0.9210041583371050
  0.1571284846293873  0.2140221325634581  0.0656604371115841
  0.2321391295543708  0.0916445457438230  0.9792208288386526
  0.3220623832749581  0.0657421803172747  0.0606077268440631
  0.1817061525430841  0.0165980391873075  0.2971677624723742
  0.1905454175432469  0.9961168147679269  0.6648554684439466
  0.1007506455291172  0.9317788041321623  0.5015264951576498
  0.3573053758362831  0.9982280585215194  0.1477129577132360
  0.2699666032472499  0.8365499776968821  0.5704275637648533
  0.1202765665905155  0.9547017671878718  0.8989760234307708
  0.4456228533309005  0.9993484021586462  0.2368729208965150
  0.0776981432549312  0.3249682458494663  0.4397701559389581
  0.1734013908685428  0.1066917434643681  0.2296118401536684
  0.9654750795745852  0.1166385033880864  0.9188398725958689
  0.1067317903695413  0.9616239337138547  0.3649930172742863
  0.6972511161748697  0.3126221554309889  0.9326598455410866
  0.1366850027337569  0.0512588556341432  0.9525004232376073
  0.1442974225149068  0.7514980389051440  0.9271638752179991
  0.1816873565444519  0.0526001066453775  0.4008458970720593
  0.1359032138657774  0.2009064459649300  0.2663657153081488
  0.1564380723401452  0.0777933248011660  0.5921986201774690
  0.2511064463506550  0.9435187467485043  0.3367994432679052
  0.4342483755993291  0.0109664545183779  0.0678480099468579
  0.9814649899532931  0.3840604809524940  0.4385031902122256
  0.2692428197266133  0.9990404850365969  0.5820473361294379
  0.5472912233824938  0.4738083569890209  0.7511371555620415
  0.4299016678496117  0.1253562573691010  0.6134138117181465
  0.9033306648497311  0.6680125355142988  0.4157373346502193
  0.7150837984996500  0.0405548753967044  0.5588895759902422
  0.5765574951943431  0.9020474555734006  0.8408824952207299
  0.6109502030629188  0.7426271466726371  0.6586900339678066
  0.5493704926944599  0.9131139341041719  0.1117164691767471
  0.6986311525050319  0.8952049651396944  0.4427817522481005
  0.5104023948907127  0.0530694000582023  0.3102988632803263
  0.5791403721362848  0.1721329019728875  0.9214429132705569
  0.4371856508695506  0.9098067217555069  0.3087991898208764
  0.4504284561812514  0.8343855946549092  0.2312098741729471
  0.4050722992349108  0.8164186518326505  0.1323415879595790
  0.3949243100637868  0.7621572677743145  0.8633730834536377
  0.4248955307269888  0.7814563806025929  0.3258165928870369
  0.5760194351351564  0.5716346771487727  0.3381232155999154
  0.4979457121023140  0.7572422314690652  0.5887500860696258
  0.7330736689472368  0.3888095851488925  0.8502556056298584
  0.0623848976389031  0.7629388495923347  0.0185808444791812
  0.6932604721566914  0.0869087216108497  0.3798543932102196
  0.8004038024576330  0.0457253442061036  0.3468296585620844
  0.9170131943572046  0.0891754376566782  0.1696824393832282
  0.8324237283914110  0.1033675295842174  0.1103458552230252
  0.7349495805228393  0.9541575692329107  0.8603637462986522
  0.7629886834658367  0.8431426205593411  0.9032061276672453
  0.6645232887209652  0.9027836572339452  0.9099952930508027
  0.6581505721209370  0.9094440633996399  0.7790791881655121
  0.8185789710676412  0.8231773679446051  0.7051189169888847
  0.6267181334274030  0.8912228279237335  0.3582875668517918
  0.6561112802460507  0.7809800470234262  0.1677621937347512
  0.7632352975773886  0.9020891035497622  0.9862993554291583
  0.7248978574473449  0.0030210268215847  0.9495194479587770
  0.6365670295384827  0.0831940418983856  0.9120050189394272
  0.6779417509369832  0.6497561871171538  0.6514433315485875
  0.7305360815168653  0.0818959128332397  0.6754730768261883
  0.6630570164346512  0.0902573179362232  0.7556678715608420
  0.1531847878976633  0.4049181276926341  0.4400886271631483
  0.9931983719523482  0.8763504626502107  0.1461225780370555
  0.0935602660258977  0.6499005468062150  0.9446970639794235
  0.1216468115096982  0.6850983680057667  0.7531136315685082
  0.4244344141925375  0.9947461054664900  0.8808447833777528
  0.9924108951354289  0.2274699438505951  0.7251554255828591
  0.1388208765561612  0.3265425976740837  0.7933023734471844
  0.3217649278732447  0.1736910285736273  0.3450654280890830
  0.3130619233524537  0.0207401646676020  0.9277002599422620
  0.0585813668546392  0.3416218830325637  0.1557157512312756
  0.3662888329961550  0.9915832063893806  0.6612975872914399
  0.9931450069607961  0.7950620192778047  0.5946570506486581
  0.3182709090385398  0.2991445214840223  0.8020445745450315
  0.1467871318213591  0.4943786993988247  0.8451192143057892
  0.5547256986434179  0.5517918600660324  0.8193682101946199
  0.5868167911212022  0.7421788032024698  0.8443257186009220
  0.4981748955910638  0.9083007965239169  0.9227975997883080
  0.5331310969147031  0.8187343040477518  0.1565570071047529
  0.7399201701442362  0.2737712940064116  0.3249133072343836
  0.6795646829616591  0.1903766640457530  0.3321038523460579
  0.4801858120138496  0.3987561409775874  0.7459452627165151
  0.5912248072117552  0.4401497399485073  0.3359864535812567
  0.5853691109532112  0.3811494693027494  0.2390674266112321
  0.7338805148283842  0.3499512692213452  0.2484294922434110
  0.7002189785621239  0.2811380393862761  0.0353128767173747
  0.7399893562903885  0.1884873059935900  0.0506430816072410
  0.6945199413419032  0.1102729241864981  0.0960006925656966
  0.7839693786790104  0.9906542074154133  0.2574113618427237
  0.7127018632566914  0.0834222962702711  0.2791845248008982
  0.5897979122650369  0.5075311570143509  0.2502787459168821
  0.7769655459440717  0.6720941455519334  0.6075696550368856
  0.9854168775884102  0.3324079158187770  0.0233073298597336
  0.9101170372207334  0.9568753341816065  0.3792833553437778
  0.0325168806200314  0.6030530282559872  0.2755755370487158
  0.7871303395402740  0.5408126399917563  0.3341753418559897
  0.8188844847296820  0.5724145112777401  0.6221722071702198
  0.4041657495600274  0.3738027577887103  0.0267185459147205
  0.6542624072568093  0.1695216288690956  0.6709086872159266
  0.9188218064724543  0.0291184769697575  0.7522041050192950
  0.6599115786318490  0.5617410971749200  0.5983423639680815
  0.6687837896174548  0.5225168574993414  0.3417057341166116
  0.7546824357782657  0.6146882823644171  0.1625876841498587
  0.8552485308034664  0.6639763980671722  0.5204946324686965
  0.8707349807548431  0.6181702737006004  0.0166218666901047
  0.8965907580993501  0.2902343748242046  0.9532116848102310
  0.8225467341442969  0.0604690000069206  0.9114478061961816
  0.8434160953315059  0.8689759636101044  0.4129501692105735
  0.6354288252417070  0.5373369660030304  0.7499919578479737
  0.6619288463881459  0.5031807714486026  0.5112270940233138
  0.9655426214368337  0.2907745842310955  0.8403342077016789
  0.5125853123819664  0.2510541795735692  0.5756499161961576
  0.8094226944595149  0.1620517110853001  0.6686342686910195
  0.9141226135011942  0.6833022665731748  0.9148663040374804
  0.6883617927823398  0.6037955776436786  0.0818502848042649
  0.8373751241682568  0.4055581630647187  0.1311378096198539
  0.8507410795232141  0.9220253512627031  0.7401260117131218
  0.8829257347251456  0.2983330486435805  0.1435491451490999
  0.9638977645170045  0.9397919257653552  0.7273762842945573
  0.8744353185865718  0.3202592854042937  0.5854510949226356
  0.9018802149426205  0.9497846462337984  0.4934270282319397
  0.6648626065668909  0.2638850094011405  0.5905572775784713
  0.7317877749361166  0.2617522082079264  0.8364996198454743
  0.9004211694548322  0.8934857705263543  0.2058274939052883
  0.8176979491873153  0.6239832596600013  0.8993334255299592
  0.8971705317291553  0.8606592674049304  0.3193650910393251
  0.7518017338295101  0.8626249562200555  0.3506908195365212
  0.0969245438563606  0.2969172198110203  0.0681838707820066
  0.0976325465860826  0.0891635369770882  0.3075620242511688
  0.0723471146715666  0.6268946684570713  0.5880127433996711
  0.2471475807067151  0.4307653934044221  0.6695945364595685
  0.1096111113477730  0.3142391475660407  0.2455153435524136
  0.6721890934891431  0.7222823186504934  0.4472339065573741
  0.0285152326103527  0.4070604372066052  0.2341587127771774
  0.6942244567332069  0.7414036722440348  0.5934032528867070
  0.1865025578099883  0.6687462234928689  0.3388157813969148
  0.9818306223152182  0.3699419948406889  0.9069648660991979
  0.5754807002827264  0.4809712129860608  0.5805839588730021
  0.0043622573391802  0.1230717210829068  0.3582767370089271
  0.0640723551297915  0.1082235615770870  0.6149593466789104
  0.9555254553617614  0.2523722932591081  0.5666680473504704
  0.9261443645699841  0.9176237154718851  0.0241175401706525
  0.8069634451282938  0.0861737349131685  0.5983881590419116
  0.9262373331182370  0.6652634324905400  0.7496210127307659
  0.8795486824814791  0.6469808612192753  0.6434263163530125
  0.8279742161305138  0.3603708925572326  0.3190177446959783
  0.8846688594385197  0.4166785656886323  0.4902403675587945
  0.8124668157145786  0.3367594934031620  0.4977091810639149
  0.8465814232481197  0.5624377495776962  0.2454843974034281
  0.8741401767984533  0.4717736643696404  0.3101050782071023
  0.7526039091552058  0.4392120329760008  0.3441763053320542
  0.8911074846712357  0.3188052551888113  0.4021903385811835
  0.9017342809004674  0.4174353805300721  0.9585963013510287
  0.8853398395400373  0.3623272830742799  0.0465856176619830
  0.8590060101996553  0.2478916424416282  0.8483005757517900
  0.8348187922968029  0.4891533918373184  0.4193164726778880
  0.4206634559119904  0.7623772420441233  0.6664592759785993
  0.3291387380137076  0.7739859607494678  0.9579124007478386
  0.3947583233567021  0.6491184898504037  0.9054148838886608
  0.3726257805731986  0.2510895608265026  0.1685579270007946
  0.3426592869258955  0.6661374202686592  0.8089267437272342
  0.3021807964558247  0.9654228994988718  0.0436742030591682
  0.2782218686063108  0.3158711708946307  0.1667316881046426
  0.4617042812822691  0.8869813199309028  0.0418208417355296
  0.3828609493292405  0.1715613747878218  0.2461910156549936
  0.3476644028367331  0.8539001658477490  0.0358013981711387
  0.4209197295246972  0.8534326086981560  0.4061462791194255
  0.3389097840621648  0.8615633384988954  0.3255929630816697
  0.4446708816957177  0.9207093272142171  0.1485977537913024
  0.3657284978452836  0.9098733078866572  0.2237789093757707
  0.6338922150096339  0.4841322796806983  0.9820277958020214
  0.3063934292823079  0.8942104188808322  0.1338900675541205
  0.3475550554181436  0.8481819282921795  0.4900209346546364
  0.3455640240632691  0.9325828623157698  0.4108544446712590
  0.3342424779740626  0.7314855357897736  0.7227000543877760
  0.1201147003783322  0.7272798106971871  0.1293436703812433
  0.3288176130842754  0.6487894625261369  0.6545245543165613
  0.3379372608363319  0.4887773018672329  0.6665556837804590
  0.3149160682294132  0.3847174978338225  0.2431764750610469
  0.4066412652842566  0.3289439948475340  0.2607224790039467
  0.4071649752742145  0.4562147177171533  0.2072756247794668
  0.3336746450748868  0.3298470905508231  0.3552962689125802
  0.3270398585950173  0.4270939060869580  0.4243218308069104
  0.4184242980859632  0.3674703773698367  0.4036333418543006
  0.3829780662557976  0.4234986415773376  0.3206955969131721
  0.3308876240839479  0.3951524115916326  0.5890332815931181
  0.4249858471981051  0.3238737350814062  0.5598873053206200
  0.4180003213106380  0.4156350924433236  0.4967219213519991
  0.2993506142887821  0.3316462953699827  0.6792006819116385
  0.3370606145953006  0.4123348680122585  0.7459767340906553
  0.4116843917947294  0.4077350433678181  0.6573818154625171
  0.7268818484029070  0.5045598016064708  0.0527802593676295
  0.4914670788127831  0.3277728492587394  0.6537956367410552
  0.3420023765631970  0.7729004365787026  0.4032447023203775
  0.4878471358690703  0.5659230935979919  0.5769509967587053
  0.1775653580757058  0.8690658530541625  0.9515630838029959
  0.8011417521878976  0.4439380876789519  0.2367692316491514
  0.6791972116067129  0.3444790773085952  0.4994476472186190
  0.6695853532052547  0.4136542639777810  0.5777598652430040
  0.7517552856901961  0.3351700007887701  0.5915640851727796
  0.7592086781574526  0.4343848018798079  0.4926024997601336
  0.6563750343080368  0.3418736453174730  0.6669879500841418
  0.6354652933694536  0.4073398262385144  0.7557063981331504
  0.5003226091299143  0.7783628525457900  0.4097250366175190
  0.4320476155056557  0.6674628699840363  0.6088552699136572
  0.7330164125402684  0.3407573327722283  0.7481447872850643
  0.2429630153343427  0.7255341463484500  0.9964704301463985
  0.2371788979968487  0.7008790021918230  0.1059068232610007
  0.4152257625000443  0.2083833322385270  0.5388868021440466
  0.4425522465278651  0.6773432387962371  0.4280923893611600
  0.5901199379928468  0.2524539673149207  0.3443602320994574