 B Cr Ni 
 1.0000000000000000
    21.1200000000000010    0.0000000000000000    0.0000000000000000
     0.0000000000000000   21.1200000000000010    0.0000000000000000
     0.0000000000000000    0.0000000000000000   21.1200000000000010
 B   Cr  Ni 
 173 259 605
Direct
  0.8062064035968807  0.3166550369751502  0.8110553112430602
  0.9065562850537489  0.4996722781455845  0.1979026178846625
  0.8259797843691022  0.5098251397682978  0.7585225801643470
  0.1730153834935158  0.6204299306520823  0.6950070224995155
  0.4020495310588442  0.0735675282203312  0.4430672919464549
  0.9867511366412187  0.9038173765044570  0.3674442363751950
  0.1622997707083992  0.0271337189909533  0.4835317131451854
  0.9430210123303819  0.0523196404634315  0.2761918709757051
  0.6216211900030253  0.9267707783450924  0.4136929128122828
  0.2833235074021219  0.7020278853215467  0.3593386477170384
  0.7750186597541643  0.1313536340261346  0.3740643970435918
  0.0792661156196633  0.4568323663064458  0.9098346333556450
  0.8757790263243695  0.5816662703790609  0.9154374226783530
  0.8509290275936880  0.7257141858453701  0.2723250844315766
  0.9561343542656845  0.7572452960567297  0.4079774963369105
  0.3524334586883356  0.2733393624498546  0.0916939530459881
  0.0164974571199599  0.5498060190373204  0.4594752062522366
  0.4911302723327264  0.8108572057980918  0.9287470566863997
  0.3442337375893278  0.9383646951388890  0.8955887625600402
  0.7344415937243243  0.2675324756220364  0.2127239878128085
  0.2480536614460695  0.8405373123379440  0.3190888822552466
  0.0806790405103330  0.6673548845228460  0.3229338765877136
  0.4371028126913283  0.2706916420613737  0.2044999555790271
  0.4090351845519165  0.6708869601522355  0.5010984674146556
  0.8160549930172091  0.9324827048949791  0.3495713519558747
  0.6667423786639164  0.2102234577470731  0.4960730842910973
  0.4370826753919557  0.4131403848761113  0.3876751380191850
  0.0700405946714266  0.8876610487579608  0.8308693047996716
  0.5631414068237117  0.3120494920339114  0.2734737817771181
  0.9192232040434838  0.3267122784710036  0.4964500981283975
  0.1042401894897473  0.1385441086230819  0.8634776826130194
  0.2130659027248180  0.0149085163947835  0.3109445189922564
  0.0611844542749549  0.9641311697476856  0.6984524418141628
  0.7537155650821787  0.1412718305894305  0.9680439171491846
  0.3373985139173512  0.5787685537892048  0.2923053952499986
  0.5687251952572773  0.3648417566612630  0.3358642298067647
  0.4830088822058518  0.6165743801555543  0.0827734500344312
  0.6363777283858363  0.2501876635983896  0.8847002233289254
  0.0351853035109014  0.3729709118528949  0.0752322736280988
  0.0644642393295097  0.1644989789848700  0.7034983875704387
  0.4501424592197600  0.6747062785159246  0.2706537646111511
  0.2396877171733931  0.3547652955577894  0.2955989597028559
  0.2373369133891106  0.2836496099373469  0.9521050256921627
  0.6664871993427298  0.5321997346168198  0.0669557683357116
  0.7352160278460078  0.7543985702808875  0.0828469300735234
  0.2225175004840314  0.0810825340652520  0.2639952119908699
  0.3852109541579360  0.6914591550362865  0.1423182250929400
  0.6026835269406451  0.8164639590036683  0.1437655625787211
  0.9941072782604355  0.4244894473227962  0.3162231663123212
  0.2826892481031750  0.0109729668742895  0.1402170830087179
  0.4366674917178649  0.9253326712575524  0.5905194152702926
  0.6239503811787240  0.9053536906077539  0.2251375188106464
  0.0901553650883896  0.5923916090359851  0.2056492103252317
  0.3786740666359711  0.4353532468580975  0.8936758544780035
  0.9561756211340861  0.7084163118097948  0.6653834990564647
  0.0318584660969308  0.1059696997847136  0.4705257465259777
  0.9538688543690746  0.9018002703940865  0.1457393011433538
  0.8948656199861290  0.2243182318083010  0.4032704898300066
  0.8037461503687802  0.4408008341224037  0.0017685120625812
  0.4420468946075706  0.1124688345695175  0.2498797046656382
  0.4032025486562584  0.9547845459761738  0.0679642522429480
  0.1524157174079208  0.5540520366280366  0.1582414088550376
  0.9723811119411677  0.8390219973083521  0.7012373511715273
  0.3063126451823664  0.5008567510210372  0.7273103489029203
  0.1178346544146451  0.1229588229453118  0.3836601258915177
  0.2405669016944951  0.7773649567412855  0.7265749465486674
  0.4977863825500180  0.4994268057023162  0.7632547410091770
  0.3367814751486591  0.0609962813587311  0.1700655882768684
  0.6815526303055790  0.7527042863998893  0.8532672293157879
  0.7871659692359910  0.6100347546078531  0.0175284896843865
  0.9790661910786523  0.7522076056241561  0.0573923398306582
  0.8720718833259528  0.4425484835914711  0.8532060424761103
  0.2134595535416589  0.4093923528501102  0.0292163231950544
  0.0317151239510873  0.1020129100287379  0.8801722262695878
  0.0209412238149782  0.0161461407424098  0.7500798480658118
  0.9279083385263455  0.8290392029341741  0.8936098471086347
  0.5042760864830315  0.4922368188337191  0.1097485040689936
  0.5673421965481212  0.9356737127531983  0.9910880256698609
  0.4525995457168839  0.9250835540808787  0.2102322891274979
  0.8349417879574945  0.9178376632551124  0.0546525406937530
  0.0841384681203096  0.7019240900324984  0.8527039400180743
  0.9640269113707520  0.2908513033993810  0.1952305904384841
  0.5063781612989977  0.7345385732184355  0.4778186738148622
  0.1366621078833088  0.9279953942189338  0.0310837633172374
  0.7723332099143505  0.8495460606556057  0.1825939536061545
  0.8455026537881070  0.7627350430222399  0.7668132370187317
  0.5121756160041959  0.9842697326883362  0.2296979829645093
  0.6805976272300508  0.8003744021049860  0.3813191405103716
  0.8128711972805909  0.2713872732001587  0.2380210629005839
  0.3782846909258707  0.3294182519052026  0.6427057480836497
  0.7801885849128739  0.1344755050561243  0.2112368727820009
  0.8255271896776681  0.4054821965682269  0.4101349021956957
  0.6862995580183842  0.7965050454461684  0.2965880479424894
  0.5816497080007562  0.8228921308168592  0.5507453997626944
  0.4084827151749110  0.1382628035564714  0.0616025716214752
  0.7270910372862709  0.7203773917760997  0.4995532642100997
  0.4134714091346581  0.2471739363498519  0.7738157942093297
  0.3253554507071914  0.8552619723521371  0.8855576987445294
  0.5796349954902544  0.1665143187731795  0.9899885295392372
  0.8973458649533831  0.0320905808364952  0.5555288477352301
  0.2909626358430996  0.5728178120251671  0.2206529923400144
  0.1097663030569560  0.1857427711626750  0.5681500902393992
  0.6433759890274942  0.4468553980657788  0.1756027526699593
  0.6822857165745314  0.8444057018489252  0.9773555386147632
  0.2223504232867447  0.5480263676546929  0.8488525898558207
  0.1772699026264499  0.0471667255899025  0.7649604809707449
  0.7527458986396005  0.9151969472132492  0.7035166180858325
  0.9800976241027765  0.2551810864033946  0.9454872269365285
  0.9191745253307251  0.5635407457925665  0.6250761580450006
  0.8251691511083501  0.1660572018762181  0.7874290034736109
  0.5653848406489448  0.9476718857632140  0.6022237430441501
  0.5203475674364160  0.1651706402899313  0.7581043469951207
  0.2451081573454992  0.8269042917663861  0.9863807653944956
  0.0414458534025651  0.8055142743449494  0.6806985181809734
  0.5237389100566178  0.0599630013783516  0.1135557279863235
  0.7737647593031436  0.6191106052251808  0.6730935294943029
  0.1671692830908133  0.5117649874537903  0.4398645554045418
  0.5851699314772932  0.0257445093054489  0.2676826215097842
  0.8922638945614677  0.2247326322532658  0.7696952470711995
  0.8298517816939506  0.8257725303547419  0.6063748017764605
  0.3877843469612643  0.7810070850451688  0.0262813149991098
  0.7857064106690040  0.3065105457945634  0.8905601600333262
  0.3056111034937724  0.6116580603471928  0.0752835749699009
  0.8153577482605217  0.7056438264274350  0.9737928313262485
  0.0733446345800728  0.4859133833871280  0.6705460022876553
  0.2476112825006613  0.6518532563077812  0.9112627783431216
  0.3591667366300700  0.5972414867164697  0.8586292870109415
  0.2756421325102849  0.5776675988382745  0.5943730626786404
  0.7378776966177314  0.6638318245804360  0.4311692149658682
  0.9459646171835906  0.2535712578852302  0.2658675741196480
  0.9282602672750702  0.1986689175150749  0.9129390488476722
  0.2072355399578131  0.2219022267594948  0.9006874141704473
  0.1944376187839628  0.0924524892130810  0.6916377919218507
  0.2298968900417749  0.5355277721320374  0.9852814092011537
  0.0409549509950037  0.2480409050346090  0.8132172006598790
  0.3515658577669302  0.0252341811954989  0.4022465953569302
  0.2825201934260137  0.0016872826502674  0.9976188776372280
  0.3522592696700374  0.4324750415847972  0.5148322070753967
  0.1554622831246707  0.3686402718516960  0.9877656524229509
  0.9998440635645497  0.4613556618967997  0.7674233068643562
  0.0699733173861651  0.0564580913300533  0.0748304617789195
  0.2895088177663587  0.6001663751412255  0.4592890817932253
  0.5061646971925531  0.1477774154877734  0.5645032395327813
  0.5018112509764771  0.9205162337525712  0.4646332039736652
  0.9024734696345043  0.2497914525763004  0.0607026220319136
  0.1955235339264774  0.4124230973149066  0.8318954997728781
  0.2092626124060221  0.2739150431325123  0.4247159172716412
  0.9158559402680220  0.4036190191400876  0.6297664923744275
  0.5511909846784971  0.7411056956061078  0.7191711442241134
  0.7891752306255871  0.7597420931346274  0.6314770396448594
  0.3480516982118979  0.0789675443937573  0.6435845675534094
  0.2276360264179483  0.3497916973768678  0.4594511132960867
  0.0883860621202616  0.9019890572128274  0.5743791357681375
  0.8028886979331070  0.9086900360577848  0.8760131417617194
  0.5272713739381778  0.4949848901240382  0.2866311941818240
  0.0328087412123890  0.3874596449077791  0.8947538619790361
  0.6482085139683351  0.6132039501019221  0.0633679221161730
  0.1144111982325968  0.8231435866083103  0.5174051266102339
  0.5567491323465396  0.2310337845322117  0.1149114975380550
  0.0559432331174145  0.2790975775889399  0.4277426841840103
  0.8087917482222886  0.9719388695967655  0.9235768042882090
  0.3494830433520175  0.8156629304419886  0.2225001638824357
  0.3883771014838178  0.2736415894446089  0.9495245993609229
  0.4751722540793074  0.9295292125200991  0.8363093708359649
  0.9106939428825770  0.8972280547020406  0.2234805300640508
  0.9477401766110227  0.8874930964181714  0.5709984221484461
  0.7247426056460690  0.7699892848419725  0.6829251979444377
  0.9330689950424115  0.4496650161268233  0.1329325714972513
  0.2000046646009262  0.9204488943149736  0.9029024632208331
  0.5990347061351943  0.0732047856876735  0.4183930430392211
  0.2209483184711643  0.3741521344131866  0.2117336896005894
  0.9545058133795216  0.2073421595368695  0.1973776420571818
  0.0144765571655860  0.6667880905245781  0.7357498866151068
  0.7998157515488296  0.8314379493343617  0.7055951996912642
  0.6424716942753530  0.9059817642452033  0.9086927749500109
  0.8343398452301678  0.0947903461780288  0.1366277336837790
  0.8087926614388762  0.0366410346741984  0.3662872764408218
  0.0682865600003866  0.7736987654822164  0.0099350479251721
  0.7370144521094467  0.3835232478187957  0.8456197614422130
  0.6908641469135448  0.0789676270701807  0.3853889598185494
  0.9059551664293926  0.9928912186804170  0.1002320654518777
  0.7212949982715525  0.9688710793174581  0.8800176096580338
  0.8201287026153454  0.9965661986077162  0.8270859271986932
  0.7313695002060321  0.8406501549500884  0.8926991618812626
  0.4058812029747244  0.8210154531965007  0.5759552367222756
  0.5632453701194624  0.5731877572393669  0.3441366994029774
  0.1512602480371030  0.6802208794501262  0.0073024584734110
  0.0081668571988041  0.5879515989876508  0.0237135154484456
  0.0601465763880000  0.4845941743205271  0.0309717360697571
  0.2086452868207151  0.8145822767291743  0.1415866978936307
  0.0056173468320750  0.5258163596670485  0.2126994287679975
  0.2314639781550476  0.3509531628147257  0.6035906265918265
  0.1051412802879504  0.6890792192397845  0.2292451021345936
  0.0267590625426806  0.7381265649237654  0.2704871984996275
  0.4270272244712187  0.0945680111546100  0.1513517312261355
  0.3303507140739632  0.1539358273667568  0.1376218886921852
  0.0803680906679368  0.5999664693674297  0.6889457725925767
  0.0793849033189569  0.6025149081815194  0.8361039270165660
  0.0509432232866378  0.6732345276526611  0.0612174121034915
  0.6480249838750624  0.3310782520065410  0.8200226459511155
  0.3340174748437774  0.3342108697774232  0.4898671241307230
  0.3551561179458053  0.8591667326730306  0.3195033645614354
  0.0199859292217508  0.7369676975240215  0.1462332584819875
  0.6628061459411824  0.1053590451102926  0.4993539564053254
  0.9806637455606850  0.6903956837487153  0.9821951189833057
  0.4478188923431025  0.9905902671967879  0.4111111710395777
  0.1576574614712951  0.1440824284925724  0.7697723136187588
  0.7561539265338797  0.4180846560973133  0.6717287150589271
  0.7462240452180300  0.4303420046990404  0.1688954525904414
  0.6802004987084057  0.4473414766405221  0.2646140496216154
  0.6722936805752903  0.3525051483556062  0.1617004353494587
  0.6668730748898598  0.4259538530078418  0.0807718737385491
  0.5102356936765423  0.3477380671525286  0.0072385620291623
  0.6464055890764658  0.4156386345916100  0.8914366789326426
  0.6138144838918084  0.6603659978474888  0.9882373902375398
  0.5648905557459323  0.7615218484205896  0.0630487035545252
  0.7541317549302784  0.5170513461048537  0.2620110780658785
  0.4005225180732639  0.5310293673193840  0.9224852572143365
  0.3382583738700863  0.5018676266125522  0.8289093305043183
  0.3141187165072547  0.8275732282950989  0.6730495233510279
  0.3267724346297208  0.7209702777562514  0.7438818074708163
  0.5066262062717807  0.1505852002802909  0.0984318179053306
  0.4565374153663755  0.0862205191191435  0.7903753301423148
  0.6151984413110509  0.1651726070062412  0.7289927565699754
  0.5045035349457259  0.2573511143194091  0.7271134060584934
  0.5272031235392984  0.1739402855515205  0.6556315670389492
  0.5472965791295764  0.9913395923145050  0.7582563059888155
  0.9027904118255812  0.0043677876718330  0.9018064259400876
  0.5249756726049746  0.0583889500503172  0.6061387881591390
  0.4042575444867110  0.0975500048303059  0.3477609166554763
  0.5294222836826141  0.0845479814092565  0.2096018961149322
  0.5108860637201837  0.5012107700409272  0.5116005120351154
  0.4839963400631775  0.9806993278256192  0.1353878298462350
  0.6082674062909472  0.1699836553448332  0.4221243732675480
  0.5696568570236671  0.3928346521775881  0.1285502234162277
  0.4419414659376906  0.0573951063508357  0.6919998227541435
  0.4899860323581285  0.9688982075611134  0.6652501139856346
  0.0964045582490320  0.0676676338884086  0.7062978002560858
  0.5085921696962047  0.6418088280268980  0.9914220658282000
  0.4387241849457113  0.4434943420895340  0.9780854017308109
  0.9069850847065679  0.1554174771320692  0.5418287774593036
  0.5883862660622894  0.5028583414538453  0.7336913418180345
  0.4628749878374062  0.4699691711981932  0.8525549385926630
  0.5439016174731994  0.0818305007448364  0.7065023132496741
  0.4169150477780316  0.4773678250714067  0.5732700297151282
  0.5022702204906471  0.5861661024526329  0.2549687065164559
  0.5865881739348261  0.5854118621814731  0.5214353080883567
  0.5006526341112761  0.1888225995356211  0.1984860264952255
  0.7602973440951037  0.0677478651833227  0.4674982640412156
  0.5706372501028191  0.5654795004706469  0.0324694628021751
  0.4538725801652653  0.7109354262745449  0.0662675738229451
  0.0796870589862456  0.8539705494487505  0.4259201133606407
  0.6467894571914059  0.0657015811459751  0.7505360412777410
  0.1204699328454672  0.0593901521836674  0.9240562136280472
  0.0860515884265009  0.0293904287931871  0.4155539529896407
  0.9531106136784208  0.1827262967785237  0.0108545802262305
  0.3236947894624509  0.2465512141204277  0.4275378210785059
  0.1687210511125051  0.5975969616381561  0.6005994182756476
  0.9969587443933869  0.2428362651016909  0.1152974828966570
  0.0618720825959471  0.3367651326408218  0.6242525039693685
  0.2346883202306733  0.5406662600171706  0.3006986464413033
  0.0913537971735664  0.0480416878573969  0.8206686082270049
  0.0390673666558124  0.2387753704445911  0.2365884019433129
  0.9972480794353958  0.9675917401373468  0.5498724634214942
  0.1324569052796664  0.5783403081930989  0.0275220534084793
  0.9422638852326405  0.1456532355414575  0.4459549916647453
  0.1519985838494784  0.0879477320091527  0.5939514166429383
  0.1446067019163300  0.1010387724126172  0.1243114361588124
  0.6086226222579233  0.5286931843679521  0.2385534456742408
  0.4236883879065167  0.0190627002309162  0.2352274969647237
  0.0993180251919773  0.9479858970481778  0.9022130177101925
  0.0150141189334527  0.8996119922822245  0.6367670479304907
  0.1539306587424749  0.1778443425851904  0.6616722490701483
  0.1300208345307691  0.1300185872004315  0.4834387250218084
  0.3061915560467992  0.1861193222164554  0.5225040990896818
  0.9994824856944101  0.3783307396229896  0.4528683124167249
  0.0464113703132654  0.2336838792560660  0.6307031312852418
  0.9629705800681684  0.0022536940508703  0.0016228801669856
  0.6927366135251042  0.3197366528636771  0.9289310985113832
  0.1357686004092351  0.7602201626164116  0.9185962711179099
  0.1521670893877619  0.2253794088485959  0.2660330072264589
  0.2736616190063795  0.9400694342550769  0.3322942948608112
  0.1734332271064438  0.3019508131021036  0.1464719307576531
  0.1776444385762748  0.9605467782909468  0.3983774997261372
  0.3744269289082477  0.9763284674506605  0.1530667722315761
  0.1810802518309334  0.9287921133422290  0.2850181753778213
  0.2685662043002303  0.9255246943215174  0.5084333993801947
  0.0616483039880998  0.8403263849445375  0.9160766411852956
  0.1598717702616862  0.6988226290259550  0.6387262735100595
  0.1553416480989628  0.2056583916242465  0.0616574435538382
  0.3188935879603892  0.9073103823379438  0.7356280878784176
  0.1983636585145534  0.1145868705345223  0.8778456098317743
  0.0372836932263356  0.1046091129644522  0.9851469157776398
  0.3364350893678310  0.0603278034094762  0.0693597291548866
  0.1712991697706635  0.0095946775010360  0.2114817665243615
  0.1223530491370134  0.0442328959721581  0.3172738916063355
  0.2630183148643445  0.0859870749447842  0.8044363260749846
  0.1218376868253577  0.9593948441957121  0.7748679947318919
  0.3623856650178952  0.9817107125871469  0.6819700693431139
  0.2317391061005698  0.6793937279995927  0.7416782943867559
  0.4472229341764833  0.0442153106785945  0.0514214315440131
  0.5796878590110704  0.6468066487302244  0.2441173053015389
  0.2290589076480454  0.4887045745983726  0.1936528276903652
  0.8644385421401228  0.3162853151284202  0.5871095203084427
  0.8077728101080660  0.0258138208184692  0.6536738689832499
  0.6540882370438191  0.9450180653203970  0.7600376239602495
  0.6753201013733861  0.8567710836042566  0.7068085392839053
  0.5540793056035735  0.8771477854797901  0.0829561989085063
  0.7050604728494773  0.8849839574744566  0.4423403140854789
  0.4973104421547620  0.0334806575359498  0.3194009644542408
  0.5549350833677450  0.1927367607380135  0.9034554022845728
  0.4337127469492730  0.7718999333392831  0.3264523039390826
  0.3584446705841492  0.9166173596993079  0.2377721918075008
  0.3964925458209576  0.7849211735629272  0.1227745508615040
  0.3833959873132995  0.7781101779717201  0.8577657764020197
  0.7663735370235157  0.9007387031698550  0.9749269720380104
  0.7308813423387834  0.9980681994358832  0.9928934504179567
  0.6860225403638802  0.6701324055879755  0.6671654500319517
  0.7721981658372121  0.6708823345961377  0.5869116531082765
  0.6820660457098248  0.7461162639791583  0.5928464074019655
  0.6797607283188083  0.8191870626695016  0.5131314074951596
  0.7257670049891823  0.1597699020553960  0.5588246999641540
  0.5895127723814614  0.4972728558680484  0.5872171999191464
  0.0718779074502747  0.6329184052549083  0.5843934729817193
  0.0173958729199332  0.1008957566767356  0.3666334782556922
  0.0715564355828687  0.1633887532240829  0.3063115788171775
  0.0577205095742341  0.1144857803246805  0.6177439267763856
  0.1041137225830644  0.2205959855039279  0.1563704548392690
  0.9689074661655446  0.3176592150258561  0.6651164041482309
  0.1364923462577410  0.4151058207154821  0.1775851390596336
  0.1865292263791856  0.6814515896244249  0.3133456036107919
  0.1252320487550247  0.3264840103346463  0.2472467234406213
  0.9552957411633286  0.3497474095480299  0.9415069957378368
  0.5841982992543753  0.0966628992922234  0.9213971888966271
  0.2392275108525759  0.4306318108372808  0.6735990063512101
  0.7197075820783049  0.0822152235786453  0.6739113269327155
  0.7643094863765867  0.1567101734341867  0.8686344771344131
  0.4129903190561900  0.4934788724251677  0.4544505372199888
  0.4287174239160665  0.5695139702848260  0.5353304610202074
  0.4061194204061934  0.4893627445256928  0.7361774293233261
  0.2967458734302633  0.6526513538285204  0.1591160062245394
  0.4341988892805383  0.5690055021118616  0.8001602431307526
  0.5598894140468567  0.4206405570446843  0.8140772789594840
  0.5009083753754885  0.1014189149087727  0.4094161263333066
  0.6273466288826030  0.1000833217941436  0.6200517261098927
  0.4359562955665737  0.8544968764386903  0.3994915455163202
  0.3421373496771871  0.7388726203348042  0.5554158800365879
  0.3430643244340297  0.5884959537363886  0.7475065724298435
  0.3388077885556018  0.6991970961854025  0.0466718211914420
  0.8906953982238476  0.9714466054765121  0.2935768341613462
  0.1088371540398050  0.7589339958858445  0.3418546111760550
  0.5939333065088412  0.7212381401997632  0.8208359251104681
  0.4110920590804727  0.8714927535532840  0.9345435303107007
  0.5039143934542226  0.7839610269389102  0.1420626917808253
  0.7369979962294866  0.2732595731398973  0.3172374587362253
  0.6787888747896894  0.1806347502922667  0.3375569129493895
  0.4904640999761743  0.4050903328097015  0.7418462514669276
  0.5838046166838325  0.4160367875280633  0.6627038289217861
  0.5370196666768168  0.5440741834330779  0.8411751488328045
  0.5928688287092149  0.3944097809866984  0.2397917601952444
  0.7511967359221267  0.3633115696223098  0.2518123259748811
  0.4961534379598362  0.3186001602017500  0.8106749099702023
  0.7113235605123837  0.1255681365826813  0.1290991864992074
  0.7461198460399705  0.0464020332294922  0.1841052870924510
  0.7788302321480044  0.9886447935705508  0.2755439464800343
  0.7303732395857648  0.0848682139656581  0.2904960253851387
  0.7368849368397610  0.6885292897643115  0.1693437494885308
  0.9787809399120048  0.3053473765072580  0.0301966020621115
  0.1451590818085366  0.0962067772266319  0.0224711909527643
  0.8814262095200966  0.2694541907819017  0.9640409616217963
  0.0077580189010964  0.6127019084704250  0.2766134152724150
  0.8363073825192995  0.5642446385116798  0.2995457185329458
  0.8250420268683200  0.5623157642410866  0.6013922132611043
  0.4115955744130791  0.3452804541783271  0.0298115658969823
  0.7255048590661015  0.2529755054750130  0.8370384343830188
  0.9490513961730850  0.2782148897929911  0.8554815766230619
  0.7994305125836307  0.1555680663344332  0.6656600603643023
  0.7027236775190695  0.5243959296406286  0.1664204456918091
  0.8481386057730167  0.9384923712335177  0.7312348366435355
  0.9591490027337809  0.9352589961729548  0.7282672548201348
  0.9021180168603189  0.9415888329210553  0.5024082518542324
  0.9030049338856373  0.9579711694475093  0.3993646449205899
  0.8350617606943755  0.8700242265260802  0.4248376747857498
  0.7804444750084216  0.0829926642098555  0.0454930285377352
  0.9336265009963011  0.9085030201372853  0.0412668196741356
  0.8986612937983004  0.8650956904967396  0.3301129377416575
  0.9044133594624366  0.0254753192044645  0.7388593676732620
  0.7871967876056012  0.9640394789078245  0.4441740714818792
  0.7034527421336269  0.5840311853050920  0.6045009402257748
  0.8722509613295901  0.8956938398434235  0.9469608474362088
  0.6371053015821267  0.6473045637470120  0.3383028980614057
  0.9068720241282966  0.6754847090809664  0.7470485577996662
  0.8480313368294594  0.6899462713910309  0.1751689961187199
  0.8692828595112377  0.6546523115183784  0.6437605147263493
  0.8797556389525625  0.6180106586286463  0.5371316273183174
  0.9056932150313792  0.6431420140479005  0.3022405689018960
  0.8853580953780200  0.6274888934398165  0.9988887061974219
  0.7880349364611903  0.6263257883176705  0.9138841002057925
  0.6017392744584497  0.1853167708728169  0.5673057845220977
  0.6868162618850960  0.5797283292322193  0.7317055343005837
  0.6753520132436195  0.2688516807200643  0.5770380716328873
  0.7542511043371882  0.4305309661040470  0.4902943573390154
  0.5927964319980319  0.3385789374862526  0.5773724200891327
  0.0613749782516967  0.3325669259330781  0.1657167516214421
  0.2110436866297697  0.0194329950136372  0.0769100843666886
  0.3219105268613235  0.1715832280317452  0.3485171662991075
  0.3518533404099996  0.1042957039816161  0.5414589185863268
  0.0909958047074318  0.7950983498147516  0.1918734295989326
  0.3132492255074723  0.3012004429818809  0.7977182204623428
  0.0777695917256449  0.6579118131566025  0.9391103377620705
  0.1519646948358244  0.4720811206759524  0.9806708742575649
  0.2527915502143278  0.9234776220092004  0.6505885021307255
  0.3321371956689902  0.4273817181714075  0.4213227387304755
  0.8400342379012460  0.3528220291347303  0.6775726305441643
  0.3828117009013094  0.0825138799365736  0.9652616420539081
  0.1132492401062259  0.6821312189094141  0.7560189022094767
  0.9752889114413867  0.7904042266020820  0.6080477027041650
  0.8925059108691504  0.6829727766327740  0.9095664263213601
  0.1272324624245449  0.3315314863920999  0.7937993128232433
  0.9401610022693502  0.7035689384519892  0.2159477242488672
  0.9250814303557725  0.1631170585818820  0.1151993442512863
  0.7628672946960356  0.4450086369112450  0.3449617776857565
  0.8169312582533352  0.3460838168042085  0.3261497189530352
  0.8997396602728942  0.4259929290281335  0.4728045106660562
  0.8858850906400429  0.3243583881219820  0.4056393201299480
  0.8203221137802804  0.3488517576935880  0.4912728590948067
  0.9301002479164920  0.5308810992581138  0.9988527723318699
  0.9319553096754517  0.5155991270668870  0.2942359573906987
  0.8821697992053624  0.3511016124096384  0.0503204242863536
  0.8458795733857495  0.2336161937731044  0.8585446701289469
  0.8614881369479805  0.4960924251562729  0.3876610998976032
  0.9018793247630621  0.4092026199575678  0.3415844460899710
  0.3933873245296994  0.7469636552272662  0.6589509932990398
  0.4499074429565989  0.6261107199217723  0.8961044153058059
  0.3323626511916202  0.2488139787548947  0.1927761820082450
  0.3886768168410223  0.6768244552949153  0.8208835475600066
  0.3300319988739761  0.7919561447412381  0.9556196085523344
  0.3048886186864371  0.9500585164329501  0.0684693670731011
  0.3286355600103500  0.4128380513113062  0.7357378409027644
  0.4760309579049947  0.9290694041718568  0.0218019885815732
  0.4117555074505586  0.2097137138444943  0.5464723064778371
  0.2289975383298334  0.1796035470225854  0.4397476099940608
  0.4179131197071174  0.4103884806052681  0.6579781126985608
  0.4418423521013087  0.8816210246839347  0.1237955252979068
  0.4550653698254842  0.9225957801950516  0.3058962166539609
  0.4059873955235825  0.1651733956867935  0.4461422601052210
  0.2956956671650580  0.3245308570769724  0.6834702902735400
  0.2731841246379226  0.6184984238385880  0.8225315554246987
  0.7452972405858069  0.3403820714105914  0.7455443718877838
  0.4945799879784282  0.7557290182482220  0.5741153396321863
  0.3411890768261879  0.7791617726473592  0.3911044405358862
  0.4296590254466455  0.3921138213851116  0.4803858272099990
  0.4481557843132076  0.6798144347959338  0.4158441415839880
  0.3336580528793773  0.6903077163547545  0.4483976271058738
  0.5196138786204230  0.3379481829465162  0.4951513588997316
  0.4336421561047856  0.2747012210110616  0.4636361653281947
  0.5062721778305055  0.4134321190855736  0.5756992152016127
  0.6141488956485844  0.2653272420694560  0.9779581656328342
  0.4557022312064492  0.5365972993796085  0.0426678673236488
  0.5929169335668388  0.1028482631714477  0.3260285886876733
  0.6122193907306123  0.0801460511956034  0.1204423530615860
  0.5517930369273050  0.0009714118359995  0.4482784848370635
  0.5962762973158723  0.2706943945591548  0.3494324386377969
  0.5026741891560709  0.3346898041055379  0.6532329736180066
  0.7554386416028831  0.5000444291879300  0.0629348851112795
  0.5152243911831761  0.7689413164286051  0.3971103784455646
  0.4224887615399792  0.6661395907341278  0.5942220604465548
  0.3845130107899069  0.3344366786357391  0.3850515775134666
  0.4115028562261565  0.4201441258927136  0.2117898253608085
  0.2846673649794432  0.3254994583448277  0.1393153951989241
  0.5113587010133402  0.5858935202424083  0.6037944320161752
  0.1570882817627543  0.8685993277917686  0.9638541827211049
  0.8397260186058859  0.4465907069401837  0.2573781511001032
  0.6784657694130374  0.3473815129996759  0.4968152683404663
  0.6701860514711079  0.4186324662115559  0.5814731011964518
  0.7542692745465224  0.3488681889719388  0.5806963182677544
  0.6733457397703329  0.5144546663942671  0.5093156906452680
  0.6722312258817080  0.3427260745106938  0.6626160977045712
  0.6611905046921656  0.4164240343521620  0.7509065769785944
  0.1930027517040275  0.4218617546356350  0.4136558623849674
  0.4942352168854701  0.3261630860717549  0.3797663816743860
  0.2754026150131181  0.3405124111589760  0.3821765298262217
  0.3290106952130650  0.3961695283483345  0.5961576108084615
  0.4279149173969173  0.3296206847054229  0.5662737491941824
  0.2430940563496840  0.7279075708702381  0.9639381596007965
  0.4195489284168632  0.7649405854286992  0.4763595035294388
  0.4120543664574279  0.3263751434463470  0.2743022571560610