 B Cr Ni 
 1.0000000000000000
    21.1200000000000010    0.0000000000000000    0.0000000000000000
     0.0000000000000000   21.1200000000000010    0.0000000000000000
     0.0000000000000000    0.0000000000000000   21.1200000000000010
 B   Cr  Ni 
 173 259 605
Direct
  0.8079332476699131  0.3200296998551074  0.8118901467734003
  0.2945388648113079  0.6495297893563291  0.9977592020881600
  0.8270583644130707  0.5119730803577685  0.7589733917663883
  0.1820658254927294  0.6124215036218046  0.6727169488063734
  0.3967916880205581  0.0657152388288504  0.4456169388155895
  0.9865334977186796  0.9040804697094224  0.3671480392988073
  0.1603177321925305  0.0323211699685374  0.4873053453624300
  0.9426214571583335  0.0452911911263080  0.2715749302234794
  0.2442379733402358  0.2901193844443898  0.9539640050917594
  0.2456735400160118  0.3476304437244570  0.3058879719993787
  0.7740963243989489  0.1371288378286900  0.3686248576606151
  0.0764717774038559  0.4480522683049295  0.9202621802776730
  0.9961567400547077  0.5632949228992721  0.4517371167744794
  0.4929770818034462  0.8127626656838103  0.9292902809130162
  0.3446913470239524  0.9381102863957629  0.8938834364604890
  0.7787489827073055  0.0512214659614372  0.1968534030950540
  0.5118675928467020  0.4993222464419919  0.1087675190626139
  0.4673729868274453  0.9224243604829920  0.2242962823761916
  0.0822595059692611  0.7048323268845774  0.8577300913145223
  0.8006712631204710  0.2747349357125229  0.2842193702798500
  0.8770566041042659  0.5787720031761990  0.9150215759362336
  0.8489042921378297  0.7294175356607445  0.2703135059369696
  0.1078582294559320  0.1394506503316820  0.8649636891317255
  0.4370323572643591  0.2801504218106954  0.1915922269475783
  0.2798012759839084  0.7025998450294025  0.3554696721029771
  0.8112327076805642  0.9365848501566788  0.3471376672105260
  0.5485868539887430  0.2673220701075605  0.4269323974481616
  0.4404892880817457  0.4124617299823405  0.3877684964708000
  0.2564852889169488  0.8396469383836412  0.3233826955882657
  0.5287778286761272  0.3322664358798917  0.2758064146644187
  0.0788719677252381  0.6671343967470518  0.3226595286197763
  0.2117561209875023  0.0181923786241923  0.3496629535861879
  0.0597848416072209  0.1659185744719262  0.6986542077821838
  0.4483244621866110  0.6817194080210943  0.2717836816748600
  0.0616066504804609  0.9667059777880440  0.6973274422871323
  0.7588601484533255  0.1428760614618121  0.9568493567900634
  0.3357135787399437  0.5821193125847018  0.2896605675930893
  0.5693516755384981  0.3737636000621753  0.3352609382195418
  0.4867522427345682  0.6138232136746987  0.0892145324813936
  0.6366958455127131  0.2512630240267911  0.8868986952257519
  0.0381907926648984  0.3702672279453429  0.0764885942937451
  0.9554209336890859  0.7568166637919495  0.4063235745709132
  0.3657786941908308  0.2773837952447212  0.0889887341037962
  0.3998641834070558  0.6678759682572021  0.5004047161136365
  0.6688532009673833  0.2077033971194324  0.5022624692957578
  0.2096963206966645  0.0481601865244154  0.2757608121968103
  0.9557333703716313  0.8997894293329678  0.1468660924712801
  0.8043940288012187  0.4424663905376792  0.0032496273637171
  0.3999909700469691  0.9625749137183605  0.0752016006787934
  0.1503212096072773  0.5507915845742754  0.1624136670881529
  0.3874822683037783  0.4313780223907336  0.9008681083443348
  0.9701331608034838  0.8446810786277819  0.6984663066429879
  0.9570893445793694  0.7056556614238254  0.6656413539957421
  0.4386101158104856  0.9125474943295940  0.5921757497936360
  0.0897019832352400  0.5872965229105258  0.2083036019698064
  0.7938672665205022  0.3387092727829190  0.1534936743488149
  0.3888680678301982  0.6976363860480126  0.1418891569819790
  0.0335983264446246  0.1108101076213771  0.4675386708345913
  0.6046857105778949  0.8198797921770613  0.1406265559107754
  0.8918815875682000  0.2272191053619882  0.4037653585236951
  0.9901756098104697  0.4210253300559179  0.3183380883455430
  0.9149872003246300  0.9915501971528682  0.8085489075770084
  0.6194018578601816  0.9090863559920948  0.2297906131692581
  0.9141437007013195  0.3284704326706931  0.4979770137493958
  0.0709716335361339  0.8889432896814206  0.8321690457986241
  0.2388246189989738  0.7648855419385001  0.7266395377592139
  0.0017941682049719  0.4649055701736757  0.7669882045081381
  0.2159604297969125  0.4113233939488208  0.0292990657508547
  0.0362214172008608  0.1013219616774354  0.8804427523583207
  0.0279429870116061  0.0170800294101037  0.7513919353762968
  0.5642145936009636  0.9378260236941167  0.9904623393921721
  0.8322765444911109  0.9225563939040805  0.0599503721659781
  0.0385135598685879  0.3300375720392950  0.2742079187300577
  0.1410144551196087  0.9314629351130379  0.0299637506872283
  0.7745734431303429  0.8490878940497213  0.1834150780280806
  0.9800376989245195  0.7522449211113087  0.0598325900947781
  0.6682197948848094  0.5337418419128483  0.0705311609915841
  0.9308279874979704  0.8286075260664576  0.8988593723540851
  0.7363923106121212  0.7598206383383014  0.0824697815527522
  0.4964044202909644  0.5002597416209386  0.7666585299012899
  0.1075917236797124  0.1197532309423248  0.3926441096202219
  0.2739811068790425  0.0331505614636900  0.1412089660124105
  0.3037220633058353  0.4931105713160878  0.7376226772161044
  0.6796478831163568  0.7581092193559067  0.8570187403074826
  0.7881228063841993  0.6097823738625098  0.0172999058160343
  0.8513058229002273  0.7641893569885845  0.7644943630198703
  0.5053374797278161  0.7344484405623459  0.4733276351893952
  0.6798908195922401  0.8039642392389139  0.3793459463975642
  0.4081787625431537  0.2457918493596142  0.7753169067339941
  0.7313435945582656  0.6655600351000804  0.4333236006162717
  0.3713564249627402  0.3276722586818405  0.6541108288568718
  0.8294465481204053  0.8294853058847221  0.6043785848482799
  0.8166105757879523  0.4058877054133510  0.4103472787545810
  0.8969336523339253  0.2295837801532847  0.7687072830560676
  0.5847430721211531  0.8142817153133703  0.5616168596965749
  0.9142085100837495  0.5655358665730905  0.6225277577780910
  0.7230136361777828  0.7237504709643625  0.4996894771490491
  0.3280326109911396  0.8527397919161102  0.8799103490825999
  0.1811245562369692  0.0457885354041789  0.7612693887490732
  0.7547814143639249  0.9171649626575038  0.7045717350934810
  0.6196513411276765  0.9262927830915212  0.4162830021307978
  0.9011187650633393  0.0317871569505039  0.5510345099547047
  0.2859342224424073  0.5759316468318696  0.2153932536157849
  0.1108340364562542  0.1862306577736344  0.5664477480947965
  0.6626746601489942  0.4305671079259711  0.1743538910595650
  0.6807765578350456  0.8453453827113054  0.9726646426111221
  0.1796275655829324  0.5725472331310354  0.8425653726746030
  0.8151574877469207  0.7052328094813259  0.9735703865831921
  0.3030133801823626  0.6159731184522730  0.0745929544531704
  0.8431573614663810  0.1674664679706981  0.7934205448262779
  0.2200948542871944  0.2634116035999706  0.4244927721772688
  0.5193062183071475  0.1638203175254128  0.7570184333961567
  0.2458589307978804  0.8266816478955546  0.9847186430651055
  0.0394971965804526  0.8135684637285436  0.6787217837044249
  0.5281349256744611  0.0583618063066088  0.1169790752576643
  0.7722901060679587  0.6201218517703826  0.6700269320844539
  0.1638883730096473  0.5057207832789010  0.4340901195370754
  0.5723759056963269  0.0314838433261977  0.2724479119162766
  0.9318425792047627  0.1987991395291608  0.9126132213395275
  0.9426036248376816  0.2296034514380154  0.2684663857488999
  0.3875101567493420  0.7829791414607092  0.0287174102715681
  0.7863641007449322  0.3099193061170731  0.8910599546612908
  0.3572424450980958  0.5941239339865017  0.8599358262879380
  0.3289853742411611  0.5564591726313116  0.5966054973412975
  0.5685448427755303  0.9439914749471044  0.6093647780092274
  0.3419344654594950  0.0733635378382811  0.6440131503530778
  0.1392919271083468  0.6609453949580189  0.6123366215207348
  0.9034801534737830  0.2511751857015651  0.0651507774987028
  0.9813976873782476  0.2544007967340295  0.9462229210442855
  0.0751433160004665  0.4970928867857776  0.6706268318077460
  0.2411478071705336  0.6426527385704496  0.9333697178316960
  0.7833152244055254  0.1333602591338943  0.2068716461466949
  0.3512715130381279  0.4269230737367009  0.5131258980189403
  0.1584526551859659  0.3688593677733192  0.9882858106376878
  0.0615122952752319  0.3143055377540777  0.7053617562104946
  0.0913450916076262  0.9031722385128413  0.5797881467375101
  0.5037052596039252  0.9149965560668628  0.4659322887051233
  0.2087764734692186  0.4049663668574835  0.8478715224389184
  0.9130192116762448  0.4053871537852748  0.6294431475557480
  0.7919144773093326  0.7617588756652962  0.6299874582494123
  0.2828723794844216  0.9985183756853122  0.9978047088141089
  0.3485176214888259  0.0161549405168157  0.3973220473485156
  0.2105014424769019  0.2229769790427103  0.9052230623736390
  0.0766357490970570  0.0730955507059205  0.0751539321534303
  0.0293051618603683  0.3824515118916367  0.8928362372418341
  0.1965057618796512  0.0942302764122849  0.6901079366643951
  0.8009339463700393  0.9039020854644054  0.8783594295397019
  0.2450914300739313  0.5067481775821636  0.9717749875826828
  0.2580149175531452  0.4465134249895222  0.7899708109111883
  0.0436106270012918  0.2495634115711727  0.8137563643741216
  0.3265942178432115  0.3588264775444011  0.3271936346189558
  0.1943557600998037  0.3366509954336876  0.4518910033056819
  0.2847108449985891  0.5907400514217430  0.4531401533592189
  0.4123627657622005  0.1345574252875471  0.0641934388738240
  0.9499369899399189  0.8867501600016412  0.5681895527248229
  0.6874578656208897  0.8009840138030947  0.2949746771815492
  0.6531037912386962  0.6144204674539048  0.0610195682192057
  0.9400777687707705  0.4548198607221055  0.1391621942704608
  0.5974023198210563  0.0712296998255637  0.4240583917787647
  0.9553550758248901  0.1971033260261280  0.1983112615835038
  0.0069836937551789  0.6687732584791243  0.7267832979659749
  0.4757846408466674  0.9329428107346850  0.8346447821390223
  0.9122060211008208  0.8969419475930660  0.2246645016395165
  0.3517024547615869  0.8237667747257152  0.2156309810732866
  0.3905600124167183  0.2723875186643274  0.9482680762876253
  0.5219378536725815  0.5048781138037668  0.2849241792384876
  0.2219960512045378  0.3727810716712702  0.2095495297300101
  0.1160725990799851  0.8151487490453355  0.5181199236961913
  0.7244825473893783  0.7724366663062732  0.6792241850419363
  0.2508796067666589  0.6986388654058556  0.5277737085926437
  0.2016672897725380  0.9211662299788779  0.9014161077510559
  0.0422171284476076  0.2897463834406636  0.4220182623507749
  0.8104791585536194  0.9693180018805269  0.9233093632315543
  0.1006685191822771  0.7935307538516457  0.1944911726609848
  0.0735604416309854  0.6575060586092107  0.9421719708717221
  0.9900262180781655  0.7623985031730726  0.7454621953790304
  0.3873263203478848  0.0812576642748276  0.9628638129770201
  0.8387470763743442  0.3576634617875415  0.6802094433881858
  0.1245344771568386  0.3324476665458732  0.7916783433679144
  0.3241532051946757  0.1645139613535422  0.3505927149733918
  0.2040451768691393  0.0175274230665822  0.0732197684969919
  0.0614546898567920  0.3247022383137147  0.1717659767038040
  0.2497178746061559  0.9194852832172830  0.6488889049812421
  0.9772166866989589  0.7903787882746989  0.6091382143107378
  0.2356463977766516  0.4352263364687721  0.6867717314067191
  0.1541493816076468  0.4716675098984274  0.9791106032687383
  0.2240145402261846  0.3623761664075976  0.6013888806061629
  0.1058556097912558  0.6864141836755785  0.2280512727467736
  0.0266047901615760  0.7349712446162583  0.2676376682315010
  0.1570212513615933  0.6777891450820307  0.0036701190291248
  0.0044849225160384  0.5925246689947140  0.0253250243367412
  0.0577506988032098  0.4816440223145723  0.0296809248068028
  0.2101003829305552  0.8167038882407306  0.1430837336060931
  0.9976668794132268  0.5189421325595673  0.2072964779563056
  0.4360921105880747  0.0932653720753224  0.1594903536038264
  0.3323992277842983  0.1297624745062921  0.1490101721035765
  0.0831929435182439  0.6045349848779090  0.6839931315390183
  0.0776139244992893  0.6017970475946326  0.8468437050711349
  0.0543247359130456  0.6745312849915588  0.0609662495591061
  0.6473599916293297  0.3295949528280008  0.8203634860194621
  0.3448113479129564  0.3325195610273443  0.4934370412210402
  0.9804477794547932  0.3030392095906952  0.0340846578959576
  0.0155239728462831  0.6355582218681655  0.1690509283739889
  0.6061876409346625  0.5400746519786948  0.2420770691449111
  0.9776934415188563  0.6923386929455257  0.9830477967540692
  0.4438008983038311  0.9831065322056814  0.4163173188951957
  0.1631476918792975  0.1414482965519981  0.7725499988317727
  0.7539512275910760  0.4197124253047921  0.6726999263200326
  0.7647273277126145  0.4461239252900607  0.1716881971073193
  0.6784767594592374  0.4625172580801777  0.2635463495531537
  0.6916264140028229  0.3428258299092913  0.1415073079704753
  0.6725065498078815  0.4305294523653454  0.0776615853888799
  0.5168110613882479  0.3440145017179286  0.0111384108674098
  0.6459912233517660  0.4168192879877064  0.8911775855115848
  0.6124112636982534  0.6570308797536255  0.9869215586123956
  0.5658198530575049  0.7636454509279693  0.0611141241497572
  0.7580864038942601  0.5256929135194143  0.2807994700906261
  0.3569096059271714  0.8553958522339482  0.3158547663940440
  0.5573840517828397  0.5796714215364043  0.3450602133275930
  0.4962324121333711  0.7534177469969002  0.5804813284029198
  0.7388475122530136  0.3882029793753304  0.8474718323980841
  0.0698179012880508  0.7736186537331652  0.0109070750301224
  0.6881523234308602  0.0802845912421773  0.3816764387767591
  0.8062751081257461  0.0408285031650832  0.3642307916218714
  0.9052353400643691  0.9965311835900287  0.1021460685840792
  0.8410222225397718  0.0880986714327554  0.1318185939710396
  0.7198763625198072  0.9675213236447443  0.8809447886152288
  0.7483412293487678  0.7819555296117309  0.7828705040770397
  0.6361334556345131  0.9115612344203131  0.9055775424555537
  0.8173169592447146  0.9938750428618484  0.8267847711269831
  0.8010692612270119  0.8319442159170719  0.7061327975190044
  0.5824692578468660  0.6512448613217205  0.2431357457574307
  0.7380231523231436  0.6881345968071481  0.1678902981011945
  0.7667110880391158  0.9019227823334843  0.9787685189364403
  0.7322822789711105  0.9975080522846792  0.9886028351853191
  0.6833493298310371  0.6737137538546699  0.6701411573843427
  0.7688989125808020  0.6739387242009867  0.5867389222885079
  0.3708278792248192  0.0055112184498398  0.1595651070078811
  0.0572857203292284  0.1151873042346099  0.6145670971929094
  0.0134751773438985  0.1014464963310761  0.3671967449078352
  0.5861294370706408  0.5035665167452492  0.5893346847474766
  0.9550135046751638  0.3475622948518901  0.9438335081705754
  0.1845728464166119  0.6789073441774783  0.3150108519010483
  0.6750755692284807  0.7514986771982606  0.5917283268970412
  0.9702075291280685  0.3234902973655797  0.6618695736327227
  0.0414564221058062  0.4485701192224598  0.1347265319620008
  0.1306519220815812  0.3229750236807963  0.2499572708554031
  0.7271167366926432  0.1562743571874116  0.5598673500815227
  0.0945255234364641  0.5615879281856099  0.4880835857901717
  0.0728956653671009  0.1595654987868010  0.3096178342253756
  0.1066787251014151  0.2207877629608624  0.1649801763449437
  0.1237214679956592  0.0606627107708438  0.9267401793763845
  0.6777574242625509  0.8197255376289841  0.5127716250625614
  0.0823314310438971  0.0270647172755052  0.4185254667095957
  0.1558878772334532  0.0875103480416206  0.5932735019439331
  0.0620698630441063  0.5440345994803154  0.9428808915285496
  0.9953431574340993  0.9718605979339007  0.5493434913900761
  0.0370133568363612  0.2346207058973154  0.2416192027563756
  0.0964779447175350  0.0490874876746883  0.8214754122306133
  0.2331465263935711  0.5388200356376333  0.3003344661778081
  0.9417168655442990  0.1456076415950183  0.4441689599717348
  0.9933633613018131  0.2450746430742623  0.1243340828733261
  0.0713341681929983  0.3461541487247735  0.6149155677113491
  0.1509554373679279  0.5566637954487721  0.5917741108397802
  0.4207945725853572  0.2165703643395603  0.3623582858394792
  0.9581894643736391  0.1839559574926473  0.0137286472480629
  0.4528004573934802  0.0447848584635561  0.0555193993595688
  0.0827865601400737  0.8533460300731436  0.4236714424738735
  0.1581072511834841  0.3373128383072864  0.6843123401138783
  0.1462889322256949  0.1134925535551070  0.1322761648473070
  0.4613259425963152  0.0208676481590312  0.2419501739506913
  0.0136385732717226  0.9043762412696469  0.6353500309509058
  0.1547583002939016  0.1760894348253884  0.6594840810265259
  0.1367616999582192  0.2524269309007092  0.4773261405190790
  0.3079354650488861  0.1819510015445642  0.5276401829373836
  0.0525850302789296  0.2402131258814147  0.6316591568384872
  0.9642987207056719  0.0024127776854736  0.0041253817726440
  0.6939870448756043  0.3212104984240317  0.9270007434886922
  0.1349358091011748  0.7634041988226763  0.9220543144131449
  0.1330352873231602  0.1156060048903271  0.2323972588707665
  0.2749573155663720  0.9418348516289495  0.3327208276318471
  0.2838698539558059  0.3221455134621630  0.1372525519335819
  0.1708186268965965  0.9574165168453334  0.4105804621728731
  0.1823618813539123  0.9493229935858460  0.2854322335051770
  0.1012300814900864  0.9490896236780315  0.9033953618711213
  0.2572366813219870  0.9933152788665430  0.4380307716635439
  0.0557038080065904  0.7154478541767140  0.6523319862012671
  0.2461514520235634  0.1208790843788570  0.0890667133747942
  0.3150848007271786  0.9064209107862029  0.7325501555295365
  0.2018747998116516  0.1140077158747172  0.8835963132226924
  0.0431867807082957  0.1100944051556787  0.9847564096694089
  0.3427504689023442  0.0592056505956973  0.0664067566930515
  0.1687285768906176  0.0157046998269920  0.1936538054358037
  0.1203109955518735  0.0443115203499139  0.3219169187050696
  0.2654197173704289  0.0877014586801808  0.8066141525892347
  0.1208806003315700  0.9598965120869881  0.7756939798197598
  0.4088288994058373  0.0060581179805750  0.5892201601673090
  0.0979342743923990  0.0700459145697686  0.7059589286951956
  0.2549277684464596  0.6595867118173037  0.7393265535716080
  0.0619713445621701  0.8436618016330321  0.9192992294548765
  0.9878209993042469  0.3805780526745504  0.4420708518903210
  0.3380397581770345  0.4282447023789962  0.4190802878965410
  0.5851366540959384  0.5018312917304242  0.7335151699652762
  0.7540820917229759  0.3489428654696082  0.5848354615240108
  0.8093513866328133  0.0334984393415876  0.6513579842344995
  0.6560232790719323  0.9487880598364222  0.7647680281516235
  0.6778626690688733  0.8592089743899985  0.7083808023239960
  0.5527145924551186  0.8786422756542867  0.0808325500182212
  0.7055964497958408  0.8877495179429556  0.4422803375436510
  0.4986264202301344  0.0226819110911281  0.3418241497955588
  0.5586466077744825  0.1917356746412989  0.9122314176214962
  0.3442378022913783  0.7873789514994979  0.3876521166192787
  0.2858390036395804  0.9910520240941686  0.2346798482581097
  0.4396859388430492  0.8851064550192507  0.1282970767879174
  0.3411883583929372  0.6815264957435048  0.9171620108327515
  0.1538864038408039  0.1038773728253128  0.0245224754406398
  0.1120081734674619  0.7597591765844800  0.3382947790035943
  0.8895648065800984  0.9703468494487602  0.2943694081017176
  0.4954593015572105  0.1023572823528098  0.4112620627936542
  0.5612356941039147  0.4203587507106398  0.8171525569092166
  0.6246534139417160  0.0985221428983694  0.6225210655843306
  0.4324551425068285  0.5671156617728053  0.8029289826109781
  0.4394416799394770  0.8460160567325179  0.4067661367105906
  0.1840522701662407  0.7908811098458473  0.2616019542744581
  0.3902874082126114  0.7454371806417068  0.6591530552482109
  0.2308689556169950  0.6949190938687048  0.0799702666414524
  0.4051113157775377  0.4840675599637596  0.7407270199084548
  0.3360697828516830  0.5864140232575655  0.7544693518580587
  0.4195606393073830  0.5695716108616564  0.5358754822340170
  0.4109787621600129  0.4961792551343242  0.4521952374816208
  0.2264652918508335  0.4862891068920626  0.1984165419479861
  0.6598729487829461  0.1032716478045445  0.5023616063802806
  0.4095125518012206  0.5322533988930295  0.9242752315751492
  0.5875817161223794  0.1023459279403223  0.9267855144929279
  0.3419329773799004  0.4969440534845475  0.8350450237822843
  0.7193101115476446  0.0831017505981285  0.6741340594083446
  0.7704235819273915  0.1569930329467065  0.8589978685015801
  0.5810174223613286  0.5885963014046500  0.5227536427377980
  0.4688820691719444  0.4697682994050857  0.8591030381383017
  0.4116756986259212  0.4766103751819339  0.5725924057199727
  0.5738393174025959  0.5634313408946872  0.0417877540952032
  0.7593454035910515  0.0681892430235904  0.4651653047342751
  0.4948235522700168  0.1963083739359421  0.1916037457357867
  0.6451409923093855  0.0669371780651804  0.7508602930069926
  0.9691744855956521  0.1781414449796744  0.6332293080316271
  0.5213618565083011  0.5368105190465964  0.9480307793130099
  0.5052031880615133  0.6380422912234908  0.9942394813690214
  0.4992620159046665  0.5948897625320868  0.2537314294391197
  0.4605762116823226  0.7107574359281025  0.0623881967142082
  0.5374105844425875  0.0786663001587753  0.7080434766055211
  0.4875242603518956  0.9728537963585308  0.6645138960140394
  0.4943218414396668  0.4079144738538318  0.7406714800238805
  0.5827719582635201  0.4188564620625785  0.6640322931444030
  0.5375402674018377  0.5470008760488049  0.8421033871793806
  0.5945415733625654  0.7209420188025537  0.8230701449703115
  0.4108047413325305  0.8729521344550273  0.9337827582860379
  0.5043577462178243  0.7830621671595317  0.1382930097088311
  0.6656782485801050  0.2597203086058869  0.4106365027021310
  0.6726800034622449  0.1786508302809812  0.3330376658132566
  0.6024103584656562  0.3855866370655231  0.2359524748755076
  0.7306090257603823  0.3699575107274320  0.2383505576410559
  0.5800829627704718  0.2367504369694590  0.8077364276679486
  0.7261829074223102  0.1080464708293849  0.1231802132253983
  0.8588146034327533  0.9902028070085563  0.1949514496265408
  0.8465739078391159  0.0819417098904164  0.2631353970684921
  0.7320488578720747  0.0849030438217565  0.2854897763886677
  0.3594190977263248  0.0970736783044431  0.5444386584288977
  0.3141856578974224  0.8246395278161269  0.6740697913984732
  0.4355811741304318  0.9972753105240771  0.7634623493849381
  0.7869784815612637  0.0879784945183175  0.0346143161654851
  0.0084882667248096  0.6109608320878025  0.2717307812227380
  0.8412169937337100  0.5774036446276690  0.3023210655830424
  0.8214074996208754  0.5619134890282830  0.5997636500917046
  0.4174789339985059  0.3452091599324647  0.0270718492543675
  0.9511987155425480  0.2799113766321260  0.8562979075582811
  0.7995432103554340  0.1567905521717273  0.6611785384715867
  0.7041376076057476  0.5242174182268559  0.1698030524091211
  0.8500231508928862  0.9419108075767721  0.7342180963995764
  0.9570870407163470  0.9425404718421234  0.7276842931104489
  0.9020599161091188  0.9413841706021334  0.5017836935031930
  0.9013029088741880  0.9584081352598359  0.3991141870433430
  0.8340938808179642  0.8712712113354467  0.4233923831922615
  0.9324844081630640  0.9084794841023297  0.0432925281548185
  0.6883774796305780  0.5844488393822432  0.7298408180556690
  0.8989084040036345  0.8656504550741860  0.3311205045945619
  0.7874357629053002  0.9654717828317227  0.4439611888030779
  0.6970330518379766  0.5871187816264338  0.6053020750874645
  0.8719453059814615  0.8952423817745350  0.9516005613339001
  0.6354875680582058  0.6516437255700497  0.3376661426196962
  0.9079256677608377  0.6785790215261085  0.7487337713055160
  0.8452548019887229  0.6876645331395577  0.1729558832116801
  0.7895071796805996  0.7064671062116628  0.7098000459450362
  0.8667203607920527  0.6184567099380285  0.5350133941888718
  0.9102185051857948  0.6520064853536138  0.2920506337583863
  0.8852352456995003  0.6267785164995374  0.9998152686736803
  0.7891346501674991  0.6273083343298989  0.9114422502893254
  0.8838507204549771  0.2686869753864383  0.9652809391847944
  0.5973837988048931  0.1797008944455991  0.5715220543703058
  0.8988838893512185  0.0374098176456468  0.7258036494018372
  0.7460292313822211  0.4314547952499178  0.4890961476405987
  0.7262407539303238  0.2551940161544058  0.8372013085252725
  0.5913680530992937  0.3419211236803774  0.5828233390778460
  0.8909676861167239  0.6822585994845189  0.9096759796233103
  0.5250139910834095  0.0537373925226323  0.6042671333845911
  0.5487733484805744  0.9913978421566406  0.7613838278769962
  0.5089089562905664  0.2537190931872641  0.7274453724200030
  0.5813174590603941  0.3835567967416623  0.1283819814233919
  0.4802672912383845  0.9741680638822200  0.1393880786381764
  0.5100593687502537  0.1559673866047717  0.0966970417968007
  0.5357978111458472  0.0984849077889100  0.2047704537561247
  0.3334315710707302  0.7228425637930205  0.7436683998574338
  0.5065376639563480  0.5015792367510942  0.5119518701419116
  0.6097903163299155  0.1688480432333828  0.4304242697076658
  0.6124849921336143  0.1659492197104198  0.7274674143117525
  0.5204760971560800  0.1695580868622603  0.6534535791575461
  0.9056599303308269  0.0034930757266762  0.9077611822103773
  0.4019356718756564  0.0930591569301513  0.3522581534496926
  0.9383583573927686  0.7107338710502358  0.2098288708909266
  0.4592538293480268  0.0878192977384948  0.7878227530764196
  0.9175814868600625  0.1659319448965047  0.1160165716927444
  0.8641366720802937  0.3216682179223278  0.5872268482857250
  0.8479364475462521  0.4960025955690300  0.3799430452790719
  0.8497897218801036  0.2394443571033222  0.8590447099164087
  0.8843835921834046  0.3479319903097920  0.0513769252054046
  0.9254143951428985  0.5140999327498600  0.2881009594381113
  0.9317823793648640  0.5282757745926647  0.9946690940841570
  0.8976217516720398  0.4052981551730581  0.3426426521666013
  0.8820902109969598  0.3289414613520392  0.4091041951011685
  0.8129694687827678  0.3512724165009831  0.4930770043325078
  0.8922642518459122  0.4293044834941009  0.4702275200125677
  0.7921016672867527  0.2463863224941477  0.3896513739122538
  0.7466743645693029  0.4451569662513242  0.3523139146007056
  0.3371294760208809  0.7337132132946617  0.5549985304499233
  0.3448350163435692  0.2618290737079670  0.1964437378356297
  0.3892337682089638  0.6732345740348398  0.8201729343773178
  0.3313237478054770  0.7966437137699482  0.9562674209511179
  0.4503526282586405  0.6280150046788268  0.8972874194797054
  0.3058964508730032  0.9568986499104267  0.0747146411308607
  0.2907001665225901  0.8144388191370444  0.7930970194572647
  0.4722418932245034  0.9317549094425726  0.0228911900404773
  0.3129578735260707  0.3725958245386580  0.2382917138248502
  0.3337388939713674  0.4799101189536506  0.6514173800863770
  0.3296565942130366  0.6414515762277710  0.6505120199078335
  0.4484084630689519  0.9140522958296214  0.3167379078677325
  0.3930809116617486  0.7871563095251760  0.1209308751883458
  0.4169300898466102  0.3317017509531643  0.2697766364755882
  0.3562705540621018  0.9220771208277194  0.4089372813866977
  0.3932853955595644  0.8192776011662860  0.7526750726120147
  0.3308457778693655  0.6975339035424019  0.4434488473566496
  0.3899876616568825  0.3323061784257483  0.3864533668829739
  0.1890403452321386  0.4190080895649117  0.4072820080420776
  0.3207224766024356  0.8716326072909978  0.1400782314778108
  0.4962748742042915  0.3206476321445481  0.3682466880520703
  0.2744453565637388  0.3371379126773549  0.4010419761573266
  0.3273029728000712  0.3897941280422322  0.5932694384470328
  0.4281050136832709  0.3330598683712362  0.5700341828353357
  0.4355909701752317  0.3969499492608721  0.4816606007449661
  0.2804481591582580  0.3257134704645678  0.6806110710425027
  0.3139701172661161  0.2940808150899877  0.7938863567908925
  0.4199411287481525  0.4062386909987696  0.6576255672646051
  0.2381606442220011  0.1765925436816805  0.4427640663874022
  0.4055078488787881  0.2253271351543100  0.5408894160963493
  0.4049100142257809  0.1579200336657083  0.4550528753312793
  0.2656085027874400  0.6136203234194190  0.8422726776516545
  0.4077068714618628  0.8219735104300878  0.5814601018673091
  0.4380226881021034  0.7684037486334427  0.3226275205656126
  0.4438950571463059  0.6871436896984708  0.4139091253862955
  0.6352155556455534  0.4872372272639335  0.9843940765170269
  0.1290050499084861  0.7400323943702826  0.1100520856624353
  0.4574524777973727  0.5390364196810009  0.0410656824816077
  0.5055556222287082  0.5885725565421773  0.6048176599400988
  0.1600479584989707  0.8698390793122202  0.9637985702048181
  0.8271664122157901  0.4458855085510990  0.2685168865977370
  0.6735299322746713  0.3475886783523347  0.5026432338709278
  0.6675212057834669  0.4209372166645280  0.5844811741275325
  0.6779955237305988  0.2660729755265994  0.5802457345309895
  0.6669668537767333  0.5171169652538292  0.5103187777538981
  0.6699906094224115  0.3427931667216176  0.6642081269555125
  0.6604319553608063  0.4163243858378944  0.7513841936026529
  0.1749300809695919  0.3039469992432551  0.1469631108736109
  0.4199717714336699  0.7617842119901160  0.4892077861142585
  0.3709369116600894  0.8739826611648314  0.0382234406338325
  0.4842148155029747  0.2469056800551562  0.2782284783154998
  0.4444031419027906  0.8312728902188808  0.2293777707953874
  0.5220281831717225  0.3380146665277651  0.4946492142265669
  0.5829452150774095  0.1046755954686198  0.3356622393332739
  0.3429106713338352  0.7051631812988616  0.0548140971554453