 B Cr Ni 
 1.0000000000000000
    21.1200000000000010    0.0000000000000000    0.0000000000000000
     0.0000000000000000   21.1200000000000010    0.0000000000000000
     0.0000000000000000    0.0000000000000000   21.1200000000000010
 B   Cr  Ni 
 173 259 605
Direct
  0.8089032435979686  0.3186397688339861  0.8120986243509452
  0.2833182303785942  0.6536969333185373  0.9993042009665076
  0.8267782804839516  0.5094425482005080  0.7590159000449946
  0.1814986923349132  0.6099240588322955  0.6706706135181666
  0.0507480690931458  0.9840203045525912  0.9860154770872731
  0.9817377251456634  0.9056527866284352  0.3665458965834970
  0.1547397020627438  0.0474786113544065  0.4833058307665709
  0.9407997878843062  0.0507600829667188  0.2728373074526798
  0.4371768968541204  0.4157485781229784  0.3855180446064680
  0.8135593788427140  0.9373368437088078  0.3494781721220691
  0.7705047741922956  0.1371626030752630  0.3724718878028741
  0.0753566971752970  0.4455825983026580  0.9210100283624300
  0.2555378750447964  0.8390273340649121  0.3228159373706262
  0.0791324939960007  0.6670939175625589  0.3203424601476276
  0.2386614509041237  0.3489293396028016  0.2990114236425748
  0.2430148320076082  0.2877160171430665  0.9534431187391835
  0.8773426990650193  0.5790478357491957  0.9152896785907507
  0.8517100401742779  0.7298526137851903  0.2720793633542121
  0.9531552356697820  0.7552496174001583  0.4070192736483318
  0.5476950508160980  0.7378094106932261  0.7289164913641946
  0.5216454566046914  0.3357936681602275  0.2727206128424301
  0.3995422754158695  0.4876016406097686  0.1132297336776865
  0.4007449405990961  0.6712467955317662  0.5028037267019770
  0.6693473225729580  0.5363819990570088  0.0694832382891036
  0.6649820515310024  0.2066840815626666  0.5035834886970240
  0.7404463943549341  0.7602709379585232  0.0813852833685403
  0.0669356803045845  0.8874685411586856  0.8379146103862982
  0.1024242999626814  0.1190446677414024  0.3907582687144207
  0.9131348638721648  0.3288172446883311  0.4907169520090695
  0.3060914566101978  0.4920870675933132  0.7404364693043864
  0.4406652564880780  0.2751395052083550  0.1956163424108872
  0.2119656568914035  0.0180691572047982  0.3468280525107535
  0.4496213189778296  0.6866377930172177  0.2761892003679355
  0.0632242924369608  0.9689665661873802  0.7018563492042700
  0.7516027535207482  0.1383041551937727  0.9612753299832436
  0.3389418538864606  0.5834666542255168  0.2921590901270709
  0.5653799693435266  0.3767905659405476  0.3331999252634055
  0.4896560171784705  0.6094711780168711  0.0927714744864760
  0.6350803739139105  0.2504892907785913  0.8830565437646070
  0.0367897835697119  0.3680799338332660  0.0783362562537745
  0.0648562860143476  0.1653001330363568  0.7002119710122242
  0.2800421863697836  0.7027992844539311  0.3569735197707952
  0.5354249154113691  0.2759508331021748  0.4309435886014914
  0.5185947302197279  0.5070853492232593  0.1091850865713097
  0.4696216793443528  0.9251644353467410  0.2251786075148564
  0.2031067359883005  0.0444341578180653  0.2714561065406269
  0.9910796017283203  0.4219298401780502  0.3238347235937367
  0.9157649186790109  0.9878177746454824  0.8087210708379841
  0.6204310490045299  0.9081222190329989  0.2304767050920239
  0.3901884762188367  0.4296438808896870  0.9044703625577470
  0.3858234908456611  0.6998461583338744  0.1440982602099605
  0.9581387806566948  0.7059889953816703  0.6657961234095203
  0.6048244085603245  0.8170643478289693  0.1407403101085281
  0.9569748706194598  0.8992086897605801  0.1476992377735317
  0.8046489367216587  0.4422640263671595  0.0021522639920975
  0.8905719308314102  0.2284023817848669  0.3986270002167847
  0.4000937754703664  0.9623571660077092  0.0750628084519820
  0.7934593626217477  0.3384463442812889  0.1556513673064328
  0.1554952748663594  0.5467016092808057  0.1627116867247130
  0.0300989667740393  0.1114322383303026  0.4660376866606184
  0.9707255281147324  0.8442996870933381  0.6997396536715933
  0.4330875011860580  0.9140526410028535  0.5925429697796528
  0.0910906749354441  0.5879890513483423  0.2045786516900036
  0.5094181302885823  0.7334763101727897  0.4696708162902527
  0.0796174432693970  0.7014500864917149  0.8599825757236870
  0.2402623950419037  0.7619651305009536  0.7277211625884064
  0.7744305952906533  0.8506934825962187  0.1816865563327884
  0.9312441831886920  0.8286219341001946  0.9017139214376505
  0.4986199971250617  0.4996521960856389  0.7673581022374113
  0.2755773458542205  0.0323471673335475  0.1391817415862047
  0.6785813058681142  0.7601174532089782  0.8581914708369452
  0.7894906436870852  0.6108407816300485  0.0168871225717973
  0.9820336821493851  0.7498345154475050  0.0587925812061025
  0.0013197733481285  0.4633159382152895  0.7661700500829168
  0.2100075668766400  0.4014410448665201  0.0330191852973370
  0.1291965051741757  0.9579681175967578  0.0114941575126635
  0.9959684362774609  0.5625493958234665  0.4503998340283872
  0.0711678480869047  0.1115618613291510  0.8914826043911420
  0.4939983976935434  0.8120520044374001  0.9293316849010201
  0.0236567805035292  0.0184359476586604  0.7545290821908835
  0.3452426505744830  0.9407539178411681  0.8909386359392715
  0.5653419884582680  0.9378761368283616  0.9924796552257916
  0.4507724457370820  0.0582603670717016  0.5543895462897833
  0.8348624694818935  0.9174851091174859  0.0595473555138094
  0.0405101350526410  0.3290888918903755  0.2756164443763553
  0.8512325172229188  0.7630346560235706  0.7646647994641055
  0.3642432996191862  0.2764106373905421  0.0896574631239184
  0.6844003931972089  0.8039214958848391  0.3799910042795097
  0.3228719274494236  0.3540916846906329  0.3142066481301724
  0.7709398522174437  0.1349455993710306  0.2117523863420379
  0.2105402413267324  0.2157142988332383  0.9024349966628797
  0.6910888587648529  0.7982819516374322  0.2966193985199563
  0.0279615652027529  0.3790519353784544  0.8930206394881095
  0.4110970947714630  0.1345283076407809  0.0614094223010948
  0.8102308428502936  0.9694207965807816  0.9225408491110219
  0.4069124841919868  0.2455804834936063  0.7728393074472947
  0.2570957731104616  0.4451628348185573  0.7900566135299267
  0.3286372291542614  0.8537471688805585  0.8783790564003491
  0.7530748369637389  0.9150408001951194  0.7041790151237503
  0.6222316601007436  0.9267037190454006  0.4185370080695713
  0.9022329813142742  0.0312605817150784  0.5529595933440795
  0.2828313834863170  0.5750315292986129  0.2197618105478313
  0.1125331432305609  0.1853881927719530  0.5648380357195676
  0.6631650030419265  0.4330134706528582  0.1748797635131116
  0.6810937858148518  0.8483233037547513  0.9746309940477496
  0.1780809424040774  0.5696851249411600  0.8411224646223661
  0.1756984467952909  0.0460317246515539  0.7766600519852671
  0.7268983258800080  0.6609872132179123  0.4441322430949061
  0.7216104657253348  0.7251063428118438  0.5029231241726029
  0.8300725207070873  0.1678794926663737  0.7881656900154538
  0.0729992823240336  0.4948870206780022  0.6708243352993208
  0.5158793490193883  0.1610805481116858  0.7550969189661858
  0.2443193021923915  0.8291763707923888  0.9853573526441084
  0.0408379674535063  0.8146973245287605  0.6806112874372575
  0.5261525571615033  0.0560582142756228  0.1216067573672691
  0.7699263976243574  0.6163567175475856  0.6701830689495065
  0.1622341841176400  0.5062202134600247  0.4338004640915920
  0.5770224454186925  0.0331403233650681  0.2653267184805291
  0.5850749356690202  0.8166212191902882  0.5609154520662721
  0.8174103731378718  0.3977008742745835  0.4057722154631718
  0.3897759515791079  0.7845766021690145  0.0262284238886654
  0.7857124404382263  0.3070177744146237  0.8910885340109960
  0.9143653557686610  0.5635465761928382  0.6214181020644917
  0.9799816504623817  0.2515409150368251  0.9494908694320776
  0.8941389564187630  0.2275184130873927  0.7713087173544486
  0.9286017987388669  0.1982449039478707  0.9141838850708552
  0.3033220207914797  0.6210758355620202  0.0735795512567226
  0.8172703703593948  0.7049805193197698  0.9729755057202465
  0.3719950007873100  0.3285075624141606  0.6527279644603019
  0.8287934526351580  0.8308199577152345  0.6062832614304120
  0.5768530560171958  0.1716149763860735  0.9867732609512756
  0.1391951603379274  0.6600904875555623  0.6110792270315153
  0.2840977518714103  0.5906209195716116  0.4549427491952481
  0.1494810741022292  0.9939840518167840  0.6991999587570236
  0.8803783836873235  0.0770969866308551  0.9715784877953656
  0.2380198220954884  0.5151997661213541  0.9666495597616186
  0.0421406701059103  0.2449338825857301  0.8149012550270908
  0.3571232831070655  0.0121024661779975  0.4027828917430601
  0.2890084798587501  0.0063782685245267  0.9957909573359047
  0.3545611092657239  0.4328526389312194  0.5139215944166049
  0.7970421286186870  0.7596941644154878  0.6318636797490224
  0.9148572139160718  0.4015176243413837  0.6289980309786898
  0.3586935170118317  0.5928603911989115  0.8641273595192935
  0.0542606182621589  0.3125944223178477  0.7021728941273754
  0.3287390165168926  0.5577606386625267  0.5981517514918171
  0.0907997805215327  0.9038043672318612  0.5818854408859152
  0.5614270413002240  0.9515103355241502  0.5969391716694543
  0.5063647476692830  0.9125602160209250  0.4704056156265630
  0.3320745437324755  0.0772366683470055  0.6441800226585094
  0.2059459230607302  0.4026804214896395  0.8474042843269470
  0.2392479255384541  0.6488125995061776  0.9282226375310438
  0.1941567423534555  0.3335749787310770  0.4488976173101988
  0.1543144366889958  0.3622943956928179  0.9896466180790318
  0.2232142164483610  0.2591571399594363  0.4236653210666983
  0.2550086490475539  0.7028933042235249  0.5352500879670978
  0.9042280512517850  0.2507836938498825  0.0728897913510055
  0.6520370786333743  0.6170665804443426  0.0621898831701321
  0.0443810075660207  0.2886420918884221  0.4246061554193337
  0.8016080158284753  0.9033031148377182  0.8789987521166139
  0.3893659167413084  0.2709088341612160  0.9475125149228074
  0.4755737104069517  0.9373130866487347  0.8334265572842868
  0.1171482032030380  0.8178804272369226  0.5219795989667040
  0.9495482690736259  0.8897567675466571  0.5728229171168948
  0.9406031309097137  0.4539313252860668  0.1344846587822789
  0.5200755199670316  0.5086522278752966  0.2848946768297640
  0.5877881810366151  0.0690312857150972  0.4154416918995958
  0.2009147576611450  0.9142290469128750  0.9005519931856981
  0.9330925170523863  0.2311834757087905  0.2238391523737066
  0.2150649087014718  0.3684550671053419  0.2123973683626659
  0.0071578381657861  0.6679986144899532  0.7267864679347878
  0.7245531720512686  0.7711125086470212  0.6794669580231598
  0.9125299798095575  0.8974105743725793  0.2243078315366952
  0.3525041267210665  0.8257589919915290  0.2157130179997451
  0.3318963221073091  0.7186567411878416  0.7466199738784015
  0.3423564350648597  0.4963368675394940  0.8373372505892118
  0.2245430627543860  0.4804326305956843  0.2086580496972699
  0.4194954347371055  0.5727306998618074  0.5366697915747387
  0.4071076003671743  0.4847123744195124  0.7435476920813441
  0.2354031253272282  0.6995589670132011  0.0828029058318992
  0.3364106661250409  0.5860493373577065  0.7567109494279036
  0.4123096855237034  0.4989836873400722  0.4542329843460272
  0.6474619847619271  0.0982987041020022  0.5004778157126171
  0.3170498105284935  0.8165826916245348  0.6747880766031596
  0.4073182607876065  0.5290066916809200  0.9286172033504805
  0.4804100858860055  0.8113689309203893  0.6798822993449971
  0.1841818935407845  0.7938200666084283  0.2627125386610796
  0.1051644188056994  0.6850665049206959  0.2236892638624120
  0.0285105695970743  0.7374832511579392  0.2688298986537658
  0.1616038929716271  0.6760915538470581  0.0051435472886275
  0.0065814590112503  0.5920231667440672  0.0297516194292027
  0.0593591362248010  0.4790216320700126  0.0282569213242362
  0.2135870189663202  0.8167954103286575  0.1426307578980552
  0.9981898542386403  0.5208275741951034  0.2072689031487696
  0.2227653208880071  0.3648279177090403  0.6012471478863041
  0.4332428705518251  0.0918831101020774  0.1638169719227217
  0.3319388072309828  0.1283419081170662  0.1494575479964138
  0.0811008447612461  0.6030386220803280  0.6828715777362081
  0.0763444859945999  0.5998345171208422  0.8461832383824776
  0.9738363103031535  0.6021980735377493  0.9129160679051269
  0.9338665528727706  0.6637650595992642  0.0975263783627227
  0.0613794530031722  0.6704490604086226  0.0641679251890242
  0.3405619451039873  0.8304827917813862  0.4888343073990070
  0.4470736288384777  0.9670265122299350  0.4137384870602582
  0.8244693207669173  0.1553227743207697  0.4590838945048842
  0.1642535477699724  0.1461724283871393  0.7618056449599098
  0.3424712551102984  0.3348238424236974  0.4918422209861820
  0.6478835864912836  0.3292937014694669  0.8183375927901277
  0.7555722290149466  0.4160762007371596  0.6713491664269664
  0.7652106277733832  0.4486997937744388  0.1704483680959643
  0.6794250479839734  0.4649434664711916  0.2640478083014851
  0.6932020571640508  0.3477915165488455  0.1384325212783563
  0.6734254857306289  0.4317692971163802  0.0773719009736440
  0.5196544199410064  0.3448371261976767  0.0113446269315726
  0.6494543940214612  0.4148173254099057  0.8898379078821749
  0.6705220515483086  0.6644435981072493  0.8963375944838082
  0.5682365486458716  0.7641426066331307  0.0610809367808894
  0.7581200433872191  0.5285461364363143  0.2889591092891523
  0.5855282246171609  0.4990341720721190  0.5881535960145400
  0.0924351057292119  0.5594049514144711  0.4899576010302235
  0.0092940292390669  0.1023353455684942  0.3638034212050441
  0.0713491112779202  0.1598043459326045  0.3056935392357606
  0.0610551696921682  0.1144666609911171  0.6153095490716325
  0.1054910938793022  0.2205119483187528  0.1751204654509197
  0.9849835748672096  0.2308553947647234  0.7288978212400697
  0.9333492830785125  0.4267170342355123  0.2324480417125504
  0.1847013414688414  0.6789165112765344  0.3129124348951597
  0.1324528768360342  0.3164916697346947  0.2523082624533697
  0.9542432222528198  0.3447835926148365  0.9466998864593794
  0.1554250400185534  0.3368728175444836  0.6830785446038982
  0.9814451680048104  0.2976631778696877  0.0373398869085330
  0.1529868473163106  0.4671587683029644  0.9785526147257440
  0.2348508144455777  0.4356787441015534  0.6842094725795398
  0.1248659292056180  0.3318569688619208  0.7917057314367358
  0.8404532683793901  0.3539640127872176  0.6795633042540298
  0.3333102887407707  0.1599782869632093  0.3489539051793190
  0.3868532334754998  0.0833425011030824  0.9614881491936726
  0.2050957002498995  0.0188739174225010  0.0704186132019044
  0.0818563668911569  0.9691793782115119  0.2497855890828407
  0.3598241379940294  0.0952336072224491  0.5460946405162663
  0.1016374621862809  0.7937327771760974  0.1960986963345545
  0.0783879892673491  0.6562740671520566  0.9458055897384876
  0.6301446062015129  0.0992164287260395  0.6250141887439276
  0.5011489148316071  0.1212340751869530  0.3980889127596496
  0.9903155358002126  0.7621106147314558  0.7456417601018931
  0.1115491853054093  0.7596284238689440  0.3362297912721499
  0.8914565074505469  0.9702783059673079  0.2942142264916202
  0.5620336417497638  0.4196664154585917  0.8153008602474655
  0.9784859061726754  0.7907333694926708  0.6109512567650919
  0.1357567252130820  0.9000147970076915  0.6785119528167715
  0.3349562737680648  0.4297132060240493  0.4205945831015022
  0.1482730636910116  0.1222184492384138  0.0277422271733064
  0.2432052750456123  0.1181848139948516  0.0880329690512076
  0.0608345544379129  0.3254817322806648  0.1731509121411310
  0.1818621361505167  0.1116198967061424  0.8643069891063644
  0.3428634969341789  0.0586779701896607  0.0654392588404736
  0.0296510412789423  0.2362429056175163  0.2458278441942293
  0.2323711154329206  0.5416486393456449  0.3036011574123430
  0.9571557698969981  0.1825775086956399  0.0191358364597463
  0.9889850048539804  0.2465258754773964  0.1372092826339770
  0.4276461004764081  0.2137773830316693  0.3613439740147879
  0.9961086719249765  0.9731234387438631  0.5519066773620919
  0.0920749310331266  0.0448787024206921  0.8283889879349274
  0.0603978983092929  0.5431645456917883  0.9415564931338455
  0.9371958287953999  0.1475323695550743  0.4454383843568262
  0.0738089616605051  0.3457012398871522  0.6133577530479764
  0.2579719169643928  0.4082267101084455  0.4962643801271853
  0.1169429974569324  0.0417170279988439  0.3235315660699102
  0.0594100046764425  0.8396588768013297  0.9230143785694482
  0.4336115178167879  0.5665024361937868  0.8039039018596617
  0.2539248079009140  0.6582165073618911  0.7436958267703658
  0.3924723246141657  0.9995278934745611  0.6092984442739847
  0.0159843524778998  0.9058254006566036  0.6389569131932971
  0.1588641544251785  0.1715564440455088  0.6559178214612141
  0.1351316425220413  0.2527878558175265  0.4735321272576671
  0.3096204571432905  0.1854159792546307  0.5232246272033620
  0.0984987745981704  0.0701575040607559  0.7122081867932196
  0.3693771880705090  0.0049272225910960  0.1585769754603080
  0.1016793686565388  0.9488403015559592  0.9069234435485397
  0.4595304875624913  0.0226959621900939  0.2466152092151294
  0.1391231198081359  0.1089564219716000  0.1289895460080686
  0.0794418893984116  0.8515565923385401  0.4290199479770238
  0.1296122211344339  0.0495125534074352  0.9467756729788394
  0.0790832949955875  0.0267829611186376  0.4190636719391945
  0.1592630832880499  0.0849811014820510  0.5873647910377667
  0.2646648069799875  0.0883340105408537  0.8037205976055773
  0.4524122238650299  0.0448038977530849  0.0562553266665356
  0.9881528219869560  0.3791315083090929  0.4331362938691793
  0.1704008288390495  0.9613139880526668  0.4123776597538211
  0.0538627584425425  0.2392786654669190  0.6302170964368368
  0.1796907938669539  0.9439417220825476  0.2895403683566496
  0.8515698111545704  0.9945098797123297  0.0057680390308459
  0.2627389595851743  0.9963776835403106  0.4359562217720381
  0.6914766750908531  0.3175014183785675  0.9266951344442336
  0.0564029486630408  0.7156377507661007  0.6531724543780157
  0.1356349650648355  0.7604244865406803  0.9225650094742979
  0.2774558850574337  0.7182916573296987  0.8511776179901960
  0.1592026553169338  0.2191539842055363  0.2716456301452497
  0.0424086895662853  0.1123873364651166  0.9894852512384358
  0.2738565588275527  0.9398164836006346  0.3345158824038079
  0.3873278336272135  0.3562315277385483  0.1404029146855660
  0.1186243929917668  0.9574459161591746  0.7841322433522714
  0.6016531207666705  0.1927039885780583  0.1555412948415411
  0.6783132545355386  0.8207822427847856  0.5170186818503166
  0.8671250927223958  0.6166963893885532  0.5372876932969950
  0.8427950255952290  0.0798696185748303  0.2621074046039095
  0.6546911776122248  0.9469023524005216  0.7596752246027030
  0.6744747537395680  0.8576896092596377  0.7082246793776170
  0.5535345447768422  0.8795129034874676  0.0825711921309813
  0.6371057260826696  0.8823114120878055  0.3302254318826329
  0.5057093161565938  0.0275575747898454  0.3464955551663770
  0.5547300955809188  0.1935207409582290  0.8965509538104877
  0.3433876389897701  0.7886755848655544  0.3848015142158315
  0.2840181116445908  0.9903809221542983  0.2379441257020363
  0.4417205677901568  0.8845684589456526  0.1284965327246478
  0.3391303415413352  0.6829913493526629  0.9181880908177033
  0.6126476244682788  0.1641249428756720  0.7254152889039182
  0.5053136707142752  0.2522777871244092  0.7252503385222926
  0.5197849596554701  0.1701400354256719  0.6526905293325317
  0.5425161027015336  0.9925295321154447  0.7586660091859149
  0.9052340582333184  0.0046614686493410  0.9053850839925088
  0.5346717525765794  0.0610956309733617  0.6020012850751341
  0.4082664273467981  0.0872051419626405  0.3528744006900106
  0.5937543873369909  0.1092760173205387  0.3250982719890169
  0.5060573388863396  0.5020405336464547  0.5121178685987203
  0.4801232054146441  0.9738153275101421  0.1408431227052656
  0.6043699152792177  0.1637378157462324  0.4343307660483486
  0.5799558127089937  0.3874456225897301  0.1286454717599010
  0.4184841654738097  0.9932255366533533  0.7408685599400959
  0.4885854965704965  0.9741298900267367  0.6597290507811562
  0.5357943405092608  0.0778852979995050  0.7042619607476300
  0.6455541247331206  0.0642756982187409  0.7473265318865453
  0.4767387273465798  0.2989077573386567  0.1059685425062442
  0.9719169592698884  0.1766140582780584  0.6352255240664355
  0.7257673184968336  0.0863799933681930  0.2943797906054155
  0.7577460643921377  0.0709254403550525  0.4713423208728859
  0.8175977696137383  0.1027224442482304  0.5633742552687632
  0.5840199345133839  0.0982967977553658  0.9188733255770690
  0.6732880076623429  0.7535788925608843  0.5923365274724902
  0.8655256893265147  0.6570207388096480  0.6427442532009471
  0.7322395354070556  0.9996888119192873  0.9922247140987850
  0.5863777231465699  0.6542682669752431  0.2482966910151371
  0.8197425248366021  0.9954227433363422  0.8268514074208697
  0.7463379604890056  0.7809551291706103  0.7827979716556466
  0.7212188291433835  0.9681525397242283  0.8804456615133268
  0.6384569630382275  0.9123233431643224  0.9088546343466704
  0.8004086310832068  0.8305937883956649  0.7074787705090323
  0.7438322813801266  0.6881035628612123  0.1686290944223754
  0.6862958008504708  0.6738155083044031  0.6653150098843649
  0.7662700911383427  0.9047649460682186  0.9811155632968636
  0.8313351317988602  0.0919227562135105  0.1428625284812371
  0.9068025306342852  0.9884081578628664  0.1040802382353796
  0.5824915781074019  0.4180261288236806  0.6646912693671724
  0.5375794675210334  0.5459869061509198  0.8435867302762605
  0.5956002256578241  0.7205282089485793  0.8253850957960244
  0.4121627253729402  0.8744723314776091  0.9325385569614484
  0.5052036274104748  0.7835242703858961  0.1382834070973331
  0.6598545566727985  0.2598540932779942  0.4084336709830434
  0.6696787089783061  0.1836050248356225  0.3365949152844896
  0.4932693316724255  0.4071143798761640  0.7418039444074672
  0.6001112107452092  0.3894101377548446  0.2352905863970407
  0.7309657586545051  0.3733852770264481  0.2386766961443845
  0.5796045965737668  0.2366970599777621  0.8011435863372985
  0.6817504537477593  0.0071190249816870  0.1041177601008742
  0.7212729610805140  0.0838722589341300  0.6759439829862787
  0.7654209938467732  0.1574002382501885  0.8642071639554821
  0.8525223415813736  0.9907082303624223  0.1958596409107315
  0.4555945845702690  0.0768618827837255  0.7829703822207507
  0.5185050532919150  0.5375966781221297  0.9485547008441907
  0.8055146301659207  0.0435195771981418  0.3688879099524607
  0.7902570689150961  0.7041601990559936  0.7102511919495346
  0.0085170822457935  0.6096751745040677  0.2730482591732828
  0.8412200382037147  0.5775545531563895  0.3073714481910847
  0.8212011804653601  0.5582117654478769  0.6015798897042642
  0.4171383397027039  0.3401685476839639  0.0253786670455192
  0.8820973994323588  0.2660432088697219  0.9705593375502237
  0.7885289452567136  0.0852077445752230  0.0382151467974763
  0.6858583277283571  0.5820772488729452  0.7294083013663251
  0.7478739361021256  0.4285599803220821  0.4863455093932303
  0.5906591189835209  0.3410277956888410  0.5830227029622629
  0.8951993034008369  0.6818859928990325  0.9106479505311714
  0.9435273815350033  0.7087711912672652  0.2093050508901686
  0.9235887171093219  0.1713804681348022  0.1355959411718222
  0.8657930385383039  0.3172732580021339  0.5847379742147966
  0.9123071077641197  0.6516842010396940  0.2900980609438900
  0.7529439968111757  0.3471504776286309  0.5823186506354605
  0.7259374056252754  0.2541432285654756  0.8356123829714817
  0.8345110011490530  0.8716132939877256  0.4238886897468815
  0.9498152528679517  0.2783735967097496  0.8589751200998018
  0.9344084127834212  0.9084699040018427  0.0440068376239456
  0.8019226195512408  0.1574236537068168  0.6598635994301045
  0.8962766951129933  0.8655909955415898  0.3307449096172739
  0.7058913366603521  0.5270455679809625  0.1704412805810425
  0.7869477559397373  0.9674795542362495  0.4450155701738153
  0.8495403151502234  0.9419785020247856  0.7344929414469579
  0.8719478463933293  0.8964487518497305  0.9556091681959641
  0.9576191282138328  0.9421465374039105  0.7289673800523192
  0.9065927073951535  0.6771085465979421  0.7458882954407565
  0.9022485506779804  0.9415022766904499  0.5033640854326238
  0.9002565957880146  0.9594019750982871  0.4007653815250092
  0.7912851660469657  0.6276787309992359  0.9118906779150301
  0.8863604996176474  0.6258317762212854  0.0015288339019391
  0.5904448167598756  0.1731093778440576  0.5653174716913623
  0.9044829091532409  0.0373596587344540  0.7278457274753384
  0.6081381872199199  0.5420252059500629  0.2452842439533203
  0.5818757496687084  0.5888051715967263  0.5250015705933562
  0.5012668877538750  0.5996038428632123  0.2557752023453898
  0.6851592983849161  0.0783792429333495  0.3874173557103718
  0.7407210313436186  0.3854335640117585  0.8490377965133872
  0.5024873800683366  0.6370414468146580  0.9963483608885163
  0.5579731329570767  0.5809389848798517  0.3470103253269130
  0.5733197999304088  0.5635885272903309  0.0395523121986460
  0.4958056268423306  0.7559059548062972  0.5836320943379140
  0.0712933322610522  0.7697138438450011  0.0128258220984388
  0.4129905786014034  0.4799035511416759  0.5744433188043090
  0.4694086863905698  0.4674797817865054  0.8589662512918613
  0.5877934648970389  0.5035955116846424  0.7334265910556933
  0.3579092968255835  0.8575817072170479  0.3154485274055328
  0.7694400828306370  0.6732240998208924  0.5877314078802558
  0.4622822067553661  0.7107484226778369  0.0623313978493781
  0.6379601268381161  0.6517774049651990  0.3412790250870606
  0.8491696696130856  0.6877647721789961  0.1762578566062029
  0.8854280100479183  0.3465973872076321  0.0508569453960437
  0.9344944936084422  0.5287821024401806  0.9929552183580515
  0.7476773304184260  0.4409496862615043  0.3528617758461945
  0.9752438023609219  0.3217422592181532  0.3492057498443377
  0.7892045452251261  0.2436187325996436  0.3893686962355792
  0.8478343454911549  0.2349647313818397  0.8593942569365133
  0.9258848517117243  0.5141059352589661  0.2880485414959249
  0.8470663677875490  0.4912680452039048  0.3811195721165972
  0.8986938126496367  0.4008315053930261  0.3358507782846837
  0.8114850073544730  0.3484122398973314  0.4930043749098587
  0.8895054033235121  0.4265349095229667  0.4668154942194833
  0.3403510484057948  0.7351120186953861  0.5592157612127111
  0.3909227443582795  0.6730504340995133  0.8226540011777881
  0.3327371651940276  0.7972518863331622  0.9547213675968874
  0.4503225731134047  0.6259533288197771  0.8986392111789789
  0.3483854901150839  0.2615393838315812  0.1940237322030377
  0.3055224580729249  0.9552050672267332  0.0682284061259316
  0.3321397949839792  0.7029996874267179  0.4460352987329014
  0.4742956367026691  0.9322697990053325  0.0247034558348673
  0.5044225587342956  0.4158549471984030  0.5789073554619774
  0.4393965851378702  0.2814332667947177  0.4529782344163134
  0.5202492045097942  0.3403573627514330  0.4982652704130753
  0.3949687450589973  0.7874721642456445  0.1175650906323065
  0.4531920955047694  0.9122930326909641  0.3152882840241319
  0.6054834801244879  0.2645424457985600  0.9787605013592950
  0.4444795891070882  0.6910126068444529  0.4153698381866301
  0.4549120882694740  0.5340779341324909  0.0444677745480402
  0.4462730536586678  0.8335094922392429  0.2296245319961371
  0.4878043081253201  0.1354658687193502  0.2896364374643390
  0.6110270157328058  0.0892675972990457  0.1168333254737648
  0.4396809360970632  0.7715669890313042  0.3237808043534158
  0.5538094655438497  0.9935291196999678  0.4518471786136521
  0.5969135908809247  0.2908335203169513  0.3100529908449706
  0.5041356297993123  0.3344027837668361  0.6540838547003259
  0.7583636146577961  0.5022185248646517  0.0621475961703643
  0.5225309902976266  0.7758402055480130  0.3936384626783653
  0.4199573003539285  0.6640414100952829  0.5956865707817742
  0.7454176646079523  0.3417278648427041  0.7487543804585727
  0.2466129692237334  0.7331007627888396  0.9657294655570388
  0.3441888163886820  0.7070369825720639  0.0479208509347240
  0.1334468533814049  0.7342380632533440  0.1144593259239244
  0.6394894038954860  0.4869768880020914  0.9855048819041857
  0.1751176822900854  0.3027560639647223  0.1494413130564936
  0.4236612565666680  0.7643702742535416  0.4929601674370475
  0.3745370830914041  0.8748320056391136  0.0375095334085932
  0.4826867558223839  0.2537157734240416  0.2771101017279153
  0.4185957266316473  0.4078537363711049  0.6589417407166913
  0.3136533999844143  0.2949385422392241  0.7936628104921712
  0.3345388880758616  0.4821668517727061  0.6541306694875255
  0.5053602015454464  0.5873319074566725  0.6046812376346751
  0.1567573376434114  0.8687828343764610  0.9660444887082198
  0.8250269160221662  0.4508792542019844  0.2681368004241752
  0.6710366588289310  0.3466431605739961  0.4997216124190857
  0.6667616545169978  0.4183213476590484  0.5825400190577187
  0.6756416395849193  0.2642979221793760  0.5789747244647965
  0.6677798908762573  0.5143221177102061  0.5122447434412325
  0.6691245920901302  0.3420158023988683  0.6638565474633616
  0.6604107146244880  0.4160605971927744  0.7510601972983837
  0.2493686688157760  0.1703991700630420  0.4319556640792607
  0.4041962308330063  0.2309294959308074  0.5369359799582729
  0.4040156222232795  0.1633469581498277  0.4526121885552826
  0.2663337918802551  0.6070528256519088  0.8457887702268062
  0.4063756653588275  0.8221047395173480  0.5902340015552899
  0.3240532184121589  0.8726020481659726  0.1396249834908921
  0.3058898529171828  0.3841503616039023  0.2282062530146671
  0.2806346685255736  0.3273942523783588  0.6784158889516894