 C Cr Ni 
 1.0000000000000000
    21.1200000000000010    0.0000000000000000    0.0000000000000000
     0.0000000000000000   21.1200000000000010    0.0000000000000000
     0.0000000000000000    0.0000000000000000   21.1200000000000010
 C   Cr  Ni 
  52 259 605
Direct
  0.3343134234264762  0.1667586336425059  0.0846204600588732
  0.4996156680308132  0.0875039601526481  0.6674148667239757
  0.4109058947011759  0.9236434765146255  0.2489269186134741
  0.6572448282956143  0.4960309674978318  0.5769318745858296
  0.9027626455488335  0.6561330507385318  0.8290812617997027
  0.1608971559695309  0.1659877078276078  0.0838034541920523
  0.6547680316941242  0.5914990590746506  0.6733758630919610
  0.8393349632548731  0.5003540580351450  0.7597040428573252
  0.7445318955951555  0.4064487779445169  0.7584534538516290
  0.8336297124349276  0.1663854446140334  0.0848677214200111
  0.0789653561302215  0.0835974273456640  0.7506285075714854
  0.2418083003208407  0.9179488372325472  0.9148563747841781
  0.0892461745355481  0.6742636446161863  0.6699759127705479
  0.1610649589236741  0.7469618698573282  0.8323072987529676
  0.6685446281472242  0.1671709703781678  0.9195358905492058
  0.6657901052586747  0.2491140834956906  0.4992750099123694
  0.8384813003150118  0.4079434529717039  0.6625923619948416
  0.1628588916257047  0.6663270883300997  0.4150916609816883
  0.0802978677611996  0.0832694764002313  0.4164077868945704
  0.1646062299795446  0.4138893603195650  0.3330094359694075
  0.9134143318595186  0.6683800841164217  0.4984123897456990
  0.5768868489583803  0.4122726752610766  0.2513328804247785
  0.7427724239149877  0.4995888246756119  0.1632624814017551
  0.9987464660496326  0.0006997098027042  0.2504163497282447
  0.4165538857781695  0.9193867301897122  0.9224800577481939
  0.5099488726558550  0.6512458195573967  0.7342541558602101
  0.7466044067741521  0.4983736771951142  0.6660614108312682
  0.4997344954252726  0.5782525844077502  0.0024118980582587
  0.9233949866692420  0.5031885596226497  0.1659028675371462
  0.5646131165187923  0.5948213852968521  0.5816589055989339
  0.2537139239170513  0.7522379643646706  0.7449845628288617
  0.3318997693742970  0.7561135901639483  0.1676062901562209
  0.2525847356668818  0.6557614928840017  0.8339754164715765
  0.5006055595615002  0.6696253881442836  0.9124514942415729
  0.0058679427771063  0.5776773150561614  0.6679501083869748
  0.2548644871891325  0.8386054379055159  0.4999286524052119
  0.9973612400729872  0.6636301882471298  0.9228024624692126
  0.5783070771059663  0.1661182850714275  0.8283133391075633
  0.3284799492787971  0.5749487497080754  0.1678416943573878
  0.8371293189717627  0.5945678175026696  0.6711767513162981
  0.2462708946439709  0.6637955900258756  0.0068426719087093
  0.7511777242010015  0.4092410892102709  0.2550503021361922
  0.0760350877665116  0.8402475526707910  0.8322648168030767
  0.7486330844845528  0.5931121229667187  0.5723030746372507
  0.9108074073054515  0.7545914622615989  0.7443917828401968
  0.7458399897572054  0.5917893343440348  0.2550869454682677
  0.5023788918063743  0.8359104509653116  0.2492942116723776
  0.4132554822549684  0.8292569649970882  0.8331624419938397
  0.5046968964651208  0.8329152662323209  0.7450810991183351
  0.2480527392012108  0.4123527278697857  0.5816234769484516
  0.5004252191143052  0.6638281246453692  0.2491373966094811
  0.0759661765016212  0.8366856190741848  0.4969983439760943
  0.9953047457499681  0.9217104275652366  0.5838470043983719
  0.4976300976702089  0.7527420069046770  0.4191872808737100
  0.6628564809648895  0.4963808700882063  0.0013801251105458
  0.5021415416172783  0.9249865524504339  0.2494985849645871
  0.8314397165399168  0.7532443943347696  0.0847644325094424
  0.4987283398228056  0.5788205168492754  0.0907500722815019
  0.9891839985036867  0.8383033820018537  0.4995314522353743
  0.5905757843704051  0.5825787161631014  0.0010805404304139
  0.3301144925115820  0.4930154333471160  0.0004465992640181
  0.4955989987610042  0.4125982654196604  0.9188239745330324
  0.9984234599321227  0.7521928756300349  0.2492673836689501
  0.9152022385786095  0.6694814360228604  0.4075786283333008
  0.0783911163567758  0.8349881975351549  0.0863036775181296
  0.9968221365694514  0.7553865039922268  0.9190078021170350
  0.0773727042285731  0.0024417192983990  0.9177918844931573
  0.0832431820514022  0.6665657830384425  0.5772231853668531
  0.9079320207089536  0.6667667380927651  0.9197304619122888
  0.0032052763377270  0.6645715829556189  0.4989809369294909
  0.1631384779250993  0.4132201505585665  0.2441471737062623
  0.1634699001102235  0.2508774022514754  0.2505176742658105
  0.1640191683177236  0.2562292046535289  0.0830040543153635
  0.0813480979812988  0.2485853446279621  0.6653826324981417
  0.9953755334037261  0.1678112851450567  0.5031147580065557
  0.1696132812430571  0.0849965652279683  0.4172947425677334
  0.9973863209512362  0.1690536417406731  0.3339370458219158
  0.0816201462379117  0.0029544096197107  0.5836914420825841
  0.9873938680919635  0.8375558637738884  0.8344203715609260
  0.3322147902949068  0.3281112301390617  0.3329595241754588
  0.2443540388540634  0.8286205803060636  0.9180919212133869
  0.1574994750824532  0.6658755418147989  0.0035252384959056
  0.1641386527734517  0.3225257222942993  0.3336456143301202
  0.0826407600413551  0.4137102201246128  0.8356437941191759
  0.6639816541532547  0.4114053407737906  0.9212589006218257
  0.4139300831479015  0.2473464103718328  0.4995968501203465
  0.3311240800379476  0.4938001554450610  0.8345281243078246
  0.4147761849970383  0.8348752457188982  0.7436788921510010
  0.0805788214742309  0.9945198039551706  0.4138408523211736
  0.0731040194930509  0.7502217202262330  0.8337980401577584
  0.3310487932123663  0.2568894156588253  0.0838437500614022
  0.4126354113788285  0.3288803202961815  0.2520455409381122
  0.3302747934111778  0.0771829929079718  0.0825356660123670
  0.0739521722052192  0.4130690734835146  0.3338443091116677
  0.5786329510349861  0.1673336272510934  0.9202953466012537
  0.8338192235496538  0.2493378253556128  0.4164094123208886
  0.1626405543137146  0.7503782280182463  0.7402879918210854
  0.4902784301957774  0.1695523302785509  0.8341183064468026
  0.4156903656530055  0.9191681695523495  0.1588587661062622
  0.4128275993301828  0.3318948069547393  0.7499473308569911
  0.0806259933308003  0.5830787483376625  0.1673493007228838
  0.5015274709769689  0.6685221750907689  0.0034324124926235
  0.5911218279169110  0.6674877250853155  0.9180219678135270
  0.8319640250853637  0.8355727378813826  0.1665612884619903
  0.9125489527916525  0.9154536153447200  0.1665985962027320
  0.9982577435643468  0.6669937099727264  0.0115705982719279
  0.7449701842516596  0.6701002280935030  0.9231462188949547
  0.2499633293190763  0.8376627580860633  0.5915012000290442
  0.4993497797992150  0.8375203316918048  0.1595045379310932
  0.1676612804956633  0.6666503499255750  0.5043096369186041
  0.5796527430661337  0.5832223078937165  0.3387190493736780
  0.5651551023832126  0.5858363968886875  0.6723547923031534
  0.6658366388666385  0.7543776793711371  0.9197012543119401
  0.4932022116616693  0.4115157348340105  0.4148891089434564
  0.9150978371936135  0.3317017409075304  0.4157350165281639
  0.0790357316239709  0.8334257399524500  0.9233875911703382
  0.0798169937659003  0.0001847224162721  0.0850485433779483
  0.8317509653813832  0.4991052498821273  0.9991847373125058
  0.3303766308974851  0.1672336483935794  0.9944281269250616
  0.7464419783344731  0.5887937559466140  0.6659000896361821
  0.5799896466441989  0.2578175529670111  0.8324315815584822
  0.6671779628474237  0.5808437069727527  0.7613058271524772
  0.4986796276329372  0.1678069446713824  0.0009906175219042
  0.7485272997549796  0.9193709913202462  0.0015440576496671
  0.9988398922937051  0.1662865710426735  0.1674760362481985
  0.4974782051116586  0.4887477481566984  0.0016945157196953
  0.7494944414220215  0.0018847449952104  0.9170160192548825
  0.7471170666148951  0.4089686801583108  0.6660341225722735
  0.9169100995878301  0.3312392578539448  0.5821870584290343
  0.6686937940621581  0.1668923237825545  0.8291787944132786
  0.9149894966692339  0.1666456274799600  0.5823721179163686
  0.2490668555335842  0.2468249420667245  0.6672690557536077
  0.3299993663786774  0.0839318679213108  0.2512168741358401
  0.1632550799817574  0.1665195128817833  0.9940444143981088
  0.9153486176534280  0.6661282980100858  0.7424881074908269
  0.0791298877290994  0.2490787137362419  0.3332498259597433
  0.8328797160188359  0.5908683497875438  0.7613513949214015
  0.8354474194143613  0.4099169974628042  0.7540826574845569
  0.6611785922486396  0.4966490478528994  0.4873396249595688
  0.9164870080931501  0.5770051359848956  0.4975379087898535
  0.8359192184734855  0.5000237367760861  0.6689141273778691
  0.6554786652055432  0.4138039076564438  0.7500506237927447
  0.6650220862915784  0.2505191625182993  0.0853249307783920
  0.1645620738132427  0.0844791312047387  0.2508330095067313
  0.8322640373692534  0.4972632288158696  0.8478059976989289
  0.2481181156478778  0.0037383901614318  0.5841517398495385
  0.7493270943598187  0.5884730953536881  0.1641275827339883
  0.4110576861409261  0.6621333206956651  0.9193808230348619
  0.4984899746328331  0.5764007274487384  0.2519330848039796
  0.3307887878785138  0.5813118874243103  0.2572373301086488
  0.0812457068248044  0.2497718120206915  0.8355056080845785
  0.0831830187991791  0.3295900307397980  0.5833084672555481
  0.0046054870221027  0.4916132569700734  0.8357024985224635
  0.1640674680058428  0.4133045170930740  0.4218839922545555
  0.9153695343059693  0.2490110999015901  0.8345821929482542
  0.8316447919498778  0.8368218307190599  0.3326969915060994
  0.0924053185117845  0.5800584395359030  0.6645989845827186
  0.8319479587690115  0.9191735220903308  0.4140378760308884
  0.0000621441615510  0.5799540173942000  0.5760130856200670
  0.8283166349783290  0.6821944672041490  0.6664523906088167
  0.4977722512967361  0.5780625734434046  0.9132096221999992
  0.4988936849664087  0.6698882552083248  0.6478234254377607
  0.6651708181838250  0.8372761821279532  0.3348395092650041
  0.9122635723272524  0.8393249486849604  0.5813869167676018
  0.4163760722817800  0.6593596568474624  0.7428255439103587
  0.8335731366839004  0.4981254492599703  0.1681979613964056
  0.5798712604309881  0.2467863001346275  0.3350642796080602
  0.9117482358748904  0.0009457188398037  0.7490727436293446
  0.4098802995106944  0.6679924751244902  0.2524508904532842
  0.8291546998384675  0.8374025857742307  0.8376726462004315
  0.4963520098557511  0.5824407838652087  0.4166620687969934
  0.0007796392920314  0.4962927659977897  0.0027186249278336
  0.0812265189572050  0.3310005466578715  0.0837186841358533
  0.0840686763317903  0.4117039195660349  0.6657201649772350
  0.1690244711217598  0.0845042612750002  0.7505602369093358
  0.8328228267625656  0.6685187424137105  0.3336911476238159
  0.3320040278004693  0.0041531327327912  0.6657295207347583
  0.5048429461068626  0.8347222508759926  0.8350380367286969
  0.4997477060851029  0.8375812832367141  0.6566840232065564
  0.5791233397717406  0.3307894550743439  0.7497933184730685
  0.3308981076837872  0.4970085361004984  0.3318709398552929
  0.0822727454582519  0.3316244416630299  0.9162758987820468
  0.4998135046833545  0.0826972825872224  0.2503465337254479
  0.2456663932230874  0.6658188849969846  0.0952540408844730
  0.5827170996524881  0.0830932498698837  0.1676945442783166
  0.3302474357740393  0.4873439484686321  0.1679745970470801
  0.1659743592442621  0.5770814576304260  0.4144461542204451
  0.7432412620104585  0.1664396009171481  0.0854339176129977
  0.8313432653166998  0.1651177781986099  0.3334735482231501
  0.5805718493727664  0.2473848941660263  0.1672263849326163
  0.6655205135593508  0.9199963111635744  0.5825237943698316
  0.6665776957174638  0.9213611061433971  0.4162049716273702
  0.6650634312779815  0.0829126062964115  0.4161481961043181
  0.9165430404437170  0.3309908603177469  0.9172119903996869
  0.1584837176208138  0.4119047860385965  0.5813853702128287
  0.3303362180764611  0.7516502630734354  0.2560785409469398
  0.4163254776031835  0.0075705939210036  0.9169791871757395
  0.5834093804846946  0.0040283639285598  0.2492798493319767
  0.3319369372154914  0.7529630302110417  0.0789663322008679
  0.3302187075388255  0.8453648222943553  0.1649322745573115
  0.9133254661257636  0.0020334492391817  0.9167652141610914
  0.4985368924717293  0.9996958097148697  0.8335218088473780
  0.7492316196853714  0.0824161697427621  0.8319734526958630
  0.2497948121898119  0.4141368486527057  0.6709336344460342
  0.5794295263033934  0.2507210600990060  0.0005402396585302
  0.2517141424217758  0.5758695001105488  0.6648523077453421
  0.2488647058617433  0.2479745818178445  0.8347792901535566
  0.3307430422482503  0.1677946423308563  0.8328203053193801
  0.8331477923829779  0.0765167347890891  0.0847911142041410
  0.8294029180187225  0.0042324306597636  0.6663925437781303
  0.9157548960537263  0.3319667127553414  0.0841052402668506
  0.7488848422212100  0.0852497787482481  0.6662678997889930
  0.1655239665123202  0.8395328152363970  0.6650047466506468
  0.6656731333298307  0.2458750430520964  0.4094449421247697
  0.3328733673166801  0.7520592251439239  0.4158095093546403
  0.8342480427382148  0.3313321805826397  0.1681955093391798
  0.5843687826291041  0.9188819960603958  0.0010392744108143
  0.2444558852158653  0.9183737512784601  0.1662078572723382
  0.8320926522908785  0.1665278039351382  0.1741478345734813
  0.4158421705347915  0.9219429319875073  0.3394514441117729
  0.9125782284009163  0.0024606587668518  0.5830756168144621
  0.0719352646359028  0.1651695932690286  0.0847586710471329
  0.1635635108718475  0.6664676297788997  0.3254084930831304
  0.9113523194799492  0.9159258797324642  0.3343921554180700
  0.2517504520525355  0.6592470819924099  0.7445094903332354
  0.2475483894929601  0.5808759869319500  0.3315878435757453
  0.6670152227842165  0.0763808777947806  0.9177701410921937
  0.1654863534122753  0.7557313932566744  0.4153481125822708
  0.2511083996140840  0.7482889171998480  0.4998745058211854
  0.2500597238879188  0.7463744106990201  0.8339442993027401
  0.6658702849234968  0.9208618475688023  0.7484666911262443
  0.2459957719485925  0.9200098145592126  0.3336446955597509
  0.6636821145559432  0.3382783850955571  0.4979456049725439
  0.1586148532567482  0.7534071072292567  0.9230902569896828
  0.2466295803159639  0.0078052820690403  0.9159124261350586
  0.8310796603480269  0.8395503957419821  0.4964324375008324
  0.5933821989126749  0.8376016443479924  0.7497978152327337
  0.4147717796186668  0.8308167634013074  0.9220651190248595
  0.4142093608569181  0.9224050992599631  0.8309486853421008
  0.7489249555362899  0.0008584932551490  0.0851193492159645
  0.1657502685563053  0.8385053648167943  0.8324713010384585
  0.2477557633172938  0.9282581743059887  0.5005938324269605
  0.7497256955826863  0.0838523287567717  0.4989405031512573
  0.2529728603389861  0.7498976662253369  0.6565742495199113
  0.8365584050821969  0.4127481242241898  0.4160856692470390
  0.8393009816861651  0.4162403162628462  0.2503020951598312
  0.3318013795150388  0.1639748205146347  0.3328961737614017
  0.0001193246626372  0.4972432710723786  0.4984114811338774
  0.2409749564667014  0.7523790224151903  0.1659681994320871
  0.6617115483609554  0.4059030069163209  0.5830030247007226
  0.3339854094100189  0.6655111316076154  0.1671418657352468
  0.6609900426890094  0.5842318101777649  0.4156435251629925
  0.4090597199412922  0.5795244120956262  0.0001618489302090
  0.5797238618534243  0.4118876785532027  0.1625326400988296
  0.3324700890740483  0.6673485625871179  0.4948793650685975
  0.7459682026705458  0.4986532589012709  0.7567429524078286
  0.6665146587086704  0.8354207886156327  0.1649502143595521
  0.6652142795855936  0.6814146758958247  0.6660738978968883
  0.4117777986491141  0.8346115034824768  0.2515427173705421
  0.4998851693219479  0.9981921642702771  0.6638401174805199
  0.5846123539688707  0.0010045290501725  0.5811698567586919
  0.5839943527280754  0.0028519116435865  0.4169682402553260
  0.4132411870997001  0.3297487545225479  0.0841761093751032
  0.6664517516300339  0.7541698146184282  0.0853665207026546
  0.3418377045161650  0.8359354664846833  0.4987301511545898
  0.4142032046196504  0.0118967445843680  0.2505748656587592
  0.8329852507458928  0.0819459788588111  0.9168062243918428
  0.4144048578489593  0.0038939609643756  0.4167669136095574
  0.5002140904616955  0.8374116365923455  0.3396639049891605
  0.5817711176758295  0.1676167190126173  0.5839684379807704
  0.3337976629125056  0.8372821285418057  0.6632384316545793
  0.3337494745310091  0.4977158680379288  0.4962289066647193
  0.6643634466896041  0.3305797486705533  0.0027192507333479
  0.7569117645415889  0.1637777115963928  0.9163734912131999
  0.3285693809616013  0.9188416395057555  0.0822977570266589
  0.4148945651668293  0.7513850715149690  0.4970836487105573
  0.1769949921517647  0.6626412985472332  0.6638652396900203
  0.6549952830720591  0.5840621254418753  0.2553383639457746
  0.6654079879187891  0.7554812490401893  0.4152958206800687
  0.3291064065354467  0.1690064313603016  0.6660407057682955
  0.5783320282462808  0.5843385106380984  0.4908754994145408
  0.5775358807832134  0.3333761548719459  0.5817671644052821
  0.7498278698963172  0.4101821698485082  0.1646847900527288
  0.1649334583053492  0.0845633004743436  0.5830048408104594
  0.9118422669327028  0.7513918480699417  0.8358066654751133
  0.8325140906604793  0.1671755017760562  0.6658487852955488
  0.8370912825137845  0.5831188587650750  0.5793480978419373
  0.6636113141117348  0.2479062775914420  0.2506364093072708
  0.1655992473021086  0.8366299889020186  0.4988007254550081
  0.1646196520640738  0.4950055517161215  0.0031187272408976
  0.5804498686848959  0.3215358077932174  0.2515562527852618
  0.9982506532658864  0.1664010784653416  0.9987080775269217
  0.5684021027182395  0.4993663310915992  0.5800954874912870
  0.4127020894138981  0.3334259798729194  0.9176403593798745
  0.6572337058443354  0.4986639209639582  0.6686240023460783
  0.8360082700827424  0.5834733177979242  0.2515793438203013
  0.8337714430429074  0.2566898376568580  0.0842374924465366
  0.4234260372771150  0.1671646649145844  0.0836475045427677
  0.7468509348241200  0.5002560832551591  0.2545099916005701
  0.7489242059126803  0.0010838702490820  0.2502599387078571
  0.5774561640893714  0.4123017265111325  0.3408279630028145
  0.6580249623952357  0.5870676823133906  0.5816370504806512
  0.2492808883480625  0.2467612317958813  0.4983510450937685
  0.3290032067499221  0.4136550525215881  0.9163851610203461
  0.5898138453543177  0.6699242287094604  0.2509943301088610
  0.7477969377146670  0.4998522926427673  0.5755051395440898
  0.6631819641233281  0.5816529052215829  0.0832544798445193
  0.8247078330582859  0.6685193588224843  0.4992373503962887
  0.3325906542026340  0.4954270932032261  0.6669135526784197
  0.4142949991685971  0.0031752228588742  0.5814712064095995
  0.4128393384012063  0.5758945363205425  0.6677347526799914
  0.0028128814220238  0.4905924444164226  0.6653234516449271
  0.0821404380572009  0.5797631391214235  0.0038165180333997
  0.9987652763128451  0.5809031856236238  0.0843953515217894
  0.0074429024842456  0.4966344464999733  0.1673935405736903
  0.9976484776280258  0.6677586316496077  0.3304189805524423
  0.0825883568325664  0.4972994819891105  0.0833966703104627
  0.0811978308369125  0.6659306668381156  0.0873284236798351
  0.9145010661258992  0.6694675133541809  0.2505544473453841
  0.0841057240138120  0.4952715379418415  0.7497760531268569
  0.0809654248275944  0.4977095230731906  0.4158573560339868
  0.0811599120386515  0.5829342131563621  0.3323461639547225
  0.0812504682489422  0.4983904216301775  0.2511743400989993
  0.0847790238585853  0.4979206961220676  0.5810185268306906
  0.9979263241955890  0.4135241685413733  0.4170301710695772
  0.9995047480945559  0.4987158023310923  0.3333676644912251
  0.0833232034299496  0.4958624433287499  0.9203153592285107
  0.5818813349534356  0.0009480994429350  0.9179162397654174
  0.5812722766410294  0.0832653191319038  0.0011034705525244
  0.0003560234661979  0.6687712091466507  0.6646696453004071
  0.4146413415313668  0.0842559707210946  0.8335751926783849
  0.9958743231900253  0.8350758714995928  0.0027840186436386
  0.9970233567595750  0.9173624767306489  0.0840455127859552
  0.9968883504527661  0.8349945411012707  0.1671789862755675
  0.5831160802436448  0.0789192311059851  0.8332131372065491
  0.0803882779836504  0.9172491216512977  0.1659713393370494
  0.5813420504670727  0.1669666740547449  0.0840304986560597
  0.9945128378193764  0.9178524509880924  0.4161730229886285
  0.2458854297357145  0.7532606532639261  0.0031277617986724
  0.9975206263256611  0.6630681544841974  0.8335787820485177
  0.4985236798989131  0.1644016832106697  0.3339680455211905
  0.0780663215702555  0.7513137513888712  0.0053009683281184
  0.4990304367597649  0.0028175772639620  0.1647244660945110
  0.0023550856593847  0.4108550190366548  0.7520811455312292
  0.5838122692478612  0.9199607865440511  0.1661393423917334
  0.4150934404792190  0.0037198189885756  0.0834160825618643
  0.5825058506996438  0.0838256226493845  0.5003807145610625
  0.1653752935300521  0.3293177386549513  0.6680377036313152
  0.0816908101506079  0.4124321016819816  0.1662330124265166
  0.1645865205892175  0.4134363064284957  0.9176081959247812
  0.2475506426506981  0.4144269336310840  0.8339422670028410
  0.3310780504948331  0.8371386252941978  0.3346768661867393
  0.4966436241739017  0.2463093042923162  0.2507354501889863
  0.4148188605360156  0.1668147922339197  0.9176840639822594
  0.1613234171292445  0.8352814847615121  0.0040011844772702
  0.6657752083646979  0.0019979569680419  0.3330568243697978
  0.4994720386486777  0.9219867918644380  0.4177056847866115
  0.4987378409392059  0.0839157570344048  0.4179677849411473
  0.4984291073167232  0.9213236838448711  0.5801658184345393
  0.6650537639100926  0.1643433402533011  0.3322517673815568
  0.5837230368196519  0.0007901311738483  0.7483771768494972
  0.4994553131399185  0.0035464492900469  0.4998241107892274
  0.4968817983827434  0.0851529939887503  0.7548261595532485
  0.4978270404346147  0.0856470960618563  0.5795035892822887
  0.5869373261595677  0.0832263245170302  0.6649353535452087
  0.4185754539963764  0.7421937414958899  0.8322454906749367
  0.4157488383767406  0.8339048770686572  0.0808815381146009
  0.2478825716180230  0.6637714385567309  0.9201171114847044
  0.9981133559639669  0.6684214803000714  0.1672890681776419
  0.0820089712016418  0.5764358517226049  0.8363595720356358
  0.0777819103993841  0.9186703817737817  0.0021599357706315
  0.9968086960744382  0.9139378192696573  0.2496442501176051
  0.1632762231401670  0.7522345265901436  0.2498301664956501
  0.0805674072846335  0.8356850779482571  0.4101141091370326
  0.1555295012480851  0.9195066044984214  0.9190148167949360
  0.9966549109090562  0.7518235330027092  0.0862291203992847
  0.1647795018422707  0.3307640616218095  0.8330440274626548
  0.0833257087842578  0.3297307158709047  0.7506629851075098
  0.0796328635718009  0.6673279351025271  0.2494632194939764
  0.1627260687788230  0.5808353613415754  0.0856827814530044
  0.1615894486276314  0.4970630906143778  0.1674890495756106
  0.2468964608652328  0.4953053913315743  0.2500207419860034
  0.2488388955481179  0.3288403992548127  0.4166067293187197
  0.9979992219637527  0.7550092423297445  0.5791829746028591
  0.3408609432183153  0.7472062740211024  0.7460557703553713
  0.0813598557345993  0.8402079306478600  0.5850786712285918
  0.9993361119691233  0.4138756783427053  0.2503310651861774
  0.1634775601556394  0.5012129539742031  0.3317160991434669
  0.1643622410434521  0.2480015354758197  0.4174831518004823
  0.9990517461953312  0.2491456257450483  0.7507244160354385
  0.0812317243495132  0.1676247947871370  0.5836248566355571
  0.9968390615095546  0.1680379542108990  0.8343423547307663
  0.9971430785464801  0.1674415281725367  0.6651236943038161
  0.0793258022251698  0.0837862479680103  0.8378810490276850
  0.0817450886252302  0.1709682267342520  0.7506602453073246
  0.9162889974224803  0.4135521811223323  0.0014829689765646
  0.9983739629943841  0.2497772013367844  0.9167749294704208
  0.9989587833197425  0.3313172936363095  0.9999677824143043
  0.1649769782541717  0.1676223136376841  0.8343006533172234
  0.0811907285039975  0.9173852577499253  0.3323789007220156
  0.0000089177152847  0.4140894773797759  0.0822343325753683
  0.9972820778426089  0.2495899092704706  0.5832267965131370
  0.9129639008135323  0.7562018775159665  0.4990009583790615
  0.9184205495089506  0.4131895670307659  0.1658872790466751
  0.2473331564908375  0.5747137613247231  0.0017390105211113
  0.3333867264503522  0.6663812830043632  0.0025575492921721
  0.4939330879344411  0.4128336255979151  0.5817712838471135
  0.3290201090155626  0.8346615013571806  0.0008830141482064
  0.4127966029552185  0.4945728975000853  0.9181322690174785
  0.4154410099048286  0.9195938720369958  0.0084533210031787
  0.1642534866478276  0.3288711962723544  0.4991133706150554
  0.4984743319708177  0.1666419361939517  0.4997835339846489
  0.2475158772092426  0.3246863552534682  0.5819238633743030
  0.5817312759858718  0.1659527771118683  0.2503866379615851
  0.1646217046906111  0.4128381807835770  0.7495177579958641
  0.5831620948065140  0.9209833445529185  0.3343081139209511
  0.2482428957053511  0.4955327674137355  0.7496590590071893
  0.4162361030853808  0.7501760112206811  0.6612667565955020
  0.2472706680722973  0.3316305520440419  0.9162196098659516
  0.3398479823540975  0.6616690495582549  0.8327409001083222
  0.2467368066120066  0.4131880790646285  0.0018384874318417
  0.1629336616844529  0.5815957408422895  0.2500778584050271
  0.9980125570167266  0.3303960214647881  0.3337294271152108
  0.2487698049354626  0.0855950445270892  0.6670889830490899
  0.0797702956429353  0.3310460153355967  0.2498097368705284
  0.0802772845974105  0.2495102915241039  0.9998257097893878
  0.8328817961446440  0.1665012389251340  0.8323933650577762
  0.9135216337470667  0.0844388896296017  0.6657658674204501
  0.9970626986258803  0.0813262411921903  0.0835648187398604
  0.0810994981439286  0.4134710682497543  0.4984104063676201
  0.9974238931925957  0.0879217702796043  0.2506053881980833
  0.9966307582454527  0.8351659070781170  0.3315380371027655
  0.0801731231990831  0.2483731363815993  0.5008381059532642
  0.8316688343571166  0.6696990908824839  0.1669630037973880
  0.0010349614597945  0.3296866826126109  0.6669866669953799
  0.0750832904133556  0.6673521926234472  0.4142744569286875
  0.0802875920232714  0.7518754044856243  0.1672192970461701
  0.0801264949307836  0.1674293499777963  0.9166014551199936
  0.9966147350967534  0.7522709325373039  0.4145803567151607
  0.9982191153728653  0.2510924385326998  0.0830668426869539
  0.9942685528563102  0.0022478067494285  0.8344831007097326
  0.0798170837788502  0.7510442173557763  0.3316343507038845
  0.0792809686986493  0.0853665760337523  0.6627553776420365
  0.7464239584460068  0.4982814915724249  0.9220202197573004
  0.9977991331723642  0.3313945645546638  0.5005463083490298
  0.0802564642401778  0.3298624091751503  0.4170943061362509
  0.9986891327190870  0.3318428803873156  0.1663078802159516
  0.9947933453715423  0.0019329373639026  0.6652658524817426
  0.9980159431475623  0.2482743659631331  0.2504295930000003
  0.9142368041348009  0.1674593873212130  0.4166994282830697
  0.9968429012906674  0.9993562063442488  0.1637076987737078
  0.0810694574898740  0.1675343595107210  0.2501635653612905
  0.0802271419204521  0.0834159227643939  0.1677042491131133
  0.0787296806700292  0.0831118623935383  0.9995985131212995
  0.0810790628958474  0.0858124484712746  0.3289994789109622
  0.0853584417163976  0.0003577978445300  0.2504670136361030
  0.9961664730827442  0.0834967058831178  0.5835685100546535
  0.8335151974590237  0.2492566608612239  0.9174880648577760
  0.0016323013564155  0.4128936161479346  0.5816360380419614
  0.1641351966225226  0.2497174493724302  0.9165191644302092
  0.4127795361592120  0.4125956201185127  0.4973796118462895
  0.4147186157051186  0.2500208285282084  0.9996804372070398
  0.3316981572646421  0.2472655670649402  0.2516180090925312
  0.3292704556821635  0.0013561483562659  0.1666166302989061
  0.4152901565690422  0.7519378036103269  0.3359789213238744
  0.4127941891745823  0.1683490193708120  0.5818090669659647
  0.4954058982296369  0.3280559588920865  0.3341912751858253
  0.4964698302930325  0.2495190057074252  0.5822551767909824
  0.4967342575552345  0.3324628362967315  0.0018024290979954
  0.4126358140972209  0.4130054790086640  0.3335526567441462
  0.4964036187990925  0.3291788905211069  0.1679809139174815
  0.4148163401234907  0.5818126874553134  0.3336233963666072
  0.4959119996174872  0.4123766098619042  0.0856726162002236
  0.3334265470681843  0.5796490577478807  0.5810134943216855
  0.4903447641674098  0.4124584298037067  0.2514720056535801
  0.3303391080253819  0.0025826003234806  0.9996772267031711
  0.4958954486761173  0.2473604944299122  0.4167777001052066
  0.3238625105288597  0.9207915973568681  0.2518042263840994
  0.5774819605064643  0.2486307623787865  0.4997867614120228
  0.3305700762677412  0.0848873930850471  0.4168520400134157
  0.9961812837448364  0.0839458381430837  0.9172042924978595
  0.3296664887256932  0.0037321915285985  0.3346190730474060
  0.4154079429522217  0.0841973019907616  0.3358203643929323
  0.2447388523871373  0.8351797005561004  0.0839559558466596
  0.2474932934868103  0.0022622365079759  0.4152589065799757
  0.1626410341203070  0.8361768886024755  0.1671296812729174
  0.1611337534905614  0.9186806195305965  0.0839394759116678