 C Cr Ni 
 1.0000000000000000
    21.1200000000000010    0.0000000000000000    0.0000000000000000
     0.0000000000000000   21.1200000000000010    0.0000000000000000
     0.0000000000000000    0.0000000000000000   21.1200000000000010
 C   Cr  Ni 
  52 259 605
Direct
  0.4162395417245295  0.2487144862873353  0.7488495954968355
  0.8323273267389791  0.3337995826956313  0.0818304942656539
  0.1683476770250696  0.2433054211328469  0.8353481357250407
  0.4155392090608919  0.6682743367867968  0.6647006517047904
  0.3305133158057761  0.7545225294845732  0.1695241876961880
  0.3314770877309771  0.9196823019991186  0.8322656932160889
  0.4987080079955126  0.7567691500559975  0.9997183286760577
  0.3402963674242375  0.7480528510607316  0.4970455938692556
  0.4140331334470613  0.4141870949041327  0.5810791541181906
  0.2451833046252300  0.1666647014731998  0.9973442088325198
  0.7451710558766256  0.1651772071140770  0.1644612101989150
  0.7493229721428170  0.8340836198503425  0.6658012613025428
  0.5000100369072719  0.8367194575059125  0.7502428230729086
  0.0018442435097774  0.4936293585831568  0.4105086149003362
  0.0725897175285559  0.8392024595052090  0.4984923935749944
  0.7489485057594660  0.6672132614704555  0.3320245106156930
  0.1607893916444159  0.7464556576993320  0.4959014330948390
  0.9969112884334885  0.5836387988152071  0.4978407145207209
  0.0000809913108425  0.1659947440018383  0.4164815261161365
  0.1730072395090463  0.6640049156461285  0.7475768285506256
  0.5868750569470597  0.5841141065440049  0.9066910055614081
  0.4906998145555196  0.5759214860336781  0.1735681741510009
  0.7526366337918473  0.4939041892495203  0.1684618238279932
  0.1632703072990573  0.8353894784241701  0.2484155610127782
  0.8355740376113203  0.1643253441926426  0.2531205425956647
  0.7479442325336448  0.4938215170157291  0.6679974500363857
  0.0874905952843450  0.6641431474564810  0.8350734584528060
  0.4916820286646760  0.5764477787714083  0.9948272970306202
  0.5834389809406809  0.5827378833647648  0.0856025498891675
  0.1643196086899406  0.4131505143127707  0.6650054763563011
  0.7517024742000855  0.1656395040408675  0.8311608973239211
  0.6567122144545250  0.4941680430043240  0.5748402449836262
  0.5778880105155164  0.3283024938546998  0.3320019882382996
  0.5818126873468570  0.9195242242227479  0.4175851972403720
  0.8402568419003887  0.4954051917701309  0.5773952741111039
  0.2521495329816885  0.8407257830946444  0.4984363476039309
  0.9982415346380045  0.6634236740611961  0.9230466813623184
  0.8339281160245401  0.0809568978048519  0.6648285051806710
  0.6632634548313694  0.2515376917411988  0.9994322083421936
  0.6570846015306065  0.5866259756296368  0.6677629046195463
  0.9973152723318343  0.7555929697134309  0.0085656416109201
  0.6679073205384829  0.5870898613228425  0.1730012615879421
  0.0859299917178382  0.5835998381248869  0.5840563704527814
  0.7492027450407102  0.5887994093404236  0.5745045052842824
  0.7482755495047043  0.9165191211426190  0.9158322969377372
  0.9073032677163185  0.6691592762756150  0.8319573474772515
  0.4997927291088792  0.8413682865363464  0.2514029764303141
  0.0797670461196854  0.3354208043734141  0.8348899112520805
  0.9958635142154129  0.0846475518646372  0.1687475716827190
  0.5826310172950909  0.0011815840774584  0.8328362742321583
  0.4972684158561607  0.6641352596046366  0.2545940364375947
  0.1654481406446058  0.8358871714269884  0.9186675673084255
  0.0808680048524583  0.8366812724353846  0.0875397518101843
  0.9980573882590106  0.5841694668080065  0.4088518385105164
  0.9160200118269721  0.6673408521570610  0.2470407942863466
  0.4993995502213257  0.8357786879348452  0.3405344322448853
  0.5807167509744278  0.4156311736157745  0.9986611951724790
  0.4943495612769460  0.5783673008671408  0.0846167822849586
  0.5832744627365535  0.9198685135559058  0.1670311571344679
  0.5821378620855858  0.5823937478838777  0.9968176559062573
  0.1618308657548724  0.7447420402793213  0.2521816088287392
  0.9132685683947899  0.7508587186516508  0.4988473186215654
  0.1645639841514206  0.4159134516796118  0.0846063548187358
  0.0796998180924336  0.8371560252753282  0.5902855756422940
  0.4951097221212747  0.4960046954589299  0.8338724012321863
  0.9992479842196281  0.7545535276978830  0.7485527859656107
  0.9991096499435980  0.7558921041549345  0.9185150586149559
  0.0800821931389438  0.8359538821872620  0.7490497625323633
  0.9089677478928317  0.6664155105445642  0.9226949230168437
  0.1674764652349357  0.5030464548013288  0.6656831051355282
  0.1655931485155596  0.4146206412112999  0.2484332780589422
  0.0830540044570112  0.2501925973456712  0.1664673123473112
  0.2490267057341968  0.2559618837245173  0.0019253601977345
  0.0808911313692721  0.2469332530215546  0.6660152150908626
  0.9995850865669201  0.1653236233263470  0.5061719921357234
  0.0902239098958663  0.1677043530681480  0.4177849401435799
  0.0011947519170250  0.1682869829424356  0.3278423996589795
  0.1640486694686294  0.9261933568448703  0.9180223320345767
  0.0801646032301112  0.0007703224682471  0.9168540840131248
  0.6622125311113556  0.2498501664737688  0.0885396815069495
  0.0824059327838594  0.0019807851466937  0.5845383123863287
  0.0878122462572395  0.6648252412721570  0.9235147875819217
  0.9980651330175629  0.6663309021776089  0.8329614488854064
  0.1666856605210916  0.4151567208436495  0.7547745465512260
  0.0821238046990397  0.6681290423307805  0.7461504706579668
  0.4148761020273604  0.2487178252026011  0.8394466603486018
  0.8357873482134589  0.4229070950056894  0.0821139600717451
  0.4970265594269671  0.1673052117765715  0.5019289842648973
  0.2505985657492161  0.4956265169016620  0.9196881870947661
  0.3317784749028764  0.8303187011233442  0.8357173292616156
  0.4885206634751408  0.3288390846826735  0.3334200937823583
  0.2465376069279709  0.3323130765910545  0.2506125667825392
  0.3305607795136111  0.2478966388572555  0.0849685958988731
  0.3287340318311515  0.3313388887028223  0.1675270147190649
  0.3317658710173488  0.0864579746636658  0.0838852557731229
  0.0841210407811467  0.3338110620060969  0.2483314751471399
  0.4985803504593110  0.2503732610707843  0.9147102618022316
  0.8323592183790256  0.2492337574931499  0.4160683998112958
  0.4154743124198434  0.9216496572074672  0.1654839325979799
  0.8319150585557012  0.8360103739497295  0.1667970450583923
  0.9141650555059980  0.9172991463693199  0.1686428980621888
  0.9989271935277932  0.6653773095676806  0.0109339495460473
  0.5816038653368136  0.4928547828803339  0.9153555786758386
  0.0812051508851139  0.7528479806639671  0.6672499606351556
  0.4994353106557572  0.8402967178903608  0.1620353733637629
  0.0735407373545238  0.7498123537382440  0.4975608885545613
  0.5814138871398968  0.5799848600918260  0.3360279251104757
  0.5672794242895624  0.5840467350614944  0.6685688866629939
  0.6657790525776653  0.7522420484493683  0.9180854471265608
  0.4135267813080047  0.4151857731900017  0.6705643614347725
  0.0824301635861705  0.5817422350831534  0.1673774454525149
  0.4946321382646446  0.6671402001640202  0.0008975014854386
  0.4977833800937971  0.7505364789669317  0.9107382650251991
  0.0817091723041420  0.0014368081050230  0.4148732504736042
  0.0017658222994742  0.2564032937716197  0.4171374649232959
  0.8390690579433244  0.6685575819907608  0.3312904334497720
  0.0820108258194401  0.9992000966539336  0.0846655522365216
  0.8330416214239468  0.5829992026589169  0.0832183339085044
  0.3357307401791924  0.1658141676768588  0.0007649763285632
  0.0777588948612548  0.2449953270925929  0.8345388106487185
  0.9181936644926239  0.3327129350229746  0.2489817485186321
  0.3318626637238273  0.0845112054267261  0.4173238971598400
  0.2483760520999940  0.1655459688519199  0.5846617694837606
  0.8205130022108752  0.6662531880131860  0.8342721377839513
  0.8334703156683613  0.1711353383006812  0.6654213020997579
  0.8382931132459653  0.5863338162473105  0.5828792103664034
  0.7496999421459353  0.0059154978323988  0.9184949545928764
  0.7486247816604162  0.4033801451426687  0.6681554932278496
  0.9175878063690828  0.3308457559270536  0.5833004282523415
  0.6618476842723626  0.1678328908732169  0.8329069549628405
  0.9166124664575517  0.1666510079493419  0.5809427028281506
  0.2493760151862594  0.2453973705991976  0.6649350264654628
  0.6643673068637125  0.4131307986236551  0.2535288750185952
  0.1627439947234197  0.8379676819597394  0.4975559235058453
  0.6649371509711878  0.4960771119954488  0.4858804179277615
  0.8332957122193955  0.2447169665821397  0.0829363410572925
  0.9141211708780653  0.5771272452011394  0.8326710695199605
  0.4151152219831934  0.1663369270980598  0.5826672288096971
  0.8305564164209892  0.5823605190808391  0.7493933992844268
  0.9075935575919090  0.5829195602508300  0.4956874128624471
  0.8371658245531935  0.4964768467848928  0.6689910092833045
  0.1639405576178592  0.0830434016608491  0.2502527942741137
  0.4972486584275301  0.0033156153179699  0.1656046836073176
  0.1642323947669369  0.0820456954482697  0.5838169875117347
  0.3280027972396978  0.4953786797249139  0.0009198328167128
  0.7498830600765287  0.3335667451205366  0.7510596262045104
  0.7569767732491591  0.5841823002662653  0.1671988564561555
  0.8331564840428263  0.4129225648075315  0.7499173774461630
  0.8408624839743634  0.4963888241634812  0.1671670459521372
  0.4956299068702002  0.4875554636794287  0.1680362971464399
  0.9992978423657115  0.1662958300252914  0.0007441550743348
  0.0832840655010533  0.2482830243716680  0.5004720256012627
  0.9969356491269008  0.5000003580765322  0.8339472931979937
  0.0861167276613455  0.3305527846248090  0.4162734169087799
  0.9914691477477602  0.3332807727264998  0.8332261813988452
  0.8323633728369816  0.8352212637753562  0.3329997954548203
  0.9981348940729931  0.5804541128702859  0.7516275546873884
  0.8295408470324410  0.9161763444878950  0.4163301096984264
  0.9959014550162170  0.5848671294904150  0.5869096845407066
  0.8327443136038510  0.6677495051939665  0.6682705080077747
  0.4956383175620043  0.5817827310433078  0.9072499664225580
  0.5052537733221064  0.6694005340755820  0.6667876312999801
  0.5837857497481962  0.8300681742602091  0.4173003879163909
  0.8391034470386223  0.8363575824595787  0.6665143855956916
  0.5800388490574784  0.2397546749650515  0.3354270036793256
  0.7477024438112423  0.8328479310554997  0.7558642807487590
  0.4995481956762386  0.7521484251279136  0.2509225900042535
  0.8391564102599284  0.9176808916910676  0.9176315991753236
  0.5006878191169390  0.6677152839599930  0.3427529911209855
  0.0010415227792022  0.4974572633430255  0.0025458632256643
  0.9995423445529869  0.3341077253536257  0.0013155353325478
  0.0750430849768603  0.4160660787599311  0.6671126468317012
  0.5805737921136743  0.3320593248501960  0.7500966452226129
  0.4951433486906065  0.5765574113480524  0.2609807328275570
  0.1635227600976747  0.9184231301537488  0.7498395928982607
  0.4119827803973462  0.7516980286985312  0.8364094952541247
  0.0758856219657045  0.8377013966181353  0.9172657228102850
  0.1643704414079305  0.0824914214289057  0.7483109504157311
  0.4993343522944256  0.8378853984987682  0.6601891892888164
  0.4100322173041684  0.6660176194143453  0.7552348332408778
  0.1642670507924163  0.2484950174442650  0.4165567510020028
  0.7482803500303855  0.0007395340472633  0.2509049630497729
  0.4148181314647358  0.0014148887036084  0.5836278143138940
  0.2459239625790024  0.6640581340322139  0.2510233044549011
  0.3309348654270661  0.9224337994488707  0.9233554275134310
  0.2500213286730305  0.6656211128083476  0.9212458268440622
  0.5782688864272305  0.0808592123969031  0.1671339240282708
  0.3275970383137359  0.4951834250472889  0.1682381186838252
  0.7494258338650106  0.2478195536405475  0.3352573527864733
  0.5801950774603782  0.1670119685889806  0.5831790583032838
  0.8327761351969891  0.1670702596265302  0.3416770654224408
  0.5781878008470770  0.2493225130326038  0.1653975716257462
  0.6648064792881851  0.9190252976531585  0.5817120472938073
  0.6723393161019805  0.9197399295690506  0.4168939758310239
  0.6648491229349053  0.0844540723442126  0.4173293753790260
  0.8352090079462259  0.2493705452737698  0.9167080883193307
  0.1675046319588343  0.4143070871770916  0.5755507023317988
  0.6652901313639438  0.0050939619988038  0.3342642657276678
  0.8349321599273453  0.0824958012522365  0.7542015734392273
  0.2539831808979379  0.4133865797843863  0.6668572636241181
  0.5722656274338292  0.2515584621642818  0.9986828094270039
  0.1715158500681956  0.6679677897056665  0.6603445007007137
  0.1696512768641846  0.3337445925902394  0.8343816421328655
  0.4981403140404184  0.2474996716513291  0.5825684026549727
  0.9161168432796463  0.0831979706542513  0.9997112124764949
  0.8334509201894319  0.9916771622722972  0.6657642079365698
  0.0015606064406684  0.4167923866346385  0.0828725558952898
  0.7436443945290134  0.0839228200956872  0.6659306018894662
  0.2486227377813350  0.6658255835980087  0.0861364713419181
  0.3328559998323246  0.8450268321591267  0.1671981745424268
  0.9975529675231175  0.0831976075521410  0.7508720557698486
  0.4150458338380896  0.0856063321216095  0.8336586686930700
  0.1648162671290435  0.8371644570187027  0.6673030944987464
  0.7487589703373685  0.1661322982094530  0.0766852966428182
  0.3312737912308883  0.7503107036180124  0.4064074040523828
  0.7494059844987107  0.6685280158412661  0.4186823846366676
  0.2500724816270505  0.7505871653935361  0.4973958662568879
  0.1634535948292559  0.7487574964033624  0.4047100567404700
  0.9133445783650035  0.9204895327412457  0.4984912973344072
  0.3325374414575361  0.0009780147951156  0.1671890788604133
  0.7453440686897383  0.1660299632656036  0.2541175056724995
  0.0815174853487322  0.1690420341403183  0.0829204396715367
  0.4970688935849049  0.0063883352854882  0.3315457447271803
  0.8310980627588809  0.9999635545165584  0.3350016652545292
  0.6639137780594511  0.1614495000476363  0.9996391515832115
  0.1624360004786166  0.6646936641918064  0.3316615598694524
  0.1752712363947027  0.6648124185780162  0.8378905504658680
  0.5833801407573916  0.9192460877958869  0.0004116388315467
  0.3287443564503100  0.6648945814721356  0.3345770488789753
  0.2620779623912231  0.6661604360107833  0.7492611002338687
  0.9161931428676933  0.0833849447187790  0.5013496732371643
  0.2494143686535260  0.9225326581532493  0.3343074371272775
  0.5799528644721631  0.3304091060392869  0.4222884812429665
  0.1669123869950899  0.7457127242509949  0.9196447728366192
  0.2474208497727405  0.0032775635229651  0.9171386258717512
  0.7477221194576210  0.9182936978249322  0.5001024404485179
  0.5891862336529536  0.8356969398882119  0.7508770300104999
  0.4136552183705984  0.9209184517977133  0.0007330525037004
  0.4200609533055972  0.9204611591029107  0.8348662084136420
  0.7489759031414815  0.9990426316005525  0.0821178988318585
  0.1654484545890663  0.8369124191682143  0.8273529342969331
  0.2495005751811222  0.7529465913220259  0.6657759690692654
  0.7468812049381627  0.9239027395512618  0.6651650270848014
  0.2484050160887818  0.9288790427147534  0.4998916224230597
  0.2491122709335260  0.4152009982558408  0.4956800084911285
  0.7484229849593035  0.2547776023577438  0.1660802955155159
  0.6601946244974467  0.5853592705688976  0.5776334973378825
  0.0004862213786748  0.4046945771237774  0.4155618280093368
  0.3291012136369611  0.7517428961868073  0.0800127204280947
  0.7492998169318541  0.3310458573295170  0.5808890804350160
  0.3260424894005684  0.6642624645254798  0.1678346921138502
  0.6616511418398717  0.5835903330305745  0.4151712668303944
  0.4029651490181213  0.5804674579439321  0.0017358070324682
  0.6636957522244704  0.4943961506359221  0.1696823403407542
  0.3320868521101387  0.6590445835705462  0.4965970734749749
  0.7490891469602101  0.4979892987110481  0.7565397767883045
  0.6652550750426846  0.8357380700791153  0.1650556037045199
  0.6595575800181210  0.6757058145014863  0.6661379140787316
  0.4099879674333387  0.8387781777582249  0.2512734593371380
  0.4977940526071425  0.9214130789018776  0.5834998274139491
  0.5817818651569507  0.0864452934094607  0.6650001422587059
  0.5823990006193935  0.0094119858649352  0.4156381800553788
  0.3394828615472580  0.8390218036810190  0.4980787298764170
  0.4143731729054995  0.0048206018140254  0.2518794621615916
  0.7506589877319183  0.1669775436057935  0.7416401190100056
  0.4135398030030982  0.0058803149677170  0.4160881295068862
  0.5897871656840166  0.8353240648371467  0.2488334299679831
  0.7480589948086843  0.1668320165560114  0.5837031658730714
  0.3317821755089052  0.8371538710951691  0.6657894973800457
  0.4971155621414317  0.0856077589092998  0.2498417568033246
  0.7500240125833045  0.8338646774236441  0.4186757073135132
  0.7497604747923601  0.1646753043028607  0.9207850562677090
  0.3312653102775480  0.9205291596971293  0.0819691260582542
  0.4271410233185670  0.7512779908802917  0.4984343919791492
  0.3296080685171089  0.4975244971166676  0.4949358476578212
  0.6637772928745277  0.2491743239480538  0.9100718100766456
  0.3255909824185831  0.6670377784690694  0.6630989340697941
  0.6644869998574792  0.5809281019863552  0.2614815440786630
  0.4127424708245059  0.3308979311675483  0.0847468222285640
  0.8300822547804542  0.6668817441653985  0.0023678972120201
  0.4979247328957089  0.5822034096101464  0.4122508978829919
  0.5787824300369315  0.3285884893531094  0.5816030103371216
  0.8349648037496079  0.3329400734646483  0.1715611411277164
  0.7492741876007213  0.4975227087265853  0.5780358726495796
  0.3281453247728858  0.4951502512933552  0.3344347996850517
  0.3288649331352216  0.2477047024669869  0.4160063461417616
  0.3289058921347282  0.6659667894970215  0.0015566459858520
  0.7492838633713155  0.5856707153686409  0.6670522032947138
  0.6646117900578299  0.3328136620429579  0.8331349629932676
  0.6675387140334403  0.5820071933511961  0.7564604652818109
  0.6680719799861564  0.3308319717137090  0.3337467554926495
  0.2495193910273696  0.3327291092750509  0.7485570518812975
  0.5030512385976164  0.4111333562944877  0.5826156395346813
  0.4136414515205901  0.3315834855016770  0.9175135294682293
  0.6588921026554643  0.4961832140539434  0.6651618545195912
  0.8332414001233145  0.4111998480341473  0.4138681776671598
  0.4975030347869586  0.1678106952884433  0.0000418934210340
  0.7477000937244964  0.9173835745102819  0.0064476055332836
  0.3286217325933017  0.4141342571414322  0.4159639542922711
  0.4972470200491578  0.4876350713450021  0.9967986368606822
  0.6651651061193762  0.4096757693904753  0.4146833672371851
  0.2481345249699681  0.1664994877276612  0.0880139332929817
  0.5804440080078672  0.4176761744628692  0.3343054928929478
  0.3306052799176367  0.4139279098659016  0.9170136638826576
  0.4969928031501126  0.6675283409486575  0.1647127349307492
  0.8321221579192510  0.4164546988988227  0.9160066911159027
  0.4152142184521917  0.5777552752438232  0.6662802279983675
  0.2479478747369397  0.1659438948653516  0.2492917168608938
  0.3324453067630403  0.5796016444137354  0.7503787734912762
  0.0831356794446221  0.0000341089806853  0.2527799441943346
  0.6717699614549602  0.5837350144814012  0.0808871176775449
  0.0837074204001015  0.6643489510555274  0.0866339397004066
  0.9993955689963517  0.4930631183195737  0.4999411000431741
  0.0832610914808581  0.4981333119032338  0.2477133406631326
  0.0002537333358588  0.4986859079529904  0.1672904818077236
  0.9988392668266693  0.5830074851626766  0.2481550523590342
  0.9984651588425489  0.4988871694424716  0.6681740635564577
  0.9996694926242868  0.5807754590542789  0.0851121035520509
  0.0004515975575955  0.4964534774719551  0.3245881746315601
  0.9963761781099054  0.6670291814865987  0.3298802230886850
  0.0884797846586887  0.4968553648732322  0.4143733576380157
  0.0820187511189811  0.5819083722463981  0.3305550278071018
  0.0842787126642238  0.5810449890528304  0.0035153259057234
  0.0814703264271625  0.4951892375221121  0.5824782197231744
  0.0830567315981631  0.4984904732812867  0.0847482624024405
  0.0814849088604168  0.4981955104418460  0.7502464386956604
  0.0833748167445526  0.4982122041658790  0.9198459626065816
  0.4966739198047497  0.0860154633798093  0.4165823809075346
  0.5820427117361419  0.0016253354851855  0.7453381244814191
  0.9987349268150173  0.9189625893037457  0.0858298053180272
  0.4943984946135013  0.9220132570578906  0.4165982420863290
  0.9981001318770069  0.8371976564662026  0.1683664457738821
  0.0817359382777587  0.9193151324213186  0.1681385045065883
  0.9963587722673888  0.9188993157484376  0.4166956306526264
  0.6653244312077424  0.1661098437252797  0.3338913061329328
  0.0814189683997676  0.7549673798450738  0.8337863030955265
  0.4976378146618484  0.0046876859498068  0.5003815813588336
  0.0861940871976145  0.7511676583408835  0.0048348318366349
  0.4972298358236800  0.0848267687591425  0.5832172961320112
  0.9982221827353520  0.4153817364041311  0.7517004825121459
  0.5817668262122674  0.0029427470343219  0.5840297352546150
  0.9979671109440421  0.6679357891717052  0.6668490873713817
  0.5806447061557583  0.0850368236550440  0.5017259894249412
  0.9984436768868032  0.8416640948647528  0.0033305682344369
  0.4986055238354808  0.0027599967002644  0.6648505342911002
  0.4983485635397989  0.0841543047096196  0.7482754133780535
  0.4953816430760847  0.2481418755894229  0.2495893371016998
  0.0790747587761906  0.8348964358044928  0.4111193781768188
  0.2525511748716899  0.8357424356417874  0.9194014577998406
  0.9981118924132465  0.7523316154907839  0.0937549208312392
  0.0815945707613737  0.3341156434185371  0.9231213986071800
  0.0815487375055245  0.3317372897022826  0.7461353558396854
  0.0801537159133664  0.6652678329036746  0.2493499840157214
  0.1661246280623056  0.5813515685642002  0.0854762507658744
  0.1647737759703004  0.4975336963595582  0.1666766542474273
  0.2473176568606636  0.4971016987090535  0.2504438961532253
  0.2477882987406049  0.3301621202228364  0.4158370706185087
  0.1652289797015673  0.3259691076145892  0.6652239356305134
  0.4154607315555782  0.1668213232137605  0.9169065537160629
  0.0831731877009487  0.4149646769552308  0.1660764387358287
  0.1643026098333736  0.8364208399729904  0.0066605205307772
  0.1672740214372699  0.4158638576013620  0.9181754514543522
  0.5825087232906275  0.0029222486247269  0.2510391389561791
  0.2501383129656801  0.4157878328942092  0.8340035905165051
  0.3321673286047149  0.8385505911517399  0.3341809527994933
  0.4151667358930279  0.0033462258292667  0.0828322178382725
  0.3323722425125410  0.7538116855517591  0.7500545386987261
  0.4147358459346869  0.7564421684178634  0.6660895917178349
  0.3300026012465007  0.6670535633189637  0.8374901585957962
  0.4125381183286377  0.6666812744886390  0.9165981396081717
  0.3307208614811106  0.8365615933531092  0.0008862462459072
  0.4143958216511369  0.8364435775080210  0.9183676664285065
  0.4962687106367795  0.2468351557699829  0.4173487221679066
  0.5801385430950647  0.1675214637555465  0.2484664326316850
  0.4989663937959541  0.7519313831527686  0.4162394581286724
  0.4981160381889431  0.8362663490916189  0.8379487995229004
  0.4145060004331363  0.8376567820420860  0.0821224086224545
  0.2426284077190044  0.7511400115254968  0.1688034504264663
  0.9992685681130801  0.6653094042168798  0.1665847807723832
  0.0837811811054961  0.5748708248036750  0.8351161220874350
  0.0811961951237362  0.9199948528960831  0.0020977766697598
  0.9974278472062303  0.9183899791096782  0.2511675259689319
  0.9962940189821847  0.8354650805955257  0.3324784136668470
  0.0807852456136111  0.6721776198666414  0.5840373382829672
  0.4949822265547552  0.0037593279545308  0.8337960171894769
  0.9152961728992993  0.6681691267617645  0.4140424390482696
  0.0830009364370699  0.1647292099469811  0.5841998279476472
  0.0811137656229794  0.9200475428199435  0.3337888539766228
  0.9995497645775815  0.1655455852540373  0.6652967060640682
  0.9997574721799082  0.2489105330214560  0.5837362134261462
  0.0802102601441663  0.1648794775358390  0.7495100342973797
  0.1644418860067280  0.4969455732046275  0.3307709928611541
  0.9983862024864510  0.2498804116734563  0.9178520701334387
  0.9989202000169349  0.2482443022432615  0.7492989196302298
  0.1632496442416997  0.1578400407876880  0.8331554683189453
  0.9978745456955200  0.1646527070106267  0.8334199990839080
  0.9212214071058067  0.3338827848223384  0.0825000756355837
  0.0784968574354325  0.1653852962917266  0.9178153067151761
  0.9192216085448056  0.4151374503867480  0.1664516272271848
  0.9167947574271588  0.4171126882600625  0.9999309374922122
  0.9877546103112967  0.8361124394698517  0.4991024828334232
  0.0825444123822466  0.3329088077503131  0.0833568767187445
  0.0841281018437655  0.2503097932167012  0.3319321120351487
  0.0007748769322353  0.4134421285354685  0.2478045223969596
  0.8326768615647645  0.7526940332054259  0.2488693713500323
  0.5788098315629761  0.1665143104632210  0.0833988024192144
  0.2489538402596772  0.5812088458852176  0.0022136272183851
  0.2462935613626517  0.7515287296169630  0.0030182049827305
  0.1647716321935317  0.5816810690428699  0.2494096706341508
  0.4954040347892316  0.1666718076784348  0.3332725936682078
  0.9969398277326144  0.9196190883407748  0.5827693109437944
  0.4140973403609483  0.0848779467080974  0.1662993061175511
  0.1639514612192172  0.2484245164100291  0.9230765600610517
  0.4989863764530927  0.9269093432220583  0.2515306470761653
  0.9963453989911530  0.7525067464650230  0.5845992800683637
  0.5799680908722303  0.0852933762827604  0.0005484019670077
  0.9947785178015639  0.6718331085054789  0.4989788519708371
  0.5797473627697868  0.0033473664556614  0.9204487565669499
  0.3334659799426190  0.9216650057070360  0.4159995640008490
  0.5811694320990627  0.0878341613986426  0.8324782826714130
  0.8306745117005825  0.7510069318232668  0.9186437498346209
  0.8351397706377057  0.5836138941302708  0.2497297366967555
  0.0011818566677505  0.3319585979808483  0.3307250958846463
  0.0009492322089070  0.3323627601784906  0.1658921691227069
  0.9991156432119188  0.0821649550707496  0.0812424296541350
  0.0797116051575790  0.0820576307289522  0.8330421898057884
  0.9993570093563050  0.1709642404794219  0.1662388758818772
  0.9990919616995028  0.2503771184679726  0.0829491032478626
  0.0827831162073983  0.3306440872852059  0.5833072116649717
  0.0805000931869559  0.2501755820142507  0.0016362575931425
  0.9995787305559063  0.3300164090357787  0.6664726708449119
  0.9208385572603823  0.0829657460883740  0.6656112114245150
  0.0826238854970794  0.7496717948911056  0.1676789639852376
  0.0832449209579171  0.4126350216292186  0.4991292068514944
  0.9949825567668057  0.7513749923289257  0.4142336096700499
  0.9966832389777933  0.7506334258746463  0.2472160247944148
  0.0774328609320190  0.7493468537575663  0.3312341647543434
  0.8335721704990791  0.6676854451001255  0.1663381759184916
  0.9983185363282400  0.0005240762179543  0.8332759874379467
  0.0788994930094946  0.6664086850056821  0.4129983319957966
  0.8341330557477653  0.0831402194031384  0.9170954262308197
  0.0836687116807340  0.4132951126637891  0.3314167199972116
  0.9998125956322702  0.3314232987588719  0.5019660808347133
  0.9981476292743036  0.0014183747755872  0.4995567507086652
  0.0007356669270254  0.2511992556461733  0.2489184414992913
  0.0822303694337444  0.0831731451284714  0.5000793716086331
  0.9994359705331840  0.9974280990851115  0.1683161614373581
  0.9107083509839288  0.0806687657177659  0.1662713580768084
  0.0835530237288768  0.0841117619358308  0.1666843797043597
  0.8322082563778107  0.0831198507900687  0.4181479219087809
  0.0832181902350976  0.0838019119884843  0.3328545745718184
  0.8324042830488700  0.8361956920436395  0.0019613051281734
  0.9998110397244977  0.0812776293095935  0.5836586508010556
  0.9152649670108732  0.0826033128215395  0.3346972484127310
  0.9999504798909549  0.4116123919376458  0.5832896454371039
  0.9149240415673610  0.0000668791979896  0.5818431735102191
  0.0814730159329732  0.0831202271355005  0.6676115680934890
  0.9986819232666188  0.9993082445040971  0.3343544390049953
  0.2473902303232956  0.0837084503411012  0.6661705090549068
  0.7502673725013025  0.5823806578982539  0.0004042885370930
  0.7491934802724949  0.3311224701439959  0.2519541190472715
  0.3316452881123659  0.0838811836784057  0.7495547117676327
  0.4135936381488098  0.1666872536509166  0.2492247633669346
  0.3310569226866787  0.0043493133150774  0.0015383653515439
  0.4149414918353233  0.2499828124104463  0.0005363162097327
  0.2486132961875706  0.9209705297426201  0.1668353637404965
  0.3297255494785833  0.2489765418684052  0.2495774092278628
  0.3310938994605846  0.9223919147585968  0.2519704659157984
  0.4160644981947614  0.7510346572843203  0.3341163765632745
  0.3310040628561797  0.1642477012075770  0.6658935947511954
  0.4959610030743393  0.4122071168743602  0.4161433262593282
  0.4136524801195253  0.2487648910493862  0.6623197153297659
  0.4962206575789772  0.3338521232013398  0.0002150130389723
  0.4112530827259630  0.4139431556586036  0.3342866022142911
  0.4952941726939128  0.3320559973667419  0.1673815716542317
  0.4109288324467814  0.5804028415403114  0.3341302342693472
  0.4954730229165045  0.4133107187505580  0.0839337729571783
  0.3313617711887976  0.5810558302018188  0.5810723447642571
  0.4127381058203978  0.2476535376027195  0.4984870889232394
  0.4946950030785030  0.4132692012477805  0.2519148774424457
  0.4123499025599883  0.0869376770602955  0.3337406872702357
  0.2480938508336417  0.9200890414746503  0.6669145168798828
  0.1636329706312274  0.9200641769451310  0.0850659859731093
  0.3329660622836981  0.0033845021179100  0.5003506298375585
  0.2471537308968912  0.9209498781050354  0.0019399059873350
  0.3312181355744549  0.0044439746017867  0.3335793532672823
  0.2514860683459452  0.8374214810962175  0.2527557930756051