 C Cr Ni 
 1.0000000000000000
    21.1200000000000010    0.0000000000000000    0.0000000000000000
     0.0000000000000000   21.1200000000000010    0.0000000000000000
     0.0000000000000000    0.0000000000000000   21.1200000000000010
 C   Cr  Ni 
  52 259 605
Direct
  0.6694678229977995  0.2505939463692095  0.8266081535074599
  0.8329685851598764  0.9939744420406414  0.7537162071673349
  0.7512555795276219  0.4919422203664023  0.6659120201736187
  0.8329674328217084  0.3347290887529389  0.0816314517291896
  0.1664891804468744  0.2502869652238965  0.8338284368065627
  0.9144925242905659  0.5812614095258926  0.2497954678727363
  0.1639931341173864  0.5804336104594977  0.1667469816006357
  0.3396606706145079  0.7496854876552264  0.4967169629828350
  0.4120550850976221  0.9169340847968531  0.0876867768900594
  0.2459493665195636  0.1674839460577640  0.9984164293896246
  0.5887763757870238  0.8376843704536115  0.1649410320418972
  0.6645047536078499  0.7492315954041343  0.8350653163238438
  0.3319708166017297  0.9178067462465711  0.8287435191730164
  0.0822798938673236  0.4173873191117939  0.4168303162602231
  0.0766100398089107  0.8372325756647385  0.4988063866634047
  0.5806645337675532  0.2459239777563715  0.4198745797044090
  0.1607998140992438  0.7451779400350022  0.4988279806336231
  0.7509449946026562  0.6747731019928831  0.6659890888348609
  0.9946485721506457  0.1658391210897243  0.4155675831005933
  0.4987647925350708  0.8345416774820379  0.7484197299030081
  0.5872489900868014  0.5833991691242336  0.9128945364173511
  0.4957265012800854  0.7492754011192079  0.1629536938116254
  0.2470621682951473  0.4989465046759632  0.4983751703921310
  0.2462367198693435  0.9230759739343730  0.9194229965902597
  0.8323143093046181  0.1663907533917677  0.2503580982071245
  0.8338746861840127  0.1756340658166124  0.7530252197852207
  0.1639566441606022  0.8339451798428898  0.2505166441805289
  0.4963962843998735  0.5843427513134751  0.0029942568799575
  0.1669434748752072  0.6625862514733594  0.7498332909130838
  0.1738003285510571  0.1642279268106777  0.4136481493428779
  0.9138292893787096  0.8404275871938761  0.8345722509955369
  0.1653955472829507  0.4160599886536049  0.6670025029303427
  0.4141038222388568  0.0844399320810981  0.9142660136765107
  0.6582276995420534  0.4952189402181091  0.5740929332587094
  0.9992494417403447  0.0827826070901523  0.0004864966768814
  0.5030631643154881  0.9167328676085622  0.9956429415730992
  0.0008845710569357  0.6629148125249756  0.9223946928354807
  0.8347874156319700  0.0832922118275596  0.6608896399036958
  0.6704929534430399  0.2523266384557595  0.0091936112398356
  0.5788222375236717  0.3347901393651951  0.3305245797567088
  0.1609252083675648  0.8317654858578808  0.9163937935148183
  0.2473690982089836  0.0856885970265036  0.2531060431362881
  0.4943376926796856  0.2501349628954382  0.8296206014564294
  0.7492805857337508  0.0914364508691880  0.0857821598309518
  0.7484339015557216  0.9193518059870822  0.9170078133896998
  0.9115502580501880  0.6590708806364286  0.8304596856829788
  0.4971746364894181  0.8400504830551430  0.2568624512786490
  0.6595564522245448  0.5839080952716669  0.6655567296343936
  0.8355817234044710  0.9970634827866502  0.0846394671473750
  0.5833825210828039  0.9982855617274352  0.8312151789582606
  0.4984705634143281  0.6586934768076761  0.2524708851071917
  0.5829696822647082  0.9186293479502594  0.4197764881740518
  0.4978477487546252  0.8335276569517365  0.3452137444207353
  0.9152910189519251  0.7492460882315065  0.4987947848483915
  0.9145338484302493  0.6707910528363560  0.2506546941179393
  0.4931734632718869  0.4978900701933054  0.8343466116359003
  0.5802230640678130  0.4175953684656624  0.0013560280111167
  0.4959184814133631  0.5788622669989085  0.0918026624772793
  0.0798623534066046  0.8334038018813316  0.0867311574387178
  0.5871163197793264  0.5819199581594116  0.0035444146811345
  0.0741133119660253  0.8329001342008995  0.2513009671454098
  0.0805884289415714  0.8357933656977319  0.5899442374589831
  0.1657159634254573  0.4151454673272210  0.0826006296665601
  0.5855369388099910  0.9285191752695138  0.1667637655103706
  0.9983715886314287  0.6667927827945225  0.3342452352863242
  0.0012006451483292  0.7504630748745704  0.7463450659039769
  0.0000152375100948  0.7531760939275748  0.9172706225059789
  0.0812471837994190  0.8335864373335762  0.7458321120740155
  0.9115505107515302  0.6638854147193748  0.9220111760338637
  0.1642314986395549  0.5054564598223563  0.6642632411646997
  0.0825567313514561  0.4144990458292011  0.1682948197350726
  0.0820787085624120  0.2513928105064764  0.1668441300861747
  0.1656597559370503  0.3350566933265762  0.0013890807157652
  0.0815653047795247  0.2503398841451172  0.6649190639545363
  0.0003383488687914  0.1675405574781881  0.5046414511675085
  0.0841125983660545  0.1683915283845546  0.4160904734131385
  0.9994223544318824  0.1677803958251497  0.3261840369330711
  0.1573031032398888  0.9223326405038161  0.9171930596543653
  0.0822183962323192  0.0007209092028578  0.9155345012398913
  0.8325555296699545  0.1731186378901119  0.6620289213555088
  0.0822868691115888  0.0019283583050929  0.5833234402467818
  0.0894697543807302  0.6630641829160970  0.9189538266508688
  0.8308723060077905  0.2506638872525921  0.4157204542856762
  0.1658909576580705  0.4170660099527531  0.7561131354274232
  0.4892834559242508  0.3333772414566442  0.3324508690016076
  0.2492370710331415  0.3330163907356534  0.2500738018991834
  0.3322597154758334  0.2500539992236173  0.0857565220777229
  0.4135757741007839  0.2508247284293063  0.1666172300338084
  0.3306894553532850  0.0854221440543868  0.0852483747206513
  0.0819907815977029  0.3330661534560846  0.2488291623432143
  0.0767516050634336  0.6641597151141738  0.7481438375332634
  0.4062117885801064  0.2510393896479750  0.8326415557478852
  0.7430045523893005  0.3306236343885063  0.0852416796532044
  0.4950572268147047  0.1667322874078482  0.5040649057845057
  0.2503942462472886  0.4968502256127662  0.9188017601621820
  0.3293903692659370  0.7485047686664844  0.9181552173934234
  0.0801124905258326  0.0004494131182923  0.4158047556589271
  0.0022770385768618  0.6626185310754875  0.8313230753233017
  0.4126984271880275  0.9186716713814074  0.1762669541119687
  0.9988071693703987  0.6662161866571614  0.0107865647462154
  0.5807443778448502  0.4927358025521958  0.9174653916003201
  0.0798024803174926  0.7481159587159345  0.6649360435686775
  0.4984014695432719  0.8377608800857269  0.1674863977564085
  0.0738274418638155  0.7479010061667344  0.4992524018435214
  0.5837374840736475  0.5824453474564785  0.3344033722221088
  0.5706742370559234  0.5853665629098306  0.6691055099108689
  0.7512054484272170  0.8292507319408231  0.9199527032802582
  0.4132965663275660  0.4165597145041712  0.6659041838891276
  0.0753513378278136  0.5821342020374203  0.1666250980692537
  0.4978230793742374  0.6740900739696283  0.0001727713260618
  0.4975106604496827  0.7473630038004093  0.9171496894331235
  0.8313954872477086  0.8318884282920994  0.1685593410529704
  0.9160433517739797  0.9141989221963737  0.1703670954347905
  0.4991216956216471  0.2521376267209879  0.9200688667728425
  0.9974801210045038  0.2562725493985916  0.4151910019585009
  0.8313344780533241  0.6675446753663986  0.3354861973101382
  0.0817662566645135  0.9990412348006047  0.0871313379913513
  0.8315953769769118  0.5815189033954589  0.0854097288353474
  0.3354039994813176  0.1682545380671352  0.0035967987629113
  0.6662013100567850  0.4173719068565737  0.2497931650217814
  0.1673926547944752  0.8374583137001189  0.4997594683408969
  0.3312159475317314  0.4974274873606036  0.0006011814572816
  0.8360796716743857  0.2452359922709323  0.0830875422334245
  0.4134389657186224  0.0084738923166057  0.0856505516856516
  0.4155818557351284  0.1676950716168535  0.5840490521308153
  0.7493738658185525  0.0005118615406597  0.2538130316451258
  0.7494921950407558  0.0873827850177642  0.9950884436480506
  0.7491136184909284  0.4032576936270645  0.6655793259557878
  0.9160713902495115  0.3325279658697463  0.5812186036102831
  0.6668085890261215  0.1618275306720591  0.8322783242375361
  0.8322529708814295  0.2505075208217574  0.5814294613089124
  0.2496290531685054  0.2484984342347606  0.6651251923480148
  0.8336626477290985  0.5837448493406736  0.4164988832674683
  0.6642635824261401  0.5854494940505991  0.5754800966785182
  0.8320429390675673  0.5808481784412058  0.7481818682291795
  0.3307884528554380  0.4968213245323638  0.3332541181201233
  0.5788429520147356  0.4168886864418428  0.4997534110551473
  0.3282375050501724  0.6664156362705290  0.9997543343768123
  0.9157947806731580  0.5707538456946571  0.8339215796544652
  0.9152551174285282  0.5823513870581267  0.4981458315573050
  0.8396817271140421  0.4982282282741802  0.6644292279190351
  0.1651437173338507  0.0823678828754144  0.5828378249399053
  0.3323867406514525  0.2520961996038398  0.4161735382670931
  0.7483104961775338  0.3368255782029732  0.7508423082577527
  0.7511314350656918  0.4987440600778085  0.5756475381080121
  0.1577259734721011  0.0818704249865678  0.2499732297442379
  0.9148094935029478  0.5809836849531196  0.1600963129789752
  0.8337208638718949  0.5828467227427641  0.5804979112868218
  0.0755849059328917  0.4173821720089714  0.6646641049939133
  0.4973636508600275  0.4979437090280691  0.1648439370036511
  0.0007834395855208  0.1727234675645767  0.0011099498252233
  0.0814339920105085  0.2495159446080094  0.5004387459310715
  0.9998994349921722  0.4990810966404000  0.8338012245001362
  0.0833448053847698  0.3259504508781101  0.4169369466951211
  0.9987874771392830  0.3357126291521417  0.8320648929058790
  0.8319477304906985  0.8332833747223447  0.3351427742413698
  0.9991483181630423  0.5782500280542057  0.7492358737695841
  0.8297625745222849  0.9160288011721137  0.4167734884553856
  0.9972784847882042  0.5817695958510910  0.5795047719596944
  0.8388676131844059  0.6655917967333386  0.6631314844606035
  0.4957360600795386  0.5819690834211798  0.9133352953370947
  0.5798731979726002  0.6652441005085561  0.7476426263516399
  0.5841293473537933  0.8285509799381484  0.4167778104937516
  0.8337695766417771  0.8342566255826401  0.6632648429908509
  0.5792339485101753  0.3360200132272574  0.7468449903161722
  0.4960723114729040  0.5717984348019298  0.2496593276296811
  0.4114268051232758  0.6652865365703043  0.7491303425073591
  0.8313916351524211  0.4992470071482128  0.1663882183958721
  0.5800022483009399  0.2459360397523759  0.3316192903016520
  0.8254924292331026  0.8322605555235129  0.8352936067482315
  0.4974012725677959  0.7486926843904251  0.2532077523764581
  0.8383170074507209  0.9165170547869028  0.9177262124487793
  0.4999653303039121  0.6652820195570955  0.3412640674858426
  0.0002062583281049  0.4967634575753280  0.0026338858433187
  0.0809215413278837  0.0030925268161728  0.7486538430486906
  0.4129398867426423  0.7468033976420069  0.8339429768379062
  0.0726377519928164  0.8334016081873540  0.9191087507500300
  0.1637971252812779  0.0852009564830443  0.7473602573115679
  0.4977206264549464  0.8345812007487228  0.6580057807713452
  0.0003802831545148  0.3349003456477890  0.0004837155261586
  0.9161066582826499  0.7493879209015226  0.8323964116350416
  0.7510012886210760  0.5834507718936928  0.6644896775391108
  0.7474968762375441  0.1690142878290837  0.5820008308233334
  0.5804376581849222  0.1658461798876362  0.5830363159544075
  0.8308333502911645  0.1672654846966284  0.3396471352120741
  0.5766630311806588  0.2500669694958838  0.1693611264398857
  0.6664121001792327  0.9171862704225355  0.5823530146412687
  0.6730720768511671  0.9175833030613871  0.4181399021520825
  0.1649264756291785  0.4150511409953986  0.5776739452638446
  0.2481601139693078  0.6645998249540257  0.2511899847739699
  0.5031835640594393  0.0872343787613073  0.9178542480023602
  0.2487951338080613  0.6649125051044616  0.9193527248892702
  0.5814334664648325  0.0818370931348339  0.1684046602763440
  0.3313406281004071  0.4957193518337834  0.1660214310772391
  0.2518651750941287  0.3327675269807001  0.4154434981057928
  0.7469727633160614  0.1805271936698264  0.0831174266857702
  0.7496090778798510  0.2490837555058892  0.3343927185151579
  0.6671475545741561  0.0034739084737442  0.3335336255986084
  0.5772048817293483  0.2527658081435877  0.0006585204055446
  0.1650599296215236  0.6635566941699139  0.6610909224449116
  0.1641365823474767  0.2524144626092861  0.9234316728895299
  0.4948344472248409  0.2498260603169629  0.5837276183635399
  0.9112897402149189  0.0859924352530973  0.9981576734908169
  0.8321696213838744  0.9942777506747968  0.6631442076435822
  0.0012053266225171  0.4166552585747564  0.0844614403723975
  0.7437073475328413  0.0866672988473066  0.6646280421143740
  0.2498836696273753  0.6680470755850423  0.0845980741601559
  0.1667650910956480  0.6703522334551579  0.1683742947730966
  0.0010106494851881  0.0844164057658411  0.7495794929557937
  0.4135300657886827  0.0851540794209759  0.8245367574300358
  0.8345893604757155  0.0844570130658406  0.7509480185506003
  0.2552566382156741  0.4153300622045873  0.6661501551747997
  0.1649411311221887  0.8355340069152793  0.6660601833245852
  0.8379293037192805  0.2529469062293842  0.9151725731224730
  0.2483703999623577  0.8348674982670158  0.4181731609526836
  0.6653157839017453  0.3395114377083665  0.8327677450136256
  0.2480578798002336  0.9187121287203337  0.1670480637835342
  0.1627617372958519  0.6651364334957360  0.3331505393144341
  0.9137334520684830  0.9193052242363624  0.4985891577148508
  0.3282004553763935  0.6650107049253161  0.3319659254607731
  0.7431620974074796  0.1699151319752658  0.2514784712683860
  0.0822448785693089  0.1703856271918819  0.0877686241816388
  0.2491758909006123  0.7492261089668150  0.4975281799766198
  0.8310198035782463  0.9998745680697047  0.3346896926165113
  0.6639125235813484  0.1637032752719714  0.9988505321651860
  0.5842470325111565  0.0030505388013459  0.0848523844233355
  0.1665532542028656  0.6640888190266735  0.8393858098829849
  0.4982429945562469  0.0048232886393804  0.3336117048033989
  0.1640059751189839  0.7482132773347324  0.4083778713897145
  0.2570041415026909  0.6654115539328491  0.7488654858349290
  0.9155287494654908  0.0831064210981220  0.4997029559625213
  0.2486294319129362  0.9194939370379587  0.3380843696198110
  0.5796018261026008  0.3363056810209969  0.4214981354148892
  0.1646864836169191  0.7430480347325774  0.9182523795934456
  0.3346233151802353  0.9172031869646866  0.9188525785335224
  0.7489104303256064  0.9168429755135701  0.4995554862449298
  0.6639142422260170  0.8358941596997503  0.6610328477081726
  0.4128461923406527  0.9159892121518135  0.9978676429629617
  0.4201638134739619  0.9167053589496895  0.8311119930476046
  0.7466713647178014  0.0005597348837350  0.0849176538362713
  0.1637034637372943  0.8343095354264319  0.8251156411203396
  0.2496894722203430  0.7496424154437943  0.6647521895422029
  0.7464573472766705  0.9141756823073747  0.6638195369791553
  0.1649938439039678  0.9197565158073887  0.5834211286655530
  0.5803249243356555  0.0848286749776030  0.3342041618720807
  0.7485296166515215  0.2537738120525562  0.1694368337824132
  0.6663855259188944  0.5805207024648061  0.7552335068063825
  0.0820741420383179  0.4151479037058517  0.3267852515098239
  0.3266346554747440  0.7492295797587932  0.0850082611264376
  0.6624275283921369  0.4064387168766345  0.5793969877804019
  0.3268490340742736  0.6670413219000646  0.1676677636356845
  0.6641546443085752  0.5860231727948383  0.4147328877148869
  0.4120484862255706  0.4970776544603970  0.0857704543372348
  0.6667865918822171  0.4997738935759101  0.1688914125212611
  0.3329762698165886  0.6601445857748658  0.4996979109358329
  0.7505991758866492  0.4996597502685543  0.7552386940330170
  0.6765929642911688  0.8326624545378041  0.1664146181190473
  0.6609103046386626  0.6721891832022818  0.6642918523100404
  0.4074110371188381  0.8342912550531737  0.2525306706004017
  0.4151793542765881  0.8352767656364468  0.5829461381964023
  0.5820177266125586  0.0856000392440449  0.6639402397458120
  0.5818477212752279  0.0057617113431962  0.4182646130819864
  0.7501500068035366  0.8314632335489253  0.4186303132936566
  0.4141571025916226  0.0008477857049331  0.5837241397475880
  0.4147257409361521  0.3318869872140000  0.0850223934332117
  0.8308360834631137  0.6650281071882502  0.0033384434814011
  0.3313991543771267  0.8397409051722416  0.5007242195592487
  0.4131602864296137  0.0034951823474449  0.2526239607599913
  0.7445095870673932  0.1666219126740155  0.7464586449481667
  0.4143719770045689  0.0035410278686285  0.4170617159495346
  0.5872779822441321  0.8322832890219420  0.2557159594241117
  0.7489708294294234  0.1648073149000360  0.9157076960598414
  0.3224059266581052  0.9181158981418498  0.0866202170112503
  0.3329842027877564  0.7494850969406777  0.5876513661556554
  0.3374441327609182  0.4989312317117199  0.4978149130514990
  0.6669316018935604  0.2510181632590426  0.9168242240783097
  0.3304008126403747  0.6661755842599261  0.6635427613374626
  0.6673964596549418  0.5822824389295939  0.2506514536299523
  0.3313800994396793  0.9189974893590515  0.7404845200685872
  0.4981074189316347  0.0842768501415550  0.2519814274705055
  0.4980616865508648  0.5840988853548412  0.4135267755472256
  0.5777678399510263  0.3345695787721751  0.5811796437160286
  0.8331102284632111  0.3339721298541403  0.1713948779626430
  0.5003289397389730  0.1687312053872222  0.0011173710716942
  0.8325249023875391  0.7492629598225100  0.0862568118428447
  0.9991112834787483  0.0817059959199358  0.2510563984264751
  0.4959636542846665  0.4938556276622700  0.9995770439735785
  0.3325540371211377  0.1688962341552685  0.1659162733262890
  0.2483189262034915  0.1681978239759550  0.0889261577756312
  0.8331418181309819  0.4176094955283743  0.9168525279286436
  0.6689020479388630  0.3354597945145128  0.3330529705396277
  0.1655011157629257  0.3259558900873453  0.6647619145720959
  0.4951440463966153  0.4149603130856881  0.5828148520663528
  0.4125561319402073  0.3310150478271404  0.9172615131553662
  0.6616866973966863  0.4951323475285892  0.6644071986725901
  0.8341710372461296  0.4169781828980931  0.4137265495518901
  0.1690932060645809  0.2545556028991488  0.4154111093388853
  0.6650103406421649  0.3410855690163768  0.9993366530416019
  0.5818071693291106  0.4233024004082352  0.3335178894438484
  0.0759440918474147  0.2511379630111957  0.8333168506511505
  0.3320707883606324  0.4147526961239126  0.4141928509123891
  0.3349582278528290  0.0815400696668576  0.4189417761350467
  0.6652409541998179  0.4138677909124373  0.4144910079667523
  0.4145586305001170  0.4971651763492097  0.9158800171477639
  0.4982153814842381  0.6612606869762084  0.1630484701351637
  0.2494414369389283  0.1669441217118642  0.5843293099930079
  0.3312526630822330  0.5804991787093773  0.7503790486042105
  0.9142971031833648  0.4156529896046107  0.3341189807718495
  0.6670702007995510  0.5812857358073301  0.0858869305707362
  0.9199857205554265  0.3355846787998212  0.7499568977710128
  0.4141655778827792  0.5841484490897562  0.6666244846915057
  0.9972262049199637  0.4988684325956043  0.4986892596097411
  0.9993568983593608  0.5801906838906675  0.0831423806583513
  0.9971336100123018  0.4992358900178282  0.6639558687902007
  0.9990648576573428  0.4974285297147958  0.1663536431845349
  0.0020423192492075  0.5820305772526370  0.2519007813312926
  0.0837586146780984  0.5803007278954319  0.0020061501156958
  0.0825990665022303  0.4976000605437457  0.0841100306728749
  0.0811581141405631  0.4987978692971815  0.7495023670940286
  0.9976535395189047  0.4972691846822125  0.3326511627170831
  0.0801670273265298  0.5035044278233747  0.4151924824869191
  0.0807420771947313  0.5829112802382658  0.3330747166082023
  0.0825692708563236  0.6648342404761568  0.0855422526304497
  0.0798668975939026  0.4999871310676497  0.5817634258977790
  0.0807056287955798  0.4982185326693512  0.2496174182746004
  0.9971736108816857  0.5830274720097952  0.4160726063190131
  0.0829820033713150  0.4971287067245174  0.9186715151007605
  0.5007716894037920  0.9263981148860078  0.2525842096987145
  0.3295531671532128  0.8326369647054443  0.9999448956648440
  0.0814488084214271  0.7489816945019873  0.0036639840426276
  0.4148098754976260  0.0854930138805797  0.1685659195268568
  0.9997095069581822  0.4170728321829193  0.7499390183437957
  0.9976036482641053  0.6644506398699414  0.6634608058609671
  0.9987306339537927  0.8332388570908492  0.0041758900196867
  0.5818911115808815  0.0853070981327565  0.0014173151418716
  0.9991871862938415  0.9155886435894528  0.0862586616375312
  0.4970616446114930  0.0028873011221997  0.1684729369925311
  0.9975901818840528  0.8331022590708627  0.1679819297675350
  0.3319395769706672  0.7499087304718967  0.7483845003783867
  0.0800962740651209  0.9161058195996755  0.1683611343135218
  0.4144305327584714  0.7492745926570124  0.6651073685110780
  0.9958136141260683  0.9181112318940617  0.4168443893561206
  0.3301592952011887  0.6653733558156525  0.8350572361453071
  0.0811617644293978  0.7500826269488574  0.8320516402365968
  0.4132032872365457  0.6664879212944113  0.9172613347031040
  0.4135451977247039  0.8307824336521262  0.9168189879767151
  0.5811487260286929  0.0861528442173141  0.8310907294684314
  0.4140182639359447  0.1725885755203530  0.9167632730925782
  0.1626090294555944  0.8340179098550716  0.0056452127195265
  0.5844751368162543  0.0029253564305791  0.2518510146436125
  0.4928417689223215  0.9201108210472823  0.4172581861426374
  0.4963162541689463  0.0842125198997463  0.4181189999951250
  0.6646180170104458  0.1672105020121450  0.3334627302713393
  0.4963821750570681  0.0027846188998363  0.5015260734127255
  0.4970004453219596  0.0845992538808658  0.5837900219816972
  0.5821028115007899  0.0023199138432214  0.5841096390820320
  0.5804902881190040  0.0838603370109328  0.5024547903806421
  0.4979972629992659  0.0020566267952102  0.6638236050753780
  0.5792333050030539  0.1674176115736034  0.0858177446173383
  0.5831881445551613  0.9997634442145912  0.7434151683822889
  0.2456668372393340  0.7508844860957212  0.0015905588641309
  0.4983938676546492  0.0837529401940019  0.7457204897076467
  0.4970437520278671  0.1660783685562634  0.3338370737596123
  0.4957358113814174  0.0022507813408525  0.8300980025155591
  0.5816514794227657  0.0017085528420503  0.9188334121480245
  0.9971029003220957  0.9164365193860661  0.2512994806553754
  0.9964330711097327  0.8341518077678219  0.3336218864662593
  0.0791468755244558  0.8339674795029050  0.4120620937306192
  0.2495888749523104  0.8316931529486178  0.9168158723786892
  0.9987655744792417  0.7499699343562981  0.0865276545040968
  0.0814970971905960  0.3349653285787365  0.9177099808101229
  0.0815902918123478  0.3340393759126196  0.7498949368972349
  0.0803590397564731  0.6658321473171703  0.2504767102650556
  0.1673774261035395  0.5801853816186239  0.0796455970514899
  0.1659304750555575  0.4935361211239465  0.1676830921193624
  0.2495420243640584  0.4976491393857105  0.2508849514572972
  0.2507226406678310  0.4118650969143279  0.5000617155752038
  0.2492100804937463  0.3330780795116771  0.7488211024889269
  0.1664889623244765  0.4147794952607103  0.2495325069128879
  0.1661497387206184  0.4156045653466910  0.9181313354485547
  0.2497635148910251  0.4169981328157282  0.8347504107486307
  0.3303757971799650  0.8362589738760970  0.3357321338163338
  0.4959891753504465  0.2493470065364183  0.2507522172544421
  0.0793402772170784  0.6653784122008609  0.5818080445326335
  0.4925304083614943  0.2488235180059782  0.4177396678491097
  0.1646491750226230  0.5803373444619715  0.2546652751577241
  0.0836966911573834  0.1661890309389535  0.5832679948334715
  0.0798409203993560  0.9183151176685670  0.3345390448721757
  0.0005641872221157  0.1674729351706144  0.6643608983057467
  0.9986601121238133  0.2505938107947528  0.5828561698465228
  0.0809374820384919  0.1669822846673692  0.7482207198104119
  0.1641351667693264  0.4968729619040781  0.3320604829441568
  0.9995484276179702  0.2525620370133788  0.9166520863415971
  0.0001003272519895  0.2517429101580986  0.7477819143977248
  0.1640225865605454  0.1628679045119744  0.8318941800035003
  0.0001364664769363  0.1679411648835119  0.8324708524528736
  0.9207183854310339  0.3344013089731129  0.0831316088432238
  0.0808414221601535  0.1696354341423138  0.9171255631558632
  0.9153411696711147  0.4163521902358066  0.1665215846559466
  0.9170111918740809  0.4163237297247494  0.0005884896097601
  0.9904372746873004  0.8354620951330179  0.4995743592179089
  0.0821809679594104  0.3338175731868470  0.0842471727113251
  0.0828982916837216  0.2513475889328453  0.3317604397561478
  0.9983316383205834  0.4158539271914514  0.2493393854949341
  0.1673071152022261  0.4965367019985618  0.0006224160932840
  0.4972473272156742  0.8309762925734822  0.8356574591165765
  0.3321167611798071  0.4162729276024041  0.7498921318041860
  0.4120191174724849  0.8289777803717232  0.0836238053337495
  0.5716143792402266  0.5009206413386134  0.5828504661612256
  0.3282083829064897  0.8346036767105618  0.1685743576316759
  0.3319567184186848  0.4153411164723710  0.9175308408622785
  0.9977324823378966  0.6660774219368835  0.1661890465701428
  0.1675418562202771  0.3307500485232560  0.5010199264686150
  0.0840788550710031  0.5786762418861586  0.8349427573912491
  0.2507152903646150  0.3319224075514486  0.5835470444894599
  0.0801113544955630  0.9174029847641195  0.0029840224167342
  0.0816872811607081  0.4169756002019401  0.8346825276313994
  0.5807269526607478  0.1668029989467382  0.2502271519756111
  0.2505083003091781  0.4982093118877098  0.7494591393762859
  0.4985448959275914  0.7490820016731200  0.4172637733065953
  0.2485027483096253  0.3337619050623355  0.9177226794993658
  0.2491816611811008  0.5811733843619371  0.0008147426203074
  0.9985849780870973  0.3335107055778271  0.3314645684232642
  0.9992212399265918  0.3339733488857224  0.1672540938460642
  0.0000906189122386  0.0839037347638596  0.0886176875064813
  0.0821649263804466  0.0847489514333454  0.8318565535690660
  0.9997256402780055  0.1676802815625904  0.1682235767582290
  0.9995058104636262  0.2520682916832090  0.0845864325497460
  0.0813158326659710  0.3316337760891160  0.5821932235874965
  0.0816336892932551  0.2527916730202158  0.0016300873370035
  0.9997207802422826  0.3329500434456967  0.6653587235326515
  0.9221000244717026  0.0845180786535863  0.6638368195811496
  0.0803938127154637  0.7494954375008059  0.1679973791877667
  0.0801484320475345  0.4148278979624320  0.5031359613540518
  0.9962644651140806  0.7501026521160479  0.4152525139717587
  0.9974412048115272  0.7486875310099650  0.2503262278995780
  0.0784336573288327  0.7488902406865212  0.3327983977328868
  0.8321814169826955  0.6659743122414781  0.1664078554750828
  0.0013804178130212  0.0017973454073637  0.8327537302338001
  0.0787587985587110  0.6651968704650445  0.4154545646450856
  0.8344389074068116  0.0855415084097522  0.9166725510626733
  0.9940542070434052  0.4142909668827929  0.4158894979316340
  0.9970698476861437  0.3323996392159785  0.5000891277946568
  0.9184634596646369  0.3355963389488522  0.9163622538061617
  0.9988878796659280  0.2519043972298412  0.2496675659888048
  0.6664249092346896  0.4172688789959976  0.9162803034455139
  0.9994886337532598  0.9988534166859908  0.1688374619813397
  0.1700407677164947  0.4138602960000672  0.4164522565803192
  0.0811769282915276  0.0839015744737754  0.1677600922134235
  0.0004033898230082  0.0013193177775951  0.6649934859532444
  0.0813779727697389  0.0836037264376005  0.3326115487996622
  0.9094602188281754  0.1661984177412676  0.4176397743884463
  0.9995138607703755  0.0830262026190184  0.5814135093827939
  0.0812212146335762  0.1680071348507243  0.2489911702242912
  0.9975252517317897  0.4152280802276900  0.5818061938241471
  0.0851273307751396  0.0829367605447419  0.0024947550062109
  0.0823204873626665  0.0844533556681529  0.6656981096484034
  0.9154963475736957  0.4977692296367048  0.9205463089772643
  0.2470396025490440  0.0845300472400433  0.6647507731789810
  0.9976742344681860  0.9190685954856732  0.5828024170166576
  0.4993972026139475  0.0847330245190958  0.0854824102954681
  0.5797077928266311  0.4168815160328496  0.8318969388400642
  0.5813435322688136  0.3364860481192221  0.9169947895618559
  0.3305508419088205  0.0018230907928157  0.0011270108149689
  0.4975104928187481  0.1664421667328120  0.6649248171360370
  0.3301138659827574  0.0024640349358498  0.1688709477969270
  0.4933533309952787  0.5828762063773885  0.7511243905389371
  0.3289755392129816  0.9192062452835529  0.2522841267590962
  0.4978501534079648  0.2499915186278841  0.7433174476913778
  0.3314271479155250  0.1662420458572506  0.6659535009568242
  0.5804379167307667  0.5827264413290614  0.4970980362700679
  0.4138808365954930  0.2499653375588376  0.6654236280915543
  0.4964193587018494  0.4998655166030982  0.4983654938170111
  0.4135730561278595  0.4174913093843179  0.3325090477232462
  0.3317889365837441  0.8337845239296041  0.6648471376045255
  0.4129469897628606  0.5814838225303142  0.3328821631932500
  0.4112420777091210  0.8324157023922135  0.7478097800663241
  0.3332206887704401  0.5827586413646006  0.5831259994021689
  0.3313652251789048  0.8286748171152524  0.8322879282921479
  0.4150398468648954  0.9182800044111578  0.6638989122500296
  0.4140334302618682  0.0858481027872159  0.3349209671857522
  0.2465670811262298  0.9187908298488658  0.6652226851084604
  0.1626169293752237  0.9170511934428776  0.0861721594662583
  0.3323448617594034  0.0008389056101707  0.5016797348334250
  0.2455112897438320  0.9179719790746502  0.0066765974970587
  0.3319646822996202  0.0019585075932743  0.3348556810680902
  0.2506439710880541  0.8354811329064621  0.2530846475678367