 C Cr Ni 
 1.0000000000000000
    21.1200000000000010    0.0000000000000000    0.0000000000000000
     0.0000000000000000   21.1200000000000010    0.0000000000000000
     0.0000000000000000    0.0000000000000000   21.1200000000000010
 C   Cr  Ni 
  52 259 605
Direct
  0.4160807295398041  0.2495406707678045  0.7487124245044606
  0.7516934622856722  0.4948703290123215  0.6683251353066784
  0.8312033354603291  0.3331501731041154  0.0835076232637486
  0.1692739816555408  0.2424008077694927  0.8358447576145874
  0.4158198671197942  0.6678302372195482  0.6656150438315963
  0.3308534484211710  0.7539818355394500  0.1687353848424796
  0.3276316931428870  0.9155824689287189  0.8323626142524093
  0.9968875217780295  0.4984234418592049  0.7501570355156282
  0.2523973544645827  0.8413156053907791  0.4977017303659387
  0.9974459613855419  0.6660415161270633  0.9258434091513595
  0.4143613335318951  0.0055595277965891  0.8316288325886457
  0.6626702388249388  0.2511833238422563  0.9998845424359987
  0.4988856127760582  0.7562819283355655  0.9989079020867088
  0.6660708075552101  0.5867067711868663  0.1646174067447248
  0.0847269062900216  0.5848209735977100  0.5843959156570993
  0.7534721358575399  0.5879644223619761  0.5759835014831252
  0.7488914016363178  0.9175500047473137  0.9169357954932494
  0.9060289614450235  0.6676026522914243  0.8325107958388478
  0.4999641285586710  0.8388183964645860  0.2510672153792173
  0.1632955493557408  0.8363655705289724  0.2487473846688477
  0.9964415925030867  0.3311882153624672  0.9216324799683732
  0.5872465890719729  0.0004216971435097  0.8330704880914263
  0.4986706435450659  0.6591173985844236  0.2481375476140065
  0.4988376455876400  0.8364390292400237  0.7503440389528941
  0.4922564439521805  0.5757594320526931  0.9970807530738744
  0.9961872077682804  0.9176037043678067  0.0003810268721990
  0.1716792381637954  0.6660405776170127  0.7463686734854729
  0.8334240918323191  0.5843929792140561  0.9992371007480301
  0.0855980116481831  0.6631690039044517  0.8347646419073056
  0.5805308161204297  0.5837160471571330  0.0830422099312059
  0.1611989021265871  0.4148963664877378  0.6677678623332851
  0.7511600362282631  0.1658437443082544  0.8298636267181231
  0.6605854698936324  0.4942880047678196  0.5757121390020105
  0.5784717784083115  0.3284856155165421  0.3320247615957526
  0.3404113448029230  0.7482108780991070  0.4970715383894263
  0.4193375013310443  0.4146679053865993  0.5815178069129101
  0.2448214181270411  0.1664413157625457  0.9976102432396770
  0.7488631012498633  0.1654861078787194  0.1687943459677646
  0.2472650936733444  0.4133664955303790  0.5778194699146725
  0.5821755121479939  0.9192034282903200  0.4180933118283227
  0.0820098317315651  0.3345948479334652  0.8323528860138159
  0.9996885562434895  0.4921276076544804  0.4112970568322347
  0.0724265525184821  0.8400086900402689  0.4972137159601619
  0.7519081000737978  0.6698486440647420  0.3331494720021096
  0.1611841077809098  0.7469646438033213  0.4966415321251312
  0.9937094515635260  0.5836546198034770  0.4982358728022481
  0.9985435191208011  0.1652137755735440  0.4146231811880060
  0.1643832846620363  0.8360152513835154  0.9189048038630860
  0.6625628875548746  0.6722452321438537  0.7541470391698643
  0.6652715016454964  0.5810887173951095  0.3427771647264218
  0.7519755932702163  0.4936757203547026  0.1666955390740855
  0.6583175430413231  0.5853915301175073  0.6652709632177710
  0.4975197884228736  0.0054576177189747  0.3315440265202020
  0.3299500281362903  0.6650119632314171  0.3340068998586686
  0.9126136851969638  0.9214483808251523  0.4981232312056070
  0.2502006374278917  0.7513655035136813  0.4982417365730734
  0.7477005058137367  0.1655722927676592  0.2580623939915850
  0.0805158823723026  0.1665878471831058  0.0867646143573876
  0.5838021704190294  0.9196491488891874  0.0008770984858880
  0.8307496083147748  0.0011206779055161  0.3332446083460325
  0.6649888567370933  0.1613251968132869  0.0009534834668839
  0.1642319749952860  0.7493518632172613  0.4055921115758584
  0.1735745937395509  0.6647393401137511  0.8370853651522439
  0.1635438409318543  0.6660124074927435  0.3313906752445941
  0.3332103870924329  0.0005044698946840  0.1672066960829160
  0.2609188051364262  0.6662464619212478  0.7489884608554129
  0.9150106297503569  0.0832769957492222  0.5009633437459216
  0.2494129827215188  0.9226143409321359  0.3338226201668828
  0.5803604485064097  0.3297981454428416  0.4223712107774094
  0.1658394793555290  0.7457915031050830  0.9202349173989548
  0.2453425145568904  0.0025617047778442  0.9178439443514003
  0.7483664243285217  0.9182046562234578  0.5005889509779337
  0.5883152472791571  0.8367199537174760  0.7493288328675929
  0.4140465929466660  0.9202591045213325  0.0005912675066737
  0.4168433228200280  0.9164042631669885  0.8352069324336847
  0.7494646960024431  0.0000291264801338  0.0836083134196723
  0.1639064445090804  0.8362982965922253  0.8273917458472462
  0.2494068080369663  0.7526596230808642  0.6649728134936584
  0.7490027832869263  0.9178431649206130  0.6656554088012606
  0.2475572732026208  0.1654961177952346  0.5836650192163171
  0.2482457240992318  0.9293781287562374  0.4992208028612231
  0.3320099189653356  0.7499913999775228  0.4062282085906336
  0.2489338384942783  0.6659371296357489  0.9210065369150111
  0.1641425916298450  0.8380368119662270  0.6657186314190976
  0.6667392927297989  0.9181264744182517  0.5830356557250865
  0.6726443315874743  0.9197252406203641  0.4170404490109486
  0.6655364272378301  0.0842667589275186  0.4178258672083507
  0.8333505047969618  0.2469665048180726  0.9169417856705023
  0.1591283860126630  0.4137176578139656  0.5783733056421179
  0.2465126906950827  0.6643739998779276  0.2507189304101763
  0.5785385159561957  0.0812658671432347  0.1676304320445694
  0.3283169972146401  0.4961472950315061  0.1685517277068514
  0.2495709779294890  0.4151791902402345  0.4886511709429094
  0.7486355616224543  0.1659122346743058  0.0798241958154965
  0.7505164248900612  0.2469550122349802  0.3343592942327656
  0.5818047357508823  0.1658659016741821  0.5836077780215094
  0.8326530753779717  0.1661214133610648  0.3335182179656365
  0.5784980522772984  0.2485997322545070  0.1659112314099034
  0.6652306125482467  0.0049480497699544  0.3345270324462299
  0.3329468785715094  0.8446118351510685  0.1671514822384592
  0.9962516423657266  0.0830686695154555  0.7490450583530610
  0.4147367531132781  0.0935931986008260  0.8346707370046689
  0.8344916144916363  0.0811348182385545  0.7458262726658453
  0.2509220588179259  0.4144704163429331  0.6688299030002495
  0.5716954985983553  0.2516072319906432  0.9999698827399065
  0.1682821234352545  0.6657711548924790  0.6583663754652029
  0.1707607155366799  0.3328331030832329  0.8345377069035944
  0.4146634040265408  0.2480416745002973  0.6585733800019898
  0.9158690606372260  0.0842697835565752  0.0013520668135713
  0.8327837752315114  0.0015116977686019  0.6654398895662812
  0.0018016381042644  0.4170987702815127  0.0848498333163939
  0.7475808645634392  0.0822135779824819  0.6651175732067547
  0.2487786505364251  0.6656727922799595  0.0859730760733278
  0.4152075539887509  0.0030552896990374  0.9233478170625307
  0.7486682035822327  0.2545498263312915  0.1678795381343225
  0.3306220841802208  0.9201675379686800  0.0828484508516009
  0.9984974574121377  0.4061245402942468  0.4143480455367354
  0.5807301307065516  0.3295242562960588  0.5816804222322012
  0.8347352317815971  0.3317152541778999  0.1732070869341855
  0.8346429688359888  0.1672890702478293  0.6645325213458486
  0.8424511300630060  0.5844312570841302  0.5834209004008792
  0.6639512194047915  0.4129481577261535  0.2533457447850797
  0.1627795645365606  0.8387686396432418  0.4974248645610400
  0.3278496189899281  0.4960037605152501  0.0006756632029696
  0.8329191267920413  0.2437453892826709  0.0849901957902270
  0.4974635924346232  0.0028341226368008  0.1656817078287172
  0.6683879303055927  0.3304809194782013  0.3340237215078610
  0.2495805045838920  0.3318053917408469  0.7477886417496300
  0.5068676141620219  0.4119722741579542  0.5832666251355676
  0.4134239763070626  0.3326623304789617  0.9176884055152752
  0.6615726715738472  0.4958436456253069  0.6657953581311328
  0.8333502558945282  0.4115431559281137  0.4145158916668805
  0.4143506112077128  0.1651673788266458  0.5832720842583937
  0.7496072026043081  0.0015260934727816  0.2513085775978416
  0.3318382371560230  0.5796004511301701  0.7508407943248392
  0.6639957354149023  0.5853799233583001  0.5755779184440125
  0.4164363415309984  0.5773342029995661  0.6675535572771100
  0.3290332226530255  0.4958951238231601  0.3347691223004112
  0.6694388797027819  0.5839031516810445  0.0765554550712936
  0.4971100275690831  0.6671288710332028  0.1595542815602313
  0.3310176112088307  0.4131289033828763  0.9172165113010206
  0.5799842548666106  0.4179342299551126  0.3338029393891955
  0.7518413086446053  0.4961305154480170  0.5782199997465343
  0.6661685633906776  0.4090164707324696  0.4148394672250100
  0.7510008108492771  0.6712595970797220  0.4223191961337435
  0.3313869049687079  0.4142497627764335  0.4147368535773980
  0.4980041209052942  0.5826924840959794  0.4139582330249619
  0.8195936744978336  0.6702518696173740  0.8354179624147167
  0.4121671212327585  0.3315389042610591  0.0863586982620885
  0.6655167682116275  0.5812432516039666  0.2530299565058712
  0.3291794494897208  0.7524261195121790  0.0791399074384672
  0.7504395228332700  0.3313265760766814  0.5808904782564034
  0.3269646502666276  0.6637791801864635  0.1672320657125065
  0.6635837357310764  0.5849696120352941  0.4290863019463982
  0.4033239835569031  0.5803699753581836  0.0010052202795161
  0.6628435554174427  0.4944327604108618  0.1688620177924938
  0.3325808184234410  0.6592973558365350  0.4965936583339569
  0.7503467694895306  0.4975412261675372  0.7571331647393502
  0.6654747949359695  0.8363281444883344  0.1653756986851261
  0.6612028326540476  0.6744743172905715  0.6642671505414541
  0.4102884021936222  0.8382105731406514  0.2508295041456976
  0.4982298174393785  0.9208220820314060  0.5832397665220647
  0.5834391884399129  0.0852870618620907  0.6641537919788163
  0.5831353989451450  0.0090152471928306  0.4159512136374016
  0.8308444598669350  0.6741318450167842  0.0028550496677927
  0.3397613125629210  0.8390433413427481  0.4977865608305218
  0.4153019116726687  0.0041920602608583  0.2519537591543139
  0.7522078591468235  0.1653424617403736  0.7397416902829234
  0.4141666438027973  0.0054010371932027  0.4161457741726122
  0.5899170509428032  0.8350251014317510  0.2488336613363668
  0.7501462244940220  0.1647507897616795  0.5851116610388849
  0.3312060823374365  0.8369648410518652  0.6652803304623737
  0.4973997106968734  0.0851507525597764  0.2502388989685382
  0.7502959810260054  0.8348962802685224  0.4188750941965598
  0.4273511511689512  0.7510773021186768  0.4983178726408580
  0.3313658789329033  0.4989057944818047  0.4934241458608437
  0.6640024265081866  0.2488849641511936  0.9104983060046001
  0.7500850964163487  0.1643759688328654  0.9200689600279914
  0.3257843140320494  0.6656753236960768  0.6635255855145019
  0.4150073072704820  0.0011637988411204  0.5834109766055755
  0.3323843687277712  0.0840937051156740  0.4172671142907291
  0.3303986567387064  0.2473992955793953  0.4167368529481155
  0.4925902402271607  0.5716786331136490  0.2499488991380332
  0.3319634562244640  0.0854025909007094  0.0833711964398219
  0.0836121769648875  0.3321900600035426  0.2484241948417576
  0.4985550391000059  0.2504253218894972  0.9156055178826253
  0.8324526033181590  0.2476867768406750  0.4154063155728572
  0.0806416565344726  0.6689580916562894  0.7456712518385161
  0.4980529820307198  0.1660625401914967  0.5016678996406836
  0.2508382310541707  0.4955489571912195  0.9201309026492795
  0.3303494747891028  0.8277157022994948  0.8359772471225485
  0.0813253181890439  0.0017573191288879  0.4136737067476965
  0.9964517618780661  0.6685804662818445  0.8348620134581346
  0.4892730106387869  0.3290728951249999  0.3333207717844935
  0.2481200874113771  0.3317994383014945  0.2507049363215049
  0.3315734283592863  0.2463842696475907  0.0852247983124356
  0.3306355059697033  0.3292922191718073  0.1666884998674525
  0.4159514270355806  0.9213588301667572  0.1654025985781275
  0.4955431967185789  0.6664210242403222  0.9999482988544294
  0.4981485424712933  0.7508794794226646  0.9102221686658432
  0.8319650639255294  0.8361646851000490  0.1674575403105301
  0.9147002079855031  0.9181662902833467  0.1692906638370465
  0.9998204654250556  0.6680850554109358  0.0140045437079726
  0.6643060332910655  0.5814860356735428  0.9156660488468592
  0.1651074912442924  0.7540633093596973  0.5884026710144202
  0.4998888829508627  0.8399456909290001  0.1618203225419950
  0.0737786574345180  0.7508018859478454  0.4969482164702911
  0.5752579629666630  0.5802149069354416  0.3341731406607206
  0.5682205561773033  0.5840087448813568  0.6677411930560919
  0.6652353839910148  0.7541865890605814  0.9177338632482991
  0.4149315152339845  0.4154890309693919  0.6713266654307969
  0.0829657732265987  0.5822063885440139  0.1677770794716295
  0.1657744039422038  0.4145462080646096  0.7560305639262291
  0.8348805522054463  0.4223709239495708  0.0839206961644643
  0.0869924466126489  0.6653547173251636  0.9235675633774673
  0.3283645988665262  0.6658297801848968  0.0016184454336379
  0.4962349097214070  0.4973881529276118  0.8348391624631147
  0.0797952551642992  0.8380307278969790  0.5882719484987446
  0.1653900485240336  0.4156826199987981  0.0858651945994385
  0.9972879350347085  0.5843563985329628  0.4089019806669557
  0.1624329932750819  0.7454494553084005  0.2516483553217189
  0.5827535246053187  0.5820658151511152  0.9932981802078659
  0.4996184789803959  0.8349705017185376  0.3402074991328289
  0.4920999729653027  0.5784416326027695  0.0880680486790916
  0.9971101735385943  0.6672813047417554  0.3307116564299520
  0.5836771366003205  0.9197532297175737  0.1672746546823307
  0.5797697519911381  0.4156314273473444  0.9988462581213980
  0.0817528477479931  0.8338549401028938  0.0891818826982672
  0.9139163375362018  0.7530641362721786  0.4995522861434363
  0.9966711961649245  0.7553121088193474  0.7493205239381515
  0.0816619248646093  0.0023448387499110  0.5838491222561406
  0.0798258689536877  0.8366325249139929  0.7490891751233923
  0.9085292706479603  0.6680178846859888  0.9227866662067071
  0.0835657186179526  0.5827718374911592  0.4946889752663084
  0.1657819722349297  0.4146244813315152  0.2496488073310432
  0.0824236673712462  0.2483356738090996  0.1675100492080004
  0.2497400871346698  0.2556457295112617  0.0021377440320887
  0.0798369062246915  0.2457539852709652  0.6648434239812167
  0.9981513401490336  0.1642534484654853  0.5046077860433442
  0.0886250555726937  0.1663031356245725  0.4158754200355504
  0.9992275337223175  0.1661616053989700  0.3251486410345480
  0.9983575368471818  0.7576783163613423  0.9193860331587774
  0.1626227363720232  0.9265367418410870  0.9179392640057291
  0.0809888585931529  0.0027908890766650  0.9156266300699105
  0.4994213255356090  0.1649786470473929  0.8325512174481676
  0.0004325928034811  0.2551029697950925  0.4159134134757499
  0.7505895653228206  0.5857056343401735  0.6669386006831943
  0.0817011924131326  0.0025538711122358  0.0887135702950455
  0.9982982083265116  0.1642380493033818  0.0025571996911339
  0.0821311422944107  0.2471789734536718  0.4989425939292357
  0.9976323401384766  0.4987485787725544  0.8397093912330238
  0.0850997095891887  0.3287525552486360  0.4155950588162406
  0.9933104544474283  0.3304044910760171  0.8315027367333201
  0.8324056832132191  0.8367923853752784  0.3330645291329958
  0.0816525158558796  0.5834291074405954  0.6725600790607809
  0.8297976339208222  0.9170174332901924  0.4159913271377115
  0.9928575659075828  0.5844145701811484  0.5865149322603309
  0.8329743175404930  0.6714007449553685  0.6670887527166708
  0.4951994768662110  0.5813132121976436  0.9082585492732747
  0.5053347054366544  0.6697328310998512  0.6666282687857276
  0.5830917087031262  0.8299016953934449  0.4169792853618962
  0.8318217809408728  0.8381733738907027  0.6655449821964724
  0.5801038296570832  0.2397810977166152  0.3353465493944739
  0.7508776780585842  0.9169804547937435  0.8273047179114975
  0.4996833540407956  0.7492318630960429  0.2495634954847019
  0.8395075197954270  0.9182744153769201  0.9171186764686404
  0.5012441522996693  0.6661728359764975  0.3380083565346081
  0.0021461778050130  0.4968108201394805  0.0041992074453940
  0.0004145268279792  0.3324901132460847  0.0101580940978059
  0.0730398162097449  0.4138918267043979  0.6652159515282132
  0.5813696129592103  0.3325522950098262  0.7509012226514306
  0.4118099502300231  0.7514195317877923  0.8365059231018680
  0.0748302478590100  0.8356689529934542  0.9177953245942382
  0.1638117259091124  0.0825163545431659  0.7474291601658113
  0.8405340288040696  0.6692486589269311  0.3307642767763895
  0.1623166250984855  0.9180480396634337  0.7488835969224330
  0.4991835663394175  0.8376976412819624  0.6603130655379650
  0.4957238039705260  0.4953309492704708  0.1675719717758596
  0.4103889642942116  0.6654547190638956  0.7560602260832940
  0.8402880062858064  0.4960317811844601  0.1678250219124273
  0.7556183698693819  0.5844599558450672  0.1675793978894472
  0.8342888291279520  0.5830132622597075  0.0895594777873414
  0.3354442131191162  0.1662668292463919  0.0013829412754452
  0.6645046212228370  0.3329329088043289  0.8329622445315513
  0.6642995336271608  0.5813099870167726  0.7551037306946364
  0.4981677537869443  0.1681085292572664  0.0004258542822309
  0.7492608055483407  0.9182087502506725  0.0071086984512049
  0.9981219582909072  0.0822409418049148  0.2507311676876965
  0.4958769078906816  0.4870351383002722  0.9983015281189370
  0.2488690468644392  0.1653803869294236  0.2494919183585066
  0.7506083953018819  0.0069160077244345  0.9182322525085611
  0.7496780464510099  0.4048562774939765  0.6672782653892556
  0.9161244191016424  0.3298725140891444  0.5813177896096906
  0.6621512295756664  0.1682110266345577  0.8324508261479504
  0.9147518328196267  0.1651644428234237  0.5817999874653645
  0.2488544099762045  0.2450461441767451  0.6651577505410114
  0.2484782579615040  0.1661794976034667  0.0884129037836496
  0.8311575998929480  0.4157434687714845  0.9159204853509352
  0.6654767027661932  0.4939541241781267  0.4867659056894453
  0.6623743926222450  0.2495314696964588  0.0892099845575766
  0.9144148198639594  0.6722191775970602  0.7438828885847214
  0.0784113505581670  0.2434581415311965  0.8335284483909297
  0.9064343901971864  0.4973104450241588  0.7513799293430589
  0.9049959497635465  0.5828090659429468  0.4964382259303635
  0.8410756805790895  0.4964214798173597  0.6649939387961071
  0.9174505925068238  0.3314971941770060  0.2491561147571689
  0.1649699657639328  0.0832534073644855  0.2496890698391782
  0.8333330904600947  0.4114155247549904  0.7503946148270677
  0.1637115114856071  0.0821059970007516  0.5829358691773269
  0.1637878183753307  0.2476657465469876  0.4156827385616576
  0.7495737924262323  0.3333410476828318  0.7502894575587592
  0.5818360309254577  0.8356535419170118  0.5828935707571185
  0.4159918072910561  0.8368537121380385  0.5828865652157118
  0.6657810802576706  0.0846069583462681  0.5830467130273027
  0.6663600474592419  0.0028877078411765  0.5006589636202324
  0.4149861972535051  0.9212920697878291  0.3337350692542255
  0.4988607407125267  0.6656335546669860  0.4969700883588753
  0.7514702283211669  0.2492197616903950  0.9991064888452486
  0.4983775045585624  0.9197938065422211  0.9186786266787141
  0.6661805419167742  0.3293340830962160  0.4990294169784136
  0.7493628787529785  0.0831516265018194  0.3346857733352951
  0.6661235292663116  0.0027967535099032  0.0016909670931788
  0.4993326954751175  0.7526127148672307  0.5838334712224206
  0.5800873075664474  0.7526988495630732  0.5002678142202321
  0.5828526535178862  0.9146246177913934  0.8343925948368927
  0.5797325926845308  0.6682845755462257  0.5806720951144486
  0.6644689652131136  0.0824076553099196  0.0842967184982266
  0.8330958136244238  0.0832502866824315  0.0842739339433830
  0.8342848331528979  0.3292388308938138  0.6644146211051192
  0.6639839497185456  0.2488654837736832  0.2505131882735070
  0.5816620920890079  0.1647615807730577  0.4187179971117672
  0.7494486019580240  0.1654035560324350  0.4167113775938786
  0.6596664664996157  0.1648235307674810  0.1672649672348188
  0.5814773779261763  0.7545634861058587  0.6662200297208867
  0.7509583663317525  0.2535038302908332  0.8327976781853031
  0.6648201341474915  0.4146173045593134  0.7507349399683414
  0.6662117926050726  0.8364329321793201  0.6645612539896184
  0.6643859470592884  0.0834559492417108  0.2509568196044740
  0.7520669474130779  0.0789315193588660  0.8304257689414075
  0.7509150030949387  0.4119360391724711  0.4974702951021104
  0.4992059134287793  0.8420879409734627  0.9999147796571197
  0.6636695735821554  0.4069117215730384  0.5814782297359512
  0.5810981731291253  0.2496994514032743  0.8324211281160464
  0.5838720104326484  0.9200226394830114  0.3298885485262090
  0.5832787832211298  0.9185910763379065  0.6641101639095195
  0.4992186703326978  0.9209335169278005  0.0824728430113655
  0.6663019519804402  0.2488694815111229  0.5836008063883161
  0.8374565552287642  0.1644718962893450  0.8311282563633008
  0.7429070727691434  0.3337896332616301  0.0822191105521444
  0.8346485642765930  0.4139042036666598  0.2510438177052390
  0.5828339684429031  0.8357751196078769  0.9180858356750680
  0.7490179834925800  0.0847664978828399  0.5003477457644581
  0.8369987969659031  0.1651329948296407  0.1682911912483841
  0.6656493560984942  0.1664695226119686  0.5017884815115768
  0.5826409737074086  0.9198147964166518  0.5055683761515781
  0.7485479366067955  0.4078102268444670  0.1690830622198505
  0.4964896890010981  0.7486525484051814  0.7535467886409968
  0.7503211228245281  0.4129152901212812  0.3338418288804390
  0.7492097626814033  0.0007642184022427  0.5826162165081205
  0.6672476799635360  0.9203826909560845  0.2504171056735634
  0.7484671930448374  0.4157560447855373  0.9977888870190748
  0.6636712561459436  0.3377868210468314  0.9984374902441336
  0.6664930226436665  0.0008880458184168  0.6647763679884049
  0.6625533071646468  0.3324149159685410  0.1680526798235883
  0.6664117157709244  0.0847642428617067  0.7466368546088219
  0.6724709957363600  0.0016888846035947  0.8305930281694832
  0.6622320440180257  0.4149743063748942  0.0839534724774158
  0.6635420928878659  0.3305476689998713  0.6668902342493223
  0.6648989128028677  0.0017198388574179  0.1674209072418608
  0.7482610782199034  0.9185105552774184  0.3324293988565683
  0.7487251760516037  0.0787732469730296  0.1675081739429136
  0.8332489905956507  0.0014761724145431  0.0017477749101653
  0.4161583177144080  0.8357813476364828  0.4143435409975564
  0.5806947384858573  0.0873121270464131  0.3323472758020170
  0.5752215875414318  0.6672388364122243  0.7550962269082967
  0.8333794763466832  0.2483225677965392  0.2510717659278347
  0.7494906372561236  0.2478781231040470  0.4996987478651493
  0.8326309375239828  0.3318577425242406  0.8341059627240753
  0.7502487239123531  0.3298550101382035  0.4163894526101474
  0.9146055140665413  0.2478169237908307  0.8325447028626679
  0.9154203248089370  0.2486211813184309  0.4998346884703869
  0.8324631808291010  0.2495995130367181  0.7480289962463248
  0.9156995349704453  0.2481808907129548  0.6648019722618893
  0.7489471451842250  0.3321535739254450  0.9159824781377162
  0.6660583550736591  0.1679513738261735  0.6651496588812240
  0.9158062545519495  0.1655806301982133  0.9172992202584946
  0.7536617362797550  0.5793815663973709  0.3335879563392089
  0.9116191628173476  0.4962911320362517  0.4137576001387351
  0.9162072543167166  0.5828639128090704  0.3300182019973698
  0.8342899334413907  0.4934140722134483  0.4982075862127587
  0.9158361193418093  0.4105920862062222  0.6653855725258208
  0.8312063152964021  0.5846893816633123  0.7509341984134376
  0.1712473889730032  0.5809285630403304  0.5802816997033560
  0.9159352939820142  0.4954866715859034  0.5804363173862610
  0.9147221590920502  0.3302332893470070  0.7498485527831021
  0.9143703592447858  0.4105526583386767  0.4978920255674941
  0.8325190365733537  0.3298535216569904  0.4988294080292297
  0.8312097547657009  0.4963298396431859  0.9988813493932478
  0.8338386921669735  0.4114615786615505  0.5820965620012457
  0.8345583172232800  0.4962951068925778  0.3325346768724173
  0.9139748601880989  0.4153009520439876  0.8359813533516813
  0.9192050592239239  0.4987712187296398  0.0845649638829045
  0.9169421056147483  0.4984690361323540  0.2502169828849590
  0.9209483305020892  0.5813016084173925  0.0035607869027393
  0.9141072203536460  0.0009028304378553  0.5821126174527074
  0.6646292887918908  0.2500409391630885  0.7490008478596868
  0.0810926999694299  0.0018348746048096  0.2503546224235129
  0.5787742951938680  0.3337482065760089  0.0852800290197631
  0.9980166197526651  0.0009236366176833  0.3321463070399282
  0.4959995614259641  0.6665647111649879  0.8351951309369761
  0.9972783597969104  0.0017585479664657  0.4991335051817833
  0.4978440173376615  0.9235652875086310  0.7479555505719819
  0.0813895050423043  0.0829502125446894  0.4992116867587436
  0.6654004955052640  0.0843135985822953  0.9170478381187531
  0.9159522674896042  0.0825864991009940  0.1687464286381350
  0.5818785277931922  0.0015850322812528  0.0830814397578053
  0.8318291885310766  0.0835872950141988  0.4166962128392344
  0.7507308757256888  0.0826147589927945  0.0017165373623735
  0.8322668998902285  0.8349514865292976  0.0028637448432705
  0.5834317471637384  0.8370463761999645  0.0833863370317291
  0.9147590759069099  0.0829063234582092  0.3325907917999616
  0.9153674511927427  0.0004403106773097  0.7490437921445039
  0.9145391528197407  0.6681552916891645  0.0864719519784207
  0.9149884950038624  0.7526071457225503  0.3306127554966147
  0.8314096723657836  0.9189366733758580  0.5822688863518601
  0.9129800556808056  0.8376089861860957  0.5830975389984129
  0.8307981601946349  0.0012131586605548  0.4994869712749774
  0.9141520594452273  0.8367033865501273  0.7492909759747516
  0.9145450813804962  0.9188115400860949  0.6662556251567571
  0.8325768739363278  0.9189317644859736  0.7481058260676654
  0.9153306613230631  0.8344139934821901  0.9186304413056600
  0.9156203980049815  0.9179476165054079  0.8322085080485121
  0.8321260667558976  0.9185285255903999  0.0862807732553763
  0.8317001449282452  0.7525594431514805  0.0863513333753791
  0.0001949960422259  0.5775567409463485  0.9210644518112566
  0.8309869378807783  0.9179135323107631  0.2506214879078006
  0.9148479930768737  0.7569726612561929  0.8339560963410378
  0.9133969202723358  0.8359265262307848  0.4143366384463232
  0.9105245346380045  0.9176463375406615  0.0039657534554048
  0.8330691350165480  0.8360553726785529  0.4998967493314079
  0.9135323355813519  0.9190730731265464  0.3325231058746276
  0.9145240124472295  0.8356734316870242  0.2491660485515924
  0.8339891862295610  0.7529687334579487  0.4158139103801141
  0.1653743240894961  0.3292469547896302  0.4994153402743681
  0.8340517116625299  0.6709893586628100  0.4996994041469422
  0.2482249520209585  0.3245788993157520  0.5821945818641103
  0.9143210761892633  0.5855184017185162  0.6691276877165053
  0.0828044538929258  0.4212382680600050  0.8371782142486185
  0.9137373490103472  0.5780833651769010  0.8353025542278874
  0.2498634769887879  0.4972179238999054  0.7500955416150703
  0.8302817191364721  0.5814223000035138  0.9130568626416203
  0.2495831699832399  0.3330897109893549  0.9183323155686463
  0.8329365346324927  0.7541539870656077  0.5832662801439839
  0.1678153066687951  0.4976186715622647  0.0030224177043159
  0.9150241152826654  0.7521849630246704  0.0043908327210015
  0.2487404554933736  0.5814538328009229  0.0025607591239927
  0.9136299700144750  0.8349994576941552  0.0879248813717987
  0.4112278252515312  0.4953492993793716  0.9166162035184059
  0.9147792710273933  0.7524329145311398  0.1676159477831240
  0.9159040022088029  0.0825721726709225  0.8322471170474731
  0.2481316172750825  0.0845399281815242  0.3323339197885112
  0.1646217714527274  0.6609446628356122  0.4974026454847918
  0.0800795356733237  0.7532387377780325  0.6672402068128304
  0.7497313147461224  0.7536601630500013  0.5000298575161842
  0.2506663783600095  0.6650740522391146  0.5792890378561210
  0.6676590058636985  0.7584216007004275  0.7505690920857724
  0.1691196490727017  0.5773526897311106  0.7512329463423660
  0.6672841307606485  0.6687806029560793  0.8405186611337676
  0.1658629787734073  0.7559130473826096  0.7481399341306872
  0.7477825391563058  0.6701776827704656  0.9198107337268355
  0.1642051048846242  0.4971658001920723  0.4972004436658442
  0.7498945220813918  0.7534461714718057  0.1669711101667669
  0.2479159938085692  0.5818621264779047  0.3317214467349315
  0.6666871232885845  0.7530622259858575  0.4181522904333080
  0.1648845193304199  0.5828308893223634  0.4129172753954622
  0.7493696481988626  0.7577993285631223  0.3321141385624378
  0.2471444204521220  0.5804511085351430  0.1683603696016143
  0.6646601899124223  0.7539487833644074  0.5829758166150013
  0.2485425388861927  0.0833660779760745  0.1674471031281980
  0.2481344553340915  0.4144037873977933  0.1680043845064789
  0.7495151067362409  0.4957367138910723  0.2556426052239305
  0.7535725933149557  0.4956982517504546  0.4146893803301107
  0.6654337018544997  0.8371808199445784  0.0011868978234118
  0.5808691744101800  0.4132726726455823  0.4970945832778586
  0.7481532774282417  0.5822037300569048  0.8349770515835365
  0.6641026070578646  0.4972917656757951  0.8340709106444263
  0.5808606607688591  0.4964552723990032  0.9151096404865121