 C Cr Ni 
 1.0000000000000000
    21.1200000000000010    0.0000000000000000    0.0000000000000000
     0.0000000000000000   21.1200000000000010    0.0000000000000000
     0.0000000000000000    0.0000000000000000   21.1200000000000010
 C   Cr  Ni 
  52 259 605
Direct
  0.0762896340130572  0.5762193080381699  0.5764825908761531
  0.9998350467031389  0.3309982769936939  0.7495374590960276
  0.5020066160357826  0.0105498786269661  0.2445733254862878
  0.4980487984423315  0.6640321706574138  0.7425083549159833
  0.6574843484672772  0.4065532565589277  0.6633473208079554
  0.4066032939005831  0.9207339736856567  0.2453310687142870
  0.6594841744729697  0.4970908262147449  0.5702462726996661
  0.8393779092729639  0.4081425843637759  0.8414886625556621
  0.3317253526933281  0.4959301471859899  0.9194712884998509
  0.5820800640428909  0.5827512053651118  0.0813932178327869
  0.5866048606348377  0.8382612931491510  0.8402765421025942
  0.9984300650792904  0.4991992959307164  0.0846124182832276
  0.3309110244662646  0.6605899169914531  0.2554709006724076
  0.7453260456080423  0.1661912905945236  0.6618125065756214
  0.5847889763833598  0.5776668624349288  0.2532621233125687
  0.7537594534192832  0.5916133674121640  0.5725179518618904
  0.0772025388890095  0.7584995016837824  0.7551971012760382
  0.9981340568765928  0.0833880662211586  0.8338249919689704
  0.0772682602756743  0.6675105987505983  0.6657932789857006
  0.6596645197276466  0.5923550027765468  0.6659240499716492
  0.4942203631486944  0.8410923363993129  0.7479197107796849
  0.3286831026773251  0.8391269486773252  0.5851465127358098
  0.5029615627751950  0.8272973513195820  0.2432996434383427
  0.5022423841594719  0.6614607260180020  0.4222050364310623
  0.6652375383667199  0.7533096990447881  0.1667862372401398
  0.4236440087324009  0.7411891628018153  0.5917958167828746
  0.3283484908476072  0.7470398144454832  0.4930075379715149
  0.7470365129740849  0.1654063882424857  0.8361806155522649
  0.6753714619056819  0.8415939260063912  0.7491439176888657
  0.7477671123920582  0.5040097323724827  0.8456059472320947
  0.7513355287110924  0.4983954421391852  0.6612060615070042
  0.6712272376472210  0.7547446150606910  0.4984227099580231
  0.5647524257373018  0.5973504076633983  0.5684126126527791
  0.4129293108798632  0.0848938274971378  0.7518945326044626
  0.8408359224250980  0.5028727575103314  0.7506042348102709
  0.7476289754752221  0.4059986773920384  0.7526793255951693
  0.8346132720309142  0.5825283033674102  0.9994247764205152
  0.2394390562198127  0.6614202912520706  0.1643279082724210
  0.6530753222295981  0.5001134121145867  0.7573783818155532
  0.3282092849620279  0.7549035799696956  0.1685487701276890
  0.4054253726886108  0.8381395694493419  0.8411835022769655
  0.5005848352164447  0.9196893894790664  0.3385012150351742
  0.8322379667124563  0.9187533037657907  0.0010775661412991
  0.6645410195507900  0.2480418446499920  0.4968837183459224
  0.0025780216644424  0.5857128802411802  0.8338642063820616
  0.4027102139363618  0.8238621110934616  0.3408995797016935
  0.4161456334972234  0.7501473675407930  0.0790794390158840
  0.8340452195580090  0.5826679563543755  0.1716853902113623
  0.1681209608899285  0.6713414542846581  0.5736138088674561
  0.1702073476996461  0.6625640427082713  0.7563059982395587
  0.9139182223429012  0.3325091780358931  0.0007065165728271
  0.4093429522639562  0.6628421020909117  0.8367340386661613
  0.5827210916570054  0.0025515362124980  0.0835204764154918
  0.3172294542201737  0.9228912943340744  0.2488219072796422
  0.5814558705574621  0.0033071458660359  0.9209730555148643
  0.4091257846299999  0.9192135012636634  0.3368591547821499
  0.1680212435347986  0.6687406617421578  0.8441093620650679
  0.9154522053861617  0.9193986003604678  0.3328603753064314
  0.1608092183136050  0.5791546419164366  0.2534304764761613
  0.0816936840257820  0.1669287640995522  0.0857800833456055
  0.9153735778660375  0.2478152796527113  0.1657185461253515
  0.2424076854777270  0.5773185674254403  0.3309250861495481
  0.9169584919219301  0.0025280654250262  0.5798720168250494
  0.1608812268881415  0.6628066766377974  0.4866486607811540
  0.3264667437816230  0.6566230294719902  0.4918827878696664
  0.2580256209193550  0.6649380138116218  0.7488647818385983
  0.2478576967037602  0.5809536648647954  0.8360577601122586
  0.2449131735079180  0.0045372819366044  0.2510892830100527
  0.7553441846986033  0.2491743681316848  0.4954784588581009
  0.1624159596154240  0.8383580407588709  0.0027904520901659
  0.2451351644778240  0.0025948476063802  0.9188449801484896
  0.9145213491801333  0.7546229737262207  0.4973220972764696
  0.6669459155355729  0.6702294903156215  0.8369145806821047
  0.4120831612736087  0.8373224432911645  0.9300001448916887
  0.6744646813737257  0.8389217163550249  0.8386887782487529
  0.9221164360133708  0.9184745729503789  0.0016119912205127
  0.2435963853161067  0.8362943489786373  0.7515302056501126
  0.7517686342108998  0.9238563265854012  0.6628982079116152
  0.1605962265207266  0.9204119577429085  0.4183317570301122
  0.0805950966349180  0.2469998675323460  0.3332732005541941
  0.8348857024618542  0.0840159632973064  0.4142737353585428
  0.3318176240139568  0.7519729106066918  0.4037010410295916
  0.6655898063714043  0.1674962529132395  0.1667301354428871
  0.0817177472247902  0.8474815468860155  0.7498602057167817
  0.5912984167418673  0.9212405144946743  0.3341400603487816
  0.5736503875074012  0.2479278080423343  0.4978485463202194
  0.9157065005760797  0.2429814657481633  0.0015646924523002
  0.1615223761738665  0.3293097486754807  0.4989071009323449
  0.3257550900168116  0.7524807512408808  0.2577784318387137
  0.4131534969489543  0.0038170653470926  0.9201110236949855
  0.1632685431886041  0.4116297843763186  0.2491624126515048
  0.2443597056862436  0.5779732754648121  0.4943547411489618
  0.6632389594333791  0.1664442006826526  0.0024169758925842
  0.8358279450826364  0.4110179183147843  0.4134664888692491
  0.6644337694738499  0.2469586246595647  0.4069575601377954
  0.9159537511611370  0.0844091196817748  0.3330822880505096
  0.4950420255113152  0.2481933026036414  0.0851670316225881
  0.5847421662136680  0.8431995896662674  0.5829213603478949
  0.5905111836239914  0.0029028925477927  0.2500825853509597
  0.7434566667745739  0.2538450394311447  0.8384715865268053
  0.4056504995787353  0.4912921712905937  0.5811851132087491
  0.2470869986469056  0.2479619003408997  0.8344136359090351
  0.3270263609778564  0.3309695797215400  0.0032776907805808
  0.8320871198418471  0.0834679511994625  0.0865174023219311
  0.9141614555513045  0.0021047472799692  0.7485462508761398
  0.9153916946702266  0.3312828921551462  0.0909566648577681
  0.7490409045659725  0.0767132100308831  0.6651315322235800
  0.3263524522242880  0.7528155747506800  0.0786293285251356
  0.4176912420387364  0.7482983970030817  0.1680413861584221
  0.9982072190534665  0.0843428543122555  0.9234853772517799
  0.4120253470020957  0.9959383793466932  0.7487471058652955
  0.7491453774468302  0.0770023910076767  0.8342102543022618
  0.2476253602754094  0.4106340957058391  0.6651990504069308
  0.3187341682357921  0.6661933981369091  0.8381321908514849
  0.8316299525636267  0.4104745050981673  0.2485445356301791
  0.7470219708351687  0.1666193216611346  0.9268515506033344
  0.0791572492996565  0.5817724917399378  0.4879473717761011
  0.5677782051938514  0.4126190944852998  0.6629174668255943
  0.7477380532080269  0.4130274697948154  0.1695232635329055
  0.8373317229910403  0.4112737112523380  0.7502653126785953
  0.2438362676264898  0.4117060226594866  0.8331926193038813
  0.0782892566903726  0.5815600418895203  0.1715528039408855
  0.3285150551780840  0.1659441679112729  0.3338477233769653
  0.1634264594951285  0.0852080407838948  0.5829973349214026
  0.9146761790602943  0.6711016229868774  0.9213035950248936
  0.8369142788133833  0.1663004511296370  0.6644395099001332
  0.5801566078096643  0.4110762785094563  0.1680642159342465
  0.0876589017961248  0.0821739470364784  0.8321764726154084
  0.5700791957860025  0.4987165343864237  0.5785165085518849
  0.4125243806007003  0.3310421738037355  0.9196625627625087
  0.6598456427534234  0.4998691123693901  0.6640494426197139
  0.8381731479272296  0.5824249164305928  0.4133979393046932
  0.8440692320709261  0.5849243569113949  0.5787256115234199
  0.6657667673016230  0.2485444071535674  0.2519425025534098
  0.6648833360264205  0.3286633456716118  0.3299335288871574
  0.1650985203988363  0.4960451585040925  0.0045396741728271
  0.3290686560309312  0.1659038035849838  0.4995344973111638
  0.4961234486006581  0.1699233587797100  0.1635756424378952
  0.6745630424694030  0.5811161846856603  0.2539812781326334
  0.2439095855197299  0.4120590778606358  0.0034818900748187
  0.5849997212613994  0.6679074072435108  0.2526310280799415
  0.4114598676293267  0.4929242851380545  0.7499731692294022
  0.7503014476729014  0.3283800855810324  0.2499639457470868
  0.6718252687962349  0.5815039671978458  0.0818278664156401
  0.1614212663268365  0.8390981870825343  0.4961852524355819
  0.3289924760703548  0.4927101824620070  0.6653274724331011
  0.5020667289516041  0.6604736341948935  0.5109193297767013
  0.6638883285068460  0.2480601194541271  0.0860833422748817
  0.4978939763549823  0.0099315732465345  0.3361131346287003
  0.5811396146063198  0.4880097110326911  0.2510816532728706
  0.2388288493119940  0.7529902754871411  0.1675458491290883
  0.6617715803708456  0.4084465788420212  0.5753378017101162
  0.3294625993554933  0.6626107336090720  0.1661077198177766
  0.6706806009000125  0.5808112365320450  0.4139061814474567
  0.3296726754828614  0.5790333377740446  0.0828866554815851
  0.6646314678111923  0.4135647078795125  0.0856286982382283
  0.5028392988017633  0.6606837230394286  0.3312019317777173
  0.7476014507677733  0.4987592790569828  0.7529453618627504
  0.6668049891702591  0.8427546229587766  0.1648839366018142
  0.6687042111542312  0.6807565179133859  0.6680000749094963
  0.4113670493072604  0.8302805548248653  0.2493993309690697
  0.5806555221001949  0.0849748814885831  0.5000438743834166
  0.7500242735157315  0.0038581334906606  0.5803677887867396
  0.6670441130434487  0.9224499263347824  0.4159569201469013
  0.6690083150584447  0.7521229419579710  0.2559907909973389
  0.3264108621320367  0.1689208908136887  0.6657817627045721
  0.4959413287777277  0.4122116379671122  0.0851793198759060
  0.8333316962473429  0.5824323176069195  0.2590305857053061
  0.3276553546053795  0.8381248564092533  0.4956703795498225
  0.4108477802778895  0.0107198393185081  0.2503251879004891
  0.0018726713465526  0.2470887525013154  0.9179423232612877
  0.5001280105749484  0.9234875670878808  0.4266362287950884
  0.4978156532233334  0.8296029173267390  0.3355044255919155
  0.4965254216000738  0.1677462395331282  0.6655480417901002
  0.3270339165763215  0.9229703473350658  0.0836654957692879
  0.4209841230218558  0.7484719596861397  0.4995740061285836
  0.3270485698443568  0.5747712036015069  0.5825847634912328
  0.5788794838554703  0.3308221815916512  0.9200531963796127
  0.1681960870890304  0.6675625652602578  0.6649494786418823
  0.4188937165753944  0.8366771568943907  0.5801939823981703
  0.8367048573507592  0.4985086351384833  0.8392460552457084
  0.4127457135865937  0.0050475361026058  0.5817010173050765
  0.1657895078543467  0.3298868985196105  0.0026719788171288
  0.9986662643620229  0.4105776985283212  0.2508832387851728
  0.6622137108528907  0.2483021744284450  0.9209310597743022
  0.8336957160237076  0.2474384111212798  0.4153942833694197
  0.1684829694106822  0.7563086327308662  0.7511839786827840
  0.4985037892638097  0.9313455446615969  0.7492118735772485
  0.1671050334631274  0.4938943855187065  0.8327568347024975
  0.4068281028525599  0.8412655549205901  0.7523669142391979
  0.1609509121771117  0.8385537018733733  0.3324740893749686
  0.0820711900139412  0.7538886531063198  0.8439065940249481
  0.4932091440200890  0.4099424401451673  0.4137784672056675
  0.0811044141320926  0.2483812267132395  0.4985092403753816
  0.3281201501090952  0.2480449404958571  0.0848970701707672
  0.4138531996121378  0.4126539619100760  0.1676040905828111
  0.3277751662355388  0.0850741268940720  0.0826841626712249
  0.4109023978570588  0.9221049762214123  0.1548360306994628
  0.7496385012112543  0.6710499347725000  0.9166699092084883
  0.3315064027008597  0.7493567081653379  0.5835111116615995
  0.5825440390943357  0.6737144715812248  0.0826917304632769
  0.1686445336604465  0.5782986571140390  0.5795405663468352
  0.5827906044758322  0.5782855226684055  0.3429939444336801
  0.5687695422969788  0.5850897412966964  0.6614546732343175
  0.6669433105310750  0.7511889508276917  0.0767598817092712
  0.4930351666152582  0.4093873233434493  0.7507431776810665
  0.0802253878942817  0.7536280114799407  0.1680973033090370
  0.5829566821720126  0.7484389850363269  0.9993008977212382
  0.4999772640457064  0.6651006137522099  0.8348142484584715
  0.8339954590998238  0.8368996949728003  0.1681127387833009
  0.9160687014135873  0.9192602369108189  0.1677576865964533
  0.0023599373749871  0.4976995092982612  0.9961205247217894
  0.0034729053392853  0.4952119091173748  0.8366611498643954
  0.3282157820151625  0.3299069822855034  0.4968553670682849
  0.1602806914967752  0.6673713133417710  0.0023721890665801
  0.7496993535138307  0.0033934350939267  0.2496895892019021
  0.4997887827996766  0.7521249528320724  0.4213100441827200
  0.9971788574158134  0.8366884975213056  0.4998463992223394
  0.8347486104541447  0.6736610769093829  0.1681949667646804
  0.4098659089023690  0.5730351028579687  0.8356094685484411
  0.6617834280557758  0.4951779942880469  0.0025710182037711
  0.4928544532377215  0.5772759744311843  0.0827359802055056
  0.9998445246985601  0.7528020278862734  0.0860541637611082
  0.5831582316126042  0.5798557554899170  0.9929154575366077
  0.9996313487271783  0.7542843932433559  0.2497568333489551
  0.0795415313321191  0.7581230499769031  0.6647825129081611
  0.3261826649636096  0.5843297477685154  0.9198028608087063
  0.4975670759843550  0.9192528162613711  0.2483831125970634
  0.9169334965934185  0.6706771652288175  0.4146987121826018
  0.0810813217732336  0.6679130629843072  0.7543831205244016
  0.9137801041665274  0.8383625928025408  0.7509779036884076
  0.0775174826061433  0.6675691374941234  0.5769094148966093
  0.8337189614426735  0.6735430623657138  0.0012864438417276
  0.9953264772389239  0.6710326282345660  0.4937036015231415
  0.3277054157775330  0.4099070620454897  0.4145137235300455
  0.0826757950488892  0.2475875051967284  0.1670227658888611
  0.2469891753893172  0.2465874411034654  0.1677518508134985
  0.9991875510209479  0.1664049433575974  0.6648548376401923
  0.9994172763859568  0.1669372629759608  0.4987140594448111
  0.1630700454388123  0.0842540282639849  0.4168975016045808
  0.9986337425239353  0.1663882496450024  0.3313446912676383
  0.2413927395696221  0.8385785497471145  0.9231464493592908
  0.1632526694776390  0.9201130436742679  0.9197517360797008
  0.0805817778526501  0.9196613796364133  0.6653331883470832
  0.7482044200570577  0.4102874584410345  0.8423583087211457
  0.9999428059777506  0.3304310150066010  0.4974336329237266
  0.9150984397452525  0.6724940828387685  0.5792211315700470
  0.0798890314690308  0.0026237392591070  0.0852223229781267
  0.0829561132964226  0.2463133470970778  0.8365001844690200
  0.0825018380056940  0.3284278256654797  0.5812470469388625
  0.0006127904433577  0.5836217541733389  0.7449879117082199
  0.0804914026826266  0.4939925950610727  0.4131439674940466
  0.8372651465114234  0.1686781883406427  0.8343350594199499
  0.8343552828523475  0.8394918411824904  0.3332928530146430
  0.0813498374152410  0.5770487692268833  0.6666712617116224
  0.8344758411115640  0.9199738572835509  0.4134533958421913
  0.9857664497449388  0.5828893720777726  0.5763259276139026
  0.7536693757046987  0.5818880976446112  0.4835822003021509
  0.6643444864089058  0.5894655566400759  0.7556524339686758
  0.4930944518360589  0.6714668869963822  0.6534382652221464
  0.6699706851926357  0.7543462595659843  0.4090206397285107
  0.9971117845346718  0.0021398451739001  0.4997647018484143
  0.4945805427309625  0.5780506395323352  0.2516976768962348
  0.4074538608294955  0.6640452150981058  0.7473094782728404
  0.9996246031903853  0.5832518491571875  0.2513013489606529
  0.4962934119020996  0.2473292070085580  0.4155855739827811
  0.0824410645535705  0.0007063691151065  0.7487377124794078
  0.3300103770836054  0.6605439580528584  0.3431470439366770
  0.9161395912108942  0.8365456007322762  0.5786082279579494
  0.4946024748058321  0.5716982199439462  0.4128618426197047
  0.0830377892950956  0.3292957435300938  0.0857439508404594
  0.2455692708475027  0.9236607003220408  0.6665789363888525
  0.4965830658671767  0.8385746466721669  0.8390650353293296
  0.9972063570956829  0.9193432635835719  0.9192049789696031
  0.1643576372258017  0.1660344091058387  0.6662468330902147
  0.9240320107935946  0.5839074562924762  0.1704624338410634
  0.5845786757934521  0.8390017011343507  0.7502919217600661
  0.2389229117959989  0.6647059331866326  0.2555785390030185
  0.0829937297948266  0.4148943529242032  0.6627821089263295
  0.5748260000106904  0.3296410222959590  0.7499490653849984
  0.7434722765934287  0.5815638394038073  0.1688001390582561
  0.8321135943396046  0.4933228236736519  0.0045986471464566
  0.4127479092007661  0.1688005798985235  0.9188701610186397
  0.6610234785484987  0.5862694807403779  0.5757328920291337
  0.7504571470004254  0.4987420750162965  0.5719863935954002
  0.3287142806048659  0.4904147910033087  0.3323185795868842
  0.3291190266124638  0.3303793269244337  0.3320106534517493
  0.4146064554658974  0.7495416496152544  0.9907774725259223
  0.7524789770110872  0.5890155962735163  0.6645428264127449
  0.4962941564006616  0.1676705517530986  0.0021556422248692
  0.7432401319825804  0.9204733214594718  0.0019731555240142
  0.7489078278120426  0.4086083568520092  0.6621997756482507
  0.9164767902827629  0.3307999880736839  0.5801999428948118
  0.6564909924538205  0.1660722335073362  0.8362614707837407
  0.7509473009754715  0.0822577601267940  0.4975556962694492
  0.2487967845202773  0.2463592907359790  0.6659607374041970
  0.5878177676621966  0.6704365459176530  0.7502415871279484
  0.5814133725885848  0.1672908469303622  0.9189240320190812
  0.1627292663585595  0.0839436043161989  0.2510165935672155
  0.9148413409061554  0.0838303915269502  0.1676248857705963
  0.6571685034823437  0.4105620139955594  0.7522857509969187
  0.2454256450359685  0.0042079286149385  0.0847372902806309
  0.4105365251439248  0.0866441787195986  0.3348683473377666
  0.8404422055650331  0.4981714985209282  0.6608343554277853
  0.9154752248956801  0.5805709750072445  0.4921850615055308
  0.2460489687586399  0.1679762196237984  0.9160031479988173
  0.6664510516757483  0.4938341132483939  0.4809859205765922
  0.4967437299347915  0.4961517159481222  0.0032571853920839
  0.8329231343179008  0.5926879933829269  0.7487086643514073
  0.9179032687519629  0.8376068960827621  0.9198778439084826
  0.9871174951661789  0.7574352309328026  0.7502971828375382
  0.5085339827360918  0.7586578945719588  0.5815965782212116
  0.6673482766583463  0.9232923122789976  0.5821950344122218
  0.5795184989342836  0.9268414383959860  0.8364618379855226
  0.6663388745547320  0.0037185689558030  0.4987693001179949
  0.4970766322422158  0.0953495095433558  0.2486081367769982
  0.6648244242700068  0.0846897611336800  0.5819957336170115
  0.4126781363260893  0.9216167312340173  0.6643623478567489
  0.4970648694988259  0.9220764305513127  0.9211752106557438
  0.5781159366754597  0.3291047781742574  0.4139419036138220
  0.7507460854569487  0.0847505944605221  0.3321162456573518
  0.6646939425973899  0.0036488521950398  0.0018310325784819
  0.5823304975193376  0.5754590915726012  0.4847034686143629
  0.5834438662880280  0.7555934984645454  0.4990491449316878
  0.7467902401551061  0.2488245778697817  0.0047920624145979
  0.5897316017942932  0.6799703524017637  0.5849299129699685
  0.6643817486211117  0.0845700047264964  0.0850285907578046
  0.9168432822140469  0.2484690422554621  0.4982041707882499
  0.8342884877950507  0.0833702849314496  0.5814311061444091
  0.6641598020037214  0.3294906996914458  0.1689082355931433
  0.0031775013181372  0.3306202221138093  0.8366888527882709
  0.7507816753755023  0.1654766366848657  0.4146262574137333
  0.5816333975009501  0.0860116831154421  0.1660150256490780
  0.5836475744779344  0.7574812219564044  0.6680420906854657
  0.8345951820665540  0.2464145704022554  0.7484389983944116
  0.7476193835808076  0.3202202837286294  0.7498923595581897
  0.9166792971285623  0.2477017205536743  0.6640300005076366
  0.6663640535858318  0.0857972018066089  0.2484528582564868
  0.9985736217993673  0.0828243052821055  0.7462809351296694
  0.7516731295762460  0.4122732273384633  0.4938820204259441
  0.7466942536270482  0.3306672630178984  0.0879928802678630
  0.7505149583615952  0.3304342620338243  0.5778470665157235
  0.8316708233981468  0.3293183610303338  0.1671509262854399
  0.6686409169454867  0.9204305885712001  0.2493535750224534
  0.5829975662111907  0.8373043230941171  0.9256369289595749
  0.7481407024924821  0.2477847309168041  0.1674346897668668
  0.8331949411261086  0.2475732175620548  0.2489982803416473
  0.5800796504550740  0.3303256511060399  0.0858456376685177
  0.5826804336818074  0.6660943161924731  0.9170238894852354
  0.4122747022289169  0.9265744735877051  0.8380924049886176
  0.7480440860813296  0.1661114955860613  0.0846234559655316
  0.5830244160140863  0.9221229183548700  0.0011116853287391
  0.6644289074885819  0.0035445502907993  0.8354997282445304
  0.4958306966704404  0.3293132321404535  0.1671830802285163
  0.6602604482195038  0.3209299594701465  0.6652898179148727
  0.6660949752333338  0.0018095976453260  0.1659102779770239
  0.7496162878688152  0.9204373473926808  0.3326279310450923
  0.7485734455636871  0.0844404467626165  0.1667873251978944
  0.6627440351596264  0.2467091410803112  0.5833571627502301
  0.8331499102376118  0.0064350001860232  0.0019618135866199
  0.8336221255438043  0.3220506930437302  0.8365483987328803
  0.4169308779947676  0.8381767503797878  0.4253146728793163
  0.7509910089573817  0.3298848951688008  0.4126186867078045
  0.5831910428514598  0.0860581718770273  0.3321352605574028
  0.7506791202522107  0.6723289023500193  0.7511188002924907
  0.6638306032431948  0.3349257164559341  0.4943280816584710
  0.6644786054479453  0.0036720558858551  0.6644973246066539
  0.8306852159229255  0.4136443490711234  0.0876232965489641
  0.5816939397649887  0.0049736513155305  0.5810571845925636
  0.5801715658287925  0.1655833838842424  0.4152498592928098
  0.9152728498371770  0.0853798797790208  0.0026911920248862
  0.4963936168268067  0.2488175311465366  0.9191133519065463
  0.6691761072253198  0.8416933638987617  0.6627681547928201
  0.7480834061079046  0.1676138741750507  0.7491677417757069
  0.4992056148993069  0.8367433079882903  0.0007263898842916
  0.6596196661508011  0.3306347192749162  0.8364059355089065
  0.5819881038241438  0.9229803361726320  0.6649521021304837
  0.8341672488796747  0.3306023784361345  0.6632969197269788
  0.4990272154738526  0.9207879449330156  0.0797712339121789
  0.6588609948375608  0.1668959385282239  0.6668803304017562
  0.7474688348433496  0.0836240638579209  0.0031701700406148
  0.5836645619038596  0.8357066648402480  0.0809936608088601
  0.6591142142691664  0.2479203908743058  0.7527285812227046
  0.7457195816022330  0.3297586218167797  0.9225466330767050
  0.7503784342107496  0.1653500367963306  0.5749876909195774
  0.8336444427225375  0.1656614535057826  0.3324326831784630
  0.9167821144461815  0.4971815986601943  0.2514562536039979
  0.8352966414299149  0.4959332812253989  0.4948763210586323
  0.7516538901577003  0.5819720089077662  0.3357571609056190
  0.9266731843499635  0.4985491008006608  0.7495042577218987
  0.9176336395079738  0.5827133880070441  0.3318277612250427
  0.9168268901262228  0.4942104280511282  0.5783507949379989
  0.9171049858587106  0.4123234986742652  0.6632597336258749
  0.9165717792799364  0.4124521369856071  0.4963498875378607
  0.0769826580925744  0.6688662219088835  0.4127876908483655
  0.8318594040867290  0.5846249952771290  0.0856981006669768
  0.9134130834748765  0.3278592696349011  0.7493986214386194
  0.8338132743135134  0.3296190431319317  0.3319442325395467
  0.8344849959061965  0.3312272368895344  0.4964803113479722
  0.9117048451253751  0.4974618155778103  0.0880685653570670
  0.8333664540621197  0.4129522958634371  0.5793782112290971
  0.9161467820528986  0.4954907869408167  0.4122126456426652
  0.9219632285027969  0.5843770992227912  0.0011642049280830
  0.9256123561664906  0.4141335716872551  0.8360284783059764
  0.9164340166073616  0.0845515743717637  0.4982064887494026
  0.4987951942870919  0.8408121837213962  0.6612101491067683
  0.9165547042514416  0.1666534544668350  0.4153705781802206
  0.7512632868424290  0.4113446361786659  0.3314185930898227
  0.0810876729911708  0.1660227778739111  0.2500567728370347
  0.5892323868129767  0.8368180058633872  0.2523768932477628
  0.0821209046646812  0.0839505447022929  0.0020813163287444
  0.5786549380725570  0.2496182534666126  0.0033204760261201
  0.0807535237930225  0.0027962271947977  0.2508077403387837
  0.6661005555999824  0.4114440445223135  0.2502335318314238
  0.9974524223770769  0.0028194658599219  0.3324454897617954
  0.6639454514476053  0.0834887650933609  0.7505932407527643
  0.9164656783670377  0.9196152946954019  0.4979014338929298
  0.5845394551590111  0.9221881597555078  0.4994255135968165
  0.0799317602711585  0.0847917415558478  0.4998778373216565
  0.9153848434820611  0.3292535946152637  0.2491601047011080
  0.9986147439967145  0.1662687313273797  0.1672919068030119
  0.7484798276705977  0.0031198946498045  0.9190431197949238
  0.8350372008893674  0.6688025904808002  0.3327836642072637
  0.8353404314251006  0.7551214421781952  0.4137776261113795
  0.8328836546654711  0.0020481087476847  0.3322583762130294
  0.8352693232176294  0.8394588588175173  0.6644809794243374
  0.7511454533194968  0.9218576995313342  0.4982910278837328
  0.7500755329829084  0.9224916010419442  0.8346652458033761
  0.8343168809378066  0.0020102249599890  0.4979258579500171
  0.9975131434732352  0.8385365207284652  0.8355932154444667
  0.9154242693963017  0.9190937654057942  0.8341911584696553
  0.9176548354435031  0.6701364911397663  0.0858682992538501
  0.8342127432920360  0.8317021420802558  0.0020811414954633
  0.8332272062472269  0.9197324207416542  0.2499156449593887
  0.8328713586272996  0.9199055690072290  0.0891787667894284
  0.9171513528478729  0.8368369085670052  0.4152911041035173
  0.0015904751195061  0.5850184048297227  0.9213513550591725
  0.9155989751045454  0.9206844004966513  0.6651369817292252
  0.9162051680799823  0.6690853104895031  0.7505392647606290
  0.9955088748543358  0.8384188191559907  0.6649105396554582
  0.9159024094074185  0.8369426257780576  0.2492667944677603
  0.7489360008168693  0.0019576716783243  0.0852825818420514
  0.9176047989994078  0.7532828482041733  0.1680326318639136
  0.3290056320191342  0.4107112765545285  0.7504136604473114
  0.9166006409956475  0.7542514910275485  0.3318361357497155
  0.4918766436524612  0.4119718902875786  0.5803314973834430
  0.7534073857093337  0.6702381182910064  0.4122397767593732
  0.4182180439325175  0.4945831794056179  0.9192904408681856
  0.9160919463767240  0.5856314808846909  0.6670798426343610
  0.1648185441888873  0.4116351155795158  0.5812277142389435
  0.9138892916816508  0.5866687433399994  0.8365740232837420
  0.2460375152051590  0.3287926145034276  0.5814979961866926
  0.8327887674223545  0.5866261899287533  0.9136968442832804
  0.1649530589537787  0.4125676274471769  0.7482211274038421
  0.8338291105036983  0.7563789931044061  0.5815448900734893
  0.3264040319728702  0.4929909268817496  0.8311548942113519
  0.9170890511763038  0.7532177200454447  0.0021299779844151
  0.3272957089077320  0.4097613724249252  0.5811498963777527
  0.9169856762425177  0.8358489869970336  0.0858613761987919
  0.8347795159666828  0.9214314648188174  0.5813861224880826
  0.1640706816305540  0.3291993614877075  0.1678165408054930
  0.2416682278382957  0.9223898624922285  0.3357843588695160
  0.1636842505618822  0.2475403343872797  0.2503135058566578
  0.6691479880542328  0.7525417401464397  0.7527068372739421
  0.1665388009811035  0.4945422466064837  0.6645835074268367
  0.5831432179790629  0.7485379244438310  0.8364577246103220
  0.1635093235704703  0.5775728698367558  0.4115160796707775
  0.6674962435146136  0.5833919332440316  0.9157264905852228
  0.1668494424552156  0.5748715181211198  0.7480281056259293
  0.4987159887775615  0.6639660121152708  0.9995853271812033
  0.2472103726208202  0.4939833033760613  0.7487322048290683
  0.7513309921353456  0.8389625561383364  0.4142719364736019
  0.1632510836080705  0.9213192509491854  0.2504030463990056
  0.7530889543185417  0.7538070758655555  0.3322354974027777
  0.9985909431320905  0.0030900896099085  0.0027094850298981
  0.6693987170717347  0.7607864723796935  0.5852397489348570
  0.4982056050955101  0.6631391118105854  0.1662773305833321
  0.7572442622074760  0.7556776297623368  0.4965167031315329
  0.1652847047615650  0.2473659895517608  0.0847212944430193
  0.2458866941813195  0.3305517809161664  0.0864823282499334
  0.5788842573468631  0.4124747400449664  0.0039135569586741
  0.5760838502008716  0.4115247258855468  0.4960394188125715
  0.6674429607486917  0.4936597042146746  0.3345742058181148
  0.5796340530681561  0.5811322493832075  0.8356942994516589
  0.6667278302420687  0.8366762448004567  0.0014879269407888
  0.7460880609108906  0.4119056384388198  0.0057026895705224
  0.7527933082130357  0.5908104758310774  0.8328048251190215