Cr Ni
 1.0000000000000000
    39.4861997199535253    0.0000000000000000    0.0000000000000000
     0.0000000000000000   39.4861997199535253    0.0000000000000000
     0.0000000000000000    0.0000000000000000   39.4861997199535253
 Cr  Ni 
 1596 3725
Direct
  0.4602902242415435  0.7150814225649794  0.2677443573973368
  0.3608385937392820  0.8388364231748250  0.2006424797056705
  0.2786300909518756  0.9477773811087824  0.1087542520862135
  0.9369641846159898  0.5286222106321580  0.7587935058141422
  0.1066414814852657  0.1088152955921223  0.9411689360293664
  0.7723992187582007  0.6655862359414526  0.3336415871078709
  0.9761536835696129  0.0761650230410187  0.4342340154406135
  0.9079902995500037  0.3074964971011460  0.7797275231679298
  0.3649879652325677  0.8834054072444856  0.2461687985465471
  0.5638555973758065  0.1587978630031471  0.1445186201347135
  0.6712322242344094  0.7113371412685028  0.3445698098688377
  0.1400057544800775  0.6697856693387948  0.3480888346954941
  0.0812860301407818  0.5747018961433030  0.3525649149324636
  0.1006585449778971  0.8364905920045258  0.2214796305096998
  0.4969680792154570  0.3483115799129710  0.7004691481941050
  0.3584501492240108  0.2573102217531593  0.6636984261086947
  0.0886941372612115  0.6844213044422999  0.3823830275334075
  0.6406710594999842 -0.0265615237967058  0.5452891461458799
  0.0927386879211468  0.4280002456603094  0.9427866798873032
  0.3295645248717072  0.3557796070043291  0.0495413847497667
  0.8130604142564446  0.2747707725883902  0.9170483627171175
  0.8791202373004938  0.6653551910308841  0.3682914886516748
  0.4863718826441386  0.3602780965544891  0.6378673004252983
  0.6808690309794596  0.2676012307021725  0.2049557810543079
  0.6620660986605016  0.2220777230956282  0.9345519531556037
  0.2377225707383317  0.7542800274959470  0.8539407319835017
  0.2408163199143652  0.9079396142864801  0.8811055228218008
  0.2107290514581116  0.6599596049146365  0.7987858951987384
  0.4581834457132296  0.7211729703157364  0.0370033267205014
  0.6736969800314343  0.7546093830987999  0.3912950831993718
  0.2223452813184353  0.8978923112435202  0.6491983117440877
  0.3345977480587679  0.9764635927855900  0.1179218284400103
  0.8147018590408054  0.5286899739665009  0.1047888418497828
  0.8269283573992667  0.7195238867837734  0.0535131362919741
  0.1384366101509412  0.4459848664618932  0.8389063587122583
  0.4055459769751072  0.3283666394318756  0.8431786327151214
  0.3577763145308255  0.5708764303427092  0.9301070420827322
  0.0442768393704002  0.4464576026018213  0.5331523511774271
  0.9059941604580805  0.1857246035250755  0.8557670649548267
  0.5356424530074883  0.9421094228916521  0.3961453553195817
  0.8021174639790170  0.2477670229596068  0.5924006527044118
 -0.0200949160700390  0.4671977405592426  0.5167835520470900
  0.7557445222818507  0.1096275695769177  0.7658779349165949
  0.7960034372425949  0.9252787564252020  0.4358746666548355
  0.4833250755476591  0.9435399599285802  0.4948570689300030
  0.1854009885125183  0.5861794815839798  0.9198313806498284
  0.0398667853801487  0.6979438923640816  0.4196919414107460
  0.3868137868306867  0.9445654260237237  0.1433961565100180
  0.4725661512232657  0.9356514385341788  0.9559560492038931
  0.3861478759571261  0.1613719162531404  0.5605113054702304
  0.4884090569826702  0.8705628994119307  1.0290524865724540
  0.2697893083712400  0.1726898673568049  0.5850233932652861
  0.0972152636506720  0.6524415935899007  0.5741195044240444
  0.8705751987322102  0.5564920231941082  0.1131025264591154
  0.9280508811945372  0.6505586279511636  0.1005945010548726
  0.3395557636583061  0.0522233326412984  0.0280660541227989
  0.9199048807195521  0.6284032879695189  0.4774437797378021
  0.2007854854113972  0.2074030074821691  0.1758816090755697
  0.9645498055776059  0.4339324057725901  0.1865310588763688
  0.6153016858701245  0.5885728187797263  0.0146013618987258
  0.9802136532427358  0.2874416572052997  0.8609917002282069
  0.8840843290129956  0.2124628402072979  0.7328816276298663
  0.5672453151569472  0.1000059334484651  0.5879707495438696
  0.6714874949771048  0.9106710507121748  0.7439942177391523
  0.1241909695000239  0.9744320189932453  0.5421622996032307
  0.4274702047919297  0.1473460616279069  0.9416683429502970
  0.1598478224013183  0.3978322318047766  0.4562683879786157
  0.0722800186574152  0.0153872703689178  0.0131265486514647
  0.4682116707065774  0.8216400766148166  0.2968768217147993
  0.7520926302949490  0.9702485967658822  0.6430179751835042
  0.4720788107684270  0.8364292558246684  0.4678634996830496
  0.8087471683997695  0.4683649692226775  0.3480283000665862
  0.1180297766083705  0.4056088068045264  0.2515931760612745
  0.0157321379451182  0.5605619750451235  0.5593219974117689
  0.8015807898357307  0.8849770347073747  0.8576617747672256
  0.3536604725356750  0.1362185731619167  0.7378190795062932
  0.2949647230297786  0.1431621530347082  0.7171412601104542
  0.4336767019365850  0.0013556168048063  0.3423717693675245
  0.3414650096733097  0.0959997644105634  0.3931986118646085
  0.4491661980397174  0.0669104008261016  0.0154699800840581
  0.2911967338123236  0.0907780150516861  0.4978960427187295
  0.0379764713707905  0.4301381357648538  0.9191050102039122
  0.9325390526132902  0.4035148176531168  0.8332081598091963
  0.9350345570421387  0.3726843879620820  0.7216894285410246
 -0.0039318633276357  0.3643429396450183  0.7437643655134620
  0.6571274113621266  0.1627206899965550  0.4911564365435223
  0.0899735590542232  0.6994436286314109  0.3209898036721555
  0.6250624144695371  0.8363378835191729  0.1735800851636178
  0.6764525318754242  0.7901987481940618  0.2640461304276878
  0.7063066975086023  0.7139563686626709  0.9607374272947663
  0.3068856351490850  0.2207792008896833  0.5955832285310766
  0.8824404694176027  0.2245594091507245  0.0030042105235736
  0.1959605563179549  0.1294887388451869  0.2549732033628143
  0.3237261513257778  0.8662310231471393  0.0868204218726890
  0.1539873357420031  0.2681319556268509  0.2576196694752458
  0.8719698985370645  0.2567676861072501  0.7766269706885697
  0.6587309965870353  0.0982082236702558  0.9599945616501866
  0.2129628548737765  0.9134881194234735  0.4134095820688266
  0.1510218759226585  0.7932322437774900  0.3133390180310618
  0.1942453530238171  0.6629710512613556  0.0236146059906859
  0.6936238458892104  0.3766681337565386  0.2288121762691277
  0.2939065445055352  0.6303374808641525  0.9497518404996187
  0.8046218723664030  0.4369138492199247  0.2456438032559500
  0.4617978520414613  0.4845374474176541  0.8331081672624526
  0.7541546521688496  0.4522569308392912  0.2789948865061375
  0.2185898802808106  0.6936475196953975  0.5904120847072160
  0.7598215645147632  0.4668713147396689  0.4434710408963967
  0.2579049477851448  0.7969398723439279  0.6111412524254958
  0.0181260528084470  0.2740670227067154  0.6580735341858397
  0.6600423364814254  0.5728936038558231  0.2074357375631802
  0.3501396972945793  0.7031629303521924  0.0689762468767101
  0.8582910966654931 -0.0078004777503007  0.0040650030650790
  0.1734070644954567  0.8553687578755421  0.5863992621223190
  0.8751091202841521  0.1870694409243725  0.9585463380090260
  0.2535480148075721  0.8375554957137658  0.1626609182481676
  0.9344192331419301  0.7778135584306500  0.0700080864627497
  0.3762599161056788  0.5492237063209430  0.7906977555046757
  0.3423400542980085  0.4865192101634517  0.0164208557739124
  0.4693323778732351  0.6759621550227287  0.6665625462517814
  0.6843685295067208  0.7374178509483839  0.8354756897391180
  0.5906269780445507  0.4539492222328158  0.9348889688305603
  0.0732649308339707  0.0681705642948997  0.5470821951148698
  0.1320376449398839  0.1100304922274461  0.4991164922041633
  0.7089520617437334  0.4807905100677396  0.4764624316217195
  0.3737827365401004  0.4639171019051878  0.9773663584557214
  0.1549582474835222  0.8172674088772498  0.8069492639300819
  0.7911096911831192  0.8896961229983499  0.0886319938199700
  0.7210373767430477  0.8147045396120609  0.9522020019915117
  0.9366439551767792  0.7963632584125599  1.0088695243930528
  0.0642393361689619  0.1803666381030878  0.5386352757400519
  0.0255216003259691  0.0219887787199858  0.0522339757255372
  0.9763252639601322  0.1007184978324328  0.0720297244305956
  0.7000553542621474  0.4353968607144797  0.2099189602169557
  0.8085907158462681  0.4825944842235680  0.2888541946310045
  0.0252044536704992  0.0518539282986960  0.1628790425604886
  0.4684681035874794  0.5704597444579195  0.6507636268062778
  0.1117957595166929  0.9321527635257533  0.7740883125615121
  0.0708198161885268  0.1246983211967540  0.5888662586981334
  0.5010122150290355  0.6347563534791806  0.8510268780468522
  0.0924358793954260  0.8211032667268600  0.0575659229938784
  0.5908342934860169  0.8165373288799336  0.7360553289282845
  0.3945085345481375  0.5116297647069394  0.0273509960431907
  0.8373525385957934  0.8502094470019445  0.1867663165781204
  0.6021678195192535  0.6485899352289579  0.7730999615991015
  0.1295909707252401  0.7526942666234666  0.9350330765239755
  0.1515513460305480  0.3158960416123964  0.5285306970387255
  0.7057787846119085  0.6791015545826011  0.8530534564009629
  0.1793536698528836  0.0130411250068932  0.0520675163332766
  0.6983176480860699 -0.0346767055540325  0.9654103572440571
  0.5666661742758848  0.7022845437125501  0.5318731909203185
  0.5285402616613974  0.3764689636087147  0.5316080018744337
  0.4780462162615701  0.6445061345295459  0.5708623911641886
  0.5767454417789853  0.5091277638150661  0.4802444111241500
  0.2651044110156442  0.3645642476863780  0.6708565218298183
  0.1958706231421661 -0.0040851430227588  0.9472425045110267
  0.4849558761890807  0.6304855975877195  0.6292893687890918
  0.8098285470455291  0.0686837591580346  0.6215998255099988
  0.0382428629104050  0.1601856576246707  0.1918270743250576
  0.5875977797048569  0.6775994969205290  0.6553859154378355
  0.5468377508917893  0.7852746433050304  0.6165968246162764
  0.7469935737655107 -0.0251784827033543  0.5794043753594661
  0.1834442695059951  0.9118351631151703  0.8610892253829319
  0.9077754040764562  0.8513260866856573 -0.0027064212316588
  0.9260382720355020  0.0485010481248380  0.6669292149700770
  0.0520265996573667  0.8048148986975778  0.8839841282689301
  0.8868185959514299  0.8384697541932334  0.1484902346081567
  0.9277867199898312  0.1292787082649829  0.0472530807570515
  0.1800992653612930  0.9801658361908036  0.1792204009333847
  0.0056179230403833  0.4045514309960423  0.5168459456265369
  0.0207670388274108  0.4572301230445650  0.4806679448317468
  0.3343375335924556  0.2706445974878614  0.5470892104199068
 -0.0020093213241068  0.8372187671294519  0.4171121419890720
  0.3134683142146382  0.2649364544348175  0.4846493615970601
  0.4697944005398540  0.0067782057460666  0.8626363865151311
  0.0205980639452898  0.9819454733671071  0.2532583978265965
  0.5651555446719937  0.7907901125544939  0.2288390367445642
  0.7202271738181423  0.3903274444533891  0.9287660190262844
  0.1542931183475161  0.8042697098073279  0.4846124814705625
  0.2878716404447756  0.4397572018030291  0.5459237000724581
  0.0331838407404738  0.3850680827473241  0.6398078235059061
  0.2399477707742386  0.1253378069170304  0.4816077602155280
  0.7364788001608662  0.8627643629582361  0.0868443455143658
  0.0865951586950757  0.0815377357080561  0.4041881081001707
  0.9656446646992114  0.5957364432465360  0.5407836583605290
  0.5069600885271929  0.7006739625234382  0.0042769056738514
  0.4525812120504590  0.6753634089593586  0.9967169863914788
  0.9522670426325072  0.6591604604602885  0.5175578188599900
  0.9329546431575388  0.6435474743395566  0.7174044033054388
  0.0996057225925702  0.7738284055182456  0.4775954385776702
  0.5377486158082135  0.9016957174470099  0.0411202341801993
  0.9779479805910674  0.6542545868446280  0.5719140384760557
  0.6245579734991771  0.8522192367706445  0.1124391184343392
  0.8311808063483840  0.3894823708593891  0.9146282939348706
  0.2978979330733956  0.2959097957181533  0.7497714088005372
  0.3223487354561062  0.9442239851404125  0.5740699845590150
  0.2843697696224201  0.9909335470096035  0.1528727940914216
  0.1228868096579143 -0.0204943635342461  0.2812520168187380
  0.0224978952491355  0.4611106588073488  0.7959470090208252
  0.6143273546383080  0.6647324257020958  0.3897369038173656
  0.7123978974975357  0.5601303683704716  0.4008339615389255
  0.4308859750913439  0.2365429611114949  0.7500600708400633
  0.8981252437873700  0.9019451824503087  0.5982279558505583
  0.7495866130860657  0.9846597323166528  0.5157800343546022
  0.0764267878437031  0.1138779655008755  0.6476764053537067
  0.4470832384810959  0.3439229008471622  0.7406543178808880
  0.9726607191109450  0.0669137443982446  0.6258787666267239
  0.8613922159596132  0.0864575032911543  0.5759331473417757
  0.7054291088664139  0.1119968928638099  0.5739720253807796
  0.9917230540639140  0.1929258951672238  0.3909605226598019
  0.5339797898688198  0.9593961307914539  0.3362382247521272
  0.8851858894997353  0.1789219650555149  0.4184525067567678
  0.0690982157903021  0.4971860666913844  0.8566547145372518
  0.0720924446299396 -0.0057403756387676  0.3158234018661637
  0.8009911329231882  0.9687838411677844  0.4778787783009282
  0.1598585800144077  0.9148842903955385  0.2811704077397669
  0.1200580329976385  0.0218819283381478  0.4071863873275308
  0.4811022653734281  0.9595064275050809  0.2009931280419951
  0.9821114161032799  0.0996974636785942  0.3068251352417872
  0.9350549788740989  0.3438001884689266  0.6156372247543693
  0.5724499038445849  0.8353198249356001  0.2718770676996932
  0.9284250869100688  0.0839551345511221  0.2355465915512122
  0.4442109335928497  0.0787960821508177  0.4938562070366866
  0.4199238673284838  0.3764764459110925  0.5508605484110901
  0.0756258417281752  0.0102756227026963  0.2556547028161004
  0.9786663142698243  0.6363478335760167  0.2994992236604557
  0.4421404086674605  0.9748636296748047  0.1546779791566906
  0.1819946175650962  0.7497240572203773  0.8881693141245811
  0.2274278163417361  0.3167964647045475  0.6663266978829041
  0.4945319968464087  0.0287761182703276  0.3504077648132355
  0.5430428480052440  0.0162645253798176  0.3159110785108841
  0.7092657853939296  0.0395938550924137  0.1190225297600323
  0.4968460708423119  0.0447481768857309  0.2885776867466019
  0.3586245086365328  0.2166883766640229  0.5691202765589171
  0.9484306500156771  0.4826128587708163  0.7152742355833813
  0.9014880031427451  0.4772278943871127  0.7548742033187195
  0.4652078791475803  0.7749846030106546  0.2525473012490911
  0.5052478217199965  0.0854096960617586  0.3290498642079398
  0.8765103325803293  0.1294514490977011  0.1461943652385061
  0.7978779837184082  0.3874600823262694  0.5087125392236597
  0.7995424810381279  0.2803950214910050  0.6948322410926593
  0.2100868052127689  0.8845970221388592  0.3051128672921085
  0.3676504770819136  0.2132926238842161  0.6230566020162229
  0.2456881186691041  0.1466472047458937  0.0945952535569987
  0.9559631569172358  0.5864016074546030  0.7344186751429792
  0.9362674369687419  0.4951030065221715  0.6552329501870156
  0.6766687887075626  0.2212018049836320  0.1636363406935825
  0.1050954542920486  0.2796373828307929  0.5205005531298028
  0.2282450435667316  0.9639482510765083  0.1453761020338138
  0.2318853333234815  0.0844191411540362  0.4289436316186128
  0.8378059460940629  0.9323261916094684  0.8636478707624536
  0.2239396290736908  0.4046414765814205  0.2859789212927360
  0.2112102408290424  0.2980822835066544  0.2648158368929799
  0.0418381943863472  0.7428754848315595  0.2306001405296198
  0.5636357585220434  0.3596221807307334  0.8898460052751229
  0.9218049307433601  0.0706666479989228  0.0643859395376044
  0.7261383617541833  0.5950388235169749  0.9954385130352456
  0.5810651078178712  0.8572744766296496  0.7790134254963230
  0.2196378505111744  0.3734993177744941  0.1815105364409375
  0.0244357269400721  0.9032111981894947  0.9182033175034481
  0.6054359006918755  0.0408012035094533  0.0820036535875780
  0.5213130476484316  0.2925132456878260  0.7172724200153653
  0.8126108034108288  0.0805680951567871  0.5010637742168069
  0.7104139906726843  0.9585820520266093  0.7491990763780967
  0.7504571772869641  0.0851426364717503  0.5999782665421077
  0.2190044766751806  0.3589186441532024  0.2442189290046355
  0.9315310084991878  0.2086850997670720  0.9714055150593711
  0.7937484402339318  0.1569412290564440  0.7686142453187291
  0.5076675799072636  0.5208162000129689  0.8953154520547685
  0.9221208661167319  0.0856076909869249  0.0017796545106228
  0.3569737014450070  0.1714218393319362  0.2399256290064924
  0.8039044217433619  0.1132993890406542  0.7268715197038810
  0.6985735714675166  0.4213889703585832  0.2699071130010563
  0.1318744064683390  0.5587791319805091  0.0897346961223349
  0.6893930715061835  0.4669960453558452  0.8564719021801696
  0.4049307450133753  0.2594696603316132  0.6268175689216793
  0.9654631341968926  0.1780571471414396  0.8769066782099278
  0.5071949649066662  0.3360482976739432  0.7598102266058308
  0.0762797531209893  0.5315570794661052  0.3115948423332964
  0.8884847837308129  0.0789368917395881  0.8720829378475389
  0.3526694412530199  0.1107678857030397  0.2545148065279256
  0.3525421659640584  0.1282784492972772  0.1924912441639237
  0.3527834917234592  0.0968404530797964  0.3170479037842357
  0.3963356684569844  0.0355378926380207  0.2370464121814228
  0.0837635853352186  0.6339886194259381  0.1067992836655064
  0.4331520582382093  0.3876415597889360  0.7865409475871651
  0.7034937264260460  0.4102787314936746  0.0361663911334862
  0.3645606839206810  0.2693016370778663  0.3272800738668984
  0.8131445657200536  0.0095531915984735  0.6400809349335970
  0.7980893141838420 -0.0037616492895292  0.8114174205041236
  0.4347342541237220  0.0172125225880004  0.2821829990092236
  0.0307708221212345  0.6215260601552358  0.2656946175935249
  0.1868874968669714  0.4946607059044518  0.0135688207786446
  0.0795747452173045  0.5906902102950456  0.2921018738733671
  0.0288872206252403  0.6040361873778343  0.3253138962907001
  0.7736422723277955  0.1658971168570657  0.4511591061224215
  0.5878097214912980  0.3903988150242680  0.3577618304921192
  0.6840655559623086  0.3339614812654684  0.4151562487987001
  0.7292162397487092  0.4282812965541755  0.5483497937212486
  0.2265793096995967  0.0392829161081929  0.3840511521191835
  0.1143919483718965  0.1954164663442899  0.7555107498228888
  0.0580079998126049  0.8636564227935333  0.5424655376966477
  0.9315413620786517  0.1287824432203212  0.2793492020917277
  0.3219620095941700  0.6579720308111964  0.7871457402245803
  0.8849490689149029  0.2084265625445564  0.2965122963333879
  0.2616388349582064  0.2833841223583206  0.2317126416845578
  0.4991089067694671  0.5349392087940008  0.8356389098620517
  0.9747826870418155  0.5634097634515640  0.3749145207560610
  0.5246277384470037  0.8984016471889895  0.1213613444805531
  0.5678564456008937  0.7747158783832218  0.2878272539083819
  0.0347438866422085  0.0990651701257509  0.4381898712267707
  0.1150204837542116  0.9189593566872533  0.0631925036321684
  0.2992702210568161  0.2620021614454686  0.6414933298427083
  0.2986046275558655  0.5782571087859316  0.6483036222382875
  0.6952247495995707  0.9554083706540828  0.2725903335561485
  0.0383960439108518  0.1288247087006396  0.3146723835927628
  0.4930264717602715  0.6169796188261522  0.6871489242177498
  0.3195956377529262  0.8379581032583857  0.5246006770271556
  0.9414792662437604  0.7906042179652274  0.2377112542700507
  0.3618879020881161  0.7656017870009897  0.5061890513846948
  0.7185717285165922  0.6520582821836844  0.2638079260789019
  0.3150542478603974  0.2842728424646158  0.3630073273781619
  0.2719359581983187  0.1991295813313386  0.6981003120250593
  0.6403647094185931  0.8843879043575048  0.9095422977447983
  0.3171537156090292  0.3798303557236791  0.4456955540460745
  0.4862924879998065  0.9139710387710565  0.0748054373991032
  0.4298963127022211  0.6582636115125157  0.7684884919625622
  0.6424526663478561  0.3839919795753091  0.0322008272762136
  0.0875772111480307  0.1796356459314602  0.0285546396294662
  0.0138947887393271  0.3670876073304613  0.1035647707173556
  0.2045960318915706  0.2054873980161954  0.4061744297319049
  0.4634426340922674  0.7919398232553205  0.1931066179276653
  0.1492078862759108  0.2555715011508135  0.0864811640009139
  0.1349159265357197  0.5107606398500973  0.4982836694417373
  0.8429901680500949  0.5780084370214407  0.5540741031242272
  0.0556276371909789  0.3249750258913159  0.2006781059539411
  0.4366259625773531  0.9295070395899349  0.1069769508825994
  0.4339764107918708  0.8868834570907779  0.0600090219019043
  0.7799969717770047  0.6288518312431212  0.4578358453739132
  0.5057689264866334  0.6220245381359116  0.0848244486620033
  0.4967525459051378  0.5164110760239807  0.0479976712524969
  0.7482561464156302  0.4073427572504807  0.2376453944081641
  0.3218838078375213  0.9725668587556474  0.7808534328058078
  0.5420138732318375  0.8084743500508965  0.7769912504668013
  0.2085182108589276  0.2817739254367677  0.0969655366413515
  0.2832264542848278  0.9240468276317227  0.7767194699238209
  0.1050246460832063  0.2812074877087494  0.2912702617109736
  0.5042642441929995  0.6063807566977480  0.1433846572583083
  0.5230198719683499  0.8639507728279273  0.2470529246862710
  0.8247319744685029  0.6206709759040828  0.4184145743753148
  0.8905547168984261  0.7930291169800507  0.5668876384351124
  0.6412467026708687  0.0185917447330691  0.5867846687523883
  0.7782046628987775  0.9063185972946832  0.7286508132203756
  0.7570788468711029  0.0982874982763190  0.5384583896489354
  0.8602069794070107  0.3008026653801442  0.8185584772341007
  0.8804079933667595  0.6805314928131319  0.3091395781809573
  0.3462593196078997  0.2664801086752974  0.6053751123319451
  0.0588559636608179  0.5076996333431836  0.7962514499378474
  0.1089774067378943  0.0783573856872923  0.8378841741580867
  0.8654246671293625  0.1040095150976659  0.7468254425863661
  0.0149898366110654  0.0339031129930101  0.5341683679434316
  0.0524771296887895  0.7976838639187482  0.6344601693370627
  0.7820030515875988  0.1682409909451428  0.7093244876259631
  0.3609296742064729  0.3104154129527806  0.9549353417766631
  0.2736746377230710  0.9017367547525245  0.0647515159403051
  0.0587906323242486  0.7535431824117108  0.5904925016201089
  0.2695162601061089  0.2676804768987480  0.9041705832299990
  0.7458853310392727  0.1206615868226303  0.7079820476685307
  0.8854954161169565  0.6467189802049305  0.9814499680638024
  0.1161265326694108  0.3483057988994703  0.7879179773049614
  0.3782666076111445  0.8516010840028080  0.0507826826277006
  0.5389750339271999  0.9839883252863456  0.2093209351459801
  0.6547801159695473  0.4391159756854373  0.0198882057497725
  0.5101806267244947  0.7449552631551694  0.0528174060655376
  0.0808015305175222  0.5601448376949599  0.1838205986450870
  0.4146089450909912  0.9393729396614920  0.9322658559712212
  0.4527329372713016  0.0044778025141358  0.5864571647093535
  0.1503780457524369  0.7598224683455506  0.4425510047355360
  0.3998093786053485  0.0797975006887773  0.0487129286623703
  0.9745252400173550  0.5571802016734336  0.8560349127345414
  0.1346396480137829  0.8873962775171420  0.9645017545435466
  0.9003683545288462  0.9128687917857056  0.5354628433909987
  0.3310508067311322  0.4394007108382922  0.4219503270286891
  0.0109217955289676  0.9406841803551435  0.9624201237736473
  0.3540061412106273  0.1652923340304956  0.0679427385574522
  0.3068672463714774  0.2230025969630045  0.1518713263572908
  0.7263403088934033  0.8040672325944284  0.1082954679144001
  0.2094171117927774  0.4260620755671616  0.9250862284992329
  0.8763651534334206  0.6517023737500987  0.2030311864150871
  0.0664377283464162  0.7885481654133707  0.9433609454045901
  0.0734494201642360  0.8819466300905012  0.7688208744136937
  0.0356006896911322  0.8338593671354243  0.7615688661703784
  0.0118371640680597  0.7963342760545237  0.9765049225502971
  0.0861070413118313  0.8380470974853315  0.7257242490263186
  0.1345040117635938  0.6051693313385750  0.1315005451036123
  0.9085584192296491  0.9447482419148785  0.0913454669719272
  0.7332949574972862  0.6017372684858033  0.9384563117326924
  0.6763120477830235  0.5987699766289483  0.9761682334845874
  0.0534984239361651  0.6289358048183766  0.7353643624981208
  0.6436621081945482  0.9892262302493483  0.9367687756336681
  0.2292475459988492  0.7884450445074698  0.9602993905006180
  0.0971389885648091  0.2873315246847532  0.0624262181100554
 -0.0157719512891810  0.2434388770033551  0.9808517810696027
 -0.0089386688775988  0.7165945680824173  0.4527706866608479
  0.8702459527133442  0.8376885090821052  0.8384779508618064
  0.5965933666301642  0.4679209451073095  0.2771881644377285
  0.4351808325680733  0.3521588538927157  0.0766408905511404
  0.6046880503495956  0.5433784554583525  0.1983648686010975
  0.5588420285315856  0.7299059981799964  0.0160411112278996
  0.3492784166199900  0.6885352613580710  0.6231359528034471
  0.7263163333016182  0.2408091540898271 -0.0022482730311000
  0.5581013515101588  0.6047043047025416  0.2791334019429987
  0.2092909118205245  0.2734527730436831  0.8836022553579468
  0.2141961805807945  0.0428385852869198  0.7098539148474247
  0.8125713383179087  0.8426974709800481  0.8125905982210264
  0.0337438531837902  0.6377893497648363  0.4390623821336163
  0.5568995374162082  0.8912380825995685  0.6503931100143981
  0.1819050196884711  0.0328122221864450 -0.0108364986453214
  0.4980381757407918  0.8920902898925858  0.6309519978654816
  0.3707932010783291  0.6635956858120544  0.7500463748477444
  0.5322241725229880  0.9010896091399193  0.5857433708487227
  0.0849624113650324  0.1386094751647891  0.9849866750402473
  0.1797746221280301  0.5981757097077728  0.8577898461498447
  0.7583788285727862  0.5504552186547937  0.6981217590825635
  0.2526025483475020  0.4426183274116298  0.8214733246448509
  0.4388358475450883  0.4677652216498607  0.3331379301332527
  0.6896913863203081  0.7228456948420929  0.6726450068157017
  0.1650745266103103  0.9293583611936841  0.4491358568989445
  0.4453073530116122  0.4986776382781776  0.4396688378868902
  0.8417248803179807  0.8177392749529137  0.5425905885450130
  0.9475158413184531  0.8637253498393886  0.3930692091010711
  0.3429253030772411  0.5171088017023406  0.9505413441167123
  0.6395035783362868  0.5656308022995213  0.6556195534314045
  0.8662912328445062  0.1087635137031884  0.5114337787181968
  0.6692775282426698  0.4654032932438726  0.6310626294689680
  0.8249617818085149  0.6642707269448186  0.8980554673897617
  0.3429871007587832  0.3628539723146744  0.9315002738141159
  0.7428609876090818  0.7133052409805878  0.6903450474281098
  0.6477305032461960  0.3646780137887233  0.5753277418757233
  0.0995082928181964  0.2229474338529397  0.3092190400703824
  0.3126125448045887  0.8088983909040542  0.4176476408410868
  0.0219697359876179  0.0415659326696619 -0.0083655813623318
  0.4876667468365169  0.4519277182592761  0.3015630702140282
  0.7245029000322858  0.7748713387895250  0.2285524680718539
  0.3697018420196411  0.8093674640411954  0.5495309170870785
  0.0682469165126743  0.4194256622284934  0.2847705448407842
  0.9864966118794599  0.1208724792263627  0.4720578552018222
  0.7406262860091855  0.9088173200647589  0.1259185457311728
  0.3902555593848575  0.4696147858429480  0.4271734313491378
  0.0839400260652274  0.6191778351560969  0.1652930866775647
  0.1502618403355805  0.7770865921775572  0.3752764822821833
  0.1110839645455466  0.2298539388223795  0.8601718320132298
  0.2053141334632129  0.3720312764706754  0.6472273041605345
  0.2440688081989355  0.6537873682538972  0.2152992987434986
  0.1787062791582742  0.4656827784258891  0.1343149585163958
  0.0177816773459139  0.3066783782713291  0.7611878065205693
  0.1024268460051604  0.3414194063063364  0.5594685493306062
  0.7113938201168883  0.5580949498139302  0.1726705916700185
  0.8610605508934827  0.4809801013716822  0.1940960899408666
  0.3555613983600067  0.7485120258989308  0.1130874386513285
  0.2068769992035780  0.2679093504337141  0.3888980938547231
  0.5910880059263468  0.9690315891527258  0.4063246558742513
  0.8852884456447756  0.7937459535183662  0.1057949231085671
  0.2569401366640535  0.2375985684752708  0.1862757636732460
  0.2918472188273071  0.5906944082572665  0.3631321402794626
 -0.0111995465506762  0.1786404307953945  0.6095531420121044
  0.6209233972254607  0.1956010859798115  0.3837373345175779
  0.2339574703005264  0.4630363137387614  0.0400706083642957
  0.5254638402158526  0.3501358537585193  0.4170400110920270
  0.1365901535121372  0.2929830159379368  0.8026109215929080
  0.2853950396882284  0.5131883657174856  0.2148794814992023
  0.2681552408927316  0.3135097740935132  0.1036764131520479
  0.9362194607375223  0.7429844295193458  0.1910291637510864
  0.1838104015817457  0.4277905824141723  0.6301349463082490
  0.0334824248532011  0.4176400028299199  0.7517754601216959
  0.9810673316389865  0.6495144533050387 -0.0029454734922910
  0.4721632387405382  0.3190274823643593  0.4070644903828376
  0.3631801565411724  0.2568055770529672  0.3879488357535946
  0.1470803395967392  0.3795345174927466  0.6254048505238241
  0.0469664930552552  0.7951535186855426  0.5124354747538690
  0.2366365375782794  0.5903000850465222  0.4692051110357271
  0.0740760526623828  0.2383317448401286  0.5730316979692113
  0.0317136625195909  0.5903504530989020  0.1569831772772942
  0.6319943204745019  0.8966279153664732  0.8500301195583478
  0.2446185191586329  0.8733304437289474  0.7744074321758999
  0.3571420395557132  0.1577629454038038  0.3003047578644341
  0.5891300099451553  0.7250937599789760  0.9183259322785756
  0.8252455170624030  0.6827152228979324  0.1759150075587172