Cr Ni
 1.0000000000000000
    39.4861997199535253    0.0000000000000000    0.0000000000000000
     0.0000000000000000   39.4861997199535253    0.0000000000000000
     0.0000000000000000    0.0000000000000000   39.4861997199535253
 Cr  Ni 
 1596 3725
Direct
  0.4615474184965359  0.7157396585914064  0.2678720821144837
  0.4859814598934745  0.9885159329144377  0.3078657600530867
  0.8257993162468903  0.6512534154570153  0.3010415255283687
  0.2976968344107644  0.2637098227124339  0.6414373806639799
  0.9189319570036605  0.2335193199198575  0.6327905684006531
  0.8380115266437649  0.8019074684706634  0.3733616489920291
  0.2716291027512200  0.6893573146618334  0.9291320504344065
  0.9774046520712075  0.2249691663159874  0.6532969029020889
  0.7587066769966920  0.4989554333197703  0.3239239068059607
  0.8435683963934061  0.3128143108352936  0.1879716872268903
  0.6394975089933167  0.4602567628984674  0.8972224789915902
  0.9605529227557150  0.3866044955854464  0.1451515893720231
  0.4085580731255693 -0.0053807689620570  0.6311579766364910
  0.7805669282573294  0.2117854017937356  0.4873866294090047
  0.4371613197356110  0.3542816058016721  0.6756757923925291
  0.2082788958104936  0.9080858630320929  0.5859755862202134
  0.0446812898046359  0.2055898466308504  0.2369804905956023
  0.3978980954747591  0.4900576004102569  0.8113827574694398
  0.5340340050000274  0.9445683553743531  0.1638283743788070
  0.8247846633753999  0.4690988457496361  0.5739381750047720
  0.5097503497807372  0.5196831128894487  0.8984538491298717
  0.4588423560617901  0.4987072769002217  0.4984951652526954
  0.2085837140215097  0.5251074772920520  0.6807710382653080
  0.9522027215452984  0.3709925804905185  0.4989625394020916
  0.8210247021394491  0.8321809073649988  0.8726350158724916
  0.8973380771991750  0.9212705821133527  0.8552715214340062
  0.4128053683177278  0.2060280436904083  0.2492649285963304
  0.5064940505377615  0.0216106205106367  0.7577987422213220
  0.6843985518314901  0.7014777290024030  0.5751451282268433
  0.5662569329371239  0.0153075574425524  0.7784191844185784
  0.4933594507075621  0.4523719913147528  0.0757452976262467
  0.5636147368524204  0.5082435140930437  0.4780843763602378
  0.5590316933347548  0.6077417928634605  0.5073164396567802
  0.6197745055472518  0.0528170204362455  0.8433707301896219
  0.4865412055509644  0.9443026139418400  0.4989580080139813
  0.1532189624608412  0.7906566460917621  0.3134349484102953
  0.3131046427624149  0.7250551378386559  0.4952218927816198
  0.7903212549892420  0.7158874157233673  0.5594407392095770
  0.2921941020362205  0.6234807393201167  0.2395849699183272
  0.4895182323466904  0.3402641422866441  0.0422507088042300
  0.6083633422907986  0.7155119317684487  0.9839949496860507
  0.2024019791360916  0.1588937899610711  0.3624057812406674
  0.3478500138058684  0.0660834833921002  0.2093218291127858
  0.7177071972198146  0.6520602839518340  0.2635932816328928
  0.3261940404173287  0.8738692721267561  0.5770627166735486
  0.4640210971878207  0.5852634678858796  0.8524406602785735
  0.1332994987314335  0.0042618220608966  0.9210795432725152
  0.7630850935116726  0.0654160345930237  0.7248490194151290
  0.4925478118564775  0.8003910633242035  0.8185825611834440
  0.5605215078730276  0.1093064482348622  0.0980933520295482
  0.0806334728788890  0.5921836071691083  0.2928676468483611
  0.0506267307328735  0.8349346797608539  0.3231351473151834
  0.4954370156168996  0.3472695810018449  0.6979238779340703
  0.3239106806746896  0.3563638507008759  0.6935330178910303
  0.0880812012314600  0.6823503449413855  0.3819758214619661
  0.6467946379811017 -0.0242596455378096  0.5427907075843105
  0.1118154104881389  0.3846715888367486  0.8945869962939437
  0.3327679055149095  0.4045971852014535  0.0936787383729672
  0.7945784086350826  0.3368489551651427  0.9079001971218029
  0.0852247778816041  0.6454031148307743  0.5100306584905747
  0.3866341086694987  0.9452350348888633  0.1424511446071762
  0.4860945538947735  0.3595041409265891  0.6375827482206006
  0.6814094022445484  0.2678767215773987  0.2062724361783503
  0.1185349784778102  0.4043974222575855  0.2507544613903624
  0.0231374569902773  0.5156114254527764  0.4612213686638999
  0.4746415231389705  0.1224414027883864  0.7865755193727757
  0.2580238999205416  0.2447288763032624  0.7438379527273143
  0.4373566094254737  0.0021518169254079  0.3437146170968579
  0.3425849520183671  0.0982169160006930  0.4032249325847483
  0.4480167851537626  0.0643971437235068  0.0124355686749610
  0.2972852201803661  0.1584596692221439  0.4885703996829923
  0.1449972210997967  0.7306611939712189  0.3299917988569670
  0.8485469717278578  0.4105717447298897  0.5685114808533125
  0.5861864313590804  0.9430546200019040  0.3000196708037880
  0.9450712213796064  0.3622483303771860  0.7837996443389050
  0.7983834898838433  0.9397401281294077  0.3690901184512975
 -0.0227901502935166  0.4666220278860878  0.5163950604429612
  0.9292804470022269  0.0687037724556457  0.2980684205419827
  0.7163090806029546  0.0616356713179747  0.7640581054091614
  0.4401484311988842  0.5098476487282840  0.7081820730256461
  0.8478141220606118  0.2233641598084814  0.5572645024956218
  0.6582074119172848  0.5583532934399039  0.2706696560810918
  0.9225421759897391  0.3867434017701977  0.6594073181324520
  0.5941427941736900  0.5506194854925593  0.9644286742466723
  0.1070792517689648  0.1745226054388316  0.4921746690155717
  0.3139192503600003  0.3216152998420194  0.4665444214896750
  0.1382506921933212  0.5791760477862274  0.9618207296020729
  0.8462712554742836  0.2890926308536276  0.6568085982996100
  0.8480542689079598  0.3501007269685577  0.5267010547780012
  0.9468510445188039  0.2700711193042651  0.4130862826746982
  0.3615004930647676  0.8384096533777243  0.2007504036594022
  0.2195315140835394  0.9185621051232150  0.0993894970978382
  0.8857360131603842  0.5223506985177611  0.7973819421450969
  0.1028932443643881  0.1100420851430423  0.9390397856607217
  0.7179666304348752  0.6196399823235160  0.3870892898058659
  0.9317457034586228  0.1021074673889021  0.4037442897745933
  0.3617405223266903  0.8244566890136217  0.2614974349235729
 -0.0012412925737978  0.2971200312594774  0.1922420259166442
  0.4696375822668574  0.8707922887145785  0.1144354824391793
  0.6705123714967129  0.2096802118831660 -0.0065694606478602
  0.4871341502813974  0.9740174356049929  0.3699789765746139
  0.2538016373601697  0.1277811269841905  0.8177579062681208
  0.8954028950999426  0.3550040395009681  0.8222531499676433
  0.3940367754905899  0.5469797010843515  0.3499732338082174
  0.5560259960844502  0.5900437514055055  0.3396395296518049
  0.8158117347320466  0.3127988668094942  0.9613295074903325
  0.2952163373903642  0.6369303957493742  0.1785452884978562
  0.0718986932241509  0.9109906338073956  0.8731211721898560
  0.3698507142224393  0.4164599118180866  0.4573472620774058
  0.4567244826796069  0.6550149643264733  0.2825635385548443
  0.5104277761571724  0.6009644141399059  0.5471278374490623
  0.3360160179926238  0.0516930533788322  0.3572745116232526
  0.7991885565190345  0.4338237338528784  0.7292461891373927
  0.3354580939496574  0.3123194618096378  0.6496664463885464
  0.9788980076244989  0.9547231832854176  0.6578140756529219
  0.6402081809437620  0.2433984046616556  0.6513122017638926
  0.7301643997977832  0.2519016498508799  0.1715345032231584
  0.7865965746208182  0.2539609741799708  0.3036475442728454
  0.3467831320580645  0.2028685328017915  0.9467138338862817
  0.5099422488037446  0.4889910377665792  0.7919407418676612
  0.7610043795276629  0.2615420350255594  0.7987049151291163
  0.8608620544942018  0.8792415154036014  0.8883253590985629
  0.7105733547249127  0.5446230924617042  0.2359904643477484
  0.9678071026727876  0.4537508056986889  0.8380707166786504
  0.3467084832486999  0.0174797257602985  0.8200405967812792
  0.3814758168547752  0.2313249172638346  0.7879543459501528
  0.6415248723422187  0.9144948266947418  0.5586999122568249
  0.3517873502055176  0.6696544306596499  0.4115070595889068
  0.6529036783267917  0.9680955194395636  0.7209334603877675
  0.8370982613749903  0.7099570002166831  0.5172021434747190
  0.4667549994004619  0.1948753628275717  0.4427712954683222
  0.5769800680015755  0.7880025320139801  0.4590695796798261
  0.8235022306309246  0.6368004946015544  0.3613316141825783
  0.9322614935601944  0.4028011274517477  0.8297363240603484
  0.4283191769827789  0.3655992916164251  0.6148864604413302
  0.4228454706902594  0.8657927161865704  0.4442383072571773
  0.9731933071168473  0.7040090615850758  0.8594532244634095
  0.8885036530047418  0.3816566005888144  0.9298230445683610
  0.0289585671175399  0.6983003603894177  0.8890222726964058
  0.2539954996388447  0.2777819405036596  0.8483296050998367
  0.4650398900178986  0.1658806152613183  0.8315139386758472
  0.7827237267187038  0.5959624767899447  0.7319159568394672
  0.1699144184732904  0.1562447106401724  0.6725469617750909
  0.5146721564458899  0.0521573968631297  0.5833360466708690
  0.5058662027572841  0.6219509105397836  0.9118827164796546
  0.9516958655206205  0.3279365468197383  0.3923628249035122
  0.7943320154193523  0.3438457386189717  0.1617846013728130
  0.0626536685400741  0.3768279766914209  0.9347722560338810
  0.4585086827834002  0.6839780386579386  0.3893075188686465
  0.7349942840139760  0.1642247841163839  0.7506431121014880
  0.8696740939357438  0.9518843944519827  0.6688457877651814
  0.8013065383227710  0.5663360425784295  0.8565555786999904
  0.2319818577300901  0.1835417053933907  0.7984658062873892
  0.7051939557580167  0.4878121828655094  0.5315605009369907
 -0.0105203560579593  0.9755813543774609  0.8325516886564993
  0.0934571826108445  0.0571202100564622  0.6660896597142938
  0.5700435537036248  0.5829270088353754  0.8328350568345640
  0.6938778917726366  0.5308393610147674  0.5728781226993314
  0.7046293029603667  0.0746430887997797  0.7025638855341361
  0.8546416225225059  0.5639360822566538  0.6147859869367728
  0.3730107707253630  0.8972635295672210  0.4188464304788523
  0.5956149983924812  0.4537502190124697  0.3406808473785443
  0.3681259626941392  0.8387515680986152  0.4307800209557612
  0.5146101968555971  0.7461811396784018  0.2793105912410231
  0.8681378114678253  0.6829513594383265  0.7995081370341298
  0.5597294994405889  0.6813898929851353  0.2017004255900073
  0.9046316591149066  0.5801890056808313  0.7730635395567677
  0.9503646521700894  0.7475041667291238  0.6694339352663163
  0.7478446995847567  0.3900573564794805  0.3000356570910763
  0.4958299791215899  0.4654120129953269  0.0173940348261026
  0.5017553058802092  0.5766092087548255  0.0388158621550516
  0.7762074212060212  0.6334886956418844  0.4593693169551958
  0.3806195860444339  0.8997074469007680  0.0974272467661903
  0.5680930660969067  0.6637593417878940  0.4881654168662453
  0.6630984572682405  0.5886394730840113  0.3783980812623580
  0.6821493209323620  0.6580750487576892  0.5318369568981652
  0.1870822092173709  0.5931000067108001  0.3278697879929026
  0.4218151159361889  0.5349971516502861  0.5901154273525436
  0.7877308779462909  0.5077957399650911  0.8760654120604872
  0.1717358671005549  0.9518902696494610  0.0718634962120858
  0.3008736823166713  0.1323596343527290  0.7792689659265885
  0.4347440811966174  0.8170279657759476  0.5736288331639195
  0.5613631286184282  0.6495877177425851  0.3226903108213119
  0.7891981582334650  0.6723739811459692  0.5140213757830331
  0.7063786918288624  0.3622301597953147  0.5950935265673727
  0.5214684068101756  0.7572194535958326  0.4486794076704808
  0.4235052692888883  0.8216092871764100  0.7352387104353784
  0.7543572033343890  0.2276452128795675  0.9096776010262024
  0.7761399582720198  0.4899451396169176  0.7153136639734385
  0.4558966937958810  0.6696607103145324  0.2239428646765532
  0.0401418369413086  0.6673086300298230  0.7811724552358528
  0.6860372862128408  0.8637259684417188  0.4167796491156896
  0.9688622691541346  0.4805014420144317  0.2298727099412977
  0.8978204543770878  0.3364078541486632  0.4933941943308048
  0.9688256235182717  0.4871129136015816  0.4596202977615167
  0.2458660324459777  0.0079575063057943  0.9007150119204934
  0.8951357739577790  0.5959683531007444  0.7135626139678182
  0.6774244355511292  0.2543904510359709  0.0381685751820794
  0.2536375401375474  0.2721189528347181  0.0660961100394543
  0.2885260283663399  0.5932533978772491  0.5825046584574369
  0.1895987923993268  0.4021223276537191  0.5214881652784028
  0.2787350766892082  0.3706018687483131  0.0830330503070015
  0.8683863186070609  0.4614301864673517  0.0238393373129944
  0.2610820306133568  0.6648268932343595  0.7634466870121871
  0.1951827193470845  0.5699333689099506  0.7213803556291170
  0.8526060112980339  0.3772054375038205  0.3967341162985979
  0.1437945479288873  0.6205152861809013  0.5377367294957341
  0.9197532522586973  1.0165737781519280  0.9467785730788372
  0.1483073634532771  0.5300958095668326  0.6602864802745141
  0.9619032535600740  0.4209074720590799  0.2477167552464946
  0.5466954774104582  0.4381540239824921  0.0418954515536463
  0.8434465680146547  0.3286453963118219  0.1309461718300672
  0.9139300980946773  0.4297167594943658  0.0550848113760245
  0.8207196210250073  0.5886079792119263  0.0852280026795015
  0.9775558794514462  0.5922609454423921  0.2565846572493873
  0.0867364093406148  0.3844799892658419  0.6007257801555436
  0.1460528694491869  0.2123606629267986  0.0433670346350175
  0.3247459568578945  0.7787418944064496  0.7098346491390990
  0.9445931659882025  0.2668746750096934  0.1821962208992926
  0.3798771690709247  0.9362024203109771  0.6944061661687240
  0.3019629345596559  0.9024532494390242  0.9063748807660286
  0.1800045810795195  0.0108941081030835  0.6083645418465371
  0.4146495539089773  0.1620885665273771  0.8718570807589699
  0.1674680204169340  0.6431351781509436  0.8986295748978106
  0.5638225400913114  0.7142235485100576  0.0790648267633342
  0.2080096300197251  0.8419163969213622  0.9436480027084372
  0.7313093905462379  0.2835995883661401  0.0474683150574675
  0.1356272656984803  0.6338641528220019  0.9452770047559405
  0.3752373040323330  0.3445967759292932  0.2469086745455447
  0.3947809488293470  0.5457566754726121  0.1281857144546052
  0.5941312381051412  0.9361543613375291  0.0544486843249231
  0.9818548081183437  0.1456774327167694  0.1188506238307473
  0.5432021164199508  0.8367137484717445  0.8871303854609702
  0.1308747366485584  0.5927603701902774  0.8957897074937223
  0.9265894920528709  0.5940621527549850  0.3523661836002080
  0.1048882697744931  0.5480444412152288  0.8599381653115098
  0.0754658922947060  0.4615519702432844  0.0994890569356415
  0.1408965247570829  0.6803903652005787  0.7111046590032100
  0.7770617782638863  0.1900203259467974  0.0912176451540744
  0.0942886234022662  0.3727616409730120  0.6634198524520689
  0.6314190312035234  0.3368911655314833  0.9755039648551698
  0.0581431736968828  0.5956446213924832  0.6223761338214543
  0.9221001959713201  0.4927170508368498  0.0393140563237492
  0.1123494983489428  0.9309231617333293  0.3140552866914911
  0.5090743037314043  0.6988558005399385  0.2349200155248617
  0.2134660677615887  0.8335326819807592  0.4898449782535251
  0.0871859525427430  0.6029904079694601  0.9341902418300275
 -0.0055845819406759  0.3649038550447192  0.7444730854109464
  0.6638045882316689  0.1641749639339140  0.4943009030451451
  0.1016800448064562  0.8367212833368300  0.2207868064870109
  0.3064769848192786  0.2179075650266661  0.5948308302237189
  0.0606386865532432  0.9295665760332689  0.4128240596706645
  0.9648705714069229  0.5717608671924560  0.7956479070027308
  0.1986673276161001  0.0965948526710105  0.3772403422943386
  0.5218486394733918  0.8961870275741557  0.8660657629431510
  0.0468447019691888  0.5188385944151666  0.7402890009456807
  0.0903123482660502  0.6620319988344650  0.9720520541027786
  0.6985461161455402 -0.0365501342814653  0.9679307334694354
  0.0105650880336876  0.4722301279577313  0.7382454727064803
  0.2958743392649476  0.7473090035425841  0.8802539161580956
  0.6881560038766131  0.7673271179559645  0.9441364110825525
  0.6771232367153863  0.7882391961968952  0.2636625593650915
  0.5192192613929750  0.8203806330952729  0.2050014599134232
  0.1092385446926764  0.8694692027733737  0.0235751355819214
  0.1904682468700057  0.6547664348991120  0.5592910419776780
  0.1470995003765100  0.6500185906685724  0.6009772528036587
  0.2458162664029575  0.5743465510748369  0.6823715661354701
  0.1618703919431541  0.6229313265484347  0.7298592593651209
  0.5634993172056423  0.1457726810945434  0.2063610703477184
  0.1085759111674723  0.6464748846706225  0.8808925562961052
  0.3799350618061510  0.8321862524809717  0.9430814413886995
  0.7329384385452979  0.8475182376631801  0.1509188975448665
  0.0893288072347444  0.6973099450089411  0.3226517475523257
  0.4146846264986971  0.3911844894536160  0.4895182366648581
  0.6103307875274437  0.1148678539343608  0.5455942444046105
  0.8811948940292786  0.2256268896343322 -0.0007312191884098
  0.1974098914568684  0.1446786979497044  0.1921088407880615
  0.3764178220085097  0.8539018626559043  0.0527586009379608
  0.1567561786886638  0.2674002267134596  0.2566681467998545
  0.8701137380599974  0.2598253411970838  0.7773210857127388
  0.8015026718508927  0.8871267017922065  0.8570186162748831
  0.6492047640299791  0.0896920164602017  0.9585737890989967
  0.3842072339098162  0.1584183476560843  0.5622892730943606
  0.8651523006871358  0.5135622553584723  0.2975635414565428
  0.5196600213934141  0.8545744832363923  0.0820326544398989
  0.3208162898090018  0.1691378045425327  0.5493816335788062
  0.1818033379868340  0.6991091344652471  0.6072136634613853
  0.8693028409426545  0.5567369846603263  0.1136741806216033
  0.9272706363241033  0.6362936998148557  0.1652937413193274
  0.3401164928660311  0.0564693031961833  0.0260506676179537
  0.9242202840990308  0.5774162499749382  0.4132455937334812
  0.1974418031617590  0.1610896343630347  0.1319415408661929
  0.9650195962996787  0.4343067174560217  0.1885677940708478
  0.5512639602288834  0.5263775857860519  0.1285188669939903
  0.9766611856975754  0.2879913852271144  0.8601506038223022
  0.9005853926346155  0.1229733000143486  0.6380755818971177
  0.6731131713058651  0.9110667683953048  0.7403400667273619
  0.9605148960068876  0.4342663815276142  0.6682747395658782
  0.1638912089458179  0.5410585333150528  0.8802812159088346
  0.4332101036954144  0.3875711139895568  0.7837564426168475
  0.7960602955821015  0.0846579850746533  0.6169588387028330
  0.7500911769777920 -0.0167891794913653  0.9177795201239509
  0.4379554052113708  0.0196361710786657  0.2828355948783854
  0.0316023690238993  0.6361040258918120  0.2040127044599467
  0.2686701929217135  0.4208349634198837  0.9430735407929587
  0.0828292193897626  0.6367434856639415  0.3372743722088246
  0.0289501762166541  0.6077320879072122  0.3249531962431582
  0.6779810586209546  0.2244428533027389  0.3912867666488156
  0.5413390604962969  0.4236580914934364  0.3302810564522829
  0.4500565582388745  0.3113989111754080  0.6334849840109837
  0.6872413305804568  0.3315207069160289  0.4162695951522449
  0.4985420874623119  0.0651464513654012  0.4571342816103107
  0.4201887427613464  0.3775301167095544  0.5558739606904496
  0.4289815490911345  0.2357026544978071  0.7507111169966527
  0.8922357549690449  0.7942740352557301  0.5704103518500029
  0.6533758447498144  0.4444538643280271  0.0206797683789193
  0.6433536721862926  0.0261692535189531  0.6134704991595782
  0.8313381269563723  0.9098738227437162  0.6876249764324570
  0.7819398831444505  0.1383680043691965  0.5850713057456993
  0.8584204464585192  0.3047668641242431  0.8190030448239434
  0.8803010212219551  0.6811953795098609  0.3094285478667059
  0.4189078181886750  0.2256071321973948  0.4149523552007288
  0.3465853296355948  0.2681960675837963  0.6072128771136907
  0.0574235909246924  0.5075322545589745  0.7981971337989112
  0.2056870340319398  0.2525599702756074  0.2232930002475089
  0.1163522764290377  0.0325215846734007  0.7906308962189387
  0.8139809065849750  0.1019662902987797  0.7851398170012105
  0.0661638900988979  1.0133838959128070  0.5669348999956336
  0.9955887366352232  0.8470585160257843  0.6455756388431168
  0.7809593789867778  0.1723822534531166  0.7104743672927388
  0.3620377662627698  0.3120809920568303  0.9501498926425350
  0.3205506220456883  0.8177939235627357  0.0441347894652839
  0.0133522000318250  0.7062473877431208  0.5885634594407964
  0.2664424962192811  0.2689627060567080  0.9051288733462888
  0.7437607337317025  0.1207112128865929  0.7078790170135156
  0.8806583929243713  0.6454576895461500  0.9785291885044335
  0.0534700053707504  0.3555630515412538  0.7657536083269318
  0.3853209155755913  0.9596576119601767  0.0815615171326810
  0.4893452732056987  0.0020802280136610  0.2461735579346625
  0.1002933535335941  0.2106632491218136  0.6959876708643817
  0.4230765180489692  0.9328703777061356  0.1937839979151972
  0.2820796501309287  0.1563945528346051  0.6520410514896821
  0.0561903120991989  0.8621792120999062  0.5481287677098869
  0.9842381217015012  0.1121275732270160  0.2420447013296361
  0.2656980365281196  0.5502374579361075  0.8067854636958186
 -0.0045520686527697  0.2197113762673299  0.2707310110657497
  0.4999723137587016  0.5348104972716462  0.8363573082095619
  0.6442465731636786  0.3858876392876202  0.0319829968379897
  0.9745790386613526  0.5646012651660195  0.3760447571197578
  0.0730874881813690  0.0157059977186794  0.0107484450327903
  0.7012416661903575  0.9719821170877624  0.6792996380401322
  0.4724475299907885  0.7743416626790742  0.4838723647361626
  0.1810413226207918  0.9942421831659346  0.1165494169705408
  0.7104686803800213  0.4802964226287791  0.4766338943427965
  0.6906059073517696  0.3719259614771175  0.5290938383701353
  0.2284363456676099  0.9639520290306646  0.1426677089833837
  0.2958425787445401  0.1154319191723042  0.4397441681344647
  0.1327319665005550  0.5554508927248274  0.0916966184010241
  0.6967846382386484  0.4044522364934555  0.3336665743863350
  0.8767276883097870  0.1123704712906647  0.5098915025320172
  0.5194106971750267  0.2914457967523431  0.7165666050026667
  0.3333977811782510  0.4669758091383354  0.3003916136024332
  0.9288871615572967  0.2799533583548245  0.8962821431695243
  0.5058042856741132  0.3347269258346872  0.7590754159650586
  0.0786669958551825  0.5296965642533017  0.3086691562864903
  0.8872610070040882  0.0776444281760829  0.8678172999018726
  0.3538721698174887  0.1093741556443984  0.2566168750437073
  0.3581093140119522  0.1914286903791017  0.1776542652490457
  0.3003430787534533  0.0816505650709962  0.2462669583713737
  0.3736865673482359  0.9459585334033914  0.2288070247743627
  0.0861501555138875  0.6985181252577631  0.0840720954269868
  0.4708000443237210  0.8207775506836178  0.2982094268297372
  0.5473559043508954  0.9591000271308694  0.0206266856622075
  0.5681270504832362  0.7745755891693108  0.2885624818613999
  0.1726820357498314  0.4412639718110086  0.5681311660168206
  0.1038040197434303  0.1285693854099013  0.4522011341373389
  0.0239417055476679  0.0056225717523370  0.1163994335664449
  0.2454187036763975  0.2272844716747337  0.5708842781496390
  0.2581891355121138  0.5265560332128491  0.6427287942474025
  0.6401619858455069  0.9403792090039098  0.1970228339571722
  0.0910936309505724  0.0995882867079360  0.3442523536725851
  0.5546810063359940  0.6109693840947517  0.7115186936433012
  0.3141425707383080  0.7913006709785693  0.6492210696223863
 -0.0098059725283552  0.7589431415965718  0.2645795569876881
  0.3617336233446612  0.7115065190923942  0.4647534438165799
  0.6683616491116330  0.6795771196467527  0.2359757125169615
  0.3195603576547747  0.3445869951170479  0.3451697162479032
  0.6983777421655937  0.8749466961832129  0.9340115561143736
  0.3161616385221992  0.3817770611149746  0.4438196731099785
  0.3318271701095635  0.6135200131185233  0.7447828097718012
  0.5810708260789987  0.3297246089068986  0.1519723130460132
  0.0903733227896462  0.1798712735303543  0.0292158744856454
  0.0143742663810700  0.3672314215388867  0.1022334282339088
  0.2585364566823343  0.2366324580869881  0.4158803317942301
  0.4668651341307925  0.7919575829459624  0.1946202004309703
  0.1493410457958512  0.2531633805910536  0.0895798045117050
  0.8437885134850893  0.5770436768169178  0.5530471539898387
  0.4535928342374630  0.0689105616784892  0.5586607713262174
  0.3220627552184097  0.9739985827347999  0.7830172333061514
  0.9211729921113503  0.9949510262627230  0.7477162832015232
  0.7700876955034157  0.5748492683426432  0.4742297303309749
  0.6748696625550274  0.6736959339905352  0.4695024286354200
  0.8494940557577562  0.7124031211744410  0.6756343914159866
  0.5038363333426473  0.6067926406514863  0.1453186023379054
  0.3732365879753762  0.8814987915875818  0.4765298303583546
  0.8224107363396871  0.6209115328944416  0.4221470314808409
  0.7815265253864027  0.7665171187790970  0.6003761433038329
  0.5133952475164941  0.7424492872832091  0.0559076814952814
  0.9742795222631762  0.5431740076793481  0.2122837692929734
  0.1340829222942191  0.5901457098003241  0.1928206598542453
  0.2516378108699074  0.7309820208969687  0.3633536850519158
  0.5523699750275283  0.0219798798016487  0.5510794736118148
  0.7912913782400117  0.8635444224831738  0.4544949806919857
  0.2655550848051499  0.8226718732981214  0.4558844974696875
  0.2963324729019646  0.0218001940730208  0.2605416709440740
  0.4026649182481558  0.1309212196419493  0.0909143704345078
  0.6872150823708514  0.3136722994898786  0.8248725905219871
  0.9722556559527170  0.5569631763092140  0.8588643839409020
  0.9253928361347094  0.0573575160804885  0.3609601409330566
  0.1372397408981800  0.8884495333541721  0.9683006554510915
  0.8828137073298024  0.6109605618387526  0.6492222861320971
  0.9792352360614333  0.5450243727534105  0.9198038310285157
  0.7966494203651565  0.9092868187059662  0.4961273540451989
  0.8097987084946683  0.8760664234857319  0.9169900179018916
  0.1145911261833708  0.7688257175461355  0.7985323452766883
  0.2885366143328484  0.5069945817213143  0.4426876038746302
  0.1341176551366395  0.6030142429399664  0.1322498296892990
  0.0128182367040708  0.9405277658704393  0.9600343371923022
  0.9460035348658641  0.8874914955261789  0.0957220216862821
  0.3551009223715127  0.1677432358563604  0.0653053918518478
  0.7703956189229855  0.7023754919525722  0.9854390973833159
  0.3633745012916068  0.2346959454817667  0.2228834965911305
  0.4108260608427819  0.9440571660260209  0.9303194507892827
  0.6203178508553513  0.8079221558771083  0.0722412122848106
  0.6793784934129148  0.6039268495990635  0.9729584597317873
  0.1480531118769491  0.4330114964307635  0.8998659787132894
  0.2163433736318581  0.9133576199394529  0.4143223659304427
  0.8219292059902300  0.6078282822611213  0.2541753491050964
  0.1624855943486052  0.8831489191816834  0.4049937044313192
 -0.0072753366354711  0.6515970420427800  0.8763617703468473
  0.3215994318685852  0.2643053436228183  0.4870195167897116
  0.0138845563278760  0.8894082735818587  0.7447894990995674
  0.0002823388896124  0.8488681812618344  0.3565484509053126
  0.0358170656625221  0.8320791315821194  0.7587421396717730
  0.3273987396663817  0.3225005164995718  0.5886467895439972
  0.0116289418878143  0.7925672370413397  0.9769069904523826
  0.2236911460165564  0.3458437662491836  0.7716463928210845
  0.9504091233345847  0.3258587017483359  0.1662161731147878
  0.6716774765872762  0.1465685831028796  0.2421350985708500
  0.5526141231405445  0.7950852476447835  0.8427432681761869
  0.0223885948259658  0.9809321574664890  0.0035224219817423
  0.2025079193602069  0.8069574156887290  0.1511984558494736
  0.6001969219187046  0.8296849847187069  0.9129119338195242
  0.7352309224695148  0.7695258775169906  0.4639235723572886
 -0.0145779491076224  0.7608746355808811  0.0295143912486683
  0.3228481967579792  0.9451774394777949  0.3265558884163746
  0.2030683083697266  0.1751130401920200  0.3020196214763008
  0.0934025487354606  0.1903147794435774  0.2010813216118444
  0.9118307857812156  0.4170762399029973  0.1176501843418251
  0.3580432310673272  0.7790808097124383  0.2165838810667025
  0.2364714828052439  0.0201735065782416  0.8387393920296369
  0.2533735053488503  0.1596184693697925  0.2665274384070088
  0.0647000289315421  0.9733382348880325  0.4580880405099481
  0.1660108927405274  0.9607146254074861  0.3264194377755152
  0.8185083643033748  0.0534784868216792  0.0908953063799625
  0.2023532097088292  0.4338101610946065  0.4689817736722968
  0.4930408351831742  0.0163973945150792  0.4136879184421752
  0.1973047886876010  0.2484254933530017  0.0528057271388672
  0.0188258962674648  0.4655418641976085  0.1959678081673472
  0.5716222912303047  0.1331277396678919  0.7032049733211859
  0.4421694294075709  0.3730248472253397  0.0168388356614865
  0.0853866968855672  0.1003318468559495  0.1096178996088711
  0.3291587408990316  0.0075451421616620  0.3119286029188396
  0.1069561237755907  0.3298331873416503  0.6193680549208810
  0.9538816644475921  0.3421214579887058  0.3314956456226206
 -0.0017537916248230  0.8742653167610712  0.0612518425646456
  0.6445504798525488  0.3968922298405883  0.6877829519746876
  0.7139102016061943  0.3790946838212674  0.7635555301037268
  0.0560271274355701  0.2947527055232673  0.3244368392014552
  0.2356305513189957  0.0227794243431708  0.1269260167879026
  0.9473115260785600  0.2832695706753212  0.3512175108362787
  0.6903113999824728  0.8889795147475066  0.5281706424776740
  0.1909884488152191  0.6364457947823776  0.3755961952391317
  0.1236075481051599  0.4832779958542394  0.3967356552822273
  0.4628815739222172  0.1620673380733153  0.3386080683016829
  0.9217004217813324  0.5512749068283277  0.8996852958087111
  0.9655791255213235  0.4525258253411939  0.3522903605590169