Cr Ni
 1.0000000000000000
    39.4861997199535253    0.0000000000000000    0.0000000000000000
     0.0000000000000000   39.4861997199535253    0.0000000000000000
     0.0000000000000000    0.0000000000000000   39.4861997199535253
 Cr  Ni 
 1596 3725
Direct
  0.4604882023369700  0.7170613837343010  0.2664701450688037
  0.9735232280864240  0.7052762529250981  0.8570855639535218
  0.0172026895674948  0.8854270162660698  0.7434779079519386
  0.0377232546722486  0.8293406426106589  0.7585100724608935
  0.0119430007081214  0.7935014743526793  0.9749917559102551
  0.0950382125756809  0.8237196562587138  0.7852629225840922
  0.1347030654749815  0.6051144496231969  0.1342015544887117
  0.9469664814585077  0.8885996222039725  0.0968588552710612
  0.7722969519762010  0.6989945618240277  0.9859870054778765
  0.4145340344799071  0.9388119884426479  0.9300875143572687
  0.4612512429669519  0.5023936224983474  0.4986165638965778
  0.6756858812639353  0.5974390928294084  0.9750507638569834
  0.2162657990246334  0.9148907276319771  0.4157032978198125
  0.1632716475674862  0.8835930932825226  0.4049741305490230
  0.3199290820115708  0.2648864993908474  0.4879259092346778
  0.0006195393136156  0.8497697702651186  0.3556158082737954
  0.3288210259202940  0.3213446514514706  0.5902859638858329
  0.0763909734418892  0.4974757627899917  0.4384327885455556
  0.0085825389431828  0.4009152282507208  0.5147752804004913
  0.5632120635501325  0.9469167143934647  0.8686910333818215
  0.6468474749085358  0.5236751649781159  0.6136386716383890
  0.6370198977165615  0.4608028199791323  0.8964200521000495
  0.6849188116230701  0.3155403837848572  0.4837014224547358
  0.5248775901827948  0.0396287320627440  0.9282030508657421
  0.8241294663524155  0.8325092410011334  0.8683934369080266
  0.8954493301135265  0.9243709193889307  0.8525197600354012
  0.4158627717462393  0.2522402737298511  0.2929034582089339
  0.5063477493833491  0.0212218809038082  0.7594916367888404
  0.6977029845023262  0.6849405857013087  0.6351281144708019
  0.5028712505914653  0.9197524713553333  0.7395354633198864
  0.4939111015804713  0.4510223575475441  0.0758753115417382
  0.6039227508381273  0.5460079113136161  0.4290211568567021
  0.5075657831773833  0.5641483131962652  0.4980514333916569
  0.6197599197900960  0.0530902749633258  0.8467984301322203
  0.4264039582544634  0.9101547730101929  0.4884678585101467
  0.1521836477508269  0.7918469052563146  0.3134548998105540
  0.3151033365471701  0.7225197237099799  0.4984404803053019
  0.7905969128191275  0.7129415204844639  0.5575042861707916
  0.2912392803007736  0.6237658316434829  0.2396797779349252
  0.4902456138705361  0.3402152102086720  0.0415982721335587
  0.6063231638781399  0.7139441353796044  0.9820673412092645
  0.2036617303760591  0.1574910852897236  0.3621743150048265
  0.3479102454120166  0.0662246811121939  0.2099323959372818
  0.7215658946721303  0.6969955259491819  0.3066878569305204
  0.3250970056407514  0.8773514304400544  0.5736453691381509
  0.4640423102475325  0.5856249568910733  0.8501007371347798
  0.0555749149718087  0.2943113818831301  0.3245408769109054
  0.6571263878692187  0.5102392718012700  0.6714737371863140
  0.4927898896938097  0.8008811882095670  0.8180119609610145
  0.8678149095423887  0.0608794127561612  0.4628951717998426
  0.7349719513130585  0.7169685815788920  0.6859064103520808
  0.0489749504301632  0.2503736467715783  0.2822358575790481
  0.0189844052662406  0.0413009840782336 -0.0097990427323390
  0.7260384169510716  0.7744784048073783  0.2303227918797428
  0.0674604881711198  0.4186800984006079  0.2868486497763317
  0.7117023605792917  0.6193560741378328  0.6501885691183160
  0.8761488463282930  0.9725346013587887  0.8981947184922574
  0.4220311018679712  0.7366826023586310  0.4800609195682102
  0.9040815844530538  0.9181973543078561  0.9106212051724203
  0.2421742558439382  0.3240372772590768  0.8964538467814498
  0.1521570077523726  0.8496245670875033  0.9154186261047570
  0.7152769575571949  0.7725422856506703  0.0001499078270822
  0.4944994296303659  0.4809784566061435  0.4070517661979795
  0.0806642943856021  0.4877796407248730  0.9807955048155663
  0.4690699458850369  0.2557042104069348  0.4257099561831249
  0.7837072300199278  0.7727611786944951  0.3631912372534614
  0.2822980189917926  0.0319331045182005  0.5163832673135760
 -0.0113525816172220  0.2077402799821887  0.1009164857553004
  0.3121429518452762  0.2512815195153877  0.2583007844935734
  0.1184835575949765  0.9294628586376241  0.0024468379616096
  0.0369481869022166  0.1949403809138315  0.0663093176665139
  0.8245820338492797  0.6639425080618764  0.8968213617552064
  0.8718930456690698  0.8387784175619466  0.8359381950823923
  0.4363585482772334  0.3492805062834364  0.0753402663247466
  0.8412611289169921  0.8201201683130848  0.5422390519772268
  0.5603294749488156  0.7318290390331269  0.0159970777508269
  0.7072662733614328  0.2626814166913917  0.9301349477742744
  0.2060076488488246  0.2744935344088771  0.8878736779766260
  0.8138745050317622  0.8427629213346144  0.8100534408008276
  0.5725691228311659  0.8677101090511716  0.7173252749578515
  0.4828503533865524 -0.0747061559255320  0.5612226987175193
  0.5329204873471383  0.9029413713402683  0.5839177382184898
  0.7715929700279588  0.6099269742569728  0.6714668081392001
  0.6771035085094652  0.7222938100229507  0.6774678774211489
  0.4445096904842795  0.4967811104903978  0.4402347859285925
  0.9438216100960538  0.8210985893120871  0.3488083670158048
  0.6382334203387975  0.5660600597050072  0.6544080498469690
  0.6665489480796996  0.4674558767881130  0.6317963629918388
  0.2796322512508813  0.3736550356638242  0.9031757508364255
  0.6476489912777101  0.3679706374726071  0.5709468287401666
  0.3148586440335103  0.8099584459339464  0.4205135065964525
  0.4897630420895464  0.4521814437396842  0.3022571437215869
  0.3203533618664736  0.7635211410252206  0.5408327783023208
  0.9898849390146096  0.1165595456725579  0.4714042782987900
  0.4387596162519397  0.4534458447070240  0.3963310417135680
  0.1680380184662061  0.9278333655489127  0.4513144025077233
  0.2980730831296205  0.5720180943015245  0.9699052636508677
  0.4179840445786116  0.5645635593390966  0.6895705750084269
  0.9821249337950336  0.1621461629914013  0.0565017888427060
  0.6629788789487956  0.1599370354771415  0.9514487180791892
  0.4869862039136834  0.9731786501914482  0.3705106793116992
  0.2550009772010377  0.1258422322502684  0.8187236027524573
  0.8951151542027294  0.3552289861492710  0.8222518200652822
  0.3949126869896404  0.5476519333710593  0.3497049645534886
  0.6088987339605098  0.5735136630739003  0.3043287095737816
  0.8162995886847257  0.3136624478998314  0.9607724947271286
  0.2947943328841147  0.6378216726878012  0.1795228894713682
  0.1140744123745839  0.9632409629748234  0.8859341417030034
  0.3683186382489859  0.4165428342252745  0.4579328507278441
  0.4500997720335131  0.5903393127735332  0.3001302909372400
  0.5655424229851219  0.5480034110871551  0.5243040890622411
  0.2862667647627865  0.0690491858993028  0.3928286654727865
  0.7983005864132596  0.4344294776485264  0.7294168347116541
  0.3365343738240361  0.3107423602970309  0.6507476685302976
  0.9670338393123936  0.0074500392392825  0.6461980340926838
  0.6409420772642738  0.2437453477206713  0.6506542537639883
  0.7303225774117872  0.2532832108999221  0.1712330897401501
  0.7345326433732496  0.2699206104947999  0.3372756523206857
  0.3467521219483597  0.2026470835903399  0.9478695277818187
  0.5097584809526365  0.4891284517386296  0.7918958194494173
  0.7463502594463260  0.2766543640489356  0.7377156465712508
  0.8618440386571784  0.8803796976499435  0.8855323502183581
  0.7945704737511273  0.3444966374477441  0.1629830035725342
  0.7568382912830094  0.8661185540730227  0.9588154862964509
  0.3470134025548463  0.0171721697054379  0.8198381640309526
  0.3824987652609479  0.2307067515660813  0.7894872891992765
  0.6438855187380532  0.9301587838344358  0.5011746682064736
  0.3520871833808443  0.6704923824981690  0.4105135490618398
  0.6529801805853981  0.9674692649245185  0.7240419485916720
  0.8381845386391987  0.7093059212817381  0.5158018176787682
  0.4671795891581100  0.1951338874066740  0.4414522825668544
  0.5780273716883507  0.7883704964739092  0.4603620530114864
  0.8248346276799664  0.6375820818799490  0.3598274455322468
  0.9320856584111032  0.4027350708468759  0.8302878515965609
  0.4285657886798740  0.3648025389650004  0.6162965088296608
  0.4229154373564598  0.8648572162496221  0.4449846725490368
  0.9523406218975866  0.7637584315016281  0.8405274388330634
  0.9408182118137622  0.3762527506620883  0.9550904812258237
  0.0294485282964087  0.6972977475437575  0.8893035431134472
  0.2542362334961569  0.2763840986696820  0.8487264453127566
  0.4556234928599759  0.1781072866403360  0.7701184955718905
  0.7815875777881499  0.5950691083650748  0.7321430306146149
  0.1702405987734780  0.1576225591497002  0.6719748900843534
  0.5823133553168264  0.0879907320595778  0.6608497414016810
  0.5067547597711025  0.6229777131111316  0.9100180116069495
  0.9509820258317581  0.3287650129466890  0.3936878133613627
  0.7093666102139516  0.5451259690061353  0.2348436501774037
  0.5279419271164366  0.0042529910840404  0.6121006692573020
  0.5155105405221594  0.7141986530198553  0.4022020267962411
  0.7754763547592265  0.4895596469554984  0.7159145061266953
  0.8733146160293651  0.9473931787562361  0.6602697348418143
  0.8007432918926325  0.5647906029733697  0.8548225538210990
  0.2325749919947702  0.1839997790758533  0.8003599736659657
  0.7073069774982290  0.4830165390599718  0.5316932932811828
 -0.0080018151425544  0.9743758199591811  0.8356819484566864
  0.0849657902350573  0.0673166215855918  0.6044885406127065
  0.5693639703620496  0.5839785114742432  0.8322280365132307
  0.6926808928618031  0.5306266157205151  0.5719889232688845
  0.7056458982606647  0.0740561645472749  0.7031686448527872
  0.8514191459831266  0.5638498997313555  0.6156834127977240
  0.3736354950206601  0.8973969823124611  0.4180116421810522
  0.5956878610451096  0.4533832628942696  0.3397203475975142
  0.3693459361401339  0.8394474470299782  0.4294450407874862
  0.5137769226293015  0.7473229038163330  0.2773433632704233
  0.8488600446607646  0.7113838403004031  0.6744610551710152
  0.5604675826281619  0.6674548374266258  0.2601682593490816
  0.9043309945574979  0.5799229805057545  0.7699917847293647
  0.9492949965948705  0.7466126708691764  0.6689276870019963
  0.6712808127807691  0.6277689945525868  0.8543011690277600
  0.6247278438144266  0.7752582667951947  0.4194771393609680
  0.7016589357323270  0.6640966487405360  0.6923640650855414
  0.4579555529199013  0.5850495898619880  0.5908400809996579
  0.5552848741443005  0.5685364158419822  0.4602215455291287
  0.7522816958474835  0.2304264548974365  0.9104807315325969
  0.4552286721300215  0.6708645197960609  0.2222653302554611
 -0.0005960662915794  0.6177799242587693  0.7642566007009931
  0.6873652801297914  0.8646924668835146  0.4161879654277101
  0.9680005551707670  0.4814157419767936  0.2302974763244207
  0.8976878084787560  0.3360234655136398  0.4933373009668724
  0.9690919297475944  0.4891722848908346  0.4598515878136154
  0.1880989096498600  0.0138511683574412  0.8818655776012270
  0.8944935146173555  0.5947058609747393  0.7103274547368139
  0.6084602634509182  0.6047284707908401  0.4105787108230517
  0.7336602436192904  0.1645770394038296  0.7498140452820424
  0.6057576029349161  0.5599794587547897  0.3674735028297113
  0.6833550030341594  0.6573232420338021  0.5302310321093723
  0.2865290574242635  0.5452550460254330  0.3198575812225411
  0.4222386072931750  0.5344697221215461  0.5904652424914943
  0.7871842871954011  0.5078321549992871  0.8768775362854608
  0.1781300177577567  0.9960349116505111  0.1153996383631934
  0.3046655689636446  0.1302378400291638  0.7795846859520136
  0.4281383858306407  0.7756433575496464  0.5282333471859807
  0.5594800625971650  0.6514792124955650  0.3189392627960419
  0.7909308958568856  0.6703355846439688  0.5117374565113982
  0.7063479041516574  0.3634100269688756  0.5945737497669681
  0.5217791717235037  0.7566620774918348  0.4476535714628490
  0.4036767116296960  0.8788630258851610  0.7144754357387232
  0.6756678758476664  0.2583172085552042  0.0372794409845153
  0.2525162792607954  0.2727179927427176  0.0660334222706318
  0.2529893398940078  0.6464755541996319  0.5894725143191925
  0.1389294869098888  0.3891929340838707  0.5637927944975388
  0.2783409667557028  0.3704906241689139  0.0846892325125450
  0.8680034566044778  0.4610644740514849  0.0234821425282787
  0.2614858146634206  0.6626864334160486  0.7627320583137162
  0.1951840778058312  0.5695315484291442  0.7230204247346154
  0.9143132481442732  0.4693717839773992  0.3855102648139351
  0.1501041907386000  0.6147166243341282  0.5411074859205133
  0.8895207536123318 -0.0361908896990818  0.9618775267925069
  0.1479787215082312  0.5300432748886114  0.6606969741093791
  0.9615066252380691  0.4218676098354591  0.2482365057735695
  0.5432819891414742  0.4187426642293399  0.0991757918336358
  0.8429217587975119  0.3284378065652861  0.1307473378086088
  0.9130380363265463  0.4308598207896669  0.0562023179724112
  0.8203148888920611  0.5878028862028699  0.0852993419552012
  0.9770048226375575  0.5932325616342981  0.2561735707118328
  0.0891135701817372  0.3857991664986843  0.5980308842511024
  0.1448629330378078  0.2126685049427552  0.0450174964886774
  0.3265465264954740  0.7785886262202808  0.7095745274711728
  0.9445360267647041  0.2679225613621040  0.1829976477229576
  0.3918638471174793  0.9221401601774427  0.7601013292791963
  0.3028465073648788  0.9007246901159982  0.9053329433640463
  0.4606450005465423  0.1512602906879210  0.4023308795147904
  0.0842727847294744  0.3970396260976728  0.5330335489189415
  0.1693640465491460  0.6420268833619265  0.8987490981713353
  0.2059783976374572  0.8386136318634100  0.9443144853260743
  0.0871348406695873  0.5944282447300624  0.9313441779962102
  0.7295990544583995  0.2853883157674497  0.0463733855253605
  0.1320874692231135  0.6296815059876651  0.9421821513708248
  0.3753021072594782  0.3438761033766685  0.2471877649661215
  0.3913445656808490  0.4957298993276674  0.0862321099196222
  0.5929778285807904  0.9361158111330738  0.0567019088994102
  0.9819546633201478  0.1470823311567614  0.1162186323543816
  0.5456053497443824  0.8385726755408013  0.8879804167998762
  0.1318718398688589  0.5910709262162190  0.8936275966527365
  0.9260168350673310  0.5959620266565722  0.3515021041039458
  0.1047166453055517  0.5464758795043063  0.8606394212449600
  0.0748940310575795  0.4630211852677241  0.1010541204044433
  0.1414504261604656  0.6790716310603738  0.7100284020449030
  0.7754650699098392  0.1907775821741495  0.0906488120017531
  0.0927761230232270  0.3719338821584016  0.6627401727730676
  0.6260623690375334  0.3505705707542608  0.9106406512519754
  0.0593562719626627  0.5942439258293418  0.6207936513905027
  0.9208686856682606  0.4927810889338519  0.0388988149468072
  0.1114440530805846  0.9304657954272100  0.3148904049789875
  0.5090462763775705  0.6999438100590019  0.2330027645194449
  0.2152965244857826  0.8331243057948802  0.4909627298924149
  0.6169634968972945  0.7462984178583140  0.0843803191066911
  0.5926659827083917  0.9755522025718280  0.7020505921197084
  0.0198220251039457  0.0190915240235984  0.8719315750362878
  0.0994815842529791  0.8361222848390794  0.2211838180418511
  0.6859284204446865  0.8800136594155347  0.3548980676402663
  0.0610801850603584  0.9271680663066298  0.4151141294209939
  0.9652527370092930  0.5732191858694222  0.7944233861949550
  0.2296610857318647  0.0379270618457648  0.3826594099218833
  0.5241504679860493  0.8951668313886896  0.8667435118273180
  0.0471364140110065  0.5178515179612075  0.7407144535767871
  0.0904337965331090  0.6591991526795195  0.9713425122076926
  0.7570779062581218  0.9892439116568384  0.9743125929500234
  0.0105197334489016  0.4718456722408562  0.7397240799585918
  0.2975476950419739  0.7463574040173667  0.8822559034575251
  0.8129879260116852  0.0868405129333434  0.9642018537370494
  0.6696908973033141  0.1321325395776738  0.3025803839543904
  0.5176134653431599  0.8204339791347163  0.2037046311223561
  0.1085992282798380  0.8699254417436220  0.0226922599240938
  0.1923929057305390  0.6553025431605697  0.5608786048541455
  0.1477273138687366  0.6496485773823391  0.6004691094675264
  0.2090468605360576  0.5233371598767942  0.6821019728508189
  0.1642887302416273  0.6221686637335714  0.7287143891756233
  0.5625592654470389  0.1456875919076130  0.2063664024189525
  0.1110659669847187  0.6445277385062936  0.8797058123375375
  0.3782266776061964  0.8291881058331265  0.9440277217871372
  0.2726911422237402  0.4839708746182387  0.5957395758367879
  0.3803099703965676  0.9432683782547858  0.4630183052842076
  0.4141870135588088  0.3917494118182929  0.4908172233415242
  0.1008142629689543  0.3383450456530850  0.4985518171568433
  0.2446770822970938  0.4777244757871251  0.9280676006772923
  0.8917710661335772  0.7737318198117832  0.3990436252970645
  0.1948550421702916  0.6073682314633501  0.5032959463211718
  0.6989350574510567  0.9825562677254437  0.1388931666066995
  0.6713126996968252  0.1620163598779406  0.1814742962249615
  0.1352344429923935  0.0872775192250177  0.0744391540923764
  0.1770999375873380  0.3713287291871384  0.0481039834931734
  0.2983789695363914  0.6712004341616846  0.0559606830891820
  0.7865889764480146  0.2035362037728585  0.8140673286272951
  0.5221933719162015  0.2537405733603453  0.3283884712393064
  0.3844492225306451  0.8075577189658366  1.0047982544995993
  0.5693771836495978  0.7803589885704488  0.9059402881558667
  0.5305586566820495  0.8826418579132596  0.9292835163159765
  0.4284814987863406  0.3752168076739610  0.2542220491386787
  0.0586303793566468  0.8944118932195063  0.0629017103536284
  0.1928020533271355  0.7098741814972009  0.0674707571828257
  0.7981844349609694  0.9256491481573850  0.4333920666328038
  0.3881846091967025  0.7651835912220337  0.9592159703774458
  0.4192210906052666  0.7324143604291571  0.9162990394574657
  0.0977319056777444  0.7130249416750075  0.5008382777311925
  0.2418301837866620  0.6387635567600236  0.2758917481148277
  0.1461577131763726  0.3696432279338525  0.5116718741095544
  0.7773733028688783  0.7731390492502666  0.1320975601000585
  0.1642831957125135  0.5402668061333966  0.8819704545903703
  0.3141567395780645  0.2853249937070247  0.3650513827607816
  0.0703542383924148  0.4635572971994365  0.7587584447864530
  0.2149632616902447  0.5472071675295382  0.8448754115900922
  0.1286895304638288  0.7217409408963629  0.7537394982757527
  0.1167933095055544  0.4990817339862366  0.8194912383502698
  0.5858103078129191  0.9093212065270652  0.0047869880668992
  0.1390068859323356  0.6298611643191955  0.0044168452159083
  0.3968738901390680  0.6076537389548917  0.1107745396646656
  0.5323468285867453  0.4324837739348152  0.8102263812199203
  0.3979151174804164  0.6270135178108948  0.9331138148957142
  0.5191976269275215  0.7918941252811958  0.3220849463804527
  0.9049520393927781  0.1524910766812936  0.7502636287745353
  0.5470043036415045  0.7295753883690612  0.9596367401268829
  0.5637953662707570  0.1767058820913589  0.7516035792797914
  0.4941052943869205  0.0337513790232318  0.6999905960205801
  0.7616297433636184  0.4116721257188513  0.0018048593174547
  0.3256267824775502  0.1068509822291406  0.9071748450989991
  0.2569918402885411  0.5006503795213278  0.5371129208869461
  0.5455029657326852  0.1532690737832775  0.9160480789442088
  0.3463191395713595  0.6223906505096790  0.1437916116743501
  0.4382920646035731  0.2732897722519071  0.5266161844343479
  0.1948738065463145  0.1327011635163824  0.7974596639009804
  0.8258183203470610  0.6716538370827444  0.0114754191576805
  0.0345630238737097  0.0947334398672265  0.7478803225657747
  0.5441086658481190  0.3700001254059047  0.0548380478206619
  0.1456638146360874  0.1266534563316334  0.8364743175100118
  0.2730435144176628  0.1022913629988434  0.9457252645060472
  0.1045017814905461  0.8654017127292043  0.0907663851782724
  0.6534690446858835  0.2648449772427356  0.8183999215248515
  0.6834313411018574  0.1295373938121581  0.6855735392762486
  0.4722376625775076  0.0886177736710297  0.6754537847638423
  0.2284664456792001  0.9486802168697376  0.2056517245215433
  0.2931916551419448  0.1434923157416911  0.7165857005622002
  0.7946587146710450  0.3594498119355160  0.1049138473147647
  0.6699878868338481  0.8435364240323281  0.6418336364202745
  0.6830994896417679  0.8669584427345397  0.6968089152099132
  0.5979282235763276  0.4668243594928521  0.2783008646540086
  0.8622431488726717  0.8718276042774180  0.9531998898523407
  0.6973587892846239  0.1172759990626286  0.7452045862887492
  0.3575601395979436  0.0042477260121565  0.8843307107482333
  0.2302274791655367  0.2186694680636483  0.9009176533864748
  0.4949300351289114  0.0659101361746043  0.8037880566714506
  0.5045891370445554  0.6524223121149444  0.1893088036667976
  0.3914851660994091  0.5787246694114794  0.4570931855974650
  0.4966436553689329  0.0553585410400051  0.9747636948749028
  0.3961569937610285  0.0328665458797710  0.5484658317678035
  0.6785720373401777  0.3287912229342831  0.7606713999326505
  0.6218159579745439  0.2253529834635066  0.0329565751872682
  0.1062270572938525  0.5113676888092725  0.7603569479420643
  0.3261914849385543  0.0742574936613131  0.8004766982660846
  0.7833421139506862  0.7562472686034533  0.4264918102824504
  0.0741894030579705  0.5993743021897189  0.8692563088424227
  0.4693488854462761  0.8359435338050496  0.2368874837212838
  0.8852072582710874  0.2526010930643232  0.1111594841640937
  0.9447832975587461  0.7768847010707534  0.5407349165579767
  0.3832478289852500  0.3693930260683266  0.1164829802894193
  0.8401937801508959  0.8033091170060919  0.6039943492166207
  0.8228194345576105  0.7312457302590860 -0.0041082673609093
  0.9560415234504674  0.1198761136885174  0.6003735719809918
  0.5300982310544899  0.2452630130767016  0.6736204330351291
  0.2843198267716172  0.4318374264032960  0.0681474755936839
  0.4769378816198019  0.1527819232442227  0.9000120555374261
  0.6916573692455961  0.5693497997774576  0.8773630650623900
  0.6832580205504490  0.5822954507966263  0.8157983258098993
  0.6696625225042022  0.6186721423705387  0.0251024909305723
  0.5667208801850008  0.1967406398248277  0.0182538348369563
  0.3571867204162057  0.7944361471935406  0.1560087765220508
  0.4625441463522975  0.2055744889506230  0.1524286758216753
  0.0895051260027550  0.5992280167474545  0.9940990484052461
  0.3897404013206166  0.3153986272032379  0.6135832016132159
  0.4729850134746183  0.8521123433929637  0.4075582939052299
  0.2690251232213285  0.3436535448245833  0.2116034885346054
  0.7544509686306630 -0.0142129225999604  0.2773590795322219
  0.5585993681381372  0.1524350699010160  0.9766796866458093
  0.6491209623144514  0.6854296426788870  0.8342786756965082
  0.5492372904933930  0.0986841412960850  0.4680225744936070
  0.5913174897357012  0.7706180270216099  0.9654788328369325
  0.2646770161124524  0.0482263167510354  0.6682744027139236
  0.3235367496994787  0.0417066677021756  0.6884612534281489
  0.1538825424334082  0.1166343464232468  0.9010097756825526
  0.5388188966084471  0.5206633530755639  0.6327092349325359
  0.7697795455704270  0.1472335429918010  0.0475593979631712
  0.6963257806009127  0.1995144086774997  0.8966947961288979
  0.8935072113591578  0.9045726112820285  0.6031172963259444
  0.4749289183428298  0.3681961687175317  0.4577630704468582
  0.5515525325408785  0.1877318958695434  0.6890814064611718
  0.5716452886993044  0.2393339064797313  0.0640990605213987
  0.4037668347244824  0.5917887163731738  0.8285587502125041
  0.5913926969718150  0.3733674111969368  0.5474508643513595
  0.7619240104912567  0.1123210238391133  0.9379160285850141
  0.6627890764940972  0.6358801142151381  0.1912504182431391
  0.9624036472323240  1.0049349580997260  0.5237945919386475
  0.0884410649986670  0.8984012905559845  0.6058531557343491
  0.4414080712894539  0.9267102309339751  0.7194190224197143
  0.6945935109999900  0.3891661379035621  0.3947066856353881
  0.0850842219691984  0.1257724521242461  0.5333206542168771
  0.2358669502484360  0.0060893232429683  0.1879129137934549
  0.1671912144008299  0.0364534807478615  0.7528594176431400
  0.4446198274886713  0.0722010469053616  0.5528045622392582
  0.8168490234853064  0.9651993228267747  0.6625302843465655
  0.9170722808184150  0.9914813502848561  0.7551283431877025
  0.7947244815387650  0.8503348831261230  0.5172254393854885
  0.2959662607965738  0.0217453180665701  0.2595084962491107
  0.7248701074443167  0.3677077209963647  0.8254249893009311
  0.3384150785504669  0.4985002998951548  0.7876649392850208
  0.9239311770435903  0.0563763070104662  0.3610857495803282
  0.8204180138530819  0.0856464721895526  0.1979189757723880
  0.8822667144421079  0.6104580110693983  0.6482518967784454
  0.3501112321092941  0.0505409310232636  0.2701651316553413
  0.7694647290334251  0.5746686451885712  0.4744653277530671
  0.3098694855253550  0.0547039301013356  0.6278799547710791
  0.6759520310532643  0.6755989791816501  0.4697557813330202
  0.8344408023271713  0.5144300678266869  0.8381804249269958
  0.8711261235575362  0.6527676258635452  0.6915027423866986
  0.1406185980511216  0.7262401799840799  0.0982955828000960
  0.3731908934312881  0.8834904431562206  0.4750576109526842
  0.5190841735874868  0.8072673379762135  0.2628458026702416
  0.7459203312113537  0.7070384135431026  0.6013410218043418
  0.8759948565839113  0.6237466032287059  0.3239284717330911
  0.9736187996526517  0.5438550818636102  0.2125770131769739
  0.3985424073668967  0.5199215137479406  0.9703776589804052
  0.2513711301149124  0.7312748119533692  0.3640073163923038
  0.4356153572413041  0.4206175171794223  0.2940921445536208
  0.1729132760588018  0.0079792855970164  0.3739394724319403
  0.6999333418789490  0.2707229756493054  0.7789524824240180
  0.6629063883817099  0.6421141032625427  0.7966482781128372
  0.9624495677029256  0.8848113875280182  0.7660264638558447
  0.9335364356297442  0.6608296660321098  0.8862612213344924
  0.1938477176177436  0.1918927117080236  0.5587656452650368
  0.0633535384599172  0.3739745786693268  0.2434951492707021
  0.7857949906308030  0.8323203644444821  0.3453647193843675
  0.4135445885681044  0.0965246640096113  0.6538090284901059
  0.8226602597182568  0.6179300984919354  0.6298797164940247
  0.7240381920941373  0.7853705800045617  0.8386544466471638
  0.4345304054238421  0.9479513369524122  0.0462759847072395
  0.9555730583340577  0.7630593752980797  0.9607564483975434
  0.5073093484783504  0.3041002497425636  0.6586902813511847
  0.7556448743184984  0.6841294977550914  0.8144088725321847
  0.2806267280435651  0.4178454389155534  0.1288835962518488
  0.8130987371945086  0.4348359086592291  0.0209241515735753
  0.4698812318832071  0.3852318331653576  0.5148312059257335
  0.7164598999142300  0.1159165177638849  0.0387277223835976
  0.3227934462348879  0.3879922982924597  0.8021697484750029
  0.8348775691160647  0.7871888267064677  0.8240265003347484
  0.6094680731388031  0.0877888749452984  0.3636874842324304
  0.7291826984948634  0.4846795432838209  0.7567498500649087
  0.7753866259137345  0.1335175269011001  0.3428298071127925
  0.1365510052532615  0.0378044230213003  0.2618795710582657
  0.0755208695900179  0.5166842418335167  0.3730173855517551
  0.8185429917026011  0.5740940417256282  0.1452147762864593
  0.1957352397279401  0.2519332171624582  0.0500459652059073
  0.5042899255242028  0.1480332810151488  0.6173882204169834
  0.4418785499063074  0.3719863310046157  0.0171719633668188
  0.8934117110090734  0.2974890426521013  0.1566138077214283
  0.9497314105471163  0.3263454970600514  0.1667288201437425
  0.9777898030362775  0.5460775505231962  0.9188860874561277
  0.8114663713784002  0.8760970640127150  0.9156979851412694
  0.2241651485712054  0.3463626600355318  0.7721106469354870
  0.6705273425008647  0.1467784577613305  0.2423142593409160
  0.3297877724792388  0.0066336654393690  0.3087672572000498
  0.1075409849831274  0.3297422029287100  0.6191287384695081
 -0.0028268241621427  0.8731090462084943  0.0613641501668665
  0.6431598766269822  0.3964671226591522  0.6885253276822262
  0.7142685251848394  0.3789876943887880  0.7659503330457845
  0.0637270601634778  0.4042791701785824  0.3493342884593203
  0.1841734085766759  0.0570736199371798  0.0981046093899237
  0.9477149837790609  0.2838128810066721  0.3511239787572030
  0.6905392540004085  0.8879256418974374  0.5290466651654561
  0.1900502131690103  0.6383602236893744  0.3760398421471579
  0.1234050387432421  0.4846535649451231  0.3978649186725926
  0.3979368197827394  0.0749810306286779  0.3581476927906268
  0.9201398482473774  0.5511704411368161  0.8984500397935764
  0.0177617202577735  0.4660742614801611  0.1972622780553190
  0.9181809737164818  0.3821632353385923  0.0123338216414267
  0.9731848021183281  0.5253935288350164  0.0483079592941212
  0.2016328071119880  0.4322833651748149  0.4700780317351296
  0.0671736786750829  0.9659510942555297  0.2102924139742437
  0.7881012805418957  0.8644126892724978  0.2189514713991119
  0.9539758939234326  0.3425445133079677  0.3329511327231727
  0.1503352546008069  0.2130279308502622  0.6563076380086775
  0.5764584693152243  0.7379000646184183  0.8590821432541423
  0.0843922785861801  0.1018280770791164  0.1092376773147195
  0.0215984805936512  0.9802543267722679  0.0032730490120774
  0.1995658723040956  0.8081288827365879  0.1546172541755039
  0.6053066479793991  0.8299751983884155  0.9150756080274171
  0.7361630070914619  0.7706904568400562  0.4616091224391474
 -0.0137031721269311  0.7622876584242746  0.0288276589691270
  0.3778694037609625  0.9740150788958857  0.3350474869395116