Cr Ni
 1.0000000000000000
    39.4861997199535253    0.0000000000000000    0.0000000000000000
     0.0000000000000000   39.4861997199535253    0.0000000000000000
     0.0000000000000000    0.0000000000000000   39.4861997199535253
 Cr  Ni 
 1596 3725
Direct
  0.4606615888843201  0.7152261320318610  0.2673748500264946
  0.4050931880234284  0.0538039040082143  0.8874053792595620
  0.2317861307456675  0.2190663659309497  0.8997084355607040
  0.5606605896014086  0.0600828353226003  0.8255723855545276
  0.5579848759192806  0.6359354556948306  0.1546804612162689
  0.4505637290480153  0.6124007590798822  0.4678994930424964
  0.4892995013171463  0.0491515998396248  0.9749366739567314
  0.4295864324391784  0.0502370804928344  0.6109411191188957
  0.6789648001108471  0.3276040617949195  0.7623728363115799
  0.1449970876507183  0.1258504419032183  0.8369163065620340
  0.4595052853916152  0.4981114330917826  0.5015772213314421
  0.6193658497250055  0.2231780501433890  0.0324638567251271
  0.3251916662262495  0.0746753779222279  0.8012743868748619
  0.5590774829479024  0.1500052547838800  0.9745191297272489
  0.6387577766910459  0.6984506983978802  0.7732597901636959
  0.5893966012775387  0.7674970507820049  0.9658407615798376
  0.2905253765391246  0.1137007630482643  0.6046459939068981
  0.3251737831245266  0.0422907004517511  0.6903841867739287
  0.1548000647929273  0.1142611780052381  0.8965930393250290
  0.5460802684640972  0.4753953257283055  0.5806276317841934
  0.7666927089376491  0.0971501945562396  0.0007549664880419
  0.6478227178439609  0.4460589070534252  0.9566664492692140
  0.4732123924319612  0.3663675363018614  0.4550089767492769
  0.5556634733927036  0.1856023609984877  0.6858540302160258
  0.8195097454823945  0.8314870167152147  0.8725304259025668
  0.8925600708096982  0.9260870169042985  0.8547011382078252
  0.4710157988785578  0.2980451907796178  0.2390156604737668
  0.5669830658802490  0.0149659743443424  0.7829875286334478
  0.6989107975428388  0.6820748017397115  0.6342454576107318
  0.4520701797419249  0.9163363992042093  0.7821858544956897
  0.4945921015090858  0.4519802881642314  0.0742468595229807
  0.6057377910197608  0.5425209078777751  0.4287208626192704
  0.5706243183004308  0.5882884514128932  0.5734309149985524
  0.5985358910577143  0.1084062094385905  0.8277627619725032
  0.3325681777688569  0.8642811951120051  0.5824014116797097
  0.2055600748196243  0.8236292152163902  0.3219517178162464
  0.3128442014795511  0.7235358189838149  0.4989219086142297
  0.7913573338024729  0.7114031298782961  0.5555973832426108
  0.2936524619309232  0.6074011501476182  0.3028934703771132
  0.4870311145728813  0.3402068138273052  0.0433350548729040
  0.6042715610946698  0.7127083720181971  0.9814618928020560
  0.2537941316826229  0.1886023824767169  0.3724201593979841
  0.3479330634154275  0.0677101223455508  0.2089117699022293
  0.7229328888690288  0.6948992604439608  0.3078713259406108
  0.3223249798128474  0.8961633286910136  0.5198705455245651
  0.4654220846268477  0.5853854433094333  0.8519511113657420
  0.6965603967531810  0.1982680413188483  0.8966316655083416
  0.8971982479724855  0.8557931656319070  0.5521929936261235
  0.5028278502402812  0.7574554526054179  0.7752916859461407
  0.6354481717916260  0.0490352578453761  0.9203720215551031
  0.8198093526365127  0.0848773810948452  0.2003450604748027
  0.3788431887958079 -0.0092816405690490  0.2745927827928218
  0.3111995534499135  0.0554645334350414  0.6289083966595482
  0.8357394555357072  0.5161502710415685  0.8376793756813233
  0.1418790079875155  0.7276665745482136  0.1004032123860524
  0.5175623536612192  0.8054388119617820  0.2631012547938106
  0.8760313241571529  0.6222888303961803  0.3237985027405810
  0.3963604510779472  0.5204711145936831  0.9715747619367986
  0.1361955308529493  0.0680730443473352  0.3715638604717721
  0.9069337212918906  0.8799202213819963  0.8122236873228601
  0.1861881245668224  0.1964999541570342  0.5547547709921529
  0.7867396445782421  0.8333317970196746  0.3467047593184311
  0.7964918886104253  0.5766633180420579  0.5920207803519238
  0.4364928217374388  0.9461013952872976  0.0478783517632737
  0.5095621924324603  0.3060441352222815  0.6576942680449459
  0.2815912227647110  0.4191043021078145  0.1291176985989645
  0.5274785320727620  0.3383109670700254  0.4804000473236691
  0.3021043308545334  0.4474687116410497  0.7835660070911772
  0.5666991716238232  0.1784809363442944  0.3121790928086544
  0.8210259774770362  0.1040165642279821  0.3703250917527678
  0.6621745910236431  0.6413392878923462  0.7952029242323508
  0.3683521266581452  0.5595020312366167  0.7308931615896934
  0.5700096629375671  0.2362620437039074  0.0627403883302531
  0.3429729395894107  0.6008497935992108  0.8049232635186750
  0.6070275603813832  0.0642607812058522  0.7864204184418861
  0.5629951712937553  0.4294141252187724  0.5482568689010530
  0.7701052975350600  0.1561323598559748  0.9861672151904129
  0.7754642419391602  0.6946043670539875  0.2092422396906224
  0.9634677322073643  1.0067258429669330  0.5198128372784558
  0.0331784756284069  0.9163924248599394  0.5735653325154492
  0.4824265120834326  0.9761172169713965  0.7192412753359924
  0.6904563118460006  0.3903976022779371  0.3909945062359899
  0.0879344902260394  0.1264825452949625  0.5345041504677038
  0.2362222464438615  0.0083855194938690  0.1884858839477353
  0.5370155439705981  0.9740462889577662  0.5042563306405098
  0.2045764281365547  0.0550020635618631  0.6483673493618052
  0.4171169146645085  0.5640865973480773  0.6902761570613491
  0.8723292244460223  0.0838587189269031  0.1010667161265969
  0.5556055884329681  0.5634515003554295  0.4588807135298336
  0.4865264656800775  0.4815486031672994  0.5635385568335443
  0.7048391381900188  0.6646782864808277  0.6929910356804878
  0.6265678724058189  0.7750598661612786  0.4216741272286060
  0.6712532616681418  0.6260955827078847  0.8543121670095494
  0.8156252308125310  0.9604525546865517  0.6696542832816734
  0.6157523230796406  0.2150218190779068  0.8134845011249332
 -0.0377710270344961  0.8290980459963779  0.9619208160063876
  0.5217534570770174  0.5783175349322717  0.8728387907812157
  0.2896291681784640  0.0886942308467933  0.4976296403775248
  0.0394342403088575  0.4309510202185970  0.9215658603513887
  0.6645356825279903  0.1616551803371470  0.9500500429273885
  0.4856784933688135  0.9725378380563401  0.3691974260754353
  0.2349665228279907  0.1826504891333355  0.7984737539866500
  0.9439792444151739  0.3906237742703769  0.8924287067340075
  0.3990622797308980  0.6069742800461064  0.3357525295206598
  0.6066150168736558  0.5738698932718831  0.3051321538191861
  0.7990014523280420  0.3359552352356743  0.9085642796981949
  0.2958810532425325  0.6380316038975605  0.1795015291841141
  0.1001941740295136  0.9762288705891625  0.8158077014174810
  0.3666033632380134  0.4138849498272747  0.4591061119508827
  0.4557716063153502  0.6537295765361575  0.2831212442729482
  0.6282280857662309  0.5807579706114883  0.5949040253011147
  0.3075077085840899  0.1578804986033885  0.3950165322344033
  0.8006802063001677  0.4327392202417440  0.7306829606217486
  0.3387983622017349  0.3111885977853845  0.6472701434079945
  0.9718332328122569  0.0085619334195648  0.6408086320537381
  0.6427158472159834  0.2440271621753011  0.6468162321530082
  0.8382659628551169  0.2525451663359979  0.2053127680406358
  0.7333960460454872  0.2702766166242661  0.3386029380029998
  0.3474084829149340  0.2021580162221825  0.9445946481513861
  0.5097167074796194  0.4898656784974201  0.7926493017829935
  0.7872582509241878  0.3273033922322238  0.7380259435926454
  0.8580476056022279  0.8794468233092189  0.8800780655527362
  0.7946599317271476  0.3438059897860070  0.1615820473824933
  0.0714012861210516  0.4350585429661650  0.2232868349176187
  0.3453430118392192  0.0174716478282032  0.8173408928848540
  0.3829574379907827  0.2323787329867225  0.7860438314660527
  0.6391659238116434  0.9409797690707246  0.4366219004061189
  0.3957278716050877  0.5792247670096280  0.4569339498021257
  0.6528348484099827  0.9676792158590926  0.7276563771563678
  0.8384072629730858  0.7061514044269810  0.5164925565370243
  0.4638900547135732  0.1970006558268366  0.4440287726106791
  0.5701207694310968  0.7452255261425723  0.4098799885520305
  0.8249535515658603  0.6369305789225955  0.3593051611684340
  0.8849669362483240  0.3999874130023319  0.8700102466448424
  0.4261579881085083  0.3668821617791371  0.6149596836345087
  0.4721217696886682  0.8517511220492789  0.4068755452591845
  0.9314643597990923  0.8219911610903329  0.8275591101318071
  0.9482036908993910  0.3741941353175894  0.9543548468995210
  0.0297281784315107  0.6975853028634398  0.8911587069661000
  0.2573029421221133  0.2774904539861718  0.8482742242053575
  0.4439022262025140  0.2232229339944310  0.8092708321363346
  0.7841097968612537  0.5949073787060494  0.7322192480059946
  0.1728558575507807  0.1580816677891461  0.6698607300103483
  0.6468640715967525  0.0370690198173180  0.6368334764587678
  0.5065134228077065  0.6236212206032891  0.9099652628249384
  0.9492949432802692  0.3300453959651572  0.3947638553390437
  0.7100499909315158  0.5428760369104674  0.2329434149486389
  0.9781609101705800  0.6946919118357232  0.9286502051532842
  0.5064692209397613  0.6046848642372479  0.3738953380739365
  0.3171436774219513  0.1175399332942581  0.8432779862317654
  0.9348971791565648  0.9303794489566529  0.7099322084826761
  0.8016184595095489  0.5653435130643756  0.8549487647801992
  0.2467403004009669  0.1398771521789548  0.7561024452677293
  0.7098693485583861  0.4898714145488707  0.5298812220438973
  0.9329918234798972  0.9707812768461674  0.8800749807034455
  0.0844749327243205  0.0669440588523508  0.6040652437059155
  0.5700118508540399  0.5836645842054583  0.8334725781288416
  0.6815094578883661  0.5437589851086300  0.5079608521591418
  0.7061093807004745  0.0748697723893954  0.7041002775488429
  0.8527315328736831  0.5664653879473914  0.6154407017170537
  0.3697197950933623  0.8976845142346475  0.4174852235811318
  0.5953957921376543  0.4513704855511532  0.3386966277071014
  0.3643145673968354  0.8403035783822530  0.4298169912137729
  0.5142738707936938  0.7451809062164506  0.2779365995109965
  0.8385761631736778  0.7552952151879662  0.7204943482089253
  0.5693868841620259  0.7581695861174745  0.3499182693970754
  0.9064711399713281  0.5812260933391586  0.7720187750450496
  0.9570992977210753  0.7336736591279165  0.7329885453169315
  0.0906915732637307  0.6986031283867429  0.3212501874088546
  0.6574266562799509  0.1627795134379778  0.4915769855288095
 -0.0044426186853520  0.3640144745616876  0.7435031082288468
  0.9342789872623114  0.3731961169012344  0.7215297738757575
  0.9330330509311950  0.4044685957703536  0.8324626843878442
  0.1699291996035690  0.9376418617658250  0.1392176927938242
  0.4208232823564158  0.7818703220295021  0.5235271460062969
  0.5567715641622135  0.5897577345885721  0.3377519052515164
  0.7913042543365858  0.6660650216599585  0.5120242587457204
  0.6930110487388250  0.3776559208968880  0.5362863545469092
  0.5184884958811092  0.7717933707948876  0.3860571422192331
  0.4216754422433329  0.8217699991306280  0.7337407928576039
  0.7386101060378234  0.1992805439541607  0.8568938374803704
  0.7782339873908042  0.4906193042942070  0.7143981601749168
  0.4557920515422434  0.6690429643445215  0.2242179895613799
  0.9409347687837393  0.6303951585390448  0.7765870916815647
  0.6813593523490709  0.7999508278111255  0.4351205047929462
  0.9671562271570523  0.4811836376734330  0.2289625623410488
  0.8961131214098919  0.3375979617011546  0.4934977520029392
  0.9701578770409999  0.4864879966064986  0.4582758496017013
  0.1648544350929622  0.0710988805663788  0.8572791234486012
  0.8971252504306815  0.5957712960451181  0.7132659770203974
  0.6098164867813026  0.6171606360807949  0.3469672623558938
  0.7359365839248009  0.1659234589719061  0.7486131723284658
  0.6051759751409010  0.5589679312617212  0.3658612220613536
  0.6860726782207005  0.6544157405122124  0.5287760282775468
  0.4409152772996681  0.4839073569975768  0.2746778689188601
  0.4220721147394932  0.5339184652297099  0.5889658241019620
  0.7519549626198352  0.5595612179344056  0.8989234790491143
  0.6864388589078360  0.3432217375505059  0.1257728237055540
  0.2569327685981945  0.2534351343940044  0.1244754259731602
  0.3313224920958664  0.7026500196590736  0.5588171358904359
  0.4428269081750574  0.4986524463132884  0.2134326806275251
  0.2782501565855008  0.3245817906006411  0.0392469835063153
  0.9131825863109944  0.4172549664312928  0.1169314216745322
  0.2176911665384925  0.7800071570102107  0.7290853549735286
  0.1949100479779982  0.5716033664740643  0.7239751890165729
  0.9210024065947428  0.5339142801726734  0.3685634625170401
  0.1418752025979088  0.6218252709084210  0.5394402654001084
  0.9627734503373070  0.9455359232194713 -0.0016076941093847
  0.1207849850492744  0.4697657370666244  0.7144891251188042
  0.9613007179113665  0.4194800445214639  0.2468899147312620
  0.5408434811135725  0.4185657711707261  0.0991669932570979
  0.8424887954325180  0.3283808061348814  0.1278972768838415
  0.8687335600456916  0.4598472528205679  0.0197768676199719
  0.8194417380482801  0.5859692537421933  0.0849575119230755
  0.9712998423013052  0.5415548425700837  0.2094615629777497
  0.0250280440533092  0.3995564985918820  0.5775712142786505
  0.1384660645095783  0.1585364448830347 -0.0030427245380658
  0.3361739788727992  0.7331130146418149  0.6679552799978342
  0.8865177011075897  0.2372507749058500  0.1725383468472293
  0.3304661051256190  0.9291374991603831  0.7381183501683948
  0.3551185930869800  0.9052465959300630  0.8609277512545916
  0.4759258018741652  0.8188406117030786  0.5269879338724579
  0.5844005370946664  0.3593566920953629  0.2549344990797702
  0.1697276237611856  0.6419084791943762  0.9045963021829175
  0.2238059445449647  0.7982752679159596  0.8940490782542961
  0.0853279856288453  0.5967961388783076  0.9259083045836671
  0.6742672981259156  0.2571058731702002  0.0385370178798075
  0.1253845226129042  0.6362466161244058  0.9398159490252773
  0.3185713092235727  0.3456745673703261  0.3433340915858582
  0.3906520852576820  0.4966824017754251  0.0840355369552764
  0.5931318706394786  0.9350393719783046  0.0547128786903456
  0.9834325013371444  0.1280516928752204  0.1813260202811539
  0.4315754013780225  0.8074621248451860  0.9624996894857537
  0.1320216078179852  0.5925635644365292  0.8939576037985116
  0.9256047443773732  0.5929547113026865  0.3499218448408983
  0.1053847825874881  0.5487704691121349  0.8605854675580877
  0.0787209555051693  0.4791758990037502  0.0406865761867952
  0.1418770070593087  0.6814778953812860  0.7077737273118708
  0.7747358818783625  0.1889806624987690  0.0920234700948367
  0.1350281940276545  0.4256812075083543  0.6703087330183484
  0.6274965415075288  0.3499987678479128  0.9105482536569979
  0.0611554482878532  0.5961600461959741  0.6214881206613457
  0.9207606585199491  0.4945534047068550  0.0370572114516127
  0.0655281094681585 -0.0469604562137034  0.2786727371295065
  0.5084353555045321  0.6991144214778952  0.2350297261965308
  0.2677378413743924  0.8672022110881862  0.5014061157909083
  0.6176425418423205  0.7462568751005610  0.0841062260010168
  0.6640727839075551  0.7935789869957564  0.8192483561521267
  0.9579436222779730  0.7640545251466057  0.9611968152370594
  0.0508450100683566  0.8499414455170355  0.2579773508974930
  0.7190903531971105  0.5006691872816293  0.6929719492623426
 -0.0017767813276012  0.8501799267039960  0.3579971765381152
  0.9649048075810981  0.5731033813547065  0.7942242281883738
  0.2218590111490868 -0.0059477129436283  0.3382307741188180
  0.5211221982547407  0.8966308523353269  0.8659213930484738
  0.0489470462491782  0.5185935294079072  0.7390245739369918
  0.0335160548865370  0.6790964117312225  0.0168016805148529
  0.7537390586147409  0.9891355429188280  0.9756156407127287
  0.0104778367436596  0.4730954107002582  0.7373984667405987
  0.2967633126790321  0.7480237376477719  0.8819967718547038
  0.8461269327511071  0.7403682833221309  0.7802904888334461
  0.7206770500282982  0.1601734338078632  0.0811897084351075
  0.5180850148876275  0.8194410813038995  0.2047334337833452
  0.1096854625136357  0.8696686106171695  0.0232137312536352
  0.1948280960571701  0.6479054940092319  0.5563020313911707
  0.1093307291593018  0.5986041134677449  0.5847812951681085
  0.2082508925557422  0.5250589136249092  0.6824031529600290
  0.1642151664674459  0.6248872013693787  0.7301129592051477
  0.5639171638792890  0.1449259644531607  0.2062386975916276
  0.1116422706966050  0.6449696184112553  0.8771588143862828
  0.3796959242125634  0.8288161792146640  0.9432357568287593
  0.8172080221506127  0.4269484511467241  0.0174225841168940
  0.8610927622786878  0.7149978305067174  0.9016435965893749
  0.4141712209626782  0.3900358243442371  0.4873831343543190
  0.8616325508116701  0.5586501435460899  0.8768016035358848
  0.9771852268803720  0.0657919797650625  0.1960636869210306
  0.3983105113629178  0.6107365193507949  0.5030297589181544
  0.4459633528979906  0.5437080864959796  0.2553147337039157
  0.8521537373826318 -0.0050638345889957  0.7662489525600868
  0.4479523142576368  0.0611795950857712  0.8449613474547242
  0.3651073398597127  0.6426495133744513  0.5889875102656484
  0.4374815060678838  0.0722825282375782  0.7809050339384481
  0.5820326815179598  0.3432613851018327  0.3169077064750505
  0.5268917127821158  0.3131227278467028  0.8849690996447379
  0.8316707012759190  0.9059232499340838  0.6273306631952269
  0.3054537709763024  0.3164217967280213  0.9219463875720538
  0.5667542343367243  0.7336413582344156  0.6368720346425861
  0.3131497621250364  0.8248500485979655  0.3605808823599106
  0.1292141441264573  0.5440138408329782  0.3789826614254707
  0.7238757097215670  0.1772704784883938  0.6904305652851618
  0.2599639305531139  0.4309261309504640  0.8846490443856454
  0.6682982015969403  0.0578760502139859  0.8072814792226488
  0.8674461292676211  0.6238079212278107  0.5914684958485059
  0.9075184265250680  0.4232956974167743  0.3438702042074833
  0.6366569279016335  0.9627413143325266  0.6071710924273381
  0.7135706743438098  0.5877572592752983  0.0497809041279801
  0.8681548255806021  0.6837788997365170  0.7995852722195096
  0.4162902767213796  0.0985471977250879  0.6518705551123305
  0.1655423656206705  0.5411652582457668  0.8820803335669652
  0.0606593855649928  0.4760941053860435  0.6989617484878737
  0.8572919142149253  0.4390439104097137  0.3753181064280220
  0.0257065030425273  0.5472089486460532  0.6186530778849184
  0.4847815135024777  0.9890001003007414  0.3097226890854813
  0.7680328795608312  0.6217738248793842  0.2890695707689529
  0.2616685740850753  0.2142296435660646  0.6343223621612710
  0.8481625437023494  0.1265895055167647  0.6226883573461701
  0.8938843309665675  0.8336148045591555  0.3836846897489157
  0.3457357885697888  0.6632565138216655  0.9632867144829638
  0.9801642475640655  0.2230540365904650  0.6519017422585354
  0.7581694105570810  0.4971903246302541  0.3218275901623845
  0.8428307537828235  0.3132472118539301  0.1879159350949398
  0.9603352237354521  0.3872289104114526  0.1427837292870193
  0.4220783551149645  0.9842214742014557  0.6960598071908924
  0.7780066367185969  0.2093572446494631  0.4935034489989743
  0.3849337737250711  0.3826601491063180  0.8260965667904175
  0.2115326210216759  0.9069131009885374  0.5880734284758403
 -0.0071582445691994  0.2220827867340814  0.2722879288753787
  0.4211214139128763  0.4322352750796660  0.8301294220134615
  0.5798731384546180  0.8956074797738784  0.2545186847589376
  0.8505263375986493  0.4120053784133684  0.5732590065977538
  0.5209686420802521  0.4772496587964482  0.8535123394302628
  0.0143022406749210  0.4217026459521583  0.3785190870682231
  0.1171065686242928  0.0666165788519248  0.8969143077726401
  0.7625267697501283  0.0655595450121103  0.7260947496581209
  0.9365921152055258  0.5282613070525749  0.7585264451367300
  0.1598456439043137  0.5194197866050297  0.7190633360792735
  0.9515139437443808  0.3713125318323765  0.4999941673557262
  0.8123402784790686  0.3621946782883564  0.5748644095045317
  0.5868790376756421  0.9540330586614084  0.2350332667352862
  0.7986891157095131  0.9404653251668891  0.3737214820048591
 -0.0017892750841264  0.4523378727972393  0.5701973714333295
  0.9253581997685840  0.0713663331992209  0.2973636280571271
  0.7163061924694806  0.0632995038054269  0.7649064370939180
  0.4401618745668645  0.5095665311034238  0.7084042190093490
  0.8196722665142164  0.1846003603599171  0.6064095583515349
  0.6556231814575494  0.5439257980051524  0.3312052833674275
  0.9241196717487659  0.3865684112966434  0.6602447014211238
  0.5907369692036357  0.5570457825497280  0.9629915756667252
  0.1120872500562647  0.1699858864573640  0.4974260207623040
  0.2077401633576495  0.2970690607174595  0.4977348912471417
  0.1395187716223755  0.5822063336768597  0.9587736751283962
  0.8988198407477662  0.2935905662271188  0.6151676466797426
  0.8514689956214634  0.3534379085354757  0.5298617222832341
  0.9444506442619972  0.3220543494794422  0.4573284065487105
  0.3606878036567499  0.8390955576018396  0.2021174542750847
  0.2783718598635483  0.9490991684602856  0.1092369204166473
  0.1063961726465967  0.1083666304638583  0.9395235918882092
  0.8704184287961807  0.5242417367978643  0.5217789810165747
  0.7728142919184674  0.6655194029419557  0.3342275934944151
  0.6757691103008174  0.8040452814267324  0.2026302508958649
  0.7367439283177923  0.8640478867694174  0.3209549005287771
  0.7887232224065158  0.3361497430907764  0.5110134429386287
  0.6186902270451530  0.1795124831749457  0.4446022943219263
  0.3424696266033982  0.9172659793950142  0.8002871984231064
  0.3987323531176880  0.7896606470660005  0.9025401463141850
  0.8750953875003529  0.6708152342936232  0.8605841993110108
  0.1943266148040782  0.0706232406436043  0.5852915975612492
  0.2757919240177322  0.8030767538761946  0.8590799064140290
  0.5789889415574099  0.4705177504459020  0.8762749855099726
  0.7877340896780289  0.2953018997043300  0.6327596415277409
  0.9598111600672682  0.4688811211812979  0.7732141594943964
  0.2216127692264827  0.6159751804566083  0.7565599808322198
  0.9252967485100398  0.6086972588074009  0.2905159641008361
  0.8758475195657391  0.5070182992781638  0.6356170859518295
  0.8196570664258430  0.5423562965057600  0.5014146988577807
  0.1737881015080558  0.6111937192487296  0.7912061731669233
  0.3800724303075209  0.9665571984097256  0.8042186085673710
  0.6736952268954611  0.6922728610244144  0.4075775596561627
  0.5153104137564893  0.3549093257352475  0.9330468757439366
  0.9483658448428877  0.2994127295211427  0.2878376923373242
  0.8651190225967608  0.5216983221422190  0.5770001009337383
  0.6577907011389520  0.2095564681628473  0.5414860645753977
  0.9757741187946736  0.0776263409896799  0.4347865826547128
  0.9075047067573109  0.3069602500674884  0.7798198113306385
  0.3430014943764883  0.0956756337627465  0.3926082835572582
  0.3654463437317885  0.8830045481703414  0.2465033846110422
  0.5634533786338485  0.1582404025356120  0.1446656267388899
  0.1408810945053746  0.6688104608982146  0.3485427240498270
  0.0813331762164470  0.5739441681073968  0.3526941638356527
  0.1013161109370716  0.8364518308629684  0.2229806020440177
  0.4967240505510845  0.3481337261233063  0.7003622164571285
  0.3599932222269072  0.2575267339948253  0.6636929224506208
  0.0894529158952972  0.6843127864068755  0.3837126834010716
  0.6408698965917995 -0.0273679640680938  0.5450888266070918
  0.0945162127748001  0.4272303661338429  0.9445055040141257
  0.3282993537375157  0.3547365428181313  0.0490429490614947
  0.8760431440818193  0.2468222849093087  0.9444905438357490
  0.0405145426167151  0.6973006298445904  0.4194325661113742
  0.3866414184961052  0.9443529084190333  0.1436510543644683
  0.4866557856039812  0.3610435809732700  0.6377298020715693
  0.6802084006063687  0.2664579805889755  0.2057396005692139
  0.1187232903341161  0.4055356058238033  0.2508332830692075
  0.0166812212766811  0.5611175422980076  0.5595779577589743
  0.3549698561501905  0.1363009426311409  0.7366112478871356
  0.2954441208735160  0.1438578616844090  0.7166665841125908
  0.4333793297587678  0.0021963633223696  0.3423704275731130
  0.4457984517245223  0.0645568193436551  0.0140049116319414
  0.4483585392625946  0.0714773686713231  0.5545804678100162
  0.6255544389267754  0.8346761934095404  0.1738759613415900
  0.8760888519455656  0.9502946054909838  0.7236874912467429
  0.7921203026159651  0.8257902447619582  0.5817508203033238
  0.2719403553239022  0.9792009477059792  0.3021269469346675
  0.7750527624102256  0.3700617107644124  0.7811201821343600
  0.3231663647143527  0.8647631648366311  0.0871151053268109
  0.9116533635029764  0.0007750846534429  0.3874376289269307
  0.1541938930512652  0.2678853621642286  0.2567828007973491
  0.8844888997335475  0.6110094593746583  0.6519646130859228
  0.8711879759430378  0.2583809919165941  0.7766470333982736
  0.7865044324277661  0.5928221876593112  0.5298183111346465
  0.8007545653973283  0.8853946658640222  0.8572008760151049
  0.6763659576619190  0.6732648443592543  0.4697559045796477
  0.6569976693184282  0.0971007341588628  0.9590971186777612
  0.8623433962024815  0.6689926416838818  0.6322224890228828
  0.3337994530829848  0.1645118018692714  0.6031311500490802
  0.3699049907429682  0.8843015313197755  0.4784901659744867
  0.8090710746114923  0.4679065064194967  0.3489207749540674
  0.6800074500987222  0.7424666875202350  0.6140913578458511
  0.4893689053442336  0.8687769958344622  1.0307822226393921
  0.9316648994305007  0.6815813487611737  0.2116421343069011
  0.2743431814631491  0.1720739403797667  0.5847926029039555
  0.3025087400917327  0.7293107228775901  0.2693456919810205
  0.0664552948657302  0.9674543256228160  0.2163075792490071
  0.0994006424612629  0.6535541224037952  0.5731479134802782
  0.7895019371600683  0.8634958276832155  0.2210186737950220
  0.1249628324460578  0.9747459148816677  0.5386283663217439
  0.8695825457506277  0.5559019918579923  0.1124221960214884
  0.4267581726766528  0.1491924575809918  0.9405377286266449
  0.9276055222851467  0.6502861821785643  0.1021712934645307
  0.1580044673462838  0.4468564493181008  0.5065373542111399
  0.3355343676905773  0.0521855630357347  0.0318114207687500
  0.0762961687205994  0.0132251417082134  0.0040061800026091
  0.9202457707932460  0.6290011495767671  0.4778474127789082
  0.4638732325380367  0.7602470115862000  0.3145738089569701
  0.2002776322109490  0.2078336501584198  0.1752583624798965
  0.7500491955181460  0.9705135923011643  0.6431536748426587
  0.9640018448907184  0.4344374810747936  0.1857545749538038
  0.4737188017190245  0.8360353204415104  0.4670809077995960
  0.6159609306330722  0.5889033542412413  0.0142630891129678
  0.1771786871555465  0.0107406660039250  0.0513879775466237
  0.9810180710899322  0.2881807084269443  0.8606383277805477
  0.7081230623117986  0.4766906379728060  0.4776553017625263
  0.9179434470362615  0.2623541217900716  0.7359519948896088
  0.7280701295128467  0.4318699344767625  0.5477570117147659
  0.6519823133147418  0.0800315374287678  0.5689635033849039
  0.2286143355177884  0.9645781214469034  0.1455890009728133
  0.6711612436992864  0.9114543169199095  0.7435175784303613
  0.9543261214005283  0.3595324443119811  0.2686701024659631
  0.0321313513814587  0.5067223244787367  0.0149537343056877
  0.2127563760378865  0.2063443798432394  0.6726923306886414
  0.9799619544710068  0.5465331260943901  0.9173533054732422
  0.2362379831979806  0.3330045008152510  0.8350985582841207
  0.6785961171820222  0.2392120631267274  0.3296200827392839
  0.3282018121368954  0.0064825748400922  0.3085114326252554
  0.1097033760533320  0.3310685289886928  0.6192966652446170
  0.0958165037194879  0.8031701705803977  0.1154570277365933
  0.6069413567846010  0.3492208518621973  0.6813570053900535
  0.7153058366503267  0.3780999305980965  0.7652357218709854
  0.0635671894070633  0.4042355184482306  0.3470929028154500
  0.1310906957727601  0.0133621939121744  0.1558245153557626
 -0.0025882113471094  0.2809988664867238  0.2546419937127977
  0.6920126845834734  0.8862024188250134  0.5308071781742202
  0.1906054155487946  0.6374089627132773  0.3757377912141632
  0.1296975872535542  0.5276280344591194  0.4398608972248377
  0.3935579413248383  0.0751150339546901  0.3577013392621294
  0.9202709698705343  0.4488488030776107  0.8748358285892883
  0.9650009494079843  0.4518408086545885  0.3518234179114518
  0.0770145187977351  0.5159904815806424  0.3695275608928597
  0.4334831928224022  0.4212017339148807  0.2935420599852680
  0.7010841738235248  0.2707933889825912  0.7770719083617981
  0.1332612411948041  0.0393668792378304  0.2649057608536395
  0.8182056258210740  0.5723358423815351  0.1452576529112483
  0.7538146919715241  0.8684969430059809  0.9641886050433182
  0.5765379386413664  0.7390221042823115  0.8582539344373388
  0.1378479234175980  0.1316932778011937  0.1200797965460674
  0.8909798938003526  0.2957824331442704  0.1560673123631963
  0.0192983114765532  0.9789504081499449  0.0057718981465908
  0.2000801923961811  0.8064925160596198  0.1534510764431480
  0.6150817271926976  0.7873531428876175  0.8591457692994097
  0.7342332900762794  0.7713530129712625  0.4612219628606902
 -0.0151025750089435  0.7455364879486820  0.0929716932241244
  0.3780789903307474  0.9747798516176345  0.3335025577140749
  0.2008055480440065  0.1757509201287863  0.3002020208139195
  0.0924958111447285  0.1902028114940926  0.2012567429757648
  0.9695464637404625  0.4953966931185730  0.1690077176052020
  0.3121211996368064  0.8543993750492633  0.2377893111815859
  0.2786798566910144  0.0692090355938830  0.8414085589120359
  0.2461749299985961  0.1305099663355767  0.1550174538674139