Cr Ni
 1.0000000000000000
    38.5656675836183283    0.0000000000000000    0.0000000000000000
     0.0000000000000000   38.5656675836183283    0.0000000000000000
     0.0000000000000000    0.0000000000000000   38.5656675836183283
 Cr  Ni 
 1596 3725
Direct
  0.4749497012235648  0.7297118489829090  0.2785718012792762
  0.7762018281460501  0.4257488903178670  0.0121833087436672
  0.3871835646101149  0.1252299402733026  0.8765445141809510
  0.2643744927256947  0.5135599720614223  0.5493626900681590
  0.5916740958385966  0.2017741545277518  0.9307420336220190
  0.3590803048386862  0.6326995460008268  0.1560984851900896
  0.4481709838264902  0.2865973451166651  0.5344290621866848
  0.2056548080719303  0.1462222054043567  0.8094353484810076
  0.0451423700312688  0.1069810779369863  0.7608411779001606
  0.5595935237817515  0.4920482490128830  0.0948768300548556
  0.5095151170959193  0.5202694778804273  0.5207986385121371
  0.2840620184978215  0.1139617180806993  0.9599799581413178
  0.1171512230050274  0.8749590698202629  0.1038764754301401
  0.6629551509848836  0.2778229967519991  0.8298030089053396
  0.6952295387512133  0.1415428573552250  0.6898990855051051
  0.4842644214363064  0.1022857438513250  0.6865275441486373
  0.2401035287893444  0.9601206360220790  0.2191501584775585
  0.9521172057837841  0.6433537631369310  0.7894854686006555
  0.8085556299393691  0.3709748484192354  0.1122102404880372
  0.6908909385420927  0.8680024576314270  0.6614024141470992
  0.6955943688600442  0.8817855310824354  0.7153036284035335
  0.6617545285550022  0.4589672268006825  0.9677038032341717
  0.4125019076867307  0.0401441987226593  0.5648491316840912
  0.3073013735992718  0.0249747527118742  0.8719402023721932
  0.8341650927769522  0.8454487706039180  0.8850686913875115
  0.9106533135858713  0.9351424036805930  0.8720634918891390
  0.4256654639242168  0.2152208268197643  0.2594634790797679
  0.5164184178690161  0.0350896984563643  0.7705541357928271
  0.3661271684234149  0.3345332870879326  0.8938603177364947
  0.5577323260458398  0.0842767758987873  0.7715885478376573
  0.5086779687116216  0.5079141926085827  0.1297998180795120
  0.5631453698190627  0.5109162270923230  0.4866035005134490
  0.5704999342104599  0.6184603394443046  0.5198598568530605
  0.6289919108559640  0.0655973112487385  0.8575943711295336
  0.4963092723909935  0.9542170221303687  0.5109557407538206
  0.1629407071831496  0.8027901292574684  0.3253150681190816
  0.3193225426454392  0.7389678596772626  0.5053341100398049
  0.7956886025461505  0.7341774418248896  0.5665930453755518
  0.3060938637886955  0.6330770880871089  0.2515985696615053
  0.4990155910050794  0.3489338307126731  0.0548351282542967
  0.6175156174838163  0.7216605715830117  0.9936214187718154
  0.2136051052621467  0.1702789834462016  0.3734512467186294
  0.2556724456900958  0.4907025047516131  0.9360555763082740
  0.7300928399106925  0.6619232501619612  0.2748578672614297
  0.3323715212103386  0.8895596445649361  0.5865646883221187
  0.4754473799778161  0.5984309173324532  0.8647094557842311
  0.6604455309882236  0.4622546857283586  0.2551167114244599
  0.8722783111279957  0.8880081000192596  0.9773755450026318
  0.5043911758297119  0.8150146860877832  0.8317945182676033
  0.7751154818765329  0.1231519519358230  0.9511339681420239
  0.9742483111281950  0.0167692741989256  0.5391905503003251
  0.1152517820571499  0.9159712379098895  0.6170075415513936
  0.4515241167470725  0.9409856845323896  0.7310427737088498
  0.0968200049207080  0.8606732932189179  0.9828054933416399
  0.1271211503905225  0.1236982647229678  0.5264139958349162
  0.2476399133758794  0.0192688090557773  0.2012298244423135
  0.5640752206856824  0.1082583120329904  0.4828404070914112
  0.1759164328435464  0.0497674593674674  0.7626647313329993
  0.8364899979888670  0.3586530258209533  0.6475308381009710
  0.9943107815726714  0.1707269159166997  0.0688561047371958
  0.5666589982418019  0.5729147252075976  0.4717605526516200
  0.4688429851740952  0.6000324597469335  0.6051837494675252
  0.2674613115616694  0.8022518522099453  0.3603949765522829
  0.6385021761178782  0.7838781175411623  0.4364992487362642
  0.6793233954024470  0.6418506018742615  0.8618852808278991
  0.8225449757139599  0.9827467465006926  0.6724217526716895
  0.6010930333976174  0.1620439173840796  0.8847292034520902
  0.9758242295654603  0.8438918703811943  0.9745417555984466
  0.6160890044021345  0.0770281326393226  0.7934894116227774
  0.5363827281966869  0.5889932054531062  0.8856892274657061
  0.6636210032438949  0.0465265669945706  0.9929843119089786
  0.6774963017385802  0.6312195137457401  0.2646217201066432
  0.2618126344788369  0.1729321332014072  0.9345608008155697
  0.4964808199762147  0.1244554848404090  0.8581868944813030
  0.3990574189358330  0.5484029145067039  0.8641817505803726
  0.5193937469869586  0.6631833249324549  0.1999392764843796
  0.4087659001214248  0.5862231001527085  0.4711637698264519
  0.5053974765404204  0.0592131562284730  0.9868984565502406
  0.4541738519884996  0.0309718423354814  0.5285404340416541
  0.6883400633017054  0.3402232491433457  0.7732536407302442
  0.1524554754860640  0.6877899854484354  0.0706076397164380
  0.6315564454203458  0.2324897006034847  0.0418726675871397
  0.3260738752364414  0.1317536241399588  0.8550279521381431
  0.5712300256524608  0.1579195759265241  0.9828152464876512
  0.1644008828706904  0.1859509691548552  0.4070394503665296
  0.6054843006774429  0.7807341698124463  0.9773472480476793
  0.3150875069976838  0.1113645504034888  0.6846031323343332
  0.3351880720669782  0.0549534719599567  0.7036323382107340
  0.9736549321392074  0.0215600536621985  0.6575034882426046
  0.6370304619149958  0.7567743294490280  0.8277107217341682
  0.7821153832047967  0.1543689016725923  0.0582394612062209
  0.7055320789381015  0.2123993567207649  0.9061925966325379
  0.9159801378121734  0.9735395065092913  0.5901923079606874
  0.4863360967641556  0.3770548782607297  0.4716151070645756
  0.5623425806755751  0.2018737954364041  0.6981713166070825
  0.5825261811935916  0.2470661768366369  0.0759077292283003
  0.7868849711571030  0.0664650314278947  0.7998502378903409
  0.5723969157992332  0.1206426338283916  0.1099479279545084
  0.1580804952175947  0.7413446633348486  0.3448638351170762
  0.6819428357296238  0.2185270598307436  1.0061396393512032
  0.4963904511314115  0.9825924470503580  0.3842928176188671
  0.2658873403465383  0.1388647887036850  0.8321259433336895
  0.9074980622466300  0.3673029732358857  0.8363633096164239
  0.4072029350861846  0.5556496252933830  0.3650190633730348
  0.0733921498595437  0.3682983583961039  0.3161366111662954
  0.8390893353181789  0.3213942553905914  0.9765666966960838
  0.3071238948773333  0.6493418057972458  0.1902351675926910
  0.0810100627348335  0.9251550916349640  0.8854263123852973
  0.3714574575919067  0.4255147461904910  0.4761611150614539
  0.4679559885251047  0.6658677917154586  0.2951779563623213
  0.5237442485767515  0.6127387921842846  0.5597781677112937
  0.3458543104365397  0.0635793320922669  0.3694664327574396
  0.8138515357381774  0.4462126522060706  0.7406791664638229
  0.3495936858497513  0.3260203082969577  0.6601401355374996
  0.9832608085098511  0.9640326686130044  0.6758778405804897
  0.6495919221461277  0.2574748791083464  0.6611135307305224
  0.7427358031483628  0.2635423336281230  0.1837828115824386
  0.7975767293630432  0.2656256498439825  0.3151979256858610
  0.3589071310335376  0.2155033838990046  0.9586060133066360
  0.5218127960963007  0.5015763852741025  0.8023828743192594
  0.7713243599552901  0.2738946272499069  0.8090742890918581
  0.8741346185525616  0.8907862979852122  0.9108141770553819
  0.8066883662286106  0.3544983197750043  0.1731292093580117
  0.8337700088310557  0.0937386422575047  0.2105197676987119
  0.3574543595568003  0.0303527045409667  0.8312010082881207
  0.3929999989692640  0.2434123261456090  0.7985025523730190
  0.6503391990868902  0.9200146295347300  0.5725994101457743
  0.3666210914609119  0.6788127531396747  0.4261037331058022
  0.4774632331224202  0.1907610625357100  0.5188932530258598
  0.2597883823713212  0.7258787678004178  0.2102652450216982
  0.4796007377221124  0.2063577335323978  0.4575990584018266
  0.5877525660601945  0.7992326197681404  0.4703941532075583
  0.1389224217161298  0.7644498599428126  0.9325518881912158
  0.9438813966930633  0.4162107043397166  0.8429035707950955
  0.4408271073111543  0.3828655443807064  0.6257008713091362
  0.4356579500446626  0.8789675472452146  0.4557040640073205
  0.9852079126732453  0.7179586188983959  0.8707703430280306
  0.8991195193747014  0.3963817436800202  0.9412108382866698
  0.0410355536861158  0.7115999662499838  0.9014436960729719
  0.2686233672944598  0.2923108995335355  0.8601051117795968
  0.4751224778238015  0.1795393736839742  0.8400829187668071
  0.7949212882577695  0.6091806068003655  0.7405005350800424
  0.1829786567152023  0.1694155828937272  0.6852032719979827
  0.5276084702940989  0.0662214570695696  0.5956172759027681
  0.5213535543128720  0.6332777484440597  0.9233824887358313
  0.9622223576964360  0.3402564634420996  0.4051120031336372
  0.7218757034603640  0.5547729628511222  0.2454145300024212
  0.3413442628153221  0.5227511458745036  0.7380162837019169
  0.4714375093756232  0.6932825674259390  0.4016994597070467
  0.3140866560407770  0.1442667782208750  0.7919043250377857
  0.8768271251040360  0.9733393925609123  0.6902537152870492
  0.8122742820831000  0.5799288565375768  0.8656051284541666
  0.2438801879923927  0.1973841893585600  0.8110155022916764
  0.7223356835586235  0.5240585351660744  0.5388735621392002
  1.0000351705463668  0.9885405096293849  0.8437669435063355
  0.1054595356787829  0.0668993524019252  0.6774020446142437
  0.5851227669963239  0.5962469413854460  0.8436586983230652
  0.9735647039155519  0.4159471287839235  0.3214733970864435
  0.7169785123862741  0.0826592475095240  0.7089477996162494
  0.8654232590618555  0.5816988972354170  0.6230475931481739
  0.3832931952657403  0.9092892401815523  0.4288330743025829
  0.6088514611709769  0.4621306028200862  0.3510220659411580
  0.3821767081541305  0.8483427210746055  0.4439834962198009
  0.5292342321224752  0.7570363185746563  0.2928970015650110
  0.8800187812232805  0.6962776345125323  0.8119174992694711
  0.5732762785427719  0.6929084044771009  0.2108566816382012
  0.9172304826727785  0.5935533129118211  0.7817958745579523
  0.9960376846985943  0.1023883960238538  0.8008795961253886
  0.1533732084859884  0.6633077581608219  0.4238930891459702
  0.3369531864847951  0.3703633787242009  0.7059195288263684
  0.5068911361897940  0.3625908258434147  0.7088956981998924
  0.0621817783802362  0.8456681793573400  0.3355652757274947
  0.0951006879150327  0.6016970132844027  0.3042707208674244
  0.1826750386022957  0.9625611400321811  0.0849030858544414
  0.4832555305386668  0.8038484597680008  0.6041011382878356
  0.5746736212213499  0.6626094379372350  0.3339728542894092
  0.7924255505622219  0.6899883163406848  0.5198209421824406
  0.0830174153562667  0.8955513900393037  0.7768477139684546
  0.5315503777845986  0.7676459866871209  0.4612820532929702
  0.4357957885299715  0.8334402605814953  0.7481999865928145
  0.7653586474452808  0.2396321374285711  0.9222646705442119
  0.7916972523417818  0.5050442042807357  0.7260784082956038
  0.4683283889475390  0.6791708743515492  0.2334410581302522
  0.0511587420983123  0.6808992942857353  0.7895607154220202
  0.7844564044127385  0.1256507248261361  0.1832749716243588
  0.9817253926810422  0.4930036732826027  0.2401348751879440
  0.9087646008685520  0.3459728137921446  0.5022175716813040
  0.9809777244568744  0.4951725192456459  0.4672797842447562
  0.2574221583598669  0.0210502331689403  0.9122729859177471
  0.9075853859979683  0.6076495162437755  0.7220325935801720
  0.5798502683732806  0.6753445155487052  0.5010344596102622
  0.7237985967221058  0.8453601984163149  0.9013373066238581
  0.7293598371524320  0.6458926754230712  0.1070502291284612
  0.6853880558408151  0.6768125055230801  0.5385325483666632
  0.2004991057436711  0.6022225933437857  0.3424065085196645
  0.4317802488360531  0.5539051043397569  0.5992376595601681
  0.7641788026934647  0.5725374665925040  0.9078770921825284
  0.6881243123128273  0.2663988255068815  0.0478856059794768
  0.2691673115371740  0.2820905592846276  0.0771968159778112
  0.2996361417188604  0.6067688311090188  0.6022284135847770
  0.8703081939060763  1.0020359850337963  0.7946919007496104
  0.2895857844208102  0.3808694926215124  0.0939819690118029
  0.8068397582219110  0.9318995395945991  0.2130228096551936
  0.2729642983062595  0.6783126557965443  0.7768488547524233
  0.2067813367487541  0.5838851651111411  0.7351917978044133
  0.8637736662552312  0.3876551275789385  0.4071042223686340
  0.1532626079523833  0.6313421301487069  0.5480608582361189
  0.9266459225100605  0.0344827816859810  0.9652526762865327
  0.1585706949243495  0.5452300020000450  0.6730122183413926
  0.9754385115246708  0.4313699359400478  0.2597637523334958
  0.5582336708684745  0.4462201089219827  0.0510958120279510
  0.8561912532959800  0.3402552449676027  0.1399318203769441
  0.9283201690104971  0.4417481582582950  0.0650141141817986
  0.8322561149253109  0.6015955059758807  0.0955418142237315
  0.1876765289542193  0.2905203691554099  0.6097973313215171
  0.0939375266185357  0.4036549532298570  0.6074549040606274
  0.1581368623923870  0.2211933182664954  0.0548180470668207
  0.8782792108738633  0.0173937185675030  0.1915126477561932
  0.9561610012365077  0.2764942457758938  0.1946634736034754
  0.3922183812773716  0.9479673000922006  0.7084968681566102
  0.3129612010967340  0.9137580556883006  0.9180933312681262
  0.8459349195236275  0.8004590169058987  0.2173144183006444
  0.4078315237887660  0.5705831538273023  0.3042075880318886
  0.1795385435744585  0.6604023610515655  0.9122293388381530
  0.0963697073293981  0.6143577012250045  0.9432116600485969
  0.5759501847837680  0.6784014484030318  0.0450518550413031
  0.7431537649753290  0.2957525876882945  0.0585912554340160
  0.1473658348241958  0.6465037028273776  0.9604277549438589
  0.3833315879287151  0.3399172032951005  0.3203352781545756
  0.4065284671729872  0.5548563375601668  0.1385801648093684
  0.6055616237043969  0.9458292718419101  0.0683313634090484
  0.9958593389325449  0.1542788721019028  0.1290536100173307
  0.5537750977383364  0.8516083005645952  0.8957992586556528
  0.1429436549341203  0.6075450989442106  0.9061576718820658
  0.2200642018031402  0.9125539361737960  0.2578469159081511
  0.7485937340789595  0.8443561557455770  0.4588770676429397
  0.0864958473565369  0.4725979548614141  0.1117176191524519
  0.1539663357753889  0.6949326233322618  0.7184222986266848
  0.7898101136319198  0.2019788038858213  0.1036421868569652
  0.1021128619907588  0.3862243174923518  0.6725435100193937
  0.6466631371405004  0.3483996551350978  0.9848754549272933
  0.0520591328673843  0.6657845485860846  0.6178516125681522
  0.9349500119255377  0.5063373377124423  0.0472656771185687
  0.7883922533801581  0.3936461946992089  0.9607078652516664
  0.5238659577205197  0.7073866126497476  0.2469254634531390
  0.2239432691962720  0.8475969089229647  0.5013250386759318
  0.2204777762898714  0.8575455488053222  0.9555326946261593
  0.3244530448915130  0.0661521145390668  0.6398996762581384
  0.8476005800372304  0.5284469632978835  0.8478216394056064
  0.1120908656041688  0.8485895238140497  0.2358818094594343
  0.1517589046316220  0.0776235005341174  0.3827039052900646
  0.0716999518602251  0.9380836153131303  0.4262386195921335
  0.0992231518183941  0.7258772337608422  0.0318744587244122
  0.2096272081851777  0.1073763732406515  0.3902734571806429
  0.5241550574530448  0.9547711757228203  0.9240217502946438
  0.0569850251100550  0.5341424262773432  0.7499940186131852
  0.0996239002881029  0.6760640553374034  0.9830554567799537
  0.7082625806510000  0.9747356817496156  0.9788612510439932
  0.0866217337161236  0.3444157336924477  0.9002807930457591
  0.3091964474465675  0.7595300088997010  0.8935289017134344
  0.4113126755369027  0.5415907749713039  0.9788855065450793
  0.8865207343513539  0.6318446092845714  0.3379041847718318
  0.6591241532812749  0.7005829295005088  0.8440973448362824
  0.1212429778617847  0.8848896495045235  0.0371271975646740
  0.2067746797061988  0.6617530989877377  0.5624100526687758
  0.1626211354940645  0.6709664431264316  0.6031753901899841
  0.2288288714164301  0.7905678501546702  0.7420325663658321
  0.1749008388655719  0.6362330686589236  0.7401398940860811
  0.5771944911224676  0.1560283318555079  0.2177918812720294
  0.8494996507609385  0.3140647336395535  0.6081184481848936
  0.3974913605585986  0.8270303805043290  0.0170282380890647
  0.7833461483384000  0.6530800003648466  0.7834894411622628
  0.2091689206523885  0.7694715733449106  0.1216709811946671
  0.1106893802333088  0.6756009984840111  0.8206889698155390
  0.7667571238198724  0.5660415369297396  0.7031650780473480
  0.0311384631250639  0.1367683495316617  0.6365286773922071
  0.2058947280379160  0.1994799530534153  0.5683027819609627
  0.8050420111204417  0.9062897849054768  0.3412061342654590
  0.8841592550043856  0.6440825473407839  0.5931242253477066
  0.4452776509878239  0.8984939601751081  0.0724035862446725
  0.5190292992571984  0.3184042229038893  0.6652571210828387
  0.2351765081238879  0.3836850137979922  0.1936600926216611
  0.4903034068072197  0.3922050688653576  0.5836628972695045
  0.3344101924499769  0.4037861227952388  0.8120078195250183
  0.6221133721211842  0.0994385675183113  0.3758380854593205
  0.7861038871475003  0.1423705737816961  0.3540987185206094
  0.6723087364162664  0.6564450830652039  0.8025062381629252
  0.9476974650330072  0.6728562443851245  0.8980028156498043
  0.0757763086241335  0.3844307387490707  0.2538234962993401
  0.4245820167577908  0.1101166289893585  0.6656471832741155
  0.7261878396447815  0.8115394818684198  0.7938293413206575
  0.9589721201816241  0.7653247483176061  0.9752622084743376
  0.9753769244207484  0.9960340337415321  0.3660160045500184
  0.7717318140078639  0.4610051537313655  0.0564143786197888
  0.7261853064546118  0.1257504714296985  0.0482639644604022
  0.8070534891621859  0.7491757786261215  0.8321964483553101
  0.9947500923798793  0.1373582610744097  0.1925658917769698
  0.3621181764419614  0.0599141075814975  0.2821066937726986
  0.1769813961649818  0.5557973954162008  0.8957498103266360
  0.8709960349668751  0.4694741389300690  0.8659995162050785
  0.6390508967962244  0.2516421495702360  0.4378221264527752
  0.2898783270576016  0.4145956723675168  0.2024077179788447
  0.4895050626139288  0.3244155379603484  0.1890592941330281
  0.8874625057181397  0.6827144429148938  0.8716200934646237
  0.2043330742556141  0.0785642503661932  0.5967307246848388
  0.2598936004802427  0.9682748936517219  0.6015688016367031
  0.5146023531421765  0.3795220531421186  0.8788822117243075
  0.7369579052159225  0.3163790125549453  0.6246860916302506
  0.2807486858735729  0.8623400490064300  0.5749838058376311
  0.2180590687109155  0.5713843709716827  0.7951957265124077
  0.9372650843455812  0.6174783284747104  0.3029144623308874
  0.8921510128745259  0.5165869665754890  0.6477583915991735
  0.8284420873880828  0.5538065220246674  0.5117493870952731
  0.1324231760008157  0.6196598493275001  0.8398295950225223
  0.3911543933206149  0.9812333878479660  0.8149213235485516
  0.7364127244313367  0.6748338051860714  0.4472676202282637
  0.5257733142580935  0.3660416648864926  0.9450349856732069
  0.9993218078148132  0.1424848914175929  0.4245402946105162
  0.8863612116843480  0.5382443576125008  0.5907694804628666
  0.1213000266781970  0.4960462692998154  0.6678913162710687
  0.8860582906068507  0.5656842330707573  0.5287665587394347
  0.7481111048752661  0.3152403167387269  0.4593550937733457
  0.0265992232833254  0.4306905868646734  0.3921862720478574
  0.8713181459490017  0.4478628539327624  0.3885011494722799
  0.7766108638760676  0.0758322995819189  0.7323675658661494
  0.0337385836627931  0.5626580907245391  0.6244986080780701
  0.4992989132579808  0.9981613913793573  0.3203199162721595
  0.8361050532070079  0.6627489778146474  0.3117728894651990
  0.3094836800868218  0.2754180512451044  0.6545690270733152
  0.9306602792059553  0.2456764732786129  0.6440649789833480
  0.8496854624087826  0.8141826234368332  0.3865855313312681
  0.2885782345599027  0.7047108401836815  0.9426148413601582
  1.0027209961210790  0.2242359205661925  0.7259088158943432
  0.7702934515651569  0.5094517221092311  0.3352742913139031
  0.8572940434327846  0.3247823974514437  0.2002274262506374
  0.8856590066758382  0.6305856384154624  0.1090542636470931
  0.4196466634951072  1.0075623008109789  0.6428733118326605
  0.0631277071612880  0.3532376610581597  0.6159422251214924
  0.4471276995174290  0.3689792068416374  0.6879345811214314
  0.2278382562330891  0.9219412134978945  0.5994718699445601
  0.0559844554303189  0.2145553242829306  0.2489309079361302
  0.4111688990805226  0.5036710904120900  0.8237278265182125
  0.5444789853194245  0.9557233575886179  0.1751696403128868
  0.8417501844373201  0.4773266208314352  0.5827847902070922
  0.5838297521537211  0.5244160543701423  0.9284292066081237
  0.1433247279368463  0.0202563824075743  0.9330390393490267
  0.1829814110082247  0.4873906856015194  0.6880330159998823
  0.7471910971878442  0.8756394894021049  0.3319144692334319
  0.0348276357068575  0.4897795164690227  0.1452243612010480
  0.4170557131960598  0.0235551172377428  0.8528424724746367
  0.3442750454121845  0.0199594270592593  0.5599684094257363
  0.5957281078294362  0.3555792434541724  0.3290667670263008
  0.5382203445179673  0.3231730495704568  0.8970628314176449
  0.8563058637134179  0.9292257857591969  0.6460131314577623
  0.3164311437906420  0.3321791298491941  0.9288880309242482
  0.5952225879166583  0.7525326152712501  0.6503840588782083
  0.3744143483878585  0.8182578683783643  0.3365391377950200
  0.1438754580739971  0.5384088020420081  0.4545473661391198
  0.7712352717674085  0.2428125076579428  0.7036508254763992
  0.3309128952313520  0.4343215217903595  0.9181874133855950
  0.6759706969206992  0.0703586644328605  0.8186601802673376
  0.1913164716051783  0.4931825978298089  0.3131415679390265
  0.8659590309395224  0.4019267732587719  0.3468129189973733
  0.2636930216070061  0.2208516518632306  0.0929687052065992
  0.7276782158281646  0.5986433466839157  0.0630764243476089
  0.9401594975320694  0.4490287623663642  1.0066097603346351
  0.8379255243479944  0.8140109829399519  0.7781170350592577
  0.4884330885123954  0.8750575808398311  0.5865401595013757
  0.6429158454901205  0.2936074355666169  0.2513158716554050
  0.4617452543615487  0.5857529745673734  0.3745298729922525
  0.6869954101473225  0.8156625640970385  0.2149237193783030
  0.0718782572149181  0.4602581406941702  0.6016175466661122
  0.8642958419485867  0.4210282958746497  0.5902322901531406
  0.5983450244668720  0.9516953963749548  0.3112695153928104
  0.9564805321214926  0.3710209872681036  0.7976647399382202
  0.8107484221481273  0.9502404049728238  0.3863257377032723
  0.9446251663750396  0.4850539440843208  0.5653119377057786
  0.9383229722128652  0.0794498848047787  0.3088406578497317
  0.7262928419184879  0.0748422060130747  0.7780385843064301
  0.4513333815183579  0.5226067382616517  0.7213576445242534
  0.8575538303932740  0.2393387395621021  0.5675042042844403
  0.7826520875825295  0.2290592814211942  0.7638450480138369
  0.9352000200825570  0.3976996601339844  0.6724550560652105
  0.9854881620455443  0.1148810500209164  0.7381521468368540
  0.1330079740585630  0.1772908857149525  0.5729114441494600
  0.3260944812100514  0.3265174258901158  0.4805022886299291
  0.1528741549562650  0.5913031644869143  0.9759414940893203
  0.8591296143014420  0.2989027380944024  0.6661257009135360
  0.3611703961598858  0.6343996543616996  0.3833101370271358
  0.9566759738248429  0.2810583294537038  0.4226540843559475
  0.3737246565173757  0.8513777781378465  0.2128707863804847
  0.2342190104111432  0.9289155715555492  0.1124756748631746
  0.8980303716784785  0.5345810343121715  0.8061740344334272
  0.1137334474388773  0.1192701547977788  0.9528411908861824
  0.7304025562637922  0.6307736532220455  0.3990689685447798
  0.9401595807570378  0.1135226797935800  0.4169357013839248
  0.3233056887268766  0.8506577626223790  0.3094236289612564
  0.4633620871731882  0.0804221866973535  0.5718404627502702
  0.6572990184722763  0.9857409122771096  0.5598951807780694
  0.0155549912008741  0.8927006900480071  0.4788770952721336
  0.8970604380520688  0.6244724542770211  0.6579687500468552
  0.7793235345888372  0.5856308585942190  0.4880314489549141
  0.6856857344944802  0.6904365527778201  0.4791354615871560
  0.5000472033522887  0.3765860196494283  0.6472272417928554
  0.8616775152845600  0.7251654871323455  0.6889603841277294
  0.6940327395539405  0.2786362697002278  0.2167789665735527
  0.2498554347296103  0.5708820438358859  0.3683864656258977
  0.1322102556230181  0.4139391478744858  0.2618871154808438
  0.8017843798307844  0.7777547576828092  0.6126259244986881
  0.0384033474002671  0.5242776474260430  0.4780669536894708
  0.9858391583116808  0.5541059055800571  0.2238794795523780
  0.4953454356809767  0.0904407433117819  0.7500663664964330
  0.2635703648870947  0.7408802297581988  0.3772644558275907
  0.2701978908413794  0.2579739881341986  0.7555035059051699
  0.8032477022191842  0.8746591305420310  0.4671210141111887
  0.4464434852451900  0.0134473441922472  0.3577214700699663
  0.3035638028517760  0.0322275111293851  0.2722028859368347
  0.3530374158117764  0.1093626684322249  0.4147539154722571
  0.6997066621095006  0.3257508394771714  0.8350835584457670
  0.4573493203371154  0.0758090909693703  0.0212971702305189
  0.9338930769265951  0.0670498101288206  0.3772307502987655
  0.1201229746222262  0.3405526858018066  0.6308607126082735
  0.3081636604572959  0.1727942968998995  0.4993123835782039
  1.0093563868302051  0.8814072132710422  0.0753760284653672
  0.2132279580692420  0.2011336195997136  0.2503202848506816
  0.0726085980167246  0.3877080967696942  0.9500146383629543
  0.3899679841229094  0.8653617045417897  0.0624807443489396
  0.9803391859523239  0.4668713264101958  0.8474847976242101
  0.1690129637903579  0.2759075275289335  0.2676780468993231
  0.9727253244694840  0.4464573828654260  0.6808921149098507
  0.8823631201677072  0.2700656008656535  0.7882124485117594
  1.0059175764723753  0.3767349465808351  0.7567288784244481
  0.8124450196444815  0.9025461992103713  0.8707507896123785
  0.6730198281765249  0.1750063493573568  0.5044660094694399
  0.6651882077185014  0.1050249248550306  0.9727329268531845
  0.1531107033514987  0.6950813547070760  0.2990458133913314
  0.3935601176328447  0.1725109064156030  0.5771385365189716
  0.7997615451698064  0.8903114615977308  0.1710151288669854
  0.8771514847002794  0.5243547834237642  0.3092768596818775
  0.6886368283716696  0.8006320788028296  0.2759444507889437
  0.5309640020407512  0.8629822690880389  0.0932948949747082
  0.6963425302370744  0.7802205913737215  0.9529303271876872
  0.3313949327076584  0.1813743811457942  0.5618542313594023
  0.5061763783027761  0.0786453711368424  0.8140404060148819
  0.2084748628871163  0.7096241328667672  0.6036123444872433
  0.8930192169652508  0.2353013847912790  1.0145671308737338
  0.6570548861772411  0.4103310639215821  0.6976359417358016
  0.3398478203115338  0.0184406373334100  0.3239834275697449
  0.7244293941989274  0.3908288234517662  0.7767992157352492
  0.7446801608944604  0.7835015597207132  0.4737354033334952
  0.3331172205278944  0.9559124789249963  0.3397471781520329
  0.2124915725149692  0.1839809657294030  0.3114017683937623
  0.1064651774077444  0.2006727400011789  0.2126212521970129
  0.9248149023318167  0.4295757270522505  0.1269693584773256
  0.8384062879203166  0.1412810960581472  0.2542885202590995
  0.2473461794297200  0.0319336504752398  0.8484004612721037
  0.2640700667580524  0.1695848460529451  0.2761283067518757
  0.0768418777688427  0.9828272690890038  0.4705051859665418
  0.3113969352448978  0.7109840616464599  0.1749241809505372
  0.8297002005648182  0.0639394685457005  0.1033716069745952
  0.2093189837928607  0.4361229283557725  0.4841341395949997
  0.5037880663356369  0.0278719851194362  0.4276189324874367
  0.2090147877933321  0.2602942931490057  0.0615332045434050
  0.0294759197237431  0.4283567384273267  0.1608502548819342
  0.5849326266715675  0.1457233442616999  0.7115290134828938
  0.4510221435729265  0.3873115137991498  0.0262792795573390
  0.9061446442575730  0.3076950794117262  0.1680446013423917
  0.9638624687802483  0.3381631009345929  0.1759819937837314
  0.9993212830843134  0.5563295159293618  0.9232108216952017
  0.8202804343039943  0.8906912733795228  0.9313926855477991
  0.2237205873990636  0.4073196736452097  0.8280779485946065
  0.9981988753425522  0.7726874116668666  0.0449065443373164
  0.0659829288490998  0.3063408130339674  0.3372251320905024
  0.3047754476916376  0.0799781360628491  0.0848880696741070
  0.2142017098391732  0.8185565773915489  0.1654027286059112
  0.9574015483586948  0.2947580863247414  0.3620200833327075
  0.7013595325338173  0.9053001503705996  0.5383577459554996
  0.2037939345933258  0.6478202918392443  0.3875613193518042
  0.1378399748538763  0.4929907706199980  0.4093786707175376
  0.4746893970618363  0.1711095234672443  0.3486987485564638
  0.9331522881919261  0.5646625241858553  0.9018556774348310
  0.9779712111969323  0.4631374874391009  0.3648034033226939
  0.0812479368889401  0.4616074553501043  0.3983413919351755
  0.4476607879394298  0.4319569446980767  0.3066948647982073
  0.7115290980682571  0.2821085335936988  0.7902921701336270
  0.1458428054026677  0.0504799057669822  0.2757101125653237
  0.8312376555810737  0.5858579049101056  0.1583260519322001