Cr Ni
 1.0000000000000000
    39.4861997199535253    0.0000000000000000    0.0000000000000000
     0.0000000000000000   39.4861997199535253    0.0000000000000000
     0.0000000000000000    0.0000000000000000   39.4861997199535253
 Cr  Ni 
 1596 3725
Direct
  0.4605086806455079  0.7153489531610859  0.2677280229337775
  0.3250141528538483  0.0421840981639992  0.6911157890473714
  0.1546300284034498  0.1137486066466868  0.8968625564077344
  0.5461318620305654  0.4756642998747456  0.5806973782962619
  0.7648925300170734  0.0954342054243403  0.0015350295223842
  0.6978999348781316  0.1984367405536563  0.8968824969332958
  0.8961878294740429  0.8561537080274031  0.5520767174175736
  0.4730516211162815  0.3664588073231444  0.4550145174666366
  0.5553677617335315  0.1861416145480163  0.6859953048020339
  0.5702137707532269  0.2355333888077168  0.0629442342492039
  0.6487427433132712  0.4461260157136038  0.9541775324951711
  0.3433067122436195  0.6006963945639283  0.8053429299784317
  0.5628812064019003  0.4297786126872292  0.5482702770028225
  0.7648479442778354  0.1084652513497925  0.9407318347492868
  0.7752719294682047  0.6946773829875021  0.2089691260934169
  0.9638600640709323  1.0068720333424930  0.5189951407116917
  0.0316047214149519  0.9152346580102849  0.5718740441909563
  0.4818424373968576  0.9760968824695978  0.7201998429896777
  0.6901961985427034  0.3905829502841011  0.3906198822967978
  0.0858115352616976  0.1294033353564047  0.5352190074291647
  0.2362008466221472  0.0082008975921248  0.1886550530687825
  0.4594721082244789  0.4983527097661090  0.5015699117998689
  0.4173736348898532  0.5640407319831765  0.6904582235826070
  0.8718861643181993  0.0837342558968238  0.1014053778619144
  0.8199048630774712  0.8320428031417785  0.8721368036843050
  0.8924463070135703  0.9266955621242688  0.8533987715996586
  0.4708710881750002  0.2979096582060567  0.2391344282559839
  0.5673482928490321  0.0154109929391307  0.7822586340839486
  0.6986462184579013  0.6819530906760817  0.6341035884790576
  0.4524003003821103  0.9163894798564821  0.7823221708527799
  0.4946621583683112  0.4522610117691778  0.0747841785847347
  0.6055600616302319  0.5424872905982167  0.4285384733204511
  0.5706160743060460  0.5882853893277284  0.5733360620193387
  0.6370842258001181  0.1583949467871170  0.8301497874733037
  0.3343243396536605  0.8636068944654930  0.5832044612316080
  0.2056054117646107  0.8235969983383368  0.3221363660404519
  0.3129989907954570  0.7239036201074133  0.4989473573988418
  0.7909485922104934  0.7114641769201087  0.5552655372308964
  0.2934393034111098  0.6075196830328988  0.3034228706463120
  0.4870482235552406  0.3408850307709553  0.0445705799189994
  0.6024516232596985  0.7116295125945618  0.9819434640321346
  0.2533884913559362  0.1883223517249798  0.3725612526379904
  0.3478388445282780  0.0674611936492693  0.2090114321573104
  0.7228089536211035  0.6948761054957415  0.3076155267634951
  0.3227561354224561  0.8958541062098830  0.5203022757638616
  0.4657137649087387  0.5855687938015099  0.8522591704119947
  0.5377796831980656  0.9745059145900147  0.5054418756352981
  0.2046454661053671  0.0544914572662541  0.6486549523284237
  0.5032128023769205  0.7574257622940629  0.7755271297172420
  0.4367344266175047  0.9458293151523697  0.0476068838942245
  0.2813644841963388  0.4191479644111087  0.1294530692930158
  0.5273906057251047  0.3385655918018110  0.4803803756351884
  0.3022343894876668  0.4473581932063859  0.7837352217802562
  0.5665261499300578  0.1784465419451990  0.3124113764124350
  0.8207548446249046  0.1044223853280657  0.3699560206199758
  0.6626018444958843  0.6414952266429892  0.7952191301501902
  0.9782231497769205  0.6947618837863614  0.9280576341689036
  0.0713239513381624  0.4353460410047660  0.2231456511930048
  0.4158137590848609  0.0986978379662352  0.6524712576558438
  0.6643923550384538  0.7938300167410470  0.8195045753488815
  0.9580498482560698  0.7640824934559570  0.9604886517130097
  0.8612216030531601  0.7150149831321717  0.9012770414240485
  0.8171801238384349  0.4266207518867017  0.0168388517840922
  0.7209984079437074  0.1600469250977247  0.0807793731466656
  0.8465012360761847  0.7408839723983748  0.7801827762947693
  0.7192632351845580  0.5008408198786113  0.6927783940851212
  0.9772381133236886  0.0659947282124054  0.1955271843904653
  0.3982460122303600  0.6102944572939319  0.5029356529886990
  0.4458264717588697  0.5438436902744564  0.2553397103265778
  0.8516846589449543 -0.0046357739050183  0.7660570995606459
  0.4482970131546464  0.0608286487396461  0.8451506263808237
  0.5095346093823973  0.3063993313650414  0.6578652545890041
  0.5553726185052122  0.5634046725352946  0.4587336961373850
  0.4865703951034027  0.4818134171474789  0.5636153578464733
  0.7866743085483169  0.8332467177199233  0.3463491955266972
  0.7047469632995036  0.6647170280232986  0.6929235482256213
  0.6265744194955777  0.7749272671684713  0.4215140553499791
  0.6718693323878301  0.6262049214904933  0.8542870650646390
  0.8155850287226071  0.9609885708564917  0.6693966021712894
  0.6157834796444598  0.2136444183942550  0.8138990031049961
 -0.0375211897773660  0.8290985929384216  0.9612457032306480
  0.6059881944517480  0.0639516209260707  0.7846313009894257
  0.5225210626014559  0.5780874995779530  0.8743224899958183
  0.6358276475745546  0.0496715989789744  0.9197115703222057
  0.3686460050068102  0.5593614770144449  0.7310954259024349
  0.8708568723100298  0.0541186649742533  0.2265347639414923
  0.3785688859459369 -0.0091566250002251  0.2750689242686704
  0.3116208719952550  0.0554167680647437  0.6296755371315059
  0.8358226479582775  0.5161843736309277  0.8372761594604317
  0.1413993482028813  0.7277201187895720  0.1007613310302478
  0.5174665705112362  0.8056571543977706  0.2633292043239074
  0.8759884056617473  0.6225319603302848  0.3234354109919650
  0.3955784882524086  0.5194905769165910  0.9720125591069813
  0.1358202333397726  0.0687751441955959  0.3722560325171637
  0.9069618010576872  0.8804566348207803  0.8112587676759067
  0.1867582979922301  0.1961771563429973  0.5546329694137242
  0.7963982382263549  0.5768866525793216  0.5916435855455061
  0.8716432801667473  0.2587690975454275  0.7760052976068608
  0.8007588293770863  0.8859284820684640  0.8573276189070206
  0.6651196761563033  0.1609015970040787  0.9505619409293143
  0.4855600564062127  0.9727522326267956  0.3698648861222616
  0.2350572275825216  0.1824978315093498  0.7989441642442560
  0.9446967683682952  0.3907960795418102  0.8917826942686666
  0.3989437195747841  0.6073318069148301  0.3358915732154184
  0.6064983186872117  0.5739148319216395  0.3046896663525425
  0.7996750457034019  0.3353334293299477  0.9079117871243803
  0.2955509447654309  0.6382650228702442  0.1799681651111179
  0.1002252640860193  0.9757239861550265  0.8159020237469465
  0.3659614549933456  0.4141217822672082  0.4590794944186569
  0.4555879597690531  0.6538105073205552  0.2834005314615501
  0.6282463314684830  0.5806996688701170  0.5947554400886903
  0.3080212136311354  0.1575235162380837  0.3947379582269112
  0.8006871843341323  0.4326913322971242  0.7304011450894129
  0.3390103741604237  0.3112697315208438  0.6476364903456127
  0.9730822424336391  0.0086303349543903  0.6399357608871881
  0.6426332050367798  0.2443880929704688  0.6468015810645608
  0.8383329892964249  0.2527011081703843  0.2049128921517295
  0.7331262745066037  0.2706468591192617  0.3383626820457436
  0.3467311456790671  0.2005959626441144  0.9453774960155211
  0.5100463663893429  0.4900550630338594  0.7927121874952635
  0.7872761246351757  0.3272158334270342  0.7377750894600472
  0.8584288822606232  0.8801285048387459  0.8806435957777661
  0.7098416859411825  0.5430004306819165  0.2323809690472208
  0.4375644358715788  0.0721303942462374  0.7815342204523962
  0.3454189011486883  0.0171476954339745  0.8178023555361417
  0.3829148149080436  0.2324156732508186  0.7869431984478510
  0.6392196175858600  0.9410036681708551  0.4365292037355066
  0.3953055681210141  0.5789009789824034  0.4566733707073186
  0.6528957267521907  0.9682006196516976  0.7265164022957350
  0.8380860966675822  0.7062118818259788  0.5162071938097311
  0.4639138571545743  0.1971597461074138  0.4443131001648958
  0.5701697137146569  0.7452181025888923  0.4097575455804834
  0.8249373271847446  0.6370312838443124  0.3589965046489836
  0.8852471543881646  0.4003659828123162  0.8698583283012393
  0.4263010641570197  0.3671253889431186  0.6150573573715455
  0.4721691536334531  0.8519936243294688  0.4072234516949024
  0.9317014717897445  0.8221266045639086  0.8265459612253461
  0.9488265753579670  0.3732164398962182  0.9540799122987426
  0.0299099089188720  0.6976449417978298  0.8906724744638285
  0.2575282264335183  0.2775834708399714  0.8491424666353766
  0.4437016663153959  0.2232539779809905  0.8099224861281850
  0.7843473489939091  0.5951377828348108  0.7319494795337074
  0.1732734565127802  0.1580099613795868  0.6704783808647403
  0.6395971774681457  0.0384825884156165  0.6318060784629541
  0.5071602683070361  0.6230838159778703  0.9110337379232899
  0.9483207717902048  0.3314318498124447  0.3936666123026679
  0.7945976267385885  0.3439980157103215  0.1615919966275794
  0.3651885146859616  0.6425781665360782  0.5890844965246204
  0.5064217742348431  0.6047545546321770  0.3738993578444741
  0.9416129437294568  0.6295251609186422  0.7774862106121491
  0.9347646146605461  0.9322650890102454  0.7098859253628251
  0.8017218390615620  0.5653676808843517  0.8545744995778731
  0.2469938481832407  0.1396080084057472  0.7567016249102506
  0.7100292090934702  0.4896971151489128  0.5297163529838721
  0.9331245163943013  0.9706356703674389  0.8800935493168429
  0.0867269985996581  0.0639323425508359  0.6042712072650552
  0.5706750981675335  0.5838793997994115  0.8331469900187232
  0.6816193108563837  0.5435106495619587  0.5077605628305475
  0.7061935160809739  0.0753274302762575  0.7036549762715859
  0.8526213684340839  0.5664427930652119  0.6148081891142040
  0.3697387675848833  0.8977156415498557  0.4178221415464951
  0.5951296105448080  0.4514435538292220  0.3384103900400465
  0.3644515568369034  0.8403181186850536  0.4299956282294530
  0.5141594958371430  0.7453210459216639  0.2780631071907163
  0.8383722140445685  0.7555229284271918  0.7204336239081730
  0.5693603421893291  0.7582317751803624  0.3498664137556530
  0.9062300953655827  0.5801230492425886  0.7724957954629417
  0.9580171396705790  0.7337897469624799  0.7315781481442133
  0.2749844416199197  0.1718589701712440  0.5855888660560057
  0.4892533525922373  0.8687336271681377  1.0306154488173338
  0.8088013269955733  0.4682670899119301  0.3484222846883852
  0.3341816100833944  0.1646336450458618  0.6036262388666770
  0.6551622128421422  0.0966744033511678  0.9607034260198014
  0.4555485191277416  0.6691759852755373  0.2246681039741210
  0.6813272762225498  0.7998809132614687  0.4348753179883792
  0.9670386878184382  0.4817018955294149  0.2285275323631499
  0.8955042992382389  0.3384047071221941  0.4931900697129474
  0.9701286770630448  0.4871594492936768  0.4579647075178787
  0.1649200286394922  0.0706231520670093  0.8576301948417160
  0.8971190905485217  0.5957679114689771  0.7124342117311506
  0.6097425445152455  0.6171354265265403  0.3466445638964966
  0.7360356683735041  0.1661223358691951  0.7478930254158810
  0.6050439648037902  0.5589826378704669  0.3655384080641180
  0.6858484115733107  0.6543400665157741  0.5285014797504188
  0.4406276039950684  0.4840490045587659  0.2748197063143780
  0.4221292257322232  0.5339571041798881  0.5891210322794551
  0.7523000619304412  0.5596216309486970  0.8984186819503404
  0.1701224289325566  0.9374221438499939  0.1394232929962277
  0.3172926674714468  0.1172822128060790  0.8441613341915776
  0.4213287150520237  0.7817455403375804  0.5235430947298177
  0.5566802658290534  0.5897513476344238  0.3375637648973523
  0.7910452924204914  0.6661736369687352  0.5116405113079580
  0.6931093368794462  0.3777037750203130  0.5361180003773777
  0.5185382998327241  0.7719507130838159  0.3860848522496715
  0.4221297780380556  0.8216465995786234  0.7340401161034221
  0.7390525063032847  0.1998557000871546  0.8562147159365352
  0.7783684987298960  0.4907943918324739  0.7140306755062219
  0.6865541130864526  0.3431437867094788  0.1254008539095773
  0.2568958361692865  0.2539136787527063  0.1241306130597296
  0.3316231325636839  0.7027131980190147  0.5589885388905845
  0.9252943397097750  0.6091467751193183  0.2901957855523846
  0.2808953810427428  0.3253410266471524  0.0361641450551807
  0.9129402018828509  0.4173473319855624  0.1158197715570463
  0.2181984934491218  0.7794513562830210  0.7292606145605942
  0.1951725138461407  0.5709477506294153  0.7242839129037876
  0.9209496718483784  0.5344234692310350  0.3682091246959839
  0.1419131910743964  0.6215965497102260  0.5396487081293886
  0.9614823698376180  0.9454010328680976 -0.0020864894706643
  0.1206280421200822  0.4692604191176988  0.7145232046527651
  0.9611624426651052  0.4201806155102185  0.2463290096504242
  0.5406878814645465  0.4186771478047113  0.0995945212088191
  0.8420576871256652  0.3281930217177935  0.1273219446921720
  0.8681119473045876  0.4595377835665079  0.0181500045793524
  0.8192947560652002  0.5859973117724173  0.0844839890669292
  0.9711580623387038  0.5418590458550866  0.2091096411099181
  0.0250388007751610  0.3993793795212862  0.5778038823349188
  0.1389350694414199  0.1578257017115284 -0.0026627726410507
  0.3372573738982275  0.7327808755230759  0.6685368039231812
  0.8867856959994702  0.2373806437287400  0.1721034700073467
  0.3304705681896054  0.9289285386343623  0.7383285111882262
  0.3555110332248611  0.9048902440001647  0.8614882506862522
  0.9599991049741118  0.4681785543794419  0.7729412105645624
  0.2221592698978131  0.6152221935356159  0.7572671894105145
  0.1696441964227804  0.6417366505497886  0.9048397988922405
  0.2239105625018496  0.7980090427607683  0.8939999555280580
  0.0851995711014332  0.5967790106837313  0.9260245784268518
  0.6751521828580960  0.2569908360202233  0.0382915732227583
  0.1252169240911157  0.6362703112224509  0.9399255344988119
  0.3182255120296355  0.3451086158438995  0.3435042504162459
  0.3905475624367961  0.4969728072487348  0.0844610319441672
  0.5931292862444347  0.9351394025189886  0.0544904168019542
  0.9826742041124175  0.1281866154845104  0.1817749180029916
  0.4310488533814067  0.8043393577538815  0.9636587019372782
  0.1319747014268954  0.5924752209802071  0.8941305276000754
  0.9255220897315937  0.5933821436941680  0.3497140778021341
  0.1056315024668958  0.5486549424315118  0.8607699424453477
  0.0784073133323617  0.4788392478339320  0.0405418734314948
  0.1425617364003506  0.6805211699573305  0.7076372764905927
  0.7747511372043411  0.1886015627910905  0.0911214962150325
  0.1347828044162249  0.4251258672224917  0.6702194356274443
  0.6305127749267232  0.3481951131007532  0.9113255696420286
  0.0606783111046619  0.5961608151844785  0.6220730637532852
  0.9206608253678040  0.4946744518259509  0.0361899335717981
  0.0649989912251035 -0.0462911717792094  0.2788698022751854
  0.5082853026929899  0.6992899606516114  0.2351983077646594
  0.2680918438540473  0.8674091646579217  0.5012354102578161
  0.6175378630558795  0.7467557243534023  0.0840102688488151
  0.5267450314474200  0.3122390761587049  0.8850810997007283
  0.8317971245736758  0.9064714146414666  0.6272269178281578
  0.0509446960222433  0.8491809174097785  0.2575378637394234
  0.7238141162210397  0.1769569264000078  0.6896859334512232
 -0.0017223928964124  0.8499630988252884  0.3567841281529284
  0.9653475343628714  0.5725995671075826  0.7940550637097952
  0.2217946186348488 -0.0059055532664218  0.3385541707741967
  0.4843311725594458  0.8479295984770792  0.8630388824713602
  0.0488591125214219  0.5178932120157368  0.7389511746968547
  0.0333175606904514  0.6791795609177894  0.0166642974051520
  0.7531894029108427  0.9888108348839644  0.9766752826068932
  0.0102981625209024  0.4722169739858595  0.7369087374884344
  0.2968998659364852  0.7476657770506906  0.8822339997262094
  0.1292463209059306  0.5442911199444860  0.3793388856765382
  0.3131682383459629  0.8248833604015599  0.3608114136490854
  0.5180094058606388  0.8197548538866425  0.2049992164460942
  0.1095936361937404  0.8695857056765697  0.0231443925677295
  0.1940072025967103  0.6489802087619113  0.5559537197908551
  0.1089779808381781  0.6003136717310198  0.5850277112927462
  0.2083310526977314  0.5244551162258897  0.6825542633583208
  0.1646339096572966  0.6242842660327254  0.7306920900738211
  0.5637292667208560  0.1448556025442002  0.2065049074973356
  0.1116674096905357  0.6448668433074367  0.8771393476766138
  0.3797446099137417  0.8283433587444999  0.9444136691410637
  0.5667569424824089  0.7335044234473019  0.6367436591862660
  0.3052573843250381  0.3161985441958886  0.9185196612888600
  0.4138601976664154  0.3903936867555652  0.4873404521875072
  0.5800314089180113  0.4700312234946655  0.8760330149953141
  0.2602342327962782  0.4305968731176795  0.8852252856923989
  0.6855677783148524  0.0019549489865914  0.8289277876995214
  0.8672442928921338  0.6241041631314809  0.5904757147807158
  0.9070894723514050  0.4241147266369124  0.3430404112510632
  0.6384502579208928  0.9607452243307174  0.6071842722160031
  0.7136800841634383  0.5877222212468013  0.0492226095447391
  0.8617765735115419  0.5588400466142851  0.8763533869088961
  0.8686368900591045  0.6840190248138748  0.7990009391670631
  0.4765273573095453  0.8189240325978530  0.5271010889720202
  0.5842290839727904  0.3593491542965796  0.2547540661314368
  0.4426098349839230  0.4987816735339940  0.2136136479041733
  0.6757071733377531  0.8041459804297603  0.2026340571362727
  0.6578390296014893  0.2100608908383837  0.5416055094295091
  0.7366311321505623  0.8639141175382743  0.3206041886742761
  0.7886826069535433  0.3359549124438758  0.5110293710159685
  0.6186926878185723  0.1795196126225286  0.4449016494331267
  0.3424903133838905  0.9170043020666044  0.8005635909912832
  0.3987490328196274  0.7895678724456036  0.9033670186906196
  0.8753981529083180  0.6709328217440993  0.8601154575837017
  0.1956105340809126  0.0721830682163159  0.5863639495521342
  0.2759822285039195  0.8027180274560451  0.8590513968904159
  0.7880411775735858  0.2951249323317581  0.6326358658148844
  0.5817999334317057  0.3432654550052229  0.3167645910241840
  0.1656653312469169  0.5409726084867384  0.8822598342214021
  0.4217187493203369  0.9842592015311644  0.6967859728227886
  0.2105935293796890  0.9080153832312297  0.5864424103290445
 -0.0073600409522541  0.2224771464968408  0.2715730666089040
  0.4213695738900288  0.4323259342080901  0.8304982590538137
  0.5796626600105376  0.8959017235555160  0.2549170134341078
  0.8503470514395680  0.4121000803138806  0.5735425592545520
  0.5212785058450090  0.4778589742320076  0.8533323226155238
  0.1170738863922484  0.0661924089421571  0.8970631610620907
  0.7629983559705308  0.0658709899585936  0.7251436438593234
  0.1598422798127526  0.5190259594434193  0.7192457209649441
  0.9500752967620093  0.3729528980443738  0.4995617618346249
  0.8123940770987165  0.3622305800323253  0.5748931168055359
  0.5864510488734140  0.9543800639055864  0.2355604748037722
  0.7981786044017154  0.9404460962644151  0.3732113270185197
 -0.0016641331980530  0.4524991508156596  0.5698635755287236
  0.9247315250523638  0.0708409411090890  0.2961821572184513
  0.7169066129804119  0.0637283981809715  0.7638703611801659
  0.4403473545758378  0.5095887114467231  0.7085888303483621
  0.8202730735514923  0.1847364004544849  0.6061099947974778
  0.6554511196136760  0.5439920153568049  0.3307893076013127
  0.9243103640892167  0.3860609270350813  0.6605290302482599
  0.5325126063032420  0.5635686101523246  0.9391780773668814
  0.3852721182677668  0.3827979937562772  0.8264446718799335
  0.1218418088284476  0.1646587683533670  0.4997260723286926
  0.2074376831588705  0.2968817759019843  0.4983481817061622
  0.3287727544560519  0.3569539935796284  0.0507474759229315
  0.1394729878015741  0.5821443733556027  0.9588626998582753
  0.8994973451065585  0.2920958985120993  0.6154439662140336
  0.8513602027682038  0.3535871458302853  0.5299255791281194
  0.9428390817007760  0.3240061570889257  0.4562934047208416
  0.3605613123534251  0.8394361182313057  0.2031559500406188
  0.2784708453350497  0.9484660111470056  0.1089066981337991
  0.9367334770171740  0.5272466713695082  0.7582644657859133
  0.1056987782527111  0.1078974333939018  0.9393871776544495
  0.7727151691959342  0.6655284719457221  0.3339515410591165
  0.9749072509034719  0.0782158882643020  0.4343728040310052
  0.9089023099085553  0.3079943466085305  0.7785909498456234
  0.3653262607182748  0.8832761856811788  0.2470405762826361
  0.5632839403080269  0.1580917257471861  0.1449716580464132
  0.1403863206600321  0.6692532332581901  0.3498749681034375
  0.0813700045092664  0.5743011965478899  0.3528520897135633
  0.1012487324222710  0.8355468972572776  0.2229077276445497
  0.4968365483012742  0.3483980815151865  0.7004948433378012
  0.3600637515914716  0.2575926601539378  0.6641622428540278
  0.0889947862821148  0.6849681528273036  0.3852320705583961
  0.6433177102114137 -0.0313082032221499  0.5421513290406559
  0.0946752600436371  0.4271195746816964  0.9444776382162617
  0.8747845112487358  0.2435541329341397  0.9442596575013497
  0.7780807972779472  0.2097826093657953  0.4933052222955496
  0.0401661303795040  0.6982965520908785  0.4207080418621762
  0.8760919251931907  0.5068319241835633  0.6353770036275267
  0.1740231483610153  0.6109129681792967  0.7915208372933715
  0.3801108588066647  0.9664055805402810  0.8046034001998706
  0.6736393940013294  0.6922336279761279  0.4072938347875436
  0.5154612551011067  0.3550241350794002  0.9346674112534776
  0.9481160899619790  0.2999361031485387  0.2872140352323889
  0.8655832669509720  0.5215794884921188  0.5767575820793752
  0.0605456165511040  0.4755346414165015  0.6987357830903380
  0.8703631755838441  0.5243230962860278  0.5215080442965003
  0.0140370974128050  0.4225065705684647  0.3778958989674440
  0.8568454698527321  0.4396304761168963  0.3746746340053429
  0.0257531443811213  0.5469933481634213  0.6184328537738234
  0.4844155436776327  0.9892709746374294  0.3103267372160481
  0.7678768367671404  0.6218396447831667  0.2886937147038662
  0.2619619382619382  0.2139295634306836  0.6352666459977380
  0.8492715320367689  0.1272085348284228  0.6223035947799822
  0.8940103013692769  0.8334639152582569  0.3835422127798382
  0.3452831314196203  0.6632226789311766  0.9632802466306809
  0.9799502880604014  0.2217387437410945  0.6489195940102611
  0.7579878891493915  0.4973999004431794  0.3213619316191569
  0.8429191548642008  0.3134490903298118  0.1874948997213972
  0.9600506501679023  0.3874346332075729  0.1420970353333189
  0.8195108652641910  0.5423545342677667  0.5011228418379342
  0.3863835546245589  0.9437961492510722  0.1434108477608499
  0.4867373470509698  0.3613672783277939  0.6377981293234681
  0.3569497674806902  0.8108137955055836  0.0973972487821921
  0.6801541268066357  0.2665483045834529  0.2054799360181466
  0.1186691559181146  0.4057518696886013  0.2508622194234238
  0.0174221362444344  0.5613720709217311  0.5592687225581395
  0.3551016590634491  0.1362550354879329  0.7374136709915901
  0.2957458406837021  0.1436575887729541  0.7173622547956841
  0.4331333309609269  0.0023573269030677  0.3429934683087630
  0.3427932525210034  0.0956718641048028  0.3932266127221479
  0.4461671771899390  0.0643582075225031  0.0140489914657711
  0.2893211560109717  0.0883960695721447  0.4981446346514986
  0.0397572672291969  0.4310447366052956  0.9214161181266937
  0.9334357859984563  0.4045204929352143  0.8317838096131316
  0.9339185017439158  0.3714441332897545  0.7217156832612240
  0.9571797808558218  0.3137049601087866  0.7398365229469015
  0.6575467129917749  0.1633845398893630  0.4921564952474605
  0.0901699224660495  0.6991981570251675  0.3220486721184269
  0.6254653112917594  0.8349399679255367  0.1740297825831838
  0.6767650720642394  0.7891629875207555  0.2642248614134231
  0.7070562889270535  0.7147225067457755  0.9606319825665284
  0.3099709013525393  0.2205381257037803  0.5967181000861046
  0.8792051917416652  0.2234984340561815  0.0021273034891861
  0.1957840752457576  0.1301049310304411  0.2556413199292457
  0.1539829194100735  0.2679054769862474  0.2567795481366592
  0.4472279811882892  0.0716815764252809  0.5546910994644334
  0.1017560297675407  0.6573285773818883  0.5726211606472964
  0.8756223757139407  0.9506393554123406  0.7233560543252585
  0.9114780327480521  0.0002144474675526  0.3861662336447263
  0.8839515149818973  0.6112120842410200  0.6502744587048751
  0.7864414283415755  0.5928894705614502  0.5294932586311910
  0.9639048645440691  0.4348244297652851  0.1852385156936491
  0.6762134679832300  0.6731841221367783  0.4694698162581179
  0.6186296278407454  0.5906454045499245  0.0137110104131958
  0.8625948662798917  0.6693741291597225  0.6317984824972114
  0.9812009316736326  0.2886736365615083  0.8592172070894060
  0.3700931607390212  0.8843756148163610  0.4787298758519415
  0.9187964168509800  0.2636253832975569  0.7362240512014840
  0.6798355358589744  0.7421579297084602  0.6141895972761280
  0.6541210500937877  0.0801224266842889  0.5693765464944249
  0.9311020857970906  0.6818838381590858  0.2113269452063877
  0.6712526317888169  0.9119069526903710  0.7431511746341778
  0.3022641361146324  0.7294544635387412  0.2695301348379684
  0.1253792823614638  0.9691523281231902  0.5410452101189084
  0.7910114100882532  0.8258712678456840  0.5813694012418685
  0.4266840097255682  0.1482938352513379  0.9404374997161870
  0.2718251529687478  0.9792345639733426  0.3025165693113495
  0.1575027862915535  0.4462091321635697  0.5067571953128429
  0.7751415172024213  0.3701630365814786  0.7810346605674835
  0.3120394200009438  0.8545221598439522  0.2384759544119966
  0.0765554496133328  0.0132787045806270  0.0040502826465640
  0.2787284352154433  0.0688595700079235  0.8419214760623813
  0.5213422868513616  0.2925329779856978  0.7162350376401571
  0.4638405102184777  0.7604106930549152  0.3148959342616169
  0.1726028596369304  0.4349115167215829  0.2583618150428750
  0.7500577900204626  0.9704721685822523  0.6427610399731516
  0.9657221595819808  0.1795196042376486  0.8753460768797444
  0.4739916100334811  0.8362792293350472  0.4673568160400548
  0.5167803109668878  0.3237593992651861  0.8256849658878676
  0.1769431810059512  0.0113425537661542  0.0518804562771608
  0.0755422668689646  0.5311988309534569  0.3112280396765575
  0.7079162021090615  0.4768914588536488  0.4773714155773087
  0.8887324195609425  0.0801340059979826  0.8734305188874394
  0.7280939330664553  0.4317616477094303  0.5476015805780693
  0.3520639591903106  0.1113094864391460  0.2541648641721374
  0.2287684231512910  0.9642871589206922  0.1456998728019041
  0.3518854476015761  0.1290109637304242  0.1926694694905406
  0.2318098676297451  0.0839550812346377  0.4331555890923052
  0.3531698073038374  0.0963299114081266  0.3170183209991121
  0.1310283732781779  0.5570127857123145  0.0908911725674923
  0.3962049145266973  0.0350590792946239  0.2371814329040336
  0.6977218894993767  0.4208183954920678  0.2686157517498557
  0.0839461092927474  0.6333590071839649  0.1066880450725864
  0.8141972124423409  0.0811909831375772  0.5015595391455170
  0.2459845567978585  0.1304710498894530  0.1553049683045866
  0.9693783245004867  0.4955654467922856  0.1685294074286253
  0.0628859032125280  0.9741694768314122  0.4540806097912792
  0.3933972695401888  0.0751200733081733  0.3584557335722843
  0.9648077160164316  0.4527222384271257  0.3511594494653981
  0.0770036684394419  0.5163986864807142  0.3694623335670570
  0.4332820105684743  0.4212193330205604  0.2936468183108018
  0.7009421102161956  0.2708916190770400  0.7766045724881868
  0.1330330115030022  0.0397011086985180  0.2651595252242238
  0.8180537134161244  0.5724699655524816  0.1447245287884220
  0.9031676104079381  0.3705254471866041  0.0798661615062734
  0.0320987826567503  0.5066050857876833  0.0148089769691979
  0.0664723455332153  0.9675012832432099  0.2166995786145183
  0.7896180643883237  0.8634661930323785  0.2207017693765041
  0.9540762049386454  0.3601892827322690  0.2680027356131023
  0.2130709038859718  0.2060648768600203  0.6733039704461927
  0.5768073945298411  0.7392672000605366  0.8578822029646007
  0.1382154825607270  0.1315884460271353  0.1206939405743058
  0.0195662827851260  0.9784348454670887  0.0058594736453480
  0.2001268126517028  0.8064830723222469  0.1536576499939638
  0.6155573551743879  0.7873632314590663  0.8593004498508607
  0.7341649248597234  0.7713691237685291  0.4610109945941187
 -0.0151849620107750  0.7456696433708659  0.0929127500390993
  0.3778893857284639  0.9749292479177954  0.3340485701520485
  0.2005558791735698  0.1757338589654486  0.3006797324105706
  0.9204849340688709  0.4489017042922431  0.8742898401589667
  0.1602118249966481  0.8847720520944250  0.4045855780182522
  0.8175181548836893  0.0534314158344377  0.0926218275538401
  0.1901707294629806  0.6376490828468119  0.3765975476986759
  0.2047267895732285  0.4325571965720644  0.4685308236673765
  0.4914174747436824  0.0030637851542895  0.4778399685132343
  0.2560195160350364  0.2719911038929309  0.0658405485522075
  0.0768132771312224  0.4968882205604580  0.2027674445396134
  0.4943408660692175  0.0518989093557832  0.5805476617455415
  0.4752026123159304  0.3455084493315789  0.9797952955298310
  0.8911763330375948  0.2958881894479328  0.1556562377804136
  0.9498187612350816  0.3272556058322260  0.1656867160674415
  0.9798989394585167  0.5465842715751422  0.9173824969061273
  0.7536620357861933  0.8681506129986367  0.9645043735174798
  0.2362437416164384  0.3330584960796336  0.8351013287452116
  0.6783701677864403  0.2394918578143487  0.3295107274434596