Cr Ni
 1.0000000000000000
    39.4861997199535253    0.0000000000000000    0.0000000000000000
     0.0000000000000000   39.4861997199535253    0.0000000000000000
     0.0000000000000000    0.0000000000000000   39.4861997199535253
 Cr  Ni 
 1596 3725
Direct
  0.4607320791647180  0.7166821201812683  0.2666748691489755
  0.6862070826292240  0.8804795170622041  0.3558723126828834
  0.2456578451791170  0.4784187256898271  0.9267512641282567
  0.8918708849126320  0.7736555474958036  0.3992398601763092
  0.1964723331683639  0.6110699623921876  0.5051284281332175
  0.6987787133937053  0.9819316306636137  0.1391741172077586
  0.6724517785560533  0.1624483566019682  0.1806049061634087
  0.1349041088300164  0.0876752154600167  0.0746065563842064
  0.1248811390579532  0.3844993217132662  0.0823261552621827
  0.2985463710845170  0.6707365274679274  0.0563677345506241
  0.4596441004483535  0.4997261328936877  0.4985524871011970
  0.7858811915053655  0.2028744135639064  0.8160244607149370
  0.5221472098439821  0.2538723075430714  0.3287008707933747
  0.3844209849440637  0.8084630541821842  1.0050989532377106
  0.5053898232722879  0.7903125261496965  0.8780758454956092
  0.5382629282250974  0.8653263571455865 -0.0047852031512313
  0.4286924024706478  0.3748079630286816  0.2539741592545523
  0.0607762728828324  0.8939331713607680  0.0638033613971070
  0.1933858948152977  0.7089333118569665  0.0674454741735366
  0.7987467302598930  0.9266658128495761  0.4343472679038736
  0.3875524176424830  0.7650424161929905  0.9594617441485822
  0.6365228361347620  0.4605981361756081  0.8954396105849244
  0.2424927653151082  0.6381947883458560  0.2762035414883294
  0.0971089443750303  0.3384223676146525  0.5014815740150605
  0.8237489984576539  0.8319208499918658  0.8684738853611950
  0.8964659087914885  0.9217133904297656  0.8503943475465626
  0.4215694990561570  0.3146595748749635  0.2741637921386500
  0.5060558858117798  0.0213874953093945  0.7587730533327249
  0.6976886766028243  0.6851798297670179  0.6362894210662564
  0.5022267062910782  0.9198974722366865  0.7404463105248824
  0.4947741703592529  0.4493669322614253  0.0760227661092950
  0.6041153098610766  0.5453167026518679  0.4281324596552122
  0.4538710195679345  0.6006513674611900  0.5277350814681542
  0.6196226303699323  0.0528001205764000  0.8470569309042701
  0.4263191352159535  0.9102892386141649  0.4873382603928311
  0.1498892530912725  0.7941279646693308  0.3108649141765547
  0.3153163419061132  0.7249861538557625  0.4969918335534179
  0.7896726658711537  0.7097898101224220  0.5561600579222211
  0.2920730461878414  0.6233117392212647  0.2400964650598420
  0.4891505729717328  0.3377546468026663  0.0429850146314751
  0.6046710731314181  0.7150937666639677  0.9805590803810236
  0.2037906946564091  0.1576507030582094  0.3620205286337718
  0.3478610113006583  0.0663756226868385  0.2098400846049381
  0.7219023611558504  0.6975809768862138  0.3064578263699735
  0.3221974385063862  0.8993812358219032  0.5150514366673055
  0.4635822494080176  0.5856432096136933  0.8491903379370561
  0.4195485667417513  0.7333155015499990  0.9164613978352983
  0.0968192107035982  0.7113789589485291  0.5004305855875654
  0.4929183911706667  0.8011353070645012  0.8189901163707108
  0.4715799893320036  0.8664760507050780  0.3447284198583055
  0.3117948335423491  0.2690373482572875  0.4258626771095101
  0.0957557013930688  0.5237980266414125  0.6990475602849778
  0.8262169568645803  0.6728059091238195  0.0110825591803567
  0.0703767973262098  0.4638973525527080  0.7568305589037284
  0.2149465521498455  0.5477725576100942  0.8446084486210979
  0.1296798018482462  0.7228714968104590  0.7531762980003123
  0.1172122691864377  0.4992150815976912  0.8191541745334658
  0.5852759241643900  0.9082449780197540  0.0050011368521075
  0.1901749990964906  0.6122546443230449  0.9721712695181608
  0.3968619865233358  0.6080563342553892  0.1106771560817438
  0.5314475374330914  0.4318867584460643  0.8099531520065680
  0.3980589371741247  0.6271724265783275  0.9325859293912352
  0.5747508537135976  0.8219513768447961  0.3326583459933181
  0.9048705914327227  0.1523476731726327  0.7518647621530274
  0.5452798005565931  0.7266532884256570  0.9594746385898533
  0.5642784582153265  0.1763555229020574  0.7512190595729857
  0.4936355828413880  0.0333147018977283  0.6987747014928339
  0.7619543208465483  0.4122826623937755  0.0022447923827924
  0.3264590445479589  0.1073554974445844  0.9066727781633681
  0.2589890220718931  0.4991558280055859  0.5394348925261523
  0.5462591775762152  0.1534315905139862  0.9165902479587972
  0.2690709878606862  0.3437422106528392  0.2122141879096140
  0.1433072718862712  0.3677132141078658  0.5126457815678197
  0.4596278105661610  0.1508321594670089  0.4036394350686183
  0.0881385874159025  0.5995976877702670  0.9948836802190254
  0.0813420523816781  0.3951711868477784  0.5398318850309965
  0.1375322523226071  0.3889811162935471  0.5640155418823636
  0.7836176829911997  0.7561522440781066  0.4270469177939537
  0.7548119035495049 -0.0141710562165609  0.2782384398812686
  0.0740353716580225  0.5989436871698964  0.8694930903747083
  0.4691371907716301  0.8351882976334941  0.2368739589821801
  0.8853969171759538  0.2531123229882589  0.1110556582247801
  0.8951314523693100  0.8163393588342254  0.4431947417325249
  0.3824715744398015  0.3698288335696227  0.1164320719583889
  0.8386029337683147  0.7999844312758079  0.6028750712062341
  0.8221795836069062  0.7326767886020462 -0.0044493865095265
  0.9538678995454664  0.1238124138848977  0.6032656326089301
  0.5299188794008676  0.2454103806521441  0.6740776162181885
  0.2837470701063732  0.4321764371157187  0.0677589517668592
  0.4765536986787154  0.1545297284989209  0.8976844018362369
  0.6914312196946394  0.5683531432935348  0.8766094202246810
  0.6831762376731214  0.5811911605765007  0.8152510586543722
  0.6704714233343393  0.6202474379473675  0.0245414474969111
  0.5672699607324623  0.1974737055764391  0.0188146863048381
  0.3577994964904141  0.7949970817613129  0.1562588959703736
  0.4627480647972498  0.2066867158884200  0.1529393020732069
  0.3888824449979774  0.3160063396471042  0.6129874707456802
  0.2755351274984766  0.8022971225410545  0.8569062621827188
  0.5023314196132193  0.3677624583860578  0.8688090683842650
  0.6634476794333629  0.1609225456297276  0.9510791096394186
  0.4868673762253588  0.9726623149762270  0.3706106836269502
  0.2549276247660057  0.1262333847463193  0.8192530951583422
  0.8954576836097313  0.3550389793418950  0.8226751955937595
  0.3989220561315186  0.6065300302623691  0.3343203585278642
  0.6076198086844743  0.5749082413489650  0.3031905159526381
  0.8176140663304087  0.3146722199544412  0.9613336822219574
  0.2949377015421601  0.6371542258515135  0.1796285014623800
  0.1137125657460358  0.9639497266863284  0.8861746202140987
  0.3685002578884070  0.4164500696930102  0.4575320438913524
  0.4531041712516703  0.6379312571143076  0.3450607367030534
  0.5677219986989316  0.5469269828231119  0.5259448968983697
  0.2547516939190603  0.1276066040054382  0.3878745163432070
  0.7985092809913047  0.4330345553905368  0.7291949921092531
  0.3362780492804965  0.3111829852940290  0.6502230803682246
  0.9655138450684523  0.0094519050013496  0.6465532315743588
  0.6412409197703415  0.2422060531545442  0.6506925916997939
  0.7904941263556663  0.2848702119866796  0.1800476618897572
  0.7345738329626104  0.2706520826341813  0.3378660319568839
  0.3468657165766919  0.2030021073784829  0.9486628866440934
  0.5090175116092922  0.4885485796194666  0.7912446511309387
  0.7469069373757430  0.2751382385579505  0.7381681337403534
  0.8612105664009029  0.8803001295225970  0.8826921109252528
  0.7945617802891793  0.3432292766111466  0.1627855693654502
  0.4397133841255467  0.2707717335671510  0.5282286656708791
  0.3474856216072387  0.0171964152195270  0.8190459539091580
  0.3813868608685650  0.2321925130054145  0.7893597248065976
  0.6438103776744504  0.9293090761123020  0.5020390240396649
  0.3518840962147054  0.6710909382646011  0.4102661885356362
  0.6514630340898587  0.9669911373033789  0.7243286731977810
  0.8369190202376157  0.7062845031061480  0.5153267463877320
  0.4665918094966783  0.1957530953295595  0.4426677579084543
  0.5773409566966269  0.7879287840339874  0.4613044638565199
  0.8249264206803563  0.6378923388568816  0.3589947334214371
  0.9319994382300502  0.4036454625974206  0.8300593010468428
  0.4278161201363144  0.3651455220754256  0.6153116693188078
  0.4207232196617456  0.8650798224423512  0.4459804192548788
  0.9535267943651089  0.7658597284428809  0.8394615122583885
  0.9419952504183183  0.3754195090286858  0.9528492349449927
  0.0289343802575308  0.6990669663039947  0.8873069629198149
  0.2554953943094545  0.2764638694093968  0.8499643152806468
  0.4543059064045309  0.1789619104862668  0.7687539085894671
  0.7816510352353082  0.5936038978645147  0.7318895738493090
  0.1691457656382782  0.1573108363411053  0.6722760307015064
  0.5823005596210779  0.0881511386366075  0.6604456859141353
  0.5070467941777232  0.6234725441985266  0.9102963501577129
  0.9508131866648087  0.3296402449669442  0.3945566829795016
  0.7096650361240511  0.5455639107325011  0.2341584708058878
  0.3462205940238821  0.6223151983653344  0.1439513572323239
  0.5160208316615490  0.7132775015083150  0.4024091541091529
  0.7900876840030927  0.6649558844072007  0.5112638521787729
  0.8734521878535552  0.9399953275897617  0.6558813741169236
  0.8008737256456937  0.5641015331219983  0.8544973257571650
  0.2322475471879114  0.1832831798740257  0.8012685675289005
  0.7092782047165263  0.4859690445294307  0.5302003095286073
 -0.0130604453318409  0.9716603619652400  0.8371020168730133
  0.0852670313771761  0.0652887888960217  0.6074744449134855
  0.5693490366948784  0.5835437561717616  0.8317180664667138
  0.6939078940651723  0.5317257192005337  0.5689560068817562
  0.7047148690936701  0.0735802550166507  0.7040220968661575
  0.8510279560603523  0.5637279055936557  0.6154514823031831
  0.3730047157461688  0.8971313679867799  0.4177585644875089
  0.5967639619370840  0.4530879649442118  0.3388503750145076
  0.3683000459326219  0.8398665166706910  0.4293662231522756
  0.5139073784419336  0.7464236732118907  0.2769803006060668
  0.8493808946941660  0.7104171223715858  0.6746583535043876
  0.5605934451310790  0.6672977716623205  0.2600316750324409
  0.9045390749520366  0.5795072290165592  0.7696800407115781
  0.9493637206127477  0.7463693059139462  0.6677981601124567
  0.8153867936773015  0.5137934460728187  0.6136203509104383
  0.9267680179159609  0.6103278151034034  0.2907631698929456
  0.2230988684149153  0.6155707967103964  0.7544769284256498
  0.9823944926050826  0.4111298976269099  0.7915595555064234
  0.7874304324077042  0.2916794034437106  0.6334886552210489
  0.5614682308089524  0.6508228309028246  0.3182889738884396
  0.7059373916737552  0.3619355639114285  0.5958475368678503
  0.5216459253740563  0.7563275581601673  0.4469950101388195
  0.4035883434219080  0.8783539440172914  0.7134834708140432
  0.7392847886260931  0.1962148897397202  0.8559446331649396
  0.7758146117426924  0.4882473288024277  0.7156039674748937
  0.4549610301847171  0.6704723942312839  0.2238433765759903
 -0.0006619133736722  0.6184333825550175  0.7644715257890162
  0.6870816980638156  0.8650493662543023  0.4171326654764357
  0.9680535832339786  0.4814233740110734  0.2294574838246497
  0.8968038752738390  0.3369297011087486  0.4942567989849304
  0.9683663733698550  0.4887696712766003  0.4585469707884118
  0.1883183058088644  0.0128862282604197  0.8816145104846150
  0.8949308114314017  0.5942190763960751  0.7102578530650172
  0.6080392093000553  0.6038703563440819  0.4112002246487217
  0.7345861731532408  0.1639726434770822  0.7487163025837388
  0.6053999891150073  0.5600057278512276  0.3668995550249593
  0.6816824430295083  0.6573029905840906  0.5299191200333317
  0.3919060252662976  0.5145245828772070  0.2492754294151510
  0.4223911961416402  0.5342688955770220  0.5899661343312961
  0.7871873255550432  0.5073097075950131  0.8764885519088673
  0.1783464013480608  0.9965542771261391  0.1164934185643907
  0.3162105583882778  0.1180943597778944  0.8438205305865880
  0.4301079494552862  0.7757531447159267  0.5292522447213996
  0.6756372146881047  0.2586759897789901  0.0375889071022055
  0.2531838516046042  0.2728690909446457  0.0660790016004727
  0.2526898516805130  0.6471352855910713  0.5905758734559610
  0.5481918703864218  0.4764087163266552  0.5818240179755783
  0.2779753192754607  0.3703152674300285  0.0838684980868046
  0.8689226398043631  0.4619415312724262  0.0223528345067689
  0.2614327411242802  0.6630408340972470  0.7624172305882562
  0.1959037804943152  0.5699453115110164  0.7222331657590558
  0.9142363722671186  0.4697242602598503  0.3844510236411922
  0.1470335120746051  0.6187138613243813  0.5391305183765338
  0.9104353480962805  0.9112799972438124 -0.0254868227297343
  0.1716920096184290  0.4722641450594382  0.6759102688197318
  0.9616484840616502  0.4218611417758766  0.2476808193055309
  0.5436860267226299  0.4183573518818391  0.0993130465127719
  0.8430253636534557  0.3268646944157694  0.1311169144664825
  0.9140199816578262  0.4311873130665246  0.0551737505468626
  0.8207831273771753  0.5887000622958836  0.0851969651407074
  0.9761094235626511  0.5927696290790949  0.2552025486411695
  0.0881560933728970  0.3855310263858213  0.6021410836765844
  0.1455718014191069  0.2131062462886864  0.0453343745543134
  0.3269764272447794  0.7788079359447911  0.7091718082948170
  0.9449996142642187  0.2679929495159089  0.1834631974208620
  0.3913947845489412  0.9222797735771849  0.7590484103404824
  0.3027667430279971  0.9004742021868208  0.9060307063711579
  0.3235870352115307  0.0422235626955455  0.6882010595759951
  0.1541205103095460  0.1166501232553404  0.9021765109301516
  0.1694797097901384  0.6410041431520521  0.9003618472680509
  0.6170806226331269  0.7474050180990368  0.0840908911377714
  0.2032351941529647  0.8407758676956082  0.9467171031641763
  0.7299758209608077  0.2844114161325065  0.0471398602501192
  0.1337885509464908  0.6310018350594072  0.9444154680128496
  0.3756660185819551  0.3433150324214561  0.2475098856851304
  0.3913909665455058  0.4960283294068785  0.0855824648281271
  0.5923530036756757  0.9367225224227905  0.0560160156037946
  0.9824134473108466  0.1471812914048196  0.1169840895976702
  0.4838449094486235  0.8448819782426856  0.8619647841283022
  0.1312251194761808  0.5908797344134619  0.8946401052561249
  0.9262286686361318  0.5961100809003089  0.3503560155302667
  0.1047383758715590  0.5467092321677819  0.8591167999906575
  0.0753935130647579  0.4633488410950032  0.0998375369775315
  0.1418293672748435  0.6796709474662881  0.7098397572601763
  0.7753442815135572  0.1908459776400015  0.0915902084683838
  0.0931461178905709  0.3718192346832013  0.6638632018325581
  0.6255309575950682  0.3507254235487948  0.9096125198002263
  0.0595706292923455  0.5954746958046808  0.6215922133733273
  0.9214868469764451  0.4934229858649991  0.0383183739222349
  0.1109936721482993  0.9305385104812871  0.3165596768128768
  0.5090328135751946  0.7003390796453491  0.2341088226483909
  0.2124150796815519  0.8348376315645700  0.4902793175523722
  0.0861500208011987  0.5990361605310949  0.9320631885745306
  0.0330712215796928  0.0935689631586732  0.7504643976223090
  0.4897890554475681  0.3863449553772168  0.0930074104216702
  0.0445551619955857  0.8049538320242406  0.2123568747186158
  0.4857042127152754  0.0758820298707713  0.7423186627781971
  0.0560054353708871  0.8816023704715923  0.3680628440889540
  0.9650177732874869  0.5725596826837064  0.7942827651298707
  0.2283394455774193  0.0375287638744239  0.3823835890167773
  0.5221169674831698  0.8957988375761210  0.8657283912666002
  0.0475718016871259  0.5181068047293530  0.7390146103705970
  0.0885734295654947  0.6592205503034696  0.9689854263995514
  0.7575482280239249  0.9891527140540621  0.9738434333731506
  0.0109121868997164  0.4714806616657288  0.7390020071798042
  0.2974732866037940  0.7463860963400967  0.8822466522222450
  0.6841334141902631  0.1290222614432893  0.6846033477124925
  0.6534149618071858  0.2645550514057298  0.8179354453232912
  0.5175574853060657  0.8199421365128005  0.2030763575029402
  0.1102531576790302  0.8706712241869746  0.0228422331015759
  0.1920457873347765  0.6550173787689214  0.5612681564888132
  0.1480019604982871  0.6499909711625387  0.6018083741090827
  0.2090505187886884  0.5233109514013888  0.6815491974882882
  0.1640440127842412  0.6217711182035881  0.7292370033082883
  0.5635951245318012  0.1463716263917727  0.2070168608384793
  0.1108027732990907  0.6440806215887875  0.8803879958118824
  0.3777543936962917  0.8290723983462335  0.9442968377976312
  0.1063765517110351  0.8656853888060331  0.0917362347600899
  0.2737936857676030  0.1024380386243376  0.9463353078792196
  0.4148065436012354  0.3900743176074034  0.4891719642141610
  0.5888364441336218  0.7712214075270696  0.9631080283672024
  0.2280723569498277  0.9486741263500610  0.2057440390267955
  0.2920483492375467  0.1454605892956446  0.7169046648456822
  0.7949637409315613  0.3595958295884369  0.1040914288513777
  0.6654279080368326  0.8427289834660463  0.6410542095433868
  0.6805867943946901  0.8653017651886982  0.6974195683990686
  0.5979642822210702  0.4669404190630627  0.2781551776154639
  0.8634098769679165  0.8733119642112600  0.9523800408046401
  0.6971575394528489  0.1168982270798139  0.7447964075098950
  0.3582128113575354  0.0047341060624920  0.8835111588802080
  0.2306264141139602  0.2185326919027287  0.9025715393094188
  0.4963396857198750  0.0650195340647506  0.8037004494185809
  0.5569780039363972  0.6369022437926799  0.1525334297573947
  0.3912610806708866  0.5788013312615056  0.4563804038321766
  0.4981153043676350  0.0545196814128303  0.9756792434557532
  0.3955572231783102  0.0336662625629942  0.5480766998913686
  0.6788021193569053  0.3275963063833704  0.7601221670042738
  0.1455748321577628  0.1263435688569658  0.8374426809903658
  0.6220198924861505  0.2258532770778917  0.0333022170452484
  0.3258980679054463  0.0741229853818086  0.8008280932658042
  0.5586974806311813  0.1531965262945845  0.9773467924359369
  0.6493909004811801  0.6844850726913009  0.8347368506438175
  0.2648824286048062  0.0489825844879890  0.6680349765894660
  0.1949152270034716  0.1320773610708363  0.7982204478996303
  0.1636447177475109  0.5408006065168294  0.8807467387102493
  0.6248379740768252  0.7746272710629832  0.4197899819490102
  0.5742592049733749  0.1652516211880723  0.8112459014426102
 -0.0352490711758779  0.8298961073846260  0.9594960832226765
  0.6074050895225108  0.0628323777476542  0.7862147356529950
  0.5210355954613476  0.5790049013491501  0.8691976366707371
  0.6495339924153485  0.0356493532828763  0.9783225149003806
  0.3391251932721850  0.4985602835983332  0.7873041093662912
  0.8201369879333305  0.0856001394285410  0.1989742751051788
  0.3485363080138592  0.0515846502968017  0.2701748765977974
  0.3100093749738910  0.0549966686458240  0.6279939001231190
  0.8346910551098894  0.5138904656263517  0.8376240761651118
  0.1412601147922936  0.7262544280222493  0.0985360191545071
  0.5185414746082947  0.8069089898586491  0.2629888739640460
  0.8760855595839778  0.6240356533915477  0.3228466038488595
  0.4092679508178197  0.5146616120126077  0.9744327342683970
  0.1717095753939049  0.0080067127447905  0.3737311857701377
  0.9577245338067175  0.8910264381880544  0.7560606703095220
  0.1941822995378234  0.1919953639917349  0.5587466803952668
  0.7858555687335973  0.8333615717294520  0.3465173003395435
  0.8223271553088961  0.6175617849127549  0.6309659124555754
  0.4344597132006386  0.9478156980460100  0.0467535327945919
  0.5071592665958444  0.3040790242033216  0.6589560757457011
  0.8167305077057703  0.9605753765363054  0.6656475073285607
  0.2804929546976548  0.4178247463675983  0.1285533645186726
  0.4700801823681981  0.3829663985992196  0.5121983021253407
  0.5829298446558466  0.3444017573557264  0.3186036410979800
  0.3226179572269741  0.3899127297287854  0.8009753200411979
  0.5633716028337883  0.1186564993990968  0.3327156521003299
  0.7754074596017168  0.1335830359935876  0.3441505294045901
  0.6632834038154648  0.6413381160315313  0.7965687422262230
  0.9333148778590477  0.6603889393608776  0.8866995492802371
  0.0632172238116219  0.3739022732182044  0.2431674317457196
  0.4134994238518435  0.0972369919088341  0.6533618382138726
  0.7241515540389057  0.7839515151051095  0.8392186400305872
  0.9557083926602253  0.7631039569041894  0.9605508376296685
  0.7946659811989358  0.7348195258564001  0.8168722545843121
  0.8138248954427740  0.4346810849572108  0.0224631837754787
  0.7167932547563480  0.1160719409447371  0.0387316575768526
  0.8347381441325158  0.7858874335705077  0.8241798114176161
  0.7300684365743827  0.4834596242459678  0.7561914945069155
  0.9762254615572458  0.0659162451197894  0.1972225593635329
  0.3942216715141407  0.6063292786719272  0.5062438930413439
  0.3950828562987382  0.5609944869999690  0.2914593962685777
  0.8501982868225909 -0.0053908182934441  0.7644200217262821
  0.5096239034056648  0.0535703532691946  0.8650085705739247
  0.3390279203667532  0.5948816664129887  0.5471164919376326
  0.3826046223967128  0.0350095622708077  0.7120353322254465
  0.5256823184146551  0.3122128701392961  0.8853351144285503
  0.6716350563064893  0.6270074202289544  0.8542482335497672
  0.8316554947575893  0.9080681799494723  0.6255633381210783
  0.7697561575899902  0.1473405438168054  0.0480386609027178
  0.8910246676195526  0.9013978983726592  0.6006572531496027
  0.4743060475084714  0.3674423582010656  0.4554330274808761
  0.5523721164963712  0.1880088936630373  0.6895188611561239
  0.5720046128771462  0.2400229383865553  0.0651213943196365
  0.4041099182265488  0.5923317335227990  0.8280546782351658
  0.5908923210753751  0.3704126738055342  0.5507125298356599
  0.7623563578877036  0.1113507829465069  0.9382673476595906
  0.6631409655934662  0.6368081028538900  0.1905326310955729
  0.9623756223424016  1.0046208628919377  0.5257985074054848
  0.0900029596908257  0.8991403715760141  0.6058081444608632
  0.4409916824967701  0.9263318316732302  0.7190488053020025
  0.6942003464394484  0.3892191198322191  0.3933454357247840
  0.0853391054960088  0.1278248943513060  0.5325272098280309
  0.2358920062310929  0.0065216007281557  0.1882635680383505
  0.5504288857639382  0.0967781206415949  0.4667792800046449
  0.1665208100479729  0.0366554614248295  0.7531310699115640
  0.4182429192904336  0.5646716865086819  0.6891131453767665
  0.9821955547771339  0.1625491568508639  0.0576995834078862
  0.5565249926914371  0.5673317087287992  0.4588972193454343
  0.4592325998959107  0.5847449725630658  0.5887558065907964
  0.7014401446223762  0.6630746746174285  0.6932930004698399
  0.6959033455016942  0.1990222254840131  0.8960062539243450
  0.3041559485945385  0.3197078763080612  0.9192951349087685
  0.5633315107541829  0.7341579454096893  0.6343801177164139
  0.8746254853320233  0.6706922603788327  0.8600871678925150
  0.3634560564019502  0.8074734409917246  0.3227005512397590
  0.2376738565567938  0.5422935668175823  0.4151114057019065
  0.7215510136249761  0.1747276817583009  0.6902770956044095
  0.2593878035035853  0.4306634870707978  0.8843896805467816
  0.6584957928591291  0.0996514074605444  0.8524728646452125
  0.8617664046118733  0.6689430895111037  0.6314471032347655
  0.9091687469371657  0.4240168571361099  0.3450805419404512
  0.5961506929340558  0.0056657900578415  0.5172586323882901
  0.7169247617647531  0.5869532407461102  0.0516573563157021
  0.8463966226939498  0.5014670711253173  0.8989076281562507
  0.8533700456011515  0.7283554416214088  0.8400047510261720
  0.4780906649375106  0.8164791802147734  0.5325170994759761
  0.6310296743577707  0.2839783431589177  0.2415704652364407
  0.4422782270062311  0.4984635852687395  0.2133156905439277
  0.6760285881195838  0.8059714761142368  0.2024058669535070
  0.6288608342202252  0.2566435090791265  0.5906352015601879
  0.7356127494379630  0.8661550981069681  0.3204676171013457
  0.7368714236127536  0.2874029216316245  0.5067923111484187
  0.6274122843466818  0.2398092835861547  0.4262637248215004
  0.3437143789540866  0.9167193237715581  0.7991424735759185
  0.4470098839061488  0.7942180685788801  0.8579423363872252
  0.2100972048700837  0.1282278502451065  0.5700890637279256
  0.4445990330667041  0.0711852872430690  0.5524583293464803
  0.8193930698107823  0.5450555597143636  0.5010014045567323
  0.9108977249280114  0.9946143806550751  0.7748894659026470
  0.3712621682468333  0.8845266977785956  0.4763722235947389
  0.7447960998556563  0.7026144847040664  0.6011895830467238
  0.9735149414309927  0.5445010291515584  0.2111317101390924
  0.8634956739837886  0.5190173188670900  0.5769398286778576
  0.2514487626847446  0.7476868767870325  0.3025397603832378
  0.0593328478447698  0.4760259041776889  0.6979859804020876
  0.7947298929457091  0.8504686151939853  0.5186363005255108
  0.8692415684680392  0.5211207226241878  0.5221862173665039
  0.2952123115776625  0.0217897017994860  0.2600930397677326
  0.0153315741392905  0.4213765643424631  0.3815579555421320
  0.7252633657527429  0.3669901494831470  0.8247427910961138
  0.8593931563913735  0.4398318564527101  0.3770256896503911
  0.9719587117562857  0.0267763747484121  0.3915248280456151
  0.0240345280391846  0.5459445223537948  0.6184017723841462
  0.8826367619057618  0.6096554606050342  0.6482675335454114
  0.4879077232855945  0.9865834187761212  0.3079898181361059
  0.7847951088782612  0.5936107155283590  0.5296762498704870
  0.8264409041233353  0.6525122439479144  0.2995200099987003
  0.6754353890201583  0.6772281620971876  0.4684546962027227
  0.2977018269422494  0.2640900257979708  0.6429020138200647
  0.8710162039383793  0.6519511286880332  0.6910464806630150
  0.8178443545842541  0.0547496060313401  0.0914333354733685
  0.8383448769669238  0.1262986737131314  0.6190594038370000
  0.2066106327407420  0.4329857757387747  0.4649953610849393
  0.4427370949265571  0.3743968530640934  0.8479915231014429
  0.8946624105340443  0.8328465338077302  0.3831762340828878
  0.5803991772818442  0.9129141513478557  0.1896747161749086
  0.2766736595603102  0.6886146193666481  0.9285620422975267
  0.8371425943631787  0.4534776603761731  0.6283100768419956
  0.9806697798332900  0.2234294233224034  0.6545627598556398
  0.5193055052629799  0.4776898926944053  0.8499632198128672
  0.7582503341667403  0.4998278337141673  0.3211506062869285
  0.1388678465581323  0.0054605374100756  0.9224886090359472
  0.8431292125876050  0.3141552871809590  0.1889890455585491
  0.7625453680530349  0.0645368306214001  0.7244714392840550
  0.9598512024730557  0.3859003784178608  0.1450086289555581
  0.2179504526410608  0.5121233933977727  0.7401843018647709
  0.4114193982721889 -0.0082819782427388  0.6314312375486377
  0.9520042418148407  0.3720832524533282  0.4998372946976689
  0.7795962881224290  0.2123582416494975  0.4898083702419798
  0.8489332285513218  0.4096264905285770  0.5731361335802306
  0.4385851748481506  0.3538345820012042  0.6756304386442589
  0.5311351815960698  0.9279985484578214  0.2251918360193932
  0.2100424230422519  0.9091983433806456  0.5862164345067191
  0.8001138318108224  0.9411563189320066  0.3736192502696856
  0.0445393249324216  0.2056438261185190  0.2360738171801115
  0.4937225800913960  0.0151830632463454  0.4136198648252222
  0.1639032700150754  0.9621763669128504  0.3272445806921099
  0.1959755346005674  0.2535331166891516  0.0503855010069463
  0.7001922805314115  0.2699440599358855  0.7785356030845991
  0.8189313693452639  0.5750920600446179  0.1450251220481410
  0.9186519534856062  0.3831815261695125  0.0099177375461242
  0.9735570272636336  0.5254958338833668  0.0472736544978359
  0.0680381180277295  0.9672787178314534  0.2101039462103544
  0.7885951479898594  0.8646425611062262  0.2193359311190629
  0.9542697579432178  0.3429225319234234  0.3328280876678514
  0.1492411012095129  0.2124439129593648  0.6565689471978902
  0.5772578357014241  0.7372343749953353  0.8590491510299147
  0.0853498126795859  0.1014160760425888  0.1089500294068432
  0.0227924959142034  0.9796010037373405  0.0046762178794641
  0.2005532874728251  0.8082491434227198  0.1538435316102740
  0.6073028137072937  0.8294507824288343  0.9157354051359973
  0.7362729374275933  0.7708720220224589  0.4618405850498428
 -0.0128490099213049  0.7623300048015256  0.0290379666088064
  0.3777383250018276  0.9740366238774918  0.3345103919392565
  0.2009496247329386  0.1748502410964339  0.3019213230206892
  0.0946847638100183  0.1904801651670799  0.2022659704347139
  0.9115673099071030  0.4181648626056096  0.1180046425054677
  0.3050021839992911  0.8092973582366051  0.1904332844132559
  0.2889448050201892  0.0243861027249486  0.7955899116814406
  0.2470191108601428  0.1154666294677810  0.2186866086348577
  0.1350568641684853  0.0375812183227856  0.2613939089263325
  0.0175251040127713  0.4652710554583211  0.1961967716507005
  0.5052158370827861  0.1492963857836876  0.6157397333451314
  0.0760450863601511  0.5175070260381557  0.3700707442027940
  0.4428312528315714  0.3771891125015181  0.0145043957068161
  0.8935478041418450  0.2975559595345463  0.1567029054244614
  0.9496279118024644  0.3264660975221820  0.1669452429804422
  0.9776490058613210  0.5459158680062726  0.9186602258429213
  0.8107697479074947  0.8743504844298146  0.9154147184248166
  0.2252017773437564  0.3471690147622115  0.7710296082874706
  0.6754854806461544  0.1918492330393272  0.2870718779928252
  0.3300724890275847  0.0080042527287958  0.3088607920377817
  0.1075693545965282  0.3301315197577012  0.6197443015814851
 -0.0019379897868610  0.8728720267927739  0.0622712484117712
  0.6435210685298918  0.3952422673320922  0.6877818710324342
  0.7145917157389183  0.3778270445949128  0.7651919573019493