Cr Ni
 1.0000000000000000
    39.4861997199535253    0.0000000000000000    0.0000000000000000
     0.0000000000000000   39.4861997199535253    0.0000000000000000
     0.0000000000000000    0.0000000000000000   39.4861997199535253
 Cr  Ni 
 1596 3725
Direct
  0.4619977791066384  0.7158761676950895  0.2674998495234858
  0.7137623266659158  0.7737334461946535 -0.0004115950886392
  0.4935539592048153  0.4817025782697472  0.4080914712322638
  0.0964135944300020  0.4269617231636844  0.9386824106921012
  0.4684057376500981  0.2555862136205040  0.4257727097394443
  0.7847731430033729  0.7718913871045466  0.3633462231972572
  0.2819132988247158  0.0313023090958098  0.5164809661290760
  0.9333587556032586  0.1758019995301582  0.0921343080189880
  0.3135912327248058  0.2521604759058433  0.2587232746546231
  0.1177965494019904  0.9303668524501051  0.0050710235378636
  0.6709922274432071  0.7116506684165210  0.3439679657418742
  0.0380850112677770  0.1941629223134615  0.0655780741537658
  0.5215845932267694 -0.0017104863838078  0.6111260225495762
  0.7506198380383887  0.8691605306530155  0.9621464132649818
  0.7778509430608045  0.7722118717619328  0.1356762212383596
  0.5908978891741938  0.9755631061592367  0.7008850234448083
  0.0182197861074633  0.0191954601924635  0.8703250226459016
  0.3797825131113177  0.9423341065641249  0.4639053096010681
  0.2723567975166326  0.4827184200385382  0.5966193552466958
  0.6733007565281266  0.1797203912895850  0.3493642122001490
  0.8135243809232009  0.0874632937484011  0.9627886650137411
  0.8858534835006037  0.7127705123121303  0.4175383653322279
  0.8904003586507445  0.7729434952302585  0.3994871933029766
  0.1949543104556455  0.6092360761604018  0.5041271725056952
  0.6535267362960437  0.2104811436707323  0.9308376694729311
  0.2859493820325006  0.7610902725943828  0.8147848697465322
  0.2549511632580826  0.8969581238584319  0.9427798449153474
  0.1948628205027887  0.7051559891958321  0.8444007481369472
  0.4587424247873386  0.7223021725741774  0.0345062581897480
  0.6751394975018001  0.7568584885537738  0.3881720189925369
  0.2222778120594219  0.8984822473779787  0.6489996493849910
  0.2584153402543622 -0.0051809718012609  0.9670524956449202
  0.8159683320126550  0.5274210877051595  0.1050923685949151
  0.8256151703716914  0.7162817484730566  0.0533015638365570
  0.1391128603580847  0.4453375941776964  0.8403435012389654
  0.3437982141048683  0.3331215926698423  0.8182935367765507
  0.3000532435773788  0.5843776091215711  0.9071966171779866
  0.1978308427916144  0.4897575071348236  0.5177168393472011
  0.9168622415302509  0.1701495704165905  0.9162157976430511
  0.5362525083322722  0.9449513114263474  0.3982502620361070
  0.7950772657283700  0.1933805284977403  0.5466498787032814
  0.9592909270208155  0.4076812170803771  0.5514155966834612
  0.7548234591727310  0.1091097429584667  0.7673211231967917
  0.9082324237493155  0.9533899893131006  0.3416566154248437
  0.5367509481770562  0.9154782413419787  0.5239346162518809
  0.1840865992508708  0.5863748493640772  0.9209687997167144
  0.6874388702339602  0.8777664367616114  0.3555978542338777
  0.1826257938684802  0.4830083460445579  0.9005950469066001
  0.4689512929150098  0.9377053841755708  0.9535524702043671
  0.0730860419343851  0.6002766078273333  0.8703481729056196
  0.8309614240203269  0.2216675684845871  0.1019198879682347
  0.9448413121488505  0.7755659516833873  0.5397903361370209
  0.3830910985826821  0.3717182687049553  0.1159394944225152
  0.8399070961422194  0.8038562973927582  0.6051280876238653
  0.8220639615990755  0.7301631057230602 -0.0018373691161084
  0.0187719104737497  0.1440084624000349  0.5666669318354566
  0.5294063016581250  0.2463209912106214  0.6733474177326394
  0.2842404277206322  0.4316301379908257  0.0677768770872240
  0.4745579815558931  0.1527524931933842  0.8975243218118351
  0.6918373714864701  0.5696671249847070  0.8772919001626559
  0.6834251878739223  0.5829573119740794  0.8157866131445476
  0.6668618626015470  0.6179622506058586  0.0259364788118050
  0.5660144847606954  0.2532621177448084  1.0057037434325811
  0.3593479057066540  0.7946154179480044  0.1560611772661245
  0.4654379034278779  0.2062326629886914  0.1517587644216138
  0.0900231190654756  0.6008042351137586  0.9985002382275100
  0.3905835520829341  0.3166756992718308  0.6121188126903411
  0.4739688238085987  0.8538588209363689  0.4075909762428973
  0.2694893845807229  0.3449324627603981  0.2104553880956941
  0.3136946252206819  0.2845297467745619  0.3648669398865874
  0.1055245051363248  0.5118153021929849  0.7602778297627996
  0.4704771271252177  0.8363172934712508  0.2380804165096240
  0.6992644304343856  0.9838238600370333  0.1401676106615130
  0.6652026017175511  0.1001636023117737  0.1995747917882410
  0.7844050003984905  0.7359075967802390  0.4948126219278662
  0.1354916392659210  0.0856330348640969  0.0748109959932080
  0.1773899578411444  0.3709347649751000  0.0484207336706237
  0.2991419161881876  0.6726498614042202  0.0552815946813817
  0.7451291628436389  0.1523614305244811  0.8096070796667868
  0.5217197130651788  0.2540057052993983  0.3274409813038952
  0.4353603688402445  0.8181633414231253  0.9644401563738145
  0.5666321151917472  0.7796558397339760  0.9065315226329157
  0.5507581922066288  0.8171977012334416  0.9477607452002179
  0.4297277948654973  0.3755461276413561  0.2539664548072460
  0.0584656583072182  0.8916880599991031  0.0608384698963476
  0.1938466095637080  0.7102116437520081  0.0678638199987148
  0.8031060091428786  0.9720583334929939  0.4765201134912743
  0.3914688279304593  0.7696753300634941  0.9592554604768123
  0.4652456946487625  0.7384811536268912  0.8778386880606716
  0.0946207423805047  0.7107855218503518  0.4964709174889950
  0.2427970323152901  0.6381507611242794  0.2759115178584133
  0.1001738336300450  0.3411781907345469  0.5011224418231925
  0.1490789230191114  0.3614614444857633  0.5181431488731749
  0.4610265728415183  0.1505404721276446  0.4020226375097102
  0.0769894878278065  0.3968455938821411  0.5378227104276179
  0.1332577631986478  0.3944527844950964  0.5614209242594429
  0.7540631328469679 -0.0166146000084607  0.2765383940328672
  0.6681339169974598  0.0592477492485355  0.8040851233602809
  0.8610923079855953  0.6704582695584960  0.6321225473169494
  0.0866642915207789  0.6490016117907467  0.0395583315738739
  0.7512908587219778  0.4215453038303733  0.1782213086845431
  0.2925849863692555  0.6356265059513359  0.9486242501130216
  0.8122075681232547  0.4975650133820906  0.2284051354811174
  0.3871040216685556  0.5337163235065072  0.8529014607221711
  0.7604165417547823  0.5136756554229045  0.2627033565011833
  0.2205018036050350  0.7464146961114264  0.6216180496639396
  0.7593189724353819  0.4667873983411929  0.4422497485360921
  0.2554790796472459  0.7981810809951246  0.6205301542602087
  0.0160282968347421  0.2755127139967259  0.6582680323102709
  0.6609663208099132  0.5906079773286212  0.1486983435203174
  0.3475639244056297  0.6393045419587225  0.0844551781783496
  0.8090073453056472  0.0118528422190862  0.0458189243103876
  0.1129470576783924  0.8557231372483933  0.5647797786111927
  0.8207552184676629  0.1472021206083565  0.9483728601955395
  0.2547100458529437  0.8392659970526775  0.1617848714034530
  0.9345872213929517  0.7749865883181819  0.0686573337176760
  0.3161149853523111  0.5545561916519021  0.7682864190487182
  0.2897369712076121  0.5452249592204037  0.0930098821316462
  0.4822469116806973  0.6304605857756577  0.6264873623239231
  0.6970271632441150  0.6918720937674406  0.7971181080714865
  0.5310322330135081  0.4642830334769102  0.9146919637367368
 -0.0363939201192920  0.0420904382240791  0.5708476732436348
  0.1847934129059604  0.1030535595407575  0.4663772848100967
  0.0700621040457738  0.4640088936172805  0.7584454251943340
  0.3828465626014976  0.4685138468651632  0.9762509316564316
  0.0940154954373673  0.8237792306451047  0.7832508101353537
  0.7948121841957341  0.8813579064532626  0.0788064641097329
  0.7179621268193416  0.8161331572975034  0.9498008216345911
  0.9364890872433578  0.7931474411706384  1.0091395258158500
  0.0637601776740300  0.1779763157615525  0.5370778602829762
  0.9772641397502095  0.1155961700410219  1.0045604966983916
  0.9699340002445563  0.0551340982610647  0.0247966393653597
  0.6989605546621918  0.4370272085488010  0.2102474227370076
  0.8099754590167619  0.4843639331076313  0.2873244543866097
  0.0781468968113491  0.0248261773847743  0.1888653946546901
  0.4089083178617301  0.5792644635273295  0.6297814045426096
  0.1112042785161997  0.9319001858079684  0.7715061438583931
  0.0739999820822076  0.1240305702186454  0.5705646467064680
  0.4997494992334747  0.6336743199552399  0.8525466700539667
  0.0953792680646363  0.8195794759424151  0.0554528159359923
  0.5927690196383202  0.8155631389038426  0.7370347458621084
  0.3923767167858183  0.5121704834684568  0.0239618933233182
  0.8898715984693812  0.8038490343042918  0.2735191914930102
  0.6380324233763313  0.6995676602645489  0.7772726696530535
  0.0643686498282846  0.7927880257127415  0.9414115997488850
  0.1556475455062857  0.3051972353962225  0.5341399955276761
  0.7044759535601000  0.6789872411693463  0.8538880762882257
  0.8240525052972548  0.6721583275745984  0.0113557480011079
  0.5947943913399666  0.0448954603379808  0.9532087781033106
  0.3434298040911961  0.0227840463859652  0.1606590968966846
  0.5318480639800107  0.3825939153640912  0.5302725798380452
  0.4407177008075983  0.7106279808008361  0.5464016579265257
  0.7073381175420377  0.5134530434819060  0.3591872218034352
  0.2632562284171667  0.3623689199857453  0.6719853073765499
  0.1935632767497446 -0.0043963777611803  0.9450095046484562
  0.4655005827916860  0.5722245213423870  0.6504221306771746
  0.8075931937899311  0.0726311221236657  0.6816538131355719
  0.0893946984302421  0.1445792127405284  0.1558280015499885
  0.5935463433994957  0.6307204521210311  0.6118484716038244
  0.5584073658595066  0.7895845247475821  0.6203629818921392
  0.7518803486801354  0.9729589127438976  0.6389910214038116
  0.1443888071690904  0.9470351062308281  0.9512586498252883
  0.9064582843015951  0.9002128330798688  0.0425815925853165
  0.9210522662335594  0.0628434691299383  0.6601058437620403
  0.0501510611918340  0.8059037672276559  0.8824289501946174
  0.8885262023121132  0.8373617163637269  0.1479698307138811
  0.8712851616508436  0.0847344842105292  0.0979233015416108
  0.1156508239925776  0.9531913320654661  0.1730302992901150
  0.8246338586020215  0.8010722579660590  0.7639138512057474
  0.8632065834685936  0.4800205904780076  0.9631866010727563
  0.7143947610704642  0.5881100942623080  0.0513115775230884
  0.5992011849012217  0.0067612509800902  0.5145168309067980
  0.9101765550525126  0.4228688389906309  0.3451365129321520
  0.3198435874741007  0.9426733198337479  0.5866985401675303
  0.1603601201626197  0.9171526831623984  0.2800100691447163
  0.3981288892361504  0.0552040817735794  0.8861138215768178
  0.5249851268609080  0.6608344679868442  0.5240872238477031
  0.0096230362195416  0.9235947316244684  0.2691627513692097
  0.5683666717925788  0.7897504198532566  0.2303815816407369
  0.7021870318231322  0.4115451133523439  0.0377183431431551
  0.1550487307825048  0.8042419133140193  0.4833695604779266
  0.2894712499773054  0.4402791879177630  0.5456871071785816
  0.0547034469194596  0.3250151200826887  0.6603536594047135
  0.2467323506160187  0.1257243426633965  0.4736302514105994
  0.7950047781789131  0.8309982497120837  0.0342626620202622
  0.0920106986042288  0.0817406791399465  0.4066273171711074
  0.9641064939989104  0.5957085044439412  0.5405653465531061
  0.5127107349807972  0.7001180016232281  0.0099401244465917
  0.5042977890128363  0.5918838120863836  0.9779360547806741
  0.9488549380209338  0.6570576632738108  0.5107380795596682
  0.9685930253258059  0.6910966026788808  0.6875789871852727
  0.1013382633635682  0.7711879690629777  0.4760860981502759
  0.5414768976343808  0.9012840865496616  0.0413210567004784
  0.9757936484173304  0.6557930413046620  0.5692230909818837
  0.6278417327792231  0.8498585082669305  0.1134374615020589
  0.8291359464917728  0.3854561943096286  0.9160657000859702
  0.2855298565850309  0.3072878341081119  0.6874698176022620
  0.0202781038249388  0.4605241176005853  0.7964249801351186
  0.6213508445905835  0.7283771553492711  0.3774065126350186
  0.7087838390673148  0.4969261290412189  0.4181586084658394
  0.8625854776560421  0.8718330185032780  0.9539887590978015
  0.8602427806841755  0.9703425638231303  0.6118803914502420
  0.7532134501152368  0.9866802392667892  0.5120299969037950
  0.0594850836599648  0.1750892656591273  0.6025359662620237
  0.4558320149522743  0.3329511459677326  0.8019988341156228
  0.9742753292383562  0.1013435580330661  0.5578266970666556
  0.8578282873817467  0.0029488912312324  0.4846532784834039
  0.6691093311750275  0.0941931321537216  0.5701620977213230
  0.9376573089923003  0.1621071069391082  0.3832895321805388
  0.5349032578794451  0.9597894086760559  0.3363002720125976
  0.8861935496948887  0.1786196279072056  0.4149455278444164
  0.0689310344795466  0.4959704950894786  0.8574311888667848
  0.1236798177593098  0.0210715306938466  0.4117262216078574
  0.8069981077594528  0.0175739837930218  0.5198075245428310
  0.2087080780628466  0.9016731609225748  0.2425548116351103
  0.1270364473753646 -0.0209479620936426  0.2819665801835056
  0.4829031464773837  0.9593909887366633  0.2009890554217600
  0.9833768589191404  0.0982212402176530  0.3062447940455463
  0.8819936701967572  0.3390677188360591  0.6558000241074656
  0.5803239067553174  0.8819749416693068  0.3174394863618751
  0.9813948849472280  0.0865420262478002  0.3686216274875782
  0.6827961653648498  0.8679229165570019  0.6941686191352620
  0.6483847408044302  0.4522967325094146  0.2437241958564360
  0.0674411327944036 -0.0494046453576138  0.2767807104680946
  0.9811066839155479  0.6389562793325236  0.3001002196635618
  0.4507341534699674  0.0385033140620426  0.1364453615196863
  0.1088812587850422  0.8039514958175573  0.9043011996609637
  0.2275317910751985  0.3141326901231555  0.6650835929960789
  0.4944720742054658  0.0284504709941526  0.3486256558361612
  0.5433093124539085  0.0141239283841332  0.3136820523859918
  0.7108821152127504  0.0391905933297378  0.1185620697684077
  0.4962509644813334  0.0434482333329058  0.2863088095434194
  0.3023244248464284  0.2219288788839822  0.5283651292798512
  0.8769311415245339  0.5366629061894315  0.7381630890664789
  0.8970502702712911  0.4784942325787975  0.7536149533904748
  0.4676270473708756  0.7769155367991047  0.2538336228592470
  0.4055798293557099  0.0799798230918276  0.2827823227860506
  0.8822991211521127  0.1748474698903566  0.1902709712002717
  0.7992008256116034  0.3853366179247698  0.5060955776551818
  0.8082257680807704  0.2363398192361540  0.6540198553210262
  0.2068030218253890  0.8220409158825867  0.3221385773325664
  0.4557497115263816  0.2662233006485352  0.5914327832578897
  0.2459214747889385  0.1305291994462306  0.1583005969375879
  0.9551037893160657  0.5856329505148986  0.7347147440130618
  0.9199075217409795  0.5119638167685270  0.5987105224793325
  0.7223931055608257  0.1600924926781586  0.0820765551154305
  0.1045028277929653  0.2843092110164490  0.5188759769178393
  0.1276929992236006  0.7235701698656797  0.7551668485572192
  0.1164858559137211  0.5004024471142605  0.8192673435171726
  0.8405976926433949  0.9302153212678453  0.8723445641515023
  0.3976354730947588  0.6264787938134084  0.9334124112430662
  0.2102656222647059  0.2957947791753326  0.2656008561046637
  0.0465573294057929  0.7915381185762194  0.2757667985917303
  0.5629846297413981  0.3613529469875206  0.8893151975830849
  0.9170157127224765  0.0212277074819137  0.0049813148793908
  0.7259472172498905  0.5922616709550891  0.9948688562010819
  0.5835450458737274  0.8586590289425445  0.7790153243469666
  0.2264385805246692  0.3339087958562573  0.0671590961394902
  0.0850559578354177  0.8576164436056332  0.9006022531915299
  0.6061894163020403  0.0398749389244080  0.0817336520680125
  0.5313221230021621  0.4318705592413211  0.8091222910868420
  0.3976985137762952  0.6074876562237413  0.1098737755317208
  0.6635947359134695  0.9557709273015885  0.7848442420173593
  0.7407057956690412  0.0898977168439989  0.5888744430984953
  0.2243744335328303  0.4047608326027264  0.2880964740901469
  0.0162353807900223  0.2151538685934631  0.9410557448296031
  0.7928839897078012  0.1567811231444730  0.7687433238238964
  0.4203162423320371  0.4641204833959248  0.9330355449845446
  0.8700159129648888  0.1208404042774387  0.9728606922114885
  0.3095498359999823  0.2215463965001015  0.1539406563002980
  0.8011332951903243  0.1151351635380440  0.7263983351084262
  0.1352211942140210  0.6152600743156413  0.0726682862319251
  0.5874220030130248  0.9126163811655066  0.0009214284774442
  0.6408956307649812  0.4286126082673146  0.7897592901296555
  0.7956887851546143  0.3592164129422572  0.1036633213243561
  0.5192511677240612  0.7904235688707881  0.3238322749323088
  0.9033062288570805  0.1534724826537514  0.7484584800488265
  0.5494578568817508  0.7438483973059167  0.9630833077304943
  0.5625577567503519  0.1764193004620999  0.7508034104197638
  0.4921825222548630  0.0344774793772955  0.6979052025513938
  0.7601911268732666  0.4087845291295694  0.0045649861535827
  0.3740632776504508  0.1141843324484950  0.8659410484923277
  0.2588023209893609  0.4986014125691685  0.5392250530958090
  0.5888549015410615  0.1881658443405611  0.9213986415834058
  0.3464964443360022  0.6221259700847314  0.1431737833576793
  0.4389928465650482  0.2730857611883435  0.5245834756095827
  0.1931700742808793  0.1327885998972407  0.7968440115816521
  0.0331005075894864  0.0949547929039769  0.7465930000812528
  0.5476913451864260  0.4808080804871526  0.0830529354284152
  0.2700901202619857  0.1042396714003873  0.9470041129835635
  0.1043950376867983  0.8638427179354036  0.0915874991797247
  0.6514047774354695  0.2650092201190997  0.8203468895855384
  0.6832709212789895  0.1295471377750874  0.6856873833862610
  0.4706218216877137  0.0898387522460110  0.6768412229672630
  0.2291009714233405  0.9491170342315637  0.2062593306475307
  0.2783917331913479  0.1881348529220912  0.7612814385490868
  0.6704119652820173  0.8426808096879759  0.6391713648582709
  0.2152793515236940  0.5476548935569557  0.8424246596368871
  0.1791070139640986  0.0536344714286590  0.4192929369846291
  0.5513558270309915  0.1873408458483766  0.6889089313258827
  0.5903765587028719  0.3742287249179606  0.5478430363637716
  0.7619658517088075  0.1130996562398804  0.9380190057502474
  0.6640629418766897  0.6361246838909850  0.1916641643488726
  0.9636496209240539  1.0019614672694890  0.5261993143458999
  0.0898176895193916  0.8995497744641056  0.6037745598133988
  0.4398865178677098  0.9283910056411258  0.7192442395397185
  0.6937345920584906  0.3885934275886663  0.3950014716431617
  0.1082701794293867  0.1174021262214720  0.5195228226274169
  0.2361907565437139  0.0071314238914050  0.1880959398419012
  0.5489166274368270  0.1007994825809435  0.4715677709157320
  0.1650349986698544  0.0366793714751795  0.7525940898648144
  0.4185676719077942  0.5651313955550654  0.6897711666298514
  0.9821539393740357  0.1617141270860984  0.0568790620864883
  0.5546433609722670  0.5666617091964052  0.4611162898617706
  0.4592135628845257  0.5863763547877793  0.5889720262218802
  0.7030520837601095  0.6641285904796843  0.6937184094827158
  0.6262374864511144  0.7748339850252934  0.4216323469914905
  0.6708277674950609  0.6284323282727642  0.8542546617596842
  0.8147823683662769  0.9667785154649355  0.6572413086707031
  0.5747944244913314  0.1655760427432958  0.8111969929602550
 -0.0370838619984513  0.8283227205994477  0.9615517864220915
  0.4027110914560704  0.5918109684201347  0.8318751843789679
  0.6067148522635151  0.0626442890080591  0.7838671198527639
  0.5218984643829948  0.5773979529549326  0.8716085386380404
  0.7754410237349789  0.1315902897110408  0.3420285355304155
  0.6501520459162397  0.0324054153369386  0.9796912476279174
  0.3299937970248553  0.5093171470658859  0.7260043341176176
  0.8217447222829262  0.0832506018770087  0.1985941981299477
  0.3497397718287366  0.0512532607071447  0.2722393768684031
  0.3114491672548083  0.0544180641997792  0.6290127750612983
  0.8347249065077184  0.5147218617907930  0.8384486514906682
  0.1975244213437149  0.7568173901350709  0.1085224267540177
  0.5193649666619542  0.8058860461349363  0.2638869552680315
  0.8761245350313740  0.6232787907195332  0.3247137929159378
  0.3980833533956585  0.5298169954489865  0.9673512093696870
  0.1415804939458349  0.0657574707547034  0.3713282672273782
  0.9630884763237747  0.8834556820993141  0.7737701868059589
  0.1966639637284000  0.1836292899313832  0.5574228442542731
  0.7941450378945376  0.8945297862357883  0.3279619211794969
  0.8663898165519683  0.6247964866882159  0.5911823018239181
  0.4318593333236985  0.8860728915552759  0.0622050824068948
  0.5067469038133182  0.3035094323611808  0.6573247640318118
  0.2229563057098472  0.3736153900564299  0.1831597794057876
  0.4797616264197510  0.3715257466128304  0.5771027476227198
  0.3224301814401448  0.3888892453992771  0.8014419194670486
  0.6100070229940951  0.0879512901472834  0.3633594512542393
  0.6616127200864024  0.6428042429701629  0.7967529770656280
  0.5717877724704924  0.2372910639878469  0.0654786773144766
  0.9329964803247479  0.6604509176322561  0.8873194414692421
  0.6969740155333805  0.1164060123671829  0.7480612058383248
  0.2295727899659494  0.2196807564022045  0.9010856883542065
  0.4961915057839882  0.0653529020051242  0.8025407668894270
  0.5103150252241009  0.7137373583622196  0.1759723415423160
  0.3930585120265516  0.5795754402122586  0.4562017508240788
  0.4862063802990477  0.0499738696917187  0.9703321712200084
  0.4442208266026645  0.0212116354658805  0.5166013267078028
  0.6775609804171409  0.3283436129906596  0.7630239594740361
  0.1443959597051957  0.1269786810367708  0.8356889932818826
  0.6212287588644619  0.2241786428799338  0.0314062548415775
  0.3141282115564344  0.1191015744661225  0.8428861665827642
  0.5587210152311219  0.1505450655217759  0.9735162784130145
  0.6468921335663004  0.6857602933724006  0.8347042059048484
  0.5978755421486033  0.7729648083306870  0.9682031912801126
  0.3017889026951114  0.0989943349826502  0.6704954358206887
  0.3213999414437351  0.0438157552266885  0.6900025816489369
  0.1526288213039422  0.1162175858250410  0.8996440455208700
  0.5382417644096472  0.5212500724877565  0.6316596633802118
  0.7698931624092281  0.1461639778800988  0.0475028248004925
  0.6979579583660491  0.2009638129953034  0.8960186335079818
  0.9080776707587231 -0.0427406771784156  0.5755383233539304
  0.4745052960868519  0.3677937596583525  0.4565121724603808
  0.3513195198052588  0.0480821371954696  0.9359961925459579
  0.0641265745095739  0.3742172829782685  0.2428535141026459
  0.4131527079230309  0.0992603663849144  0.6564271529604837
  0.7606683459476395  0.2288281661921727  0.6930014868900622
  0.7127241059861410  0.7983962559729548  0.7783670852339336
  0.9545832547156683  0.7618105945746197  0.9619734868781412
  0.7551862080079293  0.6851526758704218  0.8155471144603599
  0.8121056417991810  0.4350698143350161  0.0173550405514828
  0.7163340672913339  0.1152995092949955  0.0386385059778858
  0.7919425810420496  0.7349232785299298  0.8181929097698282
  0.7168935135908099  0.5002570167345581  0.6922051103875336
  0.9826013860793142  0.1295207602360362  0.1808698185714852
  0.3938748854526837  0.6071753209186205  0.5059462935531885
  0.3949535254328935  0.5612179539119331  0.2910696446059577
  0.8579738366447436 -0.0087182423029687  0.7735490069100887
  0.4058003833168272  0.0123313487845212  0.8409596674067541
  0.3391722924983939  0.5957628679848751  0.5469425119956652
  0.3932130497308047  0.0227450929118766  0.7793703573264680
  0.5826166382189084  0.3452838896642005  0.3181368881753049
  0.5256016975818031  0.3121262110292051  0.8842263582945642
  0.8440825056625749  0.9115405435295100  0.6281494618686565
  0.3023978042208813  0.3176093324530840  0.9182395579169079
  0.5626998766965757  0.7345715471871860  0.6349493091344821
  0.3633762206208997  0.8090992944881202  0.3223147189708842
  0.1292600572770325  0.5281429396091907  0.4401214503333613
  0.3156438226705609  0.4205925337438661  0.9072366380621688
  0.0528234449764446  0.6277462589883674  0.7367939854549166
  0.4829972705670251  0.8656442963647548  0.5782010619612977
  0.2364776344332775  0.7099738060097949  0.9677767599881718
  0.5075467680579122  0.6217963066536324  0.3122520531502173
  0.2055307650629676  0.0535509207848929  0.6469798063877507
  0.0352811720933211  0.6536698380294902  0.3692295767222079
  0.7378409097913928  0.2850482198730306  0.5064047087654990
  0.1795488248455767  0.0345052962071388 -0.0129387706513518
  0.6273574280766150  0.2392442566485453  0.4264888434550587
  0.4087234527975735  0.7142443759439764  0.7520437441790813
  0.3427290265056404  0.9170299475336799  0.8010414180918708
  0.0873640912845704  0.1412325841763749  0.9832840658401022
  0.4442397656685836  0.7948443044802275  0.8556935518480644
  0.1003184799093688  0.2686215890508477  0.1248307776247197
  0.8741650583490568  0.6708637693255398  0.8599807334545428
 -0.0174628986298988  0.2901490218180310  0.0205464617783001
  0.1934125930700527  0.0655656853783611  0.5850231625591629
  0.9877690595642389  0.6548788460336382  0.4678434315865684
  0.2743103052684522  0.8034230785315161  0.8550747413083308
  0.6503576102106281  0.4666913097228782  0.1842406857112107
  0.5023409474289778  0.3679731288968503  0.8688750506828916
  0.5531780511932866  0.5579246201220869  0.2323756000296047
  0.7254706200354030  0.3035210821893922  0.6134922566785235
  0.3510610657939481  0.6875612825349189  0.6263183213452967
  0.8855070447408464  0.7908479494267993  0.1039836563845123
  0.9818591536486242  0.4103490733688858  0.7922849211555288
  0.3670054647954800  0.2817626563323653  0.2647021358413562
  0.8684626504169377  0.5250979519396618  0.5216882111870127
  0.2307439139163211  0.6022866227060820  0.8188381944665748
  0.0157664216903009  0.4214958084110547  0.3801749746130220
  0.9272858529667228  0.6089326212142194  0.2925190365039324
  0.8607222777733955  0.4371816899837780  0.3771632513051180
  0.8745888318655965  0.5052407858032952  0.6361766355777656
  0.0239848226815053  0.5458459770267026  0.6196195434404227
  0.8179948849157671  0.5439759588023011  0.4999762239997865
  0.4860354915581386  0.9885428796901562  0.3079603412506360
  0.1200701505060167  0.6053874547382251  0.8345754364621706
  0.8262104665817273  0.6512729968401056  0.3008903542228044
  0.3805053395309290  0.9673758877516599  0.8050773306905543
  0.2972665238344802  0.2637622619426579  0.6414706151477311
  0.7253935479655970  0.6626076437503229  0.4298828206183602
  0.9186855047236664  0.2334614727818581  0.6328203303020067
  0.5130744653990420  0.3547134125349901  0.9278762864725230
  0.8388249457290903  0.8018662259860447  0.3731910712526147
  0.9888385736255545  0.1310913720657330  0.4099169866584290
  0.2730800010001496  0.6898088514405907  0.9291515660802843
  0.8644692656008593  0.5179013128280944  0.5774575472686264
  0.9769345843648761  0.2250291754411330  0.6530709313316881
  0.1105873200447934  0.4811799399405977  0.6558234009077449
  0.2970267426825676  0.6402731454316630  0.4043394170981873
  0.5921821267367531  0.9726997024594263  0.4058087136321901
  1.0145565802900762  0.2105148615569375  0.5549826189779679
  0.8286801909178784  0.7424870113832657  0.1605386009365889
  0.6868782940776839  0.8950863452251550  0.2921829067593708
  0.6020698877428272  0.6674053280601389  0.9381550894153786
  0.9100555556188258  0.9669163104087765  0.2815873324110152
  0.9241620786511311  0.5417109406714266  0.0797755234463256
  0.7035009541221755 -0.0003951917836428  0.3153336213724206
  0.4268260617107049  0.3616796334931870  0.3140102973061945
  0.2265966269491573  0.4525532683013787  0.3280211107028435
  0.9437605341063124  0.8328613271861961  0.2843141355383056
  0.9768241097861210  0.5842858283446494  0.0277449051702457
  0.3192320458396575  0.6907445284417039  0.8968651245763839
  0.1539231416108235  0.7749352248134103  0.3726708189663716
  0.9411214256640827  0.7885992115431970  0.2386954145489113
  0.1462704981768193  0.2794107266241502  0.8669944815825118
  0.2036695626352082  0.3711840012525371  0.6469479059198852
  0.2439666166084987  0.6529337031184844  0.2160461937959407
  0.2327334244975443  0.4821540380734600  0.2057933252396269
  0.9778998650515016  0.2549141680043018  0.7566921890802416
  0.1011834348723180  0.3396710634028530  0.5584788582463817
  0.7107313987853729  0.5597640508525256  0.1736950672045364
  0.9128160252382511  0.4509500481302555  0.2227305383783998
  0.3563861219329987  0.7483152112626874  0.1131051247005895
  0.6113066025412527  0.7446118917319027  0.5903125352138463
  0.6240411521133821  0.1952020901854949  0.3830099598284144
  0.2333311093832755  0.4606445274332192  0.0428749412617087
  0.3630270390623520  0.2222704133378150  0.2837548408856773
  0.5260690582082959  0.3504970340762361  0.4184807553243575
  0.0877526801596493  0.2864563212526263  0.8421748865192880
  0.2860178834563353  0.5131118796572616  0.2137940725637997
  0.2827074745771677  0.3242631318572719  0.0340013573334202
  0.9180375375179692  0.0108700968206896  0.3208716819301608
  0.3915709266626142  0.4705728464283224  0.4280134868296189
  0.1786515053874821  0.5972222056755478  0.8576280976624628
  0.2394169133566666  0.4537788300324652  0.7602599418502419
  0.7372347621093233  0.8928204683735950  0.1928594291516059
  0.0338265387248221  0.6673350776098689  0.0782028582817251
  0.1544365421524006  0.3669685352271514  0.6853531316766536
  0.0431699299734285  0.3684286588207560  0.7039077173598201