Cr Ni
 1.0000000000000000
    39.4861997199535253    0.0000000000000000    0.0000000000000000
     0.0000000000000000   39.4861997199535253    0.0000000000000000
     0.0000000000000000    0.0000000000000000   39.4861997199535253
 Cr  Ni 
 1596 3725
Direct
  0.4620152413774936  0.7157392447699509  0.2674362590603754
  0.7979805361294536  0.9238354030513751  0.4337242837531219
  0.3925432593319235  0.7690720067236486  0.9582817790992103
  0.4175713680125397  0.7322773012629497  0.9162783908812204
  0.0945729476355820  0.7112691726807817  0.4966213500843404
  0.2421909230285828  0.6377834626089329  0.2761416748867055
  0.1000283126439404  0.3411663240425141  0.5019415685295568
  0.1492834942826567  0.3589168418023169  0.5185253924772418
  0.4615779407218574  0.1497576733679522  0.4027125042140551
  0.0775156518984604  0.3971387542205693  0.5379143334923059
  0.6707088590380916  0.7108861090724755  0.3437922779873385
  0.1336724914479515  0.3933241293051838  0.5612422012053934
  0.7842275761083243  0.7348889437463612  0.4947972825924894
  0.7545978754207864 -0.0155681007658758  0.2778156354479124
  0.0732943557541215  0.6005518414814905  0.8704871689614183
  0.4697496992615050  0.8360965227796475  0.2382453626485527
  0.8305344053749736  0.2218439423295958  0.1016706750136169
  0.9446027842904957  0.7751534945313224  0.5397414633387182
  0.3833009900115458  0.3694294352932148  0.1152460583079345
  0.8413783882236281  0.8029481426076612  0.6057641347690078
  0.8220457896273311  0.7300863586340831 -0.0016110351328614
  0.8785811110767278  0.6657236567916409  0.3683361766000458
  0.2843800012420628  0.4308139733987673  0.0672970864056855
  0.4766251099659352  0.1527294657878688  0.8977599137106668
  0.6609657101811439  0.2217629491107898  0.9347845317861455
  0.2863644750244669  0.7611108653087896  0.8151046950710992
  0.2543402393811005  0.8968163094693687  0.9429725634524915
  0.1951136663325914  0.7054548109721333  0.8443085368143854
  0.4581039142576274  0.7225060001806815  0.0346742718897947
  0.6745905750601694  0.7545911377804694  0.3877523674077655
  0.2226778980098884  0.8984431163560814  0.6501532671109499
  0.2577426304569718 -0.0048331659423686  0.9676048105863412
  0.8158605191057503  0.5273603381878628  0.1048699128921784
  0.8256136855915842  0.7162899512374776  0.0535465729940196
  0.1393906068034509  0.4456056396732770  0.8404075284033872
  0.3441653333738123  0.3333936618624561  0.8180910637655405
  0.2998866611574285  0.5842919830304582  0.9074738598859633
  0.1711934239532041  0.4405771177242319  0.5689040305414922
  0.9173869356267752  0.1712902978378389  0.9148848655493216
  0.5362445784689917  0.9442497891636968  0.3982591075716964
  0.7941748451105319  0.1938977607092676  0.5456992991659625
  0.9593342195527569  0.4085004358085115  0.5515720912290750
  0.7548558862180090  0.1098771075246799  0.7673423133211620
  0.9084011656637810  0.9534482346294739  0.3415933849695724
  0.5364956977240402  0.9146637191067392  0.5240932266065792
  0.1840273257433174  0.5863240766487021  0.9212423653851284
  0.0196047854875917  0.1430848937220131  0.5642254773160970
  0.5298769395434159  0.2467949060170683  0.6734836913575037
  0.4685683186871380  0.9377241737253300  0.9521411702251598
  0.5628974821542045  0.1766723724404550  0.7512673649566760
  0.7601220896819423  0.4088758364795647  0.0048690601305963
  0.3241292287398371  0.1073586186609200  0.9043196113016460
  0.2609707436733668  0.4974340212629982  0.5409216281785569
  0.5457711682158460  0.1547314198316554  0.9152939486555837
  0.3467551257627704  0.6228728425288867  0.1435364583180161
  0.4393235742558588  0.2734204298982811  0.5245633741149672
  0.1932413679310313  0.1331696960932198  0.7966558302392730
  0.0332386899850914  0.0953094712046182  0.7465137270380827
  0.5478018132099611  0.4806057632132436  0.0828381201046028
  0.2721281611888479  0.1043019307583814  0.9463603272310850
  0.1048166602997878  0.8631205497585598  0.0908288693067406
  0.6521669004739260  0.2649297957354803  0.8187594162266019
  0.6832638105527594  0.1302407536187143  0.6854287608117774
  0.4708912592931597  0.0895779081233505  0.6767893801700179
  0.2289505955828431  0.9491852106014286  0.2059323123635418
  0.2787773320790118  0.1884330024601634  0.7611233206846655
  0.7955917296708689  0.3593244653790936  0.1041067024874873
  0.6721786733966780  0.8457564845092126  0.6430649388131250
  0.6835560151569395  0.8693824190056799  0.6978505338009715
  0.5975333031986619  0.4663698022771085  0.2800998651352930
  0.8625672079485088  0.8725439066779829  0.9534368198658001
  0.4928117034367494  0.0345284176543961  0.6978359123350319
  0.6921311618000374  0.5699167692345638  0.8776829692002373
  0.6837298775279553  0.5832079949005681  0.8161971733206238
  0.9037416872153723  0.1538215727298284  0.7476891901708087
  0.6668795308363533  0.6178244736336929  0.0259147810433958
  0.5653854978875397  0.1950429127655657  0.0175826413228459
  0.3590853717507860  0.7946460573882449  0.1564478652526116
  0.4647710069456701  0.2057971135895022  0.1520292637948112
  0.0895867567848524  0.6003869639817629  0.9986918023907736
  0.3910689911533107  0.3167320129096556  0.6121301067241500
  0.4739531362406166  0.8532195376250794  0.4078602879738069
  0.2692998355664640  0.3432797544963894  0.2116307864007724
  0.3134661651964957  0.2839212806587090  0.3652087151425790
  0.1057180756019180  0.5121843416514793  0.7603544420877699
  0.8240257727872773  0.6721581325494246  0.0120716480435233
  0.0702533345155933  0.4643850302212955  0.7584857728499304
  0.2154694066477770  0.5477711605837665  0.8424435194612749
  0.1280752919937658  0.7231860938025415  0.7551383686449785
  0.1167397895191223  0.5007149691452935  0.8193482113512872
  0.5872267300820309  0.9122558202969866  0.0012856494959348
  0.1349329919230366  0.6148598690837501  0.0730387246219350
  0.3971125329481213  0.6080262010915821  0.1099592221301462
  0.5321517614870881  0.4320196213173039  0.8089388948018075
  0.3971110011720519  0.6246786851948812  0.9338565542537126
  0.5197222828029934  0.7909605797504258  0.3236104016173804
  0.5485808476286342  0.7434186719884369  0.9624050405164079
  0.8605394854745282  0.4380500872745818  0.3770787230101326
  0.0237877745584459  0.5464873424885772  0.6194811229822601
  0.0861930278680968  0.6485511926399311  0.0398431594203782
  0.6934844261527501  0.3925782774429144  0.1684043251143027
  0.2921276936032096  0.6350599880553277  0.9488512803548137
  0.8114403192533810  0.4968625223541944  0.2280986674366511
  0.3873024118531205  0.5335908259295025  0.8528661821916054
  0.7599220564810587  0.5129929337787480  0.2625113288505834
  0.2206925857669105  0.7464288927360603  0.6220289835376326
  0.7591804638731428  0.4668588580125919  0.4423236151065211
  0.2561021315899836  0.7980724352763722  0.6217568931930758
  0.0157765283366094  0.2767417970222863  0.6583706379737657
  0.6606656808622385  0.5900609860889404  0.1486244071615955
  0.3481817799999158  0.6396341973772328  0.0840611436032632
  0.8088593410483504  0.0116206085796580  0.0453967482035807
  0.1133684900585092  0.8562703544711004  0.5651574009775890
  0.8202139313572206  0.1462447674344937  0.9483992581797261
  0.2542490820904202  0.8392654151306503  0.1616339770914839
  0.9345305647922830  0.7749099464295913  0.0684966087896491
  0.3163992659710716  0.5547733047962436  0.7682780084707934
  0.2893405566325709  0.5439429020937462  0.0935573099483894
  0.4817951130833621  0.6301435939962967  0.6267096689473335
  0.6972699200934624  0.6921987891412487  0.7970910654670429
  0.5315355294557425  0.4641347293003789  0.9149935666156434
  0.0111504459670403  0.0366163180085862  0.5367416711777764
  0.1357961523960271  0.1131426572447389  0.4984269936869379
  0.3390307302080009  0.0629162920451757  0.8641132174841220
  0.3829257329507743  0.4684457498938378  0.9757131973119824
  0.0940372280336275  0.8243457803855655  0.7842871984418655
  0.7948104170406742  0.8810366224613777  0.0786892452285681
  0.7184287425105004  0.8164989633468385  0.9496832930344443
  0.9362631304444373  0.7932907068550952  1.0089724092915180
  0.0598109143618732  0.1812763893525194  0.5370736149404390
  0.9770112244931038  0.1156095140695430  1.0041477103377394
  0.9697158156457891  0.0551678029584132  0.0245137357681106
  0.6983731240594082  0.4367877314592469  0.2098741185749972
  0.8093342829265143  0.4838106977685365  0.2873588616788725
  0.0773663646343395  0.0256521465566462  0.1888725591355244
  0.4091876189228675  0.5793946286732006  0.6298423204707794
  0.1120669284858051  0.9319067213733456  0.7717504485924651
  0.0690633094165226  0.1236062072746379  0.5831650362912921
  0.4995006077377109  0.6345565691280092  0.8530545004843381
  0.0952079266736370  0.8189952901214868  0.0551768399417010
  0.5933037872616130  0.8156280752559011  0.7366488918196030
  0.3923948639662952  0.5118842507185233  0.0255166258176395
  0.8895663774401338  0.8039659417579808  0.2735126061994674
  0.6380294075033700  0.6999567944479033  0.7772285292873560
  0.0641027222147011  0.7929836466035528  0.9409180128434116
  0.1563932511450387  0.3028744754631692  0.5351106401085192
  0.7046046532584607  0.6792320877695655  0.8537578163783462
  0.6972408933711752  0.1170147776910454  0.7477991466687622
  0.5943945790082718  0.0464560779068610  0.9532494489103155
  0.5116200020810207  0.7004016215914128  0.0093409164036961
  0.5325254867605280  0.3833918176098658  0.5312623806003065
  0.4427642258342833  0.7096389261506739  0.5468936813945896
  0.7072304149617157  0.5131048067750412  0.3591388051706910
  0.2636226951508280  0.3627048637247299  0.6719541625843216
  0.1929517506852147 -0.0041092841008699  0.9452692683187421
  0.4656992223332868  0.5722699037680158  0.6505419547376265
  0.8079711294613064  0.0729196776951500  0.6816817538137933
  0.0890893668370483  0.1447381133881785  0.1558373816251150
  0.5941707404679871  0.6321695326790205  0.6117185218476757
  0.5610116391248131  0.7900074043605276  0.6203299456839578
  0.7516551991241236  0.9722110214392268  0.6408537528504948
  0.1438781347050165  0.9471792299534526  0.9514571358175198
  0.9062128259736970  0.9005040832531845  0.0420747468012504
  0.9214378094322697  0.0625009728251334  0.6600026520114827
  0.0502961376537429  0.8058950874714521  0.8816628761982899
  0.8883879221036991  0.8373968242060397  0.1478475298288740
  0.8712659784517013  0.0844592522221228  0.0976696213568030
  0.1825574661209809  0.9806849553845673  0.1796196584210141
  0.8389254125687290  0.8013323426311819  0.3734070426198380
  0.8781177250977041  0.1828127990947890  0.6222378103916457
  0.2979434881980858  0.2642558233943936  0.6415757554784099
  0.8265638396301380  0.6511080810955956  0.3012507391476973
  0.4861820574584397  0.9880233056773443  0.3084639751415237
  0.9636664251242897  0.5957898828076179  0.5405220514426240
  0.5044217654038513  0.5918758422554935  0.9781144951471807
  0.9491859452907824  0.6571070595911325  0.5103983407387040
  0.9694464812269959  0.6916413500100514  0.6876655105432760
  0.1012278467183794  0.7715761789238562  0.4763801015427153
  0.5407323458437726  0.9011678360899255  0.0413164939812428
  0.9750444360150611  0.6559108843929911  0.5693506870015492
  0.6276062001371344  0.8497787622682371  0.1133589370808843
  0.8315214682775438  0.3879276775921272  0.9174611752111238
  0.2858061251915263  0.3075926429234656  0.6875239705758674
  0.3193767771208944  0.9434639687040728  0.5870289528963049
  0.2851305520241904  0.9909673524688163  0.1522015422736218
  0.1598116702503715  0.9171698283981328  0.2807333126422338
  0.3984977245738945  0.0551314425664391  0.8845626970471563
  0.5242097222800730  0.6622336105548964  0.5243194799835836
  0.0558326768882889  0.9111535162191903  0.2302522881874459
  0.5680225357328190  0.7897342164323202  0.2309770427522774
  0.7022353122278396  0.4107678344877466  0.0374558144963126
  0.1550395749599300  0.8044446870094989  0.4838147805681389
  0.2877788183098891  0.4402480774222886  0.5453598236330004
  0.0552361496035405  0.3251332220302716  0.6606790792520174
  0.2470783077106031  0.1260486799841239  0.4762333115773820
  0.7952311219217405  0.8307920059604785  0.0342263907677479
  0.0911662701436261  0.0825165495041485  0.4058844932763702
  0.0204564785268741  0.4608587197777316  0.7963502136364222
  0.6209282280388382  0.7281025464583152  0.3769495250569389
  0.7090287956167632  0.4966394210607512  0.4182342955152536
  0.5493635695117549  0.1003824791714083  0.4718382283524911
  0.8597728652311625  0.9699921329536743  0.6120793046928266
  0.7521259962964941  0.9862025011610813  0.5133605091446427
  0.0524417160291979  0.1766868142214928  0.6049834681420728
  0.4550994766044704  0.3332911154420475  0.8029523017513804
  0.9740669527709913  0.0993744621197845  0.5583633649752286
  0.8579256373765385  0.0031974025060347  0.4849791793649836
  0.6703694186003989  0.0943292882687480  0.5701042891868938
  0.9374004090660901  0.1618929500810724  0.3828539401232855
  0.5347839647905592  0.9591469045769840  0.3363461478842388
  0.8857676912340399  0.1782462477929295  0.4149979424589231
  0.0692079241984717  0.4962616687702999  0.8574736531867529
  0.1234140732674436  0.0201712424822369  0.4120201178557912
  0.8061686628211413  0.0171070721444119  0.5198845118399056
  0.2087969292454182  0.9012889220499297  0.2434693549624875
  0.1275293075198389 -0.0212461116858698  0.2816004343072222
  0.4827414230534778  0.9594066495219818  0.2012477181406422
  0.0340745303411987  0.0683584936305858  0.3345319988528488
  0.8827161705452279  0.3392619370593288  0.6560233714973331
  0.5739706718505418  0.8344792069857215  0.2729554484698608
  0.9815686693931538  0.0861369175995399  0.3692972486966490
  0.0894707962560906  0.1280311473117673  0.5305015467018545
  0.2374572700453585  0.0072479086705930  0.1886531316115627
  0.0693099296201945 -0.0511506086646217  0.2746774007017268
  0.9804576920928637  0.6390656822418955  0.3003030148292459
  0.4500683350430135  0.0385163325858569  0.1369038601541476
  0.1085018090929993  0.8041613561299461  0.9024939868509521
  0.2276481221193062  0.3143600238694613  0.6654033344359309
  0.4936378955419356  0.0286718244602674  0.3490430568344328
  0.5431498665200855  0.0136045391859762  0.3141867621262482
  0.7110073817804496  0.0388336730386458  0.1186793139627949
  0.4961241315781872  0.0428150564778895  0.2865922798248524
  0.3027379388509908  0.2217164072767455  0.5284330340384440
  0.8771132820857421  0.5374613250866375  0.7381634189123736
  0.8972807793980746  0.4790560664302557  0.7535491214700594
  0.4679527796449743  0.7769468938667885  0.2540249024678115
  0.4054422517251031  0.0798883516598053  0.2824056670515974
  0.8820298506863852  0.1747209701282087  0.1899889369552010
  0.7984457163644113  0.3852221866155673  0.5061298622088218
  0.8086333346230588  0.2367405366904542  0.6535544485920564
  0.2063471638580535  0.8217623898032967  0.3222333343550853
  0.4561943069013689  0.2664705839044420  0.5914901082974764
  0.2450241152056023  0.1299146506109913  0.1570427218091072
  0.9554090078959477  0.5859440597878837  0.7348341842986524
  0.9202605764144499  0.5120366952135010  0.5986977926741034
  0.7222818179230606  0.1601035206906424  0.0817965677628865
  0.1046278410761764  0.2841496165919881  0.5187884460713670
  0.4962723954659111  0.0663363571344978  0.8024198171727044
  0.5103733730522378  0.7134238674246302  0.1753438953068106
  0.8398454097440006  0.9310443774315588  0.8702090245681979
  0.1446362702853775  0.1270790982876437  0.8355799728299987
  0.2107067878893537  0.2967259863562692  0.2651141580031786
  0.0461137805900655  0.7920699311743665  0.2758031003963990
  0.5641271165999242  0.3614247005489893  0.8894253013184280
  0.9168970413495025  0.0209244942411349  0.0042899494094144
  0.7255900143671792  0.5922540500077308  0.9948473223310278
  0.5839114980563231  0.8582440682337810  0.7788135087534344
  0.2260810483139050  0.3332242058079725  0.0668105422198829
  0.0852753746611091  0.8573191995794492  0.8994989008120272
  0.6062406336029874  0.0392480127308591  0.0820345836092615
  0.6779844465135751  0.3292926362468583  0.7612981033676232
  0.4441850988798114  0.0205127467095458  0.5177791742512159
  0.6638496352445017  0.9565047176255874  0.7856284384225013
  0.7407311136338914  0.0897534995264284  0.5890726836380380
  0.2203704806461534  0.3573662141243093  0.2458988147565955
  0.0159261712496015  0.2157672069263421  0.9406136383703760
  0.7931404826080080  0.1573364061166418  0.7685515126144462
  0.4205247115288906  0.4642075515758867  0.9326368285860661
  0.8691825940720749  0.1195435006469752  0.9730552127755588
  0.3084905409080118  0.2212782537066185  0.1532525751274910
  0.8013098290760613  0.1157673445769254  0.7263505677789195
  0.4857489140392809  0.0492167381654876  0.9703310754167983
  0.3925930686150300  0.5792499209430454  0.4563376226893486
  0.7031075952791159  0.4237513467799109  0.8104153825429126
  0.4400184393926441  0.9277050555375308  0.7190133762636556
  0.6210113783589054  0.2235204039571631  0.0324663837643228
  0.3140710562277718  0.1193349619633308  0.8423717469218412
  0.5584512738565209  0.1510123201588141  0.9755577288245977
  0.6469029809592011  0.6862102362832312  0.8347337084094768
  0.5971213003925563  0.7725362025858982  0.9683479704237080
  0.3016594129036656  0.0998841810394662  0.6692355166490740
  0.3206148916296804  0.0439413810754872  0.6893085931844235
  0.1533065742287778  0.1159765209814475  0.9000981586968174
  0.5387440387939441  0.5218273074351161  0.6316187608405855
  0.7696732537105347  0.1463133603421352  0.0471965312596010
  0.6951798779610152  0.2002540124301014  0.8955085886605867
  0.9078007266654530 -0.0418183827827443  0.5754440604696137
  0.4741341722183017  0.3676801226617857  0.4551891510745484
  0.5517350711293921  0.1877880543552496  0.6891375811204796
  0.5709758263276734  0.2373613660852582  0.0641308351216043
  0.4029444940386475  0.5918335173886614  0.8318306509857901
  0.5905695567533414  0.3752250686099418  0.5493016193908613
  0.7623430962956506  0.1135096545484107  0.9374718403935708
  0.6637715385498765  0.6354215992431814  0.1916208778118491
  0.9621615609459084  1.0014237291603025  0.5263487408081398
  0.0916980642942427  0.9014482633492434  0.6040685357031362
  0.6939518996341528  0.3884835369958711  0.3945824842963359
  0.2297127191872209  0.2197911941853690  0.9010686463212342
  0.1798492507118581  0.0514401350300694  0.4178085939787685
  0.1414658201177275  0.0654407243905313  0.3721497801652362
  0.7938547129638683  0.8945076355865061  0.3274454294929686
  0.8230705581155988  0.6187636601832927  0.6310070731829646
  0.4346378215560956  0.9470777761760952  0.0477087626786796
  0.5071985964126841  0.3040601642807207  0.6576283941738085
  0.2281732659252019  0.4342725185087761  0.1630899458761293
  0.4801696327797476  0.3719849770214405  0.5762644071671028
  0.3228512878929636  0.3891394948393471  0.8013233620158274
  0.6097983808484979  0.0873831549285065  0.3637158053678968
  0.7753800787892773  0.1313612441108561  0.3429170947340369
  0.6617041867735033  0.6432586111615124  0.7969952907728204
  0.9328817953099514  0.6611020428770210  0.8871632179495091
  0.0640370118377641  0.3740482921437802  0.2432592101488029
  0.4131573841428318  0.0994705252344697  0.6565860909718247
  0.7128876774249862  0.7984090435523422  0.7784688668197335
  0.9546044163741254  0.7619106732703078  0.9619665739932917
  0.7556958870629681  0.6854227274123991  0.8152430156940205
  0.8113114118501065  0.4354456233861384  0.0182727479822692
  0.7163421781154672  0.1151692774954804  0.0384447062118886
  0.7923229038433419  0.7350475204464271  0.8187098020420730
  0.7174034879929889  0.5010630811269109  0.6924226569161979
  0.9822709610065806  0.1293731929572189  0.1808545498773900
  0.2018100797668089  0.1828633091337586  0.5624223478540032
  0.3931322596000435  0.6071324669247545  0.5061152413858132
  0.3944731523695656  0.5607970757288556  0.2907767304359420
  0.6297800076710770  0.2822564802687036  0.2403113065933783
  0.8589991745217094 -0.0077737649751239  0.7728756330523472
  0.4053445745922901  0.0135555746636907  0.8408534599841150
  0.3392009794155094  0.5960440953590249  0.5467797008098193
  0.3934028470167947  0.0229973852745018  0.7786172053119064
  0.5814438027478211  0.3441757194036544  0.3185001491024851
  0.5261720693421608  0.3124684552440157  0.8843290604709914
  0.8424730220063630  0.9103577385346054  0.6283142325242129
  0.3022765429016152  0.3180505612905867  0.9177838939210192
  0.5601191192100432  0.7329550938334602  0.6351054500010256
  0.3631758354468276  0.8088195235673182  0.3226063677711388
  0.1773400765416765  0.5114451760544544  0.4033121126780902
  0.7611047192792103  0.2293727670548626  0.6925195624247105
  0.3158970377823148  0.4207814250214085  0.9071279050090596
  0.6679896318426959  0.0592715117120066  0.8047701861549668
  0.8610550228157913  0.6693913496111638  0.6322041348109392
  0.9102683137222751  0.4230905975511802  0.3451293744650896
  0.5985548525383957  0.0065225784641211  0.5148313042651175
  0.7143136405792241  0.5878925170400221  0.0513861920145434
  0.8478651256768858  0.5006974634696088  0.9009605633599718
  0.8250738934448941  0.8010433913848248  0.7644038155479271
  0.4838070900859227  0.8646606733854125  0.5779852250691628
  0.4422647240340260  0.4980045345794809  0.2124970397889297
  0.9632303493794760  0.8836188027406361  0.7735229690685221
  0.6769240747341969  0.8026977046524565  0.2043342671893303
  0.1654425039373350  0.0369303186186960  0.7524144459109067
  0.9816714852508706  0.1617030552191690  0.0565994922254247
  0.5546641139576155  0.5675070928644966  0.4609950398356816
  0.4592057150369184  0.5863296834760591  0.5889251991560659
  0.7032312607239027  0.6645606542344902  0.6942214730672748
  0.6258664885455957  0.7746015483852703  0.4211283547139931
  0.6709092056190413  0.6287267079161267  0.8543072715843689
  0.8147715786843985  0.9665010021985948  0.6590420296410057
  0.5754479173257199  0.1659276838128395  0.8118718799678660
 -0.0370592017256878  0.8283722322732303  0.9613623245782773
  0.6076230511959112  0.0638618176466631  0.7843706068207036
  0.5220097507859348  0.5775972088851972  0.8717674204834616
  0.6511826214559794  0.0327745361559613  0.9785739770340640
  0.3303293218268961  0.5095324989275499  0.7259899473667328
  0.8215538753136079  0.0835052101107305  0.1981272177621143
  0.3493960997521888  0.0506653009397495  0.2719929336285715
  0.3107746759541825  0.0558008691679686  0.6278199953075615
  0.8356493882063817  0.5150106023325508  0.8398562237149151
  0.1971048066722405  0.7561586976849622  0.1085609621430193
  0.5197083028954703  0.8064078201693838  0.2645406749960388
  0.8759608804959027  0.6231194040831982  0.3245110975076076
  0.3980117929432914  0.5296896833661712  0.9679747637826205
  0.4188505329886325  0.5652648723568839  0.6898878319339694
  0.6285635516000365  0.2593687984303887  0.5902692169286639
  0.7363448479953533  0.8643905248534660  0.3201911103990208
  0.8685609849053810  0.5251201974220275  0.5213768983215060
  0.7374102950168293  0.2847885907450471  0.5057209946743519
  0.6269384389284787  0.2391461225914634  0.4263464303015481
  0.3418259831061377  0.9177935452324264  0.8010656133006619
  0.4445682368797861  0.7957866521813928  0.8556312631475567
  0.8743096481203442  0.6709721158335961  0.8609045951678284
  0.2191267657544906  0.1218487496099991  0.5787064709952348
  0.2746621165339695  0.8034009878880768  0.8554311710773108
  0.5030673474987326  0.3681148903286309  0.8685593886445654
  0.7259484002831449  0.3038967262452932  0.6130141246857418
  0.9820538695689254  0.4106649150664301  0.7921852858923185
  0.2310392033512442  0.6024849797200011  0.8190582083030914
  0.9270607260243623  0.6089674925940876  0.2922103884877753
  0.8744828582381552  0.5062577830761708  0.6361881461972406
  0.8179213509263549  0.5441801703899327  0.4998180449009201
  0.1203098247961885  0.6056568866304994  0.8346881273257351
  0.3802100403897399  0.9683435808935572  0.8046537375801213
  0.7255733459239216  0.6621076039364820  0.4294894610815303
  0.5141080825039116  0.3546683062220700  0.9277305770910703
  0.9874954095486362  0.1314076746266810  0.4099234038824973
  0.8647891602726149  0.5189122063349444  0.5774350245508684
  0.1106111790084816  0.4816794289584115  0.6563230246476839
  0.0160745486754645  0.4212751850300683  0.3804949200023875
  0.0531204216097912  0.6281657832814415  0.7369090451016237
  0.2752108770749990  0.6891129932704211  0.9284357733698563
  0.1858701105186114  0.7379601753561781  0.9475097811644481
  0.5072423691691808  0.6215950713402167  0.3118630224629668
  0.2052501457091932  0.0532276235534126  0.6470077616912807
  0.0356222690224591  0.6532921312981128  0.3689040524511257
  0.7799798996541449  0.2122046881400093  0.4865128553202781
  0.1804599419716273  0.0350423481447621 -0.0124422092065648
  0.4381702591514199  0.3540192086044886  0.6748350166022395
  0.4090765704482953  0.7149838783459209  0.7521802650179881
  0.2107064824286204  0.9081766465907425  0.5871451927403227
  0.0867639739376219  0.1413571676449547  0.9830576891544365
  0.0439237873874442  0.2047577543727051  0.2369044650867455
  0.0999056489149824  0.2686717599938105  0.1250303479068873
  0.3981344803852169  0.4896527538733070  0.8110910487439028
 -0.0180644359329749  0.2900659474780745  0.0205491848733791
  0.5343679308707603  0.9446884354978196  0.1633379779548556
  0.9877255731131566  0.6552880045754608  0.4674566744417527
  0.8249929762466979  0.4700398498348045  0.5742166373471193
  0.6510460531005082  0.4660757666005892  0.1832596132671285
  0.5095088397434397  0.5196947954715297  0.8981823181876299
  0.5527007091577002  0.5577118886496735  0.2317766731832039
  0.1326689303518345  0.0042327831903755  0.9214305732240472
  0.3513537963088040  0.6878041465173963  0.6262430576504693
  0.4260901375518187  0.3621767350800341  0.3141418881108075
  0.7629640414423418  0.0670240246873454  0.7247859001666332
  0.2263116653207191  0.4521659535298583  0.3280527289539560
  0.9223022303938891  0.3874859338049582  0.6596010863637614
  0.2081984248799848  0.5252180805964637  0.6810194448171601
  0.5933003924894575  0.5515384153470074  0.9629950893315813
  0.9515964848648888  0.3712776275874198  0.4991661026241693
  0.1071784701462440  0.1735168851019573  0.4936920564654537
  0.8487911959242694  0.4114132876813834  0.5694496686510482
  0.3133175686399866  0.3228231994736031  0.4668088140550435
  0.5904358906040095  0.9528548787818381  0.2350504334015777
  0.1379238345953942  0.5791061342203377  0.9621903003194894
  0.7996744861119698  0.9390595017365451  0.3703559259313243
  0.8465898858157747  0.2896423984387257  0.6565870419567861
 -0.0223216491716897  0.4670470332489727  0.5164170042418640
  0.8467445157082878  0.3500727569984422  0.5271978256019551
  0.9270381645732824  0.0689025483032984  0.2982460229861267
  0.9464072129539137  0.2698108953017152  0.4134829357555375
  0.7164348216088426  0.0622774220512555  0.7641465793045421
  0.3616855286775082  0.8383075735901564  0.2007794181500714
  0.4403258765878477  0.5096981436732730  0.7082141092066758
  0.2778649804584626  0.9497510704705403  0.1052624480916048
  0.8490706999806170  0.2209772922801543  0.5585441833065362
  0.8857904849267312  0.5230939118562002  0.7972938473486537
  0.6582557717971900  0.5578858856446979  0.2701511980547062
  0.9436244669272713  0.8332510339338780  0.2844224309696807
  0.7035953836034716 -0.0002012067110509  0.3153843153562579
  0.9764093381080743  0.5840370103836073  0.0275982252308541
  0.3915270140748222  0.4702062025786379  0.4280246900279818
  0.2397325001033119  0.4541114284948298  0.7603265189900993
  0.7370127954064590  0.8929958944898013  0.1935321867959867
  0.0335146913654129  0.6670473734185878  0.0783010233034259
  0.1547387823254346  0.3671288828446695  0.6854411359181061
  0.0435837419914973  0.3689197893258155  0.7039308168901042
  0.4718764503271652  0.3185640331664034  0.4105310059862740
  0.4205573038976477  0.2866124186867201  0.4019006458710837
  0.1441344341474990  0.3791315407880870  0.6236300810383323
  1.0008204586024900  0.8128539807084728  0.5418464720235625
  0.2401682135464515  0.6519799892497751  0.5261244866112510
  0.0697891768637540  0.2340689207163525  0.5720074133452385
  0.0362133757829875  0.7124869364458342  0.1215003106279635
  0.6709860986882661  0.9459626623178399  0.8501445654617565
  0.2616894501603156  0.9793240261739463  0.7593758484051590
  0.3639035187159315  0.2221074750208259  0.2843750060364976
  0.5867478365683189  0.7237536185713428  0.9235838095589309
  0.8284822385476653  0.7423473952674189  0.1605446637743328
  0.5739938016279839  0.6896353972033077  0.5933003528551086
  0.6858097410364439  0.8948756440682860  0.2924131042981214
  0.6014550630475238  0.6676475882063121  0.9383146961398249
  0.9104679543056589  0.9668210469260153  0.2813559900879302
  0.1789479482314157  0.5974455190547265  0.8578901543441807
  0.3200153299452439  0.6906586324810740  0.8959884679332704
  0.1535429468490908  0.7749039177626568  0.3726836298909097
  0.2825781818393869  0.3235250259634906  0.0335735819902361
  0.9407816559500335  0.7887607396160933  0.2385845174471889
  0.1465237336195361  0.2795190692798864  0.8667167468201492
  0.2041929079788408  0.3714749301561689  0.6473042070490057
  0.2436500410141104  0.6526124207879631  0.2161392771599375
  0.2322412743797067  0.4809668360464567  0.2057064411548361
  0.9785960918808271  0.2551727662746192  0.7564671979277647
  0.1012614939273850  0.3395489994751363  0.5591237601028095
  0.7105248280654225  0.5595250551429171  0.1735659343436111
  0.9124583328771130  0.4507401972999919  0.2226268177102392
  0.3559048336488473  0.7484643147111923  0.1134691582635700
  0.2118581247604755  0.3809906832801059  0.4192022915711126
  0.5920622017113338  0.9722458715452195  0.4061304162845553