Cr Ni
 1.0000000000000000
    39.4861997199535253    0.0000000000000000    0.0000000000000000
     0.0000000000000000   39.4861997199535253    0.0000000000000000
     0.0000000000000000    0.0000000000000000   39.4861997199535253
 Cr  Ni 
 1596 3725
Direct
  0.4617240731469928  0.7160991423412210  0.2675551495147986
  0.8613170320686772  0.8734465875107388  0.9545108992584115
  0.6988731441359423  0.1168224316309772  0.7447099125052326
  0.3591903458841956  0.0058537717604052  0.8844213758452459
  0.2317572331112875  0.2183473392298204  0.9001427516528927
  0.4951919693364438  0.0637897577968471  0.8057805158559516
  0.5579670080497904  0.6359139107439340  0.1536590966838268
  0.4485284560025700  0.6151162647963243  0.4688738576820243
  0.4973181808131515  0.0546860419358698  0.9775521211128524
  0.3944849881474192  0.0377817553104735  0.5478328104067450
  0.8791731797701614  0.6656067440595911  0.3694795241248692
  0.6789368522055911  0.3271315868601518  0.7605781622799094
  0.1458262261671691  0.1266257949919223  0.8365438966357382
  0.6209299561561057  0.2247617169532248  0.0322696522248457
  0.3248412575122914  0.0742109823275860  0.8005630759420804
  0.5590988296702784  0.1519088779327476  0.9753775208633522
  0.6490368319834099  0.6843172578608785  0.8346554151587190
  0.5942362676204312  0.7645813513036772  0.9660297220755554
  0.2872628348607695  0.1133397495400727  0.6070469676303694
  0.3215952973038342  0.0419021361109934  0.6916557826254269
  0.1548381108531133  0.1141526314592785  0.9010144449514307
  0.7222467552131920  0.6793343545731629  0.3702699360855442
  0.6941078294236934  0.1979306572324920  0.8955993870029366
  0.8884817353738879  0.8498642405374504  0.5508210695678144
  0.6626369095152154  0.2246859749280547  0.9345506391075259
  0.2883432318205814  0.7595491503383380  0.8160671069880974
  0.2413321127969562  0.9083010214996323  0.8816925651538959
  0.1966153253359218  0.7055657381679369  0.8431548338748555
  0.4588173135283181  0.7212886221877507  0.0367911246952602
  0.6743584708758706  0.7561272734679700  0.3912146516531260
  0.2242604952568818  0.8975428918679446  0.6495549179171851
  0.3342894598142575  0.9769117865242846  0.1171661315647464
  0.8153660953495705  0.5292156913805820  0.1048165051057855
  0.8272635697552245  0.7192636849159393  0.0533002422319996
  0.1388214124897081  0.4458169395716427  0.8389964230125936
  0.4058032123619774  0.3263298394003408  0.8427783028416871
  0.3580625048162683  0.5723692959820376  0.9316491883733435
  0.0441600056487533  0.4461574456435681  0.5326881631723669
  0.9438737788301322  0.2358103639474525  0.8593347416918645
  0.5361631581569527  0.9433094609179741  0.3968373186563021
  0.8017751841717280  0.2481239281097811  0.5933808750974086
 -0.0219096361112506  0.4664797871554977  0.5173805376290127
  0.7557326176413180  0.1089736660922821  0.7649419182158484
  0.9053719551002075  0.9381780710585089  0.4084843720035238
  0.4839297213199213  0.9454885100648642  0.4960828420460228
  0.1847309949181102  0.5863172187844543  0.9196308397351360
  0.5454486165131547  0.4723898007137772  0.5771859946354351
  0.7710620780437391  0.1457025123280694  0.0478774616583363
  0.4738540715261720  0.9364814026567183  0.9565160364305169
  0.6078934076708227  0.0631699157035657  0.7868642058590710
  0.6402708977937297  0.0509010391618014  0.9175959453949172
  0.3898259215542762  0.5024921194295666  0.7469446098061271
  0.8198909535564310  0.0859586767727395  0.2005346187741236
  0.3797418968043180 -0.0086752313676312  0.2748476761023040
  0.3084722910854160  0.0545970991593918  0.6285021262491535
  0.8339263718218867  0.5137806261383270  0.8389366828744834
  0.1420881878303344  0.7272777043883976  0.0992428705474617
  0.5181663213240766  0.8069567780893079  0.2634618822220865
  0.8765630181316880  0.6231279302016228  0.3250290624840319
  0.4003653582774507  0.5187031749926612  0.9724318824488698
  0.1373977550102836  0.0664745616408699  0.3704806391735649
  0.9093834089367508  0.8784657931630795  0.8075094421557635
  0.1948589961225735  0.1929068517705375  0.5566270021596290
  0.8442398706062612  0.8635926994957984  0.3557070170646663
  0.7971323396215962  0.5746032087272128  0.5942799230246656
  0.4355111069302465  0.9467552999269665  0.0463752902701564
  0.5085482885240772  0.3013374044392230  0.6555100748575191
  0.2821713542279157  0.4188473400581703  0.1287696376650688
  0.4709352228028695  0.3800484700322644  0.5108753276114477
  0.3015560915083016  0.4463300656688016  0.7836003860716254
  0.5669248850240876  0.1789295188703348  0.3127858552161702
  0.5220518092526463  0.5782642817511303  0.8710735674922876
  0.4731728170692133  0.3659696955639518  0.4522303358399490
  0.5547812963445078  0.1845876009658411  0.6862121104522473
  0.6369587502937536  0.1570180632163028  0.8316487637872935
  0.5708179117636726  0.2389345379372484  0.0629502498184422
  0.3431763667254720  0.5993142479219156  0.8046856624897383
  0.5655234441902971  0.4230867040091340  0.5416300336921288
  0.7121815696619560  0.1280740278931470  0.9740285518963064
  0.7182235911935049  0.6667384002546960  0.2000978167786926
  0.9610213375462912  1.0029169956959465  0.5254011258595429
  0.0323129573467314  0.9143832838688930  0.5696389893575713
  0.4829995815140876  0.9766609031726716  0.7236793334380094
  0.6937185571686270  0.3914038463774766  0.3928461292296405
  0.0830106100132382  0.1249514986929477  0.5339997441951632
  0.2348469908727605  0.0082586045149677  0.1873074578774644
  0.5375663483585561  0.9761694206793835  0.5060219049214439
  0.1650656498564755  0.0360186845030481  0.7534473298813862
  0.4191315507660008  0.5642510832624303  0.6891673875122981
  0.8709090299237184  0.0832873210586698  0.1007017152933139
  0.5554332365579313  0.5649206516141566  0.4591537814405811
  0.4853801032049292  0.4821038899337606  0.5607891246669444
  0.7040630567526013  0.6619116130581876  0.6935070623614549
  0.6244027431273265  0.7754143290511983  0.4218198871635643
  0.6719382872044842  0.6259623015858026  0.8559848135086705
  0.8167637646349806  0.9604418232957351  0.6658723611752194
 -0.0368837265159553  0.8290049673658537  0.9604064165592558
  0.3393150132175741  0.1014607632813078  0.4019690223833117
  0.4493361903480895  0.0668477577451458  0.0143016526458844
  0.1938134205545590  0.6637289757292268  0.0230109669184434
  0.6931588193374854  0.3761074733635811  0.2295688920566810
  0.2926460068840435  0.6311505368751430  0.9495878594844972
  0.8120216697302564  0.4972113140004021  0.2286085531209405
  0.4608396383269495  0.4829300225636575  0.8330757455870054
  0.7604371469392266  0.5138322026642301  0.2613503311873293
  0.2250069357842150  0.7449938464345909  0.6215804125690828
  0.7603278355782646  0.4692250234711592  0.4423881886828975
  0.2603410694338477  0.7955203278354528  0.6133035801180462
  0.0179299689930896  0.2762965221191316  0.6587757219000561
  0.6604356327156309  0.5718353312360963  0.2084197791235041
  0.3504200605298959  0.7033842757794220  0.0683967415019545
  0.8087392107326492  0.0122853453676914  0.0449100570441668
  0.1748991212313639  0.8554063251047495  0.5850587734971708
  0.8207785648877997  0.1499024345692735  0.9493740683855014
  0.2546396509548813  0.8376196122104734  0.1637655965634277
  0.9353822778208540  0.7766005068095827  0.0682532785526354
  0.3768200188977801  0.5472765291931655  0.7907169959051810
  0.3412158412270849  0.4832971149921725  0.0148062817995877
  0.4702417326226874  0.6761519073073253  0.6633092671212113
  0.6859427926353723  0.7362401945570136  0.8369286803499596
  0.5908208772039570  0.4534970094715422  0.9344352142578017
  0.0736951971642962  0.0679112627885830  0.5488894756786717
  0.7048540561910621  0.6790517124055405  0.8541503393997447
  0.6623838673988598  0.6385102002336100  0.7980880672011030
  0.3753159637007762  0.4637633307754191  0.9759299421294549
  0.1547530394910251  0.8186923307937518  0.8074617262850624
  0.7928812563861385  0.8886060711987184  0.0885161480023116
  0.7206649398543260  0.8147361348913668  0.9531047237375858
  0.9375978792997753  0.7947539025426472  1.0077643134162251
  0.0626598830295337  0.1794689235773827  0.5383753175218882
  0.0259046001633245  0.0230355709329782  0.0512981839507361
  0.9771542518608836  0.1009166255491725  0.0736043560022685
  0.6988677031754730  0.4352134689664966  0.2098379967650710
  0.8090508315579146  0.4841062436285092  0.2886530449252859
  0.0256505687865932  0.0519517004315533  0.1608442060983659
  0.4676206092863289  0.5692717434039026  0.6509066521640511
  0.1110126427566774  0.9315875540792862  0.7730985279231644
  0.0718361018521435  0.1233533310061771  0.5894043108862471
  0.5008529868245400  0.6349050712842724  0.8509586383833267
  0.0936204590571307  0.8259684863131129  0.0554309755032155
  0.5931130443552832  0.8149784296024607  0.7376908155749599
  0.3932910941188334  0.5107098064269939  0.0275555349104149
  0.8395957807586468  0.8490226833188242  0.1876487206100527
  0.6015644207121731  0.6471936667170519  0.7734402929128651
  0.1277371861269093  0.7526489496923283  0.9204336177940678
  0.1510854696440367  0.3129642456554088  0.5292067894872992
  0.1530522123658855  0.1575924867448618  0.4583417207354861
  0.8212587283755367  0.1037238683845057  0.3703633933629309
  0.7031398078013619 -0.0351453835377704  0.9666101303765727
  0.5662690213769572  0.7905738396343279  0.2293508660710031
  0.5281283590287931  0.3746270806962171  0.5323604543899753
  0.5040196835345730  0.7002601979599656  0.5564112770489746
  0.5719754360513009  0.5121767366506386  0.4779581096834945
  0.2656387730178583  0.3633016852764964  0.6715593583360612
  0.1938329107612074 -0.0055820942794330  0.9484096204610318
  0.4368001035778771  0.6207459155078840  0.6659467325338499
  0.8081800010602744  0.0694405899737462  0.6205438184823311
  0.0390214005322625  0.1608871921957955  0.1933109667063334
  0.5955959303911564  0.6286134417185820  0.6097996757706234
  0.5458359403669952  0.7847238263784255  0.6159678061355731
  0.7473662641233811 -0.0252340542262288  0.5770883788142422
  0.1834362857017760  0.9116680586605541  0.8614643699604450
  0.9052803477517063  0.9008530764297440  0.0415837554345969
  0.9249969343686331  0.0530901503162850  0.6653492442282386
  0.0303546828178880  0.8615214632814443  0.8668449664940782
  0.8897159973181448  0.8382621706135444  0.1488159695250807
  0.9336021016095808  0.1769845679382115  0.0930673110434616
  0.1794411092582947  0.9796027257559609  0.1790863340766213
 -0.0039465066600071  0.3653781003310440  0.7445989350481482
  0.9117129924240144  0.4303116077596184  0.7113556956919573
  0.9315647994446097  0.4043918563514783  0.8343297721387860
  0.0365386078812655  0.4311369681956223  0.9182486726454289
  0.2921791040169302  0.1611382566622649  0.4863329916045359
  0.0200733235446000  0.9810118471624608  0.2507335600923236
  0.7196046187976120  0.3917514990550214  0.9291896293891174
  0.1550455482581701  0.8047939183873899  0.4824287106845399
  0.2892412804326527  0.4381415743437995  0.5439544202096396
  0.0557139363995561  0.3253758560172469  0.6590389691778762
  0.2391356710776620  0.1273649874841133  0.4818710277460286
  0.7381262109076727  0.8623712943476597  0.0852579015107660
  0.0875462973148965  0.0805283785498500  0.4043963622515439
  0.9661090657402066  0.5946807862117760  0.5430158039062064
  0.5079302133322625  0.7004987474878653  0.0046426802865034
  0.4534093888525971  0.6756947461745932  0.9967575676146352
  0.9542858729141152  0.6598151146829263  0.5177898276825497
  0.9326093567634455  0.6434012697117469  0.7169364361254711
  0.0981921811301956  0.7715906836224316  0.4812001966506586
  0.5373081555964181  0.9030338513028803  0.0439102210490553
  0.9785925979942282  0.6546035375526590  0.5725209287079071
  0.6265364472419306  0.8490957987952132  0.1132594043003971
  0.8317197219571879  0.3898480716078619  0.9165248119837736
  0.2859099995919907  0.3086202291373200  0.6867451528493626
  0.3233404579192608  0.9446116454831350  0.5766556138528610
  0.2835350819883460  0.9913403433671295  0.1521463120394483
  0.1602871149250593  0.9153317316569917  0.2784073658628259
  0.4710646448123725  0.0058201750527797  0.8630905322922705
  0.5657948384829548  0.7015940613823678  0.5305075326031941
  0.0228064452190959  0.4611806999346688  0.7948815879507184
  0.6193112839379996  0.7298656833106077  0.3763842911235750
  0.7122444413712807  0.5607234045235923  0.4023102296698309
  0.4734348433259651  0.8188338912794128  0.5283775563373071
  0.8581142553252149  0.9676269894989576  0.6130688448249616
  0.7501644672998738  0.9859050443959303  0.5131533960050014
  0.0774048536319359  0.1129157088153131  0.6483394709382998
  0.4471244724932033  0.3430085162005439  0.7390358342000172
  0.9749162651098823  0.0722305767558168  0.6263306850479051
  0.9074413271288776  0.0153445081266152  0.5537458653576656
  0.7029076523754879  0.1103127591128207  0.5703278717377852
  0.9912607914303839  0.1928918318593609  0.3942494435885961
  0.5349906011476757  0.9601712710108774  0.3366618134782027
  0.8851478444502208  0.1791686772806474  0.4188953657306502
  0.0694152971545536  0.4965388734882790  0.8564398624424154
  0.0842094326973419  0.0371397173990950  0.3612962096602572
  0.8006306963083524  0.9704043738398396  0.4757696751008826
  0.2097950237239998  0.9024982882349604  0.2456408428372113
  0.1142214645151224  0.9785068235241583  0.3625682220602491
  0.4810319095442440  0.9599295984849605  0.2005056322377579
  0.9828676335582162  0.0999904342842760  0.3075245414444445
  0.9354837975861627  0.3451278902440487  0.6166221250279481
  0.5731128788483686  0.8362764243778629  0.2711398800272752
  0.9318962049628481  0.1302213050441211  0.2792282196045236
  0.8509993563521857  0.6015795391344206  0.9252596173558534
  0.8542031403665313  0.7264684214968065  0.8408741845261459
  0.0764249216164904  0.0098147763545564  0.2533034808484878
  0.9794561710007523  0.6369427297890966  0.3008564920545720
  0.4419608319307277  0.9766009680900223  0.1546872352694637
  0.1824734930839508  0.7507619332454474  0.8852113409008752
  0.2272442605183922  0.3160990600105314  0.6651732209364299
  0.4942446619413602  0.0287944617293005  0.3486570225707007
  0.5435685727090063  0.0164076110051761  0.3141259370818185
  0.7097812091269978  0.0395755608819646  0.1189538217604710
  0.4978617023693573  0.0434224568909091  0.2853929341913015
  0.3585239760124783  0.2161744897247283  0.5619340149622047
  0.8459299730612808  0.5884111717549992  0.7530686610097744
  0.9005894802301347  0.4773047553897288  0.7551365832680641
  0.4661786593000009  0.7764061069273070  0.2527602440577237
  0.5052877528669109  0.0851156250799917  0.3265259002937783
  0.8763051552191847  0.1291597240771418  0.1465501158778775
  0.7988448258615461  0.4201875474861372  0.5491834008887363
  0.7974585468102983  0.2793239101278762  0.6959800573480918
  0.2103836707326604  0.8690231887823420  0.3683899997670050
  0.3694052250630706  0.2109765379259221  0.6192109992015804
  0.2451347646843200  0.1479714885479436  0.0935675166533554
  0.9557884152721954  0.5859957303628203  0.7343542116522089
  0.9364995247367154  0.4951882700460996  0.6540460051529583
  0.6763020083293615  0.2219589372625201  0.1636939282659349
  0.1052601950103241  0.2798788262129573  0.5192621879873411
  0.0635189598133320  0.3732474036214763  0.2433436734492574
  0.4126603057561086  0.0963184444516103  0.6541253415438102
  0.8385500005398269  0.9322161509315738  0.8639584007267864
  0.7220634640111238  0.1601440331712710  0.0814890942698122
  0.2111146961956756  0.2985738653231725  0.2656637154448953
  0.0467768328034079  0.7917763991595701  0.2745079405273910
  0.5644149244565043  0.3602729220652739  0.8893780033788102
  0.9211669219314916  0.0696510038380463  0.0637856507209361
  0.7270950123901181  0.5943600636676734  0.9961178729817621
  0.5829668186069811  0.8565507914795258  0.7798025448726373
  0.2209763252576675  0.3742317316824211  0.1829882693370274
  0.0251777174528840  0.9007377933798548  0.9146083118306453
  0.6052827046043825  0.0401028860827883  0.0814306171997010
  0.8150701697004372  0.4333835296954667  0.0225863913508103
  0.8050355457672999  0.7189974296779933  0.8786773603370981
  0.7110200464238747  0.9578373253155483  0.7461250432520030
  0.7497537307799368  0.0853632493122428  0.5978552564702921
  0.2197233366559477  0.3585443332998373  0.2450199799518278
  0.9293415673028863  0.2071362885950742  0.9712733538793874
  0.7933552413173139  0.1571815921870294  0.7682211666283444
  0.4696498256554008  0.4711491363747160  0.8914515363484404
  0.9213496778276155  0.0846730445179237  0.0015019026549758
  0.3559269367414344  0.1904721306564396  0.1763029268593956
  0.8039077967095157  0.1135297975306260  0.7259211041890443
  0.9561072821344186  0.7624834488083392  0.9611134484948708
  0.6662699561431621  0.7900980981021691  0.8200637724289896
  0.7038822416985581  0.4209385471312861  0.8094225669678831
  0.6387451988291307  0.9612751094152718  0.6034075507621798
  0.8460576983846663  0.7408483500811418  0.7804044571136316
  0.7323496752081499  0.4843607453682844  0.7557723070642853
  0.9780739595642004  0.0632028151673138  0.1965020674926584
  0.3977232419481408  0.6106745159583256  0.5054170530596177
  0.3947346603103888  0.5622457573541242  0.2919151303265605
  0.8514041698829827 -0.0045637758343958  0.7664199503574254
  0.4480552666786690  0.0602734983817959  0.8470582339152771
  0.3417552230686022  0.5932662662876369  0.5474807594411897
  0.4245650882197472  0.0849089358115946  0.7165937245091075
  0.5826469813355669  0.3457412526567374  0.3164196489243127
  0.5270795575610006  0.3125043992136189  0.8845593158402616
  0.8352625318698343  0.9082626578065846  0.6283662754063791
  0.3044654509223330  0.3164429213964443  0.9199922004538481
  0.5689387791025168  0.7347954256071160  0.6358853435659386
  0.3140216828236421  0.8252150013963349  0.3590419454337970
  0.1283676283571951  0.5449637777692685  0.3783247263142724
  0.7240247471170939  0.1763951071540609  0.6895781922579118
  0.2606763880450527  0.4300501080492601  0.8838517124657483
  0.6583481631429804  0.1012183332950050  0.8523654271834787
  0.8674973565187827  0.6229368750247669  0.5906971947709653
  0.9089074016654681  0.4229940483795487  0.3460716347672405
  0.7144793372855314  0.5881527898739007  0.0512998393684515
  0.9338742504919262  0.6624988280663205  0.8864100396144975
  0.2254787972151487  0.0381416949390617  0.3824362761639311
 -0.0035425404274182  0.2520650296479411  0.3804371873268208
  0.8705272438776678  0.5200631894791866  0.5229667222042131
  0.0153867040290213  0.4203555878844542  0.3811025340500895
  0.8589954519385474  0.4396789403311580  0.3767103784023678
  0.0263855770673523  0.5461433685871125  0.6193071467664535
  0.4866865688574830  0.9885488515744972  0.3080752660604364
  0.7697232535867260  0.6214768378441978  0.2877878204664753
  0.2597426541174718  0.2137873867723457  0.6351851977960691
  0.8481544038130348  0.1276066900239408  0.6214817951607180
  0.8932145626831005  0.8330953244676355  0.3825589098652770
  0.2774622362624439  0.6873687096891332  0.9307758620852850
  0.9795450939449308  0.2256899828807209  0.6552552037559712
  0.7594980379128553  0.4989522506487328  0.3218497110255506
  0.8436782371170976  0.3120953379977361  0.1894096104601709
  0.9600771310039938  0.3857370674882450  0.1451456165480148
  0.4124492472732680 -0.0075104945612927  0.6340547444317022
  0.7758111315145223  0.2124008315502363  0.4930031910908028
  0.3838124873687531  0.3818133941055174  0.8252273480407606
  0.2109416728680535  0.9077923753122139  0.5877831587713938
  0.9866360739602403  0.1750068729741530  0.2270353139032195
  0.4417547315065574  0.3750027075921724  0.8473465707237304
  0.5811231310588625  0.8968802949145571  0.2542617749294857
  0.0604269818401599  0.4756212912917138  0.6982630128978641
  0.8379656191579361  0.4549733994754562  0.6300298084743126
  0.5198399578402718  0.4775040358216936  0.8523102595070293
  0.3609265931687137  0.8392048042736191  0.2002670704369557
  0.1158088884220124  0.0646388480218480  0.9010434330462602
  0.7632764230331212  0.0645576840636340  0.7246889086369886
  0.1602071388141703  0.5188462855042141  0.7191693260539213
  0.9515814780032561  0.3721284003190580  0.5011376328986232
  0.8503835848234624  0.4118212065720178  0.5783124286781032
  0.5898131160828309  0.9537631328749816  0.2347881745540552
  0.7998162180568497  0.9401522871947019  0.3714575857011037
 -0.0015873436088180  0.4518161385417270  0.5698949526214205
  0.9262267707903508  0.0711144940390506  0.2985404549497806
  0.7176608875724720  0.0616098889873670  0.7639976104311712
  0.4400752480623651  0.5082794102782000  0.7071531138306986
  0.8177350707168511  0.1834816874371239  0.6054750543860828
  0.6578985867305810  0.5589901796662935  0.2693054127310303
  0.8747471960204101  0.3807968889794973  0.7028806059196964
  0.5903287598376882  0.5562930110199068  0.9632540382156201
  0.1050391504537377  0.1688353337477360  0.4929451846815683
  0.3062969484486135  0.3832032931272558  0.5033229361243823
  0.1382103047230004  0.5807149393625605  0.9612674210897485
  0.8992811919350981  0.2968150943192265  0.6167338417598572
  0.8432851065179726  0.3597856576687207  0.5278492229786542
  0.9435251672645594  0.3218755640962083  0.4634317604512465
  0.2781629027612321  0.9483143950227462  0.1086699326148820
  0.8630043338405695  0.5218407813641390  0.5775470063061833
  0.9361204725281046  0.5297192148120758  0.7592817742968845
  0.5848705222241227  0.3603137356479730  0.2543617741974579
  0.6774079027432581  0.8036282671133576  0.2036914573114113
  0.6558888806032808  0.2120399307515921  0.5435517246008357
  0.7363369703127588  0.8647865567770761  0.3206348569140340
  0.7361272496372967  0.2836839504646330  0.5062825073224445
  0.6195312904240935  0.1765938697487786  0.4450868125982189
  0.3438265808332825  0.9169954669660346  0.8007476885400049
  0.3975470882251655  0.7898330323033066  0.9009703483755176
  0.8742071421647366  0.6701166567447688  0.8613451548356482
  0.1910672348585722  0.0677058010793546  0.5840827364603698
  0.2760092126733040  0.8025820750360662  0.8591599400331612
  0.5802136450008947  0.4689740821520445  0.8765871226979404
  0.7876705967079390  0.2938684259052842  0.6337543931835644
  0.9742366612799793  0.4224153433826490  0.7305874444954427
  0.2242509707485749  0.6150068146978004  0.7541617177145832
  0.9259316558049367  0.6082822416556742  0.2925179763707423
  0.8161803059729679  0.5169620976228886  0.6142093068761605
  0.8227249160031019  0.5454118143570397  0.5017871075194004
  0.1227557691918431  0.6047426277930933  0.8315540512771892
  0.3810880581896359  0.9668913403102831  0.8042626415904404
  0.7256393312053926  0.6621128792178530  0.4290963416452188
  0.5148135812216098  0.3539602573050633  0.9336555701145230
  0.4433108396110298  0.4994723553713513  0.2130197958520426
  0.1052638769964846  0.1093076265487305  0.9414278974090226
  0.7188445641564327  0.6189749332251288  0.3861655796356511
  0.2935213976985490  0.1432464291433589  0.7167543847219385
  0.9779048639435751  0.0716397919437860  0.4328636314190906
  0.8842897321695312  0.3676329026651878  0.7623763251805949
  0.3659204703585434  0.8841701151184419  0.2453780425953424
  0.5640983490097551  0.1606635043122648  0.1441874904238526
  0.1401672529100111  0.6691114541214754  0.3486548962038515
  0.0806609408055479  0.5764895711358532  0.3534147736068979
  0.1001716197504653  0.8227907182774239  0.2847617289943759
  0.4960462464895332  0.3466402749157853  0.6982836960772276
  0.3599736169796076  0.2558970331287492  0.6647872403421400
  0.0879549516348941  0.6836557629260929  0.3830344660793787
  0.6419711935368286 -0.0265870895393565  0.5407547474148439
  0.1128336341787262  0.3820051152063967  0.8956639687702446
  0.3327521070764949  0.4038625841402901  0.0949280442923041
  0.8115838845802149  0.2744738782168066  0.9171186326193335
  0.0389252569479023  0.6997176626591664  0.4201593760604055
  0.3872364063075537  0.9444931305740727  0.1419155853015552
  0.4870368571114010  0.3585000081650347  0.6369704263066600
  0.6806950360558163  0.2677433757872216  0.2061900200681594
  0.1183010790429742  0.4043817952357743  0.2514122697067803
  0.0182084105567994  0.5604065169920999  0.5607513323530514
  0.4157086552546529  0.1275380241619737  0.7592876438922656
  0.4342341117657333  0.0013878597866035  0.3418424419603016
  0.0534760217490203  0.6270977404609883  0.7344603725694455
  0.6563767315100536  0.1634222622748355  0.4945370505652508
  0.2301726800430234  0.7925181572155284  0.9598461888351002
  0.5476341605668490  0.4986014426154084  0.2490692449692261
  0.5505905533153547  0.5585848911251762  0.2325482511360401
  0.3498623417168220  0.6877457952614585  0.6243545229350740
  0.8805440668165248  0.2255711033844580  0.0001781468291045
  0.5577510640554402  0.6055198362869110  0.2769158382768694
  0.1960783776550161  0.1298449477365473  0.2542355679916276
  0.2032121098628160  0.0540819974164395  0.6475976000830759
  0.3241507461017196  0.8679746844303657  0.0879090382305853
  0.0352999085391569  0.6541499554243276  0.3705325122203468
  0.1541347746818981  0.2683731681706997  0.2584059435362361
  0.1828104056761803  0.0337475543916732 -0.0106881705043100
  0.8706731239049152  0.2572695991045808  0.7773186655689690
  0.4098846544075982  0.7131303894906595  0.7500894338187321
  0.8023074528123310  0.8852620460593530  0.8568362767628169
  0.0849547944571654  0.1398159881797871  0.9855046803940219
  0.6568221444622000  0.0976390331499075  0.9620185893784098
  0.0992843508067824  0.2684320705890312  0.1233605404776728
  0.3841096776845128  0.1589499504234371  0.5630603390588732
 -0.0170999724372382  0.2445808585638059  0.9808453617069357
  0.8082968334214241  0.4693250601371390  0.3488681533631063
 -0.0102763648457388  0.7155551642226987  0.4550906716708730
  0.3560623147096523  0.7491403216488949  0.1121643979110656
  0.4869153616548636  0.8722026456202474  1.0305560337178550
  0.2620735642881027  0.3006112630901455  0.3991087537774974
  0.5567937580956680  0.0920142128716757  0.5878304155467701
  0.2635441550666285  0.1723133671835135  0.5868538042170557
  0.6737601101212876  0.9090179981320355  0.7424874609092732
  0.1040116364666634  0.6599866813494272  0.5733174660946625
  0.1257550470467760  0.9721693041806536  0.5419174940908812
  0.8705422650546202  0.5571659733055762  0.1126660662212897
  0.4281496948089072  0.1479744632525295  0.9389028207511599
  0.9280033611799093  0.6504608773108163  0.1032547403633795
  0.1496705183729467  0.3253422964646090  0.4708103916117581
  0.3405508348366859  0.0529428333079373  0.0296429834663282
  0.0719215117934828  0.0150760012610093  0.0105128178083281
  0.9192873857080263  0.6280712278061772  0.4790294463408747
  0.4690673339169668  0.8224320701186729  0.2972122192393379
  0.2012085505308831  0.2070141583039785  0.1767134787199136
  0.7505389177760902  0.9698506677646558  0.6408388134198394
  0.9645299623486041  0.4345308878201378  0.1887961745167943
  0.4727912681004047  0.8371502345567968  0.4679721373047729
  0.5598464538871724  0.6505583820843163  0.0962098459477290
  0.1786593981278041  0.0111921696947006  0.0507141979838685
  0.9783125927047602  0.2878665508721099  0.8606712423825608
  0.7105243532335769  0.4810467345454528  0.4760515359194487
  0.8834086646203245  0.2137300690916765  0.7339517592266800
  0.5915428977757117  0.9704626211644058  0.4066668523126744
  0.8617769577305886  0.4815623679142271  0.1948059405563007
  0.8865828286156466  0.7922342905847555  0.1058978509946983
  0.2447059673280013  0.8724011081849039  0.7741159589625702
  0.5903832077340623  0.7243153268803489  0.9187997205185452
  0.8252751654372144  0.6829051887156711  0.1758351948382044
  0.5501500908035579  0.7397788433795454  0.5748877197830020
  0.6815059104917135  0.8351979404098733  0.3107233988229223
  0.6033254541748772  0.6703511924466860  0.9382362382555129
  0.9082267599352896  0.9685252309034554  0.2808773078149022
  0.9278247215938308  0.6015301200424752  0.0626007442640397
  0.7035312109262104 -0.0000015012259172  0.3158548021472840
  0.3806019062375189  0.3904187918627958  0.2866284170388377
  0.2653483522747848  0.3291320531348816  0.2730170473053125
  0.8342435791571255  0.7729381909915800  0.2652617533089009
  0.9793355772779301  0.6489228421377128 -0.0037789743142945
  0.3378712436151036  0.6299756543431773  0.9114260274922172
  0.1507639047941990  0.7768321068461672  0.3757752682472644
  0.9375557157344926  0.7425635221155072  0.1912603478909765
  0.1105685335092846  0.2295010966069102  0.8610086473449683
  0.2048076381741275  0.3717405705831219  0.6465475553122396
  0.2431516582684483  0.6541329206371580  0.2147540157691319
  0.1784440439560483  0.4653148462111840  0.1348142988227639
  0.0163103155104757  0.3076441413316920  0.7613575844307486
  0.1010833562619919  0.3412643494075466  0.5594767149581503
  0.3615069578617099  0.2208957400267109  0.2837267992252270
  0.2572813689979356  0.2380996147222563  0.1867666009231782
  0.2380865452544242  0.6069739879990432  0.4025695650624196
  0.0305150928495337  0.5895772519464944  0.1584399377519369
 -0.0122315134616423  0.1826727706118065  0.6110304579340585
  0.6201652489005299  0.1960924614212672  0.3836227153493436
  0.2329518843276487  0.4624704463310246  0.0401085316748467
  0.5252092518018692  0.3499161070482706  0.4162737900104298
  0.1255823250161767  0.3378088775384889  0.8498476776212043
  0.2863678622196574  0.5139760807079469  0.2134634375955668
  0.2675922355207622  0.3131760678624761  0.1046665398242081
  0.9165513502053884  0.0130573331057000  0.3211932738795777
  0.3896141217842667  0.4705801358655350  0.4269385922793932
  0.1793154701837574  0.5973685929030396  0.8576903533484198
  0.2528705335425673  0.4414359411311286  0.8218267842535687
  0.7385624466751988  0.8942593269270973  0.1930034617301640