Cr Ni
 1.0000000000000000
    38.5656675836183283    0.0000000000000000    0.0000000000000000
     0.0000000000000000   38.5656675836183283    0.0000000000000000
     0.0000000000000000    0.0000000000000000   38.5656675836183283
 Cr  Ni 
 1596 3725
Direct
  0.4507783346447274  0.4621063213680565  0.4101653577149824
  0.8493894026591540  0.8132771929259791  0.3861927864312889
  0.2921238183529479  0.7037605532950646  0.9431440575451979
  1.0034271443298177  0.2241610752964447  0.7234330579527539
  0.7702075070034603  0.5092931825360482  0.3358303198691687
  0.0514980195443255  0.8011319986637332  0.0541135372873099
  0.8859241056663878  0.6301540445666362  0.1093134236426020
  0.4213458513630389  1.0082342185975639  0.6416334921525718
  0.0617692563611695  0.3518369932458816  0.6139075102741686
  0.4478723664862525  0.3702556086775697  0.6882702511333489
  0.5051876883768863  0.5187431092159640  0.5192561209233414
  0.2276112789533769  0.9225348628551625  0.6005972461140494
  0.0563941302881383  0.2147920403390403  0.2493081736399151
  0.9259226959994010  0.0487779626249883  0.5074825733253366
  0.5447328088898344  0.9571814507811505  0.1739128090030148
  0.6741401910284577  0.2650099134380371  0.8926109259868920
  0.5828775753121370  0.5253634448600757  0.9285363821505191
  0.1439772165937452  0.0202493326482085  0.9332825442672110
  0.7772105288805702  0.0763986924410284  0.7306768477369036
  0.6430555329400580  0.8450687278085379  0.4184719733903274
  0.7926883879457105  0.6222962137352559  0.5390447453471109
  0.6613245687801736  0.4618795954642561  0.9684158716014989
  0.8406096491631108  0.6838467891820705  0.0210553781001292
  0.3564421224518150  0.3462635416515321  0.8300293183205806
  0.8323015844194220  0.8432890717105634  0.8870149885731675
  0.9107473320532870  0.9341399278915422  0.8722096038066262
  0.6838797028782562  0.7381918520003021  0.0652278031063901
  0.5165499441671634  0.0356028489414627  0.7695125188564582
  0.6786218946395018  0.1236720542125191  0.1473656325798114
  0.5572258755472969  0.0820738838610079  0.7715709759950610
  0.5077973340135153  0.5082084936632517  0.1289786196213369
  0.3617979335785847  0.4997808026336922  0.8640857503146152
  0.5707250337583043  0.6180916360949734  0.5201051839117998
  0.1558963023086688  0.7374023103192641  0.1142811498744494
  0.4981677575928502  0.9533839255854333  0.5103334454660033
  0.7960603700264907  0.8147473794517115  0.2519404676418128
  0.3189962582966537  0.7389568384350073  0.5068185052013566
  0.7950520421722362  0.7334475579223446  0.5664667113287849
  0.3060838103963534  0.6331320439201792  0.2527516269762394
  0.4997137494681215  0.3500445769962081  0.0543800296234554
  0.6156963274731665  0.7214838664353274  0.9925429453526163
  0.2145099638084162  0.1694483390847132  0.3739324697329558
  0.2550655877961036  0.4912070315571449  0.9374335807358369
  0.8303410240338621  0.2887377339257791  0.9291886905911251
  0.3332985972097346  0.8895734824717898  0.5859541586514141
  0.4761303440920729  0.5980195720481859  0.8655209667332887
  0.8647035096413803  0.4221761329424863  0.5895992810295243
  0.5982468556388523  0.9510474137513246  0.3110662545652152
  0.5057804394850908  0.8152050208199118  0.8316423437250358
  0.5074993403629814  0.3624193973261108  0.7089677172580262
  0.1534753307009917  0.6633319098160665  0.4251272257262024
  0.4455452187148801  0.8998380900453160  0.6223778715838326
  0.1250415624549324  0.3964589416679726  0.9115363300263770
  0.4606908970927435  0.0621144900416537  0.0856873409556121
  0.5779833701863275  0.0279055501021883  0.7940357865311884
  0.6559536768878678  0.9289913757918263  0.0337811098051362
  0.3986976384428059  0.9561235780383952  0.1543441266232077
  0.4987774885082830  0.3762738273897827  0.6472626613027948
  0.6932760539708336  0.2790673589379651  0.2175288160719714
  0.4028347598732265  0.0733572571515894  0.4375143353047373
  0.0384878994025942  0.5246365321192630  0.4794272121117422
  0.4959878194454778  0.0909590693506697  0.7515052006085806
  0.2709092669802313  0.2592251969698344  0.7550471177382849
  0.4256046454294880  0.7719123730810588  0.4216435338948934
  0.4390515945588448  0.9059921555772464  0.5615851524324997
  0.4592548054038637  0.0784691982296663  0.0207959288557832
  0.3056061403952088  0.1723428103745539  0.4993605556338034
  0.0108661378257026  0.3084074666187954  0.4335139208746939
  0.0419350833622800  0.5177344002422555  0.0269524897041090
  0.9729599305007978  0.4472315445382339  0.6808453786298313
  0.0911116744448932  0.5517564897211403  0.4907465927481115
  0.3368895653272840  0.3713591992871449  0.7048133403689225
  0.9375954641605324  0.0783142302792435  0.3089249521745902
  0.1334964511041339  0.9012809709308451  0.7420239264101567
  0.2258517636037403  0.1946936534508228  0.4874299442346006
  0.1723176524964009  0.8583088351147918  1.0008318095647619
  0.8555131295518555  0.2385324925924368  0.5678361855576782
  0.7824977939168253  0.2295591605104004  0.7640726514963964
  0.9350312240556669  0.3992337465087767  0.6732336001040156
  0.9852387204510817  0.1150494970359458  0.7374218446921673
  0.1775176439281670  0.7867450254795835  0.7773572993501329
  0.3250919425302244  0.3278021789134152  0.4801070793925294
  0.1501625652671172  0.5906635570070469  0.9763810257995061
  0.8597812602073608  0.3008565335323564  0.6669607210504764
  0.3610148319038796  0.6334525297235858  0.3824859675845853
  0.9567424094950108  0.2821089212900454  0.4234887227971355
  0.3740570252090126  0.8514221012908288  0.2118664961201585
  0.2341819696077000  0.9291783196463814  0.1138631865459479
  0.2788976084711877  0.7967144762219310  0.7030473000389741
  0.8417943235007751  0.7829250432240098  0.6743462720309125
  0.8515221053636162  0.8761144617212558  0.1373351262669401
  0.9409217982250292  0.1159182314171341  0.4162728365368187
  0.0485898056369638  0.6956440471262891  0.2607402629420261
  0.3236326608235592  0.8493813133693325  0.3096994302096852
  0.5725494320375315  0.1215963973557713  0.1091970785246590
  0.1571102955877018  0.7409180693609601  0.3438460963260260
  0.3743818653607583  0.6900820425023028  0.7013781014944410
  0.5125940815876666  0.5873697595696461  0.0494242891681620
  0.5058710191046580  0.4778192537454611  0.0252919432097518
  0.6812862298737464  0.2167546418809307  1.0053104956611791
  0.4984419933979223  0.9832061617715037  0.3823386061434928
  0.5854012101199416  0.7815368580210920  0.5296459383896622
  0.9066200461731100  0.3663850297392909  0.8364257965437814
  0.4069168152618747  0.5557241255490669  0.3653219226673330
  0.0720060702579532  0.3687093174218559  0.3167781757816251
  0.8409648047733508  0.3207443285201104  0.9785292132842420
  0.0714366623853664  0.3527704717780413  0.1516304585197533
  0.9168640102122737  0.9045883371308567  0.7548331373738740
  0.6330212467444915  0.2156654630789040  0.1028561653811993
  0.4672923179291426  0.6630989144621000  0.2953245842581994
  0.9840382627949602  0.9620676514167449  0.6767657957306117
  0.0700595236509105  0.7590019982350256  0.6753413714882295
  0.7388924966748611  0.7686582721233921  0.3034784805959252
  0.3489703455110595  0.3268177248911184  0.6606528981325354
  0.8318186454977236  0.0807233288111663  0.2742146760987692
  0.6504766536392663  0.2578157621949823  0.6610984089516528
  0.7424503627934481  0.2634334452619642  0.1838144604655029
  0.2116189711939118  0.7412327357893587  0.4779022032514372
  0.3586447094895508  0.2160048113909707  0.9587876159370258
  0.1918771452577603  0.6113634102775589  0.8673575917933645
  0.7370803382677662  0.7108192727076862  0.5513966828726972
  0.8734446547467554  0.8893302004950493  0.9117086667915298
  0.7362141507060512  0.7376458733374311  0.1971215898153043
  0.1548453637814858  0.6954921031483008  0.2992796872404617
  0.3586084563715747  0.0290297135908083  0.8299510656622058
  0.5587480692732705  0.4773697809891715  0.1549799548710138
  0.1774873838755651  0.3677386955677286  0.3527972676880797
  0.0416696837282581  0.2429216705289092  0.6230605665101488
  0.4755054272788698  0.1927188873427901  0.5183041694552456
  0.2602284985020517  0.7263099202305580  0.2115443937087878
  0.6544596900251741  0.9663959657263905  0.3850250068474566
  0.1339798226824908  0.1647442971584603  0.7227641898788240
  0.1402997821529722  0.7637705083470645  0.9324537987395950
  0.8406657910232634  0.7066021495389674  0.3577908059498818
  0.2681606510716096  0.7870532432179821  0.4213808784522866
  0.7494557669600652  0.0336713440735188  0.6231275737272000
  0.9859474371299273  0.7169532596699458  0.8717176924831626
  0.9011166271979997  0.3945331517227845  0.9409863357263265
  0.8027546385526835  0.8608935455713040  0.5284859204287172
  0.2965758593731168  0.3980127171381381  0.0321864098752699
  0.2582080926480544  0.6931287714157913  0.1049748538127141
  0.4853945967828066  0.8772094522163272  0.3574529520761143
  0.6178758843926505  0.0617290050579423  0.5718337133832133
  0.5255885313710857  0.0669615753101694  0.5950404229321816
  0.5201359347470134  0.6329901161311665  0.9259082242325849
  0.9615397860135749  0.3410725285248223  0.4048324517997262
  0.7220188550206813  0.5550617145827706  0.2469942524011944
  0.6744185193253386  0.1736633465469749  0.5028124390624106
  0.4709029382415306  0.6931663629121430  0.4009610038991496
  0.7936590765942745  0.6898564843163160  0.5196505401850817
  0.8706157912475634  0.9753003498769519  0.6911623655449803
  0.8137479374644353  0.5804106809875306  0.8661617090584283
  0.2423749525396632  0.1958258336686982  0.8115255414410135
  0.8531202208121325  0.4679815989759217  0.6421061447895240
  0.1907975974162378  0.0244694403003269  0.6200562367312866
  0.3103047505413424  0.7280453017713296  0.7835852239588554
  0.3286850140177616  0.2857303726564383  0.8817085833056257
  0.9733670768256020  0.4171675920940193  0.3225927754657633
  0.0976144329525417  0.6477352559484196  0.3510799440867229
  0.8910705338418591  0.9610509319560695  0.7498206222223776
  0.9180548571560280  0.5907513840591617  0.5845665635699261
  0.6081900800973346  0.4621879006308532  0.3508771451581064
  0.3807744208276554  0.8476032238407717  0.4417998599001130
  0.5266895475843548  0.7553014047180668  0.2907165578884802
  0.8802423395285854  0.6959915863386283  0.8120586839246167
  0.3137173741912226  0.1878310781866565  0.1168001911092921
  0.4156667175426170  0.1083834084798426  0.2284678427825910
  0.3277810645125587  0.2924746018388932  0.1478501329759871
  0.2324243077000134  0.9451867045726001  0.7672647491069192
  0.2230472513836681  0.2943922413105576  0.1110483055071233
  0.1388854384626917  0.3172417440531707  0.7552566985872906
  0.3329010181069350  0.9873286872756412  0.7919150004386563
  0.7598524846311440  0.4019262892854555  0.3097979345915018
  0.9588278562653388  0.2947936805944336  0.3622637886801835
  0.4767852024124934  0.8521995853362484  0.6429824948590929
  0.5312915685418361  0.7671902232176555  0.4602878834894092
  0.4355659238554778  0.8353493874320104  0.7474294621133062
  0.7868353923612422  0.6912415971173922  0.2854245969541503
  0.5761786147303919  0.1606371842217025  0.4509390186996588
  0.4687800847895608  0.6803637928741429  0.2338627698032338
  0.0513701645103008  0.6801993202412423  0.7915642133441311
  0.7843213029715128  0.1259669494377794  0.1836981018593832
  0.9807543194744812  0.4931066676774833  0.2404314419240274
  0.9071704926784786  0.3459548158693897  0.5025039761510185
  0.0931358740941694  0.5826584966641677  0.7535902448490251
  0.2593692916220767  0.0209013423575102  0.9131983757175175
  0.3959332509432534  0.9862160897550529  0.0268750453260379
  0.5793129925102722  0.6751404086960815  0.5009751463924712
  0.7235588721443729  0.8438644857216655  0.9016411852613000
  0.7290125032173230  0.6455781552319063  0.1081067549555687
  0.6862414753335719  0.6760240625817400  0.5385567581667473
  0.1998696084597327  0.6004929490194617  0.3416358810189746
  0.0333093612768103  0.8888355306272713  0.8145865559212944
  0.7645746693537486  0.5749259545590942  0.9060673315938327
  0.1825080086997418  0.9625372684920555  0.0858683860199245
  0.3151556779283652  0.1442843318669832  0.7915235657829542
  0.0166353348810730  0.3398008649929089  0.3088404042640920
  0.9061797900262469  0.3389756545345463  0.0476170120924379
  0.2679877405620383  0.2826219896126057  0.0770498749816692
  0.2974273013843160  0.6057893465792135  0.6001868818539392
  0.4826893005117713  0.7841868380469083  0.4938387174611970
  0.2893820327961003  0.3815945779368179  0.0932355404869127
  0.8072115294503570  0.9313891780595609  0.2126493705162163
  0.2723773266646026  0.6790111102673846  0.7771180087292265
  0.7842075702192657  0.4139999154061508  0.9014610581184707
  0.8631775601680924  0.3868543837595267  0.4090655478218149
  0.7873072502018752  0.3920531508161684  0.9581583473324408
  0.9305595277563689  0.0332419003206437  0.9619472725693848
  0.1588590253900138  0.5458406217390847  0.6729359504978962
  0.3459056053706802  0.4461655788827670  0.2090156859559535
  0.2638648277290727  0.7571210371717070  0.3168024391076528
  0.1245012094892135  0.3845396221336283  0.3863509445225477
  0.8223512952309656  0.4766382916866469  0.1329529144920443
  0.5794211033946804  0.8495051177922294  0.0548659203393483
  0.8184421925025972  0.0262429998700425  0.7077205585829287
  0.3696161363422203  0.5877351328243144  0.6827291104305230
  0.7548049864141211  0.9344158908144418  0.3122892175349934
  0.8799005974462960  0.0153736816687114  0.1910889789876543
  0.4755654285731620  0.1173365901124178  0.6213546697115017
  0.7391370696376656  0.4444680084863056  0.5593677844341330
  0.3127188613875316  0.9140315134008850  0.9168387363745153
  0.8635652840411669  0.0500788024222177  0.6045546436574003
  0.7131163391060543  0.9867863903701621  0.6933149669165439
  0.7872442558010958  0.5825910789216542  0.0293288239619096
  0.8894684805229327  0.1376441971874909  0.1559548398769044
  0.5753592011955182  0.6774970695881580  0.0456505717212329
  0.7432085269446097  0.2938452930316093  0.0594026808956964
  0.1507360142758690  0.6457466273489856  0.9606339168534811
  0.3839269517478852  0.3383704985862082  0.3218192192140851
  0.4066263818533334  0.5556628765909823  0.1386091633415396
  0.1713679223200038  0.2481051824211946  0.8337971119757904
  0.9953488910309425  0.1547004771277405  0.1299188468262872
  0.5535207207332491  0.8526649584620111  0.8955221991527852
  0.9071216275065560  0.8913445781905422  0.2061761872349450
  0.4620779690141425  0.8042595699594665  0.0313399444400267
  0.9209417427429238  0.4492573385831222  0.5265921848788727
  0.0867637959715656  0.4738105445430014  0.1131421423587676
  0.8643761920900525  0.7739296939452434  0.9619460227930691
  0.7900699109612455  0.2016736150714673  0.1025232907518221
  0.1046684799604841  0.3877064819024698  0.6747191834058981
  0.7807704187488712  0.9662877499742398  0.7869070672305035
  0.8692471077921424  0.4318266680220937  0.2234810591436122
  0.9347846759080969  0.5051836336739698  0.0464971857744387
  0.0506490950636890  0.6404961378412874  0.9896007668443254
  0.5230129011527288  0.7086751005506978  0.2465031640512133
  0.9058172298705793  0.8451953994091741  0.3955278768141354
  0.2208966908556259  0.8570383186928653  0.9556960262502557
  0.6889986323264141  0.7994258837492976  0.2764051524404851
  0.6958385011179263  0.7801804979415944  0.9531048643112034
  0.1130446186043755  0.8483849996012621  0.2344132048168510
  0.1685840083004476  0.2758599500360436  0.2683988387167627
  0.0724663628083414  0.9370571852145013  0.4264043824948860
  0.1001856559608477  0.7246295016972217  0.0319961939973012
  0.2105084257678186  0.1065747401408520  0.3896873963747941
  0.5269911355473793  0.9534977715692057  0.9222992259700141
  0.0572278665700794  0.5337896328834676  0.7494930808295919
  0.6144188147855557  0.4226115834055502  0.9041224005658257
  0.7070073698283528  0.9733180623202738  0.9799571046855031
  0.3347849481727868  0.9110165851921882  0.5299754570658272
  0.3089728860107151  0.7599369847544791  0.8935300880382684
  0.2558565336040479  0.6598577462852430  0.9982810212955321
  0.2129618179408876  0.2009232724943958  0.2507101454180283
  0.6598772174762930  0.6996358901810599  0.8444225821614137
  0.1214653884247195  0.8845801220723875  0.0369363878860254
  0.2076700906812551  0.6631686106547539  0.5628942113816436
  0.4151416171651481  0.6053495942556441  0.8425410322010252
  0.2999460008101747  0.0191940210506546  0.6020051644425398
  0.5782724214951921  0.2840936030144915  0.5771141583200176
  0.0829586571321042  0.8951116431487360  0.7776288067254646
  0.8508442745930567  0.3156109511379493  0.6072020398152115
  0.3970928613735834  0.8255113930019358  0.0168416897110104
  0.3343949707006154  0.9401102977156188  0.4019175443573945
  0.6864790960589474  0.3718475153513043  0.8786317311827211
  0.7685295915591883  0.5659741251418325  0.7050214215434565
  0.2110417997934369  0.4228928979344845  0.5389321673343360
  0.6960935010670923  0.7404687325485231  0.6856311549436842
  0.0935584951752298  0.1776542790368535  0.9317291771547963
  0.6650223782125317  0.1026767028943033  0.9717575681867959
  0.3926473227235300  0.1736486569207404  0.5764162989517827
  0.4143756762368054  0.1872604440889650  0.8180951822777752
  0.0661669455375516  0.7706053786265032  0.6057112427587598
  0.3316400917572343  0.1828544912825368  0.5622871653575847
  0.2111403154899528  0.7091039698182087  0.6039775195931728
  0.4441639340096822  0.8527802478515586  0.9146397067581395
  0.1730322801454295  0.3223722368876568  0.3102290791153516
  0.3533173366649952  0.0650705431330117  0.0425298149145265
  0.9377204105001914  0.5866530119468260  0.4270502897028893
  0.2081904182859478  0.1716119014119446  0.1426391428467686
  0.6600022611537117  0.9848670320773009  0.0140544077290487
  0.1183368901511805  0.6618884561340855  0.8866725204503108
  0.9909354597070172  0.3006468484778963  0.8728741390987702
  0.9185622984338877  0.1353847330348255  0.6568389851302523
  0.6199809149108175  0.1248760341941691  0.5526461705431307
  0.6838937561424470  0.9253536039741083  0.7572031962247801
  0.0589563497685986  0.8463268746232315  0.0978201386865843
  0.4258326074055654  0.1739787144511043  0.8814023049561465
  0.5303192441119586  0.7663047177722775  0.6259170750190948
  0.8006085155357909  0.8894684510570913  0.1694123214966140
  0.1775194829278815  0.5552282190697386  0.8957888327002744
  0.7623776931212759  0.9972487172968545  0.9283625718115285
  0.4327054391436944  0.3086551207384987  0.3482646021625789
  0.0996146461591057  0.6653367766302304  0.2882834311337230
  0.0441008478588750  0.6163285929697189  0.3408123457430351
  0.8420409526316248  0.2473765620193249  0.0525057981845431
  0.9064069864253106  0.3066922901170290  0.1683568280846926
  0.4597995279829115  0.3266310197398790  0.6443518778378218
  0.6976888674948918  0.3410056008834955  0.4298818438588525
  0.0308005640690699  0.4617602206610362  0.2700739633374461
  0.4320117309136204  0.3923254381895828  0.5618312979076705
  0.4417603220768121  0.2499106145812397  0.7614293851489914
  0.5876157830570797  0.3130226118065827  0.0558533617741997
  0.6679685728641678  0.4531870935793738  0.0314688087266866
  0.6450190080146336  0.0279160379059671  0.6235302535444628
  0.8487107234434924  0.9260626967114133  0.7125832966792478
  0.7869710218991217  0.1559209718724675  0.6077817587754040
  0.8695535414771897  0.3166459765099366  0.8309745221860922
  1.0106017635478859  0.6478768859223677  0.9485901566368955
  0.3584909449193698  0.2813794401720924  0.6185208575482352
  0.0679311418424011  0.5219125661662178  0.8099043750016180
  0.1727521831276744  0.8191716987955376  0.8827247596150470
  0.8269146675860415  0.1127451907048841  0.7979298908933232
  0.0457480360186823  0.6474415032433208  0.2158473204582872
  0.0794854698198116  0.0189504717566390  0.5790296270077727
  0.9975528511775402  0.8494129316319277  0.6548385147701838
  0.9215306353448840  0.9992692560210812  0.4668022533891020
  0.7938772128937247  0.1848482373862862  0.7201569931524904
  0.3742227786451267  0.3230997479015124  0.9640722211813115
  0.3314041364537225  0.8296801008210802  0.0561416847336440
  0.0324732051344713  0.7220957680708248  0.6035997507749863
  0.2796868775977312  0.2808324438553190  0.9194713569406495
  0.3562509829470750  0.6026888308783235  0.2773115587776948
  0.5780101693745292  0.7244078825689162  0.3170928066757271
  0.0664823803653306  0.3690137942006102  0.7776885451699247
  0.3980286926742195  0.9720812204050692  0.0920357021841315
  0.8436808234904515  0.1890364147758543  0.2985244547683464
  0.5524212705948519  0.6684034309618084  0.7626374078322135
  0.9888682375119827  0.6018259721260260  0.2698227314286994
  0.2930721216149671  0.1693922283527042  0.6646897192957928
  0.0700202583503552  0.9043223598783966  0.5602154638840068
  0.9947550123039995  0.1234105758071992  0.2549405791562083
  0.3149201110435864  0.1115783588698544  0.6845416772452484
  1.0049731665173409  0.2312689383447807  0.2826122504042227
  0.2188381627563071  0.2616135755947702  0.2344065961826943
  0.5710861252307032  0.5392636896967566  0.8679320224174754
  0.9881841235800332  0.5708495554499254  0.3910715152996297
  0.5585447988115060  0.9727975303334273  0.0305316614944644
  0.1117762639806283  0.1394713068164183  0.4617388072155376
  0.4475967754213759  0.0305485141108230  0.2940568521627948
  0.0380706640433773  0.0164156100638223  0.1238357802529436
  0.3965988953240170  0.0143222595064983  0.4568050696693573
  0.6986230226147477  0.3828927474987232  0.5443184928300629
  0.2403077395238200  0.9734285261277595  0.1563774524946702
  0.3045149848831533  0.1260213633429125  0.4521974619050362
  0.1445752230351466  0.5679767217726980  0.1053836237956473
  0.7086159038984392  0.4164391656679737  0.3449469887854322
  0.1456660599008208  0.5356443444690971  1.0005554529215250
  0.2986376822331195  0.5196566300410381  0.4539913259983215
  0.3455056958993383  0.4780155623159912  0.3129855563283903
  0.6931102247753829  0.2824790580834797  0.5635711881011684
  0.5170009105903576  0.3490508361242816  0.7710383538445104
  0.0904146471433953  0.5394118422149998  0.3219571679729678
  0.8375312641767716  0.1010244885958133  0.8593502341991820
  0.6655278893530080  0.5383106115681126  0.6236867065432506
  0.9254582979751883  1.0109070876927926  0.4015033981549916
  0.3102089626882932  0.0925075855853184  0.2566090760525130
  0.3837953638870805  0.9587196550351772  0.2410734962258126
  0.1013428149865819  0.7092215428592809  0.0996753849469873
  0.1441711281204884  0.1520793673354313  0.7862691096179437
  0.6571280785763246  0.3906943202061416  0.0399350435521764
  0.5922568886660974  0.8596170281012562  0.4539482028727889
  0.0731198845450678  0.2347551722621566  0.9121563900568612
  0.7184611687276072  0.4873079499409423  0.4964009345886446
  0.2582975873066127  0.2410652038430435  0.5848126671012042
  0.3770582499743871  0.6716427154280618  0.5989032571350453
  0.2869307050577508  0.9862357509201637  0.5466634340855978
  0.4549319948119739  0.4457561979802400  0.4677629151106218
  0.1013772913229102  0.1093059591567702  0.3553765908655949
  0.5660891647184130  0.6245348015805983  0.7218146005013834
  0.3277775352153291  0.8045365221354263  0.6625971096483562
  1.0022263124746098  0.7699567053480842  0.2800864451700218
  0.4570062783775695  0.3873630503579682  0.8581735541597515
  0.6844625976624906  0.7536405046464261  0.2312693040385562
  0.7298441152404370  0.6141567545685237  0.4623106791318788
  0.7069122737721388  0.8894444198171700  0.9440599385509876
  0.6045524593738583  0.9931856253506143  0.1151660916927920
  0.3457335524080788  0.6250455225246158  0.7575449908413203
  0.0500951631565560  0.1685651259972901  0.2029224750167206
  0.1019776278089792  0.1899310771022847  0.0406038123681361
  0.0259762957101154  0.3761361989715738  0.1163224518827794
  0.2715135068226300  0.2462972245306869  0.4292656956618957
  0.4719636601276100  0.4959476184444239  0.8433227887515302
  0.1596077388511210  0.2632345755374945  0.0998266281283126
  0.8006148102583994  0.3345947920153262  0.5289171641310700
  0.8538988691780164  0.5983456295825387  0.5604277651451294
  1.0120085035109336  0.3066141130855657  0.2048566831991299
  0.4183773976063563  0.3070336909478109  0.7454371809185453
  0.7875733316881076  0.6454906264868702  0.4754035009782194
  0.4651995998049758  0.0813160020780860  0.5715543074211905
  0.7544391119974100  0.8893144249783836  0.5023804773244969
  0.1644026879077427  0.4131500655214115  0.8057948123646254
  0.1012881909761430  0.3193447302071054  0.0181666813870452
  0.2626278954067175  0.7417302582439143  0.3769179150305592
  0.8049200716396042  0.8747480734538257  0.4652477935632734
  0.9376676257840274  0.1620712762062089  0.9953911738979622
  0.3353146049094896  0.1186057457347312  0.9178481258908620
  0.2752031862147965  0.8335918182220011  0.4669412211398970
  0.6996899937392501  0.3274198426854727  0.8349527549231460
  0.4144839009250843  0.1410316756512507  0.1037033651398420
  0.5275656066390474  0.3662689257800482  0.9446317757287551
  0.9864602578005621  0.5692387325143071  0.8661104307258982
  0.8956901058307128  0.6240469126850697  0.6612523219875722
  0.1478187178555250  0.9053018820321752  0.9796865527235046
  0.7784615974775931  0.5859042145419862  0.4896455436090111
  0.2839160789980757  0.2923942410683431  0.5315273056120078
  0.6859391019350165  0.6902469203002233  0.4785195194087621
  0.3430790837734333  0.4478000387352939  0.4314997570607423
  0.9092983526984710  0.9127561810950831  0.6145803696665773
  0.0272863154868777  0.9511021430320556  0.9722017298971301
  0.2497902752661454  0.5694364023825760  0.3687070767887678
  0.4307096888551097  0.2619631031211211  0.7022971999642674
  0.8008973895584599  0.7781052555601342  0.6121482252360869
  0.1200033321100322  0.3422622757450052  0.6318732329782741
  0.3746883407409119  0.2460396285194693  0.2338524970285884
  0.4018781756158317  0.9026891586838756  0.6645706265306414
  0.4204013349528770  0.9549328380244815  0.9403506858178683
  0.7845076159761902  0.6234881915463637  0.6823194134827321
  0.6942648224209961  0.6150960170130032  0.9797377163765492
  0.1608078761202720  0.4453166869155025  0.9119542378778666
  0.2274007428116866  0.9259568555689991  0.4274911609741784
  0.8332916853877459  0.6163367034104485  0.2671246728416630
  0.1717632744877662  0.8951234703875185  0.4171622335965753
  0.3382439162297088  0.3691994240480482  0.2929701667316257
  0.3324803878872346  0.2692516688613054  0.4976704985867244
  0.6755157409917715  0.7765631381768935  0.7260528477841262
  0.7030883186364879  0.3720011470478835  0.3030349044954183
  0.0447520343721345  0.8450617752329393  0.7671559664590649
  0.4626803338980195  0.1189580246037164  0.3790281059429025
  0.0345410063946838  0.8138436699634662  0.9915281632149925
  0.1071962505403683  0.7398879734780011  0.4436983337227224
  0.1269918398123839  0.7817101182221863  0.8092598001234615
  0.2248630647575344  0.8256215194594005  0.8468030350555399
  0.7754859639194086  0.0513729656625442  0.2660967075160844
  0.5730688464146328  0.9598586364217034  0.8814980439823826
  0.9578490805161475  0.8970078934371304  0.1129689598573757
  0.6030665152824848  0.5483985223261443  0.6000893848909616
  0.2473513161172273  0.4510632079773327  0.5963713871600265
  0.6562885596069289  0.4110449366535620  0.6953486796898776
  0.3035290457663029  0.4730084527816196  0.7324943913151016
  0.7266221860991395  0.3920334183195695  0.7765600520846621
  0.7446077357417753  0.7827326977406508  0.4731190210663225
  0.9549352022324944  0.7252456180642599  0.5707222047327177
  0.2128193796220645  0.1840622108948527  0.3137184720125163
  0.1194185883003518  0.3064859845329192  0.2405863462396977
  0.9243327021310846  0.4306777230173490  0.1286904718439630
  0.0931359393649249  0.5703545834262184  0.1981513539442682
  0.2480292367754839  0.0317980802967369  0.8478065873827928
  0.6110008682371648  1.0032661417460846  0.0473013881922116
  0.0778272454919842  0.9831251029101133  0.4697153759970373
  0.3117451493285749  0.7113680659130724  0.1753359803652128
  0.9259270605557963  0.4631741632830253  0.4599866098550206
  0.2084189286931657  0.4395710296147645  0.4854714062802296
  0.5042133747662831  0.0286247901969388  0.4276174459875574
  0.6755500963313046  0.6252524068437807  0.6998917019510218
  0.0291245612742858  0.4265715272022199  0.1629144440841499
  0.5861400757398807  0.1449318851420012  0.7127643787464737
  0.4516747041289103  0.3866991486960541  0.0282615514004504
  0.4040603747799104  0.5251032748728440  0.2607020414635167
  0.3287293677657731  0.9286154272161491  0.2328995193922082
  0.8230986823020096  0.6766526861076270  0.6840628638046689
  0.8185560406765798  0.8886857761320078  0.9323288411992519
  0.2247066927444029  0.4065503481127253  0.8281983995648743
  0.3921380685436019  0.4010140900523319  0.2989770606248823
  0.9535858501990558  0.3651681639298239  0.5700464806282782
  0.6932493086861363  0.4625181553352151  0.6997848862997281
  0.5820653942453473  0.2164832661765723  0.1990650560810585
  0.0471687331327291  0.9611854104795622  0.6929899786207908
  0.3640727939859232  0.8537085625615127  0.6658140287070219
  0.2026481924226957  0.6475099197414160  0.3886494219600864
  0.1380540364010601  0.4930071533290731  0.4087560761919091
  0.4739226495268414  0.1715519801060154  0.3498110661149413
  0.9347529868333229  0.5651772085067248  0.9027386201542107
  0.9776587550845800  0.4626561330187702  0.3652858485054902
  0.0823435582794509  0.4626151294291754  0.4006412487545795
  0.4468792664029300  0.4316211384996317  0.3063637366535146
  0.7118386307535698  0.2826817988327170  0.7898952334886210
  0.6389435957494518  0.2657497577228980  0.3761979314804225
  0.0515223991209919  0.7246765214255371  0.3705305861415596