Cr Ni
 1.0000000000000000
    39.4861997199535253    0.0000000000000000    0.0000000000000000
     0.0000000000000000   39.4861997199535253    0.0000000000000000
     0.0000000000000000    0.0000000000000000   39.4861997199535253
 Cr  Ni 
 1596 3725
Direct
  0.4616154314171527  0.7170632087253622  0.2670352485163336
  0.4646400415815052  0.7930118380236291  0.1922796776758445
  0.1501376786330844  0.2541383592524538  0.0886605550192750
  0.1311209064707435  0.5085456654612377  0.5007256266673155
  0.8421253393745040  0.5755508767168215  0.5541572125746972
  0.0562604298941273  0.3288065672035185  0.2023245439431935
  0.4359969447730907  0.9310132220908593  0.1072387720808572
  0.4340469492967700  0.8886344517104239  0.0601472488640469
  0.7769022493865284  0.6320397545738946  0.4569309266310693
  0.5007569263056484  0.5771659684253271  0.0375538636790336
  0.6691213844092144  0.6512176269171349  0.3565236008139337
  0.4970452320166665  0.5171981068154520  0.0501011875504505
  0.7462131737123208  0.4065093116795878  0.2383689094761731
  0.3218757934454862  0.9716820512252353  0.7824445100576471
  0.4354757989570622  0.8059656455009492  0.7961136107409504
  0.2094445324631153  0.2832523901319245  0.0987733989632658
  0.2828393795898992  0.9226445395239674  0.7777008702973259
  0.1051106642279694  0.2819434025256711  0.2924008856414973
  0.4862580435103927  0.9163414562315396  0.0750855997916766
  0.5052819214806173  0.6083988565198022  0.1434302396736332
  0.8242531174027863  0.6214426180691244  0.4181752992438909
  0.8789337189175359  0.6658018476387297  0.3671682060708129
  0.5465169023577027  0.0316346392996725  0.5573883976726682
  0.1523834466169367  0.7611825936286333  0.4418938699155503
  0.6646846420751346  0.2269216337757916  0.9354547226745780
  0.2870954964483114  0.7594206106382498  0.8157337738139395
  0.2424839165664796  0.9073632096959106  0.8797430559949715
  0.1965113190430288  0.7043761284116854  0.8425099002146629
  0.4583362669819946  0.7215649979644156  0.0372298295231790
  0.6739548977231062  0.7573866330531310  0.3890990274938839
  0.2236447793250905  0.8982961771328246  0.6491166626503830
  0.2890360547030516  0.0243936272991429  0.0291258551657437
  0.8156264643244264  0.5306138117997820  0.1045659983478635
  0.8249762569414982  0.7207911246136612  0.0497365124595036
  0.1393464358495469  0.4449933615376663  0.8388303427186535
  0.4058831129111249  0.3233123737990077  0.8420767649756441
  0.3347082698016155  0.5294918668296472  0.8910624157642477
  0.0453457565833237  0.4447911483081703  0.5329136604700330
  0.9438401724130948  0.2356554615904755  0.8600714133802571
  0.5358092559025068  0.9447166406600256  0.3985978408191655
  0.8013565316964789  0.2449339494081341  0.5930806941137845
  0.9542914527766780  0.4107756962568700  0.5526209180996766
  0.7559186490084544  0.1087800161545146  0.7651068172871486
  0.9065939791611872  0.9556149748650741  0.3408556744108780
  0.5337841719599700  0.9169127081449496  0.5274810513011207
  0.1850591093422537  0.5865099415244382  0.9200269094171447
  0.5100888355741283  0.7473041663639721  0.0506536172243796
  0.0793698633214569  0.5597029660862944  0.1836219438898991
  0.4722626349768658  0.9366795987969654  0.9560081596051218
  0.3271661765038927  0.3209263876542136  0.5889646111911433
  0.0033925285320721  0.4012105999225670  0.5179717879162141
  0.5624806900428764  0.9447022709543040  0.8696799879046031
  0.6474124866967493  0.5229784500929047  0.6135467643136111
  0.1094012999010134  0.3266950312934882  0.3348589332443432
  0.6581031391844371  0.5074963919266228  0.6706318089416464
  0.7336732653937224  0.2435420721539566  0.4624263701367627
  0.5244039710584053  0.0380676054328320  0.9295611516975885
  0.8723011978888970  0.8394773507580033  0.8342572350195814
  0.4371528359154746  0.3526169813169301  0.0750523807869490
  0.5595588217152440  0.7314570200035033  0.0152738444437471
  0.7267955573711877  0.2421830951275749 -0.0029283756685566
  0.2086394048501789  0.2741964514943818  0.8886981189743782
  0.8131990092330567  0.8429854680635942  0.8094182965501944
  0.5534371088270787  0.8867674532548085  0.6446719138139543
  0.4822500638105024 -0.0699607701196787  0.5591540538884585
  0.5310524812439068  0.9040197789542821  0.5862102803997469
  0.7713487060201007  0.6095048767462434  0.6713326156049134
  0.6839726825662824  0.7223766857539345  0.6747189691334002
  0.4422958948481430  0.4978205402028106  0.4388836272414699
  0.9474751272785520  0.8633354173587576  0.3944251549585037
  0.6384006347368673  0.5644599714213684  0.6539776977725199
  0.0770201114776415  0.4779904495325489  0.4918910336530977
  0.3477374228336283  0.0992381986215164  0.0857288982430860
  0.9729968741088391  0.5570789244206300  0.8561913856984232
  0.3180343232860164  0.2632339981548561  0.4864316049060325
  0.1384979232762539  0.8875231566267825  0.9656993397706700
  0.8443573364445417  0.8804691689270167  0.5267095620062896
  0.2803514337743754  0.4713927500434020  0.3965810687755236
  0.0158728685177567  0.9378654817860288  0.9618882206494629
  0.3549483504926368  0.1649253777901888  0.0670357507206692
  0.3073447733805963  0.2222500530988151  0.1519794641209815
  0.6171128722163274  0.8084956856030746  0.0704542980137002
  0.2113211760155026  0.4270495340117050  0.9275064573761792
  0.8223477282829968  0.6095184270940113  0.2530891964203111
  0.0697761643181136  0.7475601074047981  0.8954039819774959
  0.0157855734303722  0.8840036764355085  0.7453951399008042
  0.0373226410051593  0.8285455992113220  0.7576440995396578
  0.0118576861848033  0.7946578937391080  0.9747794411823241
  0.0952848024648516  0.8240109499551067  0.7837560573362101
  0.1348404678142796  0.6034447453567650  0.1335133758118449
  0.9093520225637046  0.9452448150060930  0.0894889623673062
  0.7704039661657679  0.6996980316354414  0.9854580410360190
  0.4139056333086643  0.9372950276415264  0.9328916780991260
  0.6764017207835114  0.5976442394103928  0.9779253815629261
  0.2158922024307190  0.9142280241651977  0.4150536680842344
  0.1572026957248396  0.8364119547238356  0.3572992495313986
 -0.0004520990221485  0.8362735773972049  0.4182779933204221
  0.4954895309740038  0.0632425507989494  0.8047839906164438
  0.5572533138068694  0.6375655315077928  0.1527977713456967
  0.1418527525242813  0.6800165609209131  0.0559385340654424
  0.6929338791569880  0.3776231861343636  0.2302983557512309
  0.2913678515349594  0.6302715702991405  0.9490323044971553
  0.8125549257866149  0.4984803234610121  0.2283023824993295
  0.4471236768255421  0.5295811567067558  0.8731513576248668
  0.7600965183356222  0.5156444851138903  0.2612793239970304
  0.2251332369967006  0.7456585790572381  0.6202876659942854
  0.7582974251012022  0.4692687598841114  0.4406678395589724
  0.2602390208012739  0.7975914328508579  0.6099629542385950
  0.0168318176202976  0.2734249876833200  0.6589753986172369
  0.6618650383039653  0.5744841939507308  0.2075039253148008
  0.3504859758303748  0.7039586142757460  0.0682955230421842
  0.8091970092711981  0.0126299712147169  0.0449812897163576
  0.1122432876881077  0.8527513599667997  0.5660619967649455
  0.8198179566064938  0.1478060167899702  0.9500618065843813
  0.2549370231622618  0.8385382314255759  0.1641442805988251
  0.9355525186656140  0.7785154378581505  0.0676638339688008
  0.3184830162669006  0.5544728725012539  0.7692738676600033
  0.3419461337228167  0.4839607698474466  0.0161888063978987
  0.4708497129970788  0.6735683529700487  0.6669152801314088
  0.6978663995742831  0.6897917304316300  0.7961869190982667
  0.5912797648974860  0.4532112215840404  0.9347760055480482
  0.0137780237707001  0.0345206763365701  0.5370106686908429
  0.1535601898423220  0.1581765642866168  0.4575529665531440
  0.2815586015138414  0.3725322296766497  0.9024582822956075
  0.3742755184374795  0.4614230941323220  0.9767809945160001
  0.1540486595958004  0.8177663841630184  0.8062688916067113
  0.7925226198280516  0.8918250733876125  0.0894975034190820
  0.7337842421942384  0.8113676668408095  0.9518307118202944
  0.9378974862211971  0.7956572028885153  1.0067738573965339
  0.0620106519890403  0.1802678560213638  0.5362755762789057
  0.9714469215562500  0.0553720046309009  0.0274993362137681
  0.9771934595688234  0.1005370484536498  0.0722266818641273
  0.6993002179586089  0.4369603010276353  0.2105384380863566
  0.8087087657343971  0.4855616565002592  0.2876346162846689
  0.0283399724043023  0.0536748125657808  0.1624948132569669
  0.4094844838474603  0.5777083424063637  0.6308249215759638
  0.1124376185544534  0.9315137698188554  0.7728894973186788
  0.0708999173522649  0.1212419442933970  0.5880083967794036
  0.5004942381189088  0.6337459482485549  0.8515391905982652
  0.0950130008831352  0.8230697936429862  0.0571071621396822
  0.5923927361813089  0.8139574368985824  0.7380764528622635
  0.3940441654940024  0.5095779717438980  0.0275969664522685
  0.8396550826458614  0.8503838964794385  0.1874733291298088
  0.6393940716277322  0.6967026103651717  0.7753333269677922
  0.1268098421063643  0.7493467881816565  0.9192585761690005
  0.1514337062375464  0.3147916145593196  0.5287521970867139
  0.7066222324954672  0.6770938906913991  0.8535803621302589
  0.6655628683284782  0.4649468129676945  0.6289189858998252
  0.6432281755814004  0.9910051136372452  0.9377980861820575
  0.7097655966708586  0.4329980984258223  0.9765680414883768
  0.4766225512808924  0.3689683879581837  0.5789531748944805
  0.4444455100063562  0.7078955145170190  0.5483283227378806
  0.6051576204121056  0.5349995709506232  0.4880674843443172
  0.2655264210425665  0.3620914181290678  0.6728010780495552
  0.1934173149712499 -0.0047152141606295  0.9461211508596596
  0.4354879429493726  0.6209788926079810  0.6670912877054714
  0.8105986667965370  0.0642437796107217  0.6824376308879077
  0.0402598181668943  0.1626769843920545  0.1927612025306059
  0.5937662736788709  0.6278401739923235  0.6103069706782760
  0.5508326791424850  0.7878497792240960  0.6185106674610364
  0.7491048111816372 -0.0218730817385732  0.5759211931842740
  0.1842631374559495  0.9106035402413535  0.8588154387398085
  0.9053884827583835  0.9023155215376791  0.0398422166002640
  0.9239857190550618  0.0519028945605365  0.6696483287780955
  0.0313279358998666  0.8616937060679606  0.8671323026919200
  0.8893642102497402  0.8391098642916683  0.1491333249521519
  0.8781238760087771  0.1474617242958142  0.0837303829149364
  0.1806084389611635  0.9806359048200526  0.1807584361357044
  0.1447858544095273  0.1254008405296261  0.8378846796849462
  0.6779226998634758  0.3262849741718853  0.7592081960330582
  0.3934700049311732  0.0350377392632018  0.5470681931768087
  0.4984888695464268  0.0554305410189957  0.9769815404826538
  0.4488794623021651  0.6137324932474907  0.4674082101984548
  0.5665967529324968  0.7909181137729883  0.2290825021662701
  0.1556295022549789  0.8058489446230380  0.4818911817660065
  0.2897153327058902  0.4389107281753410  0.5462271204580301
  0.0548555240883159  0.3234261597110167  0.6601749360568133
  0.2401551138664077  0.1268587871959250  0.4830474897565602
  0.7371957795010278  0.8653434942058010  0.0849881598301326
  0.0872363247105110  0.0818280865921683  0.4036241780099512
  0.9683468758962386  0.5952021616426152  0.5437017095396984
  0.5076310080963330  0.7012985258176788  0.0047060202743154
  0.4530703574671260  0.6759770232245474  0.9964697443861548
  0.9558856280694084  0.6551949299821948  0.5168753187806066
  0.9312685880222487  0.6420141288784820  0.7169303863336052
  0.1021162977582469  0.7715957592739835  0.4774718168935908
  0.5376054755884974  0.9033657288646686  0.0427500727225163
  0.9808874266780430  0.6542850339626751  0.5718841494042639
  0.6242792624759493  0.8507504421508491  0.1134403881677054
  0.8312653340988834  0.3900564999387834  0.9169348049584675
  0.2867370891128270  0.3068160127841170  0.6872793301512796
  0.3191697296775188  0.9452671778655699  0.5826884832071649
  0.2838881357605872  0.9911324237648614  0.1530294596897341
  0.1602300912550482  0.9174390026862026  0.2801837627325588
  0.4697680054698437  0.0050187248753683  0.8633549667580889
  0.5659062287730596  0.7012231303293552  0.5302381013874564
  0.0210071904023812  0.9814101971518679  0.2496865448094286
  0.0213441116346954  0.4605146862444325  0.7960276524854611
  0.6205611832168191  0.7301599982147977  0.3760635488326670
  0.7069667806584099  0.4997631149875940  0.4177120629829861
  0.7567235100192274  0.8652963192489936  0.9623052695594732
  0.8536858421544247  0.9720060450966065  0.6110121197079431
  0.7513283820354706  0.9891476954717182  0.5149579151649105
  0.0758300357751306  0.1113767428713743  0.6478222248519789
  0.4552935557518775  0.3305934635263735  0.8018771075472926
  0.9732313475328652  0.0675768333866227  0.6296004156050264
  0.9087185110361019  0.0200825244842198  0.5570530844458460
  0.6718732361349860  0.0893822618630563  0.5704785075924997
  0.9924711441735478  0.1924101244403878  0.3932510086012917
  0.5348570416208837  0.9599898696660867  0.3374351607264395
  0.8866256305217757  0.1793961072548914  0.4182420742579219
  0.0693108747722308  0.4956046836429193  0.8571029528166854
  0.0830209661952750  0.0394083876740896  0.3600281540287674
  0.8016389220353559  0.9720574233435859  0.4774145454752696
  0.2094928717815955  0.9024540689189282  0.2455359468273166
  0.1164031203072409  0.9780420948292626  0.3607634321754650
  0.4808596208143324  0.9599457942234570  0.2001291838955165
  0.0348759122822466  0.0698754744289413  0.3341497478939591
  0.9343740073357089  0.3420888870053336  0.6166046074329535
  0.5735328460645227  0.8368204860276780  0.2718024976549894
  0.9324887084570901  0.1295729894628984  0.2781996231157544
  0.0375660944061185  0.1933497489402917  0.0667526181886731
  0.4698862547935739 -0.0151544367619002  0.6603892112297528
  0.0773988295665172  0.0095645624522368  0.2526879324150383
  0.9808179629267174  0.6397778974839419  0.2999200461559635
  0.4419894872915222  0.9745405854345324  0.1536795339644549
  0.1815341884784960  0.7476513777515045  0.8837059886090389
  0.2283433825640149  0.3142200201951309  0.6659046734976475
  0.4941854449663833  0.0286667619241036  0.3482602123773731
  0.5441236499794743  0.0139554766398140  0.3141236545016582
  0.7113007548277896  0.0394262343259398  0.1191470548002153
  0.4971157292465448  0.0423038890265660  0.2855766775021801
  0.3572444184440327  0.2142110109851269  0.5624550998281260
  0.8772291368447013  0.5355806544950786  0.7368860100716998
  0.8983759012848747  0.4769818910615279  0.7533508281758604
  0.4663150103756494  0.7778132308452382  0.2522067418385352
  0.5137119342596341  0.1476253412659680  0.3029265558599264
  0.8775694294026077  0.1309676371319656  0.1444186417894161
  0.7962046362724514  0.4182083516785206  0.5503039735413350
  0.7959831274004229  0.2782273593799812  0.6959600816772192
  0.2634252420553299  0.8530923863213189  0.3338970646430713
  0.3673450473135194  0.2104250753046257  0.6209513569763397
  0.2443775510400388  0.1483556873572418  0.0953791785490182
  0.9552072360177805  0.5857305865323729  0.7327673185522222
  0.9730023925180172  0.5445837618644339  0.6585478941099133
  0.6713953176345311  0.1761435684908213  0.1199378492168916
  0.1044548484872597  0.2789931747895559  0.5210764567400614
  0.3154037853234196  0.8102079625799642  0.4184310903765314
  0.4890950827197286  0.4531702184881921  0.3026700781234529
  0.8402439366190625  0.9314707186528299  0.8636646252583320
  0.8379877466119833  0.8179366271649691  0.5421450314987505
  0.2107215030156295  0.2986898272303788  0.2653134900711900
  0.0468039903301209  0.7920384901950385  0.2743143351364389
  0.5648140090236429  0.3598002811741133  0.8900858539929516
  0.9185020652422297  0.0246449531971793  0.0142568729790166
  0.7271452652401138  0.5935228918833311  0.9946297513748750
  0.5839443194245907  0.8553531618386545  0.7810958117915832
  0.2239565152417234  0.3359011360713915  0.0687010919229021
  0.0270602864917936  0.9007040011860626  0.9156318399028958
  0.6069593100457590  0.0401883070959232  0.0821404111181432
  0.1663710250047924  0.9294121498336922  0.4493869443904380
  0.4311999280578730  0.4067486344697562  0.3538433674951806
  0.7095860823736826  0.9580664990944617  0.7465991686081459
  0.7430478598015543  0.0879594686427593  0.5937620311319021
  0.2187863154782588  0.3588171363471651  0.2462951076171880
  0.9289368771315730  0.2072861396957469  0.9718204548042134
  0.7929180400089879  0.1561370284485018  0.7701582671626058
  0.4811321208132903  0.4583319790544164  0.9532808063068602
  0.8689606342274365  0.1171469307696030  0.9761654953425526
  0.3621572073132223  0.2506517270143464  0.1632175577947829
  0.8022010057604874  0.1113426068532637  0.7256500416351180
  0.9887517498049155  0.1140282298134225  0.4723959291182271
  0.3157425339105224  0.7705302677507849  0.5433701560337781
  0.7032893524014191  0.4228756227635966  0.8079874963288136
  0.3628078352881602  0.2368628602474025  0.2233924898343584
  0.2979217302916322  0.5720106614551861  0.9703629131290769
  0.8703894925968981  0.1092408405107024  0.5096750186685122
  0.8253369209534602  0.6620943613826247  0.8976823647699218
  0.7388074038404128  0.7122349023040727  0.6893410394597420
  0.0482900306441959  0.2513842913519000  0.2819870308874530
  0.0208419881551489  0.0412986404580837 -0.0079680558713616
  0.7261266748407842  0.7749721208849384  0.2297125980650433
  0.0674024947439525  0.4197525075219847  0.2853911323830817
  0.7502118064298031  0.6684668765286533  0.6522934857482137
  0.8746220500008854  0.9720137827555223  0.8917616089591547
  0.3649877239374050  0.7767840271724906  0.4444634919104533
  0.9040018906769310  0.9185969214667413  0.9111210951319484
  0.2439023430970648  0.3223349604910034  0.8954092692839056
  0.1412115986178630  0.8612598168678505  0.8531438566875190
  0.7130356511112614  0.7740482036883981 -0.0000272570659727
  0.4927329245573188  0.4821939211889559  0.4078272975717429
  0.0813381946365025  0.4904852850928731  0.9799113115975036
  0.4711766256745873  0.2416472602849890  0.4871569193598242
  0.7838151247329664  0.7734913165722378  0.3648844384500835
  0.2804373346548475  0.0315262239204303  0.5160390116220406
 -0.0113164569295009  0.2089329550267084  0.1012174689257072
  0.1217650653820010  0.9829402896970084  0.0454113537076642
  0.6467554858811021  0.3641081821677238  0.5727799793569819
  0.1785945162176678  0.0523815155275050  0.4182213660588960
  0.1937218351612037  0.7094691980967536  0.0668285079260507
  0.4182212203578561  0.7335573381898677  0.9177032346621428
  0.0928064038922047  0.7140291917101796  0.5008955497410420
  0.2375587802317232  0.5764773996508300  0.2928539242918091
  0.0941676327529611  0.3390971641235225  0.5011669365437642
  0.1392505334824380  0.3710190458867479  0.5114440620565315
  0.4588984965914881  0.1518086391815789  0.4024926122134744
  0.0821045939781943  0.3953172151755989  0.5407291010029832
  0.1380579107043546  0.3890024248661529  0.5651494667580959
  0.7840404412935775  0.7565722036491742  0.4287888434894463
  0.7540112124733225 -0.0140990810454993  0.2788465900619168
  0.0739226007866941  0.5992738276977493  0.8678220958893299
  0.4692633696549329  0.8361162331839678  0.2372062027036020
  0.8820746571737856  0.2082239611235599  0.0643656479877100
  0.8955995365891596  0.8185446370978584  0.4415945773481267
  0.3774634462543051  0.3606191720654447  0.1831488727798528
  0.8366747203417685  0.8018135181119437  0.6023734502511557
  0.8195272976456330  0.7369385898215522 -0.0067769234392860
  0.9576519920150636  0.1229183162794182  0.6041026452023879
  0.5314994302172461  0.2419605916903654  0.6719503637135741
  0.2674780890961960  0.4199811308545267  0.9461012487853450
  0.4794379645029019  0.1515223017675866  0.8988924246647108
  0.3888547417401144  0.7653242231729271  0.9594491530417365
  0.6913626201043670  0.5685464383800982  0.8767831842299459
  0.6829162542804990  0.5811940646617543  0.8148967344995230
  0.9044467529877745  0.1524952424031712  0.7516164311187387
  0.6692486562070629  0.6230043187778569  0.0259395408387234
  0.5670943082560044  0.1961613024140075  0.0179847727103696
  0.3583414245207523  0.7953181684980151  0.1562867906209620
  0.4639335114215986  0.2065915855499043  0.1533184491092918
  0.0887045213705633  0.5999342279551688  0.9943128169180542
  0.3878849858351404  0.3143406355090071  0.6137920072646509
  0.4714325439705708  0.8677284984703910  0.3446818108865137
  0.2769861265941430  0.4056323880129962  0.1915844761784609
  0.3131342782429921  0.2701917179880032  0.4248488178504736
  0.0957974027060665  0.5231749708115794  0.7007662534417937
  0.8253460712435685  0.6769648890863202  0.0086224328063923
  0.0705641388390788  0.4640586877009144  0.7567273765732454
  0.2146639777529450  0.5468848472175362  0.8442842004878677
  0.1300669410209512  0.7221640784344818  0.7523036236665170
  0.1173751516771899  0.4990307933406966  0.8202993184213194
  0.5859526685876109  0.9062811715366709  0.0048257516724781
  0.2475351742313238  0.5851063205049684  0.9424855237912108
  0.3991211951059992  0.6081528105933184  0.1093157006648907
  0.5315554269055114  0.4307879850879645  0.8100662714628437
  0.3950000765505547  0.6264626524523258  0.9314369709520985
  0.5789018207116208  0.8672130762850662  0.3830320109405546
  0.5465161857650064  0.7272511218295190  0.9590882506005218
  0.7975844599554205  0.9266525091387410  0.4355479480672178
  0.5750378088540899  0.1293812911647145  0.7026157307558439
  0.7774435287694670  0.7753196286971946  0.1320775396020434
  0.0171042088232372  0.0172567375270655  0.8759905259785792
  0.3782245142314416  0.9427823561614608  0.4620438125269579
  0.2734120632565663  0.4830439958271194  0.5960903261684849
  0.6694002859043509  0.1315456488612291  0.3053022848562938
  0.8147648431710198  0.0870987796366164  0.9641051644585730
  0.6870084174610421  0.8792350049903969  0.3555704225626234
  0.2458047888053928  0.4764291892648079  0.9256598727784258
  0.8913517547100214  0.7740261489141839  0.3992584548719433
  0.1905418019867176  0.6057884542773924  0.5036910317216532
  0.6998744745775412  0.9815831931523248  0.1385030046811314
  0.6713906942659625  0.1631413453491805  0.1803243254503971
  0.1838131484646426  0.0719567765768827  0.0360819157631342
  0.1255135053746099  0.3839386399131844  0.0811216670759590
  0.2990149001663053  0.6725723313426344  0.0559164842469799
  0.7850016266816422  0.2020208906085672  0.8171313656588214
  0.5724555330993345  0.2235311981647332  0.3558145079507096
  0.3836795196880674  0.8094355240143480  1.0060812705122026
  0.5061403295998355  0.7902556956183364  0.8784974583591407
  0.5376891433699742  0.8635963840220419 -0.0040570263917975
  0.4291220002741151  0.3761097387959277  0.2540976449971266
  0.0588790302636652  0.8936724079411840  0.0648578472829812
  0.5948385824335783  0.9799608273093838  0.7002086882901489
  0.4956675485460251  0.0314387972669485  0.6962936179129409
  0.7626001403984959  0.4123330564056669  0.0017853421811145
  0.3581112553046085  0.0041183933075234  0.8843063917496085
  0.3268183169050294  0.1073057159758022  0.9058708636894682
  0.2571871830732090  0.4997545455366306  0.5382444182630699
  0.5462858799750552  0.1496454049936681  0.9160941166667952
  0.3477299463986383  0.6221278680278188  0.1446118740486190
  0.4412057071282273  0.2717394005333252  0.5268448377698530
  0.1330858418620701  0.1385163027052617  0.7765454864864980
  0.0324929018532046  0.0938535961479562  0.7505952156889746
  0.4872851581254078  0.3873928954012361  0.0925209736704581
  0.2739307656165267  0.1026006298964464  0.9459874060616192
  0.1049806163797324  0.8665385182895684  0.0915868678271188
  0.6404915198248496  0.2770895924457717  0.7563240927289374
  0.6862505191985114  0.1291838868491379  0.6837974210113533
  0.4867009704641271  0.0738163373124601  0.7417873027330737
  0.2281596272053142  0.9494023158498189  0.2080787637302027
  0.3143182994775475  0.0846883716411349  0.7349745333498985
  0.7948362946981213  0.3593884868817803  0.1046951085655483
  0.6651689960992765  0.8461105733509051  0.6411208900793781
  0.6804335505233918  0.8651403818499075  0.6986625111211262
  0.5974988955351727  0.4673627457136905  0.2799915926109020
  0.8630542051954811  0.8736465032680583  0.9525939898614175
  0.6981341197951044  0.1156132913776904  0.7435192527181597
  0.2311660230672603  0.2188764480161822  0.9025842214649441
  0.0537662521548937  0.6258040006081881  0.7351958064817864
  0.6206875426618428  0.2254895118815637  0.0328858864703059
  0.2315162188002177  0.7868020517417226  0.9587505230102046
  0.5573865249754135  0.6064393742351888  0.2762456511805149
  0.2030803456129770  0.0533478653960727  0.6483779310298283
  0.0359524147395147  0.6548790313450289  0.3696022723988441
  0.3225362196179565  0.0423061264427627  0.6900310251844700
  0.1813072481226643  0.0349221386375337 -0.0119861919182953
  0.1543901565197530  0.1166624528975442  0.9019858494091217
  0.4101897938922397  0.7126930943292412  0.7511774840712341
  0.5507581891893594  0.4695559942456409  0.5740010590901083
  0.0873473235385285  0.1427610484675302  0.9851459415315222
  0.7706651602888275  0.1470125538788043  0.0487722444270162
  0.1022708851518908  0.2688826796086731  0.1241099440878506
  0.6914157976219644  0.1968528154511973  0.8953677211292601
 -0.0173621971490764  0.2924006205840981  0.0201989908154073
  0.8913887731591156  0.8515327642446198  0.5499496543762095
  0.9834194077995886  0.6537435630692434  0.4663072281687047
  0.4733177972374468  0.3688876065845960  0.4582362504555480
  0.5493933189247826  0.5141005718427002  0.1892702489387260
  0.5534798495472492  0.1849693744742598  0.6864624275700135
  0.5514506763860691  0.5589353426060287  0.2317981712023235
  0.5705641078416488  0.2396774129441379  0.0632802175652303
  0.3517201432503395  0.6875765697499083  0.6244389429433984
  0.1785973962902528  0.5969777662962028  0.8567053361771660
  0.3429198456929181  0.5998940178749216  0.8040383085398134
  0.2521664398441991  0.4413736884989549  0.8223242705196859
  0.4186167159075184  0.5639465011294111  0.6899986976430104
  0.5903196432368568  0.3658912233288468  0.5540605272745497
  0.9318746490305136  0.1763953798019213  0.0925200842068829
  0.7640542344593069  0.1142287742407011  0.9395265541705836
  0.5562457733070482  0.5680628250146393  0.4559284790862005
  0.6634720273043399  0.6374879906713873  0.1903287819593330
  0.4713447075153454  0.5396501750057787  0.5452684282792111
  0.9612399379358773  1.0036520407745249  0.5263881273433491
  0.7021513445802273  0.6626346049276781  0.6925180341891863
  0.0343915167097582  0.9169064707729773  0.5694878827410378
  0.6245213891966874  0.7748127226180399  0.4207524430820842
  0.4427065938549472  0.9259133955519170  0.7179296638321699
  0.6717901289337741  0.6265878860663896  0.8541431565951489
  0.6929665457793226  0.3897870676731805  0.3951539277276854
  0.8156182267538288  0.9608316744575801  0.6660016482797347
  0.0852434426966879  0.1267766233711735  0.5333408208699277
  0.5758227798523556  0.1632941970678858  0.8109528696600188
  0.2356340606099125  0.0076580301377138  0.1885456553615469
 -0.0354736375640802  0.8290701368947385  0.9591163009726511
  0.5500250963046810  0.0983688013106067  0.4658421194122943
  0.6083613142931618  0.0620601933650387  0.7874774944178666
  0.1649066159896125  0.0358894527776315  0.7536670860699319
  0.7368873442027427  0.8948706975827654  0.1939111483395056
  0.3882499402695062  0.4696751438012098  0.4282576848735251
  0.0835975602480828  0.6187137396729905  0.1657822019187832
  0.1520597476035582  0.7775192540056884  0.3749095295223048
  0.1105411042704102  0.2291268955128160  0.8616047852861898
  0.2046565463295719  0.3703380640980813  0.6477917908385585
  0.2442024219543031  0.6534178847042843  0.2151175391273062
  0.1755994387378626  0.4502966252543760  0.1979756365114291
  0.0392006157041233  0.2478466898880904  0.7782178653266150
  0.1017372193886584  0.3400865772461154  0.5592581277002792
  0.7119359613867673  0.5593777788364414  0.1723792183952035
  0.8619929044735049  0.4823591799046992  0.1941002437496957
  0.3560123678180090  0.7481326238086395  0.1127838598747242
  0.2074915663495013  0.3146856252196981  0.4344120331951594
  0.5921934713086791  0.9725354846851396  0.4080815120474324
  0.8862223857413424  0.7944505140112268  0.1045044681510132
  0.3672430450946577  0.2817477931398517  0.2663023104818025
  0.2965929176914086  0.6391964016514152  0.4061890665383667
 -0.0139683420078937  0.1783899529964969  0.6110426782616313
  0.6214193710995789  0.1967962636729718  0.3832150528331957
  0.2339343180249115  0.4633996719611069  0.0401274644877580
  0.5244198276821157  0.3525380404025337  0.4196476620441615
  0.1251910283881842  0.3369598989465573  0.8502750573932437
  0.2863880685825585  0.5132870428411704  0.2137558852222571
  0.2667754984335043  0.3142105054701660  0.1064298212756614
  0.9382419162079553  0.7444081103264544  0.1900190934944666
  0.1830616749284193  0.4261417560348630  0.6298045137621662
  0.0422753860107833  0.3670928281025696  0.7042630643589600
  0.9777490936407169  0.6496581912318306 -0.0037535557099087
  0.4709485191893586  0.3211435688830748  0.4102088124926576
  0.4191706300465930  0.2877575131340189  0.3989106817708513
  0.1458400268887053  0.3783744949417329  0.6251897989927691
  0.9977005609441251  0.8140000976969261  0.5408872015350790
  0.2402499429054749  0.6396116860952121  0.5138378094657041
  0.0711438378286749  0.2370284913355979  0.5718727605936653
  0.0353998735576535  0.6506724642181841  0.1396045659531327
  0.6715312228948307  0.9434503284237896  0.8533380068595759
  0.2330248120782235  0.9177353559146501  0.8183490021459124
  0.3627655730964904  0.2215068854930987  0.2835187828197437
  0.5896663414320530  0.7230224947293024  0.9199349514184408
  0.8249823165520843  0.6844018571164683  0.1751845106509604