Cr Ni
 1.0000000000000000
    39.4861997199535253    0.0000000000000000    0.0000000000000000
     0.0000000000000000   39.4861997199535253    0.0000000000000000
     0.0000000000000000    0.0000000000000000   39.4861997199535253
 Cr  Ni 
 1596 3725
Direct
  0.3488350097858403  0.6979839786580929  0.2908970721929965
  0.6063424167401197  0.8009055904714620  0.7962383182390240
  0.9597168592311793  0.7667333568232182  0.9589458064977872
  0.9052932418505460  0.7646835978486006  0.9112092718093502
  0.8126696025905101  0.4390884042072211  0.9668684711795937
  0.6656643316062468  0.1314085025805130  0.0696677747349904
  0.9102096682322187  0.7359703979925188  0.8018963331245760
  0.7294915796193067  0.4791864092134765  0.7626514028698528
  0.9755378803024852  0.0678960416794503  0.1978190498137399
  0.4183806547104134  0.6576118341307439  0.5411130525852488
  0.7235787463217938  0.7625162783276099  0.2878051172422033
  0.4403553066207729  0.4978459210482535  0.2143125291521245
  0.9024632415750519  0.9850897020349402  0.7725597043717579
  0.4375792308490141  0.0720954528053285  0.7826834625440177
  0.3680425059129813  0.6466423908248320  0.5781736454322910
  0.4740504954181548  0.1238015838510602  0.7879115850523937
  0.5783461562869606  0.3306648305034575  0.3837168376314631
  0.5657512872460001  0.2082395531662428  0.8606749370197584
  0.9331553806619922  0.9032798561387260  0.6639506100527841
  0.3223713783791954  0.3878983151181880  0.8032952582717386
  0.6805141231242123  0.7899595612055363  0.6508346682208570
  0.8789253991936721  0.7178063967231825  0.4082910565792093
  0.7117483300507046  0.1940942919383588  0.6293920277926693
  0.2733503453067224  0.3828660174303910  0.8412578193792628
  0.7933681913797788  0.2777265223629317  0.0201616634693954
  0.2789650853155463  0.7719178357649147  0.7451468039528334
  0.2664245567794780  0.9155890230815071  0.0743461360144231
  0.2731777792500161  0.6503355150607065  0.8215362864546794
  0.4120999941821356  0.7793220043907585  0.9617729731797959
  0.6221911651249983  0.7759715016027764  0.4163213597240058
  0.2308442756678822  0.8993311394411755  0.6451981055034399
  0.3314215434702770  0.9884683552725211  0.1240780223369079
  0.7616954639034104  0.5210097895606997  0.0408703155610226
  0.7216719781602269  0.7045679993528989  0.0756258280287561
  0.1918998007012725  0.4452300289256667  0.8006580835860212
  0.3452769891457760  0.3324419273624254  0.8188224206766441
  0.3629187011031356  0.5740977448041156  0.9296907499732605
  0.0216914984160875  0.4065965495080648  0.5243540587148493
  0.8677555821721660  0.1365395460256387  0.8545005891632278
  0.5396123999636624  0.9871557379942451  0.4537517874207438
  0.7270761551041168  0.3024528166979868  0.6123767542901326
  0.0056803407868313  0.4447200189139094  0.5953909202904702
  0.7560922200441093  0.1083576510735893  0.7661251139435106
  0.7836336403716476  0.8206822945942017  0.4090271721868094
  0.4293419217018731  0.9799404985569173  0.4793933390710881
  0.1867279171594125  0.5801350429979075  0.9209908082857809
  0.3096814685154815  0.8207076366622422  0.3551564176787310
  0.1231656478002850  0.5225722556349363  0.4393362115931428
  0.4727208621858509  0.8897977207878416  0.9058981941291996
  0.8523193104901627  0.4363626271269134  0.7041155673362164
  0.2086756962700655  0.5532697683454540  0.7828274360103337
  0.4433863360563554  0.9589568605181619  0.8270921796733378
  0.6641999886966219  0.6558080514091080  0.3527669583928097
  0.4971019145039681  0.3963925698729263  0.9778566449998289
  0.9916669721190462  0.2083171781536141  0.3327973510105683
  0.8704777173730255  0.5167009408546150  0.5916020839735944
  0.0607319486144176  0.4687837756414959  0.6948339629057466
  0.8721152542684478  0.4713337397436701  0.4835206103436400
  0.9304983608027697  0.3721400549517221  0.4952772559513712
  0.9128382401056133  0.4351863312384338  0.4623761980254145
  0.9767315447794239  0.5164862626552319  0.5149128499749154
  0.5019328823064669  0.9804017364592587  0.2950209903858990
  0.7141693961349884  0.6403707814284267  0.3204815863361309
  0.2390387113409427  0.2657269326033640  0.6217817113356991
  0.7717135540287048  0.1796380586616061  0.6496251270451968
  0.9402094505346686  0.8018406438884630  0.4068637721655277
  0.3992323509907102  0.6264716991880858  0.9303715738703368
  0.8616736277801377  0.2395599723051987  0.6154394113659148
  0.7524887542427613  0.5031187763222528  0.3259070919295426
  0.9576745892031637  0.3867059845562987  0.1494988952680023
  0.9065893450091077  0.4058822810105902  0.1827136386949239
  0.8419835109240965  0.4528469585805193  0.6435869906794581
  0.6705802831942786  0.9445717402443011  0.8442986715049188
  0.8845843304793793  0.6258087160005646  0.5900034441248025
  0.2248182840356242  0.6109701036355314  0.7507558845659884
  0.9595559889169306  0.4560639501593665  0.3569205411600834
  0.6118114088842994  0.9488208782927771  0.6054835226787405
  0.7201837306809944  0.5869910465899189  0.0512934498538293
  0.8585707908085605  0.5736238249498880  0.8117884890720107
  0.8610914716343865  0.7119238308041362  0.6721574483724063
  0.5372159973526971  0.8038922069295376  0.5506390712946390
  0.5860720836269344  0.3591232477199040  0.2577827846074807
  0.4439314027614522  0.5582794297473967  0.1970013610652537
  0.5640753093812229  0.7979202646378597  0.2252391020150082
  0.6857005003266126  0.2671554965199344  0.5525287086762238
  0.7330560212892532  0.8674980361025755  0.3196200798991297
  0.7243195031333366  0.2861184144094127  0.5047592979549304
  0.6764165978878882  0.2531420181312056  0.4958200630452420
  0.3755037370695736  0.8458419521636417  0.8794219409368003
  0.3979138032009911  0.7901166546193845  0.8995524995094109
  0.9786771988280704  0.5550439848968302  0.8587684709382466
  0.1460462799313862  0.0561864680155556  0.6234065497528052
  0.3273527586337882  0.8093133665342922  0.8147048182925859
  0.5296958908075186  0.4643414226322337  0.9181693768064643
  0.7222541395000056  0.3176156059686034  0.5536546788078902
  0.9588129608050361  0.4626644629179231  0.7906450160736871
  0.9216841362951546  0.6094655916987486  0.2891256748816890
  0.4121055972326707  0.1740901293401152  0.3761326147284979
  0.4271718842011650  0.3699455533336174  0.6176637957000150
  0.3329426360147313  0.6833421574941944  0.9507613138075054
  0.8449696335999182  0.3461962143313268  0.2951212660292203
  0.2912597942066072  0.6810944335227572  0.9920788817624644
  0.7969793128524507  0.4109114020804324  0.3735988261187919
  0.5097030075381294  0.5192437935779436  0.8984562106483467
  0.7440738493926999  0.3941842280441348  0.3029995257919285
  0.2249134478899265  0.7495364586130348  0.6163486715508918
  0.7514533520812831  0.4885321682258572  0.3856461279466358
  0.2762492232586569  0.7524884986521825  0.5803001301970259
  0.9499932728506704  0.3244507699660017  0.6799659221147345
  0.7200723308230014  0.7314406616203898  0.1816300456109906
  0.3348823224286443  0.5241149062502591  0.9464162290973969
  0.8079015374466354  0.0803267083880912  0.9618133470851440
  0.1931382174708241  0.8206285144602729  0.5374413755919869
  0.8251899359218637  0.1390716157730016  0.9534241859583840
  0.3188577513094351  0.9748894968314736  0.1850489058436551
  0.9372185858761191  0.7857312792062510  0.0665625181073559
  0.3770595245856451  0.5478179017551383  0.7907642696673576
  0.3924282197165921  0.5072950603708020  0.0291697908110333
  0.4762595961556437  0.6783946071591000  0.6637519665527039
  0.7389503214981109  0.7735595051143193  0.8974805332096563
  0.4868321418928445  0.5280251218120733  0.0160130179784387
  0.1933111071469625  0.0818885599769217  0.4577639867715963
  0.1214392627438377  0.0798071708493928  0.4936511442857417
  0.7257587511977858  0.3471446979476214  0.4949190059602366
  0.4202933872900201  0.5641058342189619  0.9530514793151287
  0.0997968338741703  0.8227465711843857  0.7827976924912747
  0.8017131152168564  0.9299978972018471  0.1146968614493599
  0.7573268019846581  0.8096536433150576  0.9492620266131799
  0.8570052004445021  0.8226903760600637 -0.0139969902828811
  0.1010215830975834  0.2381359073118244  0.4773382810403056
  0.0262836295784055  0.0211174774950351  0.0500574512703722
  0.0264576387098175  0.0681826309922087  0.0969536155673509
  0.8065649068480971  0.5008125080849544  0.2314347400113345
  0.7548121685480338  0.5138258354088453  0.2647368164855791
  0.0827603432494985  0.0875001771666484  0.1717352263510462
  0.4784011946488008  0.5317549031190572  0.6121874090200068
  0.1168295968144811  0.9585315168190833  0.8795408651387457
  0.0499165702602242  0.1642466559774961  0.6301082274213829
  0.5309032169054053  0.6981504833537207  0.7867575120271502
  0.0754161624454081  0.8426276094015119  0.9775279982429563
  0.6198823566450263  0.7553503862373954  0.7517716935036504
  0.4943687622087082  0.4056332102298523  0.0342071006171916
  0.8909687348737851  0.8897226624221438  0.1913476195728242
  0.5463827902907816  0.6558991962149160  0.7447726220836608
  0.1438171991161987  0.6984527892551462  0.9899425720249843
  0.1532031926647201  0.3379664805561228  0.5205636023347681
  0.7267875940309401  0.7864839291167173  0.8358753966820934
  0.4240620043573740  0.9856548282560242  0.6996924502084160
  0.8081963598774905  0.9617743724223577 -0.0038826613831047
  0.0760864724126562  0.0447871092940144  0.3743481942298073
  0.3499548969114757  0.5861283071133189  0.6103320708339375
  0.4773199362707907  0.6500170569420373  0.5590046187672675
  0.6504952517809901  0.5807807732261268  0.4376959707018184
  0.2778981558483085  0.3487782223541894  0.7336945317776511
  0.1953864694771155 -0.0076479098453351  0.9470488063673291
  0.5557961790432331  0.6319614368383573  0.6358704320307490
  0.7616120299100723  0.0172279494419894  0.6155270718067148
  0.9827481626971540  0.1452282909785231  0.1175773658394178
  0.5960812634277279  0.6818648108754051  0.6428187457771731
  0.5316172189056778  0.6873634789728728  0.6218777733574172
  0.7298448717521876 -0.0242487186883743  0.5818014302170095
  0.1848888258770063  0.9084686667878992  0.8635481003652398
  0.8023465382458601  0.9483925578426629  0.0571772959494941
  0.9242293823788054  0.0609789514030300  0.6649773096112710
  0.0932634609058222  0.8500009878686864  0.9021592027578161
  0.9375792565352050  0.8285251647324902  0.1113957527596336
  0.8323634300966406  0.2216140694986453  0.0996096104395484
  0.1182687689799125 -0.0009415402835006  0.2264956248612352
  0.8307517478571302  0.0100991217862706  0.6964708276353409
  0.6470439458960744  0.0595612648675787  0.5740442120571237
  0.6440770328289674  0.5038073252881207  0.0036714047277760
  0.9454859227170691  0.8502030726386012  0.4504750645907574
  0.4304798859498143  0.2371012969748309  0.7514624072023072
  0.6251478505078499  0.8487835526506328  0.1054818226504649
  0.9067142930444053  0.5660230456442684  0.5984939230571181
  0.5182157736431940  0.5073597699521697  0.9654843192060167
  0.4511610272202374  0.6639506784393617  0.9915238327145188
  0.9242513578228745  0.5200437462034103  0.5561270953714632
  0.9714863555454387  0.7002663939168405  0.6234210377880665
  0.0623593540498248  0.7634369298435748  0.5176161838847009
  0.5336757981839800  0.9095587226277693  0.0355280781091324
  0.9325481212538923  0.6289394555132916  0.4969495230471334
  0.5147731567458639  0.8408262915096115  0.1286287122320081
  0.9509363689782154  0.3520874585111647  0.0447728593715152
  0.3088562784586363  0.2830197584722416  0.8120140960804079
  0.3195542204427193  0.9572626457606995  0.6107172589562671
  0.3826980965342819  0.9749722415615040  0.0163370155607566
  0.1870550223396466  0.0393787505942270  0.4043630918115546
  0.4083894333072666  0.0102403255977342  0.8460694488297676
  0.4529980402173596  0.5547534710601979  0.4884760089540362
  0.0596154708676503 -0.0417873623177129  0.2825158269599170
  0.6132016462146207  0.7025442221102948  0.2651532883942198
  0.7588948434782763  0.4185225654202181  0.0072385226891018
  0.1092017181416514  0.8093954630546357  0.5211259107955398
  0.3533376064338803  0.4185939429609240  0.6411492425737448
  0.0900447765645509  0.3800088293941078  0.5997691533147896
  0.1763480342793911  0.1199361205671739  0.5684956363363634
  0.0411571695641713  0.3905880132666514  0.8338541626977716
  0.6164076981166984  0.7662806053341736  0.2497288475438471
  0.6993681282405672  0.5540851604912304  0.4614694556605791
  0.1018351468293101  0.1297927250985454  0.4584254097734979
  0.9088497137678647 -0.0259802451813421  0.5726438496410514
  0.8073133065722375  0.0277525111089014  0.5193795047762216
  0.9636311382555933  0.1085857407523724  0.6730416157624204
  0.3755877412788655  0.3645359367365008  0.6564449541124160
  0.9741464837442898  0.0643232204314559  0.6285656363037895
  0.9097040815458527  0.0963423226366544  0.5417602410787324
  0.8595121056024601  0.0555457532277493  0.5313177491705762
  0.9921483986239897  0.1707862966377222  0.4583145870038488
  0.5263096649896915  0.9035781959277164  0.3528840006886475
  0.9366472077300717  0.2580604537709685  0.4738482464253002
  0.0895650426707134  0.4306868313738546  0.8783944122797884
  0.0146285450685091  0.0155082656153007  0.3644596804870677
  0.7998670501112692  0.9752053572109113  0.4871255568625348
  0.1157725105714368 -0.0107951126973395  0.2904732336453247
  0.1197663135084999  0.0102044613784537  0.4001334737390586
  0.5208231961689471  0.8846565428108218  0.1703698132715428
  0.0326805105186493  0.0832811696461538  0.2739217723588867
 -0.0018527685443311  0.3282168341468006  0.6372420856136735
  0.5713498197305620  0.8417383838047252  0.2681257098549513
  0.0200085569596233  0.0286215439455324  0.2949548376635539
  0.1040016309107521  0.1050923765150721  0.9416741357430111
  0.7677687947641677  0.6710789604242456  0.3306192157983174
  0.0688665503234054  0.0144077079614609  0.2608073511954729
  0.4469767414941788  0.9840374789313118  0.1577170729877828
  0.9911051845097730  0.2264722791239019  0.4890051975733142
  0.1599102742318842  0.6844656641132473  0.9386051480706524
  0.2881115240811062  0.3063590808190887  0.6897223907488089
  0.5050159936674776  0.0243067450192892  0.3383536448999369
  0.5553301103807490  0.0097708409549320  0.3027366811274855
  0.7092321438039865  0.0246819581665439  0.1758208441630048
  0.5077241532729337  0.0395022254136654  0.2771551980630125
  0.3229309996739982  0.1762303748572799  0.5379297628316860
  0.9506600824990236  0.4775304060412444  0.7352707801771059
  0.9128760542244898  0.4272121939638812  0.7291191647693200
  0.4620394169199956  0.7624126250613203  0.3108531490519891
  0.5119045508835097  0.0839248799544450  0.3201523240145378
  0.8757187196478751  0.1280851082151424  0.1434354579141092
  0.7560796971168225  0.3668962458467908  0.5522921981883883
  0.7797471680606767  0.3377226579151075  0.6807133761253636
  0.1968300305425705  0.7744060683431897  0.2740802215874221
  0.3702949423875778  0.2115402059442925  0.6250736200838058
  0.3013226369553302  0.1584516333696167  0.1709278344601031
  0.9533223427225487  0.5985373374438668  0.6734856558754098
  0.9682967287074704  0.5562667274818912  0.6247819749652341
  0.7813190394657599  0.2228341846875055  0.1972507817474654
  0.9751844312334917  0.6421072099481306  0.2916489580897202
  0.2909085018950386  0.8628660504034945  0.5600821827028557
  0.9885967990973079  0.1606126269229756  0.2887623134631810
  0.7974640491909445  0.0313671142866832  0.9140964528213904
  0.0567224499544812  0.0675684849928245  0.8768252041812853
  0.2076876690081428  0.2971516573239311  0.2647985122379172
  0.1883071624750853  0.6681101544027074  0.2463594844287282
  0.5633370757791702  0.3584426255720518  0.8918666422281992
  0.9739424829341017  0.0363442998528638  0.0883685684325312
  0.7252455873602618  0.5987488798456999  0.9905494107800745
  0.5819392794663952  0.8572843463552540  0.7828882571433508
  0.2627581977352355  0.3172728554318366  0.3417366061269334
  0.0153759148659008  0.9143309587474214  0.8467124737908596
  0.6064162082516652  0.0427412894907629  0.0735891027461772
  0.5201430538836304  0.4754119919395887  0.8561611644677467
  0.7939110821129869  0.4162321234534323  0.5547724958705659
  0.6664692004042391  0.0248162403078977  0.6991295863263289
  0.7129391006457472  0.0211364381793116  0.6550143915386871
  0.2184691783756405  0.4053696239787526  0.2863823232056168
  0.9570682991938667  0.2245779554817422  0.9186210499384134
  0.7938093727882543  0.1562430924756623  0.7703046459473499
  0.5794627985255344  0.4676250443389797  0.8783310526841643
  0.9223555607639252  0.0670677779419494  0.0623450915063377
  0.3597221352218829  0.2204774895194481  0.2856020306029711
  0.7926012585420471  0.1243433159035366  0.6654610067425530
  0.5796391686883741  0.9027653652339060  0.2557970426650991
  0.4503392492529587  0.4940786567759437  0.7725473902135841
  0.6387743199831576  0.4581701016669198  0.8986384931131830
  0.3801839397539549  0.9637741905584097  0.0804993086572124
  0.7056986330094909  0.0711444840781063  0.7012030675647255
  0.1585945701621172  0.5160899456198396  0.7202218129479752
  0.9707105957775769  0.4047444082813806  0.5591070810386278
  0.8289091490044922  0.3438169061199584  0.6404668978639918
  0.5974081046819698  0.9504422710602444  0.2200737508066113
  0.7878912296883170  0.8807958519561059  0.3933314571911328
  0.0668833085238763  0.4359803296222206  0.5823871942059019
  0.9747931907025712  0.0558467785218210  0.2619873023668764
  0.7167499079406010  0.0614832973931773  0.7611017120457193
  0.4607194096455953  0.4497332107054829  0.7316498966270847
  0.8033775055503157  0.2471580898252724  0.5932474872080901
  0.7028494702614417  0.5661567293354813  0.4036873000355028
  0.9617651627935865  0.4316721735869918  0.6945061218866896
  0.5431140451797560  0.5543868465253283  1.0012793804035585
  0.1666959464109531  0.2218813423499346  0.4971790988415297
  0.1861681876696571  0.2244155615998860  0.5554185953859093
  0.1368929087504887  0.5797477805425040  0.9566070040638789
  0.8778078354902765  0.3499558253575183  0.6031017835592573
  0.8144943924574262  0.3690601498783209  0.5131367009890336
  0.9457465915102665  0.3349133210715634  0.3951263194898614
  0.3590012841062573  0.8510342249277419  0.1338663580952784
  0.9903563091711804  0.4928475234921145  0.6367730272876151
  0.4119530057439706  0.4438462748292414  0.7693224852449598
  0.2453668960335760  0.1190645978722503  0.4675509102253187
  0.5025719494163765  0.0824987894180540  0.0903788001825642
  0.9828851641140069  0.4002812449323033  0.8144590701723604
  0.9390687232706486  0.3695458640927781  0.7210416593178072
  0.9593301174689735  0.3110367254066748  0.7409610675562718
  0.6514083787140482  0.0944530615036455  0.5107749124201360
  0.0305342935721229  0.6696869202789101  0.3019860690367862
  0.6173939175246113  0.7926422360611108  0.1278674018725790
  0.6206122425304186  0.8111021365312385  0.2945672488641877
  0.7747847613597173  0.6374211771166357 -0.0013243692820650
  0.3430026928030814  0.1489818789594920  0.6749187576699464
  0.8482803166400369  0.2751724163606587  0.9904261066004314
  0.1440429581713056  0.1016854042510290  0.2470636778958473
  0.3564035351996457  0.8044848058750134  0.0942409612690696
  0.1015432639635388  0.2503363398983013  0.1857611512804491
  0.9122682355904006  0.3067234060257093  0.7811894022357837
  0.8039242920312718  0.8844271534834394  0.8454884358590785
  0.6533598179576376  0.0256597651683539  0.0370310385131555
  0.3334047478114213  0.1632369426040598  0.6096641655677744
  0.7998799258051573  0.4542839880682701  0.4170757859124086
  0.4267655240607607  0.9146906483442088 -0.0025468666696843
  0.2349694734442246  0.1146162950026966  0.5861715182091505
  0.0774707142251449  0.6994396034901798  0.6167884151367067
  0.9909077744529838  0.3870193832082053  0.8740123714794495
  0.9246398518064550  0.5911173398030648  0.1254563481174170
  0.8740800126145870  0.6251632883265474  0.1002880374712648
  0.1307969817623311  0.5574092250578602  0.0868216486163231
  0.2921915502265464  0.0407378067462635  0.1405023079483287
  0.8524137710189696  0.5969054721030135  0.4453185798940246
  0.2452631374973948  0.1289442607867261  0.1643168425114024
  0.0574062972831491  0.3389911024816136  0.1422036938089914
  0.5497945208182728  0.5440691320276313  0.0698739715988329
  0.9706220358763442  0.2971869231078319  0.8002360928126481
  0.9320896533551681  0.2490415881364859  0.7989371280061195
  0.6306051402655690  0.0024186057092908  0.5805794361721552
  0.7193503820022048  0.9135177035727249  0.6920106024151091
  0.1200836410823695  0.9288887253821618  0.4928023253597441
  0.4006054864715780  0.0952180042917540 -0.0085829657309896
  0.0541239778259954  0.4429842963587358  0.4413491033559655
  0.0739328198300759  0.0145778990371485  0.0064048834542955
  0.5154884840914612  0.7735994073174475  0.3837653946217718
  0.7710110242821343  0.9537545184844988  0.7681415663446313
  0.4707623795966128  0.8543008119648909  0.4035841227230618
  0.1360876452572101  0.0844426680549373  0.0754887641900161
  0.6691362681136046  0.4398839818430840  0.5243531409905223
  0.7326683605496134  0.4239586818937830  0.5471595071136154
  0.1856214179745131  0.0544462178916367  0.1017672514624016
  0.2960178668694692  0.1027638581512963  0.4326088244095668
  0.7483411304371830  0.4548718990420255  0.2839248608707883
  0.3006136847616495  0.0897890469053879  0.4912868357521346
  0.8057261342230764  0.0848658526071072  0.4957577221081053
  0.9022294388718196  0.3197270719158515  0.7214530170831625
  0.5205883460826717  0.2374641471705430  0.1605436903643947
  0.1294589406388180  0.6064895375528733  0.3616106796730681
  0.0736975664489785  0.5775249585438563  0.3484306171277620
  0.0955205162205615  0.8358251763563296  0.2201101185939856
  0.4738389380094527  0.4055464188988143  0.6858504273387034
  0.3595471080202023  0.2554531465098768  0.6668098269716857
  0.0290557301166485  0.6571292518194234  0.3646329114954968
  0.6411104073497977  0.0355327829777094  0.5238999708983031
  0.9707256576839987  0.3346134324902875  0.8993739792019333
  0.3246434269768174  0.3437625851160065  0.1143111560684382
  0.9803619526469147  0.2870118403040318  0.8580658371725521
  0.0349641646699245  0.7006499156088366  0.4125224505200725
  0.3663784749807297  0.8957887484574057  0.1778650008219425
  0.4981737326314205  0.4755462247042596  0.6290979013638729
  0.7323653947360798  0.2533371550413722  0.1692943089633973
  0.2160700143915734  0.3579565867928133  0.2455758293612612
  0.9453833371325540  0.4596196067392496  0.5746862197111712
  0.3550021768269507  0.1364779292226243  0.7396042132378202
  0.2966701391157170  0.1405401244181632  0.7156253434345079
  0.4062564839304912 -0.0088776851879911  0.4252154234153360
  0.3517487324015898  0.0221646564419645  0.4030112841569012
  0.3688624302281578  0.9462327688936316  0.2226200370331528
  0.5045518491013222  0.3345511399279981  0.7625882027224213
  0.1715968176085533  0.4347398403111852  0.2586985310165013
  0.4180106845056276  0.2499976868700620  0.6894293114772174
  0.9034509951176563  0.1872731555924429  0.8574204521349167
  0.5145479605284150  0.3235693925173416  0.8227403458333772
  0.0723204468404961  0.5321861133243979  0.3045040789686364
  0.9390464238058503  0.0812482189422627  0.8331755127419161
  0.3534545177790036  0.1116207766235573  0.2612757470878037
  0.4022292784019673  0.0946641164597372  0.2272284970839060
  0.4008018959300881  0.0790545488234095  0.2875359190872823
  0.3977131067638961  0.0306951450903210  0.2473628908898639
  0.0395682304076940  0.7314942425100838  0.0573614264468655
  0.5520198957197958  0.3700584764012505  0.8313003003999041
  0.6504333933236340  0.4330350404052186  0.0794934606795761
  0.3577772531425610  0.1439839771729942  0.3673070233934370
  0.8523582008487515  0.1167257188080898  0.6872165365953855
  0.8134289941690458  0.0679249787625453  0.6826877927754773
  0.4529954059527246  0.0101578802289991  0.2718924160152900
  0.0263824636164249  0.6265824056361174  0.2600754169686937
  0.1840625411780943  0.4342348987987708  0.0242858581184160
  0.0743875623299658  0.5924240366336005  0.2884566622013433
  0.0251592194383348  0.6103572592594048  0.3197167896375345
  0.7196908917208777  0.1271917915380043  0.4329514418457483
  0.6997028468897907  0.4710392695758917  0.3150550888178511
  0.6890416152199443  0.3923904491857976  0.3965916145177457
  0.0582559170374709  0.6218047182636385  0.7322410337283664
  0.6842977628137021  0.1020745676330082  0.5751221516152696
  0.3135672479970853  0.7511727247353772  0.9837520119476247
  0.6012830019737869  0.5453766027192379  0.1989743835850712
  0.3581156636625213  0.6906783182514158  0.6225238190859397
  0.5537534419289307  0.6052446001659519  0.2768586898866202
  0.8943014368997065  0.1989743740969475  0.7979170158689305
  0.3078524793254853  0.0983803588198101  0.6712835235893285
  0.0101492578820627  0.0437067137686584  0.5281134168671509
  0.0585076713646578  0.6115050214905668  0.4822062668292500
  0.0577528035410904  0.8073672595132246  0.5578157949335585
  0.1811064752454714  0.0398215316752515 -0.0141751746013703
  0.7840453899222120  0.1673508133333240  0.7104245571424526
  0.3497267436819228  0.7207008382331545  0.7283326981718236
  0.3032456388951241  0.3064324638233212  0.9832451314324623
  0.0908050205084270  0.1803800857691120  0.0313078428625389
  0.2815734191582551  0.9078418905756064  0.0062964196884367
  0.0894722292958219  0.2395439479192358  0.0183658719671619
  0.0958449303724986  0.8100605564326187  0.6042817413797339
  0.0421708387922042  0.3112097515071205  0.0363250650638077
  0.2592824440891504  0.2773567427838065  0.8502648553172469
  0.0036065429842786  0.7203467402677103  0.4560647376208483
  0.7451892872046778  0.1191970866902497  0.7065153687507841
  0.6501142816741490  0.4673985562632992  0.1859797592271110
  0.1962142670997971  0.4122678514280048  0.6923844296643836
  0.8293896048880219  0.6731857346835201  0.0087930294534919
  0.0978102628365420  0.3680702744652430  0.6631064630763500
  0.4977910861225903  0.5313406117751289  0.8373842587549087
  0.1499941726967358  0.2413681987391597  0.7605105696487013
  0.9675960560958992  0.5651567093474118  0.3776722315144432
  0.3040701481690863  0.7916777698500258  0.0253738921931862
  0.4678789386010788  0.8715595904571792  0.0971284873552660
  0.4746870160193846  0.8929376794452856  0.2128228465756219
  0.6170019602519531  0.7489497041802644  0.3099004398453487
  0.1129000098097570  0.1893858282498797  0.7552696830598065
  0.0853898894778369  0.0908839974753297  0.4150598283030775
  0.5217332548115129  0.8672573041790328  0.2428392921132142
  0.1197261541232249  0.9371163090648483  0.0104784276614855
  0.2845232820847600  0.1525311165714810  0.6515330300113754
  0.2990845480964031  0.2622944010289319  0.6453287047508159
  0.1385306076391193  0.8465122938810861  0.6774133944020843
  0.2462234600736367  0.5743430889380223  0.6862752390355622
  0.9371898796154403  0.2057606115914757  0.1996949317000608
  0.7104955605230608  0.0066717314016829  0.2379164357548739
  0.3235812380424982  0.6561588679407252  0.7832341793857505
  0.9636025377273525  0.0368915202543126  0.4021423614288734
  0.9410833130667475  0.2510744908527959  0.2451941491925562
  0.4984047650375414  0.7719125864659910  0.7109252599065186
  0.3106729076798124  0.2502279169900899  0.2590584188751516
  0.4715489186759341  0.3144564918648571  0.4106584156396672
  0.0829481849206694  0.6208620008452435  0.1625707216031499
  0.4675193763505746  0.2680239982094543  0.3653587988647351
  0.1934589938281919  0.6976095027190148  0.3569422997697401
  0.0406525191993539  0.2440225045324868  0.7783069324785957
  0.1029412159656795  0.3368483238588251  0.5583781216386702
  0.8777761903870809  0.7190918924807147  0.1807976906289786
  0.9190715063469450  0.5754768897879218  0.1864280820525531
  0.4581447651372802  0.7451159610745146  0.1411705335941211
  0.2562149405613471  0.2370596017891421  0.4173244307404300
  0.5870593405810908  0.9743263424413794  0.4139768786379420
  0.8794261346498650  0.7334825607196279  0.1220496209810435
  0.3114130679137292  0.2663768237066840  0.1991157070117987
  0.2869219139489519  0.5930695887762510  0.3658989672874292
 -0.0115167093446583  0.1726401027615871  0.6014839288437128
  0.6178032231544019  0.1300950209633264  0.3972327778057603
  0.3049570181890062  0.4709279072334389  0.9501762018022945
  0.5258583094449489  0.3432472755395853  0.4187937347463276
  0.0804984320693347  0.2917000108884668  0.7803850764494562
  0.2850978104093222  0.5112693730895839  0.2135652079879894
  0.2737737160120612  0.3590347345320352  0.1487544573292140
  0.8399947090078757  0.8839780911396796  0.2926338945474050
  0.3887638923892816  0.4733423020761813  0.4271033845998133
  0.2304412410058764  0.4963815574052625  0.8046625255395669
  0.2518533769619979  0.4393765715742276  0.8238373678061789
  0.1774225238453974  0.4640349948899801  0.1330425450058710
  0.1467673451714158  0.3739091596616561  0.6218725518099721
  0.1651763825331022  0.7605585128159676  0.5880101485520443
  0.0901337228510261  0.2793717665026306  0.8403138131138350
  0.3366318634493115  0.6061114634502052  0.4377737479599357
  0.0009026510247626  0.1601509173379670  0.6664051699236372
  0.0281816714252503  0.5910610061866648  0.1539892452557192
  0.4843557995808301  0.8476034517040089  0.8596373594105754
  0.2474579187610161  0.8736478621640142  0.7736270588193647
  0.2589763443260852  0.3021657058185138  0.3996624369514638
  0.5335539613441326  0.8523981958757346  0.8219708315620312
  0.7705565953564715  0.7173461735526245  0.1483457167481007
  0.5548067010943201  0.7488382252663005  0.5681769441428792
  0.6221278092139526  0.7925327764423876  0.3564823771299573
  0.6063495957864552  0.6677199866012040  0.9316490308155888
  0.8454199466576885  0.9273332988543465  0.3361201560091622