Cr Ni
 1.0000000000000000
    39.4861997199535253    0.0000000000000000    0.0000000000000000
     0.0000000000000000   39.4861997199535253    0.0000000000000000
     0.0000000000000000    0.0000000000000000   39.4861997199535253
 Cr  Ni 
 1596 3725
Direct
  0.4617761544165029  0.7160104867284027  0.2673649626011418
  0.9175999501964933  0.6281266362252725  0.4783317390945021
  0.2016051335340534  0.2070711880876748  0.1771852892899272
  0.9645903251993302  0.4348925219297313  0.1887944850756823
  0.5591131089361601  0.6512316727554012  0.0962641476967123
  0.9786815970683508  0.2878183106825515  0.8611239672668588
  0.8819831521015892  0.2135482351166132  0.7346025299375791
  0.5569814183583801  0.0986273833731307  0.5856315630664966
  0.6728041819153949  0.9095711049420044  0.7419737728057627
  0.1258465077170245  0.9726640332142246  0.5421125457724740
  0.4572610530476532  0.4990430593261792  0.4988571407076575
  0.4281772791039337  0.1471684966541166  0.9377507529720934
  0.1488312060561968  0.3273131712512127  0.4689355972695897
  0.0710907763118514  0.0155581640046162  0.0120597964547869
  0.4690436218640983  0.8222350545651651  0.2974870223517352
  0.7516250960758926  0.9697563058724576  0.6402069499068710
  0.4730583106809583  0.8368236760061531  0.4681671503828417
  0.1790423286453224  0.0129437830190231  0.0525412084430383
  0.7107535069414035  0.4815041305273082  0.4760492180869295
  0.7322891436086381  0.4261933540468430  0.5487283325381080
  0.2273963466092225  0.9644131523003407  0.1459900252702661
  0.6382670896354222  0.4608380668395571  0.8963754481480576
  0.6973619731162771  0.4212421826900499  0.2704638622013231
  0.8162949561185311  0.0817036056087776  0.4992776093465901
  0.8203434380658907  0.8319666593987112  0.8727939189716726
  0.8946249620665357  0.9226758479999495  0.8527093529580392
  0.4230089686450683  0.3144166409481340  0.2730242977240072
  0.5053899902488604  0.0204972630665610  0.7588750650666992
  0.6993333840517344  0.6799522398305459  0.6352871370631534
  0.5024572057876707  0.9204784488638910  0.7413568960633836
  0.4948165233991377  0.4523598755365486  0.0742329806085267
  0.6032344470536142  0.5436009879193471  0.4289823788581175
  0.5702482668336909  0.5883453023044125  0.5750839511378183
  0.5991939983735584  0.1078475987332992  0.8276118537703016
  0.3783980850249180  0.8517077697857787  0.6018705840945532
  0.1500285940711222  0.7944670568068324  0.3130931009945055
  0.3113099369175185  0.7268101933369888  0.4982396965107628
  0.7922177403005903  0.7094401607195905  0.5584048177767507
  0.2924653982894218  0.6068975263477351  0.3011126564575262
  0.4879575582215396  0.3411333055591907  0.0404129951180128
  0.6056407014094009  0.7108294289104953  0.9831624775446388
  0.2018964000678466  0.1594453349980599  0.3630767453021988
  0.3478495856111042  0.0687642257433529  0.2090531251285485
  0.7218239389812586  0.6962527867658227  0.3085330219296083
  0.3222933216520614  0.8999677805950055  0.5146637673907078
  0.4657246055040632  0.5856972148577264  0.8511067554982088
  0.2897674227487718  0.1165785710269472  0.4404847001840361
  0.1328613634854481  0.5574023725621169  0.0921395065939962
  0.5045154353414636  0.7563664742781179  0.7744909418898982
  0.4425068305126822  0.0803668397167197  0.4954555788805263
  0.4306447466108024  0.2353500585301197  0.7491554275730560
  0.8875776195459737  0.7411718074834557  0.5191191565666864
  0.6569102701497903  0.4391528160270011  0.0218541777368893
  0.6452061983577235  0.0191001640150986  0.5823296848493648
  0.8323712916746763  0.9045622938386306  0.6896128317395379
  0.7539958003995858  0.1479440139030638  0.5895978008081306
  0.8583990717146133  0.3021480469263738  0.8198262468942725
  0.8804011603066219  0.6809743537008780  0.3094936823908643
  0.3462936164614984  0.2643265643926250  0.6059998529288078
  0.0584699577183639  0.5075588572536623  0.7975282359214430
  0.1170034048024569  0.0316175111555428  0.7928259376200569
  0.8641993340727963  0.1046692657407277  0.7456564061904180
  1.0106681435563902  0.9747076135552022  0.5571700435418385
  0.0603824044131871  0.8653357761696505  0.5988251345249370
  0.7813933506376542  0.1677074402470716  0.7081471117452858
  0.3641574508905785  0.3117132521512530  0.9505804664627202
  0.2730945205683492  0.9030997693949550  0.0648135795256756
  0.0134378263786348  0.7061529526234898  0.5905126173748649
  0.2683347918140800  0.2686460178902346  0.9062656513584585
  0.7453397459956316  0.1200270848979740  0.7060821333256261
  0.8857404240052378  0.6463899850080721  0.9795773856118531
  0.4199618439057791  0.3755996272615472  0.5517794981012342
  0.5201720890205593  0.2890269432691618  0.7159731507610054
  0.2782457028353966  0.4377687336201558  0.2951601769649747
  0.4063583720986361  0.2564581548040236  0.6292498644772861
  0.9642909462358084  0.1791009252500406  0.8767040197640199
  0.5047803610832571  0.3347824016130228  0.7598065775412172
  0.0760862300719828  0.5306067167043754  0.3124395510703747
  0.8876401150995958  0.0791993403627902  0.8719116628582748
  0.3535370176258965  0.1121612056077649  0.2556786377758251
  0.3529320593011855  0.1286286078593062  0.1925522115584855
  0.3529791855176340  0.0966686789274894  0.3161291287983909
  0.3438423914835166  0.0077168749780642  0.2268110802681515
  0.0880293629973737  0.7006921664029147  0.0833958107511234
  0.4322784358485123  0.3859046156502077  0.7860545911866818
  0.7046489473012068  0.4092130805647182  0.0361326397901914
  0.4147340022338916  0.2397663153770052  0.3540409969039241
  0.8137139722157791  0.0089428507751454  0.6367738189864092
  0.7972419327169620 -0.0034093956556345  0.8090641254325420
  0.4384899182126325  0.0168330912921380  0.2828117346947898
  0.0294253748714691  0.6210806530138409  0.2646145684021793
  0.1877432091064590  0.4950070269875364  0.0147727284196009
  0.0844329676142925  0.6374955058221355  0.3381822496422584
  0.0289169909448543  0.6061900436586881  0.3258720900393433
  0.7734052646760808  0.1663646603516839  0.4539797561395127
  0.5873957390575644  0.3908022691687134  0.3582745406161359
  0.6834297639315551  0.3354002647482747  0.4176617654145861
  0.2802358269129893  0.0319934924734358  0.5158207968181460
 -0.0127867672547172  0.2088394990658877  0.1022111128651829
  0.6643832387097943  0.1622966409676912  0.9498117563531037
  0.4850710111599522  0.9742957185115493  0.3699181661446898
  0.2941756670661086  0.1744986241495789  0.8207847753987874
  0.9194707628874763  0.4492316827472327  0.8762857748464863
  0.4019625835010820  0.6537700872348629  0.3802756364189144
  0.6068676617878993  0.5742618973515566  0.3048278812600804
  0.8263419848183939  0.2573952081481358  0.9817518969587676
  0.2944325803672861  0.6383692579282330  0.1790789843524969
  0.1012041976159067  0.9763744092448121  0.8165101917333638
  0.3688038097816726  0.4153474136202484  0.4561166447065778
  0.4559815658853430  0.6552388051499749  0.2832584322667989
  0.6289358608924965  0.5787383509304092  0.5962592665248820
  0.3081357109839891  0.1586041595536467  0.3991502574284301
  0.7995773940728783  0.4327292335332453  0.7303838003697405
  0.3362162074298578  0.3104984445503234  0.6486016703802697
  0.9684326642747505  0.0162597512798507  0.6436363864607424
  0.6424027015702907  0.2415455491185196  0.6470419214294473
  0.8390935846735199  0.2528374006382484  0.2081618901860285
  0.7342422055420534  0.2695099770724928  0.3380844868663069
  0.3484804092213968  0.2022267830922759  0.9458373727685155
  0.5090084144351202  0.4883723063719008  0.7921154795893978
  0.7480735429421206  0.2753198965970357  0.7362758958314235
  0.8597919701361655  0.8799755395344081  0.8837339570311320
  0.7947855748932329  0.3429290773732993  0.1627553996182041
  0.3820717571613529  0.8990273294433098  0.0957168563526576
  0.3471369413225907  0.0176839417399700  0.8191373416212131
  0.3811425296334612  0.2321420043617717  0.7855675864574476
  0.6395561931310991  0.9421881451041304  0.4358657418650465
  0.3511574005162628  0.6689406851669434  0.4121820535793785
  0.6529275429853758  0.9665546050980105  0.7257206013444406
  0.8376361134208943  0.7063688929574989  0.5162168915651419
  0.4646249267689873  0.1956287296119273  0.4427230941193546
  0.5757649614186640  0.7882552687356519  0.4618963464572992
  0.8253952497352193  0.6372400696234359  0.3600841131294586
  0.8829725810355633  0.3991387357687344  0.8707042840915628
  0.4264492653953932  0.3639726941419107  0.6135497818710112
  0.4720403270040703  0.8522564208659403  0.4077386413760632
  0.9321534978021809  0.8204980811661881  0.8249667976341539
  0.9422417483598898  0.3758753315552251  0.9598703402315500
  0.0295445909705431  0.7000851052363694  0.8881957852287120
  0.2565224639374873  0.2776721161070335  0.8501488528239740
  0.4927448425337215  0.2260636195711160  0.7722329117371478
  0.7852557447876001  0.5933027574261438  0.7333322299724853
  0.1712965112401377  0.1577348457113034  0.6703376349643201
  0.6428307514830384  0.0335626039454774  0.6359230943012066
  0.5075695221759146  0.6230566026127096  0.9094273079866555
  0.8936385459395555  0.3011777879768608  0.3827621915862505
  0.7091942078885040  0.5444078359895163  0.2349480472429173
  0.1156110863933424  0.3477147820627253  0.7884370913207394
  0.5062364909700474  0.6051446350363900  0.3739554898690384
  0.7782894102705283  0.4904632708167904  0.7159737678466455
  0.9365222215759788  0.9115164860725704  0.6923555526716652
  0.7999034885072199  0.5643609914712101  0.8577029704191005
  0.2459518017854725  0.1390309655072854  0.7572013077574188
  0.7064973370343471  0.4862179253006073  0.5311574228011878
 -0.0105517297295432  0.9732398179195421  0.8386456680619628
  0.0845301980156854  0.0666600937481046  0.6054323747185657
  0.6356987195206143  0.5765023792756663  0.8554891725353877
  0.6915168360143551  0.5300744363139774  0.5735824505432601
  0.7048501104492616  0.0732793927011849  0.7026463945605486
  0.8526298434998325  0.5666385470046764  0.6170021486127869
  0.3700718091231448  0.8973426749358057  0.4172958847346893
  0.5956665200844505  0.4518032991227620  0.3389941138235842
  0.3654769020384411  0.8397520047798319  0.4275323556259368
  0.5151740920965794  0.7464071296808603  0.2779148928195022
  0.8378508592109958  0.7552215876567726  0.7204082143923842
  0.5617564114187464  0.6674172291655979  0.2607669201014758
  0.9054723962528354  0.5824049929265817  0.7720674300383978
  0.9496491032620944  0.7463134529878240  0.6676120878663246
  0.7743348260673468  0.8222878517319423  0.9275217329530793
  0.4700465837923325 -0.0143016380783922  0.6616320635919178
  0.0414128112755893  0.2405863967071447  0.1136609788216777
  0.1716840336326324  0.9692461175103595  1.0110672472344731
  0.3111619322103371  0.2655323449323379  0.1967400032294516
  0.7379850800011317  0.1980766311202873  0.8572427082435647
  0.4555902474345787  0.6702554618129283  0.2241057248345658
  0.9406670097013970  0.6307807538666217  0.7763147859641492
  0.6824131757416280  0.8001973314365561  0.4349887023567722
  0.9683579987076204  0.4803938967858309  0.2300942363513734
  0.8950813061848529  0.3388877188505036  0.4982318203326607
  0.9697191270798420  0.4873443089611253  0.4585580909846574
  0.1748198054608889  0.0568262338121654  0.9256723311205372
  0.8972481215542569  0.5954409247146298  0.7134966401461346
  0.5587980452734467  0.6347365798941241  0.3821243493712433
  0.7350153030385846  0.1644505327962182  0.7476122521532244
  0.6041724746228073  0.5594675128516657  0.3669235181887412
  0.6871639820641232  0.6514919365623001  0.5288260704130223
  0.3907906521789852  0.5151117523073426  0.2481871740954472
  0.4238291139596521  0.5318023515619195  0.5888992054937526
  0.7515436897019602  0.5584788012384040  0.9008958712994097
  0.1700702969666847  0.9366751414701026  0.1389923361092593
  0.3160522425107080  0.1183242866515015  0.8425623730285203
  0.4237087716490941  0.7776736688849939  0.5263673610906527
  0.5567120002010666  0.5896630799303175  0.3385441307484156
  0.7313219178170263  0.6510805763989378  0.4897796584394022
  0.7058357090316794  0.3621346664866783  0.5972778279715529
  0.5205799073344395  0.7569927697647983  0.4466339203267480
  0.4032557270364350  0.8790876398227336  0.7148273291174911
  0.6759470844578419  0.2572634704107794  0.0369149848885661
  0.2590342700178712  0.2537782276018717  0.1268077520607102
  0.2527955658085572  0.6430566572527010  0.5905865120156022
  0.1490819159121959  0.2539089351748910  0.0885967466459757
  0.2843762008514390  0.3244552247949684  0.0282469874381365
  0.9075196601840789  0.3703531329025420  0.0780718856458167
  0.2611027509101552  0.6636431991162073  0.7635400271652790
  0.1965302852730509  0.5704866618780333  0.7208511226316846
  0.9144575167127378  0.4690733026566461  0.3845443468696337
  0.1446174724405453  0.6214453349884993  0.5384605715195885
  0.9626715501631368  0.9467011386571688 -0.0029554642348047
  0.1727308083846702  0.4734441695828915  0.6757095266894816
  0.9615998759706399  0.4191054938652727  0.2492287463045788
  0.5419757861212326  0.4182664601026438  0.0989292204627984
  0.8429174172572148  0.3277929074674508  0.1315335211869385
  0.8693348024483993  0.4616664844186079  0.0232093502035819
  0.8209969329697386  0.5874584766952561  0.0837874526524893
  0.9769053459981514  0.5920904956904683  0.2562079155931349
  0.0893035155511176  0.3858971043404339  0.6038744517559040
  0.1419145635899094  0.2104794675042796  0.0445295851165144
  0.3261949585944022  0.7786436851087681  0.7100716110408659
  0.8854981553681494  0.2386873915191071  0.1731312807277438
  0.3310120238680709  0.9300798670934033  0.7387792904860283
  0.3025023466387732  0.9028635560684662  0.9063512649500353
  0.2060462269191647  0.2047806895234140  0.4088946240985380
  0.4647578091264581  0.7926549114932780  0.1929024869282672
  0.1690044436590929  0.6433430216025368  0.8967869216220646
  0.0871006870946847  0.6018010645591670  0.9312278551617635
  0.6201618346216562  0.7903610556242061  0.1309972686167810
  0.7288312971300575  0.2837123462120403  0.0471613578843900
  0.1363632866050694  0.6331865367421035  0.9430338866415512
  0.3175873254668141  0.3116313990338555  0.2392322882507570
  0.3910258322609924  0.4964479723513350  0.0847547258397429
  0.5916023013029066  0.9357662028280200  0.0531498274384638
  0.9815418986893669  0.1445935134792087  0.1172472198403649
  0.4852524081137825  0.8478465921419971  0.8634105810385894
  0.1322451009902072  0.5921158390319982  0.8946529215307558
  0.9258209573915001  0.5939526409110416  0.3500640489735888
  0.1058182513206662  0.5480320138720748  0.8597888958718894
  0.0804304190158513  0.4782388195105198  0.0402714471125135
  0.1434828620609054  0.6799734684671483  0.7078275022914051
  0.7758613115033929  0.1895075804765151  0.0910040010731612
  0.1357679245964732  0.4231084588294232  0.6686291874060589
  0.6248363522773006  0.3502535050019908  0.9087938465136753
  0.0610675735448343  0.5954346094468520  0.6239499904642367
  0.9221922930511146  0.4931746952606733  0.0396952677800988
  0.0655898532828719 -0.0477009826741576  0.2747928102043448
  0.5094378173087823  0.6995576158344314  0.2354472290633746
  0.2111514102008490  0.8340510907572977  0.4910154238236035
  0.2055753468704452  0.8416411447493685  0.9495511817303299
  0.1131478130741721  0.1956594818394669  0.7561832025413155
  0.5238314704879858  0.8649406175893435  0.2467942935105347
  0.0511559559702338  0.8505311709297049  0.2583892403707602
  0.9380539205186086  0.1898706168263837  0.2622701266286966
  0.0535439053413643  0.8817764486037505  0.3668828844614827
  0.9649118915215736  0.5725315698358679  0.7941609140209024
  0.2260264099631543  0.0392889412847245  0.3839142684571572
  0.5220706881718685  0.8959518102864548  0.8664259796560733
  0.0478191385983363  0.5179165179363776  0.7398307413460318
  0.0902848290387900  0.6579850142233459  0.9701355623346368
  0.7581239223435280  0.9941176749691676  0.9756500362708997
  0.0119549940168646  0.4717003821749795  0.7370798120381710
  0.2972089015560030  0.7478948711623005  0.8819082844412695
  0.2827897939018524  0.6077777488610530  0.7805355461656786
  0.9317142630968641  0.1457459316765058  0.2194233105159380
  0.5184642834190542  0.8198574247419077  0.2042399128731164
  0.1090739724087393  0.8714499618913910  0.0215273466438333
  0.1960005577263715  0.6499293449147685  0.5542625802252058
  0.1555402100940918  0.6495137026140043  0.6002274740941905
  0.2089686135999862  0.5242192115775399  0.6817824882624461
  0.1648217188282743  0.6233820601037106  0.7283022009604601
  0.5632764551768440  0.1461167840604777  0.2058511522379887
  0.1110954166080513  0.6439616679651121  0.8778191718625392
  0.3779751537468659  0.8282157600341722  0.9435978085094666
  0.0576925834445759  0.8631726161129570  0.5411724993539060
  0.2828449679189361  0.1579931229994554  0.6500502703951289
  0.4158249020875214  0.3890380069536564  0.4876121894881900
  0.0885806979257884  0.1794804346457343  0.0295703352481962
  0.3117999901889816  0.2521618583870675  0.2575719682219517
  0.4983220117228752  0.5328350725942377  0.8356635797325098
  0.9745962037770373  0.5640784143194155  0.3755149531236495
  0.5258520474511731  0.8980864564677440  0.1201261048043883
  0.5685293947649436  0.7760337143882564  0.2881500792939441
  0.0358090955069914  0.0967698833375640  0.4388821052921572
  0.0615189342883192  0.9384913901881521  0.1058547389458100
  0.2484316746815905  0.2602352237082663  0.6812009190096046
  0.2459502884600948  0.5736246436300616  0.6840191224846013
  0.6952761478242082  0.9558796292659378  0.2725927506546728
  0.0381914432010021  0.1296670239995931  0.3153105763015128
  0.4940560558570611  0.6153655973908605  0.6863779479567198
  0.3204902479392063  0.8384525815610422  0.5237635118452341
  0.9419231314138723  0.7884673244311947  0.2370192889847324
  0.3647212559384903  0.7654094818231638  0.5047222454365409
  0.7178962146077272  0.6532941066237898  0.2629486291122385
  0.3121748026381986  0.2845176026763324  0.3643421424361342
  0.6410498488261077  0.8849759404297465  0.9084625253302770
  0.3175865390446295  0.3799296491275064  0.4442328647161890
  0.4302329630555656  0.6574950641154614  0.7686681978528871
  0.6436377248728344  0.3842155127010163  0.0335959465986200
  0.0135761919081217  0.3684148135126357  0.1061688684271609
  0.4897207650329049  0.0008641597082009  0.2461555815848930
  0.1642806331081473  0.5414530268502631  0.8802612820296508
  0.1393977788224985  0.8872739092428210  0.9651119594041633
  0.0137237104963470  0.9390620673339120  0.9634170566253126
  0.3542378228889268  0.1669403032834267  0.0652857477575031
  0.3072297639539557  0.2219959697574983  0.1526436115325246
  0.6178406673651586  0.8063870323667548  0.0719346219844260
  0.2109429875629818  0.4277620749295982  0.9262113548832246
  0.8227265173683601  0.6081718230562934  0.2536551326500484
  0.0703139690516227  0.7476202417148592  0.8958878867953892
  0.0735609183878951  0.8809491957149110  0.7639010835181566
  0.0365143024476148  0.8317654534834021  0.7568370741799875
  0.0117158556131760  0.7953069738141889  0.9751252283751718
  0.0875153137356148  0.8362058312055825  0.7208235070200562
  0.1344427489207135  0.6038328413233714  0.1334060794867269
  0.9082678291539649  0.9455330265942723  0.0892522031168750
  0.7743460720425044  0.6418449838647461  0.0011498321237910
  0.4155746335416191  0.9368059694752491  0.9338748518110308
  0.6781494111875551  0.5978514563777162  0.9781800744082275
  0.2144591560697755  0.9143295474750910  0.4125143887244433
  0.1574360432264857  0.8382639999259465  0.3574489330488376
  0.3162664499734207  0.2629146193617979  0.4852737311308546
 -0.0016524800921905  0.8371979916750549  0.4178653669079683
  0.3269854872094440  0.3201232423606670  0.5884457424521229
  0.2794127587982844  0.4719321335444474  0.3965811462380819
  0.0194010619069283  0.4567375338457355  0.4812643819366044
  0.0043482807065270  0.4044036676523441  0.5174609047764092
  0.2915430800741580  0.3638333495252955  0.9649981363103275
  0.6241637915924019  0.9397020021327698  0.8921948620446574
  0.6467287983025098  0.5225518317623521  0.6142150327684109
  0.1056100003033367  0.3176044672861160  0.4041307112685285
  0.6579652710010665  0.5077649852935232  0.6719991001244849
  0.7311205166776857  0.2440792583125291  0.4640406680257144
  0.5242551346836132  0.0399282693200410  0.9296065469089290
  0.8706929125724251  0.8380254647568993  0.8365508399475842
  0.4370148073671716  0.3506349843770004  0.0740237325929869
  0.5595196861787308  0.7301320947051830  0.0158591585668997
  0.7260388161008934  0.2418406041124605 -0.0039052921620323
  0.2084597179503443  0.2745875297669579  0.8879440062980016
  0.8126301164932479  0.8421182039949692  0.8120619084481908
  0.5532006966985319  0.8877077924987766  0.6451328010239687
  0.4829916218029053 -0.0701184495168896  0.5591749947709931
  0.5321457552229673  0.9020401368453415  0.5871104020507741
  0.7578944194985590  0.5502073657738457  0.6983290608121554
  0.6867761559694956  0.7219996137704308  0.6733079471858896
  0.4447167851945543  0.4994550660385883  0.4388742162123769
  0.9471349590648327  0.8636660339724315  0.3938362148460187
  0.6398398439794526  0.5644840490501083  0.6548860033079865
  0.6657847287075328  0.4662270976059932  0.6297883166038918
  0.6470622852731701  0.3642874693125618  0.5747559402156119
  0.8430923821071542  0.8792368467537678  0.5250407353157747
  0.3142766065117383  0.8100166876374034  0.4176912085236317
  0.1326670533451891  0.5108877530913339  0.5002242611212414
  0.0571411358735526  0.3273400330391189  0.2025019363236701
  0.4357075557941212  0.9294069813908996  0.1069726270333390
  0.4340979982988241  0.8868332190111196  0.0602215671547421
  0.7754657929320087  0.6318293716522900  0.4567342439383262
  0.5007748770278990  0.5771374920038387  0.0368504665906764
  0.4965439462527380  0.5170905554138184  0.0481796154193046
  0.7464285923150371  0.4058662901564635  0.2381270357010640
  0.3225851142615597  0.9723515848190715  0.7824500007544839
  0.5439817781345130  0.8067529896448666  0.7775723921119750
  0.2086105582060781  0.2818997938797345  0.0986708968183404
  0.2838949152182725  0.9238964816144229  0.7777901009224109
  0.1045969093511957  0.2807617405758916  0.2927273404906047
  0.4861368249482158  0.9156440510981614  0.0758807159541915
  0.5051490909238586  0.6079566639201982  0.1435936968205028
  0.8229784479439264  0.6210868363322839  0.4193547383224515
  0.5105227725911982  0.7466001338773330  0.0513405301590507
  0.0788596606343971  0.5603885422968347  0.1842405925934120
  0.5246540361464874  0.0141309814510379  0.6358104468402108
  0.2007396401389868  0.7459616122937721  0.4016821058111101
  0.4000975553008531  0.0807905366655040  0.0478337051075912
  0.9734212512939644  0.5563090318273824  0.8561307481540262
  0.8419661519775683  0.5769507513338710  0.5553493358206636
  0.4885728202934810  0.4524315043044250  0.3018658719688634
  0.3783213579684776  0.7488880052052539  0.5626981774726837
  0.4700003153268836  0.2400677502064228  0.4859439996318781
  0.9878481234625430  0.1142678317948332  0.4735902161332500
  0.4306638822455914  0.4073592246746237  0.3538704325980073
  0.1654112096949150  0.9290146426673929  0.4484803135175051
  0.8363549530772058  0.8167526589907909  0.5414976471637348
  0.3002941687598790  0.5731723708219106  0.9681697856310246
  0.8720106482191661  0.1091636495593672  0.5098214315109494
  0.8252873188590648  0.6637358756934842  0.8978107107575085
  0.7406874593620144  0.7107911894042943  0.6907533496359529
  0.0983844384584846  0.2223085321496641  0.3114327901098098
  0.0203096790137266  0.0422424155244112 -0.0090096100658650
  0.7262427581349633  0.7742762470654206  0.2292907340484993
  0.0679834917253895  0.4186154149436588  0.2853995917071147
  0.7529463776667681  0.6685638080565447  0.6534201583767102
  0.8733104636889623  0.9719986910642264  0.8934864981619143
  0.3640451886561414  0.7782111450342167  0.4443733101295750
  0.9029492566767880  0.9185795735795265  0.9108317505353239
  0.2434531455847080  0.3223445139603145  0.8951411664272806
  0.1410022732432174  0.8631819816265583  0.8537087093552449
  0.7115052229869046  0.7741727490698241  0.0003704418849673
  0.4940936412311611  0.4818187872118140  0.4067613233032094
  0.0300027763460833  0.4607593969537073  0.9687798606052621
  0.7822377429035888  0.7722071909543197  0.3647862573949847
  0.4466806051388508  0.0691721902253680  0.5555217743087737
  0.7272786487995774  0.7885907813785235  0.1696314511969080
  0.9127483214290106  0.9917654553531171  0.7652964428876881
  0.8853284166757197  0.6096896783331615  0.6515761157923945
  0.7851913689008077  0.5894213468978944  0.5318633458590828
  0.6762935250219053  0.6710504420373253  0.4699841263426048
  0.8159891538582094  0.0873426973238825  0.9615415816813007
  0.8742865723064903  0.6513223325854471  0.6952390922107859
  0.6864751082381286  0.8793002214597460  0.3550766812728498
  0.3689476254724710  0.8851584928738734  0.4789194591990961
  0.2470290082902869  0.4766057565178528  0.9238530931488027
  0.6793109259625061  0.7405935010493578  0.6140541999904338
  0.8907606113971402  0.7731927417207216  0.3989678451109920
  0.9306194387708088  0.6824700817001277  0.2113508812793795
  0.1892850594040810  0.6079937303065927  0.5022172570576237
  0.3032137058025582  0.7307715274154818  0.2692595570865213
  0.6987515473800249  0.9824969649863219  0.1385881161829922
  0.7919898908277574  0.8485331493943468  0.5195196038366573
  0.6705742087806680  0.1622220702842177  0.1809751097943586
  0.2702128282485449  0.9772638495144840  0.3010249742968139
  0.1839685499828868  0.0728638146902859  0.0368518257415663
  0.7725974623808008  0.3706749079411550  0.7841305194644999
  0.1251317180774768  0.3830531338687746  0.0814581628678685
  0.9704976880537821  0.0272848518511115  0.3927475099904371
  0.2772097889897066  0.0701288699817782  0.8399622731408325
  0.3490119832674236  0.6407436993377823  0.0843815700350483
  0.2445330817682158  0.1156189947611244  0.2194497243885997
  0.0939775271472586  0.7116377544863176  0.4993222844953494
  0.7847508732543156  0.2024302014564357  0.8154595351826230
  0.2378373709200494  0.5764286094005263  0.2921570581351297
  0.5711885967226372  0.2232335053269089  0.3556923868848813
  0.0927280318259455  0.3378751101889750  0.5014744325824124
  0.3824992195152628  0.8088088187804019  1.0045400290254758
  0.1378490450220999  0.3691095631133724  0.5116410873193586
  0.5072079017853559  0.7906167209551807  0.8793769340551428
  0.4585344964843308  0.1511977870160414  0.4025616531340229
  0.5367580597013498  0.8601073406666441 -0.0039579182245618
  0.0799991598606191  0.3953362048266290  0.5418250458743256
  0.4295521784473307  0.3749057484733754  0.2517959763835784
  0.1370959700212329  0.3908330804997850  0.5644255334346416
  0.0587324438383908  0.8947387622081779  0.0644851002664594
  0.7318006397614717  0.7869770377304931  0.4002019306270591
  0.1946566137046475  0.7091677063413756  0.0666380222358654
  0.7525084254522082 -0.0152746558109537  0.2785087932359352
  0.7472274420167465  0.9409177823412445  0.4708994313301978
  0.0744443511470698  0.5994612138756080  0.8677710349307820
  0.3880785738394820  0.7650642125067306  0.9587017739194685
  0.4695445348371166  0.8360541419532110  0.2377252242058913
  0.4191346568494151  0.7349234811101648  0.9170843433860333
  0.0624316662484302  0.9746275956110396  0.4599595687339849
  0.3056360852277654  0.8093606017255556  0.1908273972064183
  0.1617882792479242  0.8842951488298356  0.4020971860659217
  0.9102902692974602  0.4960523162600980  0.9195926979475467
  0.0759612578383886  0.5169982688989464  0.3698892211954564
  0.4348007868909310  0.4214656521150070  0.2944422539378556
  0.7004747453124567  0.2698472108336461  0.7762633545235906
  0.1334701462908539  0.0402206087013968  0.2620704779641631
  0.8188507607655195  0.5742948262211502  0.1453963180803472
  0.9215767109610827  0.3803922710285014  0.0182747679165380
  0.9739794911567485  0.5250047992785878  0.0490780010830106
  0.0665660264987045  0.9663824999742906  0.2133050362377659
  0.7895862515031763  0.8644451781605144  0.2212723804882188
  0.9542874684094865  0.3591926509610031  0.2697882758081299
  0.1493968880148510  0.2117696242015970  0.6549924930719673
  0.5148056234656048  0.7458403535810805  0.8341869467852150
  0.0887674261759712  0.1474745137956873  0.1569111584977638
  0.0180704794865690  0.9807916973274288  0.0069253767256173
  0.2009386292844838  0.8071799267298742  0.1529810475225608
  0.6182113861903017  0.7867858018067636  0.8596600322507513
  0.7338986620436647  0.7718156588557490  0.4610764921268198
 -0.0123647928142955  0.7641926109284441  0.0270050326843242
  0.3778479960058171  0.9745039926219687  0.3342546809372431
  0.2015934152316689  0.1752879295502055  0.3017646944712393
  0.0937142098369714  0.1899633646709666  0.2021983747161347
  0.9643243952730700  0.4520057885852106  0.3528958440985275
  0.8160703704438503  0.0543267115944860  0.0900629549119168
  0.2044849522914039  0.4358166520119319  0.4694608974300037
  0.1239696856412965  0.4844022340038800  0.3949222014762723
  0.4388226409047384  0.0340350981344109  0.4497811865070684
  0.1953098070120966  0.2485319512158700  0.0493981823813638
  0.0726236066424653  0.4341655084441919  0.2257181090237953
  0.5262106201572415  0.0797351074336245  0.6350329546605930
  0.4742593356183901  0.3457758999280401  0.9769796288591150
  0.8916079702853504  0.2971675057958162  0.1579946493962404
  0.9493474657660655  0.3265207959359434  0.1658208223637418
  0.9779244114823412  0.5455666334300922  0.9187577452204856
  0.8095594124466884  0.8732782716071887  0.9179319372531923
  0.2263581364690788  0.3464893568163271  0.7708213664885282
  0.7288806218352000  0.2107988691591028  0.3566743450630649
  0.3285792738044154  0.0076890530544648  0.3090631859063644