Cr Ni
 1.0000000000000000
    38.5656675836183283    0.0000000000000000    0.0000000000000000
     0.0000000000000000   38.5656675836183283    0.0000000000000000
     0.0000000000000000    0.0000000000000000   38.5656675836183283
 Cr  Ni 
 1596 3725
Direct
  0.4516180875894345  0.4627888146155711  0.4104529724000667
  0.5830733569246561  0.8840958504923220  0.7316779087118349
  0.7250129254314129  0.1355688525504516  0.5170851966171255
  0.5951319906989395  0.8899161397564160  0.5618190864665067
  0.2755620945047065  0.8536571419030187  0.0987860774311165
  1.0031887677324647  0.7832294214290698  0.2143089229279076
  0.4569257595284394  0.5084846792733169  0.4585382502201689
  0.9554975084989347  0.8285281489300348  0.3613378437534768
  0.4886062085768709  0.3176639805001468  0.9371862344460697
  0.6255372435842914  0.4852604356719906  0.6188584688577101
  0.6596760632419103  0.4610288036284132  0.9686760182364497
  0.2747732555062303  0.9606289427411984  0.6603702478187704
  0.6558838475673537  0.3832480618915120  0.5852541890405567
  0.6302170906113753  0.5317539808535217  0.8872935319043973
  0.5029574788780030  0.4631853019575548  0.3144547599053554
  0.3247105087392114  0.7831104701736782  0.5535204692206653
  0.9355610424883564  0.1135748714743195  0.4932614917070969
  0.6888630371748775  0.8443620607075214  0.0892615765922723
  0.3902815562217208  0.9849096421441508  0.5818886203607658
  0.7866006002557404  0.8058973796300853  0.8167538456797668
  0.3021078222685702  0.5270849189624049  1.0022591453043681
  0.4764429614538554  0.2013002107302107  0.2235671081979344
  0.7295277448443352  0.5441398711289650  0.8058161054540531
  0.9932717842720444  0.6177626591743582  0.4359859618903982
  0.8324459755846962  0.8437387081729780  0.8861155172988262
  0.9099142385719453  0.9351382436422261  0.8698977996465902
  0.6793151233454111  0.7381035594060749  0.0650422579816233
  0.5167457090023818  0.0353146883150105  0.7700311171875530
  0.7512918697105065  0.7772323721926473  0.6591847640845138
  0.5570603481003015  0.0825570379578910  0.7719070708805780
  0.9785288981720708  1.0069923412608386  0.3008797104938222
  0.8390406662429948  0.1849744286786528  0.0680965682095003
  0.5718327740837073  0.6178329396248498  0.5186182685813204
  0.1551934265773793  0.7361984567259288  0.1139607024693298
  0.7370061995227645  0.1931945832007470  0.4963544198577731
  0.7950091644121580  0.8135409307517444  0.2524238074985505
  0.3188653054862471  0.7399854228239756  0.5071494281141893
  0.7947485276763966  0.7360176593280398  0.5685234487691647
  0.3057333651758697  0.6328367775521605  0.2528783310542221
  0.4983109334285151  0.3487895778741827  0.0545570958755667
  0.6171548412988487  0.7205053544682464  0.9948080508045281
  0.2144802241736035  0.1693546487723498  0.3736410459086994
  1.0025008730307157  0.7977283241216717  0.1551253957399896
  0.0356698504716114  0.5219160140848288  0.2512522345398256
  0.4324398548027536  0.2924005786279065  0.1810470154122471
  0.4765612861589142  0.5992686653663183  0.8642894509309870
  0.8793253692813030  0.0771613877325128  0.4796334387025227
  0.8597015331656953  0.6141059608350530  0.9336093541979493
  0.8550433172901128  0.1761145646385046  0.7402109317088659
  0.6650853645261974  0.5074215293013338  0.2983591367939271
  0.0420817404534150  1.0063941721736782  0.7426896534232910
  0.6987953085887604  0.8901857760883291  0.3677242275863976
  0.1985290661273856  0.4973578603019855  0.9132186883052290
  0.4242316660742976  0.2146740021505483  0.5480826231114847
  0.7150242584803571  0.4599985624757771  0.1583369586598850
  0.7121963281302770  0.9924386499400516  0.1533666234633210
  0.1372943871929455  0.4721969731000015  0.4675125943901088
  0.9824652745559248  0.5070096891004460  0.1810255660828406
  0.1884870840012490  0.3799624270234119  0.9982317913998062
  0.5854558032541110  0.2481779043533306  0.3045087682597915
  0.1728623191242230  0.9096814488135264  0.3558773742569963
  1.0000105449649204  0.9889714580080364  0.8453506987158899
  0.4482742358142113  0.8324037579758344  0.9728236668252024
  0.0972013471912110  0.0942701389877210  0.1837344763081207
  0.0808838796210218  0.3583875738177978  0.0779162418298079
  0.4358785174703039  0.3235470137094189  0.2854020188036060
  0.3755684916048966  0.8027563370493894  0.3961796885609135
  0.5606874892198876  0.3973803181032116  1.0038184701255901
  0.1369172415636223  0.0327028818662143  0.8660802026196313
  0.3708798560390903  0.7568253249800105  0.9076325978479515
  0.6320804524085244  0.2922843339637879  0.0261961099588695
  0.7455469950941512  0.1811893663992573  0.7598607851229386
  0.0348226911737480  0.4907396911632464  0.1457930819345716
  0.7390885727205910  0.7835350767259266  0.2431443496584154
  0.4316047837288394  0.7997585264781256  0.5302627662600282
  0.8206550070066090  0.9962123092058545  0.8843791641731313
  0.6272008119356210  0.7075570753127105  0.0541679668435515
  0.8903077623813266  0.9842252564457530  0.9229936484319780
  0.9050150039913243  0.8049393410371032  0.5817088990997568
  0.9167397216085139  0.9304563278175400  0.9325698703779020
  0.1095939643103158  0.7751063114662315  0.5623825694558814
  0.5152261334121885  0.4860746011914013  0.6388543973800448
  0.7231678971526374  0.7847848216839156  1.0129115971817302
  0.5066840581653694  0.4929674223419108  0.4193909988524189
  0.7650584218324803  0.0110084614499380  0.4621709802234236
  0.1164368630984886  0.2918979125510133  0.3020476514603615
  0.3352153118843980  0.8937220504898636  0.0405373979745009
  0.7786202160839231  0.5994963629507681  0.1945503517794841
  0.9465462671306579  0.1841403159015735  0.1040984529662306
  0.0413428344979809  0.8740654810901107  0.8777172119319486
  0.9388674996433714  0.6320998291917835  0.2416808015961989
  0.7285675691762213  0.2049973641069787  0.9632756792850404
  0.4806636505396041  1.0021930476012371  0.6674792665776730
  0.9739679513843854  0.3471824862768804  0.9281930341482477
  0.1998520487477173  0.5664333851460746  0.4669230855432771
  0.6030277898327201  0.9889289291357418  0.7133560994553438
  0.3906627938671712  0.9536615132277532  0.4753473742160392
  0.4230351732890302  0.8536517534807945  0.1185086221473780
  0.9906189720183902  0.0755858008176267  0.2098549721811164
  0.6813749733931801  0.2168983641107972  1.0043019195350273
  0.4841547334744180  0.8724987509094926  0.8130579159708665
  0.5862078229732363  0.7820926487255457  0.5309266417269218
  0.9059313546136483  0.3676279316614005  0.8365261453500152
  0.4077624683574991  0.5548402247687544  0.3646694938204067
  0.0726825851114252  0.3691507994563218  0.3175526089858215
  0.8372084080452424  0.3171437933777643  0.9786688960628196
  0.0725322028319293  0.3518487270367040  0.1499299873786165
  0.9174005089270868  0.9033991613112874  0.7537602043779534
  0.6326419620843304  0.2144360444136853  0.1025103863012322
  0.2649823935300846  0.1941943821566557  0.5411936913467655
  0.5525412102453811  0.5367468060534386  0.6429332324165832
  0.0695738068694715  0.7603530039993976  0.6731532688999384
  0.7396599421083017  0.7684053747374552  0.3040835283364617
  0.3491628336055397  0.3273295733425445  0.6597827778733136
  0.8325946759165466  0.0804919109693369  0.2733787707594733
  0.6505061099594385  0.2581138355549263  0.6618743366898496
  0.7444650613950882  0.2625646821831554  0.1823014965094404
  0.4252380385500564  0.8344027237283381  0.1778082761867693
  0.1394009461529361  0.0804773968934074  0.4679887396854364
  0.1524021558694699  0.0939235451916996  0.3190801690281496
  0.9210854870385313  0.4155995219581707  0.1915702425961373
  0.8733048178924764  0.8892649899386508  0.9084060129492748
  0.7219850447864991  0.5549670088290904  0.2472073092466207
  0.2550013637322210  0.6481508202966331  0.2897443549179534
  0.2959968747759377  0.3542720784156951  0.8059866845602957
  0.5579794947298540  0.4760364184060202  0.1560610276532719
  0.1778399274434016  0.3680621216137564  0.3527096408091261
  0.0422520973739443  0.2424329433795651  0.6237744885597968
  0.7615132982675130  0.4006294384470017  0.0811256448865985
  0.2593400865515851  0.7256083470808591  0.2113894459223755
  0.6547823686026560  0.9674460833728002  0.3857879589128296
  0.1344690647143681  0.1657447633602156  0.7234236153050102
  0.2767699878017837  0.9428231454688931  0.2684687835459957
  0.7733110195899023  0.0712530709683170  0.4389385582632093
  0.8447883931333678  0.2016542689354086  0.2367216755023498
  0.7451686391948393  0.0367910488002958  0.6221084810045765
  0.9860867946221143  0.7176870172843205  0.8714000263189146
  0.4286935334229807  0.8961527558062031  0.1623012540945243
  0.8021992831816934  0.8611402951154383  0.5289506139133295
  0.2953288189600840  0.3973793748143316  0.0328871125876606
  0.2570878295108597  0.6923511247911135  0.1047905059159973
  0.4861615414627596  0.8775083629258166  0.3574824325382395
  0.6189509268756120  0.0631561397936171  0.5715728149811108
  0.5271182307497352  0.0663151038178029  0.5964581960544020
  0.5232549422040257  0.6353666228341807  0.9258101724427119
  0.9621704079721535  0.3410774359725844  0.4045554371817234
  0.7354786223280056  0.7370816035715350  0.1966225388303043
  0.1062610980802390  0.7252060162811615  0.5138599636668412
  0.4712885491589217  0.6933544363027400  0.4013965317945268
  0.7860197440923016  0.6912280716158721  0.2844053775204839
  0.8767480350071793  0.9745572967321989  0.6893596086768593
  0.2083014406740015  0.1386444149107102  0.2665414648329761
  0.2425676266197684  0.1965549167041576  0.8114423708689856
  0.0214741101606110  0.9271364999202317  0.5895648743574150
  0.1918972303347207  0.0241062329258854  0.6195842520947034
  1.0084742327143463  0.8225337211108069  0.5587274947612521
  0.3287990341934006  0.2864733006151995  0.8812703457181016
  0.9744089388956242  0.4163631615247527  0.3225899732577260
  0.7321407448947513  0.1287571783562314  0.2825325300608160
  0.8908902601534687  0.9598559954776862  0.7481908197106792
  0.6498482496596032  0.9153562252559531  0.1033575771257779
  0.7283687808410026  0.6297017943733823  0.1679598950898109
  0.3806135760373969  0.8481379433973261  0.4417956635518559
  0.8247802020307923  0.0928278865424887  0.5126701049628102
  0.8800304234503339  0.6964264666639571  0.8117891112978562
  0.3145373663508343  0.1873858361227594  0.1165258366834801
  0.4165564776902118  0.1075947477919788  0.2269562537627448
  0.3278875043952114  0.2920953666200111  0.1477659006960815
  0.1029172837573344  0.7242668432289736  0.2729496729470560
  0.6742931646530125  0.6548416336758136  0.8039359910638711
  0.7862882837330653  0.1440799402342016  0.3533899563126843
  0.6206874170491291  0.0997159418653581  0.3765212944517617
  0.3584845107583235  0.2163450961500826  0.9577222060191621
  0.8089893851465624  0.2939233778754378  0.7075973554879078
  0.5756803912582946  0.1599801313664443  0.4517146522302248
  0.4686796360426255  0.6789691731010195  0.2344795982948064
  0.0512431034468105  0.6800398807104019  0.7911601885563194
  0.8343236758319519  0.1130784981733626  0.3807112765235508
  0.9819265517749243  0.4921949984300256  0.2411920349084246
  0.9473102848917886  0.7383204750551359  0.2682243214200942
  0.0928596207486873  0.5832445971213090  0.7539047324175282
  0.2600515596712687  0.0214825788030418  0.9116882725105898
  0.3949768325639302  0.9871729516194796  0.0274337551019474
  0.5806969181353914  0.6760058711230172  0.5002470036589574
  0.7237620957593965  0.8447182650249172  0.9014265588119861
  0.4658847086848393  0.0175611854902262  0.5981271940702932
  0.4786698171732249  0.7201707239762404  0.7841239422790990
  0.2014550603837071  0.6007509856473470  0.3414969382006440
  0.0340999760737156  0.8895179351596606  0.8123234177906432
  0.8426650741637298  0.7704320957154200  0.1115510785959878
  0.1825002469532205  0.9620912149600525  0.0856381464089381
  0.3153922845669503  0.1444055503250167  0.7909055542086827
  0.0170827841755443  0.3394768337741983  0.3083728739203540
  0.9586360173974798  0.2946028199663773  0.3623546986643256
  0.7927468254703555  0.6910511746355480  0.5188186948627510
  0.5185661026682383  0.6316926247696111  0.3224909832444735
  0.5312723610238214  0.7673794542436114  0.4603655319047907
  0.2577533992980849  0.4879738676225395  0.9959164052387156
  0.2693115563921801  0.2819753870591150  0.0767399282279362
  0.2979012392905023  0.6040633510252627  0.6014014092929261
  0.6378564882400160  0.8308076345004815  0.2496714019728538
  0.6298685314005901  0.7562552166618560  0.0964526414063448
  0.5036380834950399  0.9711276889908468  0.1298420798838382
  0.2719665058402863  0.6792417080688351  0.7765652692054229
  0.7822344862345291  0.4127205350443967  0.9004005467381483
  0.8635230400831609  0.3864058902656106  0.4102205691007353
  0.9372763834951033  0.6006436462277036  0.1362679592908105
  0.9285550991425139  0.0320798771317269  0.9631937457366596
  0.2149460878903858  0.4188783592948737  0.7654315237028484
  0.1162925799022438  0.3752660231363660  0.7390149128824335
  0.2681819645444854  0.5763966532842875  0.7592189025845274
  0.1249896760939633  0.3842915643102894  0.3871523549854904
  0.8225778484023671  0.4775276731034201  0.1324401337684533
  0.5775571827187366  0.8478999804600524  0.0535099245539206
  0.6707889177991654  0.5700781738506833  0.5072821497076585
  0.3693544024050958  0.5873393358559562  0.6821408925000536
  0.7557655842512022  0.9348628965190430  0.3121122165651578
  0.8784762471360990  0.0151300786588210  0.1912053098122487
  0.4753185109914074  0.1170915102918592  0.6227321304310741
  0.7361025339442554  0.4549226706871495  0.5606571352587318
  0.3138849190943002  0.9153632439922759  0.9159140713667511
  0.0815324928831523  0.4763657259865166  0.7682632362108373
  0.6011056296531818  0.4006606956653065  0.3698431983289600
  0.7853933773054836  0.5828114662676840  0.0285841971164680
  0.8905551623359746  0.1373540120423915  0.1548737588403956
  0.5710142699131336  0.6736592875261249  0.0466183985713908
  0.7429845564591163  0.2954097010299872  0.0557890227970509
  0.1493390734186935  0.6475680122796187  0.9596503323451502
  0.7103117478019019  0.4311686897634874  0.2828376238151440
  0.4066966079733560  0.5551216191427681  0.1367367248277623
  0.5995083941995560  0.5058138965007939  0.9937272682227908
  0.9965095280125318  0.1532573627701767  0.1303926777436301
  0.6486336678354980  0.7235022441397093  0.6313584749295538
  0.9068802261329501  0.8921659411998184  0.2073181939626303
  0.4603048761427814  0.8068380550803969  0.0288661853726308
  0.9175925779613040  0.4494011831633574  0.5351149193431221
  0.0855451704906522  0.4714269939914661  0.1120463704395143
  0.8639740411784346  0.7746140324697418  0.9620889135879115
  0.4020824935441294  0.7836159521160269  0.9703055806100828
  0.1050324025198565  0.3877079020409577  0.6753294282990445
  0.7833591244841143  0.9662069239579963  0.7868618608033242
  0.8688117011139462  0.4329606694962613  0.2239431010197880
  0.9346320585706070  0.5037600083620726  0.0493741122800376
  0.0475649994590105  0.6405611965736508  0.9911130463692736
  0.8301829975589380  0.5845972339196567  0.1588414300702103
  0.9050391796659168  0.8438295942136607  0.3957174678158523
  0.9063772658408151  0.3931596669665847  0.5482079807342469
  0.1670405024883108  0.3847580752704861  0.5254373543732764
  0.4694244500019426  0.1617763674361098  0.4181776129440629
  0.0458643636083380  0.3962893243453158  0.6533266711520224
  0.0843351466640592  0.6137460020916926  0.8820309458988557
  0.0726482925122367  0.9363001431829998  0.4279149008556812
  0.1008984994076266  0.7250749313242637  0.0329680501280242
  0.6406525449883856  0.2797058670916188  0.3137520140979320
  0.2079047882638543  0.6634950414241809  0.5621370753321846
  0.0575362917934263  0.5336223131640497  0.7505399136904747
  0.6127484451234620  0.4217962920829484  0.9022051344248035
  0.7064086033758938  0.9729201226773634  0.9807344309946490
  0.3356759449342265  0.9088461654574512  0.5267609029147708
  0.4797232056236373  0.5884109718463559  0.6620592629484086
  0.7414416524763298  0.6531407168357098  0.5191115510561350
  0.0236102728123910  0.0340086374505398  0.6124180840922853
  0.6603228182087666  0.6997789727113054  0.8444173823787240
  0.1214971486433079  0.8839227259902376  0.0356728591474667
  0.8270189424359962  0.5377912623760428  0.1148404817812751
  0.4149498032571279  0.6059874359976400  0.8417571133979861
  0.3013319678646760  0.0204981856569071  0.6023311192317293
  0.5802328708503417  0.2847424782524682  0.5775683274868327
  0.0838686718029676  0.8964021121125502  0.7773889260476373
  0.8505787605743591  0.3156074975868998  0.6088732019435686
  0.0942175376612742  0.5986762973267896  0.0769775147897332
  0.1497166464157768  0.4112251369308067  0.5754815833316124
  0.1023266525858978  0.4106567675968931  0.5437065696944514
  0.7676775509869362  0.5659748227365925  0.7043360544374244
  0.1311091232672918  0.4829224675632048  0.7280247468993564
  0.4801193813293227  0.8472813279607928  0.2494881065866580
  0.0943442607119071  0.0494758202977683  0.3769196166794623
  0.6904318364437247  0.7196021161668156  0.5870858867451116
  0.1698430862777432  0.2906276262781773  0.2068205530315103
  0.4141191474612231  0.4719074175099567  0.7174876439188548
  0.8367127670721730  0.7440330309789529  1.0081048599478419
  0.0327504860690226  0.1548301976707916  0.5766386848722647
  0.2333100977507876  0.3947593703041169  0.8897239251537086
  0.4129357338020921  0.6305843851703016  0.5124722198642491
  0.6348562535330464  0.4710583623622663  0.6801105577322164
  0.9382223729017514  0.9951445722293533  0.8220985235994438
  0.2247635324305604  0.6419451069109916  0.7051134543859050
  0.6757464136503103  0.6288814077250702  0.0357242738156542
  0.8112630967243537  0.9692217516183691  0.5531995248308130
  0.3701585798205041  0.8051405399137347  0.1677218215513512
  0.3703849459402360  0.7217914160616593  0.8050439314580997
  0.0342806807684673  0.3434743751765003  0.9417705002641646
  0.5321555987663941  0.8006179654689043  0.3362180017744435
  0.8554285155097604  0.3102318488276150  0.2627685482554191
  0.2815761604671543  0.3550681500788126  0.2229588474109835
  0.0584933888271567  0.2738644167275012  0.4634641046606660
  0.4208800415922175  0.1543507355752604  0.2757081719748465
  0.6577445368151219  0.9870989022283452  0.5610689406567742
  0.2483746502393924  0.0507309109820926  0.0749131052522016
  0.6959648082124408  0.1410841828660377  0.6912574699277239
  0.8499187475814436  0.2510027597127180  0.8878521110710461
  0.8079351978953190  0.3700123688904486  0.1114078105204974
  0.7903312980441980  0.7222068981862808  0.3929685468571999
  0.9096321481870795  0.3594178519277704  0.4409936610445407
  0.6605688774634719  0.4617984886263781  0.2549965093515530
  0.8765551382683444  0.8836685465217839  0.9735466662155877
  0.9543223982079204  0.1853666920468336  0.6506148520227044
  0.4719020512105988  0.7575659247136428  0.1567675337900331
  0.2621441101116497  0.1734826177306419  0.9349433582295931
  0.4971316990344233  0.1244607648110164  0.8578112342553069
  0.1280552434151138  0.2355708093396547  0.5462779579724610
  0.4088394998786000  0.5865860981580545  0.4703056368024437
  0.4886180122865982  0.0520179775657551  0.9852695364691588
  0.8503660461256786  0.7998282439904194  0.4470227065171511
  0.4942576280542181  0.7379364700643979  0.9500737085888626
  0.8865278919285579  0.0966244385655260  0.3449999292449905
  0.9811838050061801  0.0780867617972915  0.5130029355400211
  0.3255962814481559  0.1325482245117882  0.8541483415443574
  0.5713619146297205  0.1575089059918503  0.9823159341463873
  0.1626201208502366  0.1854471336895064  0.4079759509007096
  0.6034678707258233  0.7780819225395743  0.9741098783709649
  0.8468593014796379  0.3143175606651543  0.0341683528134350
  0.8550750450395058  0.3301531093077056  0.4314342023817683
  0.3258407632225560  0.9050035984184613  0.9773672747571259
  0.7018331261010639  0.7633520830164074  0.6267807527181722
  0.5456822677081892  0.4131260218706190  0.7152267680046214
  0.6380968270981462  0.7582529990922869  0.8273418284956714
  0.7833239477684597  0.1541523841653570  0.0580751036377850
  0.7052919320789373  0.2121194211504329  0.9077972042962591
  0.0635232501424951  0.8740668122912755  0.2046188853065525
  0.4862908119080268  0.3763619430647169  0.4705215336998562
  0.9771987438281098  0.1320986125175109  0.6065977490291509
  0.8205146073021150  0.2795207554891628  0.7675060384329186
  0.3993906166276275  0.5498012580351637  0.8657469238380495
  0.7881444244923267  0.0661953497315933  0.7999283107567443
  0.7757342632964837  0.1237969032413410  0.9508268588680641
  0.8586121456583349  0.5144173169083696  0.9107538732902160
  0.7506069197725452  0.3413210405754739  0.9504750368209410
  0.1188196561504499  0.9213135545828621  0.6170862841198457
  0.4524025206655507  0.9426201010015716  0.7304455056940854
  0.1011005451998518  0.8616471666628656  0.9839112778298762
  0.1291330994722180  0.1245833670054172  0.5238241271458401
  0.2479598630597210  0.0183261185532041  0.2019469669335381
  0.5650099926509424  0.1071693756300597  0.4810023596563699
  0.1778987357672389  0.0506484475685243  0.7628797365634575
  0.2946709241524062  0.8076466133626612  1.0084966024364239
  0.5656758164928128  0.5707381369620099  0.4715062059376365
  0.1668547619067610  0.2458593669400986  0.3916857177816128
  0.4691401077577104  0.6015960490546737  0.6035924357434351
  0.5644139636535364  0.5599613043188452  0.5298246158929533
  0.2355998961695679  0.2978487860175267  0.5691402942983682
  0.6763407563482164  0.0366761787058975  0.7160752415604670
  0.5932704711628163  0.4505802431536889  0.7794675929785954
  0.4101762158634078  0.6390424815748801  0.9460944763605540
  1.0021805945811473  0.8370137157242675  0.0304329445849553
  0.9150595123894805  0.1677394387305464  0.7602450681941219
  0.5536875840368171  0.7376258456013025  0.9701544528779409
  0.3741616613474770  0.4542856644603319  0.8179841745355444
  0.8771464146643191  0.5244330392431953  0.3104930016623723
  0.7752153612297720  0.4233376627922918  0.0136689638031468
  0.8630967104269651  0.5865098317402031  0.8251466393827434
  0.2619605267338844  0.5124705666203219  0.5521047591377852
  0.6152188916433985  0.1930061618308365  0.9386145582120506
  0.3590288866979091  0.6325045604214453  0.1570214366921336
  0.4512324947251704  0.2895914570855316  0.5354537441240860
  0.2047951670628976  0.1462469143079895  0.8086032847002670
  0.3548099496634799  0.5702180971615970  0.1735213299192594
  0.0958763968722539  0.5301666287305782  0.5469730223623124
  0.2844328784146882  0.1138418101356019  0.9590498247914497
  0.8075524046684898  0.3544100690239080  0.1735742451114428
  0.1674903129170447  0.8157708949841221  0.4992960002503857
  0.5977455990059140  0.9267428395972442  0.0100985483965095
  0.2683987516757980  0.8030640828699088  0.3604733553116468
  0.1991627371077874  0.5670974192376289  1.0116311677282539
  0.4435858319010745  0.8984614318638112  0.0749904820758122
  0.7241363805244820  0.5228292992451340  0.5390722673803408
  0.6216989364426264  0.9658011692895188  0.8417725398607828
  0.8879734967673191  0.1088911921400930  0.2825124203783258
  0.4433591025472558  0.4344657205635333  0.9013380926453273
  0.4957886227376688  0.4065552686058876  0.7554585142698601
  0.5371943990286698  0.5916795672685456  0.8844614506126193
  0.6639310598731335  0.0465173905352793  0.9912717716928392
  0.3415078052866957  0.5240214305489396  0.7379953193605183
  0.0916776739828903  0.0634346153366733  0.0744470843663324
  0.3617135956954908  0.0608497007489339  0.2818383964065546
  0.2551193088060588  0.4362039707685080  0.6628579911562192
  0.3233564772668674  0.7215433919382704  0.5663944941352337
  0.2086273578150278  0.7672751967507111  0.1217922504521168
  0.7835556004819509  0.6535988820133312  0.7854805768966101
  0.3741064373384987  0.3650548309966466  0.4873217897622351
  0.6564360526614637  0.4170674047862072  0.4396268542616514
  0.9040791966506706  0.7842105048091899  0.4107530982974188
  0.8754699025114263  0.4930214471067562  0.2053446532461344
  0.2060658843564112  0.2005759327146233  0.5672050209225278
  0.8041025205535994  0.9058569396050157  0.3399731640751653
  0.5726862913464483  0.0925902842003945  0.2349044274942027
  0.2722775951207137  0.8803655311099918  0.2818891464484788
  0.4654581038009961  0.0824779918917990  0.5724117113652984
  0.0749854291792686  0.3847258114322298  0.2553364431604632
  0.1640364551777087  0.4134972922557286  0.8059951288090633
  0.9079889680619668  0.9146013305465404  0.6114938975751151
  0.2503894692357906  0.5700988979109181  0.3692277689561608
  0.8012273172076152  0.7791358571404131  0.6156263945750399
  0.9480783708018585  0.4886596908099380  0.5647143156916107
  0.0937932673084835  0.3129178812578998  0.0224707740071153
  0.8075401935838674  0.7484096886518160  0.8327054397269328
  0.2623752520942173  0.7415689677638003  0.3769151191333869
  0.7907075356600705  0.7785774500826026  0.7086059863452725
  0.8030523853204196  0.8757922643036643  0.4660973991601884
  0.3705479572705603  0.8678601509141858  0.1519416026607349
  0.3357553585789564  0.1198719114249328  0.9173341805607856
  0.3431565527941358  0.9433308148892614  0.7490855634058848
  0.6987394221182360  0.3273763849580175  0.8345354719834905
  0.0976829662158245  0.6323463383835062  0.4128395184397641
  0.5255804562434703  0.3668615214251182  0.9446374262310018
  0.1308110734901747  0.3813138524683770  0.1579071998443551
  0.8957929300453888  0.6241176161005404  0.6599382766306117
  0.4174230808667579  0.0245302694076702  0.8521910046258830
  0.7794679563108541  0.5844406955359505  0.4903403326951719
  0.0734132918167115  0.4603005374224457  0.6031727434470168
  0.6858058527068129  0.6918633248664218  0.4786919924172032
  0.5857463764743164  0.1449196735257557  0.7121372602992111
  0.3468793170292588  0.0188006955332671  0.5604220198130244
  0.6511498562954718  0.2898821985869593  0.7681078734026426
  0.9467589377059888  0.3929292748831634  0.9710422022025488
  0.3479898156595577  0.5443214311733600  0.9043159882531615
  0.2638073800570750  0.2211270605073613  0.0918389150720305
  0.2219749534427382  0.4397152240615839  0.9354184747374494
  0.2895588153106300  0.0173917322641369  0.4211073024983488
  0.8577809899040374  0.9304059218210882  0.6450670283892823
  0.4841045196459985  0.8414577842742367  0.7082154955325771
  0.9134045886712687  0.4082079762906551  0.4859579191285955
  0.8373690567064622  0.8130250333980119  0.7787700997744679
  0.1369761834497898  0.0608797845272832  0.5244556345785039
  0.4894994600920677  0.8760993000914025  0.5870271833566510
  0.5914544475039801  0.2658878388819971  0.6391969316887033
  0.6422221647683998  0.2932802601692275  0.2507301089385061
  0.3804929533480066  0.8334803726618875  0.5027892711729397
  0.0363109142839799  0.7252295276148301  0.8380602375051158
  0.8497107533968155  0.8288785083591410  0.3231112604491846
  0.0866554868253896  0.1271787392379513  0.6582120398329130
  0.3319595424369294  0.4358837729695161  0.9178298468710734
  0.7825343766204689  0.6461047419278629  0.2396622223832406
  0.6784487620468164  0.0700909860265409  0.8193871980537767
  0.6942671376181107  0.2926747611534899  0.1544695895056064
  0.1905887100465877  0.4931068550999333  0.3135730398633899
  0.4032174801254341  0.5243344677026385  0.2598777813765027
  0.0302003194027547  0.4289460322308158  0.1617178936952754
  0.3276824549959387  0.9276634806447894  0.2332677556106059
  0.2449213852895344  0.9005309967481676  0.7260025079928613
  0.6382666250092557  0.8772011851349918  0.0542987503556655
  0.1507963945205135  0.2729882585412447  0.7117138095692384
  0.5661531499285285  0.8085619687002066  0.8513326914156530
  0.1960945374532807  0.5514994193900730  0.0710349098198591
  0.0310248550042165  0.9889650232544320  0.0191590098015464
  0.5822896358438014  0.2161130235069170  0.1977378385810020
  0.6143708867805412  0.8456013321741450  0.9183818973102155
  0.7438166517216713  0.7828962014480148  0.4735868793144599
  0.3914079459908452  0.3998403223314816  0.2981886243071711
  0.9548667855298802  0.7254103091422812  0.5698116062465334
  0.9466159379060080  0.1522803406743672  0.2288722717706228
  0.1190613595935279  0.3064242863922955  0.2407923875725329
  0.7974438109601726  0.7965990034322088  0.5481630807443582
  0.0929397280498225  0.5700251672734581  0.1987312032919881
  0.2127794089668421  0.7724688939277395  0.3526761979026147
  0.6107036243083552  0.9991873777319972  0.0457780152392185
  0.0765564349249659  0.9836400868861880  0.4716555386954726
  0.3106350882994700  0.7101954141279448  0.1759556340856047
  0.9258535010263910  0.4634948331549223  0.4604509407047827
  0.9650828218647723  0.3377930065870740  0.1768232002991270
  0.5032249719066965  0.0291335011068573  0.4273425204124746
  0.8501503780101868  0.8431616410849152  0.2618084818182763
  0.8223144162268589  0.6759536319361572  0.6845762320845884
  0.8188760748488828  0.8893946305776528  0.9328950578365519
  0.4259560795687653  0.1110447809243747  0.6654781548887952
  0.5092677349076552  0.7698600894183620  1.0083517502411732
  0.3545704145137950  0.5557263281504644  0.4600554193516232
  0.3040271021659413  0.4738514457547048  0.7323890863094792
  0.1199095695405730  0.3427213312411433  0.6329548801245446
  0.3694229358416404  0.7720337883211627  0.2903565931972351
  0.8362723845281579  0.6764584138610611  0.2503811092552953
  0.7257651351660184  0.3913808463945835  0.7755956552406162
  0.9523535586614672  0.3637532274338073  0.5678663032639403
  0.6938124502924763  0.4632618754958863  0.6989080194633361
  0.0492337162782758  0.9625799452103534  0.6946768158730547
  0.5932417500856645  0.3416488719603377  0.3917063044066114
  0.2029548856223313  0.6470615320468543  0.3890112122870584