Cr H  Ni
 1.0000000000000000
    38.7642358654787174    0.0000000000000000    0.0000000000000000
     0.0000000000000000   38.7642358654787174    0.0000000000000000
     0.0000000000000000    0.0000000000000000   38.7642358654787174
 Cr  H   Ni 
 1596 213 3725
Direct
  0.0360299797695954  0.8875520662736095  0.9862261453745942
  0.7911048986526347  0.6890666446919494  0.4518704668505362
  0.7784108909106006  0.6630227956959546  0.3966767746166803
  0.3734028900006201  0.6891524111694294  0.6944731685623008
  0.0713074319213647  0.6093980521051390  0.6303322029857787
  0.8166095350358048  0.5859778478656761  0.3881428981899144
  0.9290574855824888  0.5826383039206399  0.1924634272194167
  0.9829132402846291  0.6138955645716205  0.2014334501457194
  0.8714422325109008  0.5543674647859845  0.4162669660459056
  0.8677884606460606  0.5080337599356637  0.3709596560912823
  0.5697029967294703  0.2217964469998622  0.8576687136511763
  0.9185491709382069  0.4936436473540474  0.3377330630341912
  0.5890044367903006  0.9437365384592015  0.9377170840620729
  0.9124196225522877  0.4323631272266055  0.3578417622121001
  0.4183644966049146  0.1779777929478695  0.3794074078355549
  0.5519983287551080  0.5389492769373571  0.6396706613095250
  0.5922773271792550  0.8672277265376751  0.7839706740106617
  0.7204331854805528  0.0130357952702360  0.7123235255043832
  0.9377906898570445  0.2133238744195921  0.9793013163611057
  0.9254378966643318  0.1769683245137955  0.9302693091199415
  0.6126703215092546  0.0470956503582378  0.0847676594237335
  0.5369532963086626  0.1711442739708362  0.8551417169942788
  0.4299978062423975  0.7136611277935249  0.8223596502517168
  0.8417507918385170  0.7964811515053164  0.2114177991454008
  0.4775102840789589  0.0164360278333948  0.8698786490829850
  0.8127059089764681  0.8881629338590962  0.5204336050042859
  0.9075800203083407  0.9891727084920542  0.5263895326618384
  0.8514646127051221  0.9455959989536981  0.5190580198063658
  0.3688708051152177  0.7958318684153897  0.3945780104773643
  0.5577310621364915  0.5812531235079987  0.4077968268571533
  0.3642067507609705  0.7519655413319167  0.3492367653881586
  0.5108985100176698  0.1987590149274999  0.7343058950610784
  0.3623232774177448  0.7679824427424274  0.2889290675708195
  0.3102869130699276  0.7524429489165859  0.2174009005178800
  0.5678202322637949  0.3276692627739544  0.6191576576652206
  0.5107059268920422  0.3358670686948557  0.5976885003888545
  0.2685646367974417  0.8596439137768412  0.3445704744775874
  0.6163553905754192  0.3603651371270045  0.6881811743306986
  0.5567760724755216  0.3712072481722472  0.6647335295282040
  0.2188951336235593  0.8867492458647780  0.3174270715484165
  0.2742122893816997  0.9246348844166752  0.3268538408332492
  0.6753602502704216  0.3828406213291337  0.8169529627915890
  0.7142154225277010  0.4329089073184640  0.8192299170582075
  0.8262949466653182  0.0444494404014089  0.1628786777265805
  0.6553359525755937  0.4582822859214871  0.9646467104316063
  0.6453303217252656  0.3847913538407562  0.3321008600973641
  0.8231709595025273  0.2040748223596640  0.9460037356296848
  0.3673452759988813  0.7216855752869668  0.8009993958825113
  0.8154543457543029  0.9362970805942779  0.5740660988701030
  0.7552053621681962  0.0008276604371469  0.8540131987659787
  0.8161538494290427  0.0455663570153050  0.9224910222480992
  0.7864629738394893  0.3454550449394908  0.6917352812618340
  0.6273159836815374  0.1836216781428977  0.2211576993706818
  0.6225439687794071  0.1243398213866673  0.2380936116408034
  0.7490689966786561  0.2668575613086411  0.5812548608760791
  0.7168012511537646  0.0335182493385876  0.1891591753818765
  0.9945791589410462  0.5554450775359568  0.9278118232379867
  0.0687289543968844  0.9459947404183099  0.3577370021160157
  0.9615278447403557  0.4860067222214138  0.7241952397777304
  0.9234924131888335  0.4368481864963388  0.7191820687644822
  0.1122351810796117  0.8704212109387853  0.3414712839661943
  0.8649521578328814  0.4453165149053386  0.6964723756120109
  0.8175166385253024  0.4070192958931642  0.6312317590536478
  0.8701740931393560  0.4106126061990190  0.5898148906023406
  0.7712432961883194  0.3726719822078717  0.5660367832930182
  0.2082603108638467  0.7823302622923125  0.2875205287550799
  0.1988128810546401  0.6741947344274763  0.2604735700656551
  0.9288969146077601  0.5620020326777952  0.6479090364678831
  0.2973885906755429  0.5822815904922588  0.2075643398574177
  0.8616644536820014  0.4179211506671772  0.5246540363652510
  0.9567263613287976  0.6060054857269457  0.6769560315215915
  0.3818538672828635  0.3372872905877878  0.0929847859320568
  0.7425388016482735  0.0123027012697307  0.7901929603826505
  0.0576421723997260  0.8725250990229663  0.2060541420251984
  0.0516547099544842  0.2894490165468113  0.9058293055481431
  0.6649378692422476  0.0376333339368998  0.7028569788976328
  0.7199936534337286  0.0395075194116028  0.6547296099168395
  0.7120009167251792  0.0565607400920457  0.5954455951581533
  0.0986634235420084  0.7347134222680031  0.2050299625800800
  0.2505194450869558  0.6603294005819595  0.2245764433471012
  0.9675427315062858  0.2297768837655804  0.9358346101986001
  0.8547633411549714  0.2044497183077609  0.8461612749141009
  0.8436639661305629  0.2168041531189516  0.7881814875392072
  0.8030067631278039  0.1670950190911170  0.7821453955120768
  0.2453184318726769  0.5660849164325600  0.1384335681409629
  0.8656839029433986  0.1592066346127662  0.8024307977995233
  0.2426262011800532  0.5507749284655591  0.1978743582842527
  0.7521438252202054  0.1318895637854791  0.7121784626923939
  0.3407540177405990  0.4565260384396141  0.1462378623076640
  0.7534099341332121  0.0983221454773396  0.6032776555128767
  0.2865333282382957  0.4249886866060688  0.1385077245735280
  0.6588036863676808  0.0992673436369757  0.5137294886639879
  0.3872040740413757  0.3825892598412918  0.1329104665950381
  0.6001859787802845  0.0077750668554158  0.5177775746836335
  0.9769614416436933  0.3399982028675752  0.9219553522705367
  0.3305406971376165  0.3514959422732247  0.1259302258812207
  0.7834196519932290  0.0618726346952382  0.7912909336258942
  0.5976426787129522  0.9793368975718091  0.4130005521875792
  0.4446519357999661  0.9054046944480718  0.0132985397167197
  0.5842479300405309  0.5539470384696397  0.5356159624374750
  0.9850088720291001  0.9626317872150680  0.6763978001742941
  0.9007417764042859  0.9998620824931433  0.7943984456951082
  0.4738999598610533  0.7348229562900126  0.4467977127381935
  0.6993278008391717  0.7434894274769758  0.6189101462387450
  0.7822982744806756  0.8304562708500107  0.5882108342752448
  0.4747872501191732  0.7935780544973180  0.4314762200937158
  0.7749635172119262  0.8759445683353894  0.6285971176812820
  0.3776376747919761  0.8863955744776268  0.4859038534769213
  0.8311282990561837  0.9147643997396406  0.6932950001083965
  0.3810915915438061  0.9479315513307706  0.4697588873992382
  0.8551328244700168  0.9958566474940708  0.8323094320709140
  0.2804007306754484  0.9959280897634427  0.4805242370021958
  0.9578224413161520  0.9810555054889889  0.8887111842409465
  0.9232591359272715  0.0222655911441416  0.3348159177846761
  0.9670124815361504  0.9680008846844339  0.9480566262040413
  0.9268676056941018  0.0661155940238168  0.3750304750391445
  0.8802569168623471  0.0901728906865619  0.3415019074284067
  0.6447745484571628  0.7051929637730929  0.5564603960220422
  0.8929991173557430  0.2143779520103362  0.3048167643673783
  0.8387243976563016  0.2162860376467885  0.4006630846581135
  0.5867199293908655  0.0130671750119827  0.8502591050111564
  0.8592943282450715  0.9753139756737875  0.6298207666880467
  0.5573930071029665  0.0428161472433282  0.9468834178325418
  0.4889322002361813  0.9889640856030791  0.7281067423287948
  0.7674315403602510  0.7207030656216646  0.6996612117982217
  0.8164025569571733  0.8445217171999384  0.8206791650560596
  0.7507625115684068  0.3863676913810666  0.3717072841793755
  0.5632234468104615  0.5751972491372135  0.4687200071458871
  0.7788527756202601  0.7133479977556840  0.9819659875149154
  0.5733660319591665  0.2984098321675829  0.5127069028106777
  0.4115616045354037  0.2491364890543540  0.5264087224367324
  0.4190501901676679  0.0123545303131427  0.6402500760370496
  0.4417020014668914  0.0541399885792295  0.6811969309710466
  0.4520709264623522  0.3799184446265641  0.0304277014052687
  0.4309773409293085  0.3221687389298872  0.0580350922710663
  0.5142416943447329  0.0337826221688581  0.7644218312187485
  0.4890230098928329  0.3514121093451134  0.0636741915408713
  0.5053150858739792  0.0761944749004206  0.8086812014279081
  0.4738164305135306  0.3089957512631623  0.0151112197386742
  0.3940045473656704  0.3879066542504386  0.0605902759060132
  0.3944670834942430  0.4395253921474192  0.1097532272706223
  0.6274348340481954  0.1915865448586907  0.9353343325400718
  0.6179571400596610  0.1349021723970024  0.9458526247932161
  0.3980206197964749  0.5034171693741188  0.0945217947884265
  0.5257978933066262  0.0203303457336231  0.8297524891111586
  0.7565705870864440  0.7646693418168127  0.7409060820970678
  0.5395637990427740  0.0089650450347138  0.8939860954625229
  0.9421961349557952  0.1648369455974006  0.1637097084479142
  0.6539011099425305  0.4776157135185655  0.4176042051322872
  0.6708667945246528  0.2311470452292283  0.7801800767131489
  0.5014482253937603 -0.0005781768010568  1.0005300705129594
  1.0166127117440302  0.9970358276910810  0.5014676668844457
  0.9616716601606888  0.9651187473947789  0.4928437046543828
  0.9815109256744112  0.9196601838289257  0.5710714012779229
  1.0224397978960531  0.9826490581468321  0.5717968730241633
  0.9640323914006260  0.9708975675767156  0.5566647833623722
  0.9745632510829947  0.9757677990982848  0.6171422803911387
  0.8401460225557376  0.7818581750792336  0.5042692455089658
  0.9334812776135136  0.8764574218103415  0.5675821022530033
  0.8852015918135301  0.8716286787387526  0.6081531551305486
  0.4783265198416604  0.0028756248232716  0.6600278759904636
  0.9322516146691575  0.9236391268625784  0.6091788249717829
  0.7719270716530845  0.2872586247780730  0.9724607320713515
  0.5157364060777033  0.2350903816402848  0.0023707015562574
  0.4557367187759023  0.2529608894458560 -0.0190881450247592
  0.4972057826522792  0.0469611547602883  0.5310030906203194
  0.5027978624236780  0.1151092683379984  0.5151182294496054
  0.5187174481918496  0.1255158252838537  0.5788167807154250
  0.2937249199692242  0.5014786105334826  0.0578955006049183
  0.5699069701453024  0.1605266107501754  0.6457026080339000
  0.9218221452594801  0.9670851021613099  0.6525614055456710
  0.3502418018293825  0.5832169139804375  0.1089352615988615
  0.1205956016169655  0.6192106138119039  0.5889845022035337
  0.5578118377825833  0.1744183165870644  0.5867791557897514
  0.5598276504853609  0.2049669671899121  0.6930576596579642
  0.7084198468792655  0.2803217859848529  0.7878459694547649
  0.2511475239279412  0.5954615784832901  0.0124555062031368
  0.1976380679154874  0.6107459692869729  0.0483481662645680
  0.1481156814528571  0.7578848855645171  0.0379226251020038
  0.8842020826766178  0.4441075715534492  0.9841984681091541
  0.1530029027390219  0.8005843056332468  0.0879208503156889
  0.4806599138171179  0.0795060777512538  0.5737775590597496
  0.0599641004107109  0.9046189985480402  0.0831565874132146
  0.0150496666252599  0.9659909386816932  0.1639972944385944
  0.5305242553147244  0.1117775990976714  0.6412175436054397
  0.4817839252585239  0.1059118504622171  0.6833035983822159
  0.5435610781005610  0.0970712151390767  0.7036669411124903
  0.5827831853142783  0.1469533358799723  0.7079681956820763
  0.6149172509318706  0.0625431732941347  0.0205719974040225
  0.7202938761257793  0.0631621456678606  0.0583786782395956
  0.5842052079299038  0.1765567134055582  0.8172953582347959
  0.5736530561162756  0.2062561132187675  0.0251561282236540
  0.6947620926390182  0.1997311923622643  0.9080554179524774
  0.6753945157958906  0.2405616631695275  0.9465331307061979
  0.4766929267173013  0.2420993533344583  0.5496685442944821
  0.5983603311315145  0.2541627885621318  0.6985734281467009
  0.9803445432888858  0.5706818270468650  0.6192663588277836
  0.3877199760009916  0.4128898404375673  0.2386798465548812
  0.9745212213371900  0.6007205512454138  0.5622672237192974
  0.7283470733779478  0.1553214608113183  0.5887003977591440
  0.5407384604994427  0.3811142839656426  0.2970208688754390
  0.5939314674943783  0.3827003399679513  0.2002070888706016
  0.5355202652142811  0.3981918972806618  0.5359390748367471
  0.5491832500611461  0.4581760335888904  0.2151764718289284
  0.5063680567477044  0.5826466644971727  0.2759777011142261
  0.6662600677109308  0.3948325584912894  0.7553940729777595
  0.7949112572218665  0.4601731147516868  0.6139004798600013
  0.4531008381218605  0.5666332504571241  0.2053207341054584
  0.6446655304918696  0.4547529248908811  0.7373370128805437
  0.4101240336265563  0.6746781589749338  0.3282316687824756
  0.7005389402259924  0.4762686151938983  0.8619131842735727
  0.9574150675279144  0.7871700234012933  0.8079903392446985
  0.9017739462404080  0.7965827433069506  0.7834733655580992
  0.8326511289849131  0.5569919088319273  0.9868788810976677
  0.8112056787399701  0.6099731299969963  0.9646096493427999
  0.8773262664527262  0.7257404230597969  0.8974006750409419
  0.1533159518510515  0.7810599690501000  0.1526067682760796
  0.2086249176355590  0.7963191080374080  0.2251147524682514
  0.8819242520221952  0.6870153742785808  0.7967728263851553
  0.1621602366314394  0.8385795932824259  0.1328986932307227
  0.8497950936598752  0.7739468162696235  0.5657519010885258
  0.9450715143228123  0.7079220305058787  0.9822995394840304
  0.7479536199370620  0.7468053657019884  0.5791240768168440
  0.1627746169173333  0.8713510599569547  0.2410516539457097
  0.4419622171291455  0.4328086793940131  0.8973045259626374
  0.1181804911907213  0.9176905245067685  0.1498045024164027
  0.1247587236159611  0.9594724512137068  0.1912390883571164
  0.8996753905762425  0.8593713478309724  0.6707251361519462
  0.9110620606950813  0.8509617351763137  0.7355273143408165
  0.7132850445090207  0.0012717117481089  0.0799774210386523
  0.6691797049488784  0.0923740969112527  0.0311261230665747
  0.9722156045077964  0.9224873642298275  0.9032680958519431
  0.7339971272858976  0.5955428926467785  0.5232392006501689
  0.7039871587553345  0.6512892162904447  0.5273396335243743
  0.6325297514850478  0.2788325745238559  0.0824378639284831
  0.4896637145057893  0.3817422247375274  0.1661683493487982
  0.7623761294905504  0.5722031854366554  0.9017508189420600
  0.3555905139369772  0.6594298765554212  0.2591139657178454
  0.4428478097013003  0.4128953774539299  0.1407547363165782
  0.5197371201643320  0.5007953395730116  0.8002506952031945
  0.6617369265092572  0.5522719983876943  0.3357832802366741
  0.5479192926655666  0.5745265761060671  0.9456237995430067
  0.5605638014114590  0.6246175658489054  0.9929185328904254
  0.5712709246953768  0.7049402890293403  0.3709873916849426
  0.3453576546710406  0.3584754638447484  0.7659994732965071
  0.4380364866293054  0.9497928478367189  0.3724445230306173
  0.5504800946129091  0.4580724385682582  0.9862024161716743
  0.9641785137005838  0.7729720041018578  0.8784388822258672
  0.1486641925514787  0.2363587242777419  0.6070828266705970
  0.5878469354642061  0.6275809970903043  0.9448915446939428
  0.9503289527165836  0.8151843799734649  0.9253811539871111
  0.9906017086946857  0.8621679931204231  0.9183182783689423
  0.6235068023034446  0.5501187001652382  0.4984845052943504
  0.4512572336122602  0.5219809272413898  0.1641815403545547
  0.7177642795864253  0.5379924868456104  0.5776822414499534
  0.3485051905985451  0.5660498369813386  0.1714424799452857
  0.3516008223744497  0.6125743394325331  0.2154829848650283
  0.8381056105382255  0.6489326097194871  0.7356443189705386
  0.3570001562886301  0.6754297269210623  0.1989607013207539
  0.2549817004574145  0.7212641655220857  0.2076764015127487
  0.8267181523091766  0.6930883513778620  0.7740123588175456
  0.8409230090187743  0.4038643359779536  0.9228120753049838
  0.4301794556158713  0.3983378863967632  0.5585818567989466
  0.5363289085831170  0.4291404550613004  0.6521594901270552
  0.8920402415526046  0.1829151312550434  0.1992664904690070
  0.2798305020062232  0.3453001234553367  0.5743246518416207
  0.3371952987822465  0.3414961123158402  0.5952872607475188
  0.3247648222608814  0.3857455612124690  0.6413514474314151
  0.4241310291875433  0.4301928451793290  0.6712487815371909
  0.7523191932584654  0.3998941126107718  0.3080586437228618
  0.4118240257419318  0.4728946135547680  0.7134820531075423
  0.7554496738581818  0.4147187081007149  0.2464010797119309
  0.7045101636727549  0.4313215630471061  0.2794346846252800
  0.4107686756482007  0.6903589027376986  0.2685198626275869
  0.6048042045804528  0.5671996814012704  0.9654994039073806
  0.9362503671009391  0.1043164108540315  0.1809572689208791
  0.6127971910995097  0.5821255292860822  0.3089473794079816
  0.7517922390868734  0.4809216917534709  0.8208933452159763
  0.6670156064917802  0.6143071234275758  0.3174676099115963
  0.1215240514601776  0.9448343121405656  0.2576634513659634
  0.3466191347820938  0.3273028270646143  0.6598631708902893
  0.7688446319842025  0.0166654503738986  0.1536000042696044
  0.4852026501628174  0.9179728378889892  0.3969127424207164
  0.6103961145351657  0.4954130003046415  0.5569961313837763
  0.4315998801647484  0.4457522671382802  0.8377851391859188
  0.6854440290479366  0.4731899169451117  0.6340344888564057
  0.9918318444001815  0.1195147452928939  0.2562081793254851
  0.7414503047131378  0.6108286758259052  0.7163886063503313
  0.9428727726121068  0.1836107123604184  0.3321358531154774
  0.6757942878776202  0.1398299242373429  0.0781052061712931
  0.8179483300406772  0.3081176545875994  0.8763242353420154
  0.7574485450395007  0.5824651319517015  0.8394989303562681
  0.9476221233651910  0.2432348347461538  0.3168262790247237
  0.8140081443814096  0.5759290946246173  0.8594396355199373
  0.6585250559542857  0.5059892805439483  0.2928137207527602
  0.6317294815217086  0.2448145613114271  0.2038592917480083
  0.5861553270488947  0.5954749465428993  0.8411622524122080
  0.0093736301920993  0.7664600242669474  0.6578107907253534
  0.7687888638383382  0.0321357058698158  0.3293161334000932
  0.9740802207884666  0.1536951329276687  0.7853721972714356
  0.3711874497150300  0.5244569365580204  0.5288561794840672
  0.8630712546860215  0.1237601841583897  0.6951812370264140
  0.4791418989124694  0.5593549518684746  0.5572039541540511
  0.1934689886234251  0.5043042047426136  0.0227574474566864
  0.7060105225672997  0.4450452270324932  0.2160230428391413
  0.1865895692115238  0.4365056923080884  0.0378536950414501
  0.6088239632005296  0.5357442948487786  0.2654684505277513
  0.9424475611901372  0.2248915779740218  0.7067474881912660
  0.5773700597537557  0.6100135138712997  0.7803841382753117
  0.7242458224758898  0.1439741777357108  0.4440890483674964
  0.6246591706054522  0.6445888436551465  0.8409939731139313
  0.8155528331139549  0.0888214958943229  0.5035113466099604
  0.5996021368219567  0.7028385792859748  0.8189778983464656
  0.1412305333902626  0.5651335241360899  0.1003779825008508
  0.6689182143667937  0.6850199234586033  0.8963404355274982
  0.9715616974392257  0.4497381043280888  0.5417808732806714
  0.7194323431470029  0.7239603802358814  0.9606124191937653
  0.4678177749489839  0.1846308808804114  0.0536959721122685
  0.4208678728634949  0.8018345339777647  0.2977818428367845
  0.5182937943219040  0.1536241778513779  0.0773293414631843
  0.6482632926901608  0.4000695435433376  0.2707935129878354
  0.8312755223109088  0.0652782310402872  0.7525582564605046
  0.4344826864885416  0.3514563722903714  0.1608806022084355
 -0.0025716215138603  0.8133260934812464  0.0928089345285441
  0.5352343546807653  0.5883534051862722  0.8826098094533583
  0.5278435440629803  0.2444358600483994  0.1690769938260625
  0.8424335514838048  0.2454982209922304  0.2782986682438421
  0.7449160639910510  0.0473106446198578  0.8953209793044478
  0.2436032227293701  0.0785097606496705  0.9539224179177351
  0.8699628655733804  0.3117176274575909  0.8413980363537596
  0.8193017697647759  0.5742618189369143  0.4457196346107635
  0.8976536358318323  0.3406416484583514  0.6738920862788025
  0.5901964046074899  0.8999355014324109  0.4967758128382174
  0.2394965998544237  0.4676378995462915  0.0509893997583997
  0.6730470554701787  0.0045954563424450  0.5999796187065921
  0.8733931482417094  0.0183016810550826  0.9553853560487446
  0.7502367964680180  0.6530502688753401  0.4880281471395009
  0.9372618707637503  0.1378426371259734  0.8893374794539239
  0.6110084622399385  0.8573664305470888  0.6211624251612314
  0.3555635203030640  0.2499863758692386  0.0024122542383989
  0.9494514570208696  0.3226627162650146  0.4643271457180054
  0.9084814667264679  0.0446331007861419  0.8373155557118158
  0.8487411552181710  0.3722535853252735  0.4709502448110280
  0.4021237867618889  0.1206890160173552  0.9344215546235678
  0.4904523816271081  0.5752912235762578  0.7214571878509901
  0.6033673011420909  0.9872759968068299  0.7037277719351283
  0.7677423662541917  0.2075232483074189  0.5965048265878208
  0.0445122269240470  0.7341207883885376  0.0728001694658935
  0.4676016387238992  0.1694261465798514  0.1128927183662900
  0.4853005549586687  0.3616417327480780  0.4605950857663458
  0.7581571079252939  0.4165840043071910  0.6076679976110239
  0.6979999023134074  0.4302747192338289  0.5900321373848489
  0.6888036260171464  0.4438768283292928  0.5274570881619604
  0.7534860016634508  0.4356690165354819  0.5502221967845018
  0.6486910867073539  0.3936389183774191  0.5213228375412751
  0.9933719123238157  0.7065044952665094  0.9370035229939232
  0.9471518470574949  0.6702824686924005  0.8843140589118361
  0.4551730855088654  0.6284003233702883  0.4164750016749508
  0.5052803648632849  0.5972138600573023  0.4450530491239453
  0.5032100973345476  0.5518036645669130  0.3987506552989957
  0.5074476606337339  0.5387904601187385  0.4567868908598515
  0.8276680508819323  0.6994929947396188  0.6901709787138799
  0.8215789675500212  0.5573909231441166  0.6586258981678356
  0.6009471930832820  0.4473238661819245  0.4069256970399341
  0.5905224842228476  0.3833216196154043  0.4283728691060981
  0.6334339252854300  0.2622156016968355  0.3737241665723836
  0.8950481452057258  0.6432911030239661  0.7573515883756683
  0.8768255761696757  0.7055184172633255  0.6495398188331096
  0.8916504167187028  0.6123609306047805  0.6473018251162682
  0.8237588968913353  0.0597110148946670  0.3337599906854550
  0.7699869576658644  0.0790428758775328  0.3698190683366624
  0.7942284546208932  0.4983309496746114  0.7197218491540397
  0.9345289226295358  0.4246014238183154  0.7825033024363265
  0.5692814930444177  0.1412536948215655  0.0389722970098110
  0.5777091722437038  0.2135707496723726  0.1938022768499847
  0.5129622053175587  0.0929425701471621  0.0926257655654948
  0.7069720039409900  0.1372477760722062  0.5122725728934788
  1.0027983339058040  0.4040103273346289  0.8648243986389003
  0.9943099502503902  0.4157838727037172  0.8043887487928720
  0.9456523902603067  0.3779060828436511  0.7371087012145767
  0.9683199700693468  0.3210985429739542  0.7553503047233184
  0.9087962768626259  0.3286981754885241  0.7347767703962874
  0.5584849245294642  0.0164460022954908  0.0741555370496766
  0.9200452130994217  0.2838657004656406  0.6901028625782539
  0.8594099368433089  0.2914484941828469  0.6700486915145253
  0.8497796602907921  0.3036004215395163  0.6098941721444912
 -0.0028618555664073  0.7961793756592918  0.1519614270524987
  0.8129547612034759  0.2070255250927631  0.5607012899649694
  0.7984644114511078  0.2660751636680900  0.5419277869252302
  0.9827353025752501  0.4289143803660135  0.7426725300362685
  0.0434795667734411  0.7191956446901658  0.1351339037344852
  0.9489358236925336  0.3453778292371155  0.6305355063860494
  0.1968938190464789  0.6435262554153562  0.1543101468751773
  0.9398099844569721  0.3530658282256914  0.5708960391513543
  0.8414220168542297  0.3118989558308664  0.5485685651547041
  0.8430872453123595  0.2476979596028963  0.5069449646834386
  0.4343377480929115  0.8664582901977725  0.8500756555486907
  0.8028721612900218  0.8056069510316121  0.7134810857045073
  0.9007477788876698  0.8440968499770012  0.3922677446914831
  0.1708555163688414  0.1799818939191464  0.6232430641199467
  0.1808916496143816  0.0427595239905399  0.4894044927136511
  0.3457631080351808  0.5696992672275554  0.4014030433220623
  0.2676889116115472  0.8072071681539872  0.0628018515149367
  0.5067866283381270  0.3656781654059045  0.7067613984394603
  0.2132630063324618  0.8260591252250222  0.0957467994151244
  0.5050474113132949  0.3930596399197155  0.8135858277046992
  0.2242592284390930  0.8803263119438148  0.0728366572358392
  0.6115669101102755  0.4203148896823145  0.9007177313488028
  0.5534801417410002  0.4294612478215307  0.8805268152962159
  0.1786601283132183  0.9440560582987523  0.1539280152248949
  0.2308946656791452  0.9272183447343901  0.1163306584668008
  0.2897697153965153  0.1398244352010455  0.5624851958971707
  0.7239917331132028  0.1213637521496818  0.0427655410832686
  0.3014602604045170  0.1247283919685466  0.6212120153058371
  0.3291835944082780  0.2190476333895975  0.6713158761724156
  0.4004617976066008  0.2009548101762983  0.7539981051153968
  0.3896834911690341  0.2441586277256950  0.7984134841787583
  0.6673361676535172  0.2792299537289293 -0.0123783885332645
  0.4971795989240681  0.2742262142719339  0.8832323459149589
  0.5552370433223687  0.4453849989863418  0.0484702355843976
  0.5200414054306369  0.3641982563102757  0.9366954805293524
  0.5707709034739087  0.3267243992616479  0.0296646994021028
  0.5013721374551239  0.4594460803030929  0.0851761449394522
  0.2727325336524100  0.0615216242559585  0.6775312292662091
  0.1020032864612664  0.8916009197983650  0.0445597533967903
  0.5548742948520813  0.4894406750840461  0.0902614966160122
  0.4553002872645485  0.5830460868042212  0.1444130497303465
  0.3665335569941978  0.2423526874546253  0.5688844198113664
  0.4574477534316014  0.5978390415586161  0.0846312609078321
  0.3058515381097943  0.7394499877870452  0.0495007804315041
  0.6660716538808756  0.5653368544226701  0.9856213833074607
  0.5756829400593093  0.4801592418908526  0.6575519005076982
  0.4686889184589058  0.1639583674815046  0.3427759665774704
  0.6228139839499747  0.5127647630074373  0.7172517648112298
  0.5610413432102928  0.5231791701901548  0.6987224448734837
  0.6321030714804314  0.4982244532349964  0.7777837392762142
  0.3039849175236305  0.6315207605284632  0.0227376828187973
  0.3066374357039104  0.6772664634751961  0.0656225048550116
  0.6798940774611565  0.5353437591025088  0.8412688211782300
  0.7050525695370133  0.5788552463935432  0.8801833807846334
  0.6465700372888483  0.5858280622554006  0.8604898085395623
  0.1978657328640274  0.7309184234414995  0.0165271266309983
  0.7146272801875836  0.5671054801966254  0.9437024994409450
  0.6950956138645520  0.6232342702002432  0.9246069916882178
  0.7331067691405723  0.6714155977376494  0.9791207386091025
  0.1639094492828597  0.8553885584611943  0.0655872725633278
  0.4530190082509405  0.5358588903407813  0.1028199295756371
  0.4248909692446823  0.1717481207598648  0.8832064120713641
  0.3891739826439504  0.3494250557229391  0.5526307500123403
  0.3640985069688065  0.1828871894431436  0.8551975723472246
  0.8400965777048640  0.9503757735426811  0.7986309367543358
  0.5333789471919336  0.4584135670411888  0.7568554319941391
  0.6430702555347981  0.4860322099770841  0.8421737997363995
  0.4040630319953742  0.5820043602091266  0.0125035273669578
  0.6888737126678455  0.5227060676178726  0.9037094615208370
  0.6293175211817331  0.5302363442692507  0.8840950497324847
  0.3529256930075600  0.6026067499898928  0.0487970208253509
  0.7121958009799819  0.4463093247233210  0.9839178095555691
  0.3016464298108797  0.6143467634276057  0.0842768399537475
  0.3425194397062951  0.2630343458641435  0.4995992457153876
  0.5864318637652428  0.7159347703192517  0.7567993654755217
  0.4112255146968889  0.6765989909889583  0.1042107608605592
  0.3746607184110792  0.1364707881068498  0.8118717403320639
  0.6676050749166785  0.8177453535183058  0.5371762448360510
  0.6888169948157036  0.2909702881031612  0.1532429470565757
  0.7241008350815951  0.8510743698269291  0.6038696285043889
  0.6749023304079591  0.8488236123550704  0.6439756202309450
  0.7294894674873315  0.8877256071879267  0.7119260280612747
  0.6010192127928609  0.4432953410025410  0.1794183674936982
  0.6675129595725423  0.8963920099799367  0.6908587394877620
  0.7869511617511017  0.9063654349457159  0.7366108074478003
  0.5935323601993703  0.4491918502304142  0.7778935468415936
  0.4493060605380877  0.4888003592506904  0.0593388972805926
  0.7924458440672836  0.9491838302481929  0.8406039423242411
  0.4656822416036057  0.7073722189172423  0.1104429067678176
  0.5065532756510972  0.5516720748045292  0.1704187672439818
  0.5610307030111329  0.5825172419897401  0.1791425011070794
  0.4116763317739988  0.7059979746372731  0.2079167062579720
  0.4162790572094273  0.7516302360343486  0.2489847664755143
  0.3707020318455601  0.8293258086703674  0.2722398830817224
  0.7495569154333270  0.8292640516087274  0.7284731651075884
  0.6613855082498266  0.8140517280779789  0.7594785229187122
  0.3255749451209174  0.9231730950698688  0.2300780658448881
  0.7522498618870983  0.9016226896876229  0.8369652720361197
  0.7597856260633706  0.8929992296780187  0.9014014706088960
  0.3181503760816391  0.9674758327482650  0.2788514845313996
  0.7997662754230955  0.9406105003299845  0.9032428004318114