Cr H  Ni
 1.0000000000000000
    38.7642358654787174    0.0000000000000000    0.0000000000000000
     0.0000000000000000   38.7642358654787174    0.0000000000000000
     0.0000000000000000    0.0000000000000000   38.7642358654787174
 Cr  H   Ni 
 1596 213 3725
Direct
  0.0369104973187293  0.8876207969125348  0.9828669874175056
  0.5772510906779164  0.7840807715789854  0.2921552803620497
  0.1966098965766053  0.6276503848156528  0.9695268639836925
  0.7669596747516534  0.9899232446822903  0.2878998019949496
  0.6753189167261614  0.6929174959890136  0.2379842108962782
  0.8004935501216879  0.9205856012151125  0.2716551397041803
  0.0269730513147843  0.4973786784588022  0.9188097635772506
  0.2091788367303410  0.1540206793907013  0.9761309084893057
  0.9523898012978673  0.8096369002908906  0.4168319426941434
  0.2918651239742121  0.7772012760865146  0.5878090908560343
  0.5305256370025797  0.1669447647420836  0.8560817791259832
  0.6798385250406284  0.7528863438621773  0.2217863091657264
  0.9568145699711357  0.8733851766024251  0.3983709050729901
  0.0591571316842148  0.0711445928895824  0.8870034279974232
  0.8458223694706567  0.8304922659619565  0.3154889768683525
  0.4919696122158284  0.9780163131658642  0.3792915875142998
  0.1015240154961314  0.5609865379025466  0.8148741677352029
  0.5397928392567261  0.9675307864417300  0.3423698655207447
  0.7237619636351392  0.6462638065372213  0.3257677149872792
  0.8240899183293641  0.6015541045435744  0.3214024704024288
  0.7736528397484858  0.6157252444786353  0.3553311165922444
  0.5666179420990154  0.2165238932684626  0.8601597357401973
  0.8668820585537583  0.5259793767410721  0.3101974698480994
  0.1730483137953838  0.6831311832720445  0.9475279572728750
  0.4775264967611386  0.0130132229433511  0.8707452428178237
  0.8548646101451018  0.9281271145048057  0.5202367513586296
  0.9000049307338926  0.9730735159121147  0.5200184570432834
  0.8394676644958882  0.9774485840357461  0.5371043137078455
  0.3710953239482141  0.7988173035104689  0.3897963307011156
  0.5515588720829748  0.5871843461751602  0.4139140610170253
  0.3672870257576114  0.7531898438044790  0.3454437493291900
  0.5076920433031233  0.1957203373984612  0.7344984874227525
  0.3676772140609070  0.7695206154561746  0.2820098943891948
  0.3163182788835261  0.7997687971011560  0.2581981796014046
  0.5644137238538347  0.3280447744414317  0.6199818911548132
  0.5064481915102123  0.3369182816367887  0.5987545644425943
  0.2697272191269121  0.8595465397215670  0.3412796076802196
  0.6126299802535548  0.3599276552467999  0.6903584628624546
  0.5513164516504192  0.3697023830974707  0.6657703547760389
  0.2196272182842193  0.8903545317744248  0.3146419984329296
  0.2742035566532248  0.9211080322129160  0.3269576014782800
  0.6704501915285562  0.3803059875229594  0.8198310276999016
  0.7091901919381350  0.4288203542240990  0.8243615721145408
  0.8281719673498900  0.0475082442453343  0.1640568539974920
  0.6555833469867188  0.4563840094618842  0.9696934302710513
  0.6446141939225081  0.3871996099059592  0.3358594001003403
  0.5709991681958243  0.9241353916569102  0.7699414787763914
  0.9879088222982010  0.6481513314424959  0.3035907665720154
  0.8092355556081814  0.9344798415046713  0.5763826461069117
  0.5395826601799328  0.9218238391392117  0.0551442259931460
  0.0735773854835694  0.3149426143299972  0.7376202893062903
  0.5024077727460243  0.9903234999437345  0.0616509704514007
  0.5278781393706300  0.8486479523041126  0.1442849184070558
  0.0311826389560177  0.3268528960041233  0.9455376972821460
  0.9722371660262478  0.3569220911089023  0.0363756231711681
  0.0932584928933262  0.3922273888700284  0.6175624343286560
  0.6815886858521459  0.1884715178213898  0.3569710383644538
  0.3190284560106958  0.8299633753554323  0.3658427212890474
  0.3234263674784310  0.8747010382573137  0.4130094789968903
  0.5911442116202689  0.3091838080740711  0.9150313563945344
  0.6344587993065840  0.3428870892316739  0.9764392024535833
  0.2739830951540282  0.9053909575409865  0.3895924619731195
  0.2778778092290085  0.9502551298309434  0.4366724506429415
  0.8812232871654436  0.0612772967849508  0.2348589046576855
  0.4312418142372100  0.0959215788700424  0.7271164743266776
  0.4434854922342045  0.0824170815657112  0.7899927385203589
  0.4810760948002715  0.1317352469036202  0.7925030281864338
  0.4704513988749114  0.1752262210662703  0.8395871435558612
  0.4815604388764056  0.1555060422711787  0.9098228149450085
  0.8371293771380048  0.1388881189940656  0.2539664234770732
  0.5148107928084308  0.2080306965547712  0.8986794704886290
  0.3430149926719473  0.9409060829960847  0.7462722102434690
  0.2305887525654144  0.6922764686387702  0.9677344776427664
  0.4990376675866435  0.8618413193371162  0.6438022955947710
  0.0732826825615280  0.7791427704400079  0.5246388014028535
  0.8618165590498369  0.4165217655174820  0.2855377029362228
  0.9139132008730756  0.4015492047690610  0.2559848694054327
  0.8902435790923168  0.7547618781292025  0.2956323201021731
  0.9056824510897490  0.3395325530396245  0.2727965214576406
  0.9565461033090386  0.3074524595017994  0.3039366508818891
  0.9515192901430896  0.2608694043506177  0.2584615971380805
  0.9054900064389381  0.8858462410739487  0.4339976629141674
  0.0997458725938757  0.1223718054784292  0.8904439641591969
  0.3382138380428323  0.8179517190912730  0.8199349562324858
  0.1710367978689484  0.6482062969336958  0.6626721070482425
  0.6881069207729917  0.8444594949329997  0.0850170530064246
  0.6347874050114498  0.8599041768936815  0.1177604433632108
  0.6406578304179719  0.9074778536706605  0.1604783124515217
  0.0580289667489611  0.3426296385439002  0.6156242129013673
  0.8879483937011682  0.2392940105423105  0.0030717275683095
  0.3953280247617152  0.9903198532813203  0.0256628194220619
  0.6488165406671667  0.9673493368116015  0.1407093679152038
  0.4647867439509811  0.6740890479521453  1.0014550356937209
  0.3464597205207905  1.0057600876496042  0.0658574419328245
  0.3598363730944044  0.6188719256484124  0.9789214906015945
  0.3538120161930913  0.6396063917352767  0.9138987366243714
  0.3300416824765411  0.9827820092098111  0.7895006052430490
  0.7758285891055814  0.6927709200037274  0.8195601473220366
  0.7083146400717362  0.7172077767938084  0.7374112520256421
  0.5790816170677889  0.5631468594762654  0.5431842049987174
  0.9768755102968355  0.9396130235656631  0.7498629841358179
  0.8941814128744813  0.9707148328357450  0.7804476144554896
  0.4762751950999877  0.7321320797283967  0.4436549056500738
  0.6953488200287145  0.7512593072993833  0.6185505298563168
  0.7805596521501220  0.8191473724878240  0.5805045274629135
  0.4766589496541495  0.7952167126298501  0.4271312517461429
  0.7734262280078250  0.8618068075642851  0.6229363176773594
  0.3774898293835203  0.8897164768756156  0.4802374341484464
  0.8237768319601331  0.8895424055495267  0.6924343834220050
  0.3264034012521191  0.9215590037550663  0.4582917963586933
  0.8719882260871390  0.9066972993586541  0.8289708802417661
  0.3319076141762887  0.9844705993564961  0.4459131705587877
  0.9516767243077280  0.9748385601727475  0.8776664169078618
  0.9259092318003607  0.0233813991781366  0.3329844623799791
  0.9672814983461825  0.9611480278385468  0.9456384686937247
  0.9297291170233071  0.0638231217814064  0.3747369423733610
  0.8826649008826755  0.0903390740144362  0.3422800681199294
  0.6464729700167142  0.7171846628284930  0.5544451210533191
  0.8913410881650456  0.1529120619410205  0.3252134493645284
  0.8405908703172490  0.2183218603191863  0.4031733998855848
  0.5861644472785819  0.0118484909171077  0.8531836202274716
  0.8536602486259243  0.9649656419729589  0.6484595971029509
  0.5352321195645624  0.0077216005089755  0.8980633670830015
  0.7886659562359140  0.2049299904699827  0.3340586729480201
  0.7626220515645817  0.7263686577020264  0.6962879420458865
  0.8355638183903069  0.8369494852387563  0.8767098241219573
  0.7501701178154441  0.3901860977564962  0.3749638257593312
  0.5114315165741267  0.5785494652205030  0.5209570652987522
  0.7805718837699651  0.7062423250470660  0.9849846039315105
  0.5161615517069705  0.2990629804266584  0.5551337072610927
  0.4093292401669461  0.2498694591336845  0.5288146266420246
  0.4235886174452088  0.0118683318398655  0.6385312090292289
  0.4411816280702451  0.0555264332967756  0.6792236148565333
  0.4737682222240405  0.3092670709662113  0.0158911481145491
  0.4320745451637414  0.3236503242654484  0.0610376617185130
  0.5132942057495029  0.0318023840434051  0.7652534491720657
  0.4436554977486710  0.3672883797667894  0.0982083052986712
  0.5035650613297127  0.0742876902477156  0.8091273649691112
  0.4964366344899532  0.3487405624170788  0.0623967748122113
  0.3970584245518115  0.3894382022503655  0.0640010636247039
  0.3982745826868722  0.4396386306474843  0.1109081912687971
  0.6345786016854240  0.1913938789643651  0.9433936079548830
  0.6577116241151467  0.1450828155817796  0.9578600140923883
  0.4017274703796692  0.5032712515234389  0.0967103416569129
  0.5258280276600349  0.0177471762803009  0.8315345680915052
  0.7450804980373235  0.7662852203516125  0.7391223653503680
  0.5584494977320241  0.0483822458334516  0.9480501587236412
  0.5212000373041245  0.1933046998155703  0.9585064521354217
  0.6515271584798779  0.4805427999267363  0.4202108632499357
  0.5572513790448227  0.1768806694898584  0.5837080229003468
  0.5015237695274799  0.0088289681782428  0.9988039054972029
  1.0151383096152742  0.9924296357385297  0.5004162886618656
  0.9634871413211704  0.9477621175865590  0.5034185729280115
  0.9724527292028243  0.9232804554248619  0.5714320310059137
  1.0057648959248804  0.9794568919328919  0.5688445201613819
  0.9404753515773363  0.9684695720579692  0.5678977198219991
  0.9662360694591429  0.9722456772532122  0.6212740971860856
  0.8448579274215288  0.7760576908957000  0.4999310799367401
  0.9281912804995005  0.8692408904315563  0.5717462510810928
  0.8805291793018323  0.8616647976549415  0.6062189686127405
  0.4849846844235022  0.0003392146390935  0.6553475633406313
  0.9219524573721420  0.9175698668939138  0.6130296594811110
  0.7713798540736110  0.2871632546603545  0.9734507939218037
  0.5193523546411755  0.2391441231752144  0.0049604993973732
  0.4559704960220741  0.2522270642121510 -0.0164814538507750
  0.4953248993123211  0.0524971126921067  0.5229247740942440
  0.4981919125616605  0.1204213206622216  0.5073730207113469
  0.5190142511439697  0.1281429735109809  0.5762960889406864
  0.2966018963189665  0.5006331718197422  0.0602360261971389
  0.5678680233900392  0.1596715304523203  0.6453378112595068
  0.9105949852222153  0.9578720459997482  0.6693334684679501
  0.3535370595065309  0.5852571019947681  0.1096042213912407
  0.4734956429669594  0.2682738363766490  0.6572702685225591
  0.6667117466973076  0.2304379446432969  0.7807142869138773
  0.5569829869373053  0.2029936693858057  0.6923844636913287
  0.7036923617802207  0.2797946781643520  0.7867469261081881
  0.2548653761127072  0.5887721223304744  0.0117389551976852
  0.2013592276999368  0.6132920926935079  0.0429425401679454
  0.1510421035372980  0.7612389714726147  0.0351479803022545
  0.8829716448264624  0.4384858719966930  0.9924536573207871
  0.1551290724804191  0.8038143827523209  0.0810842434271732
  0.4823090682266646  0.0822444404136718  0.5705275603489757
  0.0595704522187631  0.9087796948997728  0.0819453711018862
  0.0146835130909499  0.9673869324888466  0.1624274791065801
  0.4682940762300568  0.1198399512920997  0.6186238682224652
  0.4788449941038332  0.1039092613331663  0.6833993492734501
  0.5411397195930774  0.0945007923459167  0.7040761081530308
  0.5791228889309255  0.1458477407354799  0.7079521314617470
  0.6159979239755172  0.0674803985731780  0.0205366497949191
  0.7168810827648822  0.0147719677549027  0.0100662312766091
  0.5801377114678788  0.1743504803611448  0.8157371846428539
  0.5786028399873880  0.2085350576546134  0.0300666991508034
  0.7259039037049220  0.2522915042954434  0.9061512305378691
  0.6728536192847430  0.2444593924237416  0.9480084888402110
  0.4755340073621925  0.2412549193232520  0.5511297410787434
  0.5946710871416613  0.2528319385116754  0.6989783783856466
  0.6896010202616752  0.2780532787094412  0.2166765985869070
  0.5940500758106696  0.2820445941569318  0.8061330703430889
  0.5723496572432076  0.3375085881484489  0.7915810096413323
  0.6892062113282006  0.3521882697158906  0.9493487957618554
  0.6779492140720060  0.4762845198412152  0.6419162901213914
  0.7046147699104462  0.5693670430455828  0.6975672138909718
  0.6821561927502366  0.1858967094090897  0.1267782547829826
  0.7602085145324146  0.5830796107029786  0.8312003626499322
  0.8159662851387403  0.5753890459695168  0.8541197121037312
  0.6862814970374072  0.2294722442047847  0.1734097907364165
  0.9500989442211351  0.7066534042014446  0.9877846822249425
  0.5409405504583653  0.3849691857326247  0.3001290487001040
  0.5953729083974206  0.3842679438688243  0.2044578098155489
  0.5362969181693371  0.4004017491008989  0.5345174270822716
  0.5508936508765336  0.4605979513766476  0.2182553739748968
  0.4514006639115650  0.5539235891349681  0.2677407956355232
  0.6504544682441549  0.4101449335739056  0.6952250602476955
  0.6863557292511585  0.4591179956827006  0.7023318505035309
  0.4539579508374555  0.5686090915683026  0.2038698272617620
  0.6383603288473921  0.4525287508392148  0.7424929743690561
  0.4051939619910564  0.6315031615555048  0.2825722507496249
  0.6857725520690985  0.4854507356510768  0.8086616198635287
  0.9633169540834691  0.7791990250382190  0.8375988604929490
  0.9003686588545473  0.8021706495449381  0.7941874220917944
  0.8360943640189172  0.5542115015849381  0.9860734824034669
  0.6081384930852732  0.5052809839772813  0.5625311314886435
  0.8148089580373762  0.6102501350084223  0.9631740204246415
  0.8794792521771000  0.7233837760871609  0.9038922053498060
  0.5149673587546511  0.4946286152661805  0.8064282763928486
  0.1566888473137215  0.7852054143871580  0.1460185340356970
  0.2102037634233694  0.7991406826544858  0.2204219624808552
  0.8844852426045017  0.6910461838036498  0.8022172330314093
  0.1598888137448503  0.8441423020408498  0.1306411256866358
  0.8550545149632687  0.7629390718953201  0.5577431254911976
  0.7962985438711810  0.7726110913140226  0.5404973597460442
  0.1631946663547567  0.8748406106086827  0.2388864560574140
  0.1155546391851829  0.9207086954893047  0.1472805205951698
  0.1263619848487580  0.9620690029685975  0.1898142178324933
  0.8926521811662352  0.8418338232133864  0.6689171651261974
  0.9140296288405882  0.8223356981132051  0.7408788528902526
  0.7123421250927895  0.0042545332102383  0.0817772823218839
  0.6744634326108114  0.0958988886153245  0.0354444373416748
  0.9704179398990539  0.9163445766665220  0.8958497983759987
  0.7358104485340043  0.6135148153282238  0.5369746500916982
  0.7147192796388537  0.6690797012493718  0.5219412192247096
  0.5808869209312103  0.2547115490647720  0.0751019154842239
  0.4919389967353989  0.3825229640541449  0.1679582665574533
  0.7650698837010320  0.5698548827296493  0.8969785410174264
  0.3563733302532217  0.6623269444641855  0.2559834516003764
  0.4456424901778385  0.4126232383503244  0.1410983895290848
  0.6590801951622874  0.5550752131563218  0.3381646820522928
  0.7024906142857790  0.4338953544627319  0.2830206331156309
  0.5514222875339260  0.5708110986411548  0.9333419005528992
  0.5724651201762144  0.6207057054771530  0.9870601933786119
  0.4525027217754359  0.5205146453740388  0.1653669223607055
  0.7088179198345715  0.5432509668198714  0.5885409978776123
  0.3502886999840861  0.5682681503034140  0.1716583616184817
  0.3527719747101318  0.6154637281668280  0.2142623232033823
  0.8397237457017230  0.6580059828665367  0.7348952987864477
  0.3592614502378901  0.6777894085602156  0.1950298817481861
  0.2570668965380524  0.7227244265345105  0.2023507353207982
  0.9485837740958997  0.8153634532873766  0.9366029562019427
  0.9907485303137676  0.8561952984190163  0.9107914496817958
  0.6123827657276614  0.5469991717207655  0.5013338291272370
  0.8268783374643348  0.6998930838763697  0.7795566574242527
  0.8944219121167468  0.1841151165606560  0.2000916990815537
  0.2760021604217305  0.3443690127873378  0.5776468421208973
  0.3348432810892760  0.3390218032002167  0.5968990140744674
  0.3212906195205412  0.3823892975074800  0.6431203643571528
  0.4200164546657202  0.4265946123913568  0.6733013049881390
  0.7509486242674281  0.4028861936644747  0.3112137413609581
  0.4074196257899901  0.4685436875399969  0.7174700753352552
  0.8391130041299041  0.4007550681930130  0.9279793458066735
  0.4270458180600414  0.3978592238822082  0.5614090168166015
  0.5304501843673161  0.4273679350492269  0.6543674081816684
  0.7557761336302862  0.4167636534748542  0.2505989621619807
  0.4115509767159106  0.6935668370126377  0.2635602134553456
  0.5920224739362746  0.5982455027580145  0.8244708068735024
  0.8139146070085862  0.3060965805394535  0.8759484023052158
  0.5738255535551013  0.7061985454038365  0.3692102253522023
  0.9502000194293054  0.2483060151236166  0.3189921657830168
  0.3414973554061265  0.3536000599845247  0.7681878214399810
  0.6565028488294322  0.5090530991231746  0.2950568388914654
  0.4367855107914581  0.9527099717366939  0.3697543275567506
  0.6046502420346194  0.5678638036228911  0.9577452519903465
  0.4375925740808735  0.4253943709134591  0.9008274121727736
  0.6118352940422493  0.5849017858715262  0.3108994243370295
  0.5503450234942211  0.4565917425131755  0.9887135791834603
  0.6673302147643727  0.6167070342903002  0.3180585303686865
  0.1595283258356006  0.1898996294840124  0.5669833080713816
  0.3439792982283678  0.3237963425505064  0.6609815465402410
  0.5881786313830515  0.6243525986038052  0.9322825877754933
  0.4310779508143422  0.8897109934595068  0.3859725856901257
  0.9385789864149776  0.1067677967202990  0.1818685862391898
  0.4273190241574601  0.4382239661528236  0.8408564121380708
  0.7459617607671584  0.4763612757886859  0.8291775187221927
  0.9915382183783047  0.1089909583796722  0.3186025714265310
  0.1223981575702555  0.9472891302753990  0.2566533870916854
  0.9457568876884134  0.1845346566489708  0.3347237009207971
  0.7704417417102013  0.0189064845606842  0.1555545444532659
  0.9629372961941203  0.7703593559665983  0.8984559461569062
  0.8389600356276293  0.1865335732476336  0.2972954071867906
  0.4150833753126445  0.0175307419806953  0.8491151641618521
  0.3996740846337627  0.4841372595155957  0.6576660353309273
  0.7191056711109370  0.7154151673274882  0.9612777408833619
  0.6806965060983161  0.9239458577203715  0.7481130446487629
  0.4215492811767341  0.7991679977748687  0.2928442466642900
  0.6800578359989129  0.8044914321633464  0.8239002592549304
  0.7030453998390273  0.4013308132682247  0.1800654379472141
  0.6677171500073242  0.9664086210067138  0.7911854175225271
  0.3769255339629052  0.5138078460296249  0.5382943561223158
  0.5823008916795737  0.8138032599930156  0.3988270674356115
  0.4758235243256835  0.5569114824202023  0.5668087345934926
  0.2391461702101711  0.1882190600454089  0.8144183156434641
  0.7073938070007728  0.4465079088444183  0.2201731212137335
  0.2989864502380354  0.1813100650886719  0.8365542235751919
  0.6078696362469423  0.5388788244245696  0.2680168688825587
  0.5369909138691471  0.8705738687194610  0.4813264901839191
  0.5788289272184027  0.6114598421761797  0.7641344250222418
  0.5876160109543845  0.8572401561673780  0.4471267754028696
  0.6293879723385782  0.6467747171876775  0.8344984703264594
  0.9973795354829066  0.1541641947633613  0.3610300266408841
  0.6051480033470124  0.7027032857391464  0.8177444564777610
  0.3718546682915270  0.3134370319786191  0.9612709025284545
  0.6736533276063169  0.6814850086859834  0.8970478200209512
  0.3678377773333694  0.2064838556084869  0.5265834231137287
  0.1854505505491871  0.0197436053588911  0.6205027935965635
  0.7358867807648386  0.2007201434355929  0.1986475444017140
  0.9475247351092801  0.3273110211267132  0.4679988489071022
  1.0001881129759018  0.2014531658373099  0.4076512627314228
  0.8472369594768147  0.3779745797023322  0.4740159579082275
  0.1640238747131875  0.0593801618327969  0.6977524286531109
  0.4836995125532942  0.5693793793146206  0.7329152084849418
  0.2131288075253992  0.0944534304874173  0.7661229173911407
  0.5373743211778454  0.5875580962209276  0.8700355700736461
  0.1525278863767560  0.1007068052230330  0.7447740659791673
  0.8446496377408159  0.2457948990340941  0.2791938139552725
  0.9000846783704333  0.3087203521631214  0.4016200396243956
  0.2221491319579794  0.1061625124639935  0.9375868343183820
  0.2129464131857176  0.1237968942521398  0.8739047335949780
  0.8123048006490748  0.5766858014066267  0.4541885755948749
  0.2732771295082900  0.1173994970453365  0.8958312396421714
  0.5919150888820200  0.8994672861877889  0.4921937766317852
  0.2570863757991760  0.1594324100478476  0.9370185536789861
  0.6398400303018424  0.9774451038233664  0.5447581166083586
  0.3540994042573234  0.2060500043204625  0.9629833301664101
  0.7590419165780404  0.6524774598243879  0.4822977190835325
  0.1853071434521434  0.0304732307022750  0.8276617783471478
  0.5964189900861967  0.8762868144547170  0.5619433769821587
  0.4704228027484316  0.4346298622262957  0.6326690556785917
  0.6903112914969382  0.3102466725179085  0.3220853986827195
  0.3920462985211008  0.0765679274656405  0.8328330797188009
  0.4457733192723109  0.1767694347937311  0.6069048584953537
  0.6691802903142275  0.4101456634240631  0.9286053298118343
  0.4093585727829401  0.1284856079812406  0.6010692148584782
  0.4190179560595562  0.1122349377227736  0.6635275379682255
  0.4573061893899783  0.1599912102981142  0.6679313618211885
  0.5110333483657985  0.6306593395176331  0.3172566791808544
  0.4620781253792043  0.6626478659994315  0.2905678583819119
  0.5195416825181945  0.1809944543515877  0.7957757540337599
  0.4449491618306294  0.3015157045318331  0.5279206381935597
  0.8696735263519209  0.9281756288748009  0.5861438294374163
  0.8170381844103992  0.9133693654410865  0.6310213166033650
  0.6359031058029002  0.5943588749984168  0.6143252187180690
  0.6759154526757124  0.6423120879037582  0.6237212465285934
  0.6129124722910617  0.6162759117983730  0.4170206914875020
  0.6628600798665518  0.6848985946690219  0.6724260728920789
  0.6707886100948469  0.6671777880011230  0.7314779710424585
  0.2586814708963319  0.7373800909040065  0.1402421721102587
  0.7039873732108631  0.7353948163945554  0.6786598407534609
  0.7839332814241485  0.8174346533567119  0.7428808131247976
  0.1708565515220636  0.9330087456348315  0.2202848709598800
  0.7928637044345337  0.2448336303625221  0.1475185846965391
  0.4268482116011985  0.8456162391801048  0.3389833272618780
  0.8070744416103233  0.6236333170766416  0.5033553303852373
  0.3261292192537447  0.0371784603579804  0.5189314334200177
  0.6509391628466836  0.4486428339195978  0.3167251262765693
  0.4143773428347824  0.2767009394319163  0.6373580817821348
  0.7536429813065598  0.7536252227036316  0.7998982508835325
  0.5755820675158908  0.6890404665232277  0.4276308569828569
  0.5265354209528149  0.7643621786287988  0.4510481397974502
  0.8072336854649687  0.7762624633649953  0.9256101096385143
  0.8237585098692924  0.7765240788794571  0.9817687460858832
  0.4795717883858383  0.7772877873624051  0.4948508377153908
  0.4321762161956109  0.9174120155469954  0.4938269387775892
  0.9906760119911812  0.0967914561642606  0.3842062327592764
  0.9963801763750643  0.1436451309876230  0.4214101435417099
  0.6055305070587205  0.5279270425041280  0.6669773364558684
  0.8938469621625721  0.1865980242988626  0.4291592675582391
  0.5940227524587355  0.5694472329920265  0.7150759962043107
  0.8954634810338369  0.2477135687558937  0.4137470185189804
  0.6326519889332151  0.6176406389669510  0.7234127468317858
  0.6412663872158904  0.6027530626507152  0.7845151688077387
  0.7386446682511485  0.6429912434565884  0.8144579005689898
  0.8402370265088437  0.3148931471679505  0.4936701688754326
  0.8958030481676299  0.2978946898599257  0.4604532342452678
  0.7933787309955684  0.3492878819763511  0.4683026158652868
  0.7333571766768645  0.6724071998473874  0.9193169032518265
  0.8212652039187421  0.4416489675411959  0.4971954316640784
  0.5624554467768348  0.6221498372096513  0.5289434628887035
  0.5483840927495672  0.6346505567416930  0.4661304702986588
  0.8021256332011355  0.7788908639229201  0.7005284590041364
  0.6549875745659853  0.7090737045791722  0.7774991332667169
  0.1699283901396753  0.1773235367615711  0.6259326540277329
  0.1791814412333670  0.0442469270867339  0.4879708676904853
  0.3441660601381636  0.5729527541014705  0.3980928050438755
  0.2613085266675663  0.8156551646703399  0.0656216319871032
  0.4508266094691512  0.3519800566304421  0.7492455460972143
  0.2085531513106539  0.8288008333782226  0.0990519998304700
  0.5004070078826114  0.3872937873937671  0.8157887444168954
  0.2201312776120621  0.8891753453153847  0.0760476855605432
  0.6080035550311079  0.4159055688365920  0.9042641455574444
  0.5496541517323826  0.4234652863329882  0.8837171225251873
  0.1742134201839482  0.9489221495429960  0.1523134395958811
  0.2277266566245949  0.9321860881314932  0.1154724590765132
  0.2880128380021943  0.1377382420046732  0.5633596550332581
  0.7277182100734845  0.1241261067289522  0.0425250654962791
  0.3003283503191864  0.1223197619936526  0.6231673564941808
  0.3268569049860336  0.2164581680365917  0.6734082475031140
  0.3976949087810677  0.1967623954241293  0.7553462350049822
  0.3866675281904217  0.2388524768867835  0.8002304735514130
  0.6647398355299163  0.2829798767293988 -0.0085106215254506
  0.4946088625900306  0.2681323320103043  0.8852632718009003
  0.5577879237144843  0.4431179883173378  0.0501606198629515
  0.5191799201630865  0.3591746767660112  0.9411169012992426
  0.5684043840623508  0.3297538457207335  0.0319253975591347
  0.0137590297620156  0.3521040396224132  0.2516680663576776
  0.4207647710310751  0.1679893236164710  0.8806100278947367
  0.1032103565643382  0.8949626446714641  0.0391513124198675
  0.5576124703273737  0.4887915723008759  0.0926857256994931
  0.4572150661324191  0.5845125717117264  0.1437788935952989
  0.3537153593700147  0.2831602422648706  0.6173489636872105
  0.4606918946917789  0.5997202038137256  0.0846792968820531
  0.3088833846572150  0.7392094004924760  0.0417838482609804
  0.6658484609151029  0.5627646059009028  0.9836772118536685
  0.5685353051316139  0.4784582441379430  0.6609465025637120
  0.4676947844447201  0.1692491849813861  0.3453479046459175
  0.6167784096126688  0.5103784009629235  0.7274552578508854
  0.5557522332318126  0.5201496000870753  0.7057773483915838
  0.6258969700561039  0.4954190169786341  0.7881282936350174
  0.3088509773843279  0.6255919354845721  0.0199566003704654
  0.3105909050241972  0.6767585412063286  0.0604938121638484
  0.6733504221161773  0.5305845792349152  0.8551763073375537
  0.7075644817083219  0.5773276915559612  0.8732261905678462
  0.6506990618359462  0.5877605954774826  0.8493702691350518
  0.2171505327440128  0.7395408030059939  0.0060109699293727
  0.7156844470929966  0.5652708629385748  0.9386748266174082
  0.6966608301913647  0.6211279658825636  0.9170418181651675
  0.7420193570553218  0.6647622244348437  0.9816889329643617
  0.1560544475948853  0.8643540907607983  0.0651637498867203
  0.0073926515593565  0.8744097956567889  0.3007452837056431
  0.2513330891536307  0.0158203960165794  0.6398975274550743
  0.3862258191837525  0.3472443324090364  0.5540813223982143
  0.7897440269409287  0.9526547590486686  0.8481591195705354
  0.8085913576493494  0.9093765641561310  0.7990204266124378
  0.5288202583884479  0.4535891647958107  0.7617184284331358
  0.5765140548483420  0.4878841482344895  0.8288345733214093
  0.4126406299314890  0.5779633754927698  0.0155052545597369
  0.6869626362802330  0.5188968460038716  0.9109241288799506
  0.6232174101890455  0.5244037322415653  0.8939084254628427
  0.3573876804080793  0.5995413868720988  0.0496468740252940
  0.7133079053957122  0.4455603202307589  0.9877745249154021
  0.3585090323213032  0.6470946161025751  0.0885733672332716
  0.3623122965093522  0.2415268910264061  0.5708903680111780
  0.5954005306098256  0.7169830009116526  0.7553948618937804
  0.4118564626271877  0.6775996342621832  0.0988675576496402
  0.3719362321909975  0.1316048527412675  0.8145497529509809
  0.6604216505142272  0.8249172771024708  0.5373764768780310
  0.6928159088554144  0.2939187110005388  0.1592599471822334
  0.7189877808367363  0.8635860796582621  0.6027188058113840
  0.6598294977782654  0.8510627867200558  0.6468461098271776
  0.7607797914079419  0.8730302069960364  0.7270405393150756
  0.6012174081479142  0.4458371828728165  0.1841625124851311
  0.6886440669828805  0.8835354695810608  0.7025106981042110
  0.7953317308852448  0.9211675071035741  0.7343804665808611
  0.5878448468927964  0.4464168671969246  0.7828513789555445
  0.5376197330002520  0.6780810760597293  0.5238595885531512
  0.3598243505224160  0.1754144165793870  0.8571680687962956
  0.4151694934077861  0.7244703052354567  0.1419243911378904
  0.5069290745854591  0.5528156867541636  0.1690087171216362
  0.5612575620045596  0.5844179323018290  0.1777804604513313
  0.4134783009215217  0.7083851643828035  0.2032427697145491
  0.4174936549620686  0.7554405902096930  0.2475328997993899
  0.3714253948471762  0.8310003163928950  0.2672052730967695
  0.7207449018182664  0.8221473006887473  0.7229350439053002
  0.6694045391589989  0.8180629802317485  0.7671833124802644
  0.3233992466390057  0.9250192771974344  0.2257021877302649
  0.7555197453895747  0.9061984220717962  0.8314466764613471
  0.7629012583626472  0.8951558731251821  0.8941356095356209
  0.3271942299963775  0.9700921423314443  0.2764991180963159
  0.8006761842672647  0.9415332698419792  0.9103627021986614