Cr H  Ni
 1.0000000000000000
    38.7642358654787174    0.0000000000000000    0.0000000000000000
     0.0000000000000000   38.7642358654787174    0.0000000000000000
     0.0000000000000000    0.0000000000000000   38.7642358654787174
 Cr  H   Ni 
 1596 213 3725
Direct
  0.0232697985411679  0.8792901567653503  0.9963506961320473
  0.5639892958374004  0.6272997701758327  0.4521535632575530
  0.7929452055730234  0.6345529440862068  0.8383149146361275
  0.7130127927667882  0.7168740746840325  0.7378085543213794
  0.4762009561278658  0.2706953617804213  0.6567063357162665
  0.6869567789371159  0.2761478750791264  0.2105463012158038
  0.5991278842066738  0.2864425983675454  0.8028950555447766
  0.5776995564377704  0.3417857133141694  0.7891737818523740
  0.6971907233646687  0.3557843108269544  0.9439876913097883
  0.6739887088723623  0.4141072176766076  0.9225141383295998
  0.3206736980348558  0.6825797963511211  0.7349701810295948
  0.2874708726103699  0.0421358081731574  0.5353749197266092
  0.3988920180357475  0.1694361933295471  0.6463702665051089
  0.4208849270770335  0.1139294386546461  0.6604245541128516
  0.4598413897682185  0.1621156153640124  0.6673743181784076
  0.5610639662978248  0.5959436288317687  0.3447485921871493
  0.4611855760747836  0.6582583354709450  0.2929690886839210
  0.5234192240570337  0.1852468952916194  0.7950709906702572
  0.4625996993212739  0.2848831001046919  0.5955728759844150
  0.8504769892961256  0.9363906525813740  0.5813750219469512
  0.8206949556516907  0.9217662555408636  0.6306583775602537
  0.2968270479162147  0.6151806666123020  0.5393051316732378
  0.6125915837607754  0.6120186277477742  0.4148139072718535
  0.6645737680886901  0.6818446244731993  0.6784387345655376
  0.4652838786766391  0.7636957973411372  0.8240789673019834
  0.5433626022222396  0.8644801435443792  0.8249151861966730
  0.1976303630675872  0.7594599065257415  0.8998360225962591
  0.4572387195434864  0.8098163171883972  0.8691944141567370
  0.2893925097332605  0.8063065014255696  0.9302586812398017
  0.4322771543020991  0.8326731062290568  0.7433529447244555
  0.4921119492976307  0.8264481245536762  0.7629757411455611
  0.7905607832121757  0.8111418350858063  0.2441920111853746
  0.2964299424947213  0.7526848087741883  0.9759793056256593
  0.3324062156325769  0.7115439277168593  0.5712223253670932
  0.2754256577204922  0.8199989052728694  0.9948750015609467
  0.0423460713117227  0.5549126645498746  0.6273776485907180
  0.4149155318706786  0.7596732348754749  0.6415569506907083
  0.2879370407813326  0.7131370580990646  0.6114654945993246
  0.0506986257400789  0.5438779503581979  0.6873709357570507
  0.9406820211538329  0.5483043369370648  0.7076170167813133
  0.0954339190441796  0.5830221965423945  0.7501571381284208
  0.2482106190260375  0.7663610541774533  0.8620884075219575
  0.1979227193397507  0.7277185359160377  0.7964862078562213
  0.8324118162411751  0.6933747647014503  0.4120041096519900
  0.6008980644109353  0.8930096816684561  0.9502231713417837
  0.4444905410564903  0.9709734586650830  0.9876375331630788
  0.6407641428257814  0.5901293919061610  0.6016921804964830
  0.7140203220424074  0.6854641482755564  0.6363596467485230
  0.0245345099921220  0.9905441551288793  0.2634000776136997
  0.2176673140322071  0.1317746324274146  0.8721594654356760
  0.2923299878369962  0.2339387294295161  0.8765518737513908
  0.3577307982937848  0.2100877370784699  0.9617199166316585
  0.1879057591508449  0.0369872837838777  0.8283734505607103
  0.4378538812199178  0.3863690962773149  0.6209249293509209
  0.6480685639469957  0.7072557241429273  0.7759024417442627
  0.5971046561193750  0.7385147771542432  0.7008958147770868
  0.5799433878151777  0.7956789273456496  0.4613253588234840
  0.1429448456302599  0.1182704137665280  0.6824524600206900
  0.4452151548626306  0.1149597424143997  0.8933090174468552
  0.2103889273118328  0.8092862035034835  0.1645215146875858
  0.2460597554869244  0.5342819230437988  0.0349006414198599
  0.5759975722485284  0.0589256347529699  0.8929996101700000
  0.2636695097153365  0.8287059454447041  0.2363133216022065
  0.2559679428543893  0.7647342344426514  0.0212729599852303
  0.4613294369060500  0.5132587764364012  0.7783336157941010
  0.2047965704885190  0.1117989993038199  0.7043344173998074
  0.1321805488547216  0.0529406537168264  0.5248913804539195
  0.7298525942183376  0.9591927662605613  0.8124993422374666
  0.5540906151167724  0.5038255485257398  0.0298432098901772
  0.4248590661358783  0.7932750182101621  0.5302492353528372
  0.4902651859172270  0.8260919168136518  0.9879832734122866
  0.3001961413791330  0.1625078077908898  0.9460434705156836
  0.6737699133748581  0.6665352744873145  0.7379615020926854
  0.2571195047634976  0.7344035009158922  0.1476702663675231
  0.1544845447128366  0.1062990788215428  0.7461566304333443
  0.7066633983645585  0.7324968339706007  0.6788676771626490
  0.8114975847749608  0.8532994767048497  0.7526227511605199
  0.1681176034978699  0.9135145212013207  0.2844014541908701
  0.7889411296308271  0.2773024842213592  0.2480278332702374
  0.4186459975762066  0.7981053457631710  0.2968956672404768
  0.8062850681396074  0.6802491955278808  0.5251625949954639
  0.4028474299069128  0.4887562476534711  0.6518448574223717
  0.6815523270606920  0.9182663674566494  0.7449060483634924
  0.6635585483199694  0.8496947740341354  0.8656676591333961
  0.6690737185733440  0.9667324476004210  0.7894466790539714
  0.5808726877601286  0.8118872663147042  0.4024431720187456
  0.2443656434405147  0.1947352121454456  0.8127456669212183
  0.3030673205917376  0.1881762380790988  0.8337948533186162
  0.5349239748524693  0.8712642928747729  0.4857446856416906
  0.5850391632823533  0.8564221145926222  0.4471786868186913
  0.9950459848397001  0.1543596277895128  0.3600855176658543
  0.3740176480106204  0.3195502814668878  0.9633781796429167
  0.1478956621308925  0.9730190431420088  0.6193031428138447
  0.9973252998757812  0.2013733989536254  0.4024585532941771
  0.1658653622427098  0.0632170001004949  0.7013981394897580
  0.2148474758076494  0.0998504716739680  0.7654997911386229
  0.8980882455592785  0.3075418712165041  0.3950460463311923
  0.7027128617498301  0.0020030760845477  0.6122884619007321
  0.6785374844318925  0.6853810412271130  0.4671274609974785
  0.8364444435430999  0.7353687442923722  0.2270630472734810
  1.0366761635042485  0.0160355167330653  0.6853652569175328
  0.8793040756717235  0.5791418046695171  0.0590832861809693
  0.0674819153950097  0.0494975359675224  0.7824838611146943
  0.8605355157929218  0.9637418356858604  0.4540837081065682
  0.9095220904575426  0.9484935120957728  0.4204486725519376
  0.9456909463555040  0.7988954039174849  0.4836272366225243
  0.1595122178145678  0.9205066556336189  0.5208134779017325
  0.1842416237588837  0.2321954213679721  0.8954245375245640
  0.8106453639677051  0.4583580943873588  0.1908615755808487
  0.8637810766906633  0.4252166596238046  0.2233517073202629
  0.1166877418090017  0.9505680071813348  0.4952408707120942
  0.9548495290837806  0.3220672908650773  0.2371448022456492
  0.0961466619417620  0.1438654491587877  0.8315820638969497
  0.1586235193679671  0.9267565915423619  0.5784300229807108
  0.8552646821999070  0.3684953773724771  0.2400074620305154
  0.8494158303850426  0.3216979822332843  0.1959885600871058
  0.1453100817326840  0.1505474175167743  0.7891967988480453
  0.7229076061501913  0.7817331623340618  0.0029864800748792
  0.1339938332143049  1.0274866662595319  0.5967109802544240
  0.9505260695356297  0.2742525621419327  0.1939995843900219
  0.6587031219753129  0.9794440811495443  1.0044175089313663
  0.9455812488733585  0.2137422423945587  0.2094267794853957
  0.5739339548572623  0.9614877892913861  0.8724023272864746
  0.6277255256545117  0.8005515938215039  0.6414975008916580
  0.0721171144558037  0.1681628738110524  0.7049486471428218
  0.7198941072741307  0.5974829516376282  0.2842653073027276
  0.1167531961219746  0.0889582110145280  0.8499296576215872
  0.0772212348334241  0.0381251835379244  0.8461416199415436
  0.9458125617795416  0.0161238947101726  0.6886315829636229
  0.0586015663371686  0.8227989632444612  0.5794202915265113
  0.0641167629922380  0.8720935769401158  0.6142228072256735
  0.0084143972287360  0.7650100730861858  0.6645193672824257
  0.3127182719840937  0.3224321800210765  1.0101354398013624
  0.2665834251201687  0.3213897761263393  0.9657771293255016
  0.0946395061943827  0.8203049141941439  0.6322508468774676
  0.2715621828493159  0.2905302916618802  0.8605444050871764
  0.2337547858063021  0.2392199509322180  0.8551507809676856
  0.8596204423156943  0.6178813971399787  0.9242735537508503
  0.4312940266313010  0.9394915048077916  0.2049360681972026
  0.1620686725121291  0.2583504665559260  0.7738712312635733
  0.3094645095315826  0.3083843999897254  0.7615080475112255
  0.4797712481355186  0.9060436411958143  0.2272804665637314
  0.0752059926231782  0.2023773665159277  0.8121218911138769
  0.5314902437223583  0.8744269209958179  0.2523032689104920
  0.2429502722513598  0.1626168108224521  0.7073614857995855
  0.8341070157672744  0.7193836646060959  0.0609342149205608
  0.1431386969694570  0.8561227998181152  0.7002129889557419
  0.5248940862211409  0.7588828791431443  0.6196196883054915
  0.7292668914525409  0.7197724974349894  0.2505461378753246
  0.3811902492730651  0.6757813760775765  0.7588698068234327
  0.3954022273433724  0.9681430102410106  0.0910636363147595
  0.2786088976092619  0.5622484810407025  0.8159701746637527
  0.4419918522441331  0.8903240729690004  0.0698277885902298
  0.3281605390425512  0.5677224849799704  0.7776644716239803
  0.3412418987856897  0.9423130836804072  0.7490332015843485
  0.2805223277518356  0.5300386958165670  0.7120317562778126
  0.4218940884952862  0.8473142531992620  0.1140200472353338
  0.5195866460890518  0.7533713796453075  0.0607860407513853
  0.5167533397244491  0.7092718995468011  0.0155772304029384
  0.7239290837295617  0.6557681485998798  0.0383438609329782
  0.1337735528563172  0.4472559553494363  0.6211976242645133
  0.3034862182959436  0.9245101459334215  0.8531680093103118
  0.9751248961265659  0.4699802455770897  0.0728061636243608
  0.3423198932492418  0.9739208091436149  0.8559649325912322
  0.3097224903470993  0.0095811843696965  0.9376979703245291
  0.3910058794524589  0.9233210672925641  0.0468327240482920
  0.8019833495157569  0.9319285080857733  0.4443322255806015
  0.3923817799482068  1.0010528275593726  0.9683340907161218
  0.8456125874306769  0.8643021119340285  0.1943797051565916
  0.7373740634937577  0.7798816837723213  0.4623535114854043
  0.7827309542027658  0.7190121829058239  0.3850672470366324
  0.5279956041050456  0.8624485858294721  0.0866375411211174
  0.4305996847139005  0.8392339033037363  0.5745267308059978
  0.0714480578540448  0.7074698497672696  0.5247870713796807
  0.8420913903127144  0.7962329447800460  0.4422897792212134
  0.9525072426136149  0.7775004927489596  0.5484105261978456
  0.0800731625328188  0.7128942299141274  0.6472727108960052
  0.9318072424076941  0.5959391433523957  0.1310938764607852
  0.4418304994032365  0.7005698342037981  0.8854916452650026
  0.8859298104142003  0.6740246101464836  0.1482558662649680
  0.1874578883463512  0.7410113580441335  0.7357050584116802
  0.9149096320390532  0.5757929161735049  0.4865638784287142
  0.3420141407515543  0.6564117133739577  0.8587435751145425
  0.3314461306603118  0.6701473679775400  0.7961012640556616
  0.9738666891818547  0.5554221269075609  0.4529152950244649
  0.9733985138479940  0.6845073526821777  0.6051878459725708
  0.8336943507341210  0.7045571823418739  0.1192787639380342
  0.2808619049485807  0.6474674072366033  0.6531108613443470
  0.9657771268994452  0.4961191047549084  0.4821012950111059
  0.3694575950588077  0.5879127862892134  0.6736969601002508
  0.2031948928976543  0.5624341562446568  0.5710039987723837
  0.6954308986845082  0.9176205235119261  0.4648346820617464
  0.1477770216964114  0.5266936743980595  0.5071535737163172
  0.2633222037624099  0.8748992748933999  0.8498155126900149
  0.4979845140016315  0.9357129378989834  0.0195192290454503
  0.8426001261736384  0.6719881662613045  0.4812544280460994
  0.5410288672353972  0.9301259690849981  0.4701585330635929
  0.9650825938763840  0.4481433554079629  0.4318345366214064
  0.6493424539576353  0.9653813354279838  0.6044894142414090
  0.4088990164323428  0.3210353819788668  0.6798224303101588
  0.2658043783060459  0.8207366811422651  0.4713334774290330
  0.3590492275157237  0.6745499987828479  0.4256756739644239
  0.8836871125831502  0.4218355838546090  0.8222262966855749
  0.6702094707610812  0.2020083158823535  0.6725637243439632
  0.2629246247664773  0.7980250265089008  0.3604525673380911
  0.6305427418711609  0.1528067218252241  0.6656209431237338
  0.6181641389396015  0.1645131371075584  0.5987904626470705
  0.1551735189887550  0.7822364206943810  0.3852562955880747
  0.6101085095737633  0.1200066776470139  0.5448395770383735
  0.5805174396239602  0.1144265338586329  0.5962265597349888
  0.6834430914268939  0.2183509046042942  0.4594033782572580
  0.8805024303784109  0.6633998813527310  0.6194179243763392
  0.2198549304846875  0.9054622015346828  0.4876638356857028
  0.2145701027762609  0.8575301034190981  0.4432264263604846
  0.8242648534645709  0.6675503215313782  0.5931567095299523
  0.8438340826165454  0.5028452835909174  0.6747972985210881
  0.8914100812182056  0.5414521210285552  0.7411014497613374
  0.9483532175900914  0.8347638436618016  0.5281406169534735
  0.8321945715794258  0.5480615216643783  0.7170568264827899
  0.8410752183895405  0.2015128124522330  0.4610631397070794
  0.7380658509053670  0.3431258666001223  0.7302043418895510
  0.8996258777031517  0.5306648728654525  0.8033530290064865
  0.6869971679289805  0.3399036487603820  0.7709780434574779
  0.6374083007625931  0.3036009175636372  0.7029871781980873
  0.9903526751646547  0.4540171704039380  0.9074108603720851
  0.8361100349459530  0.1424919233652427  0.4766335958927681
  0.5864671090632037  0.2674785281288874  0.6370978695070900
  0.8698234058749835  0.0740948324528024  0.4749121245878377
  0.6372495681681637  0.2703746591326925  0.5974166867287279
  0.5369160954714225  0.2343539951592014  0.5719249965350655
  0.5491899798548701  0.4730583900710545  0.3799641246689618
  0.9121102869835672  0.6100496758774758  0.9413122791415363
  0.6527612812301721  0.4545081929775844  0.4762613469912261
  0.9163728875288714  0.5114094764542824  0.9254718867751884
  0.8580168797685467  0.5139083409303800  0.9056833505963801
  0.6909152109385389  0.3423214135438938  0.4237130119456445
  0.0719076093971264  0.3846837041864527  0.9491615057630096
  0.9147095281575043  0.3536746405534963  0.9023020781916801
  0.8193802295033729  0.3090964448760606  0.8746893073664479
  0.9057895918220643  0.3643955036959527  0.8396498384352937
  0.7578111394201387  0.3183701658311300  0.8536272937775580
  0.8355821659235581  0.3840716148050533  0.7569146841005031
  0.3918259028450149  0.4566061556005693  0.2794429505731203
  0.7198572326618886  0.2022831443823375  0.6398342389459903
  0.6466473935828819  0.2201422742548070  0.5563565922390155
  0.4409703673462285  0.4270201526007063  0.3057242442951169
  0.9820396504105969  0.4650407059225409  0.8472759213452461
  0.2695221085199718  0.8853027410844233  0.4563626815554873
  0.7334458095057228  0.1907927453787520  0.6978748335964815
  0.6847964965351351  0.2471519575338796  0.3356500198924744
  0.4034825916809884  0.5985445101956053  0.4074674750271965
  0.3931855632828398  0.4894902124423656  0.3805792410184693
  0.6520189290534469  0.0498146079733886  0.9199080972004544
  0.6887659046897333  0.0567016235953459  0.8738565724621702
  0.6143325676565478  0.0762341788021424  0.7898352236598373
  0.4952738466193700  0.4433257398511560  0.3723251719908954
  0.6232188493896446  0.0357249144731161  0.7447930786438067
  0.7250514534696173  0.1938783247784586  0.9628868666269318
  0.6637417444118501  0.0377577055412103  0.9868135500912094
  0.7050287649555750  0.0018490442795455  0.8930572406359942
  0.6437952469576732  0.1714844779092413  0.8348812366990445
  0.6937815057286169  0.1751654927620002  0.7958156777608383
  0.7142978537329410  0.1184293086209539  0.8124702209479729
  0.6029790548908611  0.0907864952405131  0.7249151902395431
  0.6513384998654669  0.0955150917280793  0.6848674750275634
  0.6712319466806175  0.0938800239049433  0.2687161657598569
  0.5485050694242907  0.0545239270370916  0.6612524442901273
  0.4561025924308985  0.9724161933783138  0.6027541248331361
  0.4935253291404432 -0.0082053390216398  0.5448522902476496
  0.6401508026081414  0.3373671987619721  0.2890831195435283
  0.7912475663884585  0.0970047183746178  0.8965532429714342
  0.7071101572127536 -0.0329482777341806  0.9726296890712450
  0.3097868351654465  0.7207908593980710  0.3399899953511063
  0.1616688442954431  0.8425596413766285  0.3699205682470069
  0.4023873226454571  0.5806564786466315  0.2409960749897304
  0.8424858072973199  0.2619152867983879  0.4467011489966054
  0.3458050551349921  0.5344023775298745  0.2951920519605872
  0.7762573572111165  0.3919750286538066  0.7333594963636372
  0.3493698573173992  0.5815839133920500  0.3379231610786489
  0.7884778769162514  0.2476646098530849  0.3747388122844815
  0.8216227394279181  0.2440618060087676  0.6647021927730099
  0.7279190624545810  0.3556301764917929  0.6688325765623242
  0.7006415076342688  0.2578751883650285  0.6215264967549277
  0.6674866080037197  0.3645600460069577  0.6438619851771474
  0.6577257961769754  0.2130959627679009  0.6128052478469798
  0.7325575613243366  0.3410008434912558  0.5016334218978977
  0.6624076485045801  0.1558441794774551  0.5524194900264530
  0.6796462627070318  0.3148947950490386  0.6021851749083978
  0.5358795115139622  0.3353179213833893  0.2541185598501148
  0.9871567095011602  0.6094837962231250  0.9679625281701519
  0.8947364848164716  0.4101001995803423  0.8840714780098943
  0.8621106789795303  0.9756005838237889  0.3918954041134618
  0.4796808768637750  0.3041586394986202  0.2468159138581129
  0.9327244357672043  0.5634305328889951  0.8997853996887245
  0.2116916334822376  0.8279162220537373  0.3335306397827964
  0.3213388033030172  0.8548288862168431  0.4789639704238682
  0.3580064606267449  0.6900934878445378  0.3640728398299289
  0.4118200474446368  0.7584705412168778  0.0275475741021870
  0.3642530636966572  0.7723784162992975  0.0626418894979596
  0.5157843242441151  0.0957834062535226  0.3309834875771126
  0.9356910929701675  0.1068228882642915  0.7793547955769478
  0.1908612531395498  0.0454520866895880  0.4077926530265461
  0.8234863760054327  0.0787761667463309  0.6889896923225782
  0.5741589718674350  0.1853059272608353  0.3172258192027710
  0.7092150885613504  0.0750346844626057  0.5316770676628036
  0.5272241982136474  0.2590786210436755  0.3346318200930927
  0.2407573210022926  0.3580608673794983  0.0143331446359204
  0.0496875168550966  0.1848967185579989  0.3721144691188551
  0.6364363415978215  0.2273977476517444  0.4959884302285892
  0.1037314089237019  0.1532224324112612  0.3998136652969892
  0.8517182258457776  0.1390179196931939  0.6355703776189170
  0.1368567864619553  0.0358055068115202  0.3435155375322958
  0.1892460385678354  0.4856398766481814  0.0832994376127274
  0.4828002456655265  0.3341671823587241  0.3527220410573087
  0.4154396479268549  0.2010153618662350  0.0857015844400045
  0.4863590320449233  0.3777727273133683  0.3951929054428119
  0.9148101503298657  0.1646000978619520  0.7616724667936245
  0.4828572231321044  0.3031668854937328  0.4802547639913440
  0.8031243850989562  0.1368818772753995  0.6715739410432339
  0.1181873913948758  0.3506663299606951  0.2821721017080345
  1.0021641646613719  0.2551599994854045  0.8333977810701702
  0.7643477702318225  0.5448582362214772  0.4322481207050879
  0.2931918038904622  0.5165842700042576  0.4527890786804643
  0.2812301205193857  0.2131678484630798  0.7107725494324895
  0.9333957616668374  0.6778666594802868  0.5124007734168187
  0.0258424652177762  0.4736734918835343  0.2065385361773372
  0.7726790049228927  0.0544059469754422  0.9618144435202348
  0.2023357237593733  0.6726033470847251  0.4903011308717148
  0.8302506843941871  0.1511663458530635  0.9605104749566842
  0.6537417983678521  0.0081978536552922  0.4197421517168597
  0.3723738434341269  0.2756970522553610  0.1083594030833881
  0.3601980919579296  0.1353744957359019  0.2018885425501855
  0.9537388681315023  0.5006668273322700  0.5461001783300333
  0.6019557635601562  0.0255998718498163  0.4550547433269083
  0.8682355773451895 -0.0457044596888679  0.9790428629486092
  0.5515464182418386  0.0564442547825580  0.4301091574616963
  0.9831999774839347  0.0768956790394557  0.9756847572313853
  0.4009357408146359  0.0131651879868084  0.1362513705308138
  0.0086618544762771  0.0891946412065903  0.8670222653233615
  0.5738793196657751  0.1556194629726128  0.4419822184118970
  0.9481875172607943  0.0968972782037436  0.8428300386590152
  0.0305543613968505  0.5339312101305779  0.1878209212361092
  0.4114084849167332  0.1577688469033702  0.0414429348353989
  0.5266294656763411  0.1658479073064755  0.4769021836328984
  0.4568162779508870  0.0770028339371611  0.0209184930443758
  0.4895875613470900  0.2878652716950560  0.8234249055841462
  0.2345366608328864  0.0786346770268542  0.8943225593935832
  0.6222900183586123  0.8460538211688132  0.6875996781476331
  0.9094667364508253  0.4166737179921848  0.4212755424335971
  0.6106752797456964  0.1395489459866575  0.4864287379135502
  0.4308850589625708  0.3856744887682738  0.4485108185560041
  0.0339564556007932  0.5166447201758008  0.0227103433565307
  0.3100795849103916  0.1836369827263215  0.1158190828192887
  0.2590264514812022  0.1816305451390306  0.2134548068019299
  0.2566367363943759  0.1719778269982106  0.0410517112309000
  0.1993857525621913  0.1223965062669010  0.0973284035580861
  0.3045906320802639  0.1217342031352286  0.1302430965353804
  0.2492501917902540  0.0921531551906191  0.1233621454069518
  0.3000517143013102  0.0780749239255105  0.0849579887190143
  0.3498097941930831  0.0452117952753878  0.1104754642423496
  0.2491965439537594  0.1923055205955578  0.9714406735676140
  0.0278878793452960  0.4873882108044785  0.1459875758462667
  0.0754095420622273  0.4114715848723300  0.1290832131843447
  0.2577100472070566  0.2938646700081655  0.0135898653633761
  0.0277180342437735  0.4409057498911584  0.1002655380190603
  0.2197369620955254  0.3184976264728628  0.2136752650891287
  0.1172818125198042  0.3360252376882965  0.1169087715418423
  0.3384818241628753  0.4482227590532881  0.4289036065245543
  0.1303149319143904  0.4597955830396403  0.3041044888082517
  0.3672396357988550  0.2092358402127875  0.3553200473437375
  0.3702371233929523  0.2537226671257964  0.3997792429903737
  0.4779801374570009  0.2418577761009645  0.4924107250092060
  0.8466783620651078  0.3232472818980073  0.4306829625603334
  0.8077146941706558  0.4303253640714401  0.3181701601900220
  0.1947906474771451  0.0501964450701503  0.9451979466490011
  0.7582401965760973  0.4446485503153144  0.3493050773541964
  0.8115994557291999  0.4764050703303445  0.3612961807516906
  0.4280501120684276  0.3268437092902183  0.9066499991932068
  0.7654750169648427  0.5542034900987624  0.3741092123420720
  0.4108284150127164  0.3683293765175624  0.9504672546364790
  0.1804929456989109  0.0358524982166789  0.5541183960405932
  0.7853006123312065  0.2016421167544200  0.3288826852198708
  0.8194182998809874  0.8570470609813537  0.9734754205141369
  0.6539524605100130  0.4590982343145285  0.2501250329846681
  0.4615059369338834  0.5582782763803842  0.4968162745655611
  0.6110486242136292  0.5511276511601199  0.2051472834366334
  0.6604117361040772  0.5203472630747593  0.2319229402626267
  0.6125847270849839  0.6594038517513070  0.7788329154017702
  0.6596446482504720  0.6963193253873931  0.8359876409245482
  0.6091643252050536  0.6925266900287914  0.8796825223116009
  0.5164065775392157  0.6896587387734132  0.3029220283016084
  0.4697698712287198  0.7494104773441829  0.3870774213585736
  0.9559833338116287  0.4299150609548096  0.4877981849283337
  1.0286151945961635  0.0053692765085503  0.1976517212436994
  0.6838142634386407  0.7562981129265071  0.7756859919605812
  0.8450403484700195  0.2948924617396151  0.3247537567197862
  0.7272785865516095  0.6716990571491792  0.4325995063612271
  0.0709198746026810  0.5206305262190598  0.8102088478030932
  0.2825586687312540  0.4117255461111690  0.2020668411833556
  0.8942606827772189  0.8128927360684625  0.2840095840578408
  0.8129349360649306  0.9517304708462353  0.0756684187542626
  0.9411004794719466  0.1818073083766655  0.1029073433978566
  0.4178329782086896  0.8032400746635187  0.0707548371962019
  0.1277211475955728  0.8109414066531720  0.9193357614604092
  0.4169530607673638  0.7849866541771852  0.1308643252268641
  0.0029843001247318  0.8576585688103519  0.1344620564837840
  0.8392202811079940  0.2272903770417725  0.1094540892431191
  0.3704863705132557  0.4848439045174488  0.9190305770284852
  0.0400718133241019  0.6245458748922723  0.0492451003748568
  0.9368439323571653  0.6582986088468642  0.1149267576591620
  0.0260956330182182  0.9434990510278681  0.9790862343389903
  0.1049320019192417  0.8369627235505670  0.8000979870646345
  0.3424450443410265  0.9675907613013499  0.1905425157977053
  0.7870558910286416  0.7794423061549027  0.1376450203144626
  0.8503964616295230  0.8871873195509276  0.0694097655335874
 -0.0045316265745744  0.7460376917014853  0.1125255253100855
  0.4382727093419726  0.5675400865098937  0.7595792013222887
  0.4488196893302193  0.5539743781278347  0.8232711121051709
  0.2277548445238698  0.8440195857806086  0.9632861799058500
  0.4599817867742436  0.5410058390661819  0.8838011896617287
  0.8794553753220415  0.0917711809032973  0.1087772878430180
  0.3070755667317552  0.5092435752371024  0.5125297636162296
  0.9004168656358060  0.8902795299944750  0.2057472529067660
  0.1528521839800930  0.8741726619018497  0.8702811906115694
  0.9399314412759013  0.7190478922768991  0.0959801226648812
  0.0838147014897618  0.1221336126587671  0.6584657521659074
  0.8488541997260087  0.9056849818903671  0.2431699015910200
  0.0939959476946638  0.6556618108861482  0.0582349386124953
  0.0960778528604075  0.7430793934323825  0.9790388785152984
  0.1622522971689724  0.3548266083155806  0.5340322513784823
  0.3909942797907823  0.5304754092245726  0.6946178468690203
  0.5187861151401928  0.7363212743051354  0.1199236546634687
  0.8649944530147577  0.8948562838732901 -0.0040509059990008
  0.8298034685373830  0.1342382933423806  0.0207636294712991
  0.9807476591197913  0.0456881834955471  0.1038742274958954
  0.2184366889426180  0.3842288054279249  0.6601479961781321
  0.3597975908856573  0.6080566502727417  0.6175554309616911
  0.2345852016399916  0.9550631690827632  0.9922124303529176
  0.8675361531480297  0.9682436078857847  0.1445839139332154
  0.2987427645132985  0.3204636953476052  0.6996862027887814
  0.2334963118350475  0.9677893180467756  0.9336466358309697
  0.3322641558849595  0.8756528882470896  0.1023925268162887
  0.8375531909621208  0.7659921182744814  0.1035053776067990
  0.2853077143194935  0.9254582428066844  0.0164556825816210
  0.9921982696279340  0.1524949998692979  0.1299845427407913
  0.3702250037297384  0.5666316252703324  0.5766683692283239
  0.7342291911526134  0.2881359756358886  0.0499711759273676
  0.9571724419542689  0.9189467404178417  0.2134393774976510
  0.4723514382275644  0.7980327638436527  0.2003885457625256
  0.5025897242613190  0.5832133497984420  0.9827973476482039
  0.8745181922522850  0.5181569588754417  0.0776307384187653
  0.8187758236137122  0.4979824013655376  0.0060286874932420
  0.8683366854417721  0.4547323338729915  0.0939985923533781
  0.1498870983106472  0.3039957108541039  0.8194488180078140
  0.7769560703918080  0.6457170352009319  1.0017540207324416
  0.9516901583675476  0.3052370198477907  0.0691254939551454
  0.3933320359388506  0.9793002461780030  0.5817211613313420
  0.9745098609923735  0.1232471334063027  0.6765367870072008
  0.9023147422437965  0.3185862349694079  0.1019411517304838
  0.7985710332072423  0.3184185751761762  0.0595888760813573
  0.5773064542523915  0.8453842277543101  0.0512630393846676
  0.6786313440318924  0.7953090700161413  0.0417813132938887
 -0.0110495262429520  0.1228950736149070  0.0221162089958760
  0.0877614999375394  0.3422783942479802  0.9049534482247419
  0.6640499070374278  0.8067230652903800 -0.0207100330912093
  0.4468837606439872  0.9369188862127169  0.1146389303973255
  0.1971702696261856  0.4933220627537450  0.9112582967572642
  0.1605447441837989  0.4426828635511483  0.9119982508949823
  0.1024836036575892  0.4491038438749807  0.8907587201889495
  0.8195918502118501  0.5195729321261748  0.1733490031059904
  0.1352506366641483  0.0758628876037822  0.9147515887701779
  0.1245723266181015  0.2409771414589443  0.8743637174346414
  0.3636302960553237  0.5988450854545020  0.8769014258725852
  0.2054178971841956  0.3250045628353150  0.9638786748163543
  0.1253737579599300  0.3912298600764997  0.9098485479405420
  0.8133155419451289  0.9380957820036628  0.1439632173866160
  0.9741029358815972  0.0249724966136620  0.9273641933604813
  0.0548167743388770  0.3184635673934489  0.5076432013120590
  0.5387871269499458  0.7123954506457832  0.8007492322913600
  0.8413689060012737  0.8262810910684290  0.0883648795596433
  0.5017649607459179  0.6615725606954070  0.8019178800871130
  0.8901923932740088  0.8091409337540262  0.0550419929173606
  0.0768028550098130  0.7725026851010017  0.8537133965300464
  0.0670432767205649  0.7863744305169188  0.7942309051596443
  0.4412372295828814  0.6683782627481842  0.7799039795525859
  0.1153278989605214  0.3026054664205535  0.5280146922548480
  0.2776272805861021  0.3770288574898824  0.6822900534014583