Cr H  Ni
 1.0000000000000000
    38.7642358654787174    0.0000000000000000    0.0000000000000000
     0.0000000000000000   38.7642358654787174    0.0000000000000000
     0.0000000000000000    0.0000000000000000   38.7642358654787174
 Cr  H   Ni 
 1596 213 3725
Direct
  0.0382253997747987  0.8882221964633790  0.9809898572433128
  0.2849779604838142  0.4119328782433604  0.2054461692011156
  0.5272628669989924  0.2249517022818769  0.4629635802071158
  0.3243260782440801  0.3358705348837422  0.4227339543724454
  0.0458881528229168  0.7239383281881864  0.3597887015171820
  0.2262335369681189  0.4466671529485485  0.4002622740992919
  0.2846830581578509  0.4819268416366752  0.4065113661653202
  0.4135177685423521  0.3041384521870161  0.7436586551680482
  0.1304376397241018  0.5087477874645954  0.3435187273671993
  0.1830764098499543  0.4918908494400575  0.3106923770407202
  0.2293191672405713  0.6358553938503935  0.5151021023065102
  0.2391551020680975  0.5528071305227431  0.4234362550916155
  0.1888481599915371  0.5863078241430686  0.3981994713684853
  0.1373919957883674  0.5988422587646880  0.4313393128922267
  0.1405709087406241  0.6616304199555154  0.4184085133456559
  0.0697737886173275  0.7350730427599297  0.4768821311003352
  0.0577006530562316  0.8057424327878175  0.4572493653187874
  0.3149128423388577  0.1968610168226496  0.2858193261595477
  0.0565504029665370  0.8409271540725418  0.5025377204813049
  0.0131939362717646  0.8882129878267913  0.4763297597446013
  0.3644404820047152  0.1672266610029788  0.3100752242202345
  0.3640449550158154  0.7322483225564642  0.7305250086494909
  0.5619790601131283  0.0658494810293646  0.3617273945357028
  0.5092566498621575  0.1270443171342136  0.4363380573445201
  0.4724149592538116  0.7630879451194866  0.8187960073747107
  0.5454001902137697  0.8626355426878968  0.8296599891456543
  0.2609616815795865  0.7431750306973028  0.9178654333016613
  0.5093206688512577  0.8121163079185206  0.8241215652164409
  0.2985057109515541  0.8080203263123620  0.9512380014319483
  0.4382247145433911  0.8334002585094171  0.7411183873446234
  0.4970163719167328  0.8255924825954623  0.7627594806793613
  0.7908390375578960  0.8153077667266493  0.2430153516801254
  0.3335013937579698  0.7714591780292169  0.9937809526515938
  0.3496612805154338  0.7656400502040545  0.6072255140627655
  0.2548949953789556  0.8398368328360953  0.9897642537221817
  0.0367196417903557  0.5547892086354003  0.6266021539048973
  0.4097473826463637  0.7551925866860218  0.6312555989416415
  0.3709929849930734  0.7057297284958033  0.6213631829235655
  0.0835819625922909  0.5900380374520541  0.6928018970633136
  0.0317854912667021  0.5834682306982919  0.7297565549322629
  0.0922721232047184  0.5761060788679286  0.7506759427632236
  0.2511713325178013  0.7606786508009398  0.8505588558705093
  0.1444189765179984  0.7328180144508005  0.7573993165846190
  0.8346801073607981  0.6906989421342156  0.4071794412865805
  0.6006760220096247  0.8919513168661495  0.9641088240477363
  0.3944190359471237  0.9410273745031790  0.9893220264323207
  0.5557659059176595  0.0055780531375275  0.3837415314774338
  0.4115340488973863  0.0904160206752182  0.2906781776224526
  0.0134270404148261  0.9332745618450551  0.2853359773858115
  0.3721335877192324  0.7194023461298937  0.7909676936123456
  0.8422676177859545  0.7997792183384835  0.2108348368000482
  0.7437954311224616  0.0143446954999355  0.7913071535439352
  0.0580547133950075  0.8742434371194910  0.2032478566231993
  0.6686690761237367  0.0365408527176247  0.6997798296739991
  0.7160979858687601  0.0310420995224116  0.6549542171002228
  0.6770414668723735  0.0034559847312037  0.5871255508235764
  0.1011056299052390  0.7378942145262086  0.2005887257497214
  0.2032726865975220  0.6906186666952743  0.1913745203561710
  0.9593819701723970  0.2263110546132660  0.9316638751494488
  0.8496764917170235  0.2019940782675941  0.8467257416822350
  0.8387883466973448  0.2153380689938473  0.7857966362824897
  0.8007200403470388  0.1681863755613146  0.7798119994818012
  0.2460810199225295  0.5679413641880557  0.1350119233900892
  0.8502753205831594  0.1669320478307449  0.7425853417568394
  0.2438505121249728  0.5530207726792931  0.1956283816260208
  0.8008636497825766  0.1336227832868176  0.6714567927634221
  0.3434024188729708  0.4563911585434151  0.1471299976840378
  0.7547560046993104  0.1007144445808892  0.6040452354257937
  0.2907830082641470  0.4241252474957031  0.1368820119790968
  0.6614755547797506  0.1018299830516721  0.5157525545706221
  0.3889948166275063  0.3815928901279876  0.1339316066097873
  0.4341945744085330  0.7101763992944347  0.8127233699004458
  0.4661882865412905  0.1540496411101381  0.4055761832934232
  0.4223112439854694  0.2270991861664964  0.4266718568709710
  0.6161914005331101  0.0523910855044598  0.0857449617203780
  0.2355306195500044  0.4899285914122118  0.4390227342102291
  0.9207158699138205  0.3295241307323726  0.9626583653552909
  0.6596386199663913  0.9932810689535663  0.2507649900023748
  0.7843160663618092  0.7007114561946809  0.4414137265282049
  0.7780031118038132  0.6586600462680912  0.3969563169155193
  0.3785224159086396  0.6906714390510995  0.6831010685585319
  0.0741476404979605  0.6056870729225049  0.6324227399048490
  0.8122122101374979  0.5942804068963236  0.3963112283987740
  0.9300742012713935  0.5848899568707008  0.1907167613364391
  0.9848827720339227  0.6156223311431326  0.1999064168759015
  0.8674735921800178  0.5606937816062633  0.4158293987233537
  0.8643207693538134  0.5125297174294299  0.3716328521715773
  0.9165479882241633  0.4979268429801019  0.3359956933892985
  0.5868895688417470  0.9440281109113530  0.9403656780635198
  0.9121363418367927  0.4356989444132026  0.3589531272558332
  0.4178055682021898  0.1826211177808793  0.3808625466589172
  0.5086086377594030  0.4857079939120804  0.6405628743047600
  0.5943249389494413  0.8689073649585135  0.7885755736739651
  0.6786426194689625  0.0238994092202286  0.7647871610519382
  0.9138871249598981  0.2236305040832167  0.9697163795836947
  0.9197120954930873  0.1757354465527766  0.9277762989711850
  0.8177808717513650  0.1431521261535953  0.9007219252118157
  0.0002628918390368  0.8160490916920897  0.0889309777260060
  0.7696133875318308  0.2109507726065258  0.5987769474403188
  0.8363766579423647  0.7372592720403225  0.2264280044013361
  0.0333582300573801  0.0080449653940263  0.6771195767980684
  0.9430522853570857  0.5605601439039395  0.0292165912555963
  0.0648832701391527  0.0451229498872581  0.7794245562577472
  0.8608470083553780  0.9641297578535267  0.4575277053925351
  0.9122801707911171  0.9496247245676733  0.4197790286722217
  0.9534902704042866  0.8564235085813132  0.4578221639572607
  0.1677007410978313  0.9237781939169867  0.5303852514490829
  0.1773304930133900  0.2248313836003013  0.8976903486861341
  0.8133345563382901  0.4611766519936543  0.1978483103060758
  0.8628819976017218  0.4310409688251848  0.2241003448625443
  0.1165777116697865  0.9495430526998058  0.5008953071194321
  0.9070489094428014  0.3535475618473906  0.2128247310096628
  0.0911797239549228  0.1368747500765514  0.8286236170849972
  0.1377968492232934  0.9183312560238281  0.5751673651312336
  0.8557383029032716  0.3699864910763813  0.2443330535345972
  0.8510966579733856  0.3226598031795163  0.2029406668796589
  0.1022398977440938  0.0938896199967126  0.7844542575305279
  0.7254149730964895  0.7874162971997289  0.0058138598708931
  0.1198747382825947  0.9810857846513401  0.5520877392270743
  0.9522676879896321  0.2747703530734170  0.1984806274168456
  0.6080039058295512  1.0079538372071941  0.0417640940233768
  0.9477914994191240  0.2130187258381049  0.2125002853827623
  0.1475631796285760  0.8559817598755027  0.6886608413077606
  0.9729866471610121  0.3347696576692544  0.9210328342266342
  0.0691942857974936  0.1627867765104216  0.7011421328079721
  0.7189799124273694  0.6012403253832909  0.2859175068366094
  0.1127204365800484  0.0808193539805930  0.8474245263443975
  0.0757515646395678  0.0314238225369251  0.8435841417245146
  0.0153135345771286  0.0355111431856267  0.5444108263316700
  0.0615937567212738  0.8183237971294637  0.5677013975553489
  0.0497332862731847  0.8597014576977750  0.6109639519382128
  0.0101112749972846  0.8103349128228404  0.6083971230226757
  0.3239519573437877  0.3057905578569034  0.9920186000235555
  0.2648445792388907  0.3119619829210235  0.9695679805500053
  0.1000315747101827  0.8214403422341628  0.6198587140565319
  0.2651878611943981  0.2826523699858290  0.8641925713690454
  0.2271521956913197  0.2323468714663297  0.8580275081586518
  0.8349477304533481  0.7115767058149433  0.0051841276163351
  0.4302321790078714  0.9234549079536203  0.2625077406415316
  0.1559878576476273  0.2510743781009377  0.7743544605867823
  0.2172708522604404  0.2453464109246142  0.7976510527902950
  0.4796469350711170  0.9090264232863923  0.2250752618195256
  0.1185819326632806  0.2013561055729906  0.7706590503278317
  0.5325989657963061  0.8770058328045297  0.2500282641829322
  0.2284463022267193  0.2024928371871349  0.7539030434087779
  0.8360105504094636  0.7241167122138625  0.0617492094549967
  0.5718541625146513  0.9586444671789828  0.8781030055410649
  0.5989390410343347  0.0142756773671072  0.5218744007669643
  0.7293292845630210  0.7074173902489944  0.3107646234585895
  0.0907145685696845  0.6877611651777888  0.5104132967036696
  0.4309530917777776  0.9133720978533773  0.0931205840594686
  0.2697388551662951  0.5547698863836751  0.8254881345967944
  0.4214432272266982  0.8708326496474215  0.0502801990485130
  0.3180930273245632  0.5615586181416991  0.7875112162352589
  0.2947181775776314  0.9333089050463079  0.7868576018714309
  0.2242316399546471  0.5187860528378441  0.7562600661112592
  0.4725869235011200  0.8336385574165671  0.0775577460980861
  0.5209030636986741  0.7530415097406028  0.0562080994196233
  0.5174224251367929  0.7071722327154034  0.0083615054639101
  0.6268245387800216  0.6607882494267878  0.0026496503554724
  0.1307997498727894  0.4439305442211486  0.6207694595238107
  0.3033375843929492  0.9194157121808204  0.8497027138325269
  0.9806387090436829  0.4697037022365484  0.0760721352840249
  0.3401843345081901  0.9695804992097637  0.8525993104936469
  0.3481764870784868  0.9552831418800404  0.9134371264470283
  0.3895003360241143  0.9272615095898660  0.0463662064197763
  0.8033389829037765  0.9322676901583805  0.4473472569369652
  0.3974005812660348  1.0187313740086561  0.9596402368457623
  0.7877232229802250  0.8287330042981219  0.1826389657751580
  0.7387589903762508  0.7797902723613062  0.4601415296652250
  0.7848698981291158  0.7213932817600683  0.3808228689288741
  0.4838893271935664  0.8984549209634607  0.0538180494018332
  0.4699317017279320  0.1696596100647739  0.1164916424962278
  0.3965976330675737  0.6634601217338618  0.8091547723657345
  0.7948528279431785  0.8085146726149415  0.4788609888019937
  0.0778800576792064  0.7311758801799144  0.5671870570731095
  0.0875174647924732  0.7133023468662669  0.6256012970956640
  0.9338867976334156  0.5997282483337546  0.1291492088376942
  0.3818847470746727  0.7041091863292211  0.8529100846674778
  0.8833036085416717  0.6302857165365829  0.1001474471591926
  0.1933749642965257  0.7397986094002466  0.7202310977594086
  0.8643400707114904  0.6052581302625912  0.4553339729901982
  0.3452538104423433  0.6550498103721307  0.8470999450618406
  0.3349075916123345  0.6701447138268354  0.7840404939950878
  0.9701215703031020  0.5675770632414173  0.4605559156935092
  0.0686632747392517  0.6332879838133515  0.7386135881562462
  0.7794171084066916  0.7203211019163052  0.1534538873440286
  0.2523227307417786  0.5841555290581745  0.7010008992995382
  0.9672247983347909  0.5016847365235056  0.4674963895996898
  0.3019202358567966  0.5917389108678018  0.6629227011175771
  0.1981092434877215  0.5635823581328415  0.5731560649117894
  0.6981127818532846  0.9155084252665302  0.4646666031987444
  0.1465871117100177  0.5309023868651053  0.5074503719892705
  0.3264779682023997  0.8632791831864126  0.8659782737343342
  0.4683292039834866  0.8507550078382263  1.0227128315570118
  0.8418131488655182  0.7218684327135202  0.4564002964259569
  0.9297492354792721  0.4236041491272984  0.7872165893935288
  0.5669217039458424  0.0807391331983431  0.0582423272037223
  0.5172536449795208  0.0933375777227869  0.0955651432167818
  0.7079288690299392  0.1409838023801133  0.5109712048262666
  0.6948945404823159  0.2921191885519979  0.7282457210607006
  0.6325526559219073  0.3019075309565675  0.7052226828794663
  0.8372543194354779  0.1459671939263807  0.4788981046792537
  0.5852974714892312  0.2683511127178672  0.6386687783451375
  0.8699649161927302  0.0775326871426673  0.4765938022073212
  0.6384710922817918  0.2754151295047099  0.5997997579044109
  0.5353188704912563  0.2393669660512896  0.5716943057047574
  0.5466382419981329  0.5108841670371781  0.4838281360382923
  0.8885770938457617  0.5518048780517767  0.9300875302671417
  0.6555428552569879  0.4619188100291501  0.4806085471857325
  0.9173224569616620  0.4948286244451429  0.9374433269891733
  0.8562897201674224  0.5051183149064649  0.9190281026322147
  0.6906571670566357  0.3448828368242481  0.4291786345598804
  0.9971928903320433  0.4307856266989130  0.9745480210205801
  0.9122864206984338  0.3448604416725325  0.9045161110485498
  0.8511455962047703  0.3532162155227659  0.8826213174381492
  0.9015787019991891  0.3579394903123468  0.8439318013448630
  0.8029429408330386  0.3188224942708669  0.8170516269646113
  0.8540275546674692  0.3235485931109106  0.7747461526643886
  0.3906445340325788  0.4599175636280415  0.2799956021563637
  0.7190633938558064  0.2030615335076212  0.6378170409122573
  0.7341707945439523  0.3409174881604755  0.7346161960776512
  0.6504175106617877  0.2299505693187756  0.5584424577716499
  0.4398584269566027  0.4293145419704508  0.3080071717236755
  0.6287664390093090  0.1513271947000714  0.6668355996174823
  0.9881523182971910  0.4453791433355208  0.9140504469587617
  0.9774125056365898  0.4599145622283397  0.8575357201349342
  0.7279823205783348  0.1899391439716471  0.6964461705809849
  0.7393095126652232  0.2678960692599949  0.4113228782757705
  0.7889918833290291  0.2363516129356075  0.4392681397892788
  0.7717400827667643  0.3893425701102473  0.7396460272874769
  0.7868562860738140  0.1893388679139027  0.3931868283229499
  0.7223354098285462  0.3578467084847315  0.6658230830977412
  0.6634982072745740  0.3679347852186097  0.6479246834190883
  0.7153188899522983  0.3770146111542251  0.6038473288677455
  0.6774499156629680  0.3262853085718150  0.6057069105985339
  0.9855558811709202  0.6000208799929546  0.9682375088726939
  0.9207442376491779  0.0087517989620128  0.4028847508909394
  0.9375544377027564  0.5630828891987686  0.8922989406966858
  0.3225736606673054  0.8551770322016593  0.4716812209538017
  0.8928021248368667  0.5263625033796608  0.8205800113218036
  0.2698269775824575  0.8195178884687042  0.4652485920259436
  0.3544781267940006  0.6801350731203964  0.4198022495323993
  0.8793313909931282  0.4172769049703758  0.8283767842363106
  0.6679915191647130  0.2001995236445144  0.6732714559259010
  0.2646258781962975  0.7985606576696861  0.3564508351229663
  0.6190043356151560  0.1667862684389009  0.6036779825293968
  0.3007353293467409  0.6641775526010526  0.3546120406236203
  0.2090590153372033  0.7699897376695922  0.3416973028108546
  0.6229099150101784  0.1253622829868755  0.5519255231660065
  0.4479175435394918  0.5385096114535846  0.3290243784492156
  0.6723551906298545  0.0946724162703594  0.9155333493224221
  0.6823685616928803  0.0530937311002781  0.8711015506060156
  0.6120225075930691  0.0735345362407608  0.7868692392704703
  0.4922351948827439  0.4466670098660849  0.3748987205191806
  0.6200560278335664  0.0305973574024171  0.7438138685074359
  0.7850653184976030  0.2440431108282264  0.9279076385701032
  0.6598301604319876  0.0409040337193181  0.9907834381102879
  0.6829211344604463  0.0033360161774852  0.8934333266008357
  0.3981831350629835  0.6025965496013362  0.4087410965295511
  0.6774630283344533  0.2161044574732256  0.8400039728732449
  0.7107160162604055  0.1168386992885631  0.8133105399506557
  0.6390964520434043  0.1372323349901459  0.7279030858339866
  0.6480285956887266  0.0931395151647925  0.6810231869465873
  0.6799840658085964  0.1548669748322215  0.2513950443924465
  0.5485843177034034  0.0495623300739980  0.6569090316951254
  0.5212355387082792  0.0106798472629052  0.6046452023791646
  0.4940785407631184 -0.0040451575736412  0.5470194001005476
  0.5860384886928127  0.3089621873604009  0.2854261280031087
  0.7608594178241858  0.1507726865828488  0.8808800848814319
  0.6889174562280331  0.1724385402395449  0.7971698128298718
  0.7082455767647663 -0.0248628262895307  0.9744590996147308
  0.1636068184285449  0.8439230973328862  0.3655625672104660
  0.4075715421280217  0.6614753679417208  0.3877557383899130
  0.6580987901868622  0.2138597558985100  0.6145807743791556
  0.5460144792872457  0.0903446135776941  0.5363839896723119
  0.6692545074113847  0.1685810885890527  0.5641319708848428
  0.6857098404388081  0.2814289115691818  0.4461445740128473
  0.5379332867520983  0.3402167945980630  0.2585926643469946
  0.9352999657712155  0.6964042983362023  0.5968074573373459
  0.9279303353318290  0.4538075105966610  0.8939485277413828
  0.2221187461513435  0.9079724811601745  0.4841423832474726
  0.4777719360292367  0.3069864938327716  0.2506019168381559
  0.2174221112481174  0.8579575378914676  0.4371595990701547
  0.2134724536793501  0.8301235821543165  0.3289388723636788
  0.8047848434100336  0.6873094891682525  0.4982118119384130
  0.3498046540955610  0.5995976995032316  0.2756826065811296
  0.8353906241091203  0.5101937703118913  0.6954564381986542
  0.3986428931915413  0.5688869421378036  0.3012413792192629
  0.8833024754604271  0.5410716709294678  0.7635817698865270
  0.3469041793930593  0.5860354354479115  0.3358687226938530
  0.9396094446706843  0.8262627647248141  0.5226888390855140
  0.8063997955608133  0.2873180665295035  0.7103995988224552
  0.8229592364659252  0.5504278638388151  0.7420890164877544
  0.6974383766917690  0.2625526704805410  0.6221767932089242
  0.8429193401717411  0.2059221726602169  0.4605137179486978
  0.2708426933341959  0.8866502294224405  0.4529735716751828
  0.3312467463269176  0.3517187526999287  0.1274033998153200
  0.9854532794616172  0.2915615417251035  0.8773530972550633
  0.1256730982843820  0.6134279420616646  0.5935637100895285
  0.8512839630117491  0.1389612761788800  0.6367518175583785
  0.9755394137124268  0.5702107149700778  0.6315102289599449
  0.1917484596007102  0.4858665378236349  0.0799236264773828
  0.3883827617097734  0.4140609934899905  0.2396172006265713
  0.4743659859915947  0.2312797008608802  0.1029661474042301
  0.9688680894742167  0.5841114634712239  0.5720200771382909
  0.8879799382219407  0.2214304327498799  0.7466256874299696
  0.7307952820249086  0.1604252481103622  0.5915065617294234
  0.8397662704485838  0.1826238340267227  0.6785331640573232
  0.4825916055773664  0.3665304073434675  0.4647258786669283
  0.9593282112241113  0.1962706256855282  0.8271489338311093
  0.7880080783298752  0.5006435859325672  0.7326672391842601
  0.9329145163998498  0.0995678199626735  0.7786665812058681
  0.7540073850225298  0.4236613106942270  0.6139993680798927
  0.8207282602942592  0.0726181753543173  0.6889634388226159
  0.6901693689434223  0.4339107321047234  0.5940919011137886
  0.7682727076979016  0.0604566210317528  0.5599099716913908
  0.6778467494234464  0.4529115639188798  0.5353482204436877
  0.2419657125491441  0.3567631219031138  0.0162139555093765
  0.7411110706187261  0.4379945532090781  0.5592838617697540
  0.6553168540047367  0.1677461828479776  0.5053279848013730
  0.7458112185287308  0.0041031667008678  0.8557032617029631
  0.6407531624792893  0.4063805923338170  0.5158571111599861
  0.3825823889958033  0.3366376146153759  0.0939655730313299
  0.8661601264566587 -0.0372109313770023  0.9778112997278613
  0.9946290902792708  0.7111642553956855  0.9225784288865864
  0.9777097722600685  0.1677707500387058  0.9516131186764513
  0.9526429311500078  0.6704326962628951  0.8904778289979185
  0.9877422682212957  0.1235898564980712  0.9101951985753683
  0.4508610519205679  0.6311893789778902  0.4156047860564633
  0.9404265222847419  0.0879144959737279  0.8401142149904059
  0.4983491607290492  0.6031858115683938  0.4524567499284913
  0.4165321054736675  0.1596762604401151  0.0426647843611111
  0.5002186303229830  0.5554047458309511  0.4001831664178345
  0.4604229774369065  0.0822296988148223  0.0214763264169635
  0.5029824386772239  0.5429314760217138  0.4604149654661522
  0.9658406550827029  0.6731222651323149  0.5135212976715445
  0.8518471714191892  0.6168591972773688  0.6892139908794376
  0.7738849790156656  0.0447053702064456  0.9512279373528175
  0.8140400145773800  0.5666070839629371  0.6814324867111780
  0.7881148018409468  0.0895919676165662  0.9074514121147337
  0.5980389990075241  0.4480324885811680  0.4110046108069669
  0.3736138282050185  0.2774072932636073  0.1111742460151981
  0.5881741175447590  0.3869630529055045  0.4333834848755022
  0.9510403898659106  0.4798264480328529  0.5214535045804582
  0.6353262860158354  0.2638425134715601  0.3762702300761838
  0.7928165024030721  0.0029127394361422  0.8953527896304718
  0.7819998320251199  0.0636598578557187  0.7927510262090354
  0.7821273277712729  0.3494721208459309  0.6927552118432236
  1.0009328317401871  0.4000977086467232  0.8669074344095763
  0.9415195543180946  0.3786944784422434  0.7393430713773522
  0.9640778907125818  0.3199943614202975  0.7553072433699424
  0.9057208444801056  0.3281937931483461  0.7359729841618110
  0.5588483199390496  0.0206749235918454  0.0726659668067111
  0.9162040473911601  0.2846915300363445  0.6906725002328163
  0.8558456405008820  0.2941042935763635  0.6701529135222787
  0.8490280478829412  0.3114307581295486  0.6096595056889469
  0.0001784168819596  0.7967791130879132  0.1480706411804861
  0.8124510797637788  0.2142559533212917  0.5615829006292092
  0.7495395604344266  0.2432165906287479  0.5340834433019161
  0.9793985172199131  0.4280170129093369  0.7508755982630099
  0.0425528304324436  0.7232212965942881  0.1312401909465147
  0.9440918958361437  0.3506792509585437  0.6318155001440485
  0.1509022754333299  0.6753758354377023  0.1204226821297398
  0.9380518336897611  0.3684108558812266  0.5736100692311578
  0.8445400159180569  0.3260087268235644  0.5490739838321435
  0.8477721765664491  0.2541815315139186  0.5073476765257219
  0.5785272400056309  0.2153144250434751  0.1962544061303454
  0.4969942988387294  0.8551173496164505  0.8665000087986030
  0.6007603080298315  0.9788817896206961  0.4181978780360043
  0.4444531043622044  0.9143676028489487  0.0092877768855260
  0.9901003703040492  0.4121586450021387  0.8090182758560953
  0.6297738705809063  0.1843776257953151  0.2241181514031710
  0.6253351944492602  0.1249733228234808  0.2399141592409562
  0.0483228881305736  0.7359291961336881  0.0664753396913662
  0.7521234583609970  0.2709975610893442  0.5817238189735401
  0.7213024302352395  0.0360114890213576  0.1903643772434154
  1.0055915560150344  0.5545076908555812  0.9236263851844604
  0.0683712256868677  0.9484443133744903  0.3570772112011401
  0.9564590485849176  0.4876162075658491  0.7377481631951996
  0.9180658106168782  0.4396223927807473  0.7279407765163334
  0.1127437455975829  0.8727256524939062  0.3385261936481521
  0.8722352930287637  0.4055045872868506  0.6579916554378371
  0.8129871172167281  0.4149152918385720  0.6364501364613746
  0.8637073128888896  0.4223124638486209  0.5983465245112382
  0.7676134228596990  0.3809488130817092  0.5640375096223440
  0.2101464889578428  0.7836728536166754  0.2817446265188153
  0.2014431036987951  0.6760383364960271  0.2538059354276923
  0.9246718234919875  0.5658286423772223  0.6664375666912912
  0.2977884395876628  0.5847229952221316  0.2054501771185138
  0.8581106837972819  0.4375234946867902  0.5378127366118028
  0.9612415065941419  0.6129563766916196  0.6777618946831219
  0.9436112055429187  0.1657677500380938  0.1666623752349992
  0.4969470567529605  0.9885760001294763  0.7279180328463634
  0.9238297272094078  0.7395409670155247  0.6404338349067163
  0.7704334547131515  0.0348397142774463  0.3285067171691565
  0.8347401813632795  0.0164233332950056  0.7043270935924002
  0.0642092458572731  0.5105772312724454  0.8110737480501218
  0.9361106384727397  0.6992857890105024  0.7657090636077374
  0.8963940140502731  0.8145898657183254  0.2814530476485053
  0.8142090791068298  0.9568811401852275  0.0770109004123548
  0.9448505100032237  0.1813875586131778  0.1058033280877483
  0.4177242495564926  0.8043241043746001  0.0648202805891133
  0.1035978536810574  0.8580449135222815  0.8976631376845423
  0.4188926131025912  0.7873377342800789  0.1244369834318430
  0.9503510966800619  0.8333894032907987  0.1246271955003088
  0.8429218911136165  0.2300745293329688  0.1122173262874771
  0.3648620711551153  0.4768966720171747  0.9230725016958931
  0.9911733466239796  0.6455683407036839  0.0747699263239433
  0.9367276642657570  0.6602696921636945  0.1102986809124090
  0.0907483188555828  0.8450203163236266  0.9954890633806394
  0.1074155418470068  0.8314403971744677  0.7886438059333358
  0.3394733077330608  0.9772120643586002  0.1938031844215563
  0.8436187221187313  0.8133494707421458  0.1467855709103061
  0.8567825444153592  0.8792430595824444  0.0543193051557388
  0.9495470171314463  0.7900272997461276  0.0720338752799731
  0.3847610084094129  0.5545459759736177  0.8109760088364364
  0.3927032306443076  0.5398350728542608  0.8661377862922683
  0.2278492983481765  0.8427585322996382  0.9418722079866401
  0.4548680304828329  0.5325283839431828  0.8892785838538770
  0.8847219746449185  0.1021211602050705  0.0484469079834864
  0.3057262967197786  0.5159944746761365  0.5144215513817190
  0.7457639668588134  0.2962130772699811  0.0627350945559108
  0.9070041682663995  0.9395552506699344  0.2523007442762704
  0.8902244132095565  0.7558882321939910  0.0701705575644834
  0.0804570203416883  0.1200883545344198  0.6565983801914725
  0.8498925461996447  0.9091142174873370  0.2402419962945920
  0.1683127309080537  0.7118588156619914  0.9976311731052488
  0.1009403909356548  0.7392197774477286  0.9677221305204302
  0.1597365408064567  0.3571523415855531  0.5330958874833249
  0.3847830979145364  0.5266575936972834  0.7019409647649574
  0.5215262772536891  0.7386964936048890  0.1165635002665801
  0.8169391008696244  0.9717824567065623  0.0149877343365920
  0.8277342657809060  0.1313380948594710  0.0234319819209399
  0.0367879563446926  0.0292789845396500  0.0627299264775524
  0.2135232878989011  0.3811452353977209  0.6604108414568115
  0.3533550981978591  0.5997358950429043  0.6250213110907882
  0.2403276001978608  0.9623750777780459  0.9888505398710630
  0.8650731774379238  0.9256131355472447  0.1013642091330153
  0.2824763321504123  0.3604012511547144  0.7457410548677348
  0.2366777243913532  0.9533803786680807  0.9324390223841721
  0.3223422439745678  0.8910076813462345  0.1172911546943734
  0.8385649813406092  0.7692480047647171  0.1046840486606423
  0.2604606249830796  0.8980887146028804  0.9544582861919829
  0.9937246729794037  0.1497391025563317  0.1317844533119275
  0.3662242036872772  0.5567803076035225  0.5817360232101640
  0.8375451686347574  0.1846033120091710  0.0682627300682394
  0.1926496809866472  0.9163206100987676  0.8663683144819502
  0.4737176741155186  0.8006417058493172  0.1971948889522429
  0.2046046484455972  0.3191854171741932  0.9588724212162197
  0.8250183819935123  0.4859748824754836  0.0754521518294413
  0.8206405995685074  0.4983387699200256  0.0144425263732637
  0.8728862209854906  0.4556730515715563  0.1007826140796420
  0.1436495384584971  0.2963337845126924  0.8204416074942347
  0.8087037660320463  0.6527154153338631  0.0050396972565909
  0.9508225582939297  0.3046205196414916  0.0774509759378186
  0.4076948704592837  0.9903188897931205  0.5790761375574927
  0.0235619597462743  0.1255840162693410  0.6321306334353920
  0.9030902548524324  0.3189265629448187  0.1104663432658852
  0.8479126512492929  0.3100989808000602  0.0365975741652932
  0.6301813199691085  0.8124686802256194  0.0732924208901862
  0.6798833793868575  0.8002651652345039  0.0404189803700489
  0.9967130874316431  0.1697133017633543  0.0740190421189072
  0.0833650571614512  0.3339365109589903  0.9049351333881979
  0.6611385375269242  0.8098055490321452 -0.0179273189735227
  0.4306609925563395  0.9625825967653472  0.1426833909187334
  0.1942090953498688  0.4846487914100443  0.9172811308114512
  0.1581016796440549  0.4342557047460898  0.9145544403411739
  0.0989492251439194  0.4406862566309612  0.8943588559754737
  0.8244257027419851  0.5333931251746525  0.1155620945340001
  0.1218450781343118  0.0658488052724348  0.9103744239385725
  0.1334080804167307  0.3395978884206243  0.8650602226871010
  0.2381069221456340  0.3703281845701505  0.9560949688221382
  0.4251163299397662  0.5800926710208711  0.9544351295783083
  0.1805271469808012  0.3752198572713823  0.9350454508293288
  0.8072212519485379  0.9445473322092692  0.1385411479798271
  0.9817705498964622  0.0008539920301655  0.0494626800934124
  0.0538344784274864  0.3171626103052437  0.5081635567829593
  0.5448561763507865  0.7114338119507260  0.7958651129875166
  0.8440921331639014  0.8299642266251773  0.0845188946531999
  0.5070501751418364  0.6610410120533240  0.7907748091565957
  0.8947860976482278  0.8170577729647918  0.0526012497678625
  0.0794574216037528  0.7655586110328120  0.8406666650231359
  0.0710612572808586  0.7819010904214483  0.7810595588377029
  0.4484808449897074  0.6687190744803619  0.7691138908116620
  0.1147486499481419  0.3016666457707738  0.5277217545755006
  0.2344568780141418  0.3231015075262151  0.6786016085582943