Cr H  Ni
 1.0000000000000000
    38.7642358654787174    0.0000000000000000    0.0000000000000000
     0.0000000000000000   38.7642358654787174    0.0000000000000000
     0.0000000000000000    0.0000000000000000   38.7642358654787174
 Cr  H   Ni 
 1596 213 3725
Direct
  0.0250152961200512  0.8813896772605551  0.9949851156525686
  0.1807857716834219  0.4424106949340750  0.2700527614637773
  0.3673157176314444  0.2099704494119245  0.3549856013877575
  0.3234112471126295  0.3237395330853653  0.4787761087287310
  0.5153545468258007  0.0958048365338814  0.3301387529853847
  0.2267363941027141  0.9792737573623996  0.4082630015544467
  0.5742885419530570  0.1852780768526653  0.3165503230507191
  0.5272222868668385  0.2591797660738712  0.3340898240981031
  0.0471049426121009  0.1843039751466672  0.3743256511479611
  0.0991383917902140  0.1546661591512137  0.4003935296022915
  0.5716726618964084  0.2217861632761719  0.8619037820045189
  0.1361130364241331  0.0353166952616119  0.3453407703386603
  0.5362644653026668  0.3660705545176360  0.3579766683028739
  0.4285181864214552  0.3511499708004033  0.3892907308680034
  0.4768826374003110  0.3063505100051329  0.4781094100578061
  0.1176748736329210  0.3512603247189475  0.2822823259680889
  0.3088136092938201  0.5075776662822834  0.5109126284801190
  0.0753844234357380  0.4416317387950902  0.2346679789981299
  0.2026745437526649  0.6859732227453672  0.4260111927862356
  0.6520646097880338  0.0099264755230381  0.4225366501680974
  0.3606583899606667  0.1346711583285847  0.2023241311946997
  0.4950890501439025  0.1225209221494243  0.8536321059208859
  0.4505320269620114  0.9796090124553900  0.1611860998309759
  0.5756070125996154  0.2171568608324812  0.4240891751322478
  0.4799962591627928  0.0153613138147498  0.8703807554424455
  0.8030896212410206  0.9310305057699457  0.4419633823457648
  0.9175478147634422  0.0457371615332970  0.5036599021364442
  0.7235312923521144  0.1458931294013523  0.4485872053147040
  0.4301414761588908  0.9043097700098222  0.3273146430216847
  0.5614455234370594  0.5805348743955858  0.4088637814603751
  0.4157777368516790  0.7185530507276948  0.3731498143839984
  0.5107325160721605  0.1978477586393179  0.7338781794284319
  0.3667025764304017  0.7664744510296423  0.2890039473973635
  0.3114228645974067  0.7501512014507641  0.2178092890167617
  0.6803495108561787  0.3178627505054835  0.5459449465537095
  0.4894230308469960  0.3904684694736431  0.5787688606680756
  0.2640124500455198  0.8115233181929818  0.2986315865805505
  0.6058311741736667  0.4048156430465379  0.7336323290164415
  0.5577918859244674  0.3698950143794411  0.6656245591972525
  0.2735731766845637  0.9034536044199797  0.3912488389695915
  0.2695853620382309  0.8738152148983722  0.2827401949748554
  0.6841111410523358  0.3722311378304415  0.8762339451166493
  0.7131391007747868  0.4353111000968715  0.8175295591646589
  0.8237331400060431  0.0446031581457533  0.1651363346344579
  0.6088894700537025  0.4548673465888386  0.0016195067217596
  0.6445992863371249  0.3814171455032982  0.3298481375478464
  0.5511253882185750  0.0415208095210601  0.4942998224417234
  0.7135672170746641  0.0901173302124172  0.4726192905381910
  0.8026219336966166  0.9123807632132973  0.5688284235223784
  0.5025635580696702  0.1292203172760982  0.4469197600772563
  0.4204117773399019  0.2229216521163397  0.4221872369168352
  0.2424426816785234  0.5512965202729274  0.4243527427781523
  0.9890592357507245  0.3002577289897448  0.8790684088299946
  0.7031237531738379  0.9594821599450818  0.2766276452020622
  0.7334139374091873  0.7334041960200020  0.4187175409902507
  0.6278921678550535  0.7191927354806373  0.4405817824831352
  0.2146042213518891  0.7817260641382396  0.5112159823569029
  0.1068373660715851  0.6764297089954773  0.5698379368653426
  0.8241503715019719  0.5807665124752869  0.3846389637511226
  0.8346605586287784  0.7193485592173999  0.2891377257211054
  0.9842542773641627  0.6118469613566841  0.2042615670804326
  0.8740335119175717  0.5500833541704233  0.4133495589023953
  0.9208762021012220  0.4912374258364687  0.3355564315149344
  0.9688325643834229  0.4612898303060018  0.3653817129431509
  0.5474344927137338  0.8954226758524328  0.9336026402982344
  0.8624832182179805  0.4466565102734756  0.3867549238325853
  0.4219060480208436  0.2409712085323408  0.3624165384849949
  0.4903094992783777  0.5459421814301773  0.6160814884823224
  0.7051552534935439  0.7843724782462255  0.9404623916924580
  0.7924420398607013  0.0182765113159923  0.7482198968818902
  0.8870337946870214  0.1865134491910766  0.9692859049252982
  0.4124426823981148  0.1117046014824704  0.3923740354060183
  0.0327477945775578  0.5343075751723303  0.1871374753772266
  0.5276355484789845  0.1675914669448294  0.4775809903375813
  0.4076797992713068  0.0644531624381271  0.3444717318419522
  0.4887432207814925  0.2881852395866638  0.8242084643580575
  0.2839552550537410  0.4116641984998580  0.2017195477982842
  0.5250261210611347  0.2284955874411916  0.4589537589669572
  0.3830510664378849  0.3798302737078129  0.3626967211748612
  0.0456961699234572  0.7181019217925597  0.3649657809447414
  0.2854894393586777  0.4418591472056687  0.3066566462437388
  0.2883682918876363  0.4747002925982696  0.4077399239797050
  0.4290025836687512  0.2634090364621499  0.6965396822954989
  0.1384804247339962  0.5662896107198098  0.3275717242762826
  0.1846347329725412  0.4886999046973589  0.3098969195125016
  0.2477539051293073  0.6100906667048451  0.4071406144278321
  0.1931017624799768  0.5803995472436857  0.3998768429597220
  0.0909168326313168  0.6253183610001866  0.4079324800356271
  0.1011148914345834  0.7321444800738668  0.4372120533634768
 -0.0006390588439471  0.7962716099924754  0.3833348023084113
 -0.0059307708841583  0.7189774163578516  0.4614394488798648
  0.3197230751832459  0.2736057739519747  0.2063297340892556
  0.0544447149281435  0.8083955726287793  0.4572161729318064
  0.0659783863501797  0.9170085318608426  0.4889109754287204
  0.3138266924731131  0.1960780522361250  0.2844183681354333
  0.6138925226718192  0.0978303992586293  0.3698010378593060
  0.5538964927524350  0.0700374368429480  0.3668877378677947
  0.7888933492247437  0.3460740384919751  0.6921172163745495
  0.5761719584343508  0.1974424873615232  0.2563394515153533
  0.5807967641507515  0.5565145454566766  0.5310240460991733
  0.9864913258815323  0.9651364588111281  0.6764085928918097
  0.0209513974722707  0.9013508205248887  0.7584668833684194
  0.4744439802268913  0.7938908802423482  0.4315986263515609
  0.6764964902954965  0.8053626926336139  0.5986518383608720
  0.8046902557029374  0.7201214902068078  0.5702572627120732
  0.5768624154694055  0.7651031718399657  0.3564195139192317
  0.6919304642161782  0.8480331062970567  0.5474594596961224
  0.2143137532817294  0.8413322329761926  0.5005424350736962
  0.8359423397835167  0.9153131204452621  0.6935886211077283
  0.3823866600750853  0.9480452403528995  0.4706897499353033
  0.8851462150752444  0.1059063113285418  0.8194552138930725
  0.4550965227473778  0.1325727660127373  0.5546603412873833
  0.9604443843248529  0.9841820931619168  0.8921525934376806
  0.9736612210647140  0.0056527018158721  0.2976863495543224
  0.0318478318963582  1.0169457459986750  0.9558030788761605
  0.9268811565367706  0.0649260464900335  0.3736417589381451
  0.8797821344166652  0.0928352884246979  0.3440437938954142
  0.6560481076829239  0.6443167222495805  0.5775764618205222
  0.8909664473704010  0.2011373292544508  0.3662972002304188
  0.8370238030458489  0.1706651834435549  0.3583804010609766
  0.6376825223547139  0.0189580303127672  0.8049467057056989
  0.8850235774861887  0.9207165713583184  0.6521521170240417
  0.5165820334774960  0.1272905925863735  0.9735072494193079
  0.6137594059163629  0.0428040778112515  0.0847986594196855
  0.7651493370411784  0.7206807952186426  0.6999859074753162
  0.8830475637112820  0.8403489211861795  0.8351041963629158
  0.7002066257730410  0.3977658790282506  0.3992273900991962
  0.5632776383118214  0.5667905836284106  0.4699159039938242
  0.7831595115318084  0.7524661505182165  0.0272635226702876
  0.5805491072400523  0.3079163931021116  0.5144914575873708
  0.4112238047060819  0.2480199546598047  0.5259456213378767
  0.4186772044833584  0.0086321576084556  0.6407044667762863
  0.5528010261443825  0.0132309275981955  0.6197754114399932
  0.3970258479727126  0.4103571857630046  0.0003571732661931
  0.4920437296774227  0.3458206567715799  0.0593373895073566
  0.5149999284203427  0.0335471599696906  0.7635158887203628
  0.6011932858898242  0.4100546089723022  0.0686024567305781
  0.4665808544134075  0.0285180154591920  0.8057220453747240
  0.3924155859864956  0.3896528988895317  0.0630655059233997
  0.4302505684346347  0.3049216120129912  0.1178986382939294
  0.3482859511845816  0.5491842268874620  0.2337883467734868
  0.6100464569388825  0.0125074815027494  0.9741066649519944
  0.5689154712269230  0.1535552935657706  0.9773329227616635
  0.3988651542121081  0.5021528901577943  0.0953443938146036
  0.5139238858757873  0.9660317324867640  0.8527120580692026
  0.7515168239414944  0.7660622269728036  0.7415264600580631
  0.5358798344302453  0.9100529746132729  0.8687126384071104
  0.9359383972702192  0.2295111216438739  0.9228578650031447
  0.7133739369935042  0.5199997086097614  0.3616463834247006
  0.6732844888309036  0.2330619692793974  0.7823521361918522
  0.4991147226692736  1.0109568874072115  0.9347809833033178
  0.0893413927211805  0.0889602775467244  0.4852419654857335
  0.0291719479279425  0.0589065981968853  0.4774749589894103
  0.9347122621481802  0.9240072655671157  0.6086459008629065
 -0.0043673259158924  0.0233041329385347  0.6453744281248297
  0.9091116793369497  0.9336882183526329  0.4834397293894138
  0.9080568022382696  0.9244434289724305  0.5434032517237433
  0.9036382290665473  0.8860983463514498  0.4388986405828654
  0.9050930571118423  0.8160444239836833  0.6334318185753653
  0.0579474625824659  0.9181431240573900  0.6553091545833182
  0.5531234463952575  0.0552435298970578  0.6604780934047269
  1.0058409472356142  0.8604447958255608  0.5913484182628315
  0.5939243095261363  0.1633199591746630  0.8800365793666842
  0.5232367837149009  0.2143959910616462  0.0614954081417035
  0.4728634747112370  0.2460391669975036  0.0393052589635055
  0.4560943334727782  0.9761248514776261  0.6016098858425191
  0.4820491331632513  0.1827889264864487  0.5101561109798096
  0.3508037928262390  0.1311056966122815  0.5808141265955759
  0.2952718095029411  0.5009766634074406  0.0572981422118062
  0.5213836795324702  0.1546948512427631  0.6892609587439935
  0.9369464134249702  0.0275275001792037  0.6276175370453830
  0.3509361286268553  0.5817506245477607  0.1108088240523771
  0.6186200581837946  0.0890972822039851  0.1314043005609992
  0.5769590048279846  0.1169717598561342  0.6007087454963426
  0.5492028952681305  0.2483841681978335  0.7391176378340725
  0.7096826895122880  0.2809997131329882  0.7886845459010203
  0.3537490438577681  0.5511779476098198  0.0133326986799734
  0.1930230715449913  0.5468258857236338  0.0683695011928167
  0.1497008073756591  0.6868662564272927  0.0665745689525012
  0.8808946296752621  0.5567744965797581  0.9471204446495212
  0.1562025907766846  0.7936084173898660  0.0947936107023282
  0.4693214634949128  0.0760470362795157  0.5728937607207262
  0.1526904415331693  0.8107793161692577  0.0376094791846818
  0.1398664984885318  0.0478251298104471  0.0434929837663902
  0.5016151171663300  0.0545374457063904  0.5331208368033401
  0.5310817906681566  0.1115134860146289  0.6414139424113564
  0.6133263687957718  0.0473621549204158  0.6832359501546138
  0.5830253388950944  0.1474655321031469  0.7098957216911572
  0.6134921505722878  0.0737866018617743  0.9571719298580897
  0.7646907967387933  0.9833940912559621  0.0477820390570286
  0.5844436488922097  0.1780743817262546  0.8173528741218722
  0.5733843114876307  0.1807306231830008  0.0868095579262176
  0.7769479965402322  0.1228127970384570  0.9475621336962509
  0.6801016565368901  0.1939527959737231  0.0641282817166974
  0.5275924063115834  0.2170772808575091  0.5206565563003013
  0.6219480504144160  0.1971647746475559  0.7140111620021776
  0.8099962734024789  0.2553003484551025  0.6045771723995066
  0.7168525791486895  0.0324455022365893  0.1931209201397750
  0.0881743629344870  0.6151254388267754  0.8537518786190788
  0.0682002443076920  0.9450999142135311  0.3586343486969659
  0.8411792833717382  0.6777538196378308  0.9587541518828995
  0.8766435842551648  0.7272535371821293  0.9009514281776687
  0.2560988799847727  0.7330019175336417  0.1474490033649642
  0.2094574220953779  0.7954913742735036  0.2261899422591565
  0.8832278614333727  0.6897679438117895  0.7971275353102183
 -0.0017485654170312  0.8100113485345993  0.0958486039868407
  0.9179954062384811  0.7585927649983122  0.6567795948725687
  0.7640035863288113  0.6866466455919563  0.5969424308329001
  0.1081781630094246  0.8404146234847989  0.2331286591729228
  0.1301947402656101  0.9729303061960125  0.1261545475178311
  0.1256589758215549  0.9596993062690174  0.1930072863404230
  0.8613228238596112  0.7607741533988469  0.6345345741776568
  0.9192853395191876  0.8550861445158066  0.7358381626827327
  0.7208113577024495  0.0573351867888822  0.0614342143566336
  0.7147689246177950 -0.0020818503077691  0.0800862668050923
  0.9692162628314311  0.9257980977396119  0.9065605144927045
  0.6338262680115120  0.6521135169127675  0.5165837170334966
  0.6929796486615579  0.6592658603294352  0.5346978673435729
  0.6752014548440143  0.2516640442015378  0.9543583784874237
  0.4923953284704145  0.3814923314023968  0.1654946794207924
  0.7511692511624356  0.5174590408296432  0.9255408815529159
  0.8786898589192920  0.5324902922974197  0.0170185476876845
  0.3572481139419994  0.6579242796736625  0.2598962372103951
  0.4953088493458171  0.4254911764665403  0.2071637257581934
  0.6366031759610287  0.2899819695752500  0.2468768376577238
  0.5505811842895234  0.5666247432245299  0.7398608317421314
  0.6677677098067916  0.5952607612143886  0.3795111665583488
  0.4051514389231455  0.5355438946657024  0.9197514198262777
  0.5345667895237340  0.5243891547027880  0.9645016009588571
  0.5674984014856495  0.6572942857584982  0.3290546721337768
  0.3844935630615452  0.4095070524445106  0.7698073054140279
  0.4339883288619648  0.9492351881910573  0.3717161233296711
  0.4421966558316451  0.4350808817837306  0.8959648429502292
  0.6004644193756163  0.4708942213785124  0.9408180583721089
  0.1400544340232298  0.2840897836026072  0.6524977938820405
  0.5859161838804602  0.6325837820155917  0.9446886311647428
  0.9294696963981329  0.0436692510065053  0.2012406862745575
  0.7310633595679599  0.5420407734158954  0.8018548483431276
  0.0718824796096381 -0.0400812055220150  0.2933232141316229
  0.8147515968735493  0.9503269131673427  0.0770785844974602
  0.6141373054300431  0.4983844726227355  0.5590741140779247
  0.6839293144813630  0.4722515944946912  0.6356023272285896
  0.7893145246512449  0.6139492102478636  0.6754759635389275
  0.6752275317249242  0.1337341906427878  0.0809892587002222
  0.7579325223814966  0.5857450721093391  0.8402080496724030
  0.8166595798434582  0.5784431186499658  0.8606894372862834
  0.9301333526324598  0.8796755887662614  0.9023412817749463
  0.4673969377873571  0.7194481143321770  0.2774132090000157
  0.4894647339560417  0.3960810245154762  0.3324742822525563
  0.5954064069628571  0.3817870431880841  0.2000123495352172
  0.7449793236630258  0.5858744730508204  0.5785848927582290
  0.2435517203945712  0.5490131788121545  0.1976370753697958
  0.3553826331406840  0.6278993506919067  0.1552010664574403
  0.8379999195882976  0.6487829976199757  0.7314866991143733
  0.3584808352103837  0.6731975643227390  0.1981228077106535
  0.2559114950830785  0.7182497677949163  0.2078883652171068
  0.9815537549903735  0.7959278710867909  0.9292043260752901
  0.0424701803318135  0.8746899210034247  0.8839495792066928
  0.6130609725938293  0.5295973043835785  0.4980324646102388
  0.4522449122714022  0.5192775111718736  0.1621527488872234
  0.8087859314860623  0.7430301903076428  0.8091977468557517
  0.2816198826995254  0.3430851588431706  0.5751435610406130
  0.3400878282170185  0.3406426152366575  0.5970727508495131
  0.3278196668748621  0.3836132871024281  0.6411682927803911
  0.4249816407734539  0.4290719914449739  0.6694821796459843
  0.8039909024017255  0.3828933063133714  0.2718534001653261
  0.3921453815523636  0.5294702304539836  0.6945256049218892
  0.8338352677834597  0.4192182936282253  0.8606371103296813
  0.4385228272796378  0.3535366899153392  0.5120145450149883
  0.5853396079825700  0.4314478093873693  0.6129875238298916
  0.8396458177075852  0.2125608450961187  0.1734660843459478
  0.7625473484956196  0.4732250180108036  0.2237959371655486
  0.6090354532681849  0.5592926016800038  0.7612081845859968
  0.9368048570382613  0.7623250574430840  0.9685816059574862
  0.7885114347041902  0.2467505777820653  0.9264983328070396
  0.5562612210459035  0.3388396987847979  0.5553338834571351
  0.8941630733786659  0.2287861550596278  0.2444305230031749
  0.5998077911717374  0.3974385158767524  0.1350798518693962
  0.7150436880913974  0.5346715403145600  0.3013484712602470
  0.5083314937928172  0.5806159068344350  0.2749458700322587
  0.6652105618773151  0.5669887264053562  0.9863214774392706
  0.6153731056158199  0.3928294957407825  0.7924531649967892
  0.6133049597456337  0.5803172459494915  0.3101428983097936
  0.7945443551431592  0.4658157954157021  0.6148663967524483
  0.6236594798630177  0.7036675255124756  0.2765155244043674
  0.3962820087246676  0.4876879651577520  0.1537987942343100
  0.3479012482015310  0.3268751556344543  0.6591897653381643
  0.7042830677461440  0.4467730620916792  0.7575576202437720
  0.5359952579682241  0.9027039138887689  0.3604700256333112
  0.4113478363078541  0.6725382083261928  0.3292385118772023
  0.4941537089647228  0.4069827278534432  0.7505188105337757
  0.7015274708890816  0.4809698803074556  0.8614180970506600
  0.9897929857122902  0.1211537450148440  0.2570547853141915
  0.9073581108869258  0.7873517703026457  0.8437059458092623
  0.9387392252596723  0.1366541744524269  0.2902083329178063
  0.8530893723025758  0.8010830676600195  0.7423457851857113
  0.6556956247298453  0.4574769233024763  0.2485650961681997
  0.8325025275224125  0.2143227906460320  0.9449183694122462
  0.3603879660241723  0.7656628325533898  0.8419439827184801
  0.5687631603782859  0.1191321009103324  0.1037079455536850
  0.6483122816395253  0.6239100216311169  0.9674948448303042
  0.5133595488118237  0.0881814191095437  0.0932386749410452
  0.3751472452935070  0.8910588000178461  0.2579229600153345
  0.7171452845928640  0.1455500996857250  0.5201510610081935
  0.6482864332024976  0.3980731891866070  0.2678502162251098
  1.0043739000645666  0.4078878770751546  0.8645121564102343
  0.4082185352933927  0.6314065287222257  0.5147488597172444
  0.9725036228979586  0.4769185034918954  0.7843023829124315
  0.4355752937439542  0.5125457343901956  0.5438534882862391
  0.0572410062222082  0.3792283646653182  0.7192297586792804
  0.6992282086869464  0.3493166934220747  0.1302182996187640
  0.9804233252920911  0.3112031570750539  0.8181425380497055
  0.5524304232721945  0.4889817782618264  0.3188352358732210
  0.9087335364697274  0.3315720771893629  0.7328836447075606
  0.5760176131696564  0.6092345472138024  0.7784773750415666
  0.5587363190103708 -0.0058218404099081  0.1338410511666219
  0.6249320445084575  0.6481282921840219  0.8430861308172172
  0.9577050662787976  0.3360638222423584  0.6919926151690875
  0.5757857855800086  0.7627029530220948  0.8005612849946788
  0.8375895285058066  0.3511401441253914  0.6499786335568088
  0.6679681640547452  0.6871516454528368  0.8981545741635348
  0.8925014926555291  0.7808985466534688  0.1759173475889177
  0.8495049645942301  0.3044119157309417  0.6075344542267620
  0.7457064567200525  0.0158387124553877  0.7872519930019547
  0.9460936605069024  0.2622651127657610  0.4824554702887721
 -0.0026912205638404  0.7788460189996375  0.2150956142371936
  0.8490812756727333  0.3761899592006150  0.4738890743210938
  0.7878329944985097  0.1615950036711109  0.5217571250431547
  0.5094102777398053  0.6332643149685139  0.6960674263435579
  0.7506646594770121  0.2615110335588514  0.5839553874342689
  0.5351091327927769  0.5920557009213263  0.8794162729036806
  0.0075064689276455  0.3743041361459022  0.7594008129726058
  0.8426846090490442  0.2461809537465476  0.2784085634864696
  0.0441715098482556  0.7180343031905297  0.1374152350747005
  0.2456484146326653  0.0777706755826714  0.9534078679253770
  0.9364458592650968  0.3928304088558136  0.6748991869537713
  0.7794250357755675  0.6366407679989731  0.4667862857849586
  0.2017266276620675  0.6873595328520149  0.1985371103187266
  0.6449365489843912  0.9343794955219714  0.5007189137141327
  0.9771417992292180  0.4099869446096650  0.5702413276267263
  0.7431915839907847  0.7921554779834787  0.6239610933830133
  0.8413579131745949  0.3172891126609719  0.5489519021893744
  0.8732369079766530  0.5638185338920879  0.6081106126035470
  0.8436384408010156  0.2492832951473137  0.5040881488838571
  0.4283747772416406  0.8544291611527625  0.5112490727407628
  0.6283032188037773  0.1956074862017569  0.1600348770113766
  0.0675069489148532  0.9296612530486911  0.1858484004113432
  0.3986403401303865  0.8158336562879380  0.8456467766040880
  0.6639053878128996  0.0814434890392737  0.7480772914276722
  0.9621822960394891  0.4890445260187610  0.7238240854107766
  0.1125749312820637  0.8695466163818986  0.3412885410347577
  0.8643775513181562  0.4461141197234663  0.6964453731064730
  0.8259547329051430  0.3957152844652164  0.6929666082005080
  0.9273293320188618  0.4041442238015601  0.6112547788364029
  0.7790713906581751  0.3595305465148244  0.6301822324498848
  0.2093889855344793  0.7808303934283614  0.2877948106920291
  0.2515886923729943  0.6579845688489393  0.2257719305257408
  0.9321129674901862  0.5631736039998732  0.5705504664907193
  0.4073702769984787  0.6267939048695431  0.2849452295224191
  0.8552842925165348  0.4256249797696013  0.5281386553428217
  0.9808568369019026  0.5827566236591487  0.7967984004500515
  0.9914820512644953  0.1364429704809328  0.1938625831654936
  0.5158243238706058  0.9670268497587245  0.6259546448130152
  0.9601502036288183  0.7593010264290041  0.7024415637562721
  0.7214707639657436  0.0790215287176509  0.2352900987849656
  0.0440311810158016  0.6875236744747876  0.0309344829478066
  0.8448567615083687  0.0566298029750140  0.8143690567491123
  0.0069698772121674  0.8720991397903982  0.0752419930895306
  0.7017118849754450  0.1899104652120366  0.5800860316455576
  0.4676765103688825  0.1659288957714997  0.1144769904105602
  0.9121252373948846  0.4858658683560624  0.7611719859839493
  0.9350438070799187  0.4281844472288925  0.7801324179160483
  0.6445971282227586  0.9634692434864480  0.6058525177393129
  0.6653193711663105  0.0517784936232935  0.6417631516823611
  0.3832466220314052  0.3343217761231009  0.0907464380960356
  0.0993900175741723  0.7328598245651958  0.2075456992901469
  0.2550438722762908  0.7042225953366190  0.2682256433769409
  0.0334065556081808  0.3361799435419265  0.9446692089816432
  0.8548532780208798  0.2085651026558161  0.8456967290211083
  0.8206609206563584  0.2772057892331905  0.7694148180751688
  0.7209929764975969  0.2366110721411148  0.7442643899077204
  0.2434528832910220  0.5627639701692986  0.1374969823989830
  0.8030644485712713  0.1361489824171028  0.6748356160188899
  0.0867752065409350  0.5649697384448614  0.1959503487289731
  0.7219665612986204  0.0421625492822814  0.6599297564258045
  0.3465584643035696  0.5176166404703746  0.1274685918601780
  0.7562585693893746  0.0988547513490713  0.6028628113733946
  0.2306303194404411  0.3947037291602159  0.1283159526401768
  0.5734895005124011  0.1722051310019418  0.3795354122909616
  0.3872030810352705  0.3796691500395740  0.1309233530498639
  0.5980196707366826  0.0104755633152548  0.5194195214007399
  0.8881174197353701  0.2364916942153794  0.0089682033442730
  0.2715480266885679  0.3194866487250611  0.1164469182245482
  0.0497781521405477  0.2925585599568536  0.9064175284777199
  0.7676876701700084  0.9947475803979836  0.9773629601076895
  0.8132327850333986 -0.0030493531179384  0.8759974815260574
  0.8085269186790635  0.9041847716811208  0.0266115311247473
  0.8018419653891998  0.8069737947473815  0.7135837147446175
  0.4352375879069831  0.8642309158949759  0.8481596912316203
  0.1808693824902819  0.1368703638689620  0.5808835074771399
  0.2870119863253731  0.0559725154917460  0.4649827927841196
  0.3498137985064944  0.5670635676022662  0.3988877661110730
  0.2666405409691192  0.8063145116473673  0.0656717308992628
  0.4570740705172192  0.3582762912742282  0.7466142339593086
  0.2302991612935842  0.8937498378160723  0.0139323589671219
  0.5161437065095148  0.3511085697810077  0.7673354011021577
  0.1783843545506738  0.9114731056012821  0.0472282121191647
  0.6249157932452624  0.3794298727254142  0.8547120583823804
  0.5529645636033633  0.4324539719158215  0.8774260617894326
  0.1674385560028089  0.8845090005145380  0.1783482377078646
  0.2294555443687213  0.9283586500885844  0.1202405577160128
  0.3556893814479495  0.0402746248998632  0.5511646550748053
  0.7256065009837608  0.1184888589721141  0.0453742019876445
  0.3139020322356000  0.1120133408165466  0.6838175979265995
  0.3399963694891470  0.1740254475960315  0.6272259875956079
  0.4007001756545671  0.2000882484260770  0.7544558928510140
  0.3565914543444133  0.3469334966739824  0.8270710606472159
  0.8021834165031221  0.3168093226392188  0.0640897508394984
  0.5149760258634282  0.3832131651600985  0.8744902106446354
  0.5849871768169859  0.3601998114757576  0.9558622060057264
  0.5103549969584995  0.4178828422921215  0.9799976959401140
  0.5867943664046584  0.2858324568400815  0.1166603981053678
  0.0068302944701336  0.8864231383133580  0.2418431505045034
  0.2984618624771045  0.0215934366284505  0.5977186646611501
  0.0748738350584534  0.9110299327255899  0.0177600924279963
  0.6050140938208222  0.4560018169156614  0.1168989522070894
  0.4040981251012409  0.5970736838864830  0.1804379622319454
  0.2978746306421663  0.2887945408255456  0.5924185507257882
  0.4087163613694804  0.6594488846727877  0.1616276080643161
  0.3017951166776764  0.6128536871006180  0.0846608717897537
  0.7804756734539307  0.7086978306744851  0.9859892845704109
  0.5728351628901426  0.4772678305178154  0.6560976165999680
  0.4682947108786984  0.1634593840300900  0.3414149187587153
  0.6211897079658482  0.5139540040269347  0.7183379288800189
  0.5614318604578101  0.5230385701468017  0.6974962023421420
  0.6312194044103788  0.5005958854232371  0.7781227674454940
  0.2516368258193685  0.5929101649327096  0.0128466942674474
  0.2531948108892242  0.6872746971298179  0.1013233136423303
  0.6797151543575997  0.5377466977194310  0.8442118837886459
  0.6474274069996834  0.5894219967963255  0.8597469061944133
  0.6354984187014689  0.6349166056715559  0.9036882227121026
  0.0063510727270249  0.6732658328944693  0.9616075953112844
  0.7711965500693938  0.5198928627775273  0.0429248968656212
  0.6964615295896378  0.6289708428123233  0.9253346272909830
  0.7211849761885403  0.6089348239202020  0.9942266449057287
  0.1069082429718426  0.8246137851294368  0.0692472591984970
  0.5003407074836433  0.4564233950284519  0.0830667274387544
  0.4848868405297924  0.1670042902880502  0.8946062155908863
  0.3905380170023655  0.3486500421970207  0.5545852864791857
  0.3144728005888446  0.1753708550866876  0.8960216547102540
  0.8392973968692252  0.9543755257889408  0.7971473436920611
  0.5432044537739845  0.4454514711447121  0.8166227600769778
  0.5914413774843349  0.4830271186796399  0.8805036290354685
  0.4375419560791459  0.5895512258350295  0.9655626634389693
  0.6904807679618127  0.5256875029791582  0.9039302570616032
  0.6298965732731815  0.5326186725933363  0.8840164996184191
  0.3484766690182210  0.5333994927769810  0.0688409428734360
  0.7317072453095498  0.4087588097195911  0.9449403895184890
  0.1474763759276886  0.6384782389226714  0.0146829128638478
  0.3465110518994796  0.2980964041669134  0.5552737628659759
  0.5545199911457495  0.6859021774947335  0.7002391523502094
  0.4080279597144703  0.6301868190054736  0.0581454957650788
  0.3739318935596811  0.1373964596976075  0.8109590851223069
  0.6382055752985821  0.8129869325548269  0.5361076224391138
  0.6902750428150364  0.2881765290101996  0.1520437106611524
  0.6993383218487431  0.7817928232060077  0.7218600361560615
  0.6885262831901758  0.7597039609446761  0.5639715362772617
  0.4795196880046952  0.8171343716834197  0.5409371662349699
  0.5473796496611449  0.3795661416935829  0.0663678410969653
  0.7187244060109215  0.8932551936886864  0.6512434601226683
  0.7874463927500790  0.9134739669712704  0.7324168567969984
  0.5357595444130063  0.4272065117101054  0.6513130710832057
  0.4514718137572789  0.4856800166957219  0.0590241322182924
  0.9100301922514680  0.9114834994999773  0.0712183059320431
  0.4648533965461266  0.7066883752313980  0.1105909926340900
  0.5047607250649269  0.5349768333621818  0.2311001219822858
  0.5588131869712827  0.5655347371607621  0.2398085682373266
  0.4640900917769896  0.6895305237261145  0.1708657241212935
  0.3621022267407582  0.7366082203120528  0.1824943597988202
  0.3750654793549850  0.8749866562329324  0.3172470443181783
  0.7512198195213018  0.8312760908619368  0.7304418073734087
  0.6009920975290866  0.8239406500685384  0.7382452405664315
  0.3199642253538409  0.8597837685032347  0.2473256761234090
  0.7635209193320738  0.8915389967619217  0.8947213723806773
  0.7677139739869175  0.8838638625567362  0.9685761957066119
  0.2458720580076381  0.0423954693773293  0.3093489694589651
  0.8440209607392458  0.8260724362513482  0.9315912819974085