Cr H  Ni
 1.0000000000000000
    38.7642358654787174    0.0000000000000000    0.0000000000000000
     0.0000000000000000   38.7642358654787174    0.0000000000000000
     0.0000000000000000    0.0000000000000000   38.7642358654787174
 Cr  H   Ni 
 1596 213 3725
Direct
  0.0262873307313382  0.8813803574699556  0.9955147238251261
  0.2804393790501848  0.2122730126174555  0.7119905237742495
  0.2464538222852277  0.0311585525625880  0.8482467151887014
  0.9530436266332545  0.3259597507761615  0.4665116680041789
  0.8463166621427528  0.3284647812299864  0.4289757366630524
  0.8078043796373001  0.4315695765424032  0.3173775568841897
  0.7587360607361197  0.4455265859355014  0.3494406717267854
  0.8110224116436117  0.4633759379885323  0.4263748760888803
  0.4259802109075539  0.3271402489360924  0.9116053194304725
  0.7686346140570789  0.5547537276531074  0.3713914760622360
  0.5714578987409856  0.2222048454101770  0.8622604899596779
  0.2930756559589603  0.3848982220633848  0.9105172383519451
  0.1252394240668103  0.1398513437829128  0.5503097503521743
  0.7872220377373530  0.2031573888103271  0.3293695055841731
  0.7655712311745310  0.7769321218612377  0.9622819645843037
  0.5994088864922673  0.4278959182055880  0.2407350259473780
  0.4526299455147509  0.5060318156006673  0.4579680854234977
  0.6117688178428704  0.5513303771898225  0.2034215619097054
  0.6616216010071699  0.5209576371394353  0.2297350940391479
  0.6115524497626398  0.6582078421893899  0.7787033233950695
  0.6602413937915664  0.6959012935763014  0.8358143790526370
  0.4951276522311795  0.1220123804973229  0.8536952177604914
  0.4756920485068259  0.8124185048009842  0.3699208960020348
  0.0109228141853062  0.4135989843072785  0.4547748440269939
  0.4792919493820635  0.0140036526602585  0.8715287603154851
  0.8012149604833440  0.9331529112112249  0.4421414124537055
  0.9170323019721199  0.0472208373427882  0.5032726047825125
  0.8155724134471338  0.0899692635073092  0.5040134612529956
  0.4298459886274824  0.9046155180512101  0.3269180066956668
  0.5604191432324440  0.5820831692321294  0.4080990341281838
  0.4158081302841922  0.7202604164427822  0.3731553527098193
  0.5098299459960367  0.1965840426468960  0.7339243146114554
  0.3668103888085601  0.7675380770373759  0.2879774893999455
  0.3128770512421348  0.7518218691836089  0.2181850103050745
  0.6829715212048084  0.3180645891976119  0.5432204948228903
  0.5074942652813014  0.3330560231515629  0.5986614577908056
  0.2638135528821525  0.8121909469057427  0.2984505131901866
  0.6054332129608671  0.4038298337081998  0.7328577039228477
  0.5567978433106049  0.3697260118600639  0.6641556764865109
  0.2726570642791425  0.9036542555641133  0.3906751611192232
  0.2695893292747785  0.8744136979444920  0.2828956733518757
  0.6840292886095189  0.3707891523913369  0.8763837926810750
  0.7124701397848582  0.4339948724908933  0.8168532322771658
  0.8239330320932221  0.0462484579280907  0.1642209212390793
  0.6592111030271282  0.4632104751572345  0.9611867671250440
  0.6452811353080031  0.3833441732153864  0.3313651188994010
  0.6099589861858870  0.6913117786951577  0.8787644330337748
  0.5218339805366129  0.7513761980054241  0.2871603086384243
  0.7324553448107446  0.8028080807751079  0.5641697891312125
  0.0296050044200515  0.4868953814290683  0.1445537826929573
  0.2392865003167681  0.2624962638906026  0.9617711712043276
  0.9667212747118411  0.3599259765003175  0.0437534883100908
  0.2688790741892252  0.2889277272500053  0.2414898702412083
  0.1176095585460691  0.3348315359601459  0.1181875002067380
  0.3380437128064016  0.4458603198347411  0.4307457365657938
  0.1806643819647833  0.4423445012589470  0.2699057242031132
  0.3679165950917734  0.2109072030220804  0.3538660795756048
  0.3194769931299743  0.3235225811833922  0.4792685643593599
  0.5149406599185177  0.0973119960599300  0.3299619409167587
  0.2261720224500137  0.9802938874053845  0.4085916779260302
  0.5745039262678618  0.1862800165448976  0.3166072557484093
  0.5271045481573247  0.2600078224427791  0.3349120656083192
  0.0492603173257357  0.1851419366053389  0.3720113959292928
  0.1026315130367378  0.1543010026161578  0.3997179456292283
  0.1367076702700648  0.0355148648695056  0.3437544750169146
  0.5374740593731606  0.3670658221705140  0.3595630346612683
  0.4847100899895369  0.3832639713528341  0.3975882262529655
  0.4814665488464046  0.3059198579978002  0.4771654512194117
  0.1176940160807115  0.3514508556952453  0.2837174622155385
  0.2945259290255835  0.5156832872493742  0.4524030897600845
  0.0754477197789016  0.4421189618566307  0.2357380703435979
  0.1639394517228336  0.2889964475183929  0.2062554947272016
  0.0234475064292676  0.9587918115635033  0.1550174430078670
  0.6843892673723572  0.7548589972980085  0.7758274265267286
  0.3514153506791778  0.0451593769347048  0.1117837010942670
  0.8456684632751643  0.2958516766965527  0.3229517678553249
  0.1954831620999364  0.0480830671045780  0.9454307483648821
  0.7211405735027202  0.6301843138831668  0.3875102337859710
  0.6273455451420192  1.0055108502156629  0.6429613855612717
  0.6814594829094051  0.6823582860748226  0.4686502009689654
  0.3787158114675491  0.8708428135727758  0.5498317518607786
  0.5394474300067646  0.9331586006151771  0.4685701330275142
  0.9081335591661441  0.4175764001853389  0.4192574436162891
  0.5195995417618947  0.8856071705489599  0.7035904423207520
  0.4078773530904302  0.3194279157978726  0.6810819597773418
  0.6080972297664990  0.1381197889672538  0.4850982706525167
  0.3880792558657225  0.3038433395398136  0.5099012885156958
  0.4333298007419236  0.3946992425520077  0.4367581944387979
  0.9815287605316301  0.4838145211853203  0.0117609570370358
  0.3102948238736721  0.1822947102921413  0.1168954298468059
  0.2592148975471155  0.1820449173388528  0.2133856124563536
  0.2568964250542795  0.1726463445864185  0.0414795827319928
  0.2067353421510261  0.1845526779246292  0.0791224165356513
  0.3057323763161062  0.1230647539065896  0.1313360531736763
  0.2554795710734372  0.1544074065868452  0.1054975697828042
  0.2876675088208505  0.9551709302400730  0.1221139433787419
  0.2428325541276289  0.2232057338547737  0.9161534804643009
  0.4214482820709600  0.2258679598870168  0.4238855946370572
  0.2419040109946976  0.5504221595015625  0.4252633424428370
  0.5766716784047456  0.5554326271917621  0.5291775086684245
  0.9828991649672935  0.9633043308073179  0.6758784156113932
  0.0208023569020599  0.8997699581860199  0.7583493519371172
  0.4719958558553039  0.7315866780468140  0.4481706688172147
  0.7004686030752142  0.7416061481709878  0.6216146180124299
  0.8022933561241066  0.7713518816757667  0.6064899032374537
  0.5765315573762505  0.7665382612327266  0.3558333348251815
  0.6940583733176184  0.8467242687029265  0.5476453521870930
  0.3270191767738955  0.8979999496902883  0.5257275922084909
  0.8345917440125692  0.9153238865722761  0.6918810372072158
  0.3825505315061785  0.9491743360989655  0.4714352527815829
  0.8853643175909771  0.1050640254442039  0.8179156041297587
  0.4552849856327060  0.1297971371142493  0.5554241392111631
  0.9622085931817359  0.9827292154299371  0.8914602195798140
  0.9740964432048889  0.0057414988471800  0.2967629404277145
  0.0297944849497907  1.0066700430372757  0.9620074679772083
  0.9271486106412608  0.0671191774583540  0.3727791671862050
  0.8803577241701416  0.0944495778872305  0.3434085248436948
  0.6601281124050208  0.6445762710418165  0.5744399368546166
  0.8914218871773555  0.2024747315848265  0.3655347404989702
  0.8361435609429894  0.1724551571414265  0.3565831756332808
  0.6372730989782800  0.0175613754467112  0.8073903746700551
  0.8829194446676968  0.9185736332979824  0.6507326985948978
  0.5143000563332149  0.1296870062276169  0.9707584247543065
  0.6593548234951776  0.0745042189544378  0.4025086480379771
  0.7667528105169883  0.7201666631060942  0.6990260776628227
  0.8841166078880924  0.8403256169720753  0.8330571320078404
  0.7003054237777718  0.3994002076239000  0.4037322055271113
  0.5617421809851668  0.5688737372438003  0.4691487882141641
  0.7816715563189593  0.7574615880756557  0.0282720073550182
  0.5839723508919570  0.3098528198242118  0.5144049355961493
  0.4091272249117174  0.2480041225971747  0.5276975404783322
  0.4174001361902244  0.0075262298002140  0.6426753595394545
  0.4887611547757374  0.0596295205245600  0.6405520319596361
  0.3963600722198445  0.4106666411815968  0.0022531832045163
  0.4919711000255371  0.3455343629338810  0.0547391714290106
  0.5145962353232595  0.0327230813856374  0.7657434504574943
  0.6014947217385430  0.4111233306871314  0.0687078415121094
  0.5048131215624060  0.0772276278343097  0.8107736254133702
  0.3930849179772840  0.3425415894073307  0.0182322926901569
  0.4412803279827742  0.3762251485557893  0.0316395941945338
  0.3483240181896494  0.5499558442783611  0.2341695883827160
  0.6089463007384852  0.0135181744643226  0.9742435746106628
  0.5682439305904997  0.1541960822953874  0.9795333454210181
  0.3973039200772190  0.5022575763558454  0.0946787292085496
  0.5133099800798203  0.9647343401138803  0.8540527109515651
  0.7557655108018094  0.7651416320847916  0.7401459286600285
  0.5356185249510428  0.9087295053182524  0.8692386791999261
  0.2032300553619518  0.6866700673520232  0.4269063485963570
  0.7122202103956220  0.5235475664772585  0.3621684350907834
  0.6723429269923631  0.2320566191001068  0.7817671199944768
  0.4984031324717081  1.0097123159810182  0.9360111494126981
  0.0896669597503202  0.0870961902971892  0.4850055387835834
  0.9667051311637378  0.9804925831911826  0.4264753579715190
  0.9317347757597820  0.9227948245269396  0.6089124927447327
  0.0355944614152461  1.0334623086502315  0.6042239870495076
  0.9640645566408157  0.9668590683181414  0.4881518066046887
  1.0188295321065413  0.9813562881860133  0.5690870253245870
  0.9050477212538034  0.8737152433335645  0.5031566093696689
  0.9069462500654866  0.8134277005467031  0.6312051109385753
  0.0600563874087088  0.9164708006175217  0.6569490586973056
  0.5429259707195454  0.0672474803956046  0.5975106650475663
  1.0062958753170168  0.8625297124253051  0.5916663757366326
  0.5825552744898359  0.2031621471324047  0.9271797282138590
  0.5215834830871999  0.2163332205135254  0.0616397567508278
  0.4371042680329069  0.3171041680549141  0.9724455597242117
  0.4143586678499191  0.0231686718652646  0.5780428429791911
  0.4818347887151948  0.1840173878109459  0.5103946925159506
  0.3499703432946378  0.1295562555037545  0.5807389274688949
  0.2952148209537286  0.5005966451513686  0.0579051729119215
  0.5198729346243844  0.1533135354044763  0.6890143058075191
  0.9375105498888574  0.0260285815441302  0.6288021947664899
  0.3507984307105377  0.5797797580546009  0.1108877408548693
  0.9881560485258812  0.2994957605722934  0.8785632414991157
  0.5794022958559819  0.1140933038978221  0.5991155898467212
  0.5482822567472108  0.2473334465512487  0.7387697513017341
  0.7086867878172184  0.2799492358235101  0.7879365655245439
  0.2996363412506465  0.5659033684651377  0.0428490197186343
  0.1934459795156245  0.5471552662493716  0.0684052263618945
  0.1498549662976435  0.6857492717585209  0.0647653975839665
  0.8820095681147962  0.5530132962543608  0.9468156227485390
  0.1069635095276444  0.8095766080594057  0.1289625831242310
  0.4711674659817525  0.0663302698626423  0.5741396065586752
  0.1551664143427136  0.8101784182277809  0.0363804971331327
  0.0333543018197239  0.0318133615239700  0.0699042363021313
  0.5009851967559438  0.0591923083265771  0.5300867369504616
  0.5296796499413674  0.1091438748090121  0.6419322095642213
  0.6101647667533198  0.0464715226240944  0.6842892864780952
  0.5812253621354254  0.1458886128976777  0.7098473949194306
  0.6122557021760417  0.0748032964227803  0.9574026414496409
  0.7688242793327643  0.0300195422863516  0.0927331225569304
  0.5836528089806280  0.1778868555684457  0.8170735325366261
  0.5726881025817043  0.1828852127813965  0.0869359125157176
  0.7757189626574038  0.1226136786191574  0.9469638327953982
  0.6215210400319059  0.1806834664435013  0.9916352661701321
  0.5290331202343282  0.2167065885449216  0.5208338437573998
  0.5982701883396644  0.2531405680723142  0.6991503445936648
  0.7013823292837488  0.9624123894652896  0.2773157061578216
  0.7328311042545903  0.7347291266657991  0.4179061851774877
  0.6276210698693071  0.7204706036040159  0.4398550307454147
  0.2727578394479899  0.7950869519657203  0.5355576062214062
  0.5559796215299515  0.3374152959618457  0.5536300567024823
  0.5990988708979537  0.3973396499166135  0.1364901849451585
  0.5077537862319226  0.5810220331310167  0.2744858831724618
  0.6148777957640045  0.3916600278568367  0.7920244183178264
  0.7944903387115485  0.4623939692060309  0.6183619794141744
  0.4553372488446717  0.5656468940313191  0.2054309739510845
  0.7036397313538417  0.4455563341436167  0.7563138701652502
  0.4118007782563997  0.6734002755424632  0.3286454418327442
  0.7009748592392590  0.4792387038932286  0.8603993546054791
  0.9066458321353641  0.7862015512836364  0.8444827763490412
  0.8555559426185900  0.7989072508624332  0.7403441335792675
  0.8202756155628066  0.4994915886503786  0.0063466492435244
  0.8441439123977063  0.6675769434196598  0.9609987978017648
  0.8770528590273025  0.7256890285663934  0.9011832242940992
  0.1559159403427248  0.7784659743555009  0.1556110245726028
  0.2106688169393762  0.7960270271804624  0.2255397689841278
  0.8824608209019182  0.6887818805161365  0.7979399151096097
 -0.0000454864905193  0.8093419792958138  0.0940766129896549
  0.9089758910140093  0.7687560566008588  0.5896864660541983
  0.7647994911773474  0.6850027699515925  0.5952963126552114
  0.1088127355612356  0.8402714260261110  0.2327258186559681
  0.5955586011530417  0.3824171405655302  0.1993992465335718
  0.1215242275800356  0.9166957264183764  0.1495317368081165
  0.1283010437479298  0.9580023229420991  0.1913729131519112
  0.1399326073044531  0.2819537151262483  0.6542476739041765
  0.8558822431137990  0.8092429875130250  0.6713844553880665
  0.9162697515229243  0.8530774308262733  0.7349398478823812
  0.7187316429665123  0.0599221164960943  0.0612274846183793
  0.7142378773866993  0.0020333704426790  0.0799163487261306
  0.9705568582551686  0.9251955821870073  0.9072404649011913
  0.6550573161539632  0.6464594974611803  0.5108491884791643
  0.7073230300181294  0.6538987401117483  0.5278274276208990
  0.6344932176887476  0.2756375617077804  0.0798448555570993
  0.4921613101335678  0.3821803113559716  0.1649946604798291
  0.7652170348181899  0.5733038815155764  0.9008910032841090
  0.3577341175689240  0.6584884976090293  0.2600768301533468
  0.4951179958370771  0.4275552425371325  0.2067236455178273
  0.4981323066506209  0.5594374924345684  0.7800282105832715
  0.6632593855206517  0.5518332672067703  0.3356492803865432
  0.4044397560901196  0.5361891426223768  0.9187839380523487
  0.5345098351422263  0.5240218603545735  0.9640930349069529
  0.5681080524476513  0.6580342302315733  0.3284664031277193
  0.3838217572804880  0.4082834245935328  0.7703881277790743
  0.4335310357265861  0.9500485611941779  0.3716660725154296
  0.4419272381606827  0.4351480481339548  0.8966262637881574
  0.5512552094009817  0.4642216203551782  0.9816011802511326
  0.5872931924234325  0.6321209158881420  0.9436073431449274
  0.4685159037304541  0.7211425386918832  0.2775393327879520
  0.9278177398499563  0.0479099218344191  0.2027045589308696
  0.7307191256768922  0.5406132743721547  0.8012555299110872
  0.6158496263897034  0.5370231822920201  0.4987889404896050
  0.4518579383057016  0.5196437681270919  0.1627715197019399
  0.7334604076913676  0.5935011597766164  0.5181866889358174
  0.2433932123523343  0.5493706409057119  0.1982163158276675
  0.3546271351647926  0.6132044549047924  0.2175428281919742
  0.8385823888679266  0.6486798127558382  0.7336155802384714
  0.3592520491458581  0.6735554083167393  0.1994450192948044
  0.2569007119328037  0.7186854668157010  0.2084269193119902
  0.0255374212937836  0.7669753860567847  0.8923799427594888
  0.0424304783605987  0.8737097527439083  0.8832759454680399
  0.8083274869474869  0.7425379578523539  0.8126114000518798
  0.5857829673773770  0.4306763436022295  0.6113868496952568
  0.8394518025180541  0.2141642121584679  0.1724468569906311
  0.2799542315472395  0.3444943532451623  0.5755550895132733
  0.3386410242141369  0.3386880177728370  0.5963009184450321
  0.3266823143781880  0.3829803814932994  0.6412700586506482
  0.4243834371770173  0.4284262761631378  0.6700708299594301
  0.8035120019853454  0.3847204028587958  0.2736791086200321
  0.3916942681106855  0.5290029314192097  0.6953487294179579
  0.8327103894063534  0.4178057495787502  0.8602750423344216
  0.4362919414187809  0.3527868990982559  0.5108185194951763
  0.7624937089308791  0.4739763462242420  0.2243145107282527
  0.6080899907677897  0.5588566539777579  0.7596597154348691
  0.9354380107490582  0.7624371693212267  0.9663622377195825
  0.8939544931029008  0.2300667532465349  0.2443096172583113
  0.1297940482079901 -0.0102751048188888  0.2998306198179879
  0.7149020127119292  0.5360462381336321  0.3016659665210770
  0.8205953244898440  0.0148202635209641  0.0550353607794857
  0.6056979944984768  0.5732608918667322  0.9615304654145893
  0.6129116530609116  0.4980878857711755  0.5589676040164879
  0.6131851383262928  0.5811599300352501  0.3101075892661797
  0.6837967348832596  0.4715300468181741  0.6341192298211170
  0.6192418553788520  0.6439473301241401  0.2925535968103653
  0.7917083808491161  0.6129298694857118  0.6734923876316150
  0.3471583874723962  0.3260361349066790  0.6594926278549906
  0.6797461827511146  0.1964674538460878  0.0628665305734150
  0.5360748736699998  0.9044273209855346  0.3603927068226457
  0.7576968867881754  0.5841980632931016  0.8394968322717886
  0.4937551071524470  0.4060979018545022  0.7506288768910799
  0.8156170697117011  0.5771429691291874  0.8594224223233484
  0.9904435746845202  0.1230027109783484  0.2556630144063863
  0.6311322154740663  0.2300346011040605  0.2650437299029942
  0.9430963307815685  0.1858077750047066  0.3319576843493537
  0.9305785808410592  0.8786493681207475  0.9011362302793752
  0.7872941347517700  0.2465368392822757  0.9268890487471408
  0.5402987572206700  0.3821761726444857  0.2955914101040871
  0.7040707158897734  0.4294167187917374  0.2769617232660396
  0.3604820751953095  0.1349244722542605  0.2031740475442777
  0.5510887623601709  0.0574327130842185  0.4310566835964970
  0.6988447030298239  0.9539754644363946  0.5713995606159162
  0.3756343198503542  0.8919189483461459  0.2584926563271723
  0.6633924342972515  0.0502675722105974  0.6453279200788034
  0.6481774186731201  0.3988816075444498  0.2676016993559596
  0.1000402882263264  0.7325202840295745  0.2074832536670651
  0.3550396750823041  0.5930361776115646  0.5107733828464185
  0.2556614403098573  0.7046488632745714  0.2677998642627155
  0.4336308785038277  0.5143246551094645  0.5442307323419255
  0.0316173887743222  0.3320846402132669  0.9440241389487531
  0.7050943570254818  0.3619652057089464  0.0644574512497876
  0.8537572923919873  0.2076049345501097  0.8456137830267895
  0.6082417178789312  0.5204381758493022  0.3274737349294846
  0.8195542266936797  0.2756810394107666  0.7692639724034597
  0.5754494774399848  0.6088869223239315  0.7780922990900607
  0.7198571015100974  0.2352929937227591  0.7440845018983422
  0.6242011711770964  0.6452328465456127  0.8405384197256965
  0.2439656251448344  0.5632715249384690  0.1379959775318067
  0.5990514656710046  0.7041841261397818  0.8187547975063296
  0.8021703070560029  0.1338626670481077  0.6729842655042253
  0.6691558278260010  0.6852376904307445  0.8973108950693804
  0.0870805592541181  0.5652339264996388  0.1963882884333304
  0.6490220168432073  0.6232090307394706  0.9658346371773560
  0.4509347659636665  0.9811830057490778  0.1613162782950841
  0.7643500837359177  0.0879120238057039  0.6662173797246493
  0.5765620335768181  0.2181065410752960  0.4235200771623066
  0.8504811025660508  0.3745249627496529  0.4732507034292692
  0.3467215022473001  0.5177763155954821  0.1277371926790735
  0.5104255272142780  0.6332330879640709  0.6966491877212363
  0.7591988587416404  0.0985438936252798  0.6021745012064976
  0.5337783258736916  0.5909969997588467  0.8796699912796758
  0.2307647742178351  0.3941051102984511  0.1287000442642492
  0.8424864427418716  0.2479098171539583  0.2775268341305606
  0.5735011709030249  0.1729081633481235  0.3791682813126583
  0.2460194735285090  0.0786673211407149  0.9526682368774263
  0.3875292859025243  0.3802793900362880  0.1312069909317017
  0.8203337961468323  0.6235990803193765  0.4896471931580969
  0.5986399546177901  0.0115523987077840  0.5182908978566134
  0.6448264022304677  0.9353443695083292  0.5005059595228354
  0.8874615815505830  0.2387033767858733  0.0099374111883842
  0.7181727801373922  0.8901395412956294  0.6498530328782086
  0.3306580686529099  0.3504621517990307  0.1249441671834140
  0.8083962686637579  0.5648356368855886  0.5892571673847939
  0.0494520211879349  0.2909242242390354  0.9039275927195913
  0.4318894260523510  0.8425623392140794  0.5738316315205750
  0.7655164802320603  0.9944897823329337  0.9800609787981018
  0.9512238699529325  0.2618702930833854  0.4812874005466761
  0.7548163538501913  0.0035313939729522  0.8524554025987681
  0.0327679120120289  0.5348927467347449  0.1876503835199431
  0.7124932239170949  0.0906564907159126  0.4735968595698655
  0.5272416532031075  0.1698174009302649  0.4769220852194083
  0.1236638964257354  0.6124365068072504  0.5917186682357918
  0.8314688336814269  0.6737570301565186  0.2410370040921878
  0.9846821126432901  0.6124391556044104  0.2035981038181623
  0.8710544616048739  0.5552873387046565  0.4144254424870173
  0.9200931720853707  0.4917734918428177  0.3372984749252143
  0.9675626623541455  0.4623484134614602  0.3654942501025578
  0.5467136569095580  0.8956199733318739  0.9304242083691073
  0.9125838791964022  0.4315930504141951  0.3565828067373747
  0.4214509484782749  0.2421839492297434  0.3625831029699759
  0.4893055776626193  0.5457534968007572  0.6160174737665882
  0.6189596854386116  0.8442977330011114  0.9066088224493499
  0.7917982634085777  0.0172069328679136  0.7487677686344235
  0.8866097821078903  0.1864674287964462  0.9680360560439486
  0.9311069907496606  0.2289717766382882  0.9235737164932483
  0.6129982260255076  0.0461659334879366  0.0843778871316128
  0.8307619258978457  0.2113773389384613  0.9445294761221700
  0.3571863578274919  0.7652451542194310  0.8459138016051109
  0.4060755287938740  0.7707409038899264  0.8038312198258208
  0.8927225138954431  0.7815244608583670  0.1747245058542470
  0.7447132816157997  0.0146498776497127  0.7877613120172441
  0.0685893002407863  0.9282391609423192  0.1849973311444340
  0.6629655921975974  0.0810323081702329  0.7492601185093207
  0.8217642498417115  0.5858736274275516  0.3837460663745149
  0.4884904543418270  0.2872672940847608  0.8247548050089003
  0.2834155534817951  0.4114545884948315  0.2015706460172190
  0.5037295308604629  0.1308130897543077  0.4444950928268163
  0.5261910026459496  0.2302029954640566  0.4590871478120009
  0.3817573146348591  0.3804811977879118  0.3612554577380060
  0.0457991296909451  0.7186266751492710  0.3638968679294404
  0.2828804437231751  0.4284766318075551  0.3677261429223073
  0.2879357935883539  0.4737305802851006  0.4075284441287788
  0.4283661089147389  0.2622382777747708  0.6969086052630247
  0.1382120110013217  0.5666441419015132  0.3288653086270460
  0.1846546989216120  0.4894479251193385  0.3109332778343604
  0.2993671962415385  0.5973374866351967  0.3735023444026965
  0.1921664129582435  0.5806173628501434  0.4013137422335188
  0.0901946734141861  0.6263568235488054  0.4088398829221896
  0.1018194393155061  0.7338695604911715  0.4356784747069067
 -0.0007323052598369  0.7979586757477747  0.3811861289220484
  0.0627788478554370  0.7692400359672881  0.5368379136275234
  0.3198894313055539  0.2745279109892156  0.2079406235561668
  0.0542582241781930  0.8098749214446158  0.4524164964197897
  0.0119983752586304  0.8905958700837712  0.4776099876182874
  0.3139763916506080  0.1954025987905804  0.2845756557498031
  0.6142511052702527  0.0965582762025168  0.3683593731375889
  0.4091682231169650  0.0863415235939376  0.2876806529276216
  0.5544939920993049  0.0694302378140790  0.3644910025512271
  0.4666238387179203  0.1493559746668884  0.4018236616487169
  0.8048989500811889  0.8058107805066553  0.7117281219935404
  0.3840469507624743  0.3351201801335684  0.0925638838550208
  0.1809561575998919  0.1354726815312449  0.5805984313684144
  0.2918098424908357  0.0427268095775860  0.5309656972541285
  0.3486678592445714  0.5673814576814150  0.3984088305110954
  0.2695152574309151  0.8048091270920047  0.0612530138492342
  0.4567770895433138  0.3573287960033646  0.7469215933049058
  0.2257534942448192  0.8359867568311425  0.0377041089654437
  0.5156278339511293  0.3500233947872067  0.7673092520646811
  0.1785739339822442  0.9103460095999705  0.0468720341294252
  0.6247014801909675  0.3783884909018153  0.8554290020186519
  0.5524487899504540  0.4315263319612304  0.8770104144026147
  0.1799663478000788  0.9441505342003093  0.1546457532648292
  0.2309115620994009  0.9274076552822408  0.1188675831908534
  0.3101881430757496  0.0782054279752452  0.5764248528936403
  0.7262890143238360  0.1207436970569291  0.0453601395019773
  0.3131903727121071  0.1108158679621100  0.6845448983628046
  0.3389329928414222  0.1734045846572286  0.6278971606067121
  0.4002871213491023  0.1987255174114972  0.7553019628365896
  0.3565354623560978  0.3458010655471189  0.8272935381860156
  0.8131539028536054  0.3752190266798132  0.0395045268174631
  0.5146376245017095  0.3825503070870703  0.8747089826487758
  0.5836820767896611  0.3608390631174846  0.9581694541377341
  0.5134125930734407  0.4184277569659384  0.9806846270723713
  0.5291474511815527  0.2588527728424491  0.1077866091224056
  0.4017765192756768  0.2309272004529496  0.8609314019583353
  0.2984850142379142  0.0209298258582606  0.5968031233233286
  0.0758786376571218  0.9104572462787401  0.0170994829154747
  0.5555487770511323  0.4882558239573728  0.0909894460892843
  0.4051813468516300  0.5962508285678561  0.1822395662524394
  0.3040889624313443  0.2407419571643249  0.5479752368550287
  0.4100721206957775  0.6591263720758875  0.1623849821855154
  0.3554428802634294  0.6448777523902848  0.0945423480294042
  0.7782897813970749  0.6450861827096896  1.0030064770416653
  0.5732638761605297  0.4776739013580492  0.6559040083976818
  0.4680313038976370  0.1644328889401671  0.3423276632110754
  0.6211823708757831  0.5130424967881287  0.7166169747292360
  0.5615495765207192  0.5222781845982599  0.6965574006849707
  0.6307842686052074  0.4994968378498880  0.7766377552797377
  0.3037176412439749  0.6292633260764219  0.0235698205592029
  0.2545986787450626  0.6873014657703725  0.1023146378163626
  0.6793138661237551  0.5363155462118093  0.8424621518915808
  0.6462777021114334  0.5875637955831452  0.8581535876177075
  0.6345985874086552  0.6335156800730436  0.9019187650202770
  0.0446375220715755  0.6384635736526407  0.9900585457863904
  0.7203931886816914  0.5507822393876446  0.0105850297595144
  0.6949284636741182  0.6269608840042064  0.9235022301117475
  0.7337581702923813  0.6707751972220403  0.9818470273909188
  0.1086079340534132  0.8237954706435553  0.0697178833570840
  0.0114265597235877  0.3533340707293763  0.2470727269473756
  0.4859164358731515  0.1669652778379474  0.8978021618109350
  0.3885602286440298  0.3468780731589624  0.5546070323553242
  0.3143342394961745  0.1751218330827724  0.8964192896089794
  0.8391044919438259  0.9528339500702230  0.7965797029046128
  0.5428223558243477  0.4439673846017039  0.8166278280201196
  0.5905133749779622  0.4816942442170984  0.8792180993877804
  0.4709701275680598  0.5324659821565561  0.9473747135425961
  0.6900293456812587  0.5242846847201145  0.9019019504275680
  0.6296678811354719  0.5320258087912277  0.8818186909489748
  0.3480117510276031  0.5329552765191815  0.0683731850562624
  0.7687322020993121  0.4572479303173974  0.9427938900804709
  0.2518045327631498  0.6407249508695724  0.0581401610466167
  0.3459817314088949  0.2932728811107533  0.5516365400227777
  0.5570098978059541  0.6863739348533374  0.6997741152639094
  0.4084778986646865  0.6291790723475867  0.0572070680856291
  0.3739144463906985  0.1363265771062464  0.8119407830523684
  0.6390400729338984  0.8127856653429927  0.5357010485887735
  0.6897403856469890  0.2908412776205419  0.1517955937885093
  0.6846823330942060  0.8387250228882935  0.7044479317083933
  0.6360450824670406  0.7555367606559492  0.5402722992952906
  0.4959200643893354  0.8150073289985177  0.6015420987049820
  0.5479601833979952  0.3791095795622806  0.0631120692718831
  0.6414781781038182  0.8693186319159356  0.7398366457418430
  0.7857895958921296  0.9123811086422899  0.7326554589863736
  0.5354373421968891  0.4264462083058369  0.6512093864204851
  0.4507388725461274  0.4867574921053348  0.0594194281800492
  0.8666149898871424  0.9400540359875302  0.0369391472475507
  0.4653346386242151  0.7066805090814595  0.1109947795265468
  0.5048524990267589  0.5353878943113897  0.2317471635586451
  0.5600324601014848  0.5660444503279271  0.2389952149198674
  0.4652091657455312  0.6906062616271567  0.1707405085218860
  0.3669363316969158  0.7834682213992646  0.2271242991104805
  0.3750456332467547  0.8758392744269050  0.3176035757787611
  0.7520828049783270  0.8281569692775970  0.7306128771661697
  0.6013330315751638  0.8212313562811496  0.7385293151561896
  0.3258059738129872  0.9241026182128284  0.2316834190238185
  0.7631058593924306  0.8910595047573256  0.8960896187002843
  0.7669392147722985  0.8834012145701053  0.9669574412091784
  0.2475886752038655  0.0440106083343874  0.3101022282353312
  0.8457129413526132  0.8247907764236633  0.9285019960183085