Cr H  Ni
 1.0000000000000000
    38.7642358654787174    0.0000000000000000    0.0000000000000000
     0.0000000000000000   38.7642358654787174    0.0000000000000000
     0.0000000000000000    0.0000000000000000   38.7642358654787174
 Cr  H   Ni 
 1596 213 3725
Direct
  0.0199975973193684  0.8753100829131737  0.9997453423478085
  0.6168622026307850  0.0903483680430105  0.1332800796471731
  0.7488045002547570  0.2600991653627215  0.5846829909834431
  0.7164016343037135  0.0344944500636346  0.1937575914151419
  0.0887760361704950  0.6153780152576189  0.8495834027231171
  0.0692873749342475  0.9454710447447027  0.3573802473853298
  0.9618780527147003  0.4868516677677001  0.7247057588248514
  0.9341529874666198  0.4266143372603014  0.7804727066739672
  0.1129601573919172  0.8695058527978718  0.3407736294886405
  0.8644075073774001  0.4447734789915550  0.6953397056326057
  0.5711201378289108  0.2218024365565689  0.8621100533170016
  0.8057463929825142  0.4524031806127309  0.6772140319121285
  0.8678953233747234  0.4080097639623448  0.5899912384841076
  0.7770706857597532  0.3585440651380934  0.6293576096091661
  0.2103876114339428  0.7809767007103304  0.2870076913568098
  0.2521510524656839  0.6586563954014211  0.2255313157168287
  0.9355769736605414  0.5542879283701878  0.6391952907411488
  0.4065222877777183  0.6282043816330016  0.2847501646073649
  0.8587023546598802  0.4166342256103062  0.5283952873828328
  0.9712864775115992  0.5923849430031857  0.7367065682237857
  0.9415964792539748  0.1687866960365156  0.1662809447370257
  0.4952186790913448  0.1214938661294594  0.8531736353427091
  0.7211925408034405  0.0795073371491378  0.2349869377623110
  0.0459158424936179  0.6868223924884316  0.0320410833850387
  0.4783610529180561  0.0150540739442787  0.8711212404252763
  0.8012478523693604  0.9193801753260081  0.5052307476877528
  0.9124601914598339  0.9852809389556265  0.5223459278374023
  0.8149241575146428  0.0899609185368354  0.5039550592942806
  0.4299845138530529  0.9045635133075584  0.3266002405498984
  0.5593717108461862  0.5822382965010588  0.4074049814926035
  0.4154729010337223  0.7200157822714839  0.3730245157131904
  0.5098635520777253  0.1970748521821310  0.7336646467761022
  0.3670187381217042  0.7673844218429544  0.2875125620783295
  0.3128914939594363  0.7519831584005854  0.2176055252618417
  0.6194721435760555  0.3296423546067302  0.5803270733785829
  0.5064524648855591  0.3333823864823655  0.5984401184550749
  0.2640360426381857  0.8122573485951523  0.2982922855834565
  0.6258961553055148  0.3482874499784511  0.7492081262396576
  0.5566714150969164  0.3698294599258964  0.6639497346822625
  0.2731800262967761  0.9037157367459423  0.3905119183562533
  0.2699543883955296  0.8747243692478437  0.2829222083294888
  0.6840682273386338  0.3700102207284802  0.8775632151604220
  0.7130187257746807  0.4336195387666003  0.8179887805610838
  0.8239694180091589  0.0470009928580701  0.1649616730168418
  0.6585442822765318  0.4621423680675826  0.9613761473180925
  0.6449671642122008  0.3838276264074643  0.3309391523477594
  0.5597522706715536  0.9351251869998367  0.7045089744632402
  0.9595258222567673  0.7577842518247688  0.7027659376813853
  0.7331012410199167  0.8018560011641256  0.5657855888246250
  0.8409159451777264  0.3098992999098745  0.5481600334311956
  0.6286206421297675  0.1977459418843452  0.1599448785124485
  0.4355295402457908  0.8649741293545871  0.8490383697101301
  0.5920988155778211  0.9350161085517493  0.3714896459492075
  0.4445840455718503  0.9083306045569242  0.0120118583244451
  0.2090772729917678  0.5494928026204767  0.6312579025146988
  0.9927924371370932  0.5852233283968387  0.6196465428621873
  0.3880868445401167  0.4122523745479007  0.2362326110761186
  0.9352357383380357  0.5655444101925716  0.5865243827020326
  0.7035836835406897  0.1212067593445897  0.5794087414953040
  0.4823552970313467  0.4065939904362330  0.5045613061406486
  0.7227103927870132  0.5530996512651455  0.7410558329152683
  0.7654324472444425  0.4042647300203218  0.6722576402843553
  0.6570662750161671  0.3763573939163228  0.5787725982408696
  0.6894360703215071  0.4419572211521998  0.5241012416817856
  0.7504648518980204  0.4303129653459991  0.5484338117711761
  0.6418795094922291  0.4056518967750586  0.5096806198951298
  0.9950741849650102  0.8379033421386841  0.8164080102093557
  0.9466851986034150  0.6693573525515569  0.8809487887978779
  0.4679226411199159  0.6725132265564121  0.4586092288377217
  0.4576851521970015  0.5543520977108236  0.4947273808286454
  0.5003467077334333  0.5052557616955305  0.3538081986354683
  0.8451550445246386  0.2507971285057420  0.5057291744000121
  0.8437802993762322  0.0568999122699428  0.8156620512812923
  0.0099055927469039  0.8683230106514435  0.0712026682442358
  0.1974285947773884  0.6412476164198418  0.1546360495979982
  0.7061269169946884  0.1949283938239885  0.5806100288908163
  0.4670534953339088  0.1678213060995078  0.1147417286462520
  0.9124850580760168  0.4836637902269244  0.7610334565589782
  0.5687248675980613  0.1365499781069154  0.0409089728704852
  0.5128203205557721  0.0902565563718597  0.0932956288398353
  0.7128651366300396  0.1481764859249057  0.5191577869375896
  1.0037554693722310  0.4064249387285515  0.8649266805359052
  0.9719365246204255  0.4753066747024611  0.7845093089712860
  0.0570798366524712  0.3766118644667076  0.7193561692173944
  0.9782069343710694  0.3104363384724346  0.8175285955669287
  0.9291492019292577  0.2719511286813368  0.7508489081067630
  0.5529761242552370  0.9530272762040221  0.0889657676953520
  0.9573523957837956  0.3334679249197316  0.6933372120215517
  0.8585471549918909  0.2912137357785383  0.6688310686983523
  0.8491831698028021  0.3022421413101557  0.6098322385391443
 -0.0015774299544404  0.7788563700908707  0.2127830364591626
  0.7904446325732303  0.1591013450114888  0.5221767945512927
  0.7978695144282261  0.2628602769187970  0.5437666181445827
  0.0071942423876001  0.3723439736017645  0.7598185082664419
  0.0446659363251654  0.7169155505392218  0.1374867331917220
  0.9361395771183344  0.3895665273341654  0.6756007842948188
  0.9382346229052844  0.3532601985199084  0.5702061891136674
  0.8487305937265573  0.8569426518673515  0.4257510412426154
  0.0887060345753938  0.0837122123412695  0.9512977332883032
  0.5763211239519855  0.5558756184529274  0.5295947109774376
  0.9849402895768689  0.9632821335336793  0.6760193067042550
  0.0217666808367884  0.8994091403634523  0.7587016407819541
  0.4724303698494801  0.7305578025851913  0.4479535384647733
  0.6998420767786563  0.7423686077374514  0.6218325581066089
  0.8023536722444998  0.7698425598604358  0.6068718846267872
  0.5770389826560205  0.7662083714650769  0.3558600213014452
  0.7800872058076995  0.8752872401894138  0.6270420054036744
  0.3270949878426550  0.8976943575864388  0.5246853055305111
  0.8356984271341750  0.9152007948070586  0.6926177327771936
  0.3831160284592879  0.9493458937932721  0.4708434601306265
  0.8844741183880952  0.1047677037771881  0.8199359341150322
  0.4116990921470783  0.0819189768374500  0.5540376831799069
  0.9654457525430934  0.9837276144798047  0.8929753317532197
  0.9747887557711337  0.0052504993931668  0.2968301450542505
  0.0293826304144432  1.0069771535983068  0.9622055649997864
  0.9269748840804721  0.0666565023637502  0.3729444878613218
  0.8803645947377431  0.0944596340838286  0.3436098640997233
  0.6600704544617426  0.6443521460649995  0.5748839310591893
  0.8910582115154907  0.2025082175073571  0.3659948033744513
  0.8357428244300684  0.1726521919842939  0.3569078636311667
  0.6367512962028556  0.0179753765768377  0.8076912222630777
  0.8852686036270021  0.9187005732703333  0.6513151145261258
  0.5156041120909778  0.1281719971067417  0.9719967522143198
  0.8658415507528627  0.7560356841458366  0.6988828249052818
  0.7657947227142493  0.7200220927791880  0.7002928556599166
  0.8839251348437187  0.8397446670265238  0.8333558927312952
  0.6994449644354720  0.3996531693768702  0.4038710167151097
  0.5609210529518673  0.5694988828876409  0.4679457339239494
  0.7824117926889079  0.7559628960893106  0.0272225548744466
  0.5812822037659514  0.3088014355442886  0.5147192238643857
  0.4117020498867344  0.2468035900034538  0.5273424711094824
  0.4172518143985112  0.0076286311135120  0.6426712099796186
  0.4875305460470967  0.0596721222103044  0.6388334392773174
  0.4419554764957243  0.3786256504653391  0.0333893996034863
  0.4735652393495414  0.3634491551068806  0.9804363406754534
  0.5139223843990566  0.0333891854867270  0.7658830343107634
  0.5488129714884880  0.3780507864613024  0.0643519222959808
  0.5049013493850707  0.0767118737092862  0.8111424345195430
  0.3935477995812298  0.3426497439616080  0.0167231609565199
  0.3910392391433267  0.3926263395504834  0.0647652278994102
  0.3479241914748209  0.5502418087834910  0.2335951587704563
  0.6085976335126922  0.0164638231728686  0.9755318125745992
  0.5687228178010670  0.1541282746215988  0.9794542152292237
  0.3971616206812694  0.5023546461159467  0.0937960828669285
  0.5143025886272963  0.9647270257925767  0.8543273376922719
  0.7563064061278346  0.7664401547421718  0.7420577112955616
  0.5361346703872653  0.9088577362871135  0.8694322104002856
  0.4974049097619275  0.5155916783361277  0.5152098715755492
  0.7071296768494268  0.4617251913592956  0.3820554262076958
  0.6721867903140428  0.2317637385651682  0.7825251671224958
  0.4983076395988869  1.0087829586862143  0.9368753823955848
  0.0867227702411119  0.0881159947073590  0.4853450706377314
  0.9675253379811134  0.9800121483928169  0.4261376295198208
  0.9341256671282459  0.9233308280194391  0.6095423820539191
  0.0364841181467872  1.0373461810815421  0.6031658738543271
  0.9637005023087473  0.9679194350169354  0.4892789083651976
  0.9755618160430996  0.9684596080101414  0.6148866465913722
  0.9059092623656121  0.8719589278887716  0.5028174253338914
  0.9057311167901843  0.8134376924995014  0.6326027603744387
  0.9622957303834637  0.8061215408311148  0.6556564350351135
  0.5049716633338082  0.0167048170643726  0.6030288018457690
  0.9550459903309861  0.8650761154200265  0.6322435936902546
  0.5639295022388093  0.2486558372295331  0.9615535686452812
  0.5292307952546333  0.2786284050866337  0.0467127737963323
  0.4372904630859400  0.3133246665736410  0.9676560874666768
  0.4120819301805049  0.0242064535087171  0.5766888240374299
  0.4814604523246270  0.1832178942959026  0.5106109957094654
  0.3486920800828983  0.1309956046566662  0.5811153448400426
  0.2947873720067932  0.5009861365904579  0.0573588068508177
  0.5193599919403252  0.1537813111872608  0.6891426528428742
  0.9374633613111771  0.0270220505048408  0.6292623801307032
  0.3508043553463354  0.5799462048575893  0.1098216333142922
  0.7285910663024697  0.7344401954212414  0.1887124989157096
  0.5178860031129568  0.1227506775187229  0.5747476578136866
  0.5480558275168467  0.2474301110672581  0.7386886775182322
  0.7082434362474285  0.2799437195648668  0.7889497489748938
  0.3004471990292964  0.5670293010120844  0.0418279366622202
  0.1930614772856946  0.5469331524752528  0.0665688518938540
  0.1496788930852246  0.6859524666599203  0.0642216828904571
  0.8830014150429691  0.5530945928616996  0.9471106470872467
  0.1065380300279298  0.8095419985316215  0.1288840034338567
  0.4713304414331339  0.0661328361287773  0.5745713741378847
  0.1545975833298602  0.8107477526469873  0.0364599854521129
  0.0337582684975789  0.0321463672046617  0.0701339879341499
  0.5014433578986356  0.0581020090968196  0.5294410479959193
  0.5294796085823259  0.1102857236547647  0.6436573848403980
  0.6093965907989908  0.0468545438094608  0.6844948834074391
  0.5813643554813087  0.1463655861078988  0.7098331109483929
  0.6134419869880389  0.0759980632062582  0.9560884391840774
  0.7187276010696428  0.0472067074265230  0.1248184398732198
  0.5834309979225782  0.1777318332207471  0.8165972908467062
  0.5730193061954723  0.1825708900805025  0.0875197719091793
  0.7763383838100051  0.1239060291789645  0.9464080653342912
  0.6227764825624166  0.1809467589912688  0.9925610719600417
  0.5290301110971843  0.2179927434245580  0.5209065396986990
  0.5981790254573448  0.2537114048921430  0.6995520948183955
  0.2245577804930956  0.7645649889641761  0.5727543933267154
  0.0072563212380862  0.7467500349703077  0.5651542432895206
  0.4533592806910087  0.6903337906656170  0.9440026177707052
  0.5071945363848285  0.0305319485279819  0.1093846159608322
  0.4419180763561946  0.4345751310592267  0.8960678772631262
  0.5500316536521489  0.4641394049200830  0.9814141141408262
  0.1395604370145491  0.2810216059127439  0.6539841464091875
  0.5891378983216013  0.6283810403236468  0.9463426769395826
  0.9279794530726920  0.0476240453251190  0.2034698151634696
  0.7308867408489221  0.5401213979434158  0.8011091555645059
  0.1301525650816903 -0.0102905018265831  0.3000976781015234
  0.8208397337105221  0.0155448765293699  0.0545345890744745
  0.6132277588628394  0.4987289921910618  0.5589304709915022
  0.6842457053115824  0.4717514614636676  0.6339374266204930
  0.7910058859944602  0.6127441725918136  0.6750398020090583
  0.6799193687106907  0.1960470813642032  0.0633193382636028
  0.7581746328798030  0.5832900039456735  0.8399752520646387
  0.8160310223318965  0.5760747978843594  0.8593045078682418
  0.6305735241236642  0.2302514226324447  0.2651233681273814
  0.9291337349759121  0.8788721857992905  0.9012252765889764
  0.5400102167385099  0.3823594077531353  0.2953027868492322
  0.5953670275106210  0.3825510303433670  0.1989925903000927
  0.5565225334769446  0.3390634392268494  0.5529288644902888
  0.5993966057279708  0.3974164071030945  0.1341289270445445
  0.5072045215890971  0.5814775130194644  0.2741332355177619
  0.4337859333276410  0.9496455095852856  0.3713363799546259
  0.6154727216483054  0.3909404066896225  0.7921561656749381
  0.7955891212252232  0.4630882691537254  0.6195637146181103
  0.7131655492974704  0.0031935055783879  0.0803954408285728
  0.4550514936623551  0.5660746519037233  0.2047558420259091
  0.6432834034269828  0.4543857348219978  0.7352720671165370
  0.4115632594005245  0.6734455647428268  0.3282115293387725
  0.7015903731962578  0.4779170924831195  0.8609162949350627
  0.9066394323518375  0.7853237344288909  0.8444087751313105
  0.8541481377194720  0.7995192255368895  0.7423035948068941
  0.8182842621617957  0.4962131793815900  0.0071462957149556
  0.8426701276065840  0.6676462427367397  0.9601082318530688
  0.8770475160177710  0.7243639056392976  0.9010212219982240
  0.1557897721682316  0.7785746338372117  0.1555329404719117
  0.2108291400099663  0.7962738325835411  0.2254343852295245
  0.8830153648002831  0.6880256853902534  0.7977335412313279
 -0.0002426423735489  0.8085565653824589  0.0943250178970538
  0.9080302598142854  0.7681972279899143  0.5911025108564407
  0.7651509603439626  0.6853940603986343  0.5970883767452503
  0.1089548631245303  0.8405452495687469  0.2326208532096709
  0.1213682219204847  0.9161555727444978  0.1497800730614879
  0.1280493508667928  0.9578975652432836  0.1916429019160530
  0.8549409013661341  0.8095564815769567  0.6731934756449268
  0.9179165074313255  0.8535849521440697  0.7356985198824638
  0.7201081062701182  0.0605320247359813  0.0616935487953812
  0.9708197232274693  0.9250406879847376  0.9084247990487229
  0.9358703027662159  0.7592013907375238  0.9672360877478968
  0.6507434143273617  0.6443370059287401  0.5106639172776731
  0.7042050499224816  0.6556689691838222  0.5298895978570469
  0.7389591132502230  0.5938374977112351  0.5199100501805085
  0.2933946558169316  0.5329914174505778  0.1638140529974599
  0.3542445228357258  0.6135482725438233  0.2163338580352575
  0.8386473312335874  0.6487283571656369  0.7341407044696164
  0.3591625211225010  0.6738836361667899  0.1983409736036751
  0.2569317804787824  0.7187881340741475  0.2080152657239296
  0.9673093538869209  0.7747710792574094  0.8685867918893020
  0.0438695108310789  0.8727337289030580  0.8842120547067706
  0.6137745256771368  0.5373589418045194  0.4987071134044632
  0.4516384167224762  0.5200510071008781  0.1622840906559758
  0.7922408192533211  0.7972283433179599  0.7820688496030357
  0.2795700454625710  0.3440013198325908  0.5754335272603823
  0.3382741830227635  0.3399431358744466  0.5970449564401636
  0.3262549865607818  0.3835332098971265  0.6411178387089873
  0.4241699534554255  0.4291325887678171  0.6698367627893117
  0.8030902277296587  0.3847699899307606  0.2739507130053649
  0.4127249586108687  0.4724760182859424  0.7118856745796442
  0.8332501691432247  0.4170839071784631  0.8601469187927728
  0.4372602108811871  0.3520302714377686  0.5089430207390737
  0.5859184983102513  0.4314366287327674  0.6112477143648292
  0.8395454885167037  0.2143149138674101  0.1731175535164566
  0.7545151654282920  0.4142497527790348  0.2438978658428710
  0.7036476463058892  0.4301928898339944  0.2770335244646676
  0.4683294654238293  0.7199839359812558  0.2777851235714842
  0.9903302056002087  0.1230263707783392  0.2560548440319797
  0.6352460229590527  0.2749599334081357  0.0798860664798734
  0.9428901129631605  0.1858608690087769  0.3323317598620569
  0.4910096037600746  0.3820960394443048  0.1644744564035607
  0.7874932777432561  0.2473455419908799  0.9278560414866108
  0.7653444230104076  0.5719554386966805  0.9012291981301204
  0.8936990527968179  0.2302952786048165  0.2447852376979696
  0.3576215057294371  0.6584721904591018  0.2593577145564919
  0.6590969371679806  0.5054028847973902  0.2919257345119537
  0.4431290468220455  0.4112354664304325  0.1381088629393301
  0.6047277628235326  0.5711161750097483  0.9614683260274943
  0.4984103792984377  0.5590042915395786  0.7797000120547997
  0.6129815646779596  0.5810889917330140  0.3095279854026031
  0.6621143410858307  0.5511486489209827  0.3353981377375225
  0.6194385586297183  0.6440802728047603  0.2917230248161547
  0.4067234414698108  0.5370568597813635  0.9192817890473139
  0.3468072738448431  0.3263325126233263  0.6595329797554161
  0.5339867845757612  0.5231576364690298  0.9636284049547252
  0.5363571516083083  0.9036061608176622  0.3607008429809144
  0.5678326268090330  0.6582509491135949  0.3272890884421237
  0.4937341251778499  0.4062751487432587  0.7503067472696276
  0.3837700798424701  0.4082881973677857  0.7698814673908787
  0.6186695710662020  0.5432764649100812  0.8214704178846678
  0.8379432526097879  0.5234486735050540  0.5367571392460843
  0.6011789591734880  0.4446586868524152  0.4063028166886996
  0.6443854274405100  0.9329825206400703  0.2710296106985210
  0.5994820072586039  0.7041855574394951  0.8190170923476042
  0.6726281995927560  0.6588140155359083  0.3616335281001297
  0.6679998457647479  0.6843949185895117  0.8972880759215268
  0.8290496065159431  0.6458738774543317  0.3640645867080689
  0.6485411545381673  0.6226732007228393  0.9663113418425184
  0.7571277752519037  0.5319052552178585  0.4885831188128408
  0.3761006214138913  0.8917435732233575  0.2578268145297156
  0.5617867430584355  0.9689594182752512  0.8123851849685660
  0.6476368511943796  0.3990035528010020  0.2668840373111165
  0.9915513935449778  0.6919536445651859  0.3526506350260832
  0.3540015687028267  0.5933735270615106  0.5101949974496389
  0.8185418144323402  0.5377177424601970  0.3406455301553972
  0.4341300099963508  0.5132345719513250  0.5442813395226871
  0.1459242000121130  0.6031397733735961  0.9125406534797186
  0.7108746282851820  0.4218442893751920  0.0443687975951217
  0.2229050162190228  0.7036882499584963  0.9164717278768463
  0.6079494503114239  0.5207610968126559  0.3269323747177433
  0.4880154836903687  0.8753138676872003  0.5819660970718752
  0.5772658163839992  0.6090553703853471  0.7785339537816415
  0.8665601275820410  0.4751127918487348  0.2637745606579149
  0.6244855120810312  0.6452157502855984  0.8419773206833282
  0.6334564749587004  0.2640110126672467  0.3707741587663052
  0.9058684146156166  0.3527033112242363  0.2078418335244445
  0.8954589007988377  0.6431253943724422  0.7570370989969618
  0.8105465077874933  0.5669655324788987  0.5945589107355627
  0.8949296021094537  0.7824458946479967  0.4065047288441244
  0.4323193820133816  0.8438703009153031  0.5729106835732369
  0.9030750286499039  0.3388895848897681  0.2695460652415581
  0.9510128062201267  0.2621457728124629  0.4813792507554723
  0.9540743550758465  0.3223202005631351  0.2377066875082413
  0.8480593004469146  0.3754559002392165  0.4763158658196726
  0.0040820283912691  0.2910658888596621  0.2650974917128108
  0.5106007568364069  0.6329514051310845  0.6954916590037461
  0.9628276208875599  0.9330096254790106  0.3838792534960640
  0.5341278153204450  0.5901680175111378  0.8789375861729005
  0.1100576917339777  0.1275987710247695  0.8986000465657685
  0.8422528411766897  0.2481157476168110  0.2779524857986558
  0.3344771095730279  0.8220099997919409  0.8275251185960119
  0.2458708303444562  0.0779545715896575  0.9520659003556834
  0.1220800866893863  0.6448607338635389  0.6942411442515666
  0.8125512002607850  0.6244162912913934  0.4881081040466479
  0.7414289316647483  0.8715034504714642  0.0929910668375107
  0.6450978504134354  0.9340956356239398  0.5008590560136456
  0.5845669827622766  0.8914999102125428  0.0942094061754789
  0.7174918589987688  0.8897807849259568  0.6514309183916298
  0.6391714849766352  0.9043787539460147  0.1637858560502967
  0.9218022104075582  0.7069523991587496  0.6965283278637581
  0.5898084003346469  0.3837002237685065  0.4276654145524624
  0.8764999452044084  0.6155167774117537  0.5743268911821863
  0.1329422772159611  0.8985430376822514  0.7434280267058329
  0.8004614623419601  0.9013875851358305  0.3360218761967584
  0.5388581337841607  0.9152621881411483  0.5351454325164127
  0.4295072809750087  0.8882115784455797  0.3876435414822504
  0.5324997228871341  0.8587896670220155  0.3151128408687560
  0.5391272038029717  0.9930562878781950  0.6845981599790845
  0.1277312616260160  0.5483927429466319  0.9317290342722906
  0.5779527447846811  0.7825507173151295  0.2959139750247595
  0.2027862113737042  0.7172092462238402  0.0767340298334620
  0.7520868525990680  0.9298096086818426  0.3075399776561329
  0.6743966511548853  0.6904802736048770  0.2389690452322657
  0.8513139222252792  0.9038744923714124  0.2387415193380254
  0.9985033143332492  0.5575254541204545  0.9246005130161522
  0.2024620195590812  0.1551230252104177  0.9752603077721368
  0.9442817692383413  0.7349122025348285  0.4948233416475330
  0.2784665524311442  0.7702948061486392  0.5961754137766574
  0.6788889863787970  0.7498471422375025  0.2236718456664646
  0.9567514848229680  0.8734739408768855  0.4006125922801350
  0.0685281024823943  0.0848533763432728  0.8898499618216361
  0.8452960832513617  0.8286238388401448  0.3176359867529253
  0.4886735054677923  0.9794480216792746  0.3801911620179609
  0.0467488833950418  0.5767891166780356  0.7881679887648863
  0.1434958102639609  0.0170262456343923  0.9346209035951496
  0.8188555869905214  0.0519843555954259  0.3989464739060568
  0.6727494646401408  0.1267785980658058  0.3760817360388302
  0.4022689908691175  0.1188107457438598  0.9347689867245307
  0.0128980537123949  0.1739279642717756  0.6829440802302651
  0.8835744181207338  0.0697000561207395  0.7134830756821821
  0.2941635796985946  0.5373216776796409  0.9367470692715525
  0.1927975302121178  0.4998024631081305  0.0207785197957965
  0.9524637324348175  0.2143857754907249  0.7677539797941445
  0.7708238262956116  0.1188992082409061  0.4749115587031361
  0.7024062087682970  0.0125405650154973  0.5515815788183714
  0.0905950852443650  0.5940162940064823  0.0754904035215535
  0.9065648322869285  0.4550385398321491  0.5931205966837558
  0.4666023414391033  0.1853932607853337  0.0542892985806178
  0.5133816600137582  0.1072027558403834  0.0310774169319012
  0.4339310036685636  0.3514501161904752  0.1584033775531943
  0.5320980637224880  0.2903745523601527  0.2114613939446917
  0.6968957376929746  0.9452773492744602  0.9152516249862233
  0.8800797132302421  0.2677278071514606  0.7925130748973240
  0.8978973637534342  0.3416092676830099  0.6724872298446876
  0.2399804266750224  0.4681549674470546  0.0496206247299742
  0.9189116802571732  0.9819765460598514  0.9309778307417077
  0.9345459335186548  0.1407946147333356  0.8854560218992816
  0.3110566632722219  0.2621380113473882  0.0398210547697455
  0.9230319637420925  0.9911805049389337  0.8557819188722671
  0.6434959393736643  0.9513889562296884  0.6712902943010965
  0.8046196188857921  0.8051130149882967  0.7120737461132206
  0.0669921227756104  0.3321624378656315  0.6772289439325702
  0.1807319548824193  0.1348094858279060  0.5812154214582923
  0.2895362512731895  0.0436598746976180  0.5292059724629924
  0.3479970582202023  0.5675236445076051  0.3982588185595325
  0.2710582687599958  0.8048871548418428  0.0601550337840411
  0.4566814068730318  0.3571698637251223  0.7470582384167422
  0.2277533610395227  0.8361185148151868  0.0386523033385982
  0.5160015212488738  0.3500202497812370  0.7671651688979311
  0.1780037448001185  0.9106980477820167  0.0464455278914300
  0.6247264626669847  0.3778157682111863  0.8560888821334183
  0.5521092149866564  0.4308901178852008  0.8771440529141400
  0.1806496764710241  0.9440857899406766  0.1550551434076268
  0.2312347855418549  0.9274943299755888  0.1190754589117790
  0.3106846189033581  0.0784079033562647  0.5767904426934117
  0.6758701156706531  0.1378940492258505  0.0791247272956449
  0.3133494331284479  0.1106316994226732  0.6844750339879140
  0.3287286261943647  0.2180958251904916  0.6715727032182589
  0.4000398208645387  0.1992456478359203  0.7549045169085128
  0.4155133705510851  0.3394097080619883  0.8487810781158860
  0.7350512374370441  0.4062948763410351  0.9453687558831133
  0.5140025245103408  0.3822454719510052  0.8750079664722028
  0.5819601312154522  0.3609953358331590  0.9568744456690139
  0.5101338447897973  0.4164079269601144  0.9802617070438594
  0.5296746895810788  0.2593253415415018  0.1074163818775545
  0.0080712217213183  0.8869137811705736  0.2400863327127303
  0.2996001173075232  0.0215526284590787  0.5958481796837730
  0.0744754128675837  0.9088046877835326  0.0135317724322889
  0.5551353483744298  0.4882688331458334  0.0904574904060992
  0.4051324035959323  0.5967906945650225  0.1812300035574406
  0.3646706138683677  0.2399528883152285  0.5699722242145423
  0.4096032521548386  0.6594076610555248  0.1615335763057006
  0.3064107402803495  0.6762781310537143  0.0664754210419914
  0.7789203771230280  0.6445919177926842  1.0026394965719516
  0.5734513304290986  0.4780038622836091  0.6557053515130610
  0.4681935096326564  0.1646114851671314  0.3422186858860746
  0.6220013595303954  0.5130261768332649  0.7159745522720675
  0.5621132265670518  0.5219704936658784  0.6967834943867746
  0.6320206365407910  0.4982217069634296  0.7770638739563659
  0.3043833147147035  0.6311778418658506  0.0234968733932998
  0.2547437229417493  0.6877646504484518  0.1019337663006151
  0.6806143096319880  0.5354661454433306  0.8418640090878775
  0.6466003457146137  0.5866193773607913  0.8585037092168220
  0.6339999231396086  0.6324577991631709  0.9024966772758216
  0.0437160467861654  0.6397624045071844  0.9894236029390087
  0.7200360969333064  0.5503420002115207  0.0099661690391834
  0.6952542243000137  0.6259431830278261  0.9240648868182553
  0.7333109602649875  0.6689244647004899  0.9813607976859871
  0.1085371366364597  0.8233632546573389  0.0699255535459732
  0.5010950735089925  0.4569701697431234  0.0838610755141919
  0.4854178827542974  0.1667547064709191  0.8958823214136011
  0.4482389110226029  0.3390021205463487  0.5769712289218654
  0.3143050871651624  0.1762277663754257  0.8953082859135109
  0.8396771333995231  0.9530183115647664  0.7969865080646403
  0.5328550206246533  0.4572692889294372  0.7552553803431959
  0.5906026977858819  0.4808881982814923  0.8793096565684237
  0.4683845756180968  0.5316402509236225  0.9454003752627369
  0.6897900913282439  0.5235272156402456  0.9016392049311432
  0.6290160069050901  0.5314517951021591  0.8818995373021878
  0.3479311433383347  0.5336862739567586  0.0677327619497391
  0.7687351751209277  0.4550481351739972  0.9442392039930572
  0.2520084459890107  0.6420071548671028  0.0576136529415663
  0.3456181258943111  0.2970851514412365  0.5525942606273867
  0.5566340109307507  0.6857907732587367  0.6998979888887042
  0.4089556238921658  0.6299388016414981  0.0560849060007824
  0.3740623896224221  0.1361241753438786  0.8114829787321773
  0.6383725314381743  0.8115945376966417  0.5360647087053804
  0.6900699473065081  0.2908244740168022  0.1509945883575798
  0.6852009373036259  0.8390583437064119  0.7051036819317316
  0.6344067778120408  0.7555682797267228  0.5415415539857262
  0.5460229367336256  0.8675170355694364  0.6006703863923432
  0.5953256713355702  0.3513861962528491  0.0935891223615709
  0.6418830476345119  0.8701095765595339  0.7404191117950776
  0.7871850830022386  0.9121561802669018  0.7323003962659764
  0.5351954994503607  0.4266315676917860  0.6508265707903111
  0.4508060368841387  0.4870305257458389  0.0590409072074619
  0.8646155435519104  0.9409608449355100  0.0388036549906928
  0.4646603974640407  0.7069471407180699  0.1111262116272742
  0.5044732291942885  0.5356241324176334  0.2310628395293209
  0.5592471240270506  0.5662718901570560  0.2382278465989669
  0.4650864979119436  0.6910062073956806  0.1704487753583853
  0.3670991773804176  0.7833939785330262  0.2268279629657372
  0.3754318324774705  0.8752281100901087  0.3172538023213799
  0.7521570238246014  0.8286315908421784  0.7307204658686772
  0.6017947369543424  0.8216975939880737  0.7388173740307442
  0.3260737027211076  0.9249123399946260  0.2326979026185762
  0.8109809173195386  0.8945569720099298  0.8561678432000489
  0.7674311803502089  0.8830237895653928  0.9670660705080441
  0.2481187808373935  0.0441576829620195  0.3104565074197221
  0.8461124153547813  0.8240261010266126  0.9292324956044887