Cr H  Ni
 1.0000000000000000
    38.7642358654787174    0.0000000000000000    0.0000000000000000
     0.0000000000000000   38.7642358654787174    0.0000000000000000
     0.0000000000000000    0.0000000000000000   38.7642358654787174
 Cr  H   Ni 
 1596 213 3725
Direct
  0.0184655107099847  0.8777487312399860  0.9925394477071037
  0.8408929641137226  0.3103322988895019  0.4913730601271342
  0.8239855064911989  0.3701219937791994  0.5250967545457783
  0.7943064621739711  0.3415737523319877  0.4648019293637579
  0.7299101390726527  0.6785547565037312  0.9202893109966583
  0.8133957793087164  0.4300188783850392  0.4987904052965478
  0.5698752642699374  0.6129863893425199  0.5179593349312364
  0.7365549220690027  0.7978393958597314  0.8396267699483915
  0.5643522474800458  0.6310746403447983  0.4520362134518086
  0.7932487442045102  0.6349151301706608  0.8395575580358934
  0.5332024225203109  0.1724017451878093  0.8538883908732298
  0.7139736997693135  0.7172185374090015  0.7400155114365004
  0.4752372629232683  0.2707949893466036  0.6561895424581691
  0.6867317513614947  0.2754131103646282  0.2118795994114251
  0.5986195956116761  0.2868065213672805  0.8033322594144315
  0.5771499730754200  0.3418960297936011  0.7896919609227121
  0.6947539062358700  0.3547560833044936  0.9442538780977658
  0.6728688888089165  0.4149257990081379  0.9239648351902399
  0.2879722979634638  0.0548297038639048  0.4665104686323640
  0.4094549190543865  0.1284027456886065  0.5999846343833353
  0.4214199355900321  0.1132855604969708  0.6629453259306196
  0.5712535796550919  0.2221741335845116  0.8591943487801081
  0.4607427298083948  0.6590085821765614  0.2935391949758074
  0.5226219624193199  0.1854715462850993  0.7948127084976322
  0.4769155438480946  0.0155569549167741  0.8699747361017477
  0.7992578291612328  0.9147792194795785  0.5098868704357756
  0.9121224070857449  0.9908145376948853  0.5270339192612020
  0.8514572717859690  0.9474246865804936  0.5219938036379486
  0.3708045470051318  0.8572673281546309  0.3804512272038719
  0.5562063333974647  0.5801430538064185  0.4088483098008984
  0.3636629196964495  0.7513883149664315  0.3494903003723732
  0.5107451931753437  0.1998672980134684  0.7334931675704353
  0.3644876164015313  0.7666319541161369  0.2890174391555129
  0.3103526605802296  0.7519999647214163  0.2183285354164504
  0.5670809782564790  0.3274158286911659  0.6182931109273944
  0.5085760339375029  0.3364612417823423  0.5971104088296640
  0.2672114144998493  0.8597735695645928  0.3450561830643001
  0.6165062994364993  0.3607678783289163  0.6873062015569014
  0.5569827130975218  0.3712090324110586  0.6631081273924953
  0.2171356278538291  0.8868064713863497  0.3178446533949690
  0.2726695214573123  0.9244925162095550  0.3283216041324701
  0.6756828848347832  0.3842579322775371  0.8162814533265352
  0.7148591390457941  0.4346565377849567  0.8188141485992600
  0.8237453063168415  0.0441469114793007  0.1638094883577560
  0.6565590836376113  0.4597309526016579  0.9636385953347389
  0.6452265674967620  0.3827636859290103  0.3310569144044703
  0.4589531342670718  0.1626736107754362  0.6667890619129067
  0.5599502739222066  0.5960690156907750  0.3458727361620527
  0.8102135730950091  0.9290013724704109  0.5711122385916603
  0.3719557493388976  0.3177182758891388  0.9649357182714153
  0.9973748538435083  0.2019487170182151  0.4028672113073927
  0.1645003148431224  0.0632242702374112  0.6999839609705035
  0.2151488990963668  0.0998238900981897  0.7652226448600300
  0.1552038536850053  0.1064459465206924  0.7453083352700552
  0.8989479582516287  0.3073878912844514  0.3946347913651356
  0.2169994263503254  0.1317887472248448  0.8722435104240907
  0.2970856103093452  0.1610397724906154  0.9475084595401196
  0.2922320725029087  0.2331381798181686  0.8760024448275304
  0.3577481799018223  0.2107903467684070  0.9620367826275000
  0.1875809738877271  0.0372484477661959  0.8281140729141400
  0.4367489812283870  0.3866189213185631  0.6208862265842666
  0.6488750728119096  0.7070906087762946  0.7772361132627291
  0.5972249352590963  0.7381567640153668  0.7012238461623289
  0.5790911916250387  0.7965590004351774  0.4611198351245101
  0.1424938797321486  0.1182769934877970  0.6810212221654565
  0.4453158233041352  0.1149850903126025  0.8935731849995964
  0.2078056825974478  0.8099616844952120  0.1634710801661787
  0.2448697704947327  0.5336852199668517  0.0338171889262707
  0.5756869872081024  0.0600242610973202  0.8921683081151757
  0.2633584144445854  0.8293856976795432  0.2370717811857834
  0.2567005196131060  0.7496100665341765  0.0843793151226740
  0.1466080384516058  0.9716087071718300  0.6191349920925355
  0.4508617047832819  0.2949648785809716  0.5234454945866388
  0.8675695885594410  0.9332010797647753  0.5901934494020226
  0.5852467099423397  0.8569076842289848  0.4492557853535905
  0.8196543172548515  0.9241938333539249  0.6317489014580974
  0.6396339998514977  0.5899188887921589  0.6023378083422573
  0.7155929075749144  0.6847020746802628  0.6376331788229771
  0.6114302231267548  0.6125758202521813  0.4153115365111801
  0.6647223241287008  0.6816721483300436  0.6791218769584220
  0.6736831621908121  0.6669192288345216  0.7388647383033071
  0.2561021790520621  0.7351375046187388  0.1464441848560767
  0.7080879393836471  0.7317713246969042  0.6807905345934590
  0.8085947089078884  0.8520695728840811  0.7535026054940557
  0.1675789505004917  0.9133969356557953  0.2839949075946469
  0.7894849028786746  0.2450662080944288  0.1415027004734681
  0.4249904091121134  0.8446543124803704  0.3437375750075183
  0.8103532559709427  0.6779404201700751  0.5257578579248973
  0.4022022079615012  0.4893515960557387  0.6529762178555827
  0.6810953472542574  0.9188648492819143  0.7466918575349571
  0.6646883106056168  0.8493840980402230  0.8661343340492049
  0.6693775822241551  0.9662963627468055  0.7897738424181311
  0.5805495099444830  0.8124130558809447  0.4019662081165447
  0.2438302388523476  0.1945596470854513  0.8124603035076912
  0.3020027443319789  0.1884537493079697  0.8328783491759879
  0.5356081933114442  0.8703540430809247  0.4864334396773103
  0.9957445192445771  0.1543969356703468  0.3598742732366377
  0.4697246998700341  0.7500903429679096  0.3857671348214221
  0.9565066074857160  0.4292808517883939  0.4871208539201595
  0.5829402777723135  0.5523383965208972  0.5359252339039027
  0.9865133014778941  0.9618406972336272  0.6751486763012087
  0.9011189076851954  1.0010314232559310  0.7933635220398335
  0.4726344930740539  0.7331289480185920  0.4491087628928558
  0.6987539647828688  0.7413748970476773  0.6205114554881289
  0.7811839265179797  0.8284307498665719  0.5867737979376773
  0.4749741547347175  0.7923463586932256  0.4343136954902646
  0.7740129715391779  0.8759445227999251  0.6293641835754513
  0.3764056226405970  0.8855296798745198  0.4872160682553087
  0.8322135800025919  0.9154325625415308  0.6926016904097803
  0.3808240219819043  0.9473095255945326  0.4706683977646650
  0.8557549351204339  0.9985066377421750  0.8332545033457202
  0.2813475028807012  0.9979040866865893  0.4829079976731662
  0.9565902924090868  0.9829181507838316  0.8888664096997563
  0.9237437089502873  0.0223875711841495  0.3329191346626781
  0.9688676279025596  0.9688831230242173  0.9516278280605179
  0.9272271521290758  0.0651990145967647  0.3730457025723666
  0.8797559667504602  0.0904681089984273  0.3409318595052409
  0.6446536920688033  0.7033170688223624  0.5572368495560219
  0.8926140978066242  0.2151082049734580  0.3048699784083100
  0.8899124142399008  0.1998305732836967  0.3652253272577307
  0.5870930655072745  0.0146058620910360  0.8481911269405658
  0.8622142732237733  0.9769224070002717  0.6303076401021811
  0.5395128082397453  0.0108347401439326  0.8925582964470797
  0.2035453924830638  0.1116942776737739  0.7039426309516067
  0.7677216106134752  0.7209590260121614  0.7008420130095406
  0.8186176640332731  0.8465839241853063  0.8154777343814656
  0.7486798851857976  0.3847759687309863  0.3701785058265331
  0.5643174460857078  0.5751427243504766  0.4689482300355243
  0.7760169715227130  0.7118529105402009  0.9840177528098888
  0.5719095770781975  0.2976348299533911  0.5119214201681840
  0.4103937637447859  0.2471997198137115  0.5262663061209656
  0.4178806301568403  0.0113602695684469  0.6394976185996997
  0.4418026102387919  0.0548395716489328  0.6800709324000814
  0.4512707826671246  0.3780438457439864  0.0311441975017277
  0.4313477949023682  0.3217976189322480  0.0570620368274821
  0.5150055590684620  0.0352090041539568  0.7646872367076271
  0.4920507739769823  0.3488062812369086  0.0628386193265977
  0.5049662289991783  0.0771268728290311  0.8081505024768888
  0.4109549757236477  0.3451708160203209  0.0086498207023303
  0.3936920150936106  0.3883654947309729  0.0615995119241524
  0.3950685864265373  0.4875948408161235  0.1554682745204185
  0.6726317259264508  0.1079843899585193  0.9123212166780436
  0.6145129025519931  0.1464149738097919  0.9417598301017097
  0.3980135923151335  0.5029179177795445  0.0970909458962929
  0.5270344311335535  0.0207402220328126  0.8280785436307024
  0.7569591707108068  0.7653355811495687  0.7410413547578503
  0.5561852191661006  0.0425149245945546  0.9453164364279151
  0.4605215139730832  0.5123878132748992  0.7781916618171894
  0.7048053191348828  0.4613895527824474  0.3816372223647554
  0.5585958820775446  0.1710351269458069  0.5854185920838005
  0.4954104900934192  1.0082271029074175  0.9348561894050602
  1.0195677096573108  0.9970912275344920  0.4982380340325082
  0.9663071955609460  0.9804202435017243  0.4275877526202027
  0.9863923622209858  0.9189908132985681  0.5710305407367477
  1.0225562468764289  0.9853624062927082  0.5678320797703486
  0.9621135086600858  0.9644107538482328  0.5540091875248619
  0.9744600779379754  0.9717764913182999  0.6132181362748674
  0.8399917494436743  0.7824929549799601  0.5037244663391341
  0.9331360831866735  0.8770728710021775  0.5667226430698269
  0.9027545710937221  0.8152356041831592  0.6299830625765065
  0.4770062303937668  0.0034636742147751  0.6592205213629005
  0.9323854504961884  0.9228218443819219  0.6086405236476585
  0.7584805960961600  0.2823197553526231  0.9649968799165821
  0.5235597561628567  0.2413154987403048  0.0033242931834862
  0.4601531377394207  0.2544719926866533 -0.0203156246962600
  0.4986168487407374  0.0484127379607795  0.5306784334408112
  0.5029709503837788  0.1171047807832764  0.5131798545698003
  0.5188699890983111  0.1249639789187034  0.5763911839811469
  0.2936832422046707  0.5012986493816343  0.0583846057047187
  0.5703163354542496  0.1614034589045764  0.6461716140719951
  0.9237666885483242  0.9672615741692526  0.6527388084031843
  0.3503014545171163  0.5827804750967744  0.1111511662157356
  1.0284761862398417  0.0050389202154038  0.1978773698144356
  0.6713451856273015  0.2325366343605794  0.7801873780759216
  0.5592596849410844  0.2062888127822759  0.6924112936166837
  0.7090055829462882  0.2816851562464758  0.7871987131785679
  0.2520855515146155  0.5944111650243601  0.0134360871721386
  0.1973700774753378  0.6110965267550434  0.0480560419870067
  0.1486032004717276  0.7554765526680013  0.0410430574018550
  0.8812248018595524  0.4457521929266875  0.9847378766742746
  0.1531951750309642  0.7955035160383530  0.0889918342808851
  0.4790687252302355  0.0783351362918066  0.5735883764824042
  0.0668123309986352  0.9006399889020593  0.0788650188743822
  0.0247782873784114  0.9694108608484795  0.0857725636442193
  0.5315542499103940  0.1130458593694421  0.6392118673388254
  0.4821685209963509  0.1063925935435580  0.6822853251631013
  0.5433830152247031  0.0987893859849127  0.7027735454271481
  0.5827440304864379  0.1479786334888131  0.7071845352848695
  0.6137527039767177  0.0595091436690669  0.0190569154369251
  0.7192645954932938  0.0610785829350578  0.0587978250399944
  0.5829648190837134  0.1789400520558203  0.8148199066674956
  0.5712107124568760  0.2041801277491625  0.0220564728781301
  0.7019554399742866  0.2026225390734084  0.9098716664375711
  0.6187658733862846  0.1877399930508924  0.9861503695543349
  0.4768991278742562  0.2403670642724167  0.5492320643276092
  0.5982318335650753  0.2547606313875292  0.6978723728611708
  0.6841417278019810  0.7558195198707126  0.7770623141781442
  0.8449964311898728  0.2931345658912970  0.3221507947686402
  0.1939272865689604  0.0494903940819578  0.9440843831186571
  0.7299709292943855  0.6721031923786345  0.4315234632888139
  0.5864841716580198  0.6287332735137926  0.9457275157929106
  0.9353339337219595  0.1056581733068164  0.1818658614442702
  0.7517889677960207  0.4826779420623512  0.8205953557390170
  0.1294309576708316 -0.0093127676423143  0.3003031592278257
  0.7671211787090514  0.0165199847635567  0.1558586929432636
  0.6075589053208525  0.4941490052925406  0.5544472087415337
  0.6853783159177348  0.4731204317822768  0.6335592283705344
  0.7916014477722959  0.6157868658126662  0.6754716580073904
  0.6745800236011811  0.1372209169884790  0.0773749814428838
  0.7577006608740303  0.5840316351736601  0.8397636321016551
  0.8146727021596227  0.5773778309865850  0.8589984051072926
  0.6314187383602048  0.2434329001433025  0.2027859274576102
  0.9309534808957698  0.7819767897849547  0.9572398220920980
  0.5405166536349948  0.3807253356677461  0.2964657358000811
  0.5945347803019478  0.3816950981419333  0.2000906801243610
  0.5375193276797988  0.3958809595487690  0.5317739764986490
  0.5490960946456654  0.4564073496021445  0.2166077202233454
  0.5058557918620776  0.5824602914321205  0.2759873183237760
  0.6665240529195410  0.3956863622971569  0.7546126850209481
  0.7951448871333547  0.4633300063894520  0.6185240653321841
  0.4532784296725854  0.5665261167903849  0.2055658644501340
  0.1478763223741836  0.2382266112688302  0.6085063540768262
  0.6447302711916699  0.4553776758011067  0.7365076190641127
  0.4097462571263675  0.6748840660661959  0.3288462291362302
  0.7043515388564754  0.6501536359544055  0.5305633296867779
  0.7003631291518793  0.4783690305718932  0.8614232448963268
  0.9579260964961551  0.7890304464862627  0.8072414868295605
  0.8471236214015772  0.7951758516908836  0.8148711873176080
  0.8339147085644408  0.5578835707404282  0.9850599029882247
  0.8121675057172725  0.6118784411615958  0.9643751484100228
  0.8764078307841179  0.7263009816022649  0.8971176236747052
  0.1539462388451970  0.7795393748536533  0.1530911888324601
  0.2084168657617006  0.7957666411165432  0.2257307408060096
  0.8827664095128770  0.6890954088621126  0.7978292765837055
  0.1063674404455133  0.8078562217524992  0.1260406737013471
  0.8497736831959034  0.7731371839433521  0.5660767251443649
  0.7477262200464474  0.7454596006490792  0.5806432671048433
  0.1626569421223493  0.8712023031596626  0.2416193733818797
  0.1197261373137960  0.9155309302597842  0.1475698933062317
  0.1268209689484522  0.9576763989782016  0.1897388965464318
  0.8999241433831432  0.8596102320103404  0.6695528480152980
  0.9118847686019473  0.8509431786927178  0.7354203116699536
  0.7137517164613952 -0.0018946751094022  0.0773656047911375
  0.6678813821631265  0.0895801717195125  0.0336429360953252
  0.9725351012755831  0.9232240155426710  0.9077451055238865
  0.7109883862511470  0.5562540000598396  0.4657675074090633
  0.6300746734322246  0.2784425242091270  0.0751403583066539
  0.5858183945422561  0.5964476241458826  0.8406053778850411
  0.4900216713937397  0.3807318885652347  0.1667923231780229
  0.7637181652390375  0.5736208640922223  0.9019064189195388
  0.8383019134886698  0.6502786685207657  0.7377230313174729
  0.3572546682576427  0.6749635483382520  0.1999686297817948
  0.2548061930173763  0.7202409165412633  0.2089326882872725
  0.9570583099505473  0.8162460197884321  0.9137865745046697
  0.0358742176666748  0.9146851810927799  0.9319812736442603
  0.6191941475905053  0.5479873331504743  0.4968939262814680
  0.4490517084286898  0.5193352097274585  0.1633115811455457
  0.7234332667466505  0.5398401675043002  0.5778731268469147
  0.3480901694496604  0.5661901810979991  0.1729759070211522
  0.3516649637216015  0.6123078613375192  0.2158026756036954
  0.8272793289426055  0.6949280534705559  0.7753646201936761
  0.4246414255111712  0.4301241805764715  0.6711464476819075
  0.7518254083923686  0.3995195274572940  0.3060081487016046
  0.4122989789979596  0.4724872638067181  0.7128143134362729
  0.8412529324500228  0.4056166395501443  0.9225039342945575
  0.4259977731343548  0.3996594770624254  0.5627623052364715
  0.5356886444500418  0.4284802727596951  0.6512202249053838
  0.8909339457872829  0.1824581925786463  0.1999409352497948
  0.2787520194799611  0.3468924893062130  0.5748631326432937
  0.3361130150871500  0.3422120372744988  0.5946248009751474
  0.3240686813587191  0.3862973151357670  0.6418020464143208
  0.7552784596131452  0.4135206522560302  0.2442181142929913
  0.9659274016378385  0.7745658689677598  0.8693533930929362
  0.7039433555804151  0.4300208223535937  0.2780247503425115
  0.4321691081217840  0.4459150222568193  0.8366209487981409
  0.3563824773185334  0.6592700470274401  0.2593755633064131
  0.9910149965409909  0.1218011755267135  0.2553042727317641
  0.4430157174383222  0.4111131776924443  0.1410910741317236
  0.9418351743059612  0.1843189066045698  0.3306405639893096
  0.4990034144681312  0.5602199123605390  0.7812818498567868
  0.7676153443316869  0.3053819946449718  0.9122122177580519
  0.6610035642406384  0.5509610168810324  0.3359493117400036
  0.9454258643640618  0.1998175803462182  0.2701915218713014
  0.5476237002616660  0.5775286852813944  0.9435813936525809
  0.6581027564259321  0.5051407811752873  0.2929884787211607
  0.5582208624989821  0.5613296263333648  1.0095572917655213
  0.6033811208080654  0.5687882349496520  0.9649747974240348
  0.5702105352735420  0.7043120214337351  0.3720922644192665
  0.6115771544777835  0.5813863259474693  0.3095771738564858
  0.3465403747640923  0.3584868556515081  0.7664025696291342
  0.6731035249241153  0.6740301809638469  0.3007367932098502
  0.4381668895736034  0.9487542815843273  0.3729882034752071
  0.3464355906139697  0.3273695027258579  0.6595961058806102
  0.4427589718020031  0.4332595538240480  0.8971724053738618
  0.4851044108013861  0.9180595667506860  0.3972167774312905
  0.5499769419462039  0.4614999656590859  0.9834470846072638
  0.4105659507683396  0.6901616274762822  0.2687950446816625
  0.1309780972903201  0.0492690913140880  0.5278369764695273
  0.7304870674506736  0.9589416174500516  0.8138691139278421
  0.0285069198064978  0.4396227306129514  0.1007286218750220
  0.6242481234645580  0.6454195432228583  0.8415099859056773
  0.2200729334154648  0.3192257571373939  0.2132703381121664
  0.5994669637616813  0.7042872728517556  0.8205777043262465
  0.1188499961772300  0.3350435179922868  0.1159871420938073
  0.6700658468937565  0.6863311679490945  0.8995964899804454
  0.3389821152808608  0.4491991992424100  0.4287212240249941
  0.6747379139012136  0.6786949979474239  0.9621679315044294
  0.1306820315698832  0.4601915347274740  0.3044724030738533
  0.4250293704697550  0.8594019300413277  0.2826155391809528
  0.3674216284798431  0.2096176938125911  0.3556111772502250
  0.6481053539437015  0.3976802859509723  0.2699375217554755
  0.3706157906331425  0.2536581154992980  0.3998244750878098
  0.3706203689285031  0.5250957980865056  0.5288148092995989
  0.5149878175652707  0.0954990174243335  0.3326141317427591
  0.4775803162815469  0.5595406509145974  0.5551721625051578
  0.1905525186329375  0.0458115765612746  0.4065994105536865
  0.7015414288910602  0.3987550718185684  0.1729018296438027
  0.5755873426581777  0.1836518615399085  0.3156154370159420
  0.6079349452893195  0.5355491593591628  0.2660178813403988
  0.5273982601173538  0.2592995262106885  0.3354749402318976
  0.5776063840882270  0.6102735702094897  0.7803803090839440
  0.4279826477399268  0.7928986636982672  0.5305137533291771
  0.0498225904559171  0.1850182038014497  0.3732572354292373
  0.4889865907974000  0.8294437709548884  0.9893213216283685
  0.6757326447260139  0.0032620507525031  0.6031187831048325
  0.1031877890580764  0.1530293841013328  0.4004140607336269
  0.7461435138448135  0.6510718655808431  0.4910869042958348
  0.1366412183666172  0.0359359290554388  0.3431055976760103
  0.5400130371118347  0.8389195855848823  0.5523932293705316
  0.4826164091568106  0.3338584394949302  0.3536927528275045
  0.9510217829294079  0.3221277653482038  0.4650219306689763
  0.4863893250216230  0.3760242954435082  0.3935537020960147
  0.8486337877590789  0.3728815216498320  0.4724451219941200
  0.4886899238306063  0.3029052210542048  0.4836078568354091
  0.4904026770536093  0.5748555744919519  0.7213502408891699
  0.1180598483263782  0.3505283496298673  0.2823294858874690
  0.5348095364609834  0.5902120149839055  0.8812031916523027
  0.2923586882713191  0.5196847213523120  0.4529879836902575
  0.8414190831012681  0.2455740346947927  0.2774514318761495
  0.0290847029856147  0.5199240733202881  0.2478616237518727
  0.2441707734436847  0.0760552635028654  0.9531707843228049
  0.1986905347374391  0.6803141398685775  0.4972240789583530
  0.8188364131906657  0.5738246268096542  0.4459621987607331
  0.6547858205774679  0.0079192357824291  0.4198421721704411
  0.5892971552993532  0.9000969351843877  0.4965632499995574
  0.3602488002069451  0.1352945292751605  0.2016673257450494
  0.5246473509421613  0.7590625959833742  0.6186222003635293
  0.5540298198096151  0.5024937554941584  0.0303550562754306
  0.6258339962047644  0.8009011785782081  0.6397542608545738
  0.6392069536241749  0.9590094509868067  0.6060765309627004
  0.4827063876381558  0.8239927553642521  0.5399659820322917
  0.5400129367169947  0.9293914243902636  0.4701418296647450
  0.9657895080095976  0.4476356470868357  0.4307653591355510
  0.5413753696083907  0.9111050368711785  0.6483755907736524
  0.4081843908561619  0.3214754531366437  0.6791437986111811
  0.6126868821541113  0.1374587136497899  0.4865033162861265
  0.4711961154215245  0.2413762869642671  0.4919417213034070
  0.4153979620180365  0.4143478133011516  0.5067238199675620
  0.0360627746601111  0.5162308638141682  0.0243250073681213
  0.3103364629825696  0.1806166721050690  0.1147627619614000
  0.2091332499088518  0.2122720658069728  0.1875605848363344
  0.2571463511339386  0.1712615135808190  0.0412453911324062
  0.2549980008847462  0.1522512087967340  0.1048169894367133
  0.3048417722215316  0.1208793155377444  0.1305440065829142
  0.2491839193664681  0.0922288245261852  0.1237650804966667
  0.2997102705806499  0.0773889895238603  0.0850522766473926
  0.3498621920140963  0.0449376564199407  0.1103975143665382
  0.2492774631167576  0.1915696914664662  0.9706214943164297
  0.0294817974798852  0.4863020812043573  0.1461220305409619
  0.0763286773504203  0.4112502860095931  0.1293231978132972
  0.2534383232061663  0.2936689907401944  0.0155541630820529
  0.6849577876015258  0.6743503617409246  0.4704287634547487
  0.4107067599205443  0.7569299390704611  0.0274031167544418
  0.3640713397637956  0.7727876546385986  0.0630888862805061
  0.6096347026921322  0.6918728845755625  0.8806670537187749
  0.5614489410197997  0.8543736027022341  0.6642406316698277
  0.7647737830233198  0.5421442012905586  0.4309560083130553
  0.2804598608372670  0.2138930890962803  0.7104346208163563
  0.2345826250600991  0.0786459668017198  0.8944676763674914
  0.9100496906628299  0.4166281527771347  0.4203306544053009
  0.8473883609779030  0.3235831701417609  0.4297968098082963
  0.8085916471181408  0.4308005775360262  0.3171112722253706
  0.8066187409506462  0.4187050575287021  0.3807336243763444
  0.8110033240747347  0.4759455548628124  0.3598892545908545
  0.4276948236766827  0.3255016677550537  0.9061483571160719
  0.7651463327206480  0.5541461280093842  0.3729985168515363
  0.4495159341473085  0.4189441991638453  0.9571973671387840
  0.1791835261914640  0.0349727414177624  0.5545568612720421
  0.7927458969175741  0.2773670219540214  0.2489329743621105
  0.8217273220834195  0.8597724019826387  0.9718942282903874
  0.6538254976779085  0.4597297390548687  0.2509524105071989
  0.4626177349942315  0.5600010924257967  0.4958555670220561
  0.6108158826276664  0.5512145107439692  0.2055477395386797
  0.6604673760452713  0.5211408587193014  0.2323832201772013
  0.6128840271675369  0.6594489557014928  0.7791503904642246
  0.6602165903425994  0.6960188115162173  0.8384784691085800
  0.5161710665770516  0.6895266974029169  0.3028889645812362
  0.8031049079028069  0.8068995163554550  0.7138512397073622
  0.6017688102629762  0.0260387308634874  0.4555405309050233
  0.1701965320872530  0.1820873687257573  0.6243589015026055
  0.1807093452616086  0.0452702986002248  0.4910043281904504
  0.3455378690805622  0.5694294453694178  0.4008702512282282
  0.2693623295319280  0.8045409185541760  0.0597220734403545
  0.5071196842450599  0.3650496973839261  0.7050234081963425
  0.2123206407781890  0.8246781664190701  0.0961038355510588
  0.5054153076675716  0.3940064691037927  0.8131365750017221
  0.2254248966168799  0.8822611650268064  0.0727225660028102
  0.6120607826482407  0.4222567761463488  0.8998848801903152
  0.5536800440108853  0.4308613284121611  0.8793620427613922
  0.1795162750288136  0.9431172403977552  0.1536392541728831
  0.2304710961227059  0.9265444507957565  0.1171218322021200
  0.2888590684034433  0.1390948501790335  0.5613898973893862
  0.7232364576406570  0.1197527697681604  0.0441931602495892
  0.3010512847840574  0.1249073283220074  0.6201459608886204
  0.3290001954697369  0.2193744393893588  0.6703510625385580
  0.4010890546791329  0.2015283580416126  0.7529751862703511
  0.3915029235523762  0.2442699361255238  0.7981267631345949
  0.6415486779184093  0.2558460162397747 -0.0171885458285620
  0.4998689101808951  0.2741222997340469  0.8837525931856168
  0.5553792317089445  0.4449416987019401  0.0489278244304989
  0.5218133291771909  0.3655581963665568  0.9366586046389974
  0.5296716534726026  0.2822795206574816  0.0447003436596363
  0.4027414328764521  0.2306866730240925  0.8610864382695385
  0.4243006903936925  0.1718824131140090  0.8795160658434020
  0.0696700179546865  0.9067997978722672  0.0030040468295068
  0.5553213772145424  0.4889269033623246  0.0909870143834180
  0.4548338709276273  0.5828660393837639  0.1439826474586694
  0.3642019737867226  0.2425558518120824  0.5673833964156541
  0.4571054979096690  0.5987642396966092  0.0838108279633479
  0.3062634177339405  0.7398926419481537  0.0487719532289483
  0.6639234946754935  0.5650406996526487  0.9856859249523245
  0.5749629928886241  0.4800129366606631  0.6562003318553076
  0.4679544929849123  0.1627972676892064  0.3418135175302742
  0.6236076207071950  0.5130294425812097  0.7173359572105946
  0.5619892183143461  0.5233209713641410  0.6978221781454237
  0.6321567174396875  0.4993205414738675  0.7778519975203458
  0.3033549947421078  0.6299010778648160  0.0253165569188274
  0.2540977517596021  0.6906964428845899  0.1025886773524833
  0.6801204567443004  0.5366052280648616  0.8414773411535035
  0.7054190151523728  0.5805477260979387  0.8815468108323341
  0.6473195489281313  0.5874915605087293  0.8603944554235888
  0.1472031801392919  0.6417985202591673  0.0151081648002272
  0.7734002433867921  0.5595326219522470  0.9645681294464161
  0.6944983399734028  0.6276923249684143  0.9265536737894390
  0.7292861928433251  0.6704185138217865  0.9789636498280353
  0.1678449710974330  0.8517016969169851  0.0682370921694020
  0.0131088633121393  0.3509192773368050  0.2469922284879119
  0.2495630106766150  0.0181209194157778  0.6410429782876079
  0.4478563385990013  0.3432588400993132  0.5758833643136739
  0.7932038399388243  0.9521699855797843  0.8387127041629798
  0.8397585049061426  0.9520269075312870  0.7975597227648185
  0.5342335361567875  0.4582332587000161  0.7559372632430325
  0.6426767686984708  0.4869787403148148  0.8408239129341325
  0.4047445669148728  0.5854407839818551  0.0150005738789635
  0.6889919454172747  0.5250013209906016  0.9039504403011778
  0.6299750635138581  0.5322128848249157  0.8832986214779786
  0.3529666224551933  0.5998635028764524  0.0523431938161613
  0.7132032443527809  0.4489394535006095  0.9836242311079825
  0.3016490092072912  0.6135702649304849  0.0852360955055092
  0.3406493521529776  0.2597708784688286  0.4996740766580191
  0.5535325697021615  0.6858545621445151  0.7012812866915712
  0.4105789157257448  0.6773659553321212  0.1037956615069758
  0.3740528087937353  0.1376401445096728  0.8112619381378045
  0.6657696005290960  0.8165774072120602  0.5380200671947830
  0.6886054797406009  0.2893457537346124  0.1499747388181051
  0.7230376894764475  0.8475719926433111  0.6055538607048863
  0.6741127085684039  0.8475261500230817  0.6438872998727865
  0.7302858800730450  0.8863414182223583  0.7118927953482503
  0.6011387168422053  0.4428890569168984  0.1804082237214361
  0.6425238189946644  0.8700762743029461  0.7415796596317832
  0.7869333628593159  0.9115535775179797  0.7339876403370365
  0.5941143608562213  0.4500507863917863  0.7770277838092524
  0.5980035838355112  0.6548614002446821  0.5563974496259623
  0.3650757875028813  0.1824078759991071  0.8548298240894047
  0.4649700113055009  0.7078630143528163  0.1117183827772096
  0.5040278830058376  0.5520676114969386  0.1703816166396914
  0.5596432956367792  0.5829669200269866  0.1794394261645251
  0.4113511383102853  0.7061386189135276  0.2085562520914324
  0.4151050499186942  0.7521948385018346  0.2521178333278701
  0.3696905577320566  0.8298589794293085  0.2728500084368231
  0.7496168315816203  0.8295403479032402  0.7305426300354525
  0.6608743730218168  0.8138915675985144  0.7594546022335342
  0.3248129287295972  0.9253147260411426  0.2328358475277386
  0.7121772697491848  0.8512615482720376  0.8284594148261200
  0.7628077673319760  0.8904173220179781  0.9012665993012069
  0.3267832038459875  0.9717626492353995  0.2812079894307161
  0.8196910335977272  0.8818691010925572  0.9175987835572302