Cr H  Ni
 1.0000000000000000
    38.7642358654787174    0.0000000000000000    0.0000000000000000
     0.0000000000000000   38.7642358654787174    0.0000000000000000
     0.0000000000000000    0.0000000000000000   38.7642358654787174
 Cr  H   Ni 
 1596 213 3725
Direct
  0.0274198585617853  0.8815911598794107  0.9945501357423686
  0.5985862047820434  0.2861880459988843  0.8042133306528915
  0.6473314211239554  0.3226757731169414  0.8724511641049028
  0.6546431249682579  0.3089740289712147  0.9329994525663444
  0.6768356119059165  0.4114036756072898  0.9797279893554932
  0.3510352914238517  0.0945526185267876  0.5317652765999377
  0.3504828294332705  0.1603091926248363  0.6883295977551243
  0.4209251800925598  0.1097620325261622  0.6640804150415253
  0.4996799670832242  0.2110903757756581  0.6741166369659103
  0.4557778730549348  0.5818395895342106  0.3714805931743131
  0.5716062040830131  0.2226413191448109  0.8623605443511867
  0.4630671414995405  0.6584297109502276  0.2935012389229281
  0.5221405091326737  0.1843030378788440  0.7958542964595864
  0.4655256784235626  0.2821845699633214  0.5960635187801417
  0.8343589675199553  0.8720266535089415  0.5906533764627749
  0.9096298243429892  0.9253772869437940  0.5424750839661572
  0.7016833817044199  0.5798056092836855  0.6202484170076181
  0.7152544412789202  0.6832925534854785  0.6369564984563616
  0.6150762321602846  0.6128580537737409  0.4158267878789214
  0.6822198202231019  0.6205276821814277  0.6959609665339009
  0.6732135812007666  0.6654446884238552  0.7373668778777107
  0.4952133606715443  0.1227394646154330  0.8540572167317579
  0.9128945805493961  0.7520386324187798  0.7367872832058328
  0.1687203485400601  0.9147719940719338  0.2850986629288971
  0.4795054430001822  0.0148842692835075  0.8710156088348128
  0.8025550086202655  0.9323524303067086  0.4422243779936603
  0.9165824005667812  0.0472859725706010  0.5031980769837193
  0.8158210865102254  0.0883546124358568  0.5050035681343951
  0.4295798311367116  0.9047423040949347  0.3264345922395878
  0.5604001282324530  0.5822473484617930  0.4082540877009334
  0.4158143490273965  0.7202498843906736  0.3729229239310299
  0.5098847720046172  0.1970431435636548  0.7339295325325933
  0.3667037854950228  0.7675705813558182  0.2875925574674724
  0.3127952630725062  0.7517812827627652  0.2180247404419905
  0.6811316920049861  0.3181037945374024  0.5461662144422960
  0.5075591409668124  0.3334093041498293  0.5987698901324043
  0.2636154377200495  0.8126151108743733  0.2979158544792757
  0.6055228405397252  0.4040922321795301  0.7327332239608144
  0.5569975993903666  0.3700059625703770  0.6642395369536380
  0.2726445994196625  0.9049786794954777  0.3904514572866778
  0.2691688963104278  0.8746180492594752  0.2822516282537280
  0.6838529378052743  0.3706199234156003  0.8765012846841312
  0.7125436873876100  0.4344331629009699  0.8172768119907126
  0.8238436830198925  0.0456992135227766  0.1639271649633746
  0.6607428041312712  0.4647200539534432  0.9616767801576619
  0.6452262295343208  0.3831349398467042  0.3318088997563667
  0.1428585441152083  0.6112338597722045  0.1449331152500473
  0.7073982968537007  0.7318200073458450  0.6796187677091956
  0.7316798724308099  0.8020046907227092  0.5637932472396765
  0.4370958240193921  0.3839287735986739  0.6227586176432744
  0.6058134552111718  0.6903120338049559  0.6581335657601092
  0.5816788528802933  0.7973446024802002  0.4610316926811819
  0.1428871459351930  0.1172005187810268  0.6819097092665481
  0.4451836199196855  0.1144808555119671  0.8953125738489348
  0.2652716288937655  0.8418953531589711  0.1730756892528174
  0.2353771546132921  0.5466803884641938  0.9128214783042983
  0.5809968176195824  0.0607904931783992  0.8916998662694243
  0.2153043837690086  0.8559770439793547  0.2051972801658957
  0.2577319058878724  0.7638521438473349  0.0211364004310998
  0.4603669003757274  0.5099165250813144  0.7777010215725809
  0.2024595164261644  0.1107280146867625  0.7044649588226185
  0.2027388499120558  0.0875242329178643  0.4501515927313323
  0.6955323370884390  0.0113437528582189  0.8294686020360427
  0.5552139118180432  0.5032452971972319  0.0311927455063771
  0.4284106320390251  0.7955936338326072  0.5256538824038771
  0.4909929508503826  0.8259032297395418  0.9861329580097066
  0.5830230994620414  0.7633973020882587  0.5822285651233674
  0.6253327248579224  0.8002294246943898  0.6371508564491082
  0.4366922296512742  0.7991494029661254  0.9776389748315855
  0.3634294331042909  0.7529743641877498  0.1220940836633822
  0.6222959944522459  0.8473559973445447  0.6830067021200532
  0.6479828643151950  0.7061007772734138  0.7759841216029414
  0.7413223914892207  0.2931948905563695  0.2842938977770106
  0.4197853423582333  0.7971906346543463  0.2968535897952095
  0.4146111159981924  0.3723199071121429  0.9586755241419427
  0.8069329055253521  0.6725409253640350  0.5293679122405293
  0.3668389396882921  0.5703084931817384  0.5756611731478162
  0.7413182325436976  0.9108168573632248  0.7688691890289721
  0.6642368978655075  0.8493472128059004  0.8668118415191148
  0.6613464481524958  0.9772135350882682  0.7291052334759892
  0.4795170752672633  0.8560517262353757  0.4136055312315581
  0.2440729491787038  0.1940343340167791  0.8138022098146093
  0.3525661915424574  0.1935073757716877  0.7942513426654003
  0.5345030622593808  0.8731751395468998  0.4835264816968868
  0.6369157342714379  0.8575877067391978  0.3499649676585658
  0.9955195582709345  0.1547440699568369  0.3611501739383994
  0.3529943693910396  0.3717643819875725  0.9956298719088807
  0.2093499475206921  0.9655297930075664  0.6416884111549942
  0.9975797527753316  0.2016044956606982  0.4020186285436019
  0.1401400766362482  1.0157813477242303  0.6631061878950398
  0.2138916514738652  0.0992621653096784  0.7667758931984946
  0.1931188194210872  0.1537861875448057  0.7484469931765760
  0.8968394904865377  0.3094063168612515  0.3944274975747148
  0.2172768715634543  0.1317986214465672  0.8727254448090630
  0.3039631009934609  0.1644205730425298  0.9497539101070063
  0.3040552531066026  0.1867819342697311  0.8350405601371481
  0.2363014317622115  0.0424350138468642  0.7836671754417587
  0.5192640668963322  0.8863718716997626  0.7028667854696827
  0.4079259952361474  0.3196126534974071  0.6810995320952309
  0.5768471685366199  0.5559355473830148  0.5290015556482315
  0.9858128495387831  0.9641196015553829  0.6782074195632273
  0.0215769350192816  0.8981357374983246  0.7594099892139228
  0.4752214973294702  0.7958046348292966  0.4301426171408768
  0.7006122007241203  0.7404630618434528  0.6216184276658615
  0.8026661889990246  0.7709642085724181  0.6073443945776850
  0.5768123252735869  0.7665197457239880  0.3550832601584777
  0.6930852155370784  0.8467840905596353  0.5466979512388472
  0.2155463387201955  0.8440387150117349  0.5002795967341951
  0.7734392595503650  0.9211696112684543  0.6719237081192124
  0.3823494452556891  0.9491513129758998  0.4711487237037522
  0.8852873996844081  0.1047219158238614  0.8190820357652830
  0.4548057709843206  0.1311762754058404  0.5554702463115699
  0.9617141284978378  0.9823318034461649  0.8917726457957377
  0.9744364823884617  0.0043309875159188  0.2993477193940847
  0.0293584122859325  1.0060028247707014  0.9622677045467789
  0.9266107283095569  0.0665983273352801  0.3727962513040520
  0.8804537845458384  0.0937524350389147  0.3433761924718139
  0.6607953424081989  0.6444381056434738  0.5742600585106747
  0.8909851031025821  0.2019652067423253  0.3656311978305190
  0.8356658761754161  0.1719536010702456  0.3565976259550541
  0.6374856009246097  0.0180128931563692  0.8067249276314054
  0.8843281318115487  0.9183169967538555  0.6508153080478714
  0.5126332868926121  0.1309022854704146  0.9695536905668992
  0.2804848407589379  0.2123321829482313  0.7120487696885287
  0.7662416752713667  0.7191810045392109  0.6991682962708430
  0.8835254502223793  0.8390848317229171  0.8341687146349717
  0.6999997988851144  0.3990239186638461  0.4041741660272038
  0.5617066606629967  0.5691317660890221  0.4692226415046146
  0.7817274852972016  0.7562675319681310  0.0271663696217799
  0.5836351186267440  0.3100078191519798  0.5144873096996422
  0.4077225879919100  0.2490245572621862  0.5270461248667245
  0.4169356319576053  0.0079479187576785  0.6424647317029866
  0.4901659810505728  0.0614898964071169  0.6395044257540339
  0.3950832678408451  0.4102537762514545  0.0016784208468813
  0.4913444473876439  0.3448360515229714  0.0543771333060237
  0.5146567805954614  0.0334186836326269  0.7652754719376190
  0.6004396420590089  0.4108315947101658  0.0710336170025811
  0.5047844015339770  0.0779521840710725  0.8102704181377000
  0.3919638797818215  0.3420236742083435  0.0179707348334718
  0.4408887156117078  0.3757957801330827  0.0313157386550086
  0.3487818922315622  0.5500252318056530  0.2338222900470176
  0.6082181477726165  0.0121751458782981  0.9741931169709749
  0.5670620044327958  0.1527351047442236  0.9796154726392216
  0.3975241940622669  0.5024434567766762  0.0942982587451765
  0.5132031607396594  0.9655112725046258  0.8532415552403010
  0.7542516696241203  0.7646531003772689  0.7396691061063480
  0.5354747696999403  0.9097830748193499  0.8681379477942734
  0.7648308610264659  0.5432635822840557  0.4317935683756608
  0.7121534314513869  0.5232913635837997  0.3625302317685483
  0.6723615963053631  0.2324005981647838  0.7816220110501423
  0.4982731026349537  1.0097890488143160  0.9356682812124778
  0.0964180564010184  0.0867782198184987  0.4828234136285944
  0.9662973346999615  0.9798536992089198  0.4269744335065948
  0.9326098583036208  0.9218130449627999  0.6100906056085079
  0.0347814789214414  1.0315295377295879  0.6052171682213694
  0.9095839563489790  0.9358869378045473  0.4820136655138125
  1.0181090089462157  0.9809450396861225  0.5691970386516763
  0.9052588279976633  0.8722891092320243  0.5013369269698296
  0.9063679221322737  0.8131591346736533  0.6325850447314774
  0.0563562005966911  0.9149841597665501  0.6583960524461939
  0.5407569226633928  0.0688663317144905  0.5972361337850786
  1.0083546066221176  0.8635375662433273  0.5921411596634268
  0.5830730936751393  0.2038818222319715  0.9269181037116522
  0.5214325832285690  0.2162513477390097  0.0612781148054333
  0.4763123115350000  0.3668421663670142  0.9795719774306415
  0.4129363305708210  0.0243845607936359  0.5771579993945700
  0.4816576609354613  0.1840012479246495  0.5103818203494299
  0.3501084892188191  0.1295325850947081  0.5804513628695787
  0.2949456299840722  0.5003738824489226  0.0576505410526966
  0.5198164874146511  0.1539117863901566  0.6888862707512688
  0.9341905514666352  0.0258855478256048  0.6267510720419422
  0.3506491539263025  0.5795876755802933  0.1102610476029043
  0.6090891365974040  0.1366266722920721  0.4853331249288336
  0.5791319705607441  0.1146262736127824  0.5986787967343171
  0.5483036619715360  0.2477376170325961  0.7388400405840474
  0.7087233340561906  0.2802544906329526  0.7882573448412703
  0.2997043176289800  0.5657632530207566  0.0428493825557722
  0.1933794699510031  0.5470248159486066  0.0684838953829778
  0.1495625738483850  0.6863053018901134  0.0644904812873550
  0.8823636584626215  0.5544515062398884  0.9453601110058937
  0.1067186177593241  0.8091283377871710  0.1285916024151548
  0.4710870525947230  0.0711093394617641  0.5732974296736857
  0.1542093380204763  0.8100127317220200  0.0361045276588901
  0.0328913916293737  0.0322920871386537  0.0699894983394294
  0.5014735201880545  0.0579296916496650  0.5305440220346016
  0.5292538036126460  0.1094190925865178  0.6411503295280220
  0.6097961669105648  0.0476375615158183  0.6833752840145568
  0.5813610755737516  0.1463838656464234  0.7097925886397283
  0.6118444406262868  0.0741326764702614  0.9572265745289680
  0.7684056630566876  0.0295794114403314  0.0925610582361130
  0.5836687949994718  0.1783379825226117  0.8170301938846911
  0.5722384489909685  0.1830449192632192  0.0864010165621114
  0.7755605877017920  0.1229184596604715  0.9470242475097663
  0.6280960450587076  0.2290396154889280  0.0384073622965429
  0.5291551478394432  0.2163135464818188  0.5208254104363177
  0.5983377637361582  0.2535320693645096  0.6991275640299460
  0.3866008092803686  0.3058621351519908  0.5072149938976239
  0.4335223799811897  0.3946911105876386  0.4361493546115538
  0.9816119832722133  0.4843293885398879  0.0118461592847353
  0.3096168725835453  0.1825454925257497  0.1166360370557819
  0.1296542434092792 -0.0100819421557062  0.2994211845894145
  0.8202577744649223  0.0150858682652180  0.0545422460903484
  0.6134183925605632  0.4979820154569252  0.5593009773340148
  0.6842759040808206  0.4713193560570231  0.6340649224037627
  0.7913916220012978  0.6119920871525898  0.6749097085949396
  0.6756125368490034  0.1370795167216191  0.0787309679601899
  0.7575162640114135  0.5847112057983251  0.8385711528659300
  0.8158445847681352  0.5776032849846259  0.8596581275118023
  0.6308284689850526  0.2298857729605357  0.2649747472425412
  0.9300086642756030  0.8789036475192947  0.9017095625082134
  0.4894523719722205  0.3967982110805926  0.3328780132359344
  0.5951481639921854  0.3820729565340255  0.1999817382036067
  0.5555659346389802  0.3379018744012905  0.5534741550763268
  0.5989383111094201  0.3968116044687012  0.1369471156922204
  0.5078698222790996  0.5812607691174719  0.2747615569367595
  0.6150036799017506  0.3919866296447798  0.7921096294542266
  0.7949886533740651  0.4621467874134997  0.6180982509179441
  0.3999163083719767  0.5358996472900240  0.1986306838873785
  0.7038179735801315  0.4458332538927731  0.7565004694862684
  0.4117725890580476  0.6733706155915680  0.3283992515994179
  0.7013303685612682  0.4800259291760877  0.8608928147970180
  0.7309082960376614  0.5410935801435659  0.8008257404979594
  0.9073538687260084  0.7860947094511275  0.8431895718244942
  0.8536910985116615  0.7995284781449995  0.7424986611872708
  0.7508181418525023  0.5165373895621971  0.9240783052596035
  0.8213255501955093  0.4973567332964697  0.0088550875337915
  0.8424345889905371  0.6715576456162415  0.9586233853060462
  0.8772861118789143  0.7271160886127342  0.8999035576314159
  0.1558666077532463  0.7784760891468205  0.1554046450958151
  0.2104575830481634  0.7961354485975584  0.2253566027282430
  0.8828244424660145  0.6886418601514535  0.7968555935282119
 -0.0004872916309336  0.8093835834734967  0.0943781951963395
  0.9102826909914303  0.7679336201340380  0.5916640745452523
  0.7655596305976772  0.6837191122977436  0.5955819322372073
  0.1084694239467432  0.8406061272293408  0.2326026131475250
  0.1218095054935676  0.9158913514338590  0.1495211058151128
  0.1268739599332392  0.9594571755845783  0.1906821238085998
  0.8559192116289521  0.8084110421964075  0.6729996141468888
  0.9181325770345572  0.8531739882628597  0.7358581321276596
  0.7182154023375507  0.0596241122956602  0.0611594069891016
  0.7135360376531193  0.0011609105082847  0.0800859392475228
  0.9703431898119111  0.9244758809076569  0.9075158842347875
  0.6550153476713522  0.6478487979774933  0.5114445216345317
  0.7076545740436783  0.6523345411370661  0.5276704673507023
  0.6343071838889054  0.2746393816218831  0.0790388321293974
  0.4918983917587827  0.3818676603460781  0.1652884151659398
  0.3577290831235688  0.6584218443739249  0.2598074366613440
  0.4684953557422207  0.7210925927966393  0.2771627097101251
  0.4948989981291168  0.4274212525930777  0.2069842397470591
  0.5503399694220100  0.5668379625890620  0.7387869400039097
  0.0251897828893050  0.7672255549017488  0.8938137363220174
  0.0412805250466987  0.8729959342383153  0.8842398805173401
  0.6162117990627078  0.5373525170904410  0.4988680349665955
  0.4514783679705946  0.5197498362263197  0.1627015166435358
  0.7501973583030660  0.5828044731393914  0.5801876157320828
  0.2433812026347073  0.5494067621142179  0.1983132114226462
  0.3548800196289784  0.6126769496396985  0.2171228586993597
  0.8387048893563184  0.6473410106614196  0.7311016962690794
  0.3591997442913012  0.6733753885736067  0.1991966416366051
  0.2568997481107644  0.7187754037062702  0.2082179387517074
  0.8090138797059263  0.7416569605621214  0.8089727653091144
  0.8326678120388711  0.4184397982284280  0.8605974402662120
  0.4363387121482141  0.3529300924159591  0.5114023892564118
  0.5862538469361324  0.4308005090546843  0.6111012372274405
  0.8391477000084810  0.2139215169089201  0.1726091023550139
  0.2797409751348691  0.3446262481388366  0.5756284575867477
  0.3385923675611524  0.3388876246271449  0.5965926019849422
  0.3264053559623051  0.3833439510579632  0.6408725293748175
  0.4243796815392508  0.4285109983590856  0.6697854620766932
  0.8033095420616408  0.3842641180617276  0.2740580015372159
  0.3918129315175464  0.5289908419053326  0.6950995314197738
  0.7624409428193482  0.4734554174514131  0.2249250703793166
  0.6087354941788186  0.5587003034727381  0.7595174880831151
  0.9356013705471210  0.7629825181201147  0.9660772630735220
  0.3471642830534842  0.3262179095666823  0.6594145310870472
  0.6631882412402896  0.5516765335528181  0.3360371091193519
  0.5358085714998648  0.9043568510983571  0.3596515086292418
  0.4053603000205960  0.5361822979640581  0.9184942141690704
  0.4938604349205652  0.4064532453473749  0.7505151542073351
  0.5352815239620849  0.5256638059060755  0.9629723475668932
  0.9903529222142186  0.1235478759241735  0.2561518111998393
  0.5681587014802661  0.6580167009465300  0.3283974840515885
  0.9429623579818792  0.1854256905737147  0.3320617046572005
  0.3839450696220738  0.4084332264612744  0.7701689441179425
  0.7885604720496312  0.2476271265359119  0.9272700082851010
  0.4333429561760051  0.9502392786172891  0.3713124830016900
  0.8936714064865693  0.2297360879988418  0.2445404621643671
  0.4422461518703160  0.4355614998180515  0.8964321545043235
  0.7148812589105255  0.5356091800608911  0.3021879590827875
  0.5510260701276094  0.4664567121105794  0.9809135836291141
  0.6063785240875159  0.5736769055886792  0.9604932509510276
  0.1402155594760205  0.2817951902943191  0.6542721848199794
  0.6131773076674238  0.5811005319253826  0.3103866011252608
  0.5864922701994939  0.6332291679841955  0.9415956301641951
  0.6192623210531298  0.6437631407596949  0.2927476791626200
  0.9290833832053553  0.0451355195028413  0.2010618062352280
  0.7039139286431970  0.4289461091276702  0.2774693000685972
  0.2463900782726644  0.0309972061414681  0.8485503495011543
  0.9531441789444056  0.3255953303839635  0.4671212245183757
  0.1021870570819247  0.1548029556047945  0.4000926492939398
  0.6082623443507947  0.5204371053214267  0.3277810021117027
  0.1365912154148052  0.0354794648713072  0.3432079946824925
  0.5751664577057179  0.6089487923007247  0.7771188930007906
  0.5363091535033122  0.3679249526760671  0.3591426364787214
  0.6239704785485378  0.6467660062581606  0.8401683286631658
  0.4846335761022012  0.3825340047062967  0.3980062741488593
  0.5752243399653088  0.7609805924772327  0.7990881557076537
  0.4811542563986193  0.3058574276492021  0.4773887135906494
  0.6690992266249506  0.6871886427349641  0.8969794014742397
  0.1175056719347758  0.3517643893320597  0.2842536443251895
  0.6498702936868922  0.6248475832078761  0.9654616478992020
  0.2944055086347644  0.5163408215867233  0.4517713817388575
  0.3754606601292451  0.8918983514241993  0.2580235604076979
  0.0752922017826405  0.4423355512145934  0.2362571590098362
  0.6481448187378849  0.3984185329034114  0.2680581621742024
  0.2031256355491595  0.6874384288574464  0.4266173501623036
  0.3544648522301012  0.5924355260537053  0.5110293820950597
  0.6589835324899943  0.0736445120331395  0.4018652076295842
  0.4331422825017984  0.5143701193782133  0.5440191205195783
  0.3600443599137377  0.1350140176779811  0.2028298058275439
  0.6993770354435001  0.3500603865982024  0.1289682227629580
  0.8075894888178865  0.4311181577722770  0.3179567455308158
  0.5513770793733538  0.0570324266806176  0.4309165703577664
  0.7585786018422772  0.4450744677137158  0.3499822742692345
  0.8192083223555564  0.6242508844384556  0.4909431174330707
  0.7126104749930394  0.0903473153440411  0.4732713135221754
  0.6447275290364621  0.9356141325480242  0.5005106461465446
  0.4505786342605296  0.9811262084629739  0.1607977612249519
  0.7419038122053646  0.8370872366478080  0.6690990653449879
  0.5761071813829071  0.2176398308840575  0.4237784200075497
  0.8759728802012307  0.5597593961473613  0.6141336303095526
  0.0327229141054034  0.5348655895395721  0.1879902169816699
  0.4355019848554846  0.8423478905081642  0.5739383185679728
  0.5271672524268665  0.1686115597245119  0.4770912557691290
  0.9508543658372385  0.2609833374649285  0.4814842570835199
  0.4885849693589541  0.2877200836659607  0.8248248456598907
  0.8504510195634102  0.3740713754899821  0.4737805157580300
  0.2832786550314642  0.4115990617780532  0.2019183312895268
  0.5105628914608378  0.6337193533748038  0.6962249931808624
  0.5260200861164976  0.2298658355675967  0.4596472292082811
  0.5342384693478718  0.5921971912440809  0.8785896299946591
  0.3815081850786366  0.3805414471914923  0.3618721412767942
  0.8422652055638435  0.2475563655794759  0.2777444330116231
  0.0455417110420705  0.7191084495861854  0.3640250367725119
  0.2450846967700123  0.0779693536901256  0.9527407194952625
  0.2827437435299130  0.4288295942282190  0.3688436860123643
  0.8105422828921817  0.4626827139540138  0.4272348304308267
  0.8462083359254226  0.3279270632093035  0.4293420626067295
  0.4266285432946520  0.3277141481315742  0.9112763086250737
  0.2589744692509102  0.1823230837502515  0.2132296715592447
  0.2058576715362465  0.1846691119742645  0.0792131376376086
  0.3050309770859379  0.1232204692402985  0.1309946426394176
  0.2546822036615255  0.1546013672237069  0.1050383633768737
  0.2870664122252440  0.9550133814835277  0.1215387074071684
  0.3507785115157638  0.0451239422512936  0.1114294886441564
  0.2423497806567090  0.2233465394307597  0.9158365004373745
  0.0296056985998280  0.4871328456603995  0.1450055001153987
  0.1637418268507037  0.2892602640619733  0.2066446782352930
  0.2399659233780463  0.2617295383548385  0.9621043710747365
  0.0249428851601203  0.3918146353681133  0.0533216506317578
  0.2688314488412839  0.2891351485148254  0.2416527327411419
  0.1172427781391396  0.3347922297497392  0.1189483888899903
  0.3372889436924987  0.4465668383233910  0.4317793390721897
  0.1805007995353685  0.4426511742862997  0.2704308034597124
  0.3682481183512011  0.2108448094507020  0.3542365954303833
  0.3235967644020474  0.3240314268323913  0.4790118165737985
  0.5153363062064226  0.0973185313261073  0.3305059394871890
  0.2261871377497745  0.9811921308023591  0.4085688144660912
  0.5743551848881677  0.1863034026948744  0.3168119373536687
  0.5270618172745101  0.2604266627494917  0.3351246307528565
  0.0495392386184900  0.1854811152084069  0.3722127643682812
  0.2570959792085070  0.1725095036970596  0.0393940532339073
  0.7686228895107576  0.5544152048588166  0.3716585235962679
  0.2935122757184461  0.3847513122481497  0.9105293569190034
  0.5394694262721743  0.9323755297644410  0.4682467940151424
  0.1261044327093988  0.1367949295608993  0.5431886750957154
  0.7864553365409952  0.2027941438703601  0.3297642304591779
  0.7670625798078582  0.7780307044738800  0.9599771319265108
  0.5992408852436851  0.4275880850013866  0.2413310132895209
  0.4525026776494168  0.5059807958562392  0.4577189306601908
  0.6117302663784935  0.5509888198455153  0.2039110079060870
  0.6615999201387076  0.5205096552583939  0.2302986718863881
  0.6113725881751435  0.6575235694535343  0.7777253316458540
  0.6603230398290305  0.6968004558707421  0.8366741648419497
  0.6109260366746696  0.6930553521553722  0.8787341597338998
  0.5218246370102951  0.7512864935318735  0.2866256532382138
  0.4753844217649046  0.8123757650401489  0.3694803088088006
  0.0128453476059803  0.4109287662554852  0.4559539698096027
  0.0239201034715740  0.9589613631641630  0.1544103118839305
  0.6838741446932405  0.7551509461283087  0.7753748802388759
  0.8453688977083368  0.2954640143119470  0.3232661910346457
  0.1944378027893918  0.0483396868711436  0.9446670860314972
  0.7211832171589809  0.6299795060991301  0.3875770597572957
  0.6288523378584612  1.0063009861691412  0.6443109240481374
  0.6817772475926630  0.6827340795992445  0.4683186168548346
  0.3792122363441569  0.8716718842711204  0.5502320391327963
  0.9080441228413155  0.4179188949740383  0.4222628776554402
  0.8037191736658836  0.8052510278998913  0.7122877946472028
  0.2875156361563338  0.4745612860305873  0.4088102394888029
  0.1809756203501701  0.1357340671969408  0.5805335733493011
  0.2908390918523733  0.0436284024588723  0.5297449505728735
  0.3486617241123250  0.5677394722428377  0.3983733984241731
  0.2702160755532436  0.8045462752242114  0.0604271439763922
  0.4568599597358060  0.3576208875706006  0.7468843235049299
  0.2264026466035730  0.8348664028582483  0.0370675568971335
  0.5157193586705391  0.3504806686907790  0.7673615409492860
  0.1784211478105371  0.9104178102699600  0.0462554390816256
  0.6245791117828938  0.3791612397320941  0.8554612714093408
  0.5528786055167673  0.4320085336037285  0.8770543234213051
  0.1677766935108421  0.8845600947190375  0.1764203557304538
  0.2308627080770987  0.9273719996290292  0.1182139342347202
  0.3100589805406909  0.0778379218638135  0.5766686405843213
  0.7256067620084340  0.1207198996352447  0.0450379935496461
  0.3130629789331275  0.1109705190622212  0.6845388616642706
  0.3389157042157929  0.1735373805021030  0.6279046319697473
  0.4003296405314509  0.1989947617483606  0.7552075994699314
  0.3568568247244818  0.3459404839219931  0.8272550327935602
  0.8126277085930981  0.3756252193687176  0.0401392481133816
  0.5148271650946619  0.3831701207407802  0.8747475585346048
  0.5842422375242550  0.3609979526189422  0.9586083047353088
  0.5128505922719477  0.4189047040961425  0.9800693946572626
  0.5281338435610990  0.2588827553085816  0.1079933151503444
  0.4986975812276315  0.4558250014956328  0.0835273541572545
  0.2977244167908683  0.0208954421352990  0.5971990304842347
  0.0759297939993405  0.9108304654698615  0.0174020744048684
  0.5547956036303850  0.4876809958346031  0.0919073979615779
  0.4050804195228097  0.5966989459081486  0.1810989518698690
  0.3044641109254717  0.2409382275666133  0.5478577067178194
  0.4100202146176126  0.6586416694852062  0.1622240299636658
  0.3553018643194080  0.6448622426181743  0.0942519632208214
  0.7793127584168170  0.6433820835438783  1.0038680877598019
  0.5735401082273153  0.4780956123366383  0.6559634051093326
  0.4682773475059694  0.1647222321548342  0.3419389366966042
  0.6211894559587763  0.5132554735234983  0.7163045515138081
  0.5612823720549943  0.5225696710412571  0.6966038606271215
  0.6310678813455409  0.4997789716537230  0.7767049008188764
  0.3038446980822637  0.6292706776498413  0.0237685933814652
  0.2544236603408198  0.6872369582841638  0.1022046134679270
  0.6792955717057589  0.5369998380596360  0.8427204522308359
  0.6469198374833206  0.5887531474586313  0.8579890126601584
  0.6355844325913790  0.6346203201503582  0.9020391190088939
  0.0451339217214150  0.6392510833103998  0.9906002968064206
  0.7201788817654062  0.5509675968626733  0.0120215027447894
  0.6954875713089529  0.6287821468365540  0.9222751868196426
  0.7202991176051498  0.6086432825946734  0.9935840970653217
  0.1084937206418846  0.8240453721688001  0.0701332387546330
  0.5584599025049476  0.5496917665731056  0.0726679592669314
  0.4858687848477804  0.1662164868623780  0.8991587073941806
  0.3889996982492352  0.3467475399807101  0.5550140194701590
  0.3149282121607804  0.1753101390131220  0.8973765498346895
  0.8394677124639326  0.9524975476252361  0.7966568797307511
  0.5429151735156372  0.4448758388501839  0.8162068091122620
  0.5912378700897000  0.4828141772382284  0.8789917056707345
  0.4382393990516589  0.5872194438789153  0.9648176955453092
  0.6907382362159178  0.5248993694421499  0.9025581716553016
  0.6295544696824706  0.5322261078701558  0.8823307629228910
  0.3479547908558172  0.5327088621089988  0.0681155776825533
  0.7682492371181828  0.4577893181651697  0.9439188746003219
  0.2515162963679458  0.6408721639662044  0.0582673249130602
  0.3462661333758049  0.2929543022820378  0.5520003179294406
  0.5566522606992795  0.6869464901604858  0.6994522840214291
  0.4090911942972659  0.6288919167245165  0.0572287349312136
  0.3739618049423125  0.1366140080920931  0.8118579263174146
  0.6377968410646931  0.8135508756556296  0.5351264500888031
  0.6892643118626710  0.2892436543672368  0.1507115111728793
  0.6840707966618331  0.8397596022135860  0.7052191342281582
  0.6363450433657867  0.7564185438022979  0.5403975869139483
  0.4792249643800592  0.8210100998843731  0.5401633292169675
  0.5469528768041797  0.3778561321207140  0.0636056326152930
  0.6417018159380758  0.8708592642666942  0.7395706941745497
  0.7861313378449659  0.9128286453968325  0.7331582553234330
  0.5356286364863503  0.4268829288168651  0.6511251351338665
  0.4494751188398274  0.4862499076720409  0.0589126757187801
  0.9110291944413240  0.9152158438122047  0.0735752368767437
  0.4654012174441065  0.7062466052188664  0.1110749236948815
  0.5054410376114836  0.5354560135670311  0.2315580734045786
  0.5600795317735728  0.5658264957764899  0.2393893667196630
  0.4651660520523903  0.6897672441402199  0.1706000327702625
  0.3668386479054380  0.7833934361912379  0.2268809801777066
  0.3748061533887182  0.8759775397218026  0.3171219633846706
  0.7513492042009535  0.8283715071484145  0.7300287765172923
  0.6012255039172092  0.8220122143846275  0.7378436697998464
  0.3257432226580567  0.9243456859219524  0.2311598265268766
  0.7625182624394390  0.8917258182419621  0.8970712657005454
  0.7667911861126510  0.8835138724265300  0.9665281111469141
  0.2469684299328719  0.0437565081405912  0.3087330401129756
  0.8452293696251796  0.8258511519126921  0.9290026593929883