Cr H  Ni
 1.0000000000000000
    38.7642358654787174    0.0000000000000000    0.0000000000000000
     0.0000000000000000   38.7642358654787174    0.0000000000000000
     0.0000000000000000    0.0000000000000000   38.7642358654787174
 Cr  H   Ni 
 1596 213 3725
Direct
  0.0235277376858019  0.8796523759024529  0.9981786474468172
  0.8418478901952193  0.6117294643108742  0.6287024105538913
  0.7042775940310870  0.1213205841015999  0.5797754038329789
  0.5359745999594027  0.3941585678268882  0.5368280798047150
  0.7216226597469079  0.5533740814725122  0.7402934462370871
  0.7651743785551843  0.4037477822643072  0.6727650682418844
  0.6571118323039001  0.3763963753605324  0.5788922074348042
  0.6845316483410322  0.4358455741795074  0.5274304167107309
  0.7463630055373506  0.4245340413457252  0.5492051029142607
  0.6395849100616831  0.4058531569080155  0.5111728667821828
  0.5720339153839166  0.2227526789653570  0.8619267293184659
  0.9946438076484875  0.8384950176904840  0.8165333810517458
  0.9462343689372437  0.6710269620274726  0.8801280735927749
  0.4680164845590667  0.6717354831999266  0.4613675746692231
  0.4586859014306308  0.5529168390585916  0.4951116143884211
  0.5003421973094216  0.5043561487617785  0.3539572824877196
  0.4981856944972104  0.5150458323676322  0.5150650929902164
  0.8667057574951863  0.7537291275042439  0.7010331842182586
  0.8254839564482742  0.5260644530290789  0.5516119004480680
  0.6014115397198492  0.4434215032859948  0.4054808171461343
  0.5371967205918220  0.3979599049995032  0.4623509408104061
  0.4957190053367355  0.1227356601957330  0.8537615795839171
  0.9227876040486018  0.7063183672774633  0.6960950754677738
  0.8617721036977610  0.6087935040915053  0.5250473271211067
  0.4797938694708078  0.0149361308963429  0.8705465473446824
  0.8029200026751665  0.9322608532588106  0.4420028548166733
  0.9177705860024623  0.0452738354495165  0.5035112962420365
  0.7235657836559607  0.1467614242696789  0.4487088601726891
  0.4302619184226694  0.9050727906438355  0.3269766457241152
  0.5606817104976936  0.5808305195923467  0.4074945435917878
  0.4161133101721940  0.7194723148462786  0.3730110641779228
  0.5106547476207161  0.1975115609973621  0.7338606635093585
  0.3671870154744226  0.7674853001000369  0.2889630151448523
  0.3115374388922810  0.7508954201358590  0.2183956490761012
  0.6788923366094852  0.3182830470965438  0.5471329957186198
  0.5073992570481073  0.3328380504152889  0.5991062833969486
  0.2640398016754501  0.8122382158308719  0.2988440327332305
  0.6058078480481819  0.4041848824702918  0.7334737373001261
  0.5574872594421226  0.3693620077532188  0.6655016172242955
  0.2738624690087652  0.9053710988483734  0.3902918992982153
  0.2695726443759677  0.8743924924872648  0.2826143015414414
  0.6837534881750977  0.3711807812507242  0.8765068907611784
  0.7128080602754148  0.4349980317659338  0.8166881893133905
  0.8237672642766165  0.0454760911074866  0.1644385551856063
  0.6608574524505578  0.4645309959462653  0.9613301167035471
  0.6443732590776298  0.3828987541384663  0.3292354313044086
  0.6310602119864822  0.2520403989145593  0.4327747902777220
  0.9553427783128818  0.6366677341513315  0.7779957521780618
  0.7470886296310010  0.8756246433443430  0.5572164995484198
  0.7967721595070025  0.8714829911825100  0.4611779910980455
  0.7288134005266304  0.7332920357409248  0.1883779514982080
  0.1677238295677279  0.7656892924003066  0.6116884881982269
  0.0130717499145338  0.8051586063285054  0.6158196572479084
  0.4721108517088288  0.6353284556924573  0.9626709586229938
  0.5065666642588696  0.0304270079163574  0.1085026101484506
  0.1334486768367756  0.8988684185120451  0.7436003855750408
  0.1432957841415556  0.0151869440349145  0.9359754104283594
  0.7994787802898700  0.9001282984090748  0.3355185482234852
  0.5452996362154591  0.8691770665315838  0.6011810639919386
  0.4291714794516953  0.8886056892858337  0.3875312081622061
  0.5316426379707998  0.8583783328088376  0.3146869488083455
  0.5394916019859209  0.9956584915333617  0.6822946229119302
  0.1245553008862873  0.5473860927056047  0.9317405551646503
  0.5774501165757343  0.7818703371525066  0.2946208534129169
  0.2024651623246767  0.7163594205472391  0.0772054610254195
  0.7488847544728832  0.9315386894782406  0.3058915954379850
  0.6740986233493804  0.6885115804399315  0.2395709622559100
  0.9032699550496410  0.9352341710748463  0.2554171295119047
  0.9674987745977734  0.5120690018385113  0.8880505290717156
  0.2006034084424365  0.1537597065238383  0.9740901495170092
  0.9460047327918938  0.7372763491447233  0.4952065073396565
  0.0870345437884534  0.0836530114700753  0.9514749801397175
  0.8190613412965860  0.0505866306957665  0.3995626239004392
  0.6734801532011738  0.1264536016665626  0.3757150432476552
  0.3992999977818684  0.1163249626169537  0.9351991019834900
  0.0608446066766198  0.1813450133300089  0.6398472268864543
  0.8838455637936948  0.0689479584303981  0.7129219238417885
  0.2925752614383594  0.5395114771454173  0.9367846969440994
  0.1811371572602767  0.5403326936322519  0.9511675358071272
  0.9540464587546214  0.2154107759644576  0.7664475219226755
  0.7762162396373612  0.1291774499954584  0.4124491540748305
  0.7034500767527982  0.0132128016916131  0.5512254740283994
  0.0907778708715257  0.5938240248785061  0.0768975450133500
  0.9050084036352700  0.4563407101000709  0.5946814904680381
  0.4658393145520692  0.1840539146760722  0.0530052659776006
  0.5114482945718025  0.1063849197387399  0.0303539236073952
  0.4340139016592344  0.3505444596952536  0.1577649079954701
  0.5325114189866853  0.2894820674445667  0.2109208677511742
  0.6958362364269349  0.9443045466828182  0.9157025477470697
  0.8815678155828642  0.2685833055987939  0.7903839311042791
  0.8979619414468715  0.3417403589890886  0.6717757901635897
  0.2404754202254409  0.4682833091792943  0.0512480717086802
  0.9175819144025052  0.9824251302512992  0.9311893643434126
  0.9665119327547295  0.0367254908139341  0.8626007269696617
  0.3117085490997843  0.2616552107309276  0.0410213125004843
  0.9241579891565529  0.9926132844721381  0.8537216522777441
  0.6925149887527168  0.9438537740583023  0.6346121152240128
  0.5628786592075391  0.6228413105550453  0.9912874852546577
  0.3374314185362106  0.9206387700726609  0.1447391366737916
  0.5783192058515514  0.5551235882670725  0.5288873972224926
  0.9869254022091627  0.9631444718362212  0.6750196795969655
  0.0210488694916329  0.9008569342693874  0.7590899290076252
  0.4752000683940489  0.7947396245260877  0.4307848407934720
  0.6763103319837067  0.8032574076686528  0.5981077422703371
  0.8014685078519246  0.7704958579692970  0.6086282465762941
  0.5768816225881848  0.7658374026738377  0.3552692225304792
  0.6928416338231105  0.8468348980035286  0.5474347324906318
  0.2157699386315536  0.8415172558028522  0.5012275492015474
  0.8363927687062264  0.9163027344145712  0.6922304146563719
  0.3830891485482598  0.9495034462137110  0.4711639797980362
  0.8854487826867951  0.1052495382236709  0.8191525410619397
  0.4550281077800227  0.1327475071723266  0.5548649345850322
  0.9628050027850505  0.9838447366564743  0.8938640248746951
  0.9747149612346953  0.0039802279711550  0.2993109025359194
  0.0289189768945295  1.0076851369150470  0.9615053439839594
  0.9268818663856769  0.0654785605934754  0.3732974287413622
  0.8803294038416432  0.0927488489044430  0.3435851186304721
  0.6600833299120179  0.6439604549767365  0.5737374668434070
  0.8905868611540743  0.2016057857374568  0.3661463769476435
  0.8353275579931875  0.1718262882576254  0.3574755984859053
  0.6375449596339129  0.0182330214410190  0.8061338840223810
  0.8838708420399817  0.9202024323372610  0.6514519197851790
  0.5132909841068535  0.1314761548741809  0.9707267350793325
  0.6834444452063537  0.7954041231718357  0.2688796070235754
  0.7658397864010082  0.7194570110800719  0.6986050091762070
  0.8834147477653316  0.8403813299673505  0.8339685096795253
  0.6993090014910235  0.3993913239536077  0.4004440322961617
  0.5624634978234159  0.5674674768627602  0.4689159014803895
  0.7829740543393701  0.7527483816453788  0.0271762180482394
  0.5815628987101756  0.3096644060354338  0.5136072729675635
  0.4106162204156076  0.2478002893302202  0.5269684794939836
  0.4179725055494810  0.0076494094592144  0.6417387329867597
  0.4928079517148792  0.0625325765294077  0.6407288386345878
  0.3964196987190167  0.4098027420351023  0.0004532470491657
  0.4925067228613555  0.3464500483634749  0.0540463558989517
  0.5150200486268915  0.0337207347926401  0.7649313741485136
  0.6006488416172867  0.4105025291198495  0.0684391476047471
  0.5051704163616952  0.0781283361950313  0.8101678015872120
  0.3906003572590427  0.3895060094622426  0.0636901435020223
  0.4373024185253745  0.3190901996495181  0.0531542727225599
  0.3481173965605735  0.5504062961556396  0.2340498427135082
  0.6093000066056394  0.0130803277020149  0.9745783472415288
  0.5680979775090511  0.1524594584783280  0.9788638774171500
  0.3976448382145412  0.5025008815450231  0.0953562683822489
  0.5136914118075409  0.9653953536601632  0.8531854947503904
  0.7515734404707944  0.7656531192727100  0.7400807150976074
  0.5354344011944269  0.9090740555090643  0.8687945743688407
  0.2792384777982772  0.7698875805412152  0.5953326270789748
  0.7123236574157477  0.5218650775563796  0.3609763590472942
  0.6734094317261785  0.2325777922841554  0.7825498053590446
  0.4984796966158592  1.0102020462802306  0.9351697372178484
  0.0903978364724855  0.0902298092658820  0.4836111611501737
  0.9717900440115523  0.0265112321006570  0.4676830167698861
  0.9368032932168980  0.9232726485388906  0.6085920656130090
  0.0385895051227921  1.0318865213565938  0.6029723341940627
  0.9106805910611548  0.9331699159183149  0.4823716261278362
  0.9607489601377515  0.9075258488251889  0.5142017746227935
  0.9049141572429035  0.8874553501973449  0.4382122400738925
  0.9061259060531401  0.8148362312114183  0.6331497591722024
  0.0565274280709341  0.9167566564650567  0.6583049617524170
  0.5495987056911065  0.0546286297861806  0.6602827541068927
  1.0089476672928834  0.8616737967585602  0.5943402449359204
  0.5817779264754150  0.2048212060933429  0.9252576434382499
  0.5209487821954142  0.2150370737919187  0.0605506665028431
  0.4710231777978167  0.2458392681822901  0.0394570398016106
  0.4555718313554068  0.9748208977451130  0.6026307803940681
  0.4815633014188044  0.1836656465882942  0.5103208059892654
  0.3509318283448108  0.1297121296910150  0.5806843099807347
  0.2948484034965059  0.5005522803900665  0.0584757664541159
  0.5209390387294460  0.1546959015553625  0.6886663998124807
  0.9374007711683252  0.0267762336824890  0.6282308766070868
  0.3499149233377491  0.5808248036997663  0.1097929198807011
  0.4054151176936177  0.5843316640120104  0.0167506969687899
  0.6008237694356454  0.0556794832588149  0.6196946530867722
  0.5489932876557539  0.2479064617228562  0.7389391817770096
  0.7094990214852720  0.2804524260939107  0.7886529369293112
  0.2998277513783274  0.5672400949210079  0.0436487023459726
  0.1929174724535868  0.5466355784223381  0.0696159215367388
  0.1492556015354180  0.6861841149618442  0.0657422580039802
  0.8801525560591895  0.5549860658239940  0.9462899765745951
  0.1581533961999741  0.7925405108817198  0.0951567519309942
  0.4689107790822290  0.0768499822450470  0.5703919364989575
  0.1549044084670043  0.8097439367512747  0.0374056272608600
  0.0872786220794973  0.0626709771396618  0.0799611371513711
  0.5020017721826476  0.0548562766549544  0.5316188654255677
  0.5304051364047789  0.1102782198379182  0.6413569513873445
  0.6101547873582807  0.0474525093107415  0.6836280509218478
  0.5825282805400291  0.1472189094592430  0.7093098243974937
  0.6129540736483157  0.0752249247537108  0.9575704659967618
  0.7645926531339405  0.9845654192999951  0.0475062752695406
  0.5844206067374788  0.1783561713022187  0.8167150220868061
  0.5719381417654926  0.1818339606465081  0.0862963225247996
  0.7763616618693697  0.1224404721339247  0.9471852974203490
  0.6283148799696195  0.2268582505423087  0.0385331497617025
  0.5278327703026930  0.2174515416652922  0.5203321378360423
  0.6216169656022085  0.1967005451943583  0.7138161560036310
  0.3565839291374017  0.6730520080602304  0.9727269246810769
  0.1046360403084175  0.7784962686957071  0.5870810985868383
  0.3311865530525213  0.9851840730887085  0.7902612252657395
  0.4969689698825990  0.9207871975688219  0.0793175450005878
  0.6366011124428270  0.2911285454577925  0.2465770503165581
  0.9294617562633452  0.8799201693828591  0.9020212030956500
  0.4888419724068384  0.3965271121913967  0.3314670630161490
  0.5953651115515819  0.3825534745513112  0.1992179143977333
  0.5557245151985555  0.3382507074878841  0.5540912433181365
  0.5992900417063510  0.3978656676941231  0.1339561043820812
  0.5070288540924137  0.5810631260608038  0.2742031296862523
  0.6153355410564266  0.3921606691777226  0.7927318067397824
  0.7945531208964703  0.4631443603620909  0.6156224936797764
  0.3959776766540877  0.4882746647955806  0.1541785401897292
  0.7040287359095079  0.4462916933322990  0.7563790919013530
  0.4112649554725508  0.6737259285713886  0.3295430543444693
  0.7017030315682927  0.4807365665834071  0.8600897633489356
  0.9070041899119993  0.7871840432036397  0.8430758096719262
  0.8540642387498436  0.8009248775668825  0.7412372728719987
  0.8779577276108068  0.5315535158838791  0.0169827660855812
  0.8403325703962575  0.6758855217609415  0.9573559802647126
  0.8763858589368122  0.7270924292790140  0.9001706135915613
  0.2071373645601272  0.7627460152443861  0.1207152075115258
  0.2097644058880979  0.7958740743431088  0.2262455588204079
  0.8830346387479677  0.6894697906823801  0.7968712030609917
  0.8160513367590745  0.5781132915670735  0.8598074548902658
 -0.0005885491359400  0.8087192639917127  0.0955935220326802
  0.9084388644127376  0.7697022229344305  0.5932238001570764
  0.3845090106874829  0.4090113698704664  0.7705175205427927
  0.7628969753726395  0.6845465024733084  0.5959165095094188
  0.1085056745564092  0.8403749908187652  0.2330471266934610
  0.1218715821024647  0.9157466203165168  0.1498319421000925
  0.1273844584994014  0.9588429315977302  0.1914746149192979
  0.8602871649377045  0.7623204147923794  0.6346110656236436
  0.9183529470746277  0.8539046743347334  0.7358280697639278
  0.7199642024500277  0.0586856271125895  0.0612974990826854
  0.7136444026370116 -0.0001965145833964  0.0810987445298523
  0.9703136602997925  0.9254884799147325  0.9074999564752344
  0.6533720150854263  0.6450705848878262  0.5108801941081967
  0.7052763285316910  0.6552617975200027  0.5283678472905768
  0.6344504313344246  0.2739066426981148  0.0792527594054099
  0.4921301499768384  0.3817037702764638  0.1645180162367298
  0.7510030447899270  0.5176623281403125  0.9244470979357613
  0.3575207972277597  0.6589032042534898  0.2603300927324084
  0.4952428566183917  0.4267105976686815  0.2062447132581248
  0.5505506422267590  0.5665449066951274  0.7387005716422141
  0.6662027914761985  0.5962259115005162  0.3784727119970807
  0.4053865297141426  0.5356058560150919  0.9194724475791574
  0.5340626455944534  0.5243857704248176  0.9639858964749096
  0.5670252140447080  0.6578004030046811  0.3281059005622273
  0.4341176048158236  0.9498779349844108  0.3712783699790529
  0.4685221955534509  0.7208575578079918  0.2769905778346508
  0.4426922244448760  0.4352209938586622  0.8968227817416263
  0.6004571195725953  0.4714414032859404  0.9395238086238759
  0.3583451493710075  0.6737138046130287  0.1990477766135245
  0.2560215119226895  0.7186359267307819  0.2087847834784197
  0.0259394127083705  0.7678504364660252  0.8927386921726169
  0.0428029621421864  0.8739468641981546  0.8848477775719503
  0.6165797037345830  0.5347824752694027  0.4980323924049510
  0.4518259855201047  0.5197237574085740  0.1619813550979138
  0.7488777629370826  0.5816664398340304  0.5796802178467663
  0.2430121478335606  0.5493409731315793  0.1990357596801388
  0.3542610373107862  0.6137047224656946  0.2170166329850916
  0.8387962507436556  0.6482852592502922  0.7315050121579105
  0.8088607004998828  0.7427775200650980  0.8084362966677358
  0.8033878638921153  0.3838890045722164  0.2722441321405573
  0.3921902665994128  0.5290990526320851  0.6954592869206330
  0.8333226729672275  0.4189692032002018  0.8603183637493684
  0.4361484725679339  0.3521246411876099  0.5118919936577987
  0.5853243974406130  0.4309683607233263  0.6122061439616739
  0.8390684331745996  0.2131259339707338  0.1730368968493893
  0.2795346024747388  0.3442136372779178  0.5759184980066051
  0.3390337758409293  0.3387022439323566  0.5972546066722479
  0.3275747981176619  0.3826199298526262  0.6416801300732252
  0.4247653712400813  0.4285046439568533  0.6701349143290593
  0.7623027189532436  0.4736420612756740  0.2235090268734443
  0.6090308459571477  0.5588932783990520  0.7594484376730055
  0.9343666753629878  0.7619809686187101  0.9670263037618010
  0.9395685071383576  0.1366185937653487  0.2896945007718389
  0.1403204239549145  0.2835478939897584  0.6527086803604839
  0.7868511553139080  0.2446351196807221  0.9243874117104224
  0.5858504844634023  0.6324716822173696  0.9432396617597080
  0.8935946666881834  0.2292459652036196  0.2447326739005438
  0.9295728260582850  0.0438455893610868  0.2012871367196874
  0.7142883362329078  0.5355896773548463  0.3006880086437000
  0.7310928433998102  0.5416343316481930  0.8007095937875293
  0.6655549919709864  0.5664764751752984  0.9852788438348415
  0.1300866413337615 -0.0106270932174735  0.3004001910266121
  0.6123292518832453  0.5816653581471658  0.3090348674797623
  0.8149450511997952  0.9513958891806372  0.0765485894867023
  0.6187154714105830  0.6429365597579829  0.2922951405916627
  0.6135533546220598  0.4979211584357288  0.5584226479713311
  0.3475120854992628  0.3262436080061652  0.6597148794039279
  0.6838190816524432  0.4716626802719136  0.6345259892357547
  0.5360923987185390  0.9035759443197192  0.3595076269357885
  0.7905843911526719  0.6124183721083938  0.6747660103372491
  0.4942070693400377  0.4063731491316619  0.7510189614672924
  0.6736720014768162  0.1346598461931858  0.0807572839062774
  0.9897070230838207  0.1233662876577110  0.2566415187686438
  0.7575554197530050  0.5855657714615172  0.8385624640094994
  0.6550644547496878  0.4585082836382286  0.2479775989987832
  0.9549787665387270  0.8727735968407938  0.4006896349417206
  0.0686257730337615  0.0845257158553296  0.8892216680223698
  0.7262790612562566  0.1247529546512764  0.2775389303428636
  0.6681487909672287  0.6874557540231536  0.8968722267765478
  0.8378623872700361  0.1856126402937610  0.2977230673147357
  0.6486076675332839  0.6238644368202516  0.9662779812876511
  0.4166999474184361  0.0218302603091498  0.8495921603202804
  0.3754050690458561  0.8917785054113826  0.2578078296147602
  0.3571870076512085  0.0281314334038347  0.8290366198556551
  0.6480681947010581  0.3992160868850271  0.2672717620315441
  0.3701229617858831  0.2061451492599989  0.5226055201900941
  0.4085455769993584  0.6297505498238594  0.5141412769580703
  0.7276394127775908  0.1384852859498012  0.2151750879563394
  0.4355183104345184  0.5117128055291074  0.5444547359485230
  0.7447055961405004  0.3388406312189453  0.3251883271843084
  0.6996150289517022  0.3498197244879245  0.1286360324695075
  0.4479972352641552  0.1760269102430302  0.6056730009225939
  0.6073440898471968  0.5200240829325611  0.3266705423071114
  0.6520369250158358  0.4439005476731486  0.3094863253126509
  0.5756428816985744  0.6086308317591732  0.7769191628980393
  0.4172082530705729  0.2767407823830390  0.6364846671998128
  0.6243511582411412  0.6472777078649591  0.8402344068281760
  0.5213831233674268  0.7186762469757252  0.4098703340205423
  0.5754108327553564  0.7614612375111961  0.7987733201539277
  0.4903975562408728  0.9801882351452146  0.3792242911295890
  0.5390985861772363  0.9160650550074875  0.5302199564501966
  0.0598032992949641  0.5308330364173637  0.7493615008541157
  0.4351882001170066  0.8427283345747651  0.5730612840660043
  0.8266991382995864  0.7279355421203628  0.9390555563811180
  0.9453692350916856  0.2624559343882510  0.4825774842279082
  0.8249135929401641  0.7944614355169168  0.9814860847025364
  0.8483600220728971  0.3769825893631473  0.4720729924667436
  0.3853668282552332  0.7482488624807320  0.5800718648542647
  0.5107719982714718  0.6334844768469555  0.6959046188415293
  0.4337713107447566  0.9184690863802812  0.4943427071997557
  0.5349992676895690  0.5912767792757180  0.8784852500326176
  0.0267128441765187  0.0213095010116314  0.3715864547998140
  0.8423134647933590  0.2471278836090268  0.2782169666950255
  0.9652829117007146  0.1398533843729390  0.5380821094080928
  0.2450461948930503  0.0776181598258845  0.9528718072055554
  0.6526373556495927  0.5768182193143657  0.6597607648556127
  0.8160820962488147  0.6195959996445481  0.4911731761584375
  0.8886973228592802  0.1884527540788719  0.4262584492385065
  0.6451921209707320  0.9346147545511264  0.5006518664629667
  0.7122595889842539  0.5666158683690372  0.6795041109411500
  0.7430369012456968  0.8379419435620911  0.6703210598556274
  0.8949782226905164  0.2967332801972326  0.4546086903015030
  0.8747271174878446  0.5601936474372697  0.6138546412850929
  0.6315270325812961  0.6169666383857976  0.7364279218456213
  0.6470560753681307  0.9464933128804895  0.2074241356583416
  0.8443954303052305  0.8272453635913932  0.3173874343955412
  0.6718972039491405  0.6581046566262603  0.3618739249154023
  0.2856036025524706  0.0487486723579151  0.7441364320287467
  0.5516154511795875  0.9689777068456312  0.0295726328273528
  0.5730130251507007  0.7509450632736357  0.1884513549314206
  0.0878381872513915  0.3250841530269451  0.9609079870420651
  0.0411699550312978  0.2348547140469694  0.9577480184733203
  0.0972560791743420  0.3974941030110263  0.6187335734136751
  0.6794075069428852  0.1884912515563272  0.3548637931856223
  0.3188571620483428  0.8274441807812963  0.3698883944531374
  0.3790561785461461  0.9029718662546071  0.4247864018369061
  0.3996784894296569  0.2587484764572320  0.9601404227350512
  0.5907968004703879  0.3036782931050792  0.0528564862785407
  0.3267408899794023  0.9347778913085694  0.4005222204202259
  0.2774525196775088  0.9497315326005501  0.4366214442698510
  0.8257839407600844  0.0779706974401010  0.2714211711574843
  0.4944248242587317  0.0903298671804942  0.7476305004688798
  0.3848753053980909  0.0916115074791697  0.7676953526303638
  0.4839710743731922  0.1354936756511848  0.7913123473984038
  0.4741171604211421  0.1787806291831644  0.8358886888427652
  0.5630981492965456  0.0756384067697363  0.0570819959297996
  0.8335805756821497  0.1382098639287240  0.2529845676793389
  0.7434855279202608  0.2085785146115112  0.8728802730200214
  0.5173606132028810  0.1701646195307168  0.0169190428704560
  0.2561136282717071  0.3357745539642865  0.9096909778098329
  0.8287058760028365  0.6443074642581251  0.3657998793259253
  0.7755046189970420  0.5496926168535654  0.4878729605870600
  0.3954132164009698  0.9849976707427420  0.0298519133415344
  0.5620198051887771  0.9700955094309870  0.8104152490029958
  0.9916488277124803  0.6920092431964567  0.3531073251226283
  0.8187978022478591  0.5369488286594700  0.3397441072038720
  0.1456747457339522  0.6020765826815243  0.9156056978402990
  0.2235472807935108  0.7037293850224865  0.9177019564613201
  0.4864451917071875  0.8738956724776880  0.5822531680648789
  0.8668118892885185  0.4746430033523785  0.2626979677419556
  0.9065264019500414  0.3517829844741032  0.2072088528133663
  0.8943766514137836  0.7821429850153639  0.4059520221864463
  0.9034945910049139  0.3378451641791342  0.2688449931500885
  0.9540646020718826  0.3215206324080280  0.2373857732763288
  0.0549664336395516  0.2591462436472819  0.2926249197835075
  0.9623495844945560  0.9317044098312104  0.3840998374563395
  0.1092388072567907  0.1297242125149991  0.8958863227008114
  0.3350862702306602  0.8223583707123662  0.8279524862594942
  0.1235603443631656  0.6447282801830408  0.6953586842908159
  0.7396166700630440  0.8694236424987039  0.0915806314728046
  0.5833142407934994  0.8883353697740968  0.0925893269575890
  0.6389947636059771  0.9041166621879196  0.1633053544968948
  0.0678723636207508  0.3342405992812887  0.6771274003589718
  0.9121687214373910  0.3244587044221554  0.0289953131425603
  0.6517016920931027  0.9599986641499807  0.1400285327401976
  0.8013223770890352  0.8078758586452166  0.7136704022461056
  0.6380149007517605  0.6003366664806701  0.7969310044936242
  0.1809228445842675  0.1362178766265034  0.5811848253731322
  0.2914147938291972  0.0451325059672034  0.5277996579568470
  0.3483911017999630  0.5670987393302712  0.3991181134178680
  0.2693602143624592  0.8043200389308158  0.0607991177482313
  0.4570531518456151  0.3577118648635477  0.7472501516028102
  0.2253265086391738  0.8358263892616419  0.0387861237502500
  0.5161333106784810  0.3505615042034657  0.7678241862581532
  0.1783534009226707  0.9103691537184074  0.0458010352853165
  0.6250351377323534  0.3791021386767205  0.8559591049838762
  0.5532479446657329  0.4320612120677871  0.8777254274208559
  0.1679177992425839  0.8844346871208384  0.1775407993153467
  0.2311539128587531  0.9270603337783541  0.1190939586538003
  0.3530691743640068  0.0396686431867432  0.5516383743342965
  0.7248857364876548  0.1181440637958042  0.0447718354562419
  0.3137606749113165  0.1113647237390834  0.6840507150402068
  0.3395015264605339  0.1735618395283043  0.6278099217549330
  0.4008793441092095  0.1992542294341181  0.7549128172712715
  0.3567777400799295  0.3463201336936387  0.8276091498015841
  0.8129249085570854  0.3748456144640957  0.0390054065402779
  0.5153029343722345  0.3829873333290606  0.8752897867627863
  0.5839495085133980  0.3608938843000235  0.9598858347888005
  0.5128000782422596  0.4175326299031584  0.9808276598362606
  0.5868511067619591  0.2870849233870941  0.1150388042675412
  0.0111992522881498  0.3533037771489706  0.2468215945384181
  0.2984279071375919  0.0207656562786657  0.5980479625050592
  0.0750038806365850  0.9098595531349187  0.0155188358452014
  0.6047988914543472  0.4564891189586569  0.1159734017814648
  0.4041771948796061  0.5975308587668103  0.1812945490339428
  0.3054198353830945  0.2419986768348860  0.5489707966389380
  0.4087241906345080  0.6596268819656823  0.1623542128755840
  0.3011883566511387  0.6132560921364746  0.0854532280552933
  0.7806947812891907  0.7086495630612620  0.9854215808951788
  0.5728117160498795  0.4766924379759722  0.6557983375292928
  0.4683968378142924  0.1638732996851075  0.3414642870628335
  0.6213776244711485  0.5135673275282717  0.7170321626838281
  0.5617307667431659  0.5227475854380478  0.6968967331087182
  0.6312299397888810  0.5000879323143440  0.7768624905124287
  0.2537263516952767  0.5926088256390876  0.0130412682618367
  0.2544235603384638  0.6873215968952560  0.1029976036844035
  0.6795259882670847  0.5375113077714548  0.8427532192673741
  0.6471476743645229  0.5890352389916971  0.8581723479953377
  0.6352735139339892  0.6346114022666521  0.9016437627328175
  0.0046035203269741  0.6752769202003356  0.9599830274842054
  0.7208404728293281  0.5512920047201704  0.0098191809971296
  0.6955030720183808  0.6294024871447529  0.9234188926511890
  0.7207319358986398  0.6085057096707513  0.9932021448132575
  0.1091288342502229  0.8236222792181770  0.0694829341973025
  0.0075093127613560  0.8870100653310885  0.2407906437357318
  0.4867016603438272  0.1665724082013811  0.8981494760189351
  0.3890386562019305  0.3471699505048401  0.5544663534243445
  0.3160574692569665  0.1762726948885850  0.8954440323184218
  0.8395877324897789  0.9532400106616608  0.7970387777199497
  0.5432833599308925  0.4448650783339383  0.8167512161032863
  0.5912543405914543  0.4828174428869117  0.8794125414419679
  0.4394146134516101  0.5879412780982893  0.9657807106353544
  0.6904777122292532  0.5255997562979376  0.9024406542254662
  0.6296677660475676  0.5323944658182483  0.8825806032831225
  0.3476518907379488  0.5332624171876333  0.0685318114194270
  0.7686742949334204  0.4603797681626760  0.9425923888898072
  0.1973612433993523  0.6102893461065951  0.0500133646867023
  0.3465598793721264  0.2947513971156507  0.5533973502481352
  0.5565837588947854  0.6869786063824885  0.6988070095557598
  0.4086450209504346  0.6301017497193303  0.0573355442786213
  0.3744059934809764  0.1369655880994091  0.8110873417353872
  0.6381767702679052  0.8106479979087891  0.5356027051638335
  0.6898569362368361  0.2887982985935703  0.1506479075820531
  0.6988314293154975  0.7805903757204397  0.7208802774757312
  0.6344705681650865  0.7540386781765550  0.5403423162688741
  0.4787863826634032  0.8201146164735539  0.5396134240022290
  0.5472824779218964  0.3801264725821036  0.0633030917190878
  0.6415385281383670  0.8713970277658710  0.7397547472904684
  0.7870286262883593  0.9130187995997009  0.7332941173721397
  0.5355422462035733  0.4266607655911827  0.6514877859291710
  0.4500372617350658  0.4862362823252606  0.0587395700708241
  0.9103445945044809  0.9131122118156629  0.0733880212764299
  0.4650743409788284  0.7070171520593940  0.1099942072738917
  0.5043910138005906  0.5353943215320476  0.2304316315358035
  0.5584410134488650  0.5659580797339215  0.2388224242727051
  0.4640875903203039  0.6897565978516474  0.1705635859077831
  0.3621849433113211  0.7365669568778763  0.1827801452306871
  0.3752259071388022  0.8757160703711921  0.3166425993178776
  0.7506121926342320  0.8310625882095907  0.7306893319641210
  0.6007440616114086  0.8227104485448168  0.7378162584963744
  0.3201183841527540  0.8603708217616578  0.2472316933012312
  0.7621331027671687  0.8920558924002049  0.8968162835213473
  0.7666547117796521  0.8843227485362762  0.9660406057066712
  0.2467934362863590  0.0435493053014223  0.3093422977862499
  0.8451426903752535  0.8264071377947984  0.9290290660465698