Cr H  Ni
 1.0000000000000000
    38.7642358654787174    0.0000000000000000    0.0000000000000000
     0.0000000000000000   38.7642358654787174    0.0000000000000000
     0.0000000000000000    0.0000000000000000   38.7642358654787174
 Cr  H   Ni 
 1596 213 3725
Direct
  0.0243797957103628  0.8793645835988851  0.9970712895643893
  0.5011287328691342  0.1303411407670096  0.4486352346849729
  0.4118886669747719  0.1113203673283458  0.3920963341744127
  0.4197565029629745  0.2230035394329185  0.4220187704338054
  0.2430370035829313  0.5507497099546314  0.4244290833198673
  0.9885460387323614  0.3005269603876683  0.8782765950169649
  0.7025672234572442  0.9602960626408000  0.2759031075682002
  0.7334640501426647  0.7337511417213274  0.4185937597133921
  0.6278188801923937  0.7197408752118148  0.4405523881197789
  0.2146864991222690  0.7813164602710583  0.5116838854415350
  0.5719164231892069  0.2223707253411522  0.8616222505747206
  0.1246729501858341  0.6144477770162037  0.5918690974174393
  0.8242656422242760  0.5812878902463764  0.3847416507052290
  0.8347676838538804  0.7194090844048288  0.2889777895512798
  0.9844792152138300  0.6116186287384211  0.2042829842006202
  0.8738992097472137  0.5502257703460297  0.4128192474136810
  0.9210660502094500  0.4913172213384257  0.3355469584635022
  0.9689860508771581  0.4612030645079194  0.3654080023040629
  0.5475774617642375  0.8964009932456010  0.9317074295397172
  0.8625003048950263  0.4469675346813383  0.3870075970979655
  0.4217570214406324  0.2408318666453468  0.3620344219629140
  0.4953784581651923  0.1221531139347100  0.8539442458898846
  0.7917695178069236  0.0181471987723377  0.7486130104610539
  0.8858076600290077  0.1875838791866249  0.9690409281436795
  0.4799214739155751  0.0152192761962053  0.8703948421028588
  0.8030332483830213  0.9315102156954969  0.4419785322163283
  0.9176219805355991  0.0462287818006298  0.5037607618388740
  0.7229633948565305  0.1464099679495469  0.4487703584515681
  0.4300972590918627  0.9044467599725274  0.3272468228556722
  0.5618000677840467  0.5806762784228412  0.4087903021588368
  0.4161000912041705  0.7188512967967816  0.3736235881209429
  0.5109987994170034  0.1977312503887053  0.7337652036257000
  0.3668819823894988  0.7665616301898938  0.2893856998430311
  0.3115955528776952  0.7502914337437856  0.2184405047962970
  0.6799022702563216  0.3179383129253880  0.5459800773207514
  0.4893258353551749  0.3908668886401586  0.5807901354588850
  0.2640835575055906  0.8113994590725588  0.2991594736029747
  0.6059999422113005  0.4045561139296838  0.7336384395065889
  0.5580035380048711  0.3696382522800659  0.6657899842347232
  0.2737944245469789  0.9034635193105651  0.3916669336862899
  0.2695227789915550  0.8735967979367282  0.2832656531571918
  0.6840255079063028  0.3715915835625503  0.8757120084962069
  0.7130528568233946  0.4351631128703081  0.8167957176148931
  0.8232100553868501  0.0449895640412622  0.1651448382681351
  0.6088687835271540  0.4538756560520227  0.0017798127006675
  0.6446989106246646  0.3816640558465844  0.3295952163364779
  0.4905010733823221  0.5458855215642152  0.6162409685561527
  0.6775068577853612  0.8379469926920929  0.9258266448290010
  0.7467085381333247  0.8774663475686508  0.5581153136278032
  0.3874310409485123  0.3798200786128174  0.1307022967223378
  0.8880404241532067  0.2398118958864319  0.0091438303722665
  0.2720551743557726  0.3192599793198826  0.1169135898580821
  0.0488214047572440  0.2926990826313843  0.9070362834081634
  0.7673262959026403  0.9953128459024874  0.9782914547244953
  0.8121811708911117 -0.0031376297500225  0.8773276668336812
  0.3837815562141706  0.3343929917645379  0.0908045912103616
  0.8088081527619359  0.9042323216416771  0.0271801928880350
  0.7890381506470623  0.3460351480870830  0.6918556129847836
  0.5760455885053172  0.1981031506013865  0.2560244182935653
  0.6180780912049025  0.0907391942631883  0.1313298668262828
  0.8099555860991774  0.2553537028437556  0.6043774954667908
  0.7163923719281120  0.0330084760202285  0.1924168781104282
  0.0872507723413820  0.6158849127097514  0.8522744344429629
  0.0688536042142760  0.9450100566199476  0.3593479323286065
  0.9625321151487146  0.4890271546289942  0.7235159761423022
  0.9352708588003400  0.4279558953269635  0.7798483539980701
  0.1121636096528446  0.8696230319451481  0.3420403468275916
  0.8645043166103075  0.4462339153004310  0.6961329040786279
  0.8262195852017469  0.3958299987800680  0.6926073042059406
  0.9273984085542251  0.4040858518689632  0.6111137768746928
  0.7789367600551295  0.3595019249750194  0.6298824787526198
  0.5984651330354035  0.0111712593668721  0.5199667360471665
  0.9386889862965133  0.2307462068802422  0.9240754696189634
  0.6128692297979949  0.0447904725471051  0.0854089822562873
  0.2307457527634139  0.3943237667467078  0.1283722254452286
  0.8312077611565987  0.2144846357705290  0.9448707538640362
  0.3588277101776415  0.7664006714866481  0.8447382334597308
  0.3969903304745513  0.8157292363993360  0.8476143227908063
  0.8928269406192246  0.7805679564661756  0.1758497258146261
  0.7447623018748655  0.0153049877592367  0.7877350565851237
  0.0679111431533671  0.9292315852867544  0.1855967949988100
  0.6641861163074705  0.0812637402093129  0.7480169743491362
  0.6445206438941484  0.9634605028786826  0.6057663450534344
  0.6648425586393054  0.0521599843039322  0.6414521944726962
  0.0995473518313430  0.7324097399528310  0.2080714185542080
  0.2553767454991643  0.7040906870655789  0.2685703593304135
  0.0331832311782542  0.3374985955341510  0.9453800856308778
  0.8545575483342905  0.2082578512289323  0.8456078062622691
  0.8206399877738770  0.2768107676753103  0.7690307572807163
  0.7210323326866144  0.2363247450818269  0.7442745255772761
  0.2436034099904942  0.5624014167402913  0.1378342115987349
  0.8028671359075957  0.1360571741767627  0.6746323659800577
  0.0870341440776567  0.5648013848115316  0.1961733261669039
  0.7215841824561871  0.0421781741473936  0.6604010101906520
  0.3467203217253135  0.5176673458074799  0.1273298210122747
  0.7568561614941618  0.0988992467045144  0.6025525534576784
  0.5733437242240235  0.1722615927119892  0.3791988978774211
  0.1959958548791354  0.6406238771001725  0.1550584677089237
  0.9772457697574946  0.4090737611274031  0.5703402635914251
  0.5809200261089420  0.5566760457027715  0.5310155136535626
  0.9869660574532995  0.9649006786943808  0.6753576379097170
  0.0202545349697619  0.9018175146578896  0.7582548548826740
  0.4750074535567877  0.7943864723306893  0.4312784145352367
  0.6763891922818625  0.8049129236942910  0.5990085790607373
  0.8042257115611583  0.7209898316421751  0.5691580660358108
  0.5771291792483224  0.7655349652262997  0.3561829877954747
  0.6928983760841354  0.8489390449613212  0.5460832957982684
  0.2150151970435494  0.8412440766559431  0.5017809814355632
  0.8352041660335895  0.9157631812030952  0.6933321094006702
  0.3826134261680804  0.9484275958926709  0.4708799625581724
  0.8849084019045556  0.1059057991598090  0.8193633356541596
  0.4548619494807151  0.1333491140729208  0.5545409746950561
  0.9598284329295845  0.9849018231218495  0.8916605030292629
  0.9742173098312321  0.0027107111315885  0.3000476938736437
  0.0293946908341978  1.0087618424348805  0.9609866459210309
  0.9267649207280936  0.0651290713793644  0.3736329084379871
  0.8795911182005879  0.0931824599276622  0.3440594868851719
  0.6559958742215342  0.6447251885700579  0.5772191115694524
  0.8908937094013606  0.2013185780371191  0.3663906031388134
  0.8369278699482636  0.1708994275691937  0.3583922259731713
  0.6376342477830362  0.0182783815150800  0.8063041390416498
  0.8838097961341584  0.9208748207422415  0.6515108397935703
  0.5133687340241619  0.1316992589584982  0.9702199589515658
  0.2516131979511160  0.6580824759605453  0.2261531939432186
  0.7649404653668311  0.7209715087890184  0.6998073547297883
  0.8826858685948631  0.8403715513307175  0.8353985554258069
  0.7001409504195220  0.3981560905591144  0.3991866749075876
  0.5635103586519320  0.5664587507920907  0.4699528170160586
  0.7838199162595577  0.7516057006732433  0.0275367705574820
  0.5805161094030169  0.3087255981425182  0.5144177891652636
  0.4106865024777333  0.2481280395249605  0.5259450263032113
  0.4191683828296182  0.0083505819529917  0.6404680440761170
  0.5471247825831701  0.0118592614122169  0.6198468553363882
  0.3974896705976809  0.4101717123631805  0.0001547908541593
  0.4926818367659365  0.3454589223824557  0.0576878753808303
  0.5154417381817458  0.0332113942953651  0.7635685766508743
  0.6017737342912916  0.4106649779832607  0.0679627612066431
  0.4564084615124722  0.0724592248298608  0.8502050963685293
  0.3931094014470205  0.3899900940387312  0.0627874070781291
  0.4306037979251852  0.3050623535192274  0.1176601605070833
  0.3485003158052866  0.5491873414570044  0.2337594588769356
  0.6094510617173644  0.0134825477466801  0.9752188796415600
  0.5679610653542156  0.1526623973603495  0.9782654092444161
  0.3990122554384854  0.5023779955489929  0.0950189401454993
  0.5142724405433589  0.9657739371310808  0.8531158748191358
  0.7518477234555029  0.7657966033071357  0.7417386764989432
  0.5355523376801619  0.9096856354545736  0.8690231776462277
  0.2094761608108635  0.7802879285226620  0.2880339066633980
  0.7134859918861677  0.5203090039125239  0.3614971857174007
  0.6734890812368626  0.2327377463215438  0.7820307688563636
  0.4983730972065000  1.0100488585542220  0.9353930636805845
  0.0897337358843555  0.0887887374460571  0.4849162469779338
  0.9709331530057049  0.0261642554660388  0.4683947933209429
  0.9339355335440791  0.9240641414920567  0.6086828636505381
 -0.0047586766911318  0.0226305810972161  0.6471072373870285
  0.9095353101236070  0.9337656466645934  0.4830449327533174
  0.9070420496027249  0.9251149058030047  0.5447743092260332
  0.9045792567323280  0.8862033139346016  0.4385695452229388
  0.9045942056583524  0.8157850386636167  0.6325260612923068
  0.0567541707913483  0.9168847022420167  0.6568725377126450
  0.5516959096815921  0.0561986325953431  0.6604952619969148
  1.0051699959049858  0.8615540310129448  0.5903858838108574
  0.5816627434442350  0.2047717774769922  0.9237746239663733
  0.5225407571495944  0.2157488058539828  0.0606802663219775
  0.4728840758627057  0.2471410087782664  0.0390978408073947
  0.4556025927913455  0.9746998762214901  0.6017396042939070
  0.4824553818621285  0.1824989186608277  0.5091506924198564
  0.3508303266247276  0.1308165380335458  0.5808723901564757
  0.2954212198135053  0.5009679206586620  0.0574251067208192
  0.5212344588504713  0.1551110356716874  0.6889024655013517
  0.9368110572467326  0.0274229957830105  0.6280362228278731
  0.3510521077366434  0.5817074064968565  0.1108597530463766
  0.8413299798189579  0.3172519072232747  0.5488140421423464
  0.5768783943291440  0.1147613919765151  0.6004444101776095
  0.5494185207638301  0.2482012650491786  0.7387949108477110
  0.7098682675509130  0.2806469820921968  0.7885361362483686
  0.3535063128660342  0.5513840270655747  0.0130375999682385
  0.1931101899211012  0.5461702782690608  0.0686396633677863
  0.1495101440510438  0.6866804269520289  0.0668665908344101
  0.8805041529521479  0.5574396289890245  0.9456497885845352
  0.1566339171050088  0.7928099536889069  0.0948650501964622
  0.4690751341821583  0.0776682670704023  0.5719656529016035
  0.1554065256174655  0.8102277456492388  0.0375361514596507
  0.1392478017198064  0.0472395053763272  0.0437234111475991
  0.5017138703470124  0.0546143642881945  0.5325463771637304
  0.5305778046743954  0.1117991108599054  0.6410588587521695
  0.6104787506577893  0.0478019877467658  0.6833745723728814
  0.5829218189704571  0.1472964534660059  0.7092602816004357
  0.6130703797268214  0.0749150357773645  0.9575622430830238
  0.7643367505714137  0.9840754798588737  0.0481358654507374
  0.5842208083926632  0.1779101573673273  0.8164350804191158
  0.5727735524587568  0.1818893327294632  0.0861259003617514
  0.7762157242970150  0.1233250574817461  0.9473077377925797
  0.6796354052751938  0.1941805925293183  0.0633924014807043
  0.5267896935869559  0.2184968783103850  0.5202200106599217
  0.6220471607338773  0.1968747507295216  0.7136121726858093
  0.8434532810121113  0.2495608482737767  0.5039601768566269
  0.6280818568740125  0.1964906257393219  0.1595807797471962
  0.4342643473937566  0.8643231410852696  0.8489079296076110
  0.5935777926128352  0.9475981197201802  0.3046616521137382
  0.5558341775518548  0.3391172194045273  0.5551345200316209
  0.6001913541323599  0.3979086224081755  0.1348334386406658
  0.5085131626967510  0.5806848957907921  0.2749954459500727
  0.6154828235427673  0.3924839506202237  0.7924951265149229
  0.7943868319264736  0.4657218696110927  0.6145473242678551
  0.3964474246435016  0.4878818039605272  0.1535924772930123
  0.7042955955173699  0.4466300328786618  0.7571346496351722
  0.4116726453087962  0.6727627305544317  0.3295918816618489
  0.7012989697751884  0.4808232567929566  0.8607205968079792
  0.9071329048987229  0.7874135080963012  0.8437202633653319
  0.8535359321995089  0.8010533754900744  0.7416967505851499
  0.8789917669017704  0.5321073672321072  0.0166776121018604
  0.8414483817192057  0.6769035504027049  0.9587314471000895
  0.8765302860083886  0.7270924600705901  0.9008589617547936
  0.2563778256329959  0.7330905355855728  0.1483447771987863
  0.2096015210003152  0.7952055754543040  0.2265834412325808
  0.8828881759612867  0.6899065303587190  0.7967958350075355
 -0.0012171253893096  0.8090420485382579  0.0957464836552908
  0.9074033846924457  0.7704564137446452  0.5926579734012599
  0.7634176695675383  0.6873366002830704  0.5968000501277988
  0.1083723057749465  0.8400226336432113  0.2335771735604146
  0.5956213149631724  0.3820782750228350  0.1998143225797492
  0.1308454092052447  0.9716951178542569  0.1258733560232702
  0.1260140747744059  0.9591075552185514  0.1927562359779122
  0.1401393226188678  0.2839442316400930  0.6527759337085713
  0.8588773628759399  0.7626801519668041  0.6333972691630881
  0.9178913102204977  0.8546063508275942  0.7355978848028776
  0.7201007374073755  0.0586067544604086  0.0614465704708737
  0.7137094382778042 -0.0004129443557412  0.0812512670732468
  0.9687003058924122  0.9258137108979263  0.9062060244212387
  0.6340216792129272  0.6526637755723602  0.5165498275695453
  0.6938236487390070  0.6594547929805367  0.5346114276705819
  0.6414796759687480  0.2867943372964413  0.0172526639840204
  0.4926591773166036  0.3816519810374163  0.1648815464993474
  0.7506485598219729  0.5175917230523878  0.9247388905176918
  0.3574726402822013  0.6579519301608623  0.2601007031439032
  0.4954544203921196  0.4256392870768038  0.2067112856658292
  0.5504882759823645  0.5665191601694007  0.7398816050542029
  0.6679494833179662  0.5956302859014152  0.3793098146878434
  0.4056891224856780  0.5349623353398619  0.9192957153493935
  0.5345664333782327  0.5235759016776460  0.9648191644479948
  0.5676324475377230  0.6575849587716799  0.3290039695009385
  0.3844969862523228  0.4093223592087688  0.7698838556652016
  0.4337476693122407  0.9494965321996736  0.3713848253641193
  0.4422278609115062  0.4351711499555639  0.8960449148021278
  0.6003855765431210  0.4705053880679023  0.9406920785932317
  0.5862113421905999  0.6320106473838152  0.9444491493788025
  0.4675512315856805  0.7195811990710220  0.2775638200809666
  0.9285110280056927  0.0439652451841063  0.2016053785903805
  0.7308230000536428  0.5419669831414855  0.8011967459781461
  0.6129062845349944  0.5300315401192265  0.4975607412339771
  0.4524436471845353  0.5194785332835528  0.1619329926469925
  0.7451396387756322  0.5868924083875088  0.5780956011476089
  0.2438044505364048  0.5487718485195451  0.1979423769646876
  0.3555747840642738  0.6277593959258201  0.1555475973683090
  0.8376615585804266  0.6491774992086126  0.7305404691306467
  0.3586510194287783  0.6731554651600977  0.1986538098662354
  0.2559681385788640  0.7181824208143283  0.2085492568989330
  0.9816187029975999  0.7959461921114301  0.9291950811404066
  0.0414729664341470  0.8754783411610934  0.8844128436846999
  0.8085693325797773  0.7428316001926569  0.8091730209942591
  0.5855609063266843  0.4315324125133976  0.6128126297889803
  0.8395179661259486  0.2127977603553401  0.1735177966701492
  0.2819998176317897  0.3427314236046509  0.5757961848985303
  0.3404305508249569  0.3399421463333614  0.5974693141965245
  0.3280665121843792  0.3832644071806489  0.6413649001198349
  0.4251539031197770  0.4288975919298919  0.6696480898227594
  0.8041395067994949  0.3830757927413335  0.2719820484263938
  0.3923027129577233  0.5294863594893798  0.6944576026593214
  0.8337127167187373  0.4191800283857327  0.8603341881957114
  0.4375955067684825  0.3524760043225315  0.5106329903732775
  0.7627506278476949  0.4733422231609141  0.2238368815236069
  0.6088759571721167  0.5590307489126941  0.7608656589422742
  0.9366347926432206  0.7624716345715449  0.9682398080490179
  0.6134261082600910  0.5805757731746285  0.3099692035147035
  0.0722424128221192 -0.0403622743410462  0.2930684545615865
  0.6237856790884211  0.7038901783632584  0.2762264991007070
  0.8147778739940239  0.9505802682493700  0.0771126460268574
  0.3481095911327665  0.3265252814841839  0.6595162821048556
  0.6142483884777981  0.4984324730012599  0.5588043779565152
  0.5359065640363989  0.9033296128889432  0.3596555977391587
  0.6841154180232372  0.4723658188774860  0.6352679873408695
  0.4942318192273030  0.4067496287711738  0.7506401391084521
  0.7892956582691525  0.6143010038845078  0.6749627048272950
  0.9897216355142464  0.1216433309570923  0.2572843224404204
  0.6747490516244157  0.1350825394376584  0.0803036224947951
  0.9385339877931436  0.1365720450255507  0.2903852984645529
  0.7576157009881453  0.5856847084424229  0.8396878048215067
  0.7869969391025943  0.2461948053900569  0.9259239574337603
  0.8161882165597724  0.5784174403412861  0.8601228985861438
  0.8941052133704118  0.2287968880592191  0.2446306190189930
  0.6366877928583490  0.2903736940569182  0.2468670404738378
  0.7151848496367046  0.5349109370559113  0.3012632332642938
  0.9300409172756730  0.8796546682863980  0.9023778898393054
  0.6652864759163993  0.5667367181135302  0.9862245753068504
  0.4893083484045392  0.3961020788169592  0.3317746789809276
  0.6558267659360500  0.4577126921039377  0.2484878094897144
  0.9304429761633211  0.5644314723123359  0.5770921053010890
  0.4076323965832930  0.6268109287488836  0.2850561166148182
  0.6304890403936416  0.2497582057253492  0.4337250480794136
  0.4359382941999669  0.5121766566217973  0.5438026832186236
  0.9545314452814929  0.6376559981880057  0.7765489872464483
  0.6998066458388461  0.3494313566319440  0.1294400967456208
  0.9216931677360256  0.7072120807157096  0.6950486128001843
  0.5522405094728916  0.4892307238677122  0.3188305283287017
  0.8327269512502877  0.6101796647211436  0.4939221105903692
  0.5757575300720632  0.6088563233046934  0.7785567979494555
  0.8195072959712442  0.0510603331962754  0.3998116390179379
  0.6245740075245186  0.6475235337024176  0.8422659985313343
  0.6732856461902014  0.1271957032965907  0.3749758834763736
  0.5753472225091515  0.7621766220342668  0.8002881518413479
  0.0603106364441674  0.1823389280800748  0.6402872488621331
  0.6681875482532343  0.6872286398922428  0.8980222091713279
  0.8831563899129257  0.0701095544740115  0.7126805325336657
  0.6486664318230826  0.6238088980417307  0.9672978207061079
  0.2925693973878295  0.5395092925796827  0.9360654564945934
  0.3752363677383972  0.8911244153031400  0.2581984129942728
  0.1834788177339681  0.5390667045263644  0.9510045402662760
  0.6484184343321140  0.3983467388813567  0.2677010351724773
  0.9534443119643322  0.2164908219030467  0.7671503291141276
  0.4080985625420411  0.6309733544968048  0.5150095808544610
  0.9802606916755670  0.5818977561966484  0.7965777809802138
  0.7757134194903440  0.1289991585406219  0.4130908304665392
  0.9912402283315098  0.1366262465018992  0.1941019679882745
  0.8426622240424844  0.2463557243390295  0.2784730974579933
  0.7028005595548079  0.0140365539031797  0.5516606717287134
  0.2452371186668815  0.0777067554903100  0.9535489183740063
  0.0902814805859181  0.5935519410306721  0.0770531737268256
  0.7805951110536805  0.6350154480994857  0.4693251096197407
  0.9058422995849853  0.4600212946253591  0.5929645054747238
  0.6445452659967943  0.9352525670171074  0.5005747329180436
  0.4665062695443748  0.1841667480672626  0.0524452059518355
  0.7421771667329636  0.7924246911023173  0.6240491900176791
  0.5121906291692194  0.1062752958212313  0.0304008899367344
  0.8728694618671515  0.5634740176339977  0.6122702970821307
  0.4345307081551979  0.3496867174417784  0.1582270720175945
  0.4344844802386856  0.8421888174591177  0.5734854324246456
  0.5282610759554484  0.2418937249853621  0.1682558582475336
  0.9459276695761052  0.2623966985908438  0.4825499891636080
  0.6967220260653532  0.9439947729593415  0.9161044624860194
  0.8490530257154240  0.3764330521279441  0.4736493918218768
  0.8810746787338873  0.2696199413005562  0.7912247355419867
  0.5096771985366524  0.6332703727079892  0.6967779432860202
  0.8982663018490561  0.3435449480546054  0.6713391507312750
  0.5351832590411038  0.5914656568199766  0.8795272221474723
  0.2409024520799756  0.4675788162279537  0.0499484854967215
  0.5152156413336852  0.9652842155062712  0.6243958821753505
  0.8556215561958426  0.4257642983232904  0.5278779701517315
  0.9597807035602575  0.7594183636202455  0.7025688441308806
  0.4423417933349856  0.9073817827249597  0.0122270091861136
  0.0233201545867167  0.6017463514236207  0.6655107133381658
  0.3888850992211780  0.4111269973849636  0.2362303172535040
  0.8419350560028049  0.6122773562080303  0.6238069621117351
  0.7026302578000156  0.1218941643641435  0.5820438277474488
  0.5370505008796487  0.3951680296834222  0.5386066550773285
  0.7208232319759004  0.5541401811884427  0.7406177842139116
  0.7656964898384362  0.4051486098921429  0.6732093079432624
  0.6573205547898830  0.3762942449137716  0.5812329796466857
  0.6829501003678909  0.4405141047985121  0.5287835320234866
  0.7479331502001892  0.4292765225622815  0.5512588079081300
  0.6413308582804735  0.4042533424147454  0.5134784030383203
  0.9937880521903496  0.8393599011633734  0.8159201264233708
  0.9473110501019599  0.6719141414576546  0.8807388153685672
  0.4687167617902072  0.6715177888510222  0.4617337735633535
  0.4604345400116084  0.5539269607420931  0.4957420236177668
  0.5010497601965956  0.5039772424173014  0.3551249221833221
  0.4975825968137729  0.5153224345624722  0.5154037344281397
  0.8659289098000025  0.7541860488439841  0.7000866913129310
  0.8294560098904334  0.5294567928694713  0.5599951409719649
  0.6016850584885971  0.4420171725989435  0.4058451289496048
  0.5383493578517266  0.3964043861456971  0.4630770936180968
  0.2105109681801215  0.5499706219004236  0.6307065317610421
  0.7209733866982710  0.0796047609897912  0.2349073033992023
  0.0441872140918924  0.6868392048949377  0.0310003753727778
  0.0442097872250205  0.7174820704309254  0.1376642591111861
  0.8441080931325253  0.0564464318499116  0.8145501937568823
  0.0083261177738327  0.8697500181168017  0.0751715496786607
  0.7028126368322802  0.1910359883604009  0.5802853518130516
  0.4666538985906428  0.1663810846407779  0.1135616356632708
  0.9119859750681716  0.4859749489136871  0.7611392651045931
  0.5681884236705744  0.1201548619460229  0.1036564487745990
  0.5127550709805845  0.0891456820612147  0.0924430984125124
  0.7180837578649274  0.1448319147368436  0.5189727304511947
  1.0038765045746774  0.4081384666310910  0.8643806613937918
  0.9722524099789817  0.4769952819251119  0.7832658356259339
  0.0574070631571385  0.3792004642856768  0.7190134226164910
  0.9793018631221785  0.3116627938823049  0.8182637921990484
  0.9090910757271685  0.3315679341337575  0.7323758581017967
  0.5519390896745828  0.9511695868747476  0.0891102829897794
  0.9576867578882092  0.3360950399775459  0.6919306148873948
  0.8375221849664812  0.3511650904491811  0.6497549134393267
  0.8494326069392897  0.3044094144217591  0.6073116916923336
 -0.0024069598456949  0.7785390455686367  0.2151414539915108
  0.7881263807075031  0.1619345936766710  0.5214017041507349
  0.7505510176944148  0.2616116976557357  0.5837696863751284
  0.0075260573581256  0.3742840814376062  0.7594434014513514
  0.9366319470812732  0.3927566775397368  0.6746954631066105
  0.8018019033896814  0.8062071560001386  0.7140189710002860
  0.9172188580309770  0.9819518143904464  0.9319193314377451
  0.1813275140448003  0.1368521637916671  0.5810763100124994
  0.2870671540080058  0.0558816379373769  0.4648844780556242
  0.3494001574459950  0.5667671115055526  0.3985399932011973
  0.2730805706382720  0.8025607434250036  0.0598010257550929
  0.4571975059017204  0.3580517059123177  0.7467538254061341
  0.2305898439844415  0.8913961750339282  0.0122894075515813
  0.5163416570137188  0.3508233368359605  0.7673933700103008
  0.1780669843249717  0.9096364011373145  0.0445949727440759
  0.6251281268902998  0.3791183547415946  0.8549299097373468
  0.5528626654678090  0.4321356363181493  0.8774173600685752
  0.1680142483060776  0.8838019273632158  0.1783295279706297
  0.2304148182945559  0.9274190772518248  0.1194836119271966
  0.3552569398779187  0.0400133229058143  0.5511668575495106
  0.7250310641285465  0.1197272467455113  0.0447428914568816
  0.3141768353281383  0.1117331876712555  0.6839171070456719
  0.3402170037658984  0.1736789559110100  0.6273631498312914
  0.4011263700755455  0.1996917670893000  0.7547652849067836
  0.3566811370026035  0.3466061358476938  0.8272222439830651
  0.8119440017567781  0.3761273609074196  0.0403162683192424
  0.5150239674229143  0.3829629042327671  0.8744155798528538
  0.5841900318825523  0.3600561290011553  0.9557144918198625
  0.5105799333155239  0.4167998754645755  0.9801749316013973
  0.5870058817008791  0.2865263735585717  0.1158732125380930
  0.4021551158898327  0.2316129427860450  0.8591775944622221
  0.2986702769967865  0.0212277313047989  0.5979526777138173
  0.0749718388462367  0.9098241317789977  0.0180849383661470
  0.6053020620858169  0.4560806913448681  0.1165295174000224
  0.4043185953034902  0.5970736901445304  0.1805050598265338
  0.2982320781303295  0.2882063979728393  0.5932136880014538
  0.4089542932383854  0.6593473810152481  0.1619235509466050
  0.3019899840084468  0.6125768994451650  0.0850602233194249
  0.7808186544580673  0.7080441570983130  0.9860094040143772
  0.5730653093228476  0.4771828776416631  0.6560886238644219
  0.4679464895272490  0.1634533080755345  0.3412216045953394
  0.6212598645011340  0.5138221710623387  0.7180717144596886
  0.5616145806661246  0.5229655331426416  0.6975481734442224
  0.6311158645213407  0.5003454200945392  0.7778220191099544
  0.2514515472049135  0.5932032908718005  0.0130525085584198
  0.2531388819947955  0.6871133925396794  0.1019413399070155
  0.6795175771674161  0.5375858289235239  0.8437090719133343
  0.6472709276079430  0.5890461763735223  0.8595090776818771
  0.6355141229359755  0.6345615626581914  0.9031210759015038
  0.0066850500675677  0.6731004426892200  0.9615211332127243
  0.7713003115200132  0.5196189533922626  0.0426599806017082
  0.6962940994580913  0.6290375819973961  0.9250131594913228
  0.7212315155090582  0.6086865544417450  0.9939479934248027
  0.1084424514635316  0.8232885903690408  0.0701491863052547
  0.0119288196250574  0.3524928788285589  0.2465645842187557
  0.4865391514188616  0.1659383949953316  0.8977737123015280
  0.3909713574805803  0.3481427399818313  0.5546241405211316
  0.3153240595286430  0.1759400729600216  0.8961677448251441
  0.8383771730839983  0.9541849742794039  0.7978028176215644
  0.5431818111661754  0.4450976010545781  0.8166621402844740
  0.5912104640750876  0.4826909980514368  0.8803669828065198
  0.4410545951050525  0.5874636695520827  0.9659247585663248
  0.6901383679779012  0.5256612539840431  0.9034430071786649
  0.6297603076079361  0.5322948107588605  0.8837601397869316
  0.3485348603693965  0.5335450004819547  0.0685434925306685
  0.7321655172754269  0.4088833721662343  0.9418617597116467
  0.1471578609126902  0.6386774019555700  0.0183375961501140
  0.3464960707360880  0.2963750467949804  0.5551692771813971
  0.5548236346123264  0.6862225253950586  0.7005557975738038
  0.4079710138281099  0.6302741526903775  0.0581307817012225
  0.3742217982385121  0.1373392159953563  0.8110225983512135
  0.6387916971428605  0.8134281864698703  0.5357012326357508
  0.6903738593368546  0.2884752710934924  0.1520258386935096
  0.6989581723666748  0.7813889041106016  0.7219966336333306
  0.6879225792297364  0.7604380184183953  0.5635660484702372
  0.4785428689482072  0.8197271924298792  0.5400616232440784
  0.5486715064916573  0.3794244228921837  0.0647620930159413
  0.6856953909433634  0.8410022988779300  0.7054864342311131
  0.7880094570425284  0.9136952545253011  0.7321105754420170
  0.5360045696096176  0.4272191628750924  0.6514857318663190
  0.4516368761937638  0.4859961695754588  0.0587699053901327
  0.9102215767311844  0.9114775792802641  0.0720621499375935
  0.4650957191585946  0.7067531528097197  0.1108003405755670
  0.5049360392180940  0.5350591257185925  0.2309351419034952
  0.5589738336781922  0.5656608132128614  0.2397159121050143
  0.4643148704380620  0.6895479956919643  0.1710620816196101
  0.3623522561700008  0.7366330539512080  0.1830212217081097
  0.3751177276103893  0.8749871912143239  0.3175125208883666
  0.7510588298053927  0.8305724725607655  0.7314005665491200
  0.6004266845036910  0.8236192573053375  0.7382723142437230
  0.3200945070978210  0.8597670310667569  0.2477289200609185
  0.7627355429481462  0.8915433627591204  0.8965293475442617
  0.7671548980761809  0.8834002053051490  0.9688777211414852
  0.2461447171439834  0.0421784478175470  0.3094171559637385
  0.8438863241075275  0.8259367650725412  0.9320497954945220