Cr H  Ni
 1.0000000000000000
    38.7642358654787174    0.0000000000000000    0.0000000000000000
     0.0000000000000000   38.7642358654787174    0.0000000000000000
     0.0000000000000000    0.0000000000000000   38.7642358654787174
 Cr  H   Ni 
 1596 213 3725
Direct
  0.0334670260840612  0.8896275985477603  0.9859479908177370
  0.1688873842958975  0.6513941295711959  0.6633517282221243
  0.6864982774885857  0.8417968619748103  0.0831277757547311
  0.6331353577330022  0.8575680561877157  0.1190111770526711
  0.6408315105174891  0.9025274476974721  0.1617378425512635
  0.0605124081025604  0.3462420939252627  0.6126742927491265
  0.8888630808295609  0.2357213204622148  0.0066161713925700
  0.3957928390910688  0.9859226641572346  0.0277564701000492
  0.6499760075276774  0.9613817366792742  0.1424067997952577
  0.4603156373401702  0.6780301147652115  1.0064878669451107
  0.2904454609792171  0.6260018174756633  0.5393547744142552
  0.3471519426168027  1.0024301685642956  0.0649926768758895
  0.3542594250687122  0.6141800144614855  0.9861576992876524
  0.3492969392215646  0.6455185324642273  0.9201814990767370
  0.0629437728283397  0.7833024312530456  0.5276293913512873
  0.3300787124899536  0.9863022501181135  0.7918257738908174
  0.5471652169915316  0.9048080437073061  0.0430568352696246
  0.3200322108540683  0.9976402833706739  0.7303842726349412
  0.0765619829459728  0.3201227192175280  0.7368037560172367
  0.5016371066547746  0.9863430157598174  0.0612448795553579
  0.5258775070791974  0.8463256481256999  0.1461165793502201
  0.3585436335998176  0.7334467070911858  0.7401205153272917
  0.0965179967388100  0.3954008928417352  0.6172273767881979
  0.6798022516156301  0.1865362285110265  0.3535883337185486
  0.4677257161260271  0.7654772301879188  0.8251689997998579
  0.5434212252827310  0.8638713252289050  0.8258657532950705
  0.1957390809053334  0.7586564935924356  0.8959652464691884
  0.5056710158844847  0.8143686443668595  0.8251368888425510
  0.2913057438584598  0.8047736697407926  0.9291119337592274
  0.4343915526274992  0.8340018410428195  0.7435638791456536
  0.4929907104590525  0.8268084741420101  0.7632813848224486
  0.7907164156353899  0.8117997960692839  0.2430891727840858
  0.2958174876239713  0.7523462658219440  0.9740422907803504
  0.3565810169256000  0.7271244695214689  0.5733284714231354
  0.2753043547963577  0.8190863787688625  0.9928947569063092
  0.0404903634596007  0.5566540829275182  0.6307921873204606
  0.4169573272729212  0.7592739465470908  0.6402876067250304
  0.3095811949290726  0.7155003691952929  0.6086341493496058
  0.0832540221647234  0.5945756173217777  0.6935200070063003
  0.9898228387014084  0.5499704208169504  0.6711175646005747
  0.0930290465174318  0.5803997888267973  0.7531640750290046
  0.2484342786530673  0.7648341081954532  0.8586744053545795
  0.1404468779784855  0.7343038531141407  0.7661905830749387
  0.8347941477218818  0.6940001168840689  0.4108791413478136
  0.6028313675282138  0.8949272083716391  0.9508411264531040
  0.4424179714167965  0.9706164345031337  0.9875939764736583
  0.0275339615564467  0.3380741793371465  0.9493838908130304
  0.0093040437378125  0.3393214338487118  0.0824822035349786
  0.0134576501795347  0.9296210382624690  0.2881530644603677
  0.5722184980186340  0.6885551281334975  0.4307367483748026
  0.7534951023561677  0.7888268529033579  0.8945207329633866
  0.8257293590940777  0.7777866744288888  0.9766956681999148
  0.4778321583408430  0.7686879384019117  0.5062871272308683
  0.4337959996203045  0.9134455479409958  0.4978746832492096
  0.9879968609873326  0.0975732424231226  0.3829359322920054
  0.9813099593937437  0.0885624214632331  0.4466021618061249
  0.6130138046344347  0.5286290791616983  0.6582582621365156
  0.8929647286618352  0.1831136932168868  0.4284893473308152
  0.6009126479337848  0.5733102746710825  0.7010615068505721
  0.8933874012600226  0.2443510804483220  0.4114656784663199
  0.6316182344539584  0.6172300578701247  0.7388921015091896
  0.6380246729362667  0.5999554652923441  0.7990615988856106
  0.7354560734660991  0.6419781222282258  0.8201519596413523
  0.8396287943750032  0.3112099651898896  0.4916457067029290
  0.8963311325607286  0.2937819431727309  0.4554167756014252
  0.7929006691521769  0.3417557546130869  0.4643769306475436
  0.7309808974665335  0.6786725092621360  0.9203135635630558
  0.8120605916951895  0.4286677947698496  0.4994761462425352
  0.5698371577192699  0.6142397534257379  0.5183149541393972
  0.7477895651386050  0.7505058712893586  0.7969631840098704
  0.5644893945192888  0.6306101347562767  0.4516479134366794
  0.5247754549840270  0.7615074728748301  0.4565209748880808
  0.3184065750017067  0.8273258914072859  0.3696824187680816
  0.3220074902787843  0.8723260856503756  0.4162170727785122
  0.6522705252954614  0.4449526753777456  0.3121514626075827
  0.5969785514830940  0.3147915354766184  0.9126191204886995
  0.5977641558041613  0.2912484404350566  0.9666050318588325
  0.2728115627918716  0.9033177543970295  0.3913503053551628
  0.2769412368579294  0.9481843269259052  0.4371129325036243
  0.8796128888309145  0.0588427546991429  0.2353660925472582
  0.4324170589182733  0.0993638994089642  0.7245085150668529
  0.4443462808637858  0.0866006773786484  0.7878768256542286
  0.4831132471709276  0.1361585647342531  0.7901633769262163
  0.4730134161546630  0.1804503311989189  0.8350031248238221
  0.4879235312687851  0.1662397060218725  0.8945294775619097
  0.8349732238903669  0.1370925678917185  0.2527234355520429
  0.5173116141555342  0.2163230803661222  0.8969266522169173
  0.5167612119253315  0.1925841101666378  0.9558527716113677
  0.7864657715138234  0.2028747047418817  0.3314430576670869
  0.8391918043585296  0.1845526561244616  0.2960643479098594
  0.4157957346119620  0.0232126597461964  0.8494424270232999
  0.3940994312848606  0.0805016696316610  0.8294968651316290
  0.3703868766730170  0.2042051335678417  0.5242398528927038
  0.7339293075637349  0.1994552181204572  0.1954651760956667
  0.6900223669086325  0.3078174597526099  0.3183646349998757
  0.4458615660222257  0.1772849482430847  0.6054843847970870
  0.4159178014819278  0.2786349982727159  0.6352069477305240
  0.5813816764466221  0.8124468496521922  0.4015974725637054
  0.2435041109538531  0.1937586596412080  0.8134448216879441
  0.8364584708351833  0.7354264874269281  0.2265779304590517
  0.0341365056650869  0.0153398827990194  0.6775921096284926
  0.8801531760415283  0.5754550964986835  0.0556415498333042
  0.0660016712372762  0.0497697502038779  0.7824345130691204
  0.8587352235369059  0.9631555630342524  0.4566627689811931
  0.9101772155160222  0.9486088017840257  0.4220410607611279
  0.9544269575873428  0.8573741633303598  0.4648233554483046
  0.1632486517930343  0.9235614883496377  0.5249535061499335
  0.1819168716055944  0.2320940752027824  0.8947285265294629
  0.8093398102474832  0.4588898658072003  0.1921766996133102
  0.8639058156004977  0.4242987881610797  0.2242892470208651
  0.0969164559995620  0.9272876823919813  0.5533205355663299
  0.9067557169448647  0.3518880986519659  0.2089070437335266
  0.0956884762161585  0.1422433898616319  0.8302865472941607
  0.1534173067214028  0.9193098778828029  0.5781745575978203
  0.8553731244400119  0.3660954187166793  0.2407521618431088
  0.8496804513692390  0.3210558609144615  0.1985709305105822
  0.1045570455825543  0.0991397603017686  0.7862556603191077
  0.7257879780262521  0.7795570510586941  0.0037417933379023
  0.1252658028050331  0.9902235762056233  0.5451325234058170
  0.9506938180101678  0.2753847363085197  0.1931155601013075
  0.6068566579585818  1.0001572163418080  0.0395587407513368
  0.9461950530971345  0.2115057491114724  0.2091069777751226
  0.1446181918065850  0.8558231429898056  0.6970739654201193
  0.7133036694658149  0.7178812407603212  0.7391278043916567
  0.0715457319825368  0.1675055322970410  0.7040607433358599
  0.7193686555114059  0.5989191093473667  0.2843921223309822
  0.1160422827697658  0.0877134987639416  0.8506794914548632
  0.0778015676962054  0.0373163560481980  0.8451416674410164
  0.0206800812559118  0.0431256693747838  0.5425222992187115
  0.0583611198770029  0.8241840498669619  0.5764055262453301
  0.0561274982938526  0.8677657168748908  0.6162738269372272
  0.0088983911682709  0.8104543125993754  0.6140039140842402
  0.3270081832634897  0.3107095851828997  0.9908858809226838
  0.2685353996957535  0.3185152825915639  0.9693026416184698
  0.0962637723718052  0.8236608777749970  0.6292759604018245
  0.2697698351470449  0.2901247126709765  0.8605719567852647
  0.2315693995469355  0.2390007718259892  0.8546236720846033
  0.8385144312154732  0.7255120139950835  0.0002930265906412
  0.4292390795306695  0.9237734246214399  0.2657308014873698
  0.1600559331356323  0.2567745894240090  0.7729500157485708
  0.3074966465353552  0.3089398274201827  0.7607772238921231
  0.4801626027860554  0.9072620104134269  0.2279151142030361
  0.1223476526380371  0.2070001377079566  0.7704473239754999
  0.5317218311373365  0.8755689127284410  0.2523039385326011
  0.2413668492996859  0.1624469675484821  0.7073712364066059
  0.8322043612185742  0.7171267270631625  0.0591838936731006
  0.5736384823575869  0.9610058281560101  0.8732125458695300
  0.7928573593548730  0.6340898734224363  0.8389345775171932
  0.7281140793548443  0.7061086455709670  0.3108226914375695
  0.0865134430831378  0.7084177794504737  0.5192206328064194
  0.4456390397551909  0.9376701132407245  0.1170330644771416
  0.2782016475952420  0.5619069979907301  0.8166151752000701
  0.4396481609042570  0.8912036971066877  0.0710808991499502
  0.3298318989342011  0.5681156438901023  0.7783442261020865
  0.2922092694298952  0.9359408680488794  0.7889429136707869
  0.2801313213708077  0.5305154237724587  0.7126342150288650
  0.4720204523115220  0.8330752017997040  0.0785504436784526
  0.5184757374131514  0.7534040346660702  0.0593996301932414
  0.5143201727749402  0.7103434477374851  0.0123327655186433
  0.6732551041874085  0.6884312638184150  0.0151193810967883
  0.1322697135678081  0.4469537980970428  0.6179095429767182
  0.3025867488703403  0.9239799357877756  0.8510385472559528
  0.9780255037612867  0.4670795612775006  0.0720227487389585
  0.3411689127463177  0.9732724741155655  0.8557439303305613
  0.3140472883511035  0.0075199987491041  0.9394956507645867
  0.3893718172790545  0.9237705625551839  0.0461219011580275
  0.8029750494836356  0.9297706725015760  0.4502681039773647
  0.3842149755058706  1.0025675222264077  0.9628049710942822
  0.8474733974172138  0.8652419401181797  0.1928801009967964
  0.7347085806086210  0.7758380603379897  0.4600831725535052
  0.7832678749985081  0.7207790801753818  0.3837508918550411
  0.5270898941449135  0.8632334304011212  0.0860892820748494
  0.3009960844955817  0.1878804432820463  0.8329652450713901
  0.3927585685306473  0.6640568006390950  0.8198166370987302
  0.8413208637126892  0.7958288706739161  0.4442557763989488
  0.0715094716664273  0.7361414654163784  0.5737698757482113
  0.0832228967745399  0.7165189006549574  0.6327712570532164
  0.9323775861728304  0.5957256934593017  0.1300204855973239
  0.3793436848230813  0.7091380903487593  0.8611333746595712
  0.8808361760757683  0.6272431740770700  0.1040072602896151
  0.1904991340235503  0.7405172082433843  0.7292275666902539
  0.8712121137793992  0.6026252860317299  0.4604155631453375
  0.3430381568111258  0.6573735880945042  0.8562739349315626
  0.3304983814359986  0.6701851969288959  0.7956144744469101
  0.9745747042566943  0.5576924425969769  0.4524354067834265
 -0.0056302610565103  0.6580627584561312  0.6595622587422190
  0.8333551341430645  0.7038037573865339  0.1186160541975620
  0.2775775048444295  0.6461614487545985  0.6591405745748814
  0.9646909429536590  0.4955557420174109  0.4814863178368260
  0.3070105556641410  0.5947713255769902  0.6567555849908228
  0.2019451176717435  0.5638032520293276  0.5735499021366991
  0.6958337284535364  0.9191303912110861  0.4629473168272160
  0.1500081493171997  0.5331222846003277  0.5080970131757644
  0.3251324970856732  0.8665812703147456  0.8700985487918456
  0.4917023035454606  0.8732578085067779  1.0350339693797028
  0.8436757209691215  0.6740964425629848  0.4800695635243226
  0.5370463217215731  0.8681369328575277  0.4873457971686523
  0.5866779228872729  0.8558573638592581  0.4494513263722941
  0.9965962721340532  0.1540203108776306  0.3601887106736913
  0.3742413521979120  0.3189722265817255  0.9546737127888453
  0.6906349207126676  0.3449012025331226  0.4261069588598698
  0.0480357091206708  0.4426141527343669  0.9267569511111506
  0.9116846150371781  0.3511942774650080  0.8993726946925482
  0.8529989023087043  0.3592210325299634  0.8799662277119369
  0.9043977715376225  0.3638069813466292  0.8385354724325276
  0.8074588873805947  0.3212825180183868  0.8155429394221819
  0.8566629854549292  0.3254519181813130  0.7762981044383810
  0.3912857053522130  0.4577267628843328  0.2795799683383606
  0.7196901054514154  0.2031536816173667  0.6370310837061457
  0.6479033201590687  0.2263627885055650  0.5564433106092407
  0.4409112885733520  0.4269593705938838  0.3069420438888049
  0.9880947467043003  0.4529759573565965  0.9058272066842620
  0.9798941015947765  0.4640426841327597  0.8459296713634742
  0.7319486665389905  0.1907181086839094  0.6968575003307264
  0.6878769223347574  0.2943251183438043  0.3828901050111598
  0.7881296374775048  0.2323433856041243  0.4374443337364222
  0.7759358182516956  0.3906306167848817  0.7347305793075624
  0.7851140100722654  0.1869877773307841  0.3902450344334065
  0.7267377939402152  0.3555188012666423  0.6699276673609567
  0.6657908276849616  0.3652229068065896  0.6474289588181701
  0.7271456230638823  0.3447970735753341  0.5016485800662708
  0.8571234468337579  0.5144482844151843  0.9033157135645113
  0.6770214480100175  0.3192427876536308  0.6039076383539266
  0.9801881892098677  0.6060160869598086  0.9697424359101853
  0.9468237858951296  0.8346360423840894  0.5261517177487390
  0.8624720968816646  0.9754117808167149  0.3949763141044345
  0.9330825980257661  0.5647351896204676  0.8987091075151300
  0.3231985229990388  0.8532685483610110  0.4774932220034415
  0.8986870888609384  0.5301893805611271  0.8023491739947555
  0.2697819229439421  0.8192192813653614  0.4702767529122735
  0.3568047833516843  0.6747987312257003  0.4266083577031152
  0.8828362338114801  0.4220155886526776  0.8211727645418141
  0.6701397317036069  0.2016840820414251  0.6722702182053729
  0.2632503620916949  0.7974926840670844  0.3601554374822100
  0.6305575292625171  0.1530178605012124  0.6660581750123641
  0.6189006808862842  0.1663398897453549  0.6022862639757988
  0.2077815010616716  0.7680996952244900  0.3478775445108560
  0.6245808850973611  0.1221534307009404  0.5521403566090579
  0.5466142981690998  0.0822328390797340  0.5356889252418828
  0.6848104215943682  0.2772918784088876  0.4407443522013449
  0.9270541306356964  0.7093953740559678  0.6060058697525045
  0.2218257773248015  0.9075876573638639  0.4878380825557991
  0.2169919818222932  0.8578076664312263  0.4418766215613801
  0.8096393451113620  0.6759605814453838  0.5263443779586425
  0.8430843288423483  0.5039453052039349  0.6764431376613550
  0.8900762043148503  0.5415243843296808  0.7421104143127607
  0.8302131478503731  0.5481249266873204  0.7177487877721079
  0.3024815313249394  0.6596403939729542  0.3558270234748722
  0.8432829772765933  0.2010850019660282  0.4586084307450602
  0.7367356718269801  0.3426239910315775  0.7309629126960415
  0.6833222334992116  0.0587686545354588  0.8698305121145561
  0.6128522299413818  0.0753827317839761  0.7865912323513332
  0.4940297565862495  0.4435261237689149  0.3717668483198044
  0.6205593222429394  0.0293665054442918  0.7427091372859570
  0.7296912280418880  0.1863188880949256  0.0256826414130991
  0.6630374975388004  0.0432335234287641  0.9868650028035069
  0.7045424822283209  0.0021645174126328  0.8942258442485990
  0.4019686051564252  0.6003048937447943  0.4086248589284409
  0.4492080622606892  0.5358608562852085  0.3295072254931115
  0.6657744194731979  0.0574160841929813  0.9194019511824144
  0.6816978410174669  0.2184910845069123  0.8377409545330796
  0.6497257366244172  0.0973958173986787  0.6830640945416526
  0.6770400264881651  0.1543100282530770  0.2483873404123401
  0.5481929643527151  0.0562226641259814  0.6592373702216657
  0.5029598523975171  0.0185638453829276  0.5967000329100075
  0.4941202884279116 -0.0119441134990791  0.5490939449678602
  0.5827873237822527  0.3068853866127763  0.2810949786500710
  0.7643490028787319  0.1539795607283068  0.8804588038119817
  0.6922011457329419  0.1736902143907836  0.7960609777722010
  0.7121878571134214  0.1168905781727429  0.8128806281120847
  0.6421087530406335  0.1384379795723228  0.7282226503922941
  0.7077004808901357 -0.0306103384885041  0.9717327578044376
  0.1617745307132345  0.8428953208327279  0.3698596506425810
  0.4088280752626785  0.6596404898311528  0.3903025819166822
  0.9291709095942350  0.4609286529178538  0.8838387845954997
  0.6856239270247456  0.3392953367402124  0.7715107052996836
  0.4803446318944640  0.3040186376700926  0.2476459906117086
  0.6361049382700412  0.3036091746132974  0.7039624349701197
  0.2120500914017702  0.8274555587780862  0.3331605849379198
  0.8338514092575841  0.1439911117614933  0.4772188650803270
  0.4012523843148504  0.5817635650675940  0.2411669240927529
  0.5854839009991321  0.2679623610891833  0.6377362612213561
  0.3450877320070870  0.5356492318998792  0.2951691140168161
  0.8660595018034911  0.0744221101468495  0.4771106338314847
  0.3481697406115580  0.5828135735911507  0.3382361823871549
  0.6365497850573869  0.2734807305280506  0.5977624009086656
  0.8194300959490105  0.2443425666973949  0.6643813042824844
  0.5339197421171499  0.2377971603518144  0.5710168814407939
  0.6982257171572589  0.2609397666647490  0.6207408843606265
  0.5557973962173820  0.5196969697181100  0.4229634719775526
  0.6573364154297241  0.2138350201367221  0.6134592353338846
  0.8835321143238234  0.5591106119855893  0.9353922960516426
  0.6676721522692710  0.1678886909916218  0.5629966622899000
  0.6579581293663241  0.4524046266395776  0.4768334055904806
  0.5360836968907898  0.3355105957182096  0.2550237776754885
  0.9167508078240491  0.5084934036027521  0.9253216745044738
  0.2704656596797644  0.8845258441356112  0.4562295799018464
  0.4748065925173106  0.2705731022169727  0.6564792532232112
  0.6879419462678121  0.2768351416401063  0.2120830097671860
  0.2022742342363150  0.1107471415460004  0.7038122367166356
  0.9142584260633937  0.1637649382262936  0.7622299941521791
  0.1332845303789692  0.0547495885267886  0.5238052674281596
  0.8010709055798328  0.1366174192513913  0.6706793781923636
  0.7300165518482746  0.9585537505262919  0.8148902543002932
  0.9631807598137077  0.2029016085920959  0.8265316566296751
  0.5534770350993422  0.5056844450927949  0.0297657425763145
  0.9326970303340083  0.1059706643641350  0.7795697026650664
  0.4314074216722356  0.7923390533273016  0.5279751747338736
  0.8217052046797665  0.0790021751761482  0.6895190430071432
  0.5165902543383724  0.7674335230527806  0.0020701174387522
  0.7619166655460164  0.0474270272428749  0.5604676652123124
  0.5252047135931736  0.7584151071173628  0.6196653084828349
  0.2425247439524568  0.3599711607635208  0.0150357481177911
  0.6261283492859779  0.8034413849561808  0.6390202652792517
  0.6543824237507908  0.1661669040217201  0.5030515798978616
  0.4093649916330153  0.7546491355510675  0.0278677387800317
  0.8506404210765289  0.1388528834116590  0.6364988849031764
  0.3641284804606306  0.7722188955719601  0.0621456795351706
  0.1895469150283768  0.4858536810193703  0.0830337392397703
  0.5622752313576277  0.8535539005842605  0.6640797258286708
  0.4726412777844181  0.2288435463657263  0.1000084047324296
  0.5760636520271247  0.3416064627556082  0.7900197814143574
  0.7642345564266497  0.5433242384081003  0.4315390997967035
  0.6920670991827766  0.3520346934592394  0.9467338911976350
  0.9466855261225126  0.0948339789602842  0.8426031516712168
  0.2205013989137981  0.2187238152983179  0.6897510894960074
  0.4142814113437344  0.1575067149625019  0.0383942823916257
  0.2340840237926207  0.0780716629014611  0.8947770915372417
  0.4563457398297671  0.0761626793770959  0.0214869552926848
  0.9091704048633522  0.4176825158852435  0.4207444156626596
  0.9413281805826474  0.6735236067847483  0.5138435151214202
  0.8458541511311598  0.3255076683283676  0.4304647775488926
  0.7706881145602184  0.0604078873225992  0.9590563034982512
  0.8080369562621462  0.4305441383006379  0.3177498716795245
  0.8306636620420085  0.1520051457182530  0.9616160269542129
  0.8058907229103360  0.4178251041818173  0.3810405957885132
  0.3727726327190611  0.2764738133811497  0.1080977528587842
  0.8115911871943726  0.4765609776689994  0.3603260113438284
  0.9507686527066316  0.5002106024355951  0.5466054863992492
  0.4023792692620943  0.3840251416969085  0.8924953535509846
  0.8683570282864673 -0.0456147416176055  0.9775990578580334
  0.7656665214559671  0.5550807611528197  0.3740804647344752
  0.9903152162216519  0.1415896118587851  0.9609381747043042
  0.4487578146687213  0.4194582602289019  0.9574887986188941
  0.9921218291861361  0.1351565455840989  0.9074836390553308
  0.1786938946421438  0.0340212994025835  0.5532292019061723
  0.6721357968701467  0.4141934369154660  0.9243429956037710
  0.5979365527605840  0.2853589198601155  0.8045141182911235
  0.2887963198090929  0.0549129248236893  0.4663210572780013
  0.1457711720364109  0.9692072044268272  0.6190897272637270
  0.1644985042967178  0.0614930571849103  0.7005640883079248
  0.2143676449394296  0.0990631041906118  0.7657009564969850
  0.1540995391469178  0.1053916377916710  0.7450331644397022
  0.8987344450436544  0.3070902664081238  0.3972205734056288
  0.2159793739201578  0.1310709540584841  0.8721855440917321
  0.2796878758325013  0.1237429951736158  0.8930933986782352
  0.2894602806642129  0.2331065778281830  0.8758090550338530
  0.3547752076772186  0.2095352513748487  0.9604111966631212
  0.1868367021238733  0.0363272057692727  0.8282676885468387
  0.4726888705487631  0.4373321547481486  0.6309184516636470
  0.6494848773048822  0.7070695240931917  0.7768529101767128
  0.5973321410932010  0.7381314497891761  0.7014028926118377
  0.5801818191073628  0.7970947443124649  0.4608767787163684
  0.1408148812150957  0.1170930018036481  0.6807586156552858
  0.4461605047823310  0.1162144822047004  0.8938143787117921
  0.2085079263331527  0.8105084268509890  0.1622769771827323
  0.2450210759927716  0.5319104702247704  0.0355888544022368
  0.5740456208687432  0.0573414625235725  0.8896317472214194
  0.2626822320054591  0.8287354535389767  0.2354044547854070
  0.2574988106557797  0.7501746326691894  0.0836262499700820
  0.4607944024323702  0.5102063274125193  0.7788148372990075
  0.9979022873480925  0.2021943772020635  0.4036572517805238
  0.4088304808967240  0.1284273310274123  0.6001973447436105
  0.4205724880022581  0.1131806965926911  0.6631815104397513
  0.6641387957144713  0.8493493596053791  0.8670958968653049
  0.4581887874871677  0.1625833363224770  0.6670781513733305
  0.5607595331134658  0.5965940711584291  0.3454884033031632
  0.4609304685312544  0.6594483652914105  0.2928035683367873
  0.5220525191805373  0.1846783397105017  0.7944686112398679
  0.4473605623450246  0.2999421215107986  0.5265383878915765
  0.8717795452500766  0.9311680077870330  0.5896949789999030
  0.8203950496441238  0.9252684588569106  0.6326526309041590
  0.6397117705533730  0.5910428060993997  0.6028428589760082
  0.7324452687317364  0.6261789818200786  0.6555352756700297
  0.6125690454428139  0.6126893971368554  0.4153498164543251
  0.6647611238494177  0.6827684524489289  0.6789569093241369
  0.6731900105745152  0.6671069442234883  0.7383483849013901
  0.2558063576763036  0.7354548844145504  0.1460880704181898
  0.7078455495015112  0.7327265892556556  0.6803742411815920
  0.8095314406005433  0.8525613234549690  0.7546880206294456
  0.1741543231200215  0.9272930240321117  0.2196938752728783
  0.7909239596237658  0.2442354931105128  0.1443935612523571
  0.4248021402235416  0.8438011070260260  0.3431584588924855
  0.8035414089872949  0.6288912213989736  0.4846218971192862
  0.4032896242367195  0.4883878435831032  0.6507515107464995
  0.6817421796076697  0.9187341884990563  0.7454603287496258
  0.6690670266673723  0.9658776901460462  0.7900817713211472
  0.0692433705626963  0.5166932928409772  0.8096194127762055
  0.7936826480309277  0.2773780137266781  0.2507996092807049
  0.8951381813975623  0.8131387747064706  0.2834277334022215
  0.8114245692216464  0.9549836184196508  0.0732168880810614
  0.9420070523815623  0.1807601699719508  0.1036834387500495
  0.4153166366828794  0.8029710832724352  0.0701573861023682
  0.1051801826307835  0.8626577596903292  0.9058073253716524
  0.4159763625285613  0.7858468760135486  0.1295690932424910
  0.9473150388483419  0.8277368429500860  0.1262118887277263
  0.8416777954980376  0.2261364917367811  0.1115923314265133
  0.3699527441735788  0.4854611859063225  0.9238360462759154
  0.0430856751546292  0.6247196372780277  0.0522757484650093
  0.9348501638912396  0.6576801898499751  0.1115294215901372
  0.0904823083575100  0.9072505403760466  0.9623665560948026
  0.1047569861847969  0.8351381468903742  0.7967170978455169
  0.3418461362552650  0.9676826351403951  0.1895111106635297
  0.7860565624224382  0.7795145306881666  0.1363102527282501
  0.8529261494429320  0.8787630047076552  0.0574199838146997
  0.9435578733769404  0.7842393237753780  0.0786649195656611
  0.4409943120169511  0.5659604608327583  0.7612564017885495
  0.4004223614100804  0.5477622242108807  0.8616520577945882
  0.2347562402976958  0.8425093607364952  0.9547354645620241
  0.4612657749483061  0.5411328994928125  0.8846217098592857
  0.8824917714753837  0.1057005632892346  0.0481850933265247
  0.3074228759296158  0.5120048166879040  0.5122005250148975
  0.8759364420521611  0.0621365839431074  0.0017996277678335
  0.9559361271361896  0.9209131325137899  0.2151715343291500
  0.8870416652435347  0.7507111852722641  0.0669548721372252
  0.0823726535812275  0.1230351599628851  0.6571783007121507
  0.8497698721486768  0.9082052299380996  0.2386647755671663
  0.1480910738736974  0.7117209956594425  0.9880295336275763
  0.0935073516556326  0.7385212000578336  0.9746881171629218
  0.1622906219505275  0.3550823539660724  0.5332200993166936
  0.3911805815980652  0.5304904175254693  0.6948654920938618
  0.5180510594072095  0.7367922445985662  0.1193852765561874
  0.8063645316184882  0.9094333930367579  0.0295440122626111
  0.8304457043169949  0.1348261972702105  0.0217500085120583
  0.0343001272175346  0.0308513880892871  0.0666746501310865
  0.2171970191371514  0.3838646250571772  0.6585759428737122
  0.3602974711884015  0.6032991137638252  0.6164333575136668
  0.2362579517163871  0.9541574921142690  0.9894809848735459
  0.8588674119710542  0.9267090001651506  0.1020209758098362
  0.2860723828491705  0.3645991601658724  0.7447889920244924
  0.2373749652317410  0.9624132118432317  0.9338433968699806
  0.3330463028671138  0.8767457269788748  0.1016727041499146
  0.8367991628897996  0.7641561859942109  0.1025333367220118
  0.2792069280535854  0.8831111700527607  0.9677585994491041
  0.9913990828321453  0.1500764205426183  0.1301194918468387
  0.3706555262371448  0.5627941212819371  0.5734813538696240
  0.8861450012121530  0.1510833208003414  0.0939243725021913
  0.1927547521624052  0.9209418457062574  0.8714106129929983
  0.4718996341977492  0.7988678856569293  0.2005475757895908
  0.2074036909778448  0.3256073330333590  0.9613623307276995
  0.8751718051256265  0.5171759017989611  0.0808275635671433
  0.8173113426701542  0.4965389907925191  0.0067698737232234
  0.8682830298035821  0.4538631036404711  0.0985774257700517
  0.1468127759080365  0.3029903035329620  0.8198045451744269
  0.8298946623602221  0.6673443945645916  0.0131337209139055
  0.9509365238129002  0.3058987186043484  0.0738327491181056
  0.3966701745419285  0.9810483810096183  0.5802842362145064
  0.9725877129394647  0.1224499163067515  0.6745462320002408
  0.9025457549172922  0.3179992225906879  0.1049609200008274
  0.8470819125852391  0.3010226431707597  0.0313929125998427
  0.6282072478014102  0.8125610393403164  0.0740306756840863
  0.6778951478723777  0.7970183756500070  0.0412495041877174
  0.9930087679661326  0.1680952128968522  0.0690091492571840
  0.0867773158085258  0.3419460347105944  0.9049273887877289
  0.6701970819423058  0.8076763529233426 -0.0186725272120503
  0.4500812669450056  0.9816994713535775  0.1611304793106718
  0.1972589548813539  0.4922093201166887  0.9110905866448188
  0.1608467692130509  0.4420354032273058  0.9137187676662233
  0.1005056542896424  0.4488861404590043  0.8900747649726626
  0.8237021442658681  0.5335098409528175  0.1123895838328462
  0.1341877704689617  0.0735175462895592  0.9152171598790972
  0.0602732287995745  0.2461778389339688  0.8534828736334077
  0.2417772217443072  0.3768756320251463  0.9551517768150748
  0.4427541160789105  0.5716493757972548  0.9727178878184873
  0.1233676735862329  0.3934608357037839  0.9083014454835602
  0.8050793455421789  0.9419610964429792  0.1376881491795978
  0.9738971531637018 -0.0001690106114464  0.0543012937496462
  0.0539866968463602  0.3171698726798108  0.5078626239810109
  0.5388577741607037  0.7123994390469153  0.8020435626662612
  0.8424466152600059  0.8242846274402715  0.0831036900272017
  0.5023061159128055  0.6619502739417777  0.8026036962139056
  0.8934952739635496  0.8085119503364583  0.0513218975847762
  0.0767865956398835  0.7703594222050147  0.8494838387484271
  0.0669747017558174  0.7847080067550962  0.7895850795896523
  0.4416994097395899  0.6693100133973712  0.7816986642563014
  0.1154084148662444  0.3033666539935743  0.5272592763759703
  0.2760617965939929  0.3770514991718081  0.6802592672235074