Cr H  Ni
 1.0000000000000000
    38.7642358654787174    0.0000000000000000    0.0000000000000000
     0.0000000000000000   38.7642358654787174    0.0000000000000000
     0.0000000000000000    0.0000000000000000   38.7642358654787174
 Cr  H   Ni 
 1596 213 3725
Direct
  0.0271669513119682  0.8815217777769703  0.9946660306381162
  0.6150312305999267  0.6128863790829161  0.4158142009537574
  0.6820775746224813  0.6207781944100612  0.6961019050331483
  0.6732744874743810  0.6656312363894802  0.7374425321024555
  0.1428429876336513  0.6112282998329756  0.1448665266527628
  0.7074517192799342  0.7320935386821058  0.6797801206305976
  0.9131307498826097  0.7521767222639095  0.7368589580717512
  0.1687260551878350  0.9147293094705483  0.2851952765174112
  0.7414499431451360  0.2932776651742960  0.2842844428387089
  0.4197872051272453  0.7972241481617579  0.2969294989552959
  0.5714444782623782  0.2224783973016011  0.8623028190718696
  0.8067627784515775  0.6727072990534900  0.5291836282009149
  0.3668678586099893  0.5702685094775686  0.5756265319220371
  0.7411351040036626  0.9111714710094938  0.7688138425849095
  0.6641613448621241  0.8494326385572597  0.8658727103230370
  0.6611955565131403  0.9771984130846399  0.7293889242849151
  0.4796122142594386  0.8561534114862288  0.4140521525880277
  0.2439835695086947  0.1938810822202409  0.8136518941357586
  0.3524737880001026  0.1933557089747009  0.7941571407820460
  0.5346251082520262  0.8730895699305680  0.4833756009635052
  0.6369260080957191  0.8576743265802574  0.3500689072004191
  0.4950333043407417  0.1224919572328787  0.8541291980886222
  0.2096899478311348  0.9653901255989691  0.6414205489191978
  0.9978170779781945  0.2017847212495990  0.4029503435766035
  0.4792596426231993  0.0146864853693774  0.8711804505409906
  0.8027159284868471  0.9323156668538164  0.4421391222500667
  0.9167196564737810  0.0465862648907671  0.5032952664353169
  0.8157488120271047  0.0880571844843141  0.5043578703417508
  0.4295895510399289  0.9047655104500875  0.3264842396924305
  0.5603693504814671  0.5822903020175150  0.4082521693967446
  0.4158040733028850  0.7203301792829994  0.3729981054745274
  0.5097687960439395  0.1969136978123540  0.7338210437146532
  0.3667030114225907  0.7676081315357473  0.2876433344715467
  0.3128129278394348  0.7518606938528091  0.2179018285861019
  0.6813323232688070  0.3177354605273526  0.5454161269764785
  0.5074894608067086  0.3334285624645775  0.5986788623232884
  0.2635729852422410  0.8126134441038387  0.2979920588412546
  0.6054326374486533  0.4041106255292246  0.7327892678159132
  0.5569770557491457  0.3699794346501050  0.6640969692131797
  0.2727098271400946  0.9052796269964060  0.3898703034460625
  0.2691164849897346  0.8746281590186512  0.2823067766851260
  0.6836367984057848  0.3707690159514754  0.8764970790183803
  0.7123917366132163  0.4345270718456065  0.8174664522954029
  0.8238300021525791  0.0459296985342506  0.1640405020665925
  0.6596215955864552  0.4642785109666735  0.9627126778131661
  0.6453196330510921  0.3830833985793421  0.3318667838670128
  0.9957170846700500  0.1548000087636418  0.3610739666191730
  0.3531463552005025  0.3716385467669921  0.9956876129841487
  0.7320827496359373  0.8024480704884478  0.5640238146240159
  0.4272481738518212  0.7957678800549968  0.5252993780739402
  0.5828590258665146  0.7635515494442794  0.5822199164742221
  0.6255261941443750  0.8004792438336146  0.6370276081430468
  0.4364177023199912  0.8009981387418328  0.9791180296747944
  0.3636136700747989  0.7532994433064882  0.1220304545622560
  0.6223408403171043  0.8472959392691354  0.6829590581488927
  0.7647177969509524  0.5429175000622521  0.4315745130938134
  0.2803996922751620  0.2122461400265531  0.7119061014733240
  0.2462667343655979  0.0308513671083656  0.8483625570022043
  0.9536502650050125  0.3258191569495316  0.4670499685671256
  0.8463343241679203  0.3280838192403981  0.4291676416369234
  0.8078059546407536  0.4311502711045815  0.3178116001095224
  0.7586751432624044  0.4450811658867122  0.3498501950969810
  0.8105601984987123  0.4628669834377865  0.4266797192244359
  0.4264404531992843  0.3273912724034118  0.9109997978614611
  0.7685903408044583  0.5544231755440385  0.3715674677648018
  0.2934086397423490  0.3845141388534803  0.9105295469084207
  0.1263348639550090  0.1361883035136593  0.5432177382931223
  0.7866817543685338  0.2029530750368081  0.3296994711777877
  0.7665195730815031  0.7770039697887998  0.9608113385749298
  0.5993698432993885  0.4276109841066387  0.2413003903264488
  0.4525618828597175  0.5059514037526728  0.4576595017076421
  0.4901762768275271  0.8256125576116220  0.9862934836190798
  0.1408564561248846  1.0145958288438746  0.6632688708083405
  0.2138187647635846  0.0991459877390669  0.7665241601764902
  0.6953220870050446  0.0114801188423129  0.8298851626140756
  0.1930288270661003  0.1536824093078181  0.7482244927540873
  0.8974016504771810  0.3095027009403543  0.3946482021072454
  0.2171512975516402  0.1316427133600353  0.8725428300877982
  0.3039039228216100  0.1642188048224199  0.9497472848540318
  0.3039558748969261  0.1866064633066329  0.8349376531146323
  0.4144700583391329  0.3719114666432187  0.9586081383108936
  0.2362381321956139  0.0422873157288828  0.7834590218575916
  0.4370837306448767  0.3839219847352210  0.6227304469740180
  0.6481176392974105  0.7061556955845476  0.7760675891709032
  0.6058814716981785  0.6904357734030122  0.6580716386520015
  0.5816291783308389  0.7973973043314317  0.4612743566080285
  0.1429001265567276  0.1171287335242962  0.6815717493535518
  0.4449827401358445  0.1142155281225440  0.8953411564270978
  0.2654341531248463  0.8418729662547948  0.1729749521358548
  0.2349892815890412  0.5466862931120249  0.9129245161639304
  0.5808844178836380  0.0605716704333279  0.8920483095575261
  0.2153286814169953  0.8559731464460262  0.2052402758945153
  0.2577264390778143  0.7635157955728462  0.0208263045712970
  0.4603802992493687  0.5099278522473102  0.7778082082402805
  0.2024447691171778  0.1106048344019230  0.7041831681921216
  0.2027674930618402  0.0871157248171385  0.4509143664390700
  0.5550495068171148  0.5034485413004083  0.0310131217005690
  0.1637905688912065  0.2891861010443629  0.2065756452558265
  0.2398638756493835  0.2615164004838035  0.9620528920037852
  0.5765243604454475  0.5559890735321936  0.5290116892676052
  0.9859865871918797  0.9634966421330621  0.6781566957085927
  0.0214732458451934  0.8981318758316689  0.7592901393988163
  0.4752461422900821  0.7957985239907155  0.4303747974182627
  0.7007476812241284  0.7408227902770077  0.6216894813277484
  0.8030940757853750  0.7712138415771402  0.6075698088902486
  0.5767984640309053  0.7665753799777874  0.3552323185626231
  0.6937134695080380  0.8471390557708314  0.5468127357270387
  0.2729153674498833  0.8589533958022056  0.5157018243593533
  0.7727188004527620  0.9211537050015496  0.6722409819816082
  0.3823854608303850  0.9491758839173099  0.4713300215300689
  0.8851317456208891  0.1048303534855951  0.8191596337424005
  0.4549390758127361  0.1305176528251480  0.5550644765248224
  0.9617571670331014  0.9823797145344110  0.8916891355875424
  0.9743946874820562  0.0042854629555708  0.2992626928473763
  0.0294550887926883  1.0060029767843539  0.9621216873883415
  0.9269018242592321  0.0669597259215700  0.3731677195877117
  0.8806781710852322  0.0939108508267800  0.3435156275856479
  0.6608971343371975  0.6446278144761159  0.5740556149478601
  0.8913199214585580  0.2020400163891150  0.3657480643151967
  0.8359636463768112  0.1720181245547161  0.3565659183627446
  0.6372939314724338  0.0180164874024808  0.8073851311816881
  0.8844546376027704  0.9179594750688248  0.6502952168607606
  0.5125523434907142  0.1308630264142189  0.9696546665340066
  0.6616617479626721  0.5205512592471966  0.2303272912384741
  0.7662437927265404  0.7195025134937707  0.6993981135603586
  0.8833138071051669  0.8391386289096626  0.8342797736018489
  0.7000987321166350  0.3990252369088790  0.4042262958982650
  0.5616185489270854  0.5691706809773051  0.4691986864681565
  0.7815055948330643  0.7570483982624170  0.0276162537659419
  0.5838948220147726  0.3099894790198391  0.5144855109661706
  0.4076962668804595  0.2489629426564421  0.5269872719218484
  0.4169344033403703  0.0080906883852423  0.6423342189602457
  0.4886309282137819  0.0601786696041594  0.6402479555032731
  0.3952329386850533  0.4101394372086097  0.0016131863419397
  0.4915880902591298  0.3449419004065382  0.0543255893539339
  0.5142874245779010  0.0333279846905772  0.7654215610206130
  0.6011781721347589  0.4115982145277324  0.0689636344271701
  0.5045541220606354  0.0777771525970575  0.8104320344640071
  0.3923997333004826  0.3419518882926488  0.0177270881541670
  0.4412536221335717  0.3760368574186557  0.0314236604088075
  0.3488488203403583  0.5500456180183827  0.2337367111196344
  0.6083502669501061  0.0127921003060591  0.9745033209559585
  0.5670020716273856  0.1527958357072226  0.9797519694138880
  0.3977088543405458  0.5024373964407287  0.0942794842700003
  0.5130925897085706  0.9652910233607142  0.8535600022459983
  0.7542030938558701  0.7649616466081367  0.7400092805469278
  0.5353400835833262  0.9095085949421168  0.8683526029647664
  0.6117083907462106  0.5510041820697710  0.2039870168440882
  0.7122124700521428  0.5232860257571244  0.3624726141585270
  0.6721012884271523  0.2324313444506245  0.7817688525315696
  0.4982208914323580  1.0095379008769714  0.9358176848547519
  0.0961334187182387  0.0868601230818390  0.4841245436721148
  0.9664592652064454  0.9799255306515603  0.4268549175639483
  0.9321759238650076  0.9211741317545066  0.6101325077958446
  0.0312274920370633  1.0324150331111421  0.6071372015370621
  0.9105369197192004  0.9356189092837320  0.4812423152154628
  1.0180260729260422  0.9815661727124123  0.5685980806840548
  0.9052763209795588  0.8734629802692402  0.5023026854315786
  0.9074457078203496  0.8125170918532689  0.6329692399230735
  0.0563260761185786  0.9150881447233343  0.6580037813303637
  0.5425289308297608  0.0677741224705120  0.5970104025331971
  1.0068705432266976  0.8627156350704904  0.5931346892809493
  0.5830752219233445  0.2036752566812376  0.9271903661046482
  0.5214343220977030  0.2163367587845062  0.0613324505470517
  0.4758433027431371  0.3660711384772415  0.9793845645993012
  0.4141338004056565  0.0239020697837789  0.5777930659329563
  0.4816819887165673  0.1840461434422656  0.5101193681152132
  0.3500285905742413  0.1296088592920644  0.5804675344487513
  0.2949905050431644  0.5003625328052842  0.0576584067489247
  0.5197323518985980  0.1537649818311217  0.6887957986082962
  0.9323067423379668  0.0256420627300856  0.6270049702463519
  0.3506177301756949  0.5796988164611723  0.1102961257642795
  0.0250088261476151  0.3916997551538289  0.0533018912832333
  0.5788879465099896  0.1148225390739621  0.5987988860748988
  0.5482383752614312  0.2476464614445926  0.7387379582371336
  0.7085659507447717  0.2803722402332209  0.7882712876408147
  0.2995723702203334  0.5658162985120789  0.0428112525542039
  0.1933728887783839  0.5470201739676166  0.0684685037074029
  0.1494536878968748  0.6861569908712655  0.0643281468205006
  0.8822744514248881  0.5544382863699833  0.9454018209979655
  0.1067122932166545  0.8089722653222174  0.1284816335500963
  0.4706105926876482  0.0673538202893444  0.5732287773762144
  0.1541077197816409  0.8100085594998572  0.0359037481218627
  0.0330108802335481  0.0322841852127128  0.0698614841568224
  0.5013548664224098  0.0589075719331367  0.5298379006984795
  0.5294551520784592  0.1095785692300595  0.6416217338156170
  0.6097457425568278  0.0464529211495409  0.6832324758200740
  0.5811490703276982  0.1461883470534791  0.7097811165880517
  0.6117856273410348  0.0743898864514718  0.9574903219663845
  0.7684996813882407  0.0295457768582326  0.0928801698536196
  0.5834377505694126  0.1782614081520772  0.8171198800191830
  0.5720988727137096  0.1831260645759862  0.0864993280479775
  0.7754735232870216  0.1230473934208813  0.9470733176666105
  0.6280160042133528  0.2293041398948369  0.0384223044815763
  0.5290035514064749  0.2163777038712085  0.5206525248849085
  0.5982362815160926  0.2534632019086659  0.6990965115478479
  0.2688671202244718  0.2890453633323027  0.2414672677756449
  0.1173056174558940  0.3347521517768085  0.1189646043065149
  0.3376301953212127  0.4465217187543560  0.4313226684235044
  0.1805662086141301  0.4426671576094344  0.2702524296761038
  0.7948159662741001  0.4627034535729564  0.6184036840335237
  0.3999984002182476  0.5359100955781586  0.1985436690361325
  0.7037103553101364  0.4459409263810298  0.7567156725630442
  0.4117938427484597  0.6734103473357099  0.3283980078001356
  0.7010017265118765  0.4800789434793811  0.8610236505422030
  0.9071827434129229  0.7861116733234662  0.8433564334109261
  0.8539572557771844  0.7998525730509165  0.7425128254296764
  0.8209182667058867  0.4971584571099897  0.0087800623359235
  0.8433030175077795  0.6710397866088691  0.9589671320546724
  0.8772535845382121  0.7270275132309889  0.8999708154709449
  0.1558274740755774  0.7784399007823657  0.1553412361139656
  0.2104573928558595  0.7961438600629702  0.2254085119350153
  0.8829840330441688  0.6887114715791676  0.7970210243833837
 -0.0004631031977809  0.8092668744013336  0.0943497962286039
  0.9105202632715362  0.7672098791199371  0.5919459305201190
  0.7653228192841178  0.6843576883354148  0.5961227815237723
  0.1084826673263575  0.8405680425808844  0.2325451764580731
  0.1218013282705491  0.9158384337575713  0.1494491838575370
  0.1268707716095282  0.9593924452711471  0.1906444784925536
  0.8563262265177318  0.8089271989951041  0.6730103097082011
  0.9178365375575837  0.8532336174726637  0.7360060782068022
  0.6148901543492685  0.3920108467488778  0.7921434491160013
  0.7182470126647329  0.0597376447012442  0.0612885796157961
  0.7138216070781863  0.0013394117473438  0.0803328842677812
  0.1296283956532799 -0.0100558836496849  0.2995969789495288
  0.9702316466751114  0.9245166069110190  0.9075157813175717
  0.6551785141328271  0.6471417044590297  0.5110512132368156
  0.7080279065899268  0.6534975349737627  0.5275431240856966
  0.6344190026554809  0.2746641424250436  0.0789568917925792
  0.4921099223453052  0.3819276804504512  0.1650954613701780
  0.7504506974047976  0.5165910643714166  0.9240101304051074
  0.3577465674944461  0.6584786270997903  0.2597756662488249
  0.4950650653038842  0.4274214116127440  0.2067081515347834
  0.5503122928390699  0.5668571865390200  0.7388787007320654
  0.6632128597505196  0.5516764825978561  0.3360381386167482
  0.4050862775811531  0.5358587957622000  0.9185470798918535
  0.5349532310635157  0.5243944224401216  0.9636134499489766
  0.5681237935771107  0.6580738248314388  0.3284974484157194
  0.3839264532563983  0.4083242639726641  0.7702033855086794
  0.4333355409250689  0.9502527320823329  0.3713776746019209
  0.4420694516757327  0.4352673926982391  0.8963860947237983
  0.5512707962448173  0.4650951943549311  0.9821100394435275
  0.1399879033157064  0.2817396134600003  0.6542008066791111
  0.5860515985475676  0.6332702283379378  0.9412172617136548
  0.9288978609338975  0.0454183335749665  0.2012719432491344
  0.7307522338948055  0.5412481049638304  0.8007976792831051
  0.8204919083439350  0.0150781790747735  0.0547899584971670
  0.4684879850807012  0.7211300988628420  0.2772571473727435
  0.6134999573723028  0.4982502711100410  0.5592453117007089
  0.6841711731743807  0.4714734623226359  0.6342235920021724
  0.3548972013295921  0.6127295522064070  0.2170958006814322
  0.8388246797837726  0.6475927879240315  0.7315885409320809
  0.3592025738033098  0.6734515465027658  0.1992085893939625
  0.2568824129674125  0.7187958091116341  0.2082563131593026
  0.0251433386485291  0.7675048714058912  0.8937403242490994
  0.0410833364748730  0.8731883239697821  0.8840176949866888
  0.6159515928384608  0.5374345192657880  0.4990060556360815
  0.4516021879802696  0.5197693624233380  0.1625687627690958
  0.7352209386751395  0.5933368933599175  0.5180086365568052
  0.2434214594904866  0.5494496550459057  0.1982294897787964
  0.8089745455630865  0.7417767494500007  0.8091866076415124
  0.3265595854988729  0.3831453276836312  0.6410796081494340
  0.4244123292177078  0.4284548469080803  0.6698143225201109
  0.8034820240907902  0.3843225683886450  0.2740080286632198
  0.3918454701544846  0.5289466702306473  0.6951607496322357
  0.8325493848264398  0.4184342863874789  0.8606156167225795
  0.4363027931989971  0.3529826503725190  0.5113116430953052
  0.5861451846666638  0.4308584331203418  0.6112648573529118
  0.8392118700461000  0.2139483843444341  0.1726156419986446
  0.2794799615797069  0.3446190982748052  0.5754437423391723
  0.3384931823461270  0.3388524785136445  0.5964559567175274
  0.7625389652171783  0.4735365320303862  0.2248700112010284
  0.6086077114514603  0.5587482332295299  0.7595994552028775
  0.9354294859942036  0.7630918873111978  0.9660728670726647
  0.7883975110650916  0.2479067130288947  0.9276152874340066
  0.7910804588771623  0.6122667089658068  0.6746944120026013
  0.8938007964061774  0.2297664173450896  0.2446363240687477
  0.6789691024691690  0.1966489552768843  0.0625986918416727
  0.7149245518461412  0.5356483948116219  0.3021686841525715
  0.7574743646091742  0.5847696527471621  0.8385220575184027
  0.6064393189557296  0.5726684127374517  0.9605993527906457
  0.8159110242097253  0.5776207937830578  0.8596393520027751
  0.6131939045088073  0.5811108723094240  0.3104329669035679
  0.6309036787197373  0.2299920681570984  0.2649888362676938
  0.6192593906781143  0.6438019023867938  0.2928167366965752
  0.9297330398766522  0.8789471381811247  0.9018225112063958
  0.3470890135600300  0.3261746986397725  0.6593906607203791
  0.4895902616511499  0.3968057626915324  0.3327751718644369
  0.5358030848926416  0.9044258493750506  0.3598002719091376
  0.5952919866185855  0.3821552964558117  0.1998240986454761
  0.4938257342295407  0.4063982349721725  0.7504862656820602
  0.5555426714915551  0.3377529963164044  0.5533465498608087
  0.9904263072160355  0.1235120122555185  0.2561493950061561
  0.5991725863471382  0.3969561065371970  0.1368331103714907
  0.9431047301214511  0.1854923662479143  0.3323372592396021
  0.5079065497913604  0.5812958565220221  0.2747463495497162
  0.7040398519432114  0.4289674243365259  0.2774508758293721
  0.6111773735190064  0.6575549516844528  0.7776873015660921
  0.6603633069532254  0.6967996935438947  0.8370499775533645
  0.5272450492511053  0.1688671046603059  0.4766515041343889
  0.6502223178441657  0.6239698431662908  0.9653785111316819
  0.4885086633998997  0.2875262356866007  0.8247085477642786
  0.3754827409190527  0.8919106344894607  0.2580438999044960
  0.2833893915738503  0.4115720883985670  0.2017236763293068
  0.6482652892712563  0.3984274180065426  0.2680705053124107
  0.5258949958196754  0.2300716313914146  0.4594620086041382
  0.3544350683601861  0.5923490879494359  0.5109360394766904
  0.3816632589902864  0.3805240833968224  0.3616715634588615
  0.4332547660196203  0.5144335863909042  0.5439981692797545
  0.0455840384612545  0.7190581965131592  0.3639701203265691
  0.6994731187297644  0.3502789550884415  0.1286686146418732
  0.2828174092187311  0.4288837312254468  0.3680076432849085
  0.6083383722580448  0.5204047880189577  0.3278303785550071
  0.2875809955502679  0.4746168702958563  0.4085969217400365
  0.5750400697245217  0.6088135388623215  0.7772388997738403
  0.4283291435209933  0.2624696365055555  0.6968632910168412
  0.6241257104952718  0.6467308382149224  0.8398354521514236
  0.1381809299868802  0.5670107723484219  0.3289666614280633
  0.5753014147627391  0.7610051344322292  0.7990218343754100
  0.1846326745057750  0.4897564560221587  0.3111492413250963
  0.6693124120494053  0.6869698089079528  0.8974272626786647
  0.5218137396625898  0.7513374741589190  0.2867707188631159
  0.2993522849981445  0.5977248294357403  0.3734920815755964
  0.4753927853218042  0.8124302205731511  0.3696916823407239
  0.9508208540511623  0.2616320031739266  0.4818275117607407
  0.1920384229609303  0.5812341511641184  0.4011504883732305
  0.8507207670470406  0.3744804559120888  0.4737428873397062
  0.0901066852751060  0.6268854395214024  0.4090498532624355
  0.5106456885659323  0.6336521394780622  0.6963508449334805
  0.1016116528438029  0.7342951745213552  0.4357478583153365
  0.5337704012419002  0.5919895232860581  0.8795761675506315
 -0.0007419387570281  0.7976805484566690  0.3812958206709579
  0.8424557362458781  0.2475975751287480  0.2777026526605664
  0.0628770437502886  0.7687228988498522  0.5372527535392565
  0.2450988094396483  0.0778040440188006  0.9526039890049987
  0.3197134296211470  0.2746751137371596  0.2074516193368170
  0.8185826195663295  0.6247057776463875  0.4905681108450737
  0.0543938144876407  0.8102658036759991  0.4530084203165787
  0.6448018372160965  0.9356513021510788  0.5002773582200675
  0.0119243205651983  0.8900504700600933  0.4771060354206168
  0.7421892472901196  0.8373896694030375  0.6690486518371156
  0.3139086920431062  0.1956102884475716  0.2843564173655695
  0.8758796520333436  0.5595848786112706  0.6146975011326091
  0.6144643260996361  0.0960058429938423  0.3676098239072446
  0.4327350100872758  0.8427384808432039  0.5738147977596921
  0.4090455846589700  0.0862575304267762  0.2871390197019269
  0.0099606457929958  0.4139318329872026  0.4562066716287159
  0.6108261978456422  0.6927146841227594  0.8785768865935308
  0.0237189891009119  0.9588311896644284  0.1541869346852990
  0.3682066279099026  0.2109405244716333  0.3541070139881448
  0.5153195387184019  0.0973915520434293  0.3305345613164344
  0.2260381400099631  0.9807488110624506  0.4083458602379271
  0.5743917014447317  0.1863912387845394  0.3167949264242609
  0.5271041385272588  0.2605289471912478  0.3350670377596164
  0.0494681598982242  0.1854248366563154  0.3711404311854450
  0.1029614741305565  0.1541756520070273  0.3996832775008805
  0.1365540307522973  0.0356330917911388  0.3436436491928366
  0.5364120653764333  0.3679365088596452  0.3591464555793781
  0.4847458282683410  0.3825375162401463  0.3979948023015032
  0.4812731738838164  0.3058397238434207  0.4773713466580993
  0.1175647815509013  0.3516595789219119  0.2842262830848036
  0.2944585148839312  0.5162219039562036  0.4516699362222744
  0.0753496785852925  0.4422815529582244  0.2363712787397081
  0.2031405302750515  0.6872726397376536  0.4265124228839173
  0.6589997276533192  0.0743536559852085  0.4021184681140869
  0.3600755089435542  0.1349923738928700  0.2027852287747415
  0.5513669559398297  0.0570736768650514  0.4307203289724750
  0.7123899792623908  0.0906017618473625  0.4730089515218975
  0.4506570080077378  0.9811220618090853  0.1608402989983616
  0.5761759888486856  0.2176747551564780  0.4238301496812774
  0.0327425859572881  0.5347709675740776  0.1880728376061105
  0.3235487306559193  0.3240397158544916  0.4789385242498824
  0.6839926249420586  0.7552958524233934  0.7755060509064318
  0.8456742194068971  0.2955756682774816  0.3232536486586102
  0.2422252014973982  0.2230942982433055  0.9157498622568712
  0.1944953203463727  0.0481392238807722  0.9445515612944293
  0.7211297628594181  0.6300244566616536  0.3876861742608700
  0.6239839845986677  1.0047981084111921  0.6398524683766250
  0.6817977017179453  0.6826708873279106  0.4685720705413350
  0.3793502443091171  0.8715200001776503  0.5502578131204883
  0.5393580549297096  0.9325538691501011  0.4686590854409428
  0.9079935379541532  0.4180215943934468  0.4218820195364695
  0.5191265928951423  0.8860332149294263  0.7034231532579106
  0.4079066849811883  0.3195401701602033  0.6810413167073701
  0.6075863909268687  0.1376333580804313  0.4859684071533019
  0.3865937622516962  0.3059876202054991  0.5071905137189185
  0.4335713299778683  0.3946867129874967  0.4361749959368446
  0.9814535084715054  0.4841111967746665  0.0119603294852175
  0.3096509497034013  0.1824739512605969  0.1165603716743257
  0.2590147695297558  0.1822317223025641  0.2131351407870038
  0.2571333434481436  0.1724028578277651  0.0393049397664592
  0.2059020054857169  0.1845867257026186  0.0791223733691077
  0.3050722595515494  0.1231465135583821  0.1309372315994136
  0.2547218425054507  0.1545101332775747  0.1049473285919026
  0.2871200407033551  0.9549882912963028  0.1215532048094709
  0.3508419915866011  0.0450787825214109  0.1114067204214003
  0.0296497292297943  0.4870406174137246  0.1451175665191775
  0.8038634229723061  0.8056367885961733  0.7123291061058914
  0.5549276862229314  0.0688608276872152  0.3639149506486158
  0.1812351714185763  0.1355311414995453  0.5800844830911226
  0.2921114887938137  0.0428905129435930  0.5304228527179284
  0.3486967591841874  0.5677476975624607  0.3982925427973900
  0.2694923492452792  0.8044614942241654  0.0609244335536467
  0.4568520751783565  0.3575224840430629  0.7468239487625752
  0.2259213349211222  0.8351376494692004  0.0368142231854081
  0.5156750348848478  0.3503886697633836  0.7672515704784899
  0.1785105360039296  0.9103144713897378  0.0461980315167041
  0.6244131469415433  0.3791212681253877  0.8554916740708649
  0.5526328858353164  0.4317482023613933  0.8770935681966248
  0.1677676330324280  0.8845035625231210  0.1764041905989908
  0.2308931930788687  0.9273216531504247  0.1181998786172464
  0.3101706409984811  0.0778266890476650  0.5763675688790297
  0.7257140771698899  0.1207501898715036  0.0452445943135609
  0.3130483215346074  0.1108729388866867  0.6844458945080126
  0.3388721346400376  0.1735531013765200  0.6277464171855061
  0.4002558338474310  0.1988903568081924  0.7551010352029360
  0.3567701167214359  0.3457650659672017  0.8272217173229948
  0.8128704767095155  0.3752838242234262  0.0402200727666319
  0.5146676939060281  0.3828897916032789  0.8746562574562944
  0.5838908668583251  0.3603669721828525  0.9582393111516407
  0.5123338366685092  0.4184309519760462  0.9800234540235245
  0.5282096364798153  0.2590668245568677  0.1079553939655720
  0.5583913517306270  0.5497462775438122  0.0726415010081757
  0.2980613306078273  0.0205817933472756  0.5971320357846297
  0.0758043648711347  0.9108861816738154  0.0173074293873679
  0.5549726087300477  0.4876464604731750  0.0915536517214271
  0.4050789784346382  0.5967820279692521  0.1810672286543604
  0.3043888710130713  0.2409492554370014  0.5478202737299575
  0.4099679734019808  0.6587992122896488  0.1621049857876195
  0.3552436309510494  0.6449574115632145  0.0942593202522401
  0.7782893060145152  0.6433379173792476  1.0025675845011166
  0.5735473161860708  0.4781349665553827  0.6560398091008579
  0.4682497517751770  0.1648167694878538  0.3418270602270991
  0.6211124116393117  0.5133258614298877  0.7164770685346353
  0.5612897390691323  0.5225702872982649  0.6967707676610591
  0.6309381949151528  0.4998084050649658  0.7769105516279337
  0.3036556076086258  0.6291278853585609  0.0238385522303264
  0.2544725227992624  0.6872941900113132  0.1022044090981598
  0.6790711708368302  0.5370758367943411  0.8427873236247059
  0.6467711623252629  0.5887360012366004  0.8581117095380023
  0.6350868242996556  0.6345429333394494  0.9016066938100953
  0.0450701128371399  0.6379923811619220  0.9901995196536337
  0.7191553675933947  0.5499227818606187  0.0131321109894581
  0.6958840385554189  0.6287541766095448  0.9226360027612426
  0.7343098515672138  0.6705709125189903  0.9808607941125091
  0.1084917907924595  0.8239877768368871  0.0701413404533733
  0.4019256547807643  0.2309025546782929  0.8607217724800926
  0.4857131824293279  0.1659431941621493  0.8990188062470178
  0.3887506559921775  0.3468611016916411  0.5549915223328065
  0.3147770594437297  0.1750743727550493  0.8973184678361747
  0.8393423947582477  0.9526176529659123  0.7967856647708687
  0.5428003748308832  0.4448002377450568  0.8162795567142564
  0.5910036528046789  0.4826008413552073  0.8794473697677714
  0.4373426634937545  0.5864702785873460  0.9651705657818230
  0.6905260117462725  0.5249554132903105  0.9026558503182103
  0.6293081027904924  0.5321457257798335  0.8823957418491043
  0.3479179171707766  0.5327177053321622  0.0681715236426963
  0.7679026319899013  0.4582776371609362  0.9435533960760542
  0.2514492103117462  0.6408831258881658  0.0581924108373336
  0.3460251099176386  0.2933163569282085  0.5519391433356271
  0.5567993583089607  0.6870028333637728  0.6993545587173041
  0.4088144774340831  0.6291257031211545  0.0571275950754601
  0.3738473765016025  0.1364151279190095  0.8117968247104481
  0.6383331215709293  0.8135411433181440  0.5351130589861047
  0.6893179385631506  0.2897673346625850  0.1509644118423578
  0.6840285161016167  0.8400276516883606  0.7050238689420764
  0.6364169973776210  0.7563572397532466  0.5404209606096511
  0.4964828998123289  0.8156221971774399  0.6010968156455508
  0.5475578020399858  0.3782437932231977  0.0627037490735486
  0.6416176555174181  0.8708903173157327  0.7393993708583756
  0.7860909585351269  0.9129480543458256  0.7332460367624509
  0.5356049000789931  0.4268859281046911  0.6511222566190140
  0.4495410747812191  0.4862390266495980  0.0589041501233545
  0.9106361080188672  0.9143619313897904  0.0734253432778536
  0.4653471766568210  0.7064791692892193  0.1107231838931173
  0.5055360200870704  0.5354567216892619  0.2314274911833915
  0.5600667181072775  0.5658574867454197  0.2394566595084515
  0.4651710282904747  0.6899320598826630  0.1705210965936644
  0.3668742455408895  0.7834420100391565  0.2267921653094745
  0.3748232716369972  0.8760009592546151  0.3170999293453087
  0.7513325469462555  0.8284564930337389  0.7300413789028463
  0.6012092078695098  0.8219212271316234  0.7378168306910804
  0.3257641134263337  0.9243142785704247  0.2310722014199462
  0.7625589812270839  0.8918139559249199  0.8965630661879873
  0.7663239051123165  0.8839984685838556  0.9675265628554678
  0.2469599208513503  0.0437110890731719  0.3088122747532782
  0.8451226859278841  0.8257567449600595  0.9290886292207801