Cr H  Ni
 1.0000000000000000
    38.7642358654787174    0.0000000000000000    0.0000000000000000
     0.0000000000000000   38.7642358654787174    0.0000000000000000
     0.0000000000000000    0.0000000000000000   38.7642358654787174
 Cr  H   Ni 
 1596 213 3725
Direct
  0.0250722782102479  0.8773228445423056  0.9960680244320625
  0.1046802003633951  0.5684031033116553  0.8097282442158825
  0.5423030966550246  0.9639980038251663  0.3424233454740685
  0.6707864641690203  0.6591022809367389  0.3612513729317057
  0.8273488028856736  0.6458340247244932  0.3656454526245894
  0.7598038542071607  0.6076038322977918  0.4355864271599806
  0.6104634318130975  0.9735034231194973  0.7674142229749100
  0.9901173763720853  0.6914953868874354  0.3519488157392017
  0.8694322428149975  0.5220590898035293  0.3081303562738412
  0.1437440759330720  0.6022086034537230  0.9143789298839854
  0.4951444512454813  0.1221210218759712  0.8500545507683708
  0.1961798770037528  0.6830811717331782  0.9696383212865000
  0.4998332763417216  0.8614374286665524  0.6455400929789923
  0.8663535774527860  0.4754298792254114  0.2649159957822738
  0.9065804024389260  0.3531634506623055  0.2079194002153541
  0.8937706949555911  0.7815098887068518  0.4083353542006242
  0.9032963350589511  0.3397135953315050  0.2695131063766548
  0.9563074545934909  0.3218673284935680  0.2368621770452075
  0.0047990842704509  0.2913714322214723  0.2649034781637307
  0.9065443629597427  0.9024928367320887  0.3755701221398843
  0.1166151306287258  0.1254359649744175  0.9017410911937308
  0.5727760998873460  0.2219634008234170  0.8608100185450465
  0.7404967633689093  0.8693655567264283  0.0923291063189817
  0.6334178858412738  0.8576087804515089  0.1198266100653373
  0.4776538709818714  0.0146175406500920  0.8703929639680033
  0.8015102531359837  0.9197782410170987  0.5038522250213209
  0.9105497336838305  0.9851894455255807  0.5225340686684445
  0.8643173302761444  0.0602459686955751  0.5378042869655111
  0.4234342797826383  0.8434138216624169  0.3411903401525425
  0.5569689107733691  0.5792194070497795  0.4097139869846504
  0.3638936005912380  0.7506388290900262  0.3487631603851094
  0.5107402107865171  0.1984172955442350  0.7328621205608694
  0.3652867541710114  0.7678342199045715  0.2878563558467422
  0.3116709610981707  0.7520174103116161  0.2180019659540475
  0.6207957032525662  0.3308789157504272  0.5793439989883166
  0.5077039831986750  0.3357846741745630  0.5986571786441105
  0.2629188779100306  0.8141393573458293  0.2986379289117938
  0.6261663157176319  0.3479230756783487  0.7484033346449064
  0.5574995767328615  0.3702337785460481  0.6642690963423780
  0.2176867521334459  0.8865626142867090  0.3165504753785268
  0.2742142273874340  0.9235849102743869  0.3274060295668957
  0.6849384120616611  0.3713679612711230  0.8792162743648185
  0.7148124856416187  0.4356220671381939  0.8196074460360886
  0.8226316011343089  0.0469205697796684  0.1645839538620796
  0.6549646906382888  0.4609201407137663  0.9624110107415265
  0.6455582783135698  0.3823040889747026  0.3315069366666904
  0.3361384805815065  0.8212261739796050  0.8284303420923299
  0.1736245720197915  0.6493692104178587  0.6557574589851198
  0.7470940202345772  0.8784108018244232  0.5606806517015056
  0.2812841120173956  0.9955838555750622  0.4808298652312473
  0.4336034941104206  0.0976447745854764  0.7253596293464525
  0.4463108321363344  0.0842509897759783  0.7882166112313349
  0.4836086575264573  0.1346942591255436  0.7893827003261604
  0.4737161923869808  0.1776697985905510  0.8346993452777660
  0.5118583719121035  0.1272064307804266  0.9716938215933755
  0.8323689921454663  0.1397744491272395  0.2522828770298603
  0.7444596011734409  0.2113851406999644  0.8662131948876192
  0.5282365772654668  0.1980521838158324  0.9620157065242724
  0.7823223836888991  0.1566063835417377  0.2852241901103416
  0.8373369854584312  0.1868485492259014  0.2966198360924465
  0.4147023559205060  0.0212074289493523  0.8501280749800108
  0.3561937893126956  0.0281329026235027  0.8260702110589514
  0.3619384411870948  0.2081716794286499  0.5191650970653411
  0.7325063889050117  0.2008420249300637  0.1941701180905610
  0.7449344777528487  0.3376250884620084  0.3271084856309622
  0.4459461868250759  0.1769720065449424  0.6062128279497268
  0.6538845124390867  0.4403389867462036  0.3126113373222031
  0.4163952298286323  0.2777614658632891  0.6348305815404099
  0.5196682276961305  0.7191287959362904  0.4104026293988866
  0.5247772700180244  0.7632035246066650  0.4557793797998802
  0.7098461799984682  0.7353273979419757  0.8986676819172922
  0.8253355214645713  0.0802296142873708  0.2705095697611835
  0.6396096702145786  0.9029034278586592  0.1640129882346291
  0.0681235133188832  0.3321041066521456  0.6760702259155170
  0.5772682288191734  0.3343011151492125  0.0287156064513544
  0.8887533634274368  0.2366935038943039  0.0091712007532903
  0.3970126060889970  0.9858442680682566  0.0294342880020295
  0.6494893800172369  0.9612541303902892  0.1439937369751191
  0.4639561164865693  0.6330217472688863  0.9638014556360363
  0.3401736435302619  0.9394659319512275  0.0842496462284218
  0.3573661879068017  0.6168450477456188  0.9875891535561238
  0.4087041486248937  0.6306159228979817  0.9417765302745092
  0.1109660535833135  0.8201396357758199  0.5340041917998501
  0.3299865935948647  0.9851484846563967  0.7912679935040547
  0.4972433953211569  0.9210974395562010  0.0797569502644595
  0.2853402428665821  0.0476733706554968  0.7453300486738786
  0.2332622827837696  0.3903420684206032  0.8893378129119703
  0.5014847406741610 -0.0010480729793969  1.0019227033132301
  0.5273845166525110  0.8451156458644131  0.1469318315121378
  0.0301063435587481  0.3408652844947412  0.9513755699741954
  0.0593562842562764  0.3204734476838306  0.0473162736898321
  0.0984122949111784  0.3950775751763074  0.6164265203852916
  0.6782050165871583  0.1891721343832657  0.3522501725928421
  0.3174399908875259  0.8268666440988863  0.3700048456305656
  0.3783412324482495  0.9028939540327731  0.4237565227866215
  0.5622328179266315  0.2643619177661214  0.9035778596132589
  0.3280300954599508  0.9341480986981561  0.4009223053307883
  0.5224023081574254  0.1838733066503745  0.7946738277346791
  0.4639195224631699  0.2849169646111419  0.5948507129005428
  0.5869797010706517  0.5567795773654288  0.5346297296263989
  0.9864748612395077  0.9642481808597214  0.6797125227052698
  0.9496160058979516  0.9492161928697109  0.7809300545681499
  0.4721203052259969  0.7338529211686927  0.4477311434385061
  0.7005235755701421  0.7438417420828070  0.6209324495215871
  0.8033681858115829  0.7717314943733946  0.6076264105105682
  0.4737860203583264  0.7941556249688819  0.4320589485726203
  0.7772668930803311  0.8756390407430679  0.6269938093847043
  0.3266282144341092  0.8998697770685625  0.5234832594099795
  0.8340854620045408  0.9156388123520004  0.6924033196819928
  0.3815261060798852  0.9490676063913398  0.4690070622233451
  0.8707907478475103  0.9894012963033190  0.8967207853442833
  0.3599797269440318  0.0372962791625071  0.5532495428424128
  0.9654467688798972  0.9852031290535094  0.8923405193783811
  0.9737932316616416  0.0065409880246614  0.2951465321078465
  0.9733541670166664  0.9675852956814968  0.9562997330025944
  0.9263563027331303  0.0667390636023613  0.3725039308527817
  0.8801309513006313  0.0947577106278411  0.3435534218166797
  0.6635650039508103  0.6456007464994314  0.5737347590525459
  0.8905017508744760  0.2027670966773852  0.3658212530227313
  0.8350453962773632  0.1728679646021876  0.3559935871529393
  0.6270874857225686  0.0627440594171976  0.8515257011899857
  0.8652679572277427  0.9749982466863649  0.6318899809576870
  0.5382944041865390  0.0115682743762249  0.8930456768377667
  0.4293752674300104  0.7354221674363475  0.5385980986201429
  0.7670541080105051  0.7200747429550900  0.6987611115966396
  0.8197242914668473  0.8476120210410319  0.8131105458371994
  0.6996665632477743  0.3988180144790607  0.4066960539651454
  0.5647577038510315  0.5690778419666173  0.4689102530933336
  0.7810611753065128  0.7544885469046821  0.0252926036425524
  0.5838392339969000  0.3062173006692435  0.5130661691930534
  0.4062934288567067  0.2472672583589006  0.5262079488606040
  0.4159588436069940  0.0077619767643221  0.6422928521491011
  0.4413543461850126  0.0536741769332605  0.6809733262462242
  0.4479241269513392  0.3812695303751070  0.0319746356178046
  0.4785636057014981  0.3090768131246944  0.0185997025491998
  0.5140135103262417  0.0337900316958513  0.7638261895475950
  0.5466629297038506  0.3813326425863653  0.0646012815642850
  0.5046175336617387  0.0761951592909754  0.8082552812413393
  0.4111812523706278  0.3468037379811796  0.0080300056718510
  0.3915925147086236  0.3901388392223137  0.0617867125478255
  0.3440605956922785  0.5014234497925077  0.1904514528346509
  0.6087481428198638  0.0123548747486828  0.9743188232070134
  0.6114645687726974  0.1473426018994524  0.9399582899092245
  0.3973096404744395  0.5022926760011009  0.0930241155344573
  0.5271112409724963  0.0206840174453316  0.8273427797387288
  0.7541892996679060  0.7659203285166885  0.7400617006405840
  0.5640762940582736  0.1030362925021239  0.9362325003532977
  0.8814241759202386  0.8252034839053694  0.9880282075461287
  0.7070249298614835  0.4603130880393414  0.3827655729096565
  0.5579432607657193  0.1737709117961012  0.5840021774516190
  0.4952502890737662  1.0052833647246975  0.9375609202744162
  0.0745117775978886  0.0276068779775537  0.5022763798100538
  0.9670155696009266  0.9802517843028978  0.4263985500802157
  0.9328836358992412  0.9231778559845878  0.6097222544351674
  0.0378697992293042  1.0307675289034872  0.6031906302239075
  0.9556937480452352  0.9650084183658716  0.5528308621725340
  0.9746984623814362  0.9698579167014330  0.6135406403346945
  0.8412490219013604  0.8266835482707002  0.5483264636242262
  0.9061408733077941  0.8145382274499776  0.6333598512026338
  0.9620542713785538  0.8084655073186475  0.6553973631710348
  0.4740119236715937  0.0033828402720474  0.6564082702796651
  0.9528886549698909  0.8651643583822350  0.6315529873450254
  0.6453206627585728  0.2077464485961434  0.9415844726547549
  0.5225230222045658  0.2385268315615645  0.0047511291947456
  0.4678328558866749  0.2618291669163627 -0.0192225860046001
  0.4172847549833829  0.0232623332374021  0.5763786488104092
  0.4817472728480501  0.1832589353664190  0.5113197676021105
  0.3944651561818715  0.1428697224408116  0.5350755648016222
  0.2945961522451430  0.5009893761024344  0.0575823649859989
  0.5220758188069733  0.1556448917952531  0.6879483501073572
  0.9120217898826743  0.9773853778913240  0.5905404033001855
  0.3501208811028174  0.5812808588513214  0.1109375310294477
  0.8612851103576161  0.9342832350588686  0.5851982082165824
  0.6710938418549457  0.2314957389889392  0.7819269616974596
  0.5604097312857986  0.2042348122100032  0.6923037694267488
  0.7087612248378188  0.2814737884165386  0.7874145717230169
  0.2994671320025654  0.5682496032324533  0.0421963367303277
  0.1970904642977780  0.6109627381050582  0.0498131719623038
  0.1519769095543655  0.7494851835557679  0.0499474923054237
  0.8673974946749385  0.4938015961633919  0.9703216861622158
  0.1062276461424588  0.8086511089200504  0.1291704619337677
  0.4717492424165110  0.0769090586325006  0.5729202939433096
  0.0687662919594837  0.8971820116950733  0.0779744144148222
  0.0255518368859682  0.9719981312191702  0.0882827610971615
  0.5391967319249383  0.0667629535757842  0.5961782784412246
  0.4811541069763743  0.1053047391221680  0.6832211796709156
  0.5637379325522395  0.0381808213289444  0.7224341642814986
  0.5830465798185120  0.1475398972931715  0.7081915428073861
  0.6130061355777850  0.0749940662398867  0.9541870705802008
  0.7179304874234459  0.0454411839261910  0.1268188948247618
  0.5832216653465773  0.1783493690797760  0.8152400630192651
  0.5721559541805955  0.1825550981036688  0.0856406019042704
  0.7227977478111869  0.1496922655464986  0.9214010795013714
  0.6193820033057362  0.1871056494348341  0.9864144737336147
  0.5346990712843837  0.2091405140220236  0.5227632838330539
  0.5987600742429942  0.2536582227494898  0.6986316107067821
  0.7993523102110771  0.9167851861686817  0.5682929247611315
  0.7027261181759850  0.5804699907999268  0.6226017362737063
  0.7160720894188352  0.6840451845615803  0.6375322080015267
  0.6117046127108773  0.6117908521625560  0.4164814182377789
  0.5700983626999100  0.7049748496087737  0.3728276435331155
  0.3468006010281086  0.3567593992631876  0.7659500968733848
  0.4339936798744494  0.9498458626673195  0.3710645115409965
  0.4419799503038854  0.4332585499431321  0.8954944025110713
  0.5479002242619081  0.4612673103066011  0.9834778648399931
  0.1402435529964793  0.2804004179651270  0.6537990009362796
  0.5842887848646967  0.6311511058825198  0.9427842540568052
  0.9273032208428993  0.0460697831986697  0.2015876445723945
  0.7523253940756147  0.4830779345248913  0.8197283841271467
  0.1302592226164911 -0.0103040137816400  0.3001478448627862
  0.7690313192679733  0.0282563812164814  0.0911210670785909
  0.6135570921267571  0.4979582597712471  0.5591835486347402
  0.6859838733014079  0.4723901477038849  0.6346755725392790
  0.7912764712431830  0.6126729241739729  0.6750899007906762
  0.6780299010811557  0.1834275758771685  0.1232837175636548
  0.7582928742853522  0.5844514454579582  0.8393974333499781
  0.8151197920395143  0.5769063593748301  0.8596748711232277
  0.6300011901180578  0.2309438761789678  0.2636492347067440
  0.9279095609424464  0.8804686580989707  0.9004703328476363
  0.5406479166878562  0.3810702580773706  0.2952500564712545
  0.5947342768279249  0.3827440165998760  0.1987717039139646
  0.5312959810270232  0.5192550112099573  0.9663434169733890
  0.5375331355875997  0.3956860679925887  0.5334840475993877
  0.5502416556939965  0.4586279356258048  0.2151568932252461
  0.9037981644064155  0.8600480835909896  0.6699521357289889
  0.5068755084013937  0.5824913922948425  0.2753566770360594
  0.6663732035785228  0.3954066854643441  0.7528081293916075
  0.7980004142139114  0.4656407193292219  0.6201447866233417
  0.4549714948908601  0.5659573013489612  0.2057051198809524
  0.6445553839174671  0.4543857834475168  0.7358953117733943
  0.4104396586267556  0.6743383037396453  0.3286179945615295
  0.7006693688116060  0.4782669693524833  0.8610039136488706
  0.9579824641660445  0.7900987119705113  0.8093811292709256
  0.8083879610215804  0.7417129754249339  0.8098155964738059
  0.8176796391883051  0.4961368669748720  0.0068077087225992
  0.8412375620641173  0.6706320239125758  0.9588293115070659
  0.8770048934067545  0.7264217841065093  0.8991757997067449
  0.1559641515105274  0.7785395024019541  0.1554111353379324
  0.2096884210226778  0.7953563590888600  0.2260696957032743
  0.8823696881137411  0.6884718247216373  0.7962916982770484
  0.0499410871264022  0.7778756459913448  0.1203222160977967
  0.8570855744768431  0.7731521600474255  0.5636049564836291
  0.7675337924757784  0.6852055364066986  0.5948389806990759
  0.1633776653793769  0.8714146687237073  0.2417885518806051
  0.1213523318846428  0.9144791092436746  0.1488951231714796
  0.1272845375658103  0.9577545256611689  0.1901167432844704
  0.9169676794546960  0.8532541230736647  0.7365970300560307
  0.7036694790478559  0.4291593213633021  0.2776638997932161
  0.7151744595436408 -0.0022533971735549  0.0811482165440736
  0.6694299924159439  0.0886515226287255  0.0342021575089334
  0.0432229165323337  0.8713651991016246  0.8848513360275054
  0.6132850122770086  0.5322487675189536  0.4970857975543835
  0.4504487871658193  0.5202006216249087  0.1628889076774689
  0.7513444541179164  0.5841807443864301  0.5710326763103428
  0.3499125362097976  0.5664487581142187  0.1712448097458148
  0.3524589587892275  0.6118797880203056  0.2151518768047923
  0.8410200503955323  0.6476711354228161  0.7314613565617381
  0.3582777721861400  0.6743755007879179  0.1992766425292036
  0.2563891825755248  0.7196100005877820  0.2087451700587991
  0.9803045224591220  0.7932618784373832  0.9305187204151799
  0.8539322283067203  0.8012167208367599  0.7408032445741096
  0.4297820770609137  0.3966366058883776  0.5618726096615149
  0.5873314003730364  0.4326189623561240  0.6110701541720732
  0.8382493127961441  0.2145646902250260  0.1717586104368294
  0.2799150653272656  0.3448078544657241  0.5750756561509862
  0.3380733767581452  0.3403574283376419  0.5959434029844835
  0.3265150388529985  0.3829675864364314  0.6412188120607172
  0.4249437804371226  0.4295261391202457  0.6699996362382077
  0.8046383883710018  0.3843855187086485  0.2735531725843643
  0.4134654765573272  0.4722733617574383  0.7110194089852157
  0.8339652366752014  0.4172892250821268  0.8628276634490695
  0.7547230852985765  0.4140033803677712  0.2436911261766182
  0.4119056852902802  0.6899733634620817  0.2686171638544582
  0.5859709568862729  0.5959394304876582  0.8401725949459211
  0.8927253589791019  0.2301004678662031  0.2439201579979473
  0.9696204146345211  0.9253459373774185  0.9083013675283522
  0.6592283379019319  0.5073196157725302  0.2935798837269373
  0.6671770787884401  0.5731734462120106  0.5033971176033326
  0.6060044706328933  0.5694405760674998  0.9645100376829628
  0.7025395103917391  0.6777042750951916  0.5196677843734241
  0.6124826930067915  0.5814639394820297  0.3103587754105700
  0.6324183330150703  0.2765496482202663  0.0757678904600947
  0.6732555359939854  0.6747413014340593  0.3017121163338936
  0.4904720000063574  0.3833838871273620  0.1647336628702106
  0.3472457281713900  0.3261760181178557  0.6594563881128572
  0.7654038753140087  0.5738827695674784  0.9006531683866559
  0.5362980762941426  0.9056595776962233  0.3602143360665212
  0.3568710850205029  0.6584060716659129  0.2587156947277670
  0.4324138554564855  0.4451983000507345  0.8361507446769882
  0.4429779548201375  0.4130881064705627  0.1391740290195778
  0.9893727614708688  0.1232448902846757  0.2548701355734527
  0.5001758476204066  0.5592100900388618  0.7806011556665695
  0.9422653216563555  0.1859380460019014  0.3320368471029425
  0.6611773208590878  0.5507486017549786  0.3366179328900075
  0.7680595896239071  0.3071973360036349  0.9102995158232600
  0.5227855500646891  0.6329667917462971  0.9231945750632388
  0.9254375565332553  0.8187021628229775  0.9443039688572133
  0.4324662205832449  0.9179361324882751  0.4939059393843804
  0.0368869691388162  0.0811385311078640  0.3474910840621456
  0.2149205287143948  0.0983433688598822  0.7654917707027753
  0.4253777653320938  0.8593099975362601  0.2805037125693107
  0.1554777529700954  0.1043717773590189  0.7450773499637711
  0.6475733185024501  0.3975834430521344  0.2679600250209275
  0.8983926436078785  0.3098990689929931  0.3949123767376028
  0.3555428028805412  0.5922249223923308  0.5117821014993128
  0.2174664876668686  0.1310632064480459  0.8721678894929549
  0.4796672342812808  0.5595216002155557  0.5549214799864870
  0.3039754939429460  0.1632183385363015  0.9479090927808776
  0.7024623121069469  0.3970792203773630  0.1707815844745464
  0.2922909074940480  0.2330286992544276  0.8760978371160618
  0.6075504248020185  0.5203173935063848  0.3279417525653794
  0.3440525322467010  0.2686620464932381  0.9423534173047848
  0.5776624216443735  0.6093425213015454  0.7802968789587083
  0.1864806159995027  0.0363897936091104  0.8278162068806467
  0.6241448125115345  0.6467024452366454  0.8416732121570253
  0.4372244022236771  0.3853391447960963  0.6214006730130180
  0.5985273078289395  0.7046954980847645  0.8196539031858674
  0.6478466029739713  0.7073679761565932  0.7759717068591296
  0.6678382250464053  0.6854889108246315  0.8974482956419101
  0.5983072093675066  0.7387858088198185  0.7007974896919666
  0.6749503365832528  0.6785072469437167  0.9587951476838146
  0.6128438153399774  0.5276114196257202  0.6573600396756295
  0.5803071015545918  0.7974935566329051  0.4618711472502131
  0.8922933263827936  0.1901467808204782  0.4258766613609785
  0.8506102848216256  0.3742654493394496  0.4746665748325228
  0.1434148339736594  0.1157028586335048  0.6818951354358690
  0.5123762319986509  0.6335748885877760  0.6974493827507486
  0.4465063523589010  0.1149635351295136  0.8944911424027939
  0.5346171162786293  0.5895946551123359  0.8815617236578573
  0.2107334811841517  0.8095283539745951  0.1649090254143315
  0.8413348847876152  0.2476798879638886  0.2773425698694076
  0.2529958585539477  0.5937513621823320  0.0119054028628190
  0.2454052803084930  0.0773637558144381  0.9530773535431946
  0.5786286301541075  0.0595876791417193  0.8912295409749880
  0.8124611247277986  0.6230870494748831  0.4885930484006040
  0.2637456266792184  0.8285696547927662  0.2365904444036176
  0.5891059782474336  0.9016976836759961  0.4917527524671875
  0.2566976901759721  0.7648155814567044  0.0209555743112586
  0.7134018730628920  0.9470422826099552  0.6950090131919845
  0.4615937654918523  0.5122642142693887  0.7779286157875368
  0.7698992358710064  0.6399302792706496  0.5492508313197446
  0.2041439531327387  0.1095952623427668  0.7045180189035175
  0.5343451928451650  0.8524319592430377  0.5459446876356709
  0.1812530911137102  0.0431615707130818  0.4860538148718849
  0.9520592646137709  0.3249113873416847  0.4669004183722635
  0.6991292932960688  0.0114033876164456  0.8291237480819379
  0.6530951148500389  0.5771459444757540  0.6616828858289531
  0.9803842956182566  0.0872079400175505  0.4445857527455623
  0.8938284631521711  0.2495728800378264  0.4114162210059503
  0.6660775656779208  0.6815413107193771  0.6785214131852368
  0.1450366234843462  0.6707744646908778  0.1292430098465706
  0.7078708159692906  0.7327354129957920  0.6794946417249034
  0.9074977568702176  0.8063489173850366  0.7017339260444966
  0.1687474456760426  0.9143629637708144  0.2850888560516756
  0.7408867879743020  0.2940620572271450  0.2842246361192907
  0.4198006254364096  0.7985017522762010  0.2973204725175614
  0.8091727383286410  0.6757120262946447  0.5297715231389823
  0.4027689607446565  0.4885500046148515  0.6509525543746482
  0.7412790436666491  0.9129025453156306  0.7672286206276850
  0.6648590904318697  0.8495214867216137  0.8655168064034574
  0.6689835358233369  0.9632012577903796  0.7887382677652173
  0.5805172554349147  0.8120144259440908  0.4028806736486563
  0.2446622611927818  0.1934446966848641  0.8130277810570551
  0.3032177809044371  0.1869575481378102  0.8338844659614668
  0.5337853273480540  0.8710122271993872  0.4842499567427101
  0.5855356071020502  0.8576926091650119  0.4470927679974189
  0.9959915065262152  0.1546833831020212  0.3596729829731891
  0.3719945552111136  0.3128936923223550  0.9687358555191752
  0.1470815256998534  0.9676940655815192  0.6174172677637215
  0.9492055705446656  0.2197169592438581  0.4382287989774576
  0.1401513067754651  1.0136031041392466  0.6640303920403057
  0.6743336997374075  0.6671186326686865  0.7386055854263912
  0.6332939737103493  0.6173309812988900  0.7383657962585175
  0.6381071944419580  0.5997477960696239  0.7983805517839774
  0.5605175223256631  0.5962850934956145  0.3465997492651909
  0.7352890173176249  0.6414350720984662  0.8190165320763295
  0.8430892296131626  0.3132177544019468  0.4923335594793897
  0.8228115972601414  0.3717155708397650  0.5251732844874267
  0.7916151471454501  0.2777235511574286  0.4810183825555970
  0.7277858161416672  0.6794904660981022  0.9180209784821972
  0.8110068966633247  0.4308352316761394  0.5022104001146366
  0.4910291325594742  0.6658810809701133  0.5744037446082096
  0.7361841322420593  0.7967961917862649  0.8385626708305555
  0.5631222479555079  0.6283508162872108  0.4535424192115880
  0.7931258362008906  0.6349688258242967  0.8387721947548792
  0.7136647965071390  0.7176489054237511  0.7387479905575017
  0.4375575113982000  0.2201958702854410  0.6511189062696559
  0.6875196175035090  0.2766368560473246  0.2105324600946684
  0.5994281578022578  0.2862540073037151  0.8034620687006963
  0.6370073004448165  0.3337917941957174  0.8103631185239573
  0.6943168021518018  0.3564789480032577  0.9421905195753072
  0.6735355009464132  0.4141567965636623  0.9224963342754421
  0.2907406562184116  0.0420048756434531  0.5294865371593525
  0.3993060827657045  0.1681606741182018  0.6456881575962922
  0.4211933073188058  0.1105149175577462  0.6621494200816462
  0.4991718496984844  0.2130183390335343  0.6719556094595375
  0.4610330733931455  0.6588143799182631  0.2939019219349873
  0.8015445262750234  0.8072810638171971  0.7119616400694170
  0.5540524782870567  0.5048678138176224  0.0308417333387512
  0.1813208026491022  0.1351292438910617  0.5818483737958425
  0.2306139659217957  0.0116278448915712  0.5147388538115553
  0.3471112603589356  0.5682786536888623  0.3985825961107605
  0.2717516353405047  0.8044972329869063  0.0580805338625890
  0.4567025631318364  0.3563842776081265  0.7459105104503659
  0.2150891568527083  0.8235218470518366  0.0995566861560723
  0.5060331371294710  0.3936585941004883  0.8125474193010923
  0.2284876578705620  0.8831734849399649  0.0779323249597950
  0.6125894682371205  0.4222212154144063  0.8998179598198719
  0.5545037825395434  0.4309701069634088  0.8790446253126810
  0.1792064966771499  0.9438858830886109  0.1555273334028866
  0.2303690653218003  0.9282219935592241  0.1183084043070838
  0.2890394619482115  0.1374343476935198  0.5610035761176734
  0.7242505037094312  0.1195016547192943  0.0445688341000486
  0.3130250075858546  0.1098945160140043  0.6835395926889183
  0.3292646914223348  0.2173267744940745  0.6707159383670942
  0.4012376858608124  0.1994644165727845  0.7531097540382881
  0.4293343134991588  0.2935874398207330  0.8023576381444425
  0.6390567546347615  0.2537089867666805 -0.0169665487884049
  0.5147437283349410  0.3811174275353483  0.8738852288143003
  0.5793871335184186  0.3570838130197750  0.9645797356517337
  0.5219229362513329  0.3676864948412771  0.9379060236831056
  0.5288685289133001  0.2792759405171397  0.0460617071498888
  0.5074567783937436  0.5676061975896556  0.1084104022971584
  0.4254403409602222  0.1686172212909700  0.8796158507821227
  0.0763323994163443  0.9084046609331643  0.0172639515610627
  0.5544372196364364  0.4901876011698041  0.0904596671955682
  0.4041950716149031  0.5969543934729798  0.1810600667638494
  0.3638250810703034  0.2406205422077933  0.5684669566856464
  0.4605831824191053  0.6442110323083212  0.1269597249425042
  0.3083384045881727  0.7362827823068371  0.0491159892707916
  0.6650695410295570  0.5672885186791982  0.9850812557334986
  0.5750936495799540  0.4788449867119937  0.6560376122611260
  0.4671511744174471  0.1642549560103251  0.3410644880823421
  0.6233306249392605  0.5139751539601862  0.7168979554851629
  0.5630555521389660  0.5226382555295011  0.6973094095077953
  0.6320675422887690  0.4984538521073424  0.7769128720568190
  0.3037265968444018  0.6297677332143448  0.0234296216465622
  0.2542553798779149  0.6887626168578683  0.1027851926358318
  0.6800562731555548  0.5364802039536805  0.8421180493091691
  0.6465344309824239  0.5874672704928621  0.8597074100136289
  0.6346451642294245  0.6332306427982597  0.9029841115348883
  0.1464567699056251  0.6405576201382709  0.0202483619683916
  0.7178596649226883  0.5489561473186132  0.0119054506787151
  0.6943764035121349  0.6277700675789597  0.9247457467545702
  0.7283531370902088  0.6689462255106130  0.9782629843376522
  0.1700143834246527  0.8523411791555037  0.0733271032001615
  0.4023868420797585  0.2302051503482881  0.8589366486486877
  0.2965651791618540  0.0216561575069560  0.5966346920977889
  0.4459479395077060  0.3417868275776874  0.5755630573980118
  0.8185268068465257  0.9822676904683548  0.9513802310341526
  0.8397425316953365  0.9539751649678694  0.7956502940630668
  0.5347234452038234  0.4574753535332086  0.7544562181727025
  0.5904230034641047  0.4806149515192966  0.8800530092792025
  0.4476060300943824  0.5774623952627178  0.9739525090785676
  0.6879154548930790  0.5252147026681117  0.9015659334946312
  0.6289307009466947  0.5319078010591202  0.8824473268129377
  0.3468787762418471  0.5336119279702828  0.0670662754366882
  0.7665937744294852  0.4598962236876784  0.9398943792068087
  0.2511547175898450  0.6407268137198209  0.0565760768828490
  0.3443864359492790  0.2968069476870550  0.5496425413428681
  0.5558171209844617  0.6859157596500273  0.7009734443060923
  0.4078113930933658  0.6319433503219924  0.0591655837752665
  0.3739156798551221  0.1356623846790575  0.8103727738311269
  0.6387563733545452  0.8117219736672953  0.5373824629146203
  0.6884797729593907  0.2905672339560061  0.1491806277978519
  0.7262401374716071  0.8471596129166240  0.6065460145515629
  0.6317648735156909  0.7575234314678325  0.5434625927919579
  0.5936024200410930  0.9260737169802756  0.6022420368596600
  0.5981517038533205  0.3982535502793572  0.1360331486508836
  0.6417008823040488  0.8710819020763150  0.7387640306258946
  0.7865779479764439  0.9121743663725428  0.7318585882846861
  0.5453851236149510  0.4134987729398444  0.7107950574029658
  0.6030386707925224  0.6586738277240559  0.5499379681632502
  0.3150525095692588  0.1763756909698160  0.8930477749310135
  0.4654311089592859  0.7077966898968674  0.1110368976275163
  0.5097699368684305  0.5976164514232496  0.2146240896291510
  0.5619141728198107  0.5821379662513857  0.1795635510766085
  0.4120129586676436  0.7051225342367077  0.2075264099275377
  0.3661141928088815  0.7836690996345612  0.2280920928597766
  0.3694685064110698  0.8297355255390848  0.2730467953134185
  0.7507843368187126  0.8303820315867771  0.7298161658147326
  0.6602982872798477  0.8147218405218987  0.7579225602038289
  0.3262788066241656  0.9250423303691561  0.2313593739339700
  0.8095079000862182  0.8956468277931677  0.8567806734032394
  0.7630082991297690  0.8920532284626153  0.8972911746080225
  0.3281647382231491  0.9719436740087360  0.2788745402041202
  0.8458496478051546  0.8243814248184552  0.9321170283670985