Cr H  Ni
 1.0000000000000000
    38.7642358654787174    0.0000000000000000    0.0000000000000000
     0.0000000000000000   38.7642358654787174    0.0000000000000000
     0.0000000000000000    0.0000000000000000   38.7642358654787174
 Cr  H   Ni 
 1596 213 3725
Direct
  0.0246277440549006  0.8772447552547220  0.9964812502241781
  0.1737966311324900  0.6490866274738326  0.6554624148365871
  0.7397904081173166  0.8703366723924525  0.0925879119158424
  0.6334317204499315  0.8580579511638974  0.1198489928694707
  0.6395026916947213  0.9033529378423995  0.1642866964147722
  0.0683245905682390  0.3314196357634392  0.6756776269119467
  0.8890332750523436  0.2367071630658292  0.0090919680789443
  0.3970937767038092  0.9856671925420327  0.0294712771586990
  0.6492926508432249  0.9616871046202353  0.1444237403697233
  0.4631561721265580  0.6323644321451483  0.9636973994322048
  0.5354120374615579  0.1705890837572611  0.8551616635519383
  0.3404239347340153  0.9394585623315616  0.0843342759452260
  0.3573016493820279  0.6170924917048386  0.9877221214804025
  0.4081511003930209  0.6299918700443403  0.9420239535957179
  0.1106397122916570  0.8196315554628658  0.5335121101631062
  0.3299105366385439  0.9849670362739584  0.7914240171700780
  0.4974899110787612  0.9211917535183760  0.0795701430047720
  0.2858650530435250  0.0474165498931437  0.7456780914608399
  0.2333802284437175  0.3900743342218448  0.8889817704846390
  0.5015291312941913 -0.0010460613610730  1.0018565310489127
  0.5275511015849685  0.8452759816994569  0.1467192876319255
  0.5731029088936228  0.2202428592567971  0.8597988042985107
  0.0986106235421884  0.3948078131218811  0.6161534791368209
  0.6780215010094283  0.1891000277784057  0.3522877883162421
  0.4767722721116226  0.0145949468659914  0.8701199377677654
  0.8017128139068951  0.9200098637943345  0.5039120700931503
  0.9111880988571853  0.9854588883903654  0.5228995159234429
  0.8641158465604351  0.0605845882241273  0.5378823567036782
  0.4235057256707341  0.8434084575077325  0.3413608261281431
  0.5571103730638648  0.5792237646742160  0.4094937606602450
  0.3639200590240337  0.7505681954781771  0.3488542206753848
  0.5109803730037819  0.1983464885049367  0.7328995424980310
  0.3653432165796253  0.7677563853406174  0.2880006372053658
  0.3115961188631670  0.7517294119549996  0.2178723251301075
  0.6207124541157801  0.3306916759408189  0.5791874746685672
  0.5081806570049333  0.3359438680254800  0.5985063065886833
  0.2629945869357253  0.8140583819128198  0.2987693087661088
  0.6262496379210422  0.3476968596352403  0.7480225656626416
  0.5576679952107705  0.3707670657964020  0.6638385784707471
  0.2177827318407215  0.8864423362067829  0.3166844801633112
  0.2743052356797758  0.9234116405166145  0.3276121110769453
  0.6854178046645043  0.3711734096191054  0.8781008139628117
  0.7150611683470909  0.4354839213504779  0.8192181814732967
  0.8227064826380178  0.0472215383210299  0.1646682640674741
  0.6554593191695354  0.4607790787488446  0.9626669918757943
  0.6453785175491081  0.3823647380853444  0.3314678311129376
  0.0299217516030936  0.3408454097274239  0.9518347785454563
  0.0601058875318926  0.3182807357033928  0.0468155289273120
  0.7477010962732566  0.8786903186653322  0.5604797584558473
  0.5196209779833143  0.7189789221577914  0.4104041019515721
  0.7094370206692914  0.7349480935596433  0.8982150208020762
  0.8750430845382492  0.7747832720639906  0.9448457342101392
  0.4290995039946234  0.7350571937786322  0.5387538830259112
  0.4324960817736849  0.9177371837604994  0.4941579702060436
  0.0366466961259581  0.0814830397126316  0.3475464643687941
  0.9798439641517734  0.0878438950856391  0.4444864314906806
  0.6126625386345722  0.5272301433788288  0.6575356367166553
  0.8919950556061328  0.1896704771703190  0.4264847874160154
  0.6531791647894837  0.5771191704941991  0.6615218507852764
  0.8937162826371465  0.2496466916898405  0.4105470483768272
  0.6335467736109510  0.6173647489360643  0.7381806968959932
  0.6381481801258997  0.5996065593838783  0.7982744196779062
  0.7351666683675798  0.6414102690207877  0.8185462892497890
  0.8431225932942941  0.3131664379822807  0.4920081254031777
  0.8224033066324913  0.3717356255995498  0.5246924660725302
  0.7917130874948043  0.2775281266458406  0.4807813841752005
  0.7276784347375339  0.6795742818455226  0.9177762018638355
  0.8107678347234718  0.4307698071354951  0.5020752829646490
  0.4907223487989372  0.6653051355865214  0.5744675872141565
  0.7361247790325813  0.7969531229630198  0.8383280195058712
  0.5630312438507333  0.6280038227524473  0.4532504555010540
  0.5247391154085541  0.7627531729852242  0.4556454875254685
  0.3175311349818279  0.8267332314384210  0.3701216130226794
  0.3783533551309556  0.9027904160908438  0.4239809097627936
  0.6537358688515191  0.4403989786112205  0.3125955453125860
  0.5625998476165146  0.2644382074668452  0.9032921770359107
  0.5768911020971971  0.3362970104201574  0.0284895206898646
  0.3280165928918526  0.9339761533917250  0.4011380240739308
  0.2809631606498036  0.9955564422873148  0.4807551462227767
  0.8252991549905897  0.0803800173134502  0.2706382109532666
  0.4336327401361425  0.0975983287546231  0.7252635134809751
  0.4461259846755871  0.0840573725310596  0.7878775460202746
  0.4839363572359730  0.1347745244211523  0.7897561668571913
  0.4738869577442034  0.1781642019959425  0.8341337616870325
  0.5118428564752457  0.1272107368505591  0.9713859518873004
  0.8326363974094926  0.1397673312237500  0.2520070579391191
  0.7444210514992772  0.2112225584121687  0.8655798858625116
  0.5291833935033016  0.1982958309828846  0.9621551603917921
  0.7824597666960295  0.1569097040694832  0.2852816780467795
  0.8374021734326604  0.1870535076704030  0.2957474910843248
  0.4146844944056032  0.0214675985308000  0.8503262275067076
  0.3562330972681059  0.0280808136587345  0.8262478662336716
  0.3619937907917845  0.2078557334526559  0.5192634613583520
  0.7324918363322452  0.2009887064492651  0.1942176132460203
  0.7447840635565284  0.3376806854869687  0.3269574817283871
  0.4459763519574956  0.1768357956949475  0.6062341575058787
  0.4164143479139012  0.2775039447579953  0.6349060079446417
  0.5806232799634151  0.8119783943170132  0.4022935271629372
  0.2445489560137737  0.1932632193661139  0.8127459178864507
  0.5865844408816970  0.5560220622523775  0.5347566828103089
  0.9877305644152693  0.9643998789988995  0.6798456683486310
  0.9494617142861462  0.9490644788386032  0.7812898930580565
  0.4720055161847516  0.7336201779190262  0.4477975065565704
  0.7000651750542717  0.7441337999980647  0.6202311953533876
  0.8031732825564138  0.7718855378596484  0.6075207525819186
  0.4738309799985846  0.7939949682229337  0.4321511448961622
  0.7778540197949043  0.8759245652981098  0.6269823656798647
  0.3265263434664830  0.8997162825196907  0.5235945193100704
  0.8341041873574178  0.9156964946182328  0.6925355456292931
  0.3814477704411337  0.9489346065287937  0.4692463956834134
  0.8715640590923006  0.9895064774343437  0.8968886303491973
  0.3583096075031663  0.0370985266451135  0.5531517244125406
  0.9651716143674473  0.9849479540701114  0.8924144644132831
  0.9738714206202834  0.0068301181694380  0.2952890341203893
  0.9731972040376442  0.9672632084871712  0.9564327134151250
  0.9261682660193045  0.0668716134317440  0.3724304900774333
  0.8799780659811327  0.0945067236187271  0.3436653027016441
  0.6633203350243640  0.6453508585994152  0.5735390357119013
  0.8915040654981010  0.2174195579252620  0.3040589725404835
  0.8346268675907965  0.1733799559634479  0.3553125152000929
  0.6266515262035981  0.0626033021108817  0.8507793994938366
  0.8655124878668512  0.9750054023645108  0.6318063238239449
  0.5356823084753687  0.0125445297207895  0.8924646228438693
  0.7135073372417194  0.7175095663195136  0.7382600045862933
  0.7668501102376334  0.7200800838712850  0.6983148751978152
  0.8183964875847410  0.8473619280192615  0.8138522991953895
  0.6995720850478030  0.3988252272469475  0.4066380191722893
  0.5646817184638471  0.5689445332556239  0.4688494682227245
  0.7807926895681186  0.7538305166533174  0.0255833150902018
  0.5839302892841612  0.3060634815839179  0.5128825203248344
  0.4061200695581639  0.2472123890132737  0.5262075330187286
  0.4157205250690933  0.0074535988486339  0.6423403671374340
  0.4412661391136832  0.0535794483211746  0.6809570723596344
  0.4476667034931863  0.3812356218257755  0.0321108769271901
  0.4780105141692110  0.3091464550591869  0.0190929210948878
  0.5137009799950341  0.0336566564888991  0.7635700053964375
  0.5454282683005512  0.3814457900141459  0.0653527888472479
  0.5039947787223263  0.0761602678453670  0.8083031778572894
  0.4107602868876136  0.3466273169139967  0.0082229565838457
  0.3915522111775359  0.3901093376580933  0.0619378909128056
  0.3448197970628696  0.5023687289279702  0.1900967908501880
  0.6079100723020555  0.0138439060386512  0.9746439472414715
  0.6123770178141553  0.1461007056082159  0.9410567883631968
  0.3975229891259073  0.5025041337651264  0.0928471178360647
  0.5264986016532964  0.0208164880393981  0.8264978323822287
  0.7537718903765728  0.7657687871639338  0.7397243559189289
  0.5643248406548039  0.1028130017605062  0.9361116102082705
  0.7929628352312105  0.6350025576358869  0.8382153097386689
  0.7069634473338745  0.4602952227964592  0.3826312560951610
  0.5580517425732303  0.1736517260961193  0.5840112157199825
  0.4947740746656517  1.0050530830172970  0.9380120346872006
  0.0742265101098287  0.0283327230732341  0.5020545584050942
  0.9669705490944341  0.9805276172070290  0.4265333616678785
  0.9322094753512564  0.9233133354328432  0.6095920286946116
  0.0392706399025867  1.0311334429818355  0.6030409850428721
  0.9578539798126248  0.9663141535163257  0.5534870782598544
  0.9736429031579685  0.9691688486199338  0.6150019323468243
  0.8415600181325333  0.8268873641737262  0.5482211234170010
  0.9062591766263189  0.8145786782634878  0.6333732145775357
  0.9617630215320616  0.8082636851752718  0.6554277913726249
  0.4737447671067727  0.0035882426913278  0.6562792695254628
  0.9536621219056098  0.8650006070422301  0.6315916650262446
  0.6466835098936434  0.2076484465459517  0.9411435565928731
  0.5225539608896796  0.2395845206757968  0.0046334088662719
  0.4680741644051701  0.2623354896518457 -0.0194944360374766
  0.4159700404903250  0.0230768097878898  0.5762198155038484
  0.4815541265807939  0.1831404082487109  0.5114238167320743
  0.3943311293056070  0.1426989422910952  0.5351114374214345
  0.2945935151285523  0.5012316998519407  0.0583385553678466
  0.5222123428034604  0.1556109288486548  0.6880058015311429
  0.9122619911167802  0.9776218711509125  0.5903087054701043
  0.3504670491218923  0.5813855315253770  0.1108960812642737
  0.3032427893696944  0.1867819908449672  0.8338314410476885
  0.6712779007877031  0.2311513674982307  0.7813906650510508
  0.5606480362198198  0.2041283711329006  0.6923176605514606
  0.7090337562532376  0.2812151441482424  0.7867616022960116
  0.2997811458967654  0.5689607934181529  0.0424245390594704
  0.1974261204852501  0.6111258439631906  0.0496779590339501
  0.1519371518914243  0.7500767079876985  0.0499671427692008
  0.8682662779648703  0.4935927592333477  0.9704532382727279
  0.1063246584484254  0.8089395403859815  0.1294821649023312
  0.4716528589171324  0.0772804287324544  0.5727346729687846
  0.0687823526830909  0.8973227591843489  0.0783277560838527
  0.0253630329069875  0.9718372738373906  0.0884961148966797
  0.5391159636813359  0.0667101913640336  0.5960914442216266
  0.4811899495794574  0.1053436213424516  0.6833244646196869
  0.5636690619288703  0.0378912274670204  0.7220330719562834
  0.5831990154990314  0.1472761810644772  0.7082184865874154
  0.6136968096606698  0.0766850577690596  0.9556427103912467
  0.7178983637848908  0.0457520579558474  0.1270462611057242
  0.5829444413258523  0.1778596453415697  0.8153693094252265
  0.5720292090146774  0.1828121802508385  0.0855601932354089
  0.7226795175714056  0.1512643530594872  0.9212862883985395
  0.6164191960245811  0.1909313420367188  0.9837389136283875
  0.5345635978172147  0.2091213441141443  0.5227705019762725
  0.5989203946409930  0.2535472818270501  0.6984900378794777
  0.5340518905675096  0.8703106078681665  0.4848700738629879
  0.5856950781600473  0.8572440362056497  0.4471831299008925
  0.9954244676028912  0.1550895565849881  0.3595102440689382
  0.3713466661727759  0.3127126687048356  0.9692626682286989
  0.5944633876875122  0.3829159323421951  0.1987726856782998
  0.5375171089779207  0.3952979688112692  0.5330979843131594
  0.5500849336631092  0.4587123278713306  0.2151195768157235
  0.5068632305227895  0.5825323179364371  0.2753410942983506
  0.6665667419979691  0.3952201977642041  0.7524603738041052
  0.7981831740107773  0.4652782095508168  0.6200989142868941
  0.4551868040944667  0.5661281828571085  0.2057371055954789
  0.6447527989007937  0.4542975106002120  0.7357620549320537
  0.4104085719154646  0.6743032425348190  0.3286368580781413
  0.7009480105236927  0.4781090795916251  0.8607335181578156
  0.9581440701736098  0.7897852848389144  0.8091854101799671
  0.8083624430260938  0.7417533024837646  0.8093145079023293
  0.8181776843321356  0.4966882261134629  0.0065282364577107
  0.8407452605369260  0.6732364298698856  0.9584989607808019
  0.8770656021550570  0.7263799631641634  0.8981803632071145
  0.1560779102063192  0.7787626493254823  0.1555577187809618
  0.2097931450513665  0.7954153909231995  0.2261757017552626
  0.8824069986910843  0.6883870715230931  0.7957751222976589
  0.0500546570486049  0.7782228667706695  0.1204066565786228
  0.8571612298327471  0.7732834393070989  0.5636587312654148
  0.7674005061305867  0.6854168708483652  0.5944516826975486
  0.5403876673896877  0.3811535262170818  0.2952951694288684
  0.1635357687635210  0.8715195810860195  0.2420576511317411
  0.1215236369945883  0.9147110892090063  0.1492015599670799
  0.5489337735873141  0.4599384600956288  0.9838042105994220
  0.1275442702771616  0.9578942808804238  0.1904233628615449
  0.9038259232555860  0.8600293044138855  0.6700790694358464
  0.9165106870659977  0.8529081882161952  0.7368878269552166
  0.7153906389272899 -0.0022951242331739  0.0817809553489984
  0.6690095132306562  0.0882528512610309  0.0347820604068446
  0.9695701398880561  0.9251281838444999  0.9083966915316256
  0.6671933319270521  0.5731123635718692  0.5032335802567828
  0.7026999380353133  0.6775734972964140  0.5189305313466503
  0.6320947327419962  0.2765177565293984  0.0758600705600641
  0.4901385741795731  0.3835071328987251  0.1651025538018860
  0.7655904020752441  0.5739090450316353  0.9002629995235358
  0.3568512332741794  0.6583516303970970  0.2586629266219301
  0.4427203861221147  0.4133311451117022  0.1395031016469263
  0.5001996424187075  0.5590340627171965  0.7807225925488656
  0.6612090749328365  0.5509007229231232  0.3365130593088557
  0.5218643816492615  0.6321754253802855  0.9210487117593056
  0.5321819160989647  0.5176005501320865  0.9668096723514412
  0.5701291264101085  0.7049222594397108  0.3727547246006793
  0.3469554792706567  0.3565532058721879  0.7658409535167596
  0.4339878689182809  0.9497487141591380  0.3714227881503118
  0.4426047880457093  0.4324323208356241  0.8958786057456500
  0.1400009392659132  0.2799311442261413  0.6535541666058410
  0.7035336261561492  0.4292539816049099  0.2775704676457469
  0.5820196045764481  0.6304573312278515  0.9432356021916074
  0.9275237311528981  0.0467624258641176  0.2017665354431544
  0.0431069801130120  0.8711046426511621  0.8849480197841458
  0.6135273429216873  0.5324080251644210  0.4971708402527206
  0.4506310404578728  0.5204014205816357  0.1629169692453778
  0.7513306992007882  0.5840188308880104  0.5721569987257341
  0.3500239359275167  0.5657575158748496  0.1712316164518629
  0.3525394871286121  0.6115732399674796  0.2150844517661733
  0.8412387687941703  0.6475500964005860  0.7312845941301671
  0.3580465325460566  0.6744762899373113  0.1991683496169302
  0.2561036748700305  0.7196826084430041  0.2090477456624945
  0.9813860944196816  0.7927560271833322  0.9307831484765354
  0.8534472538920737  0.8014266582580030  0.7407691833239677
  0.4296417016452466  0.3964376966578192  0.5617812592436234
  0.5359968885704069  0.4274011375266093  0.6503005480461441
  0.8383472686107499  0.2149158340046877  0.1716469493110027
  0.2797695759407948  0.3441147775230847  0.5750049967057579
  0.3380225510916053  0.3399119764635480  0.5961401891446305
  0.3263191092875240  0.3826799227984835  0.6411850791115157
  0.4247427453669800  0.4294200984071957  0.6699789966785284
  0.8045102129097257  0.3845667602225182  0.2734044287253014
  0.4134984212453268  0.4720400724408849  0.7112981744431892
  0.8342546230842042  0.4172946354388658  0.8625142468271142
  0.7545846408366390  0.4141664461041338  0.2435740206464255
  0.4118881251238819  0.6900029044360377  0.2686262460941263
  0.5861214964203977  0.5955353333124191  0.8403438047218504
  0.9417331691706681  0.1862602477266864  0.3317814395425104
  0.7525169525971789  0.4830026769396060  0.8194327102410230
  0.7683531407585268  0.3072811423491837  0.9101987916839785
  0.1302913524921465 -0.0101068105352632  0.3005710537569204
  0.8921993833547626  0.2303683747558701  0.2447614188553823
  0.7691021915224612  0.0286779876093475  0.0915740942900967
  0.6591550950426965  0.5074200236507275  0.2935601838948957
  0.6133291330917843  0.4973784168297476  0.5595738247410138
  0.6073491615463008  0.5674162804568650  0.9647184316902782
  0.6859461107967761  0.4723408462852635  0.6346208078856835
  0.6125573894658507  0.5815464341648704  0.3102528230512392
  0.7912265627006081  0.6124198159148271  0.6743545509020755
  0.6733497887645825  0.6748911103866088  0.3018325399124202
  0.6779560472650421  0.1835218894810154  0.1232782242954292
  0.3471923013440586  0.3258861523096374  0.6594491979652816
  0.7583931798570184  0.5844488376848269  0.8390617257525569
  0.5362341882091891  0.9056696544388128  0.3604709560462969
  0.8152417321101156  0.5768750726811531  0.8592758896204793
  0.4329005984007722  0.4445866565521113  0.8364976073299414
  0.6298857817308043  0.2309228646223282  0.2636568466675229
  0.9893968253839995  0.1235772701169463  0.2548350423559083
  0.9278128001199215  0.8794542796118269  0.9009061899469286
  0.8924175350115461  0.8295743101319851  0.8917462490588355
  0.4376361671771938  0.2200412560304111  0.6511539515541879
  0.6873801870998183  0.2767409347019922  0.2105420158097549
  0.2046734818514114  0.1093355106897232  0.7042741219408727
  0.6674097477292764  0.6849066434789959  0.8970639506476524
  0.1807802585779141  0.0432427925090032  0.4856807097533134
  0.6745797173597262  0.6776032903653322  0.9587138886470171
  0.7001916670359032  0.0103954196260288  0.8298418602565748
  0.4256350708552477  0.8593598589873529  0.2807182853585396
  0.5538341694425267  0.5053569781847701  0.0308558175602050
  0.6473678722812344  0.3976942813060529  0.2679418830561324
  0.4236738530751793  0.7946801088612587  0.5279565585537549
  0.3557037049396654  0.5918599222254798  0.5117049761531155
  0.4898529689585450  0.8265879611705007  0.9871733953136765
  0.4795252265013987  0.5591690287327756  0.5550237215953744
  0.5003333772935297  0.8178662149804932  0.6039816740656634
  0.7022067977771657  0.3972987323313266  0.1707021279386494
  0.6270266698758876  0.8041228547055103  0.6351121809321305
  0.6075154118470896  0.5203546616396556  0.3279199370315499
  0.4369237100433294  0.8021690311625944  0.9812586694845603
  0.5778730240496421  0.6092109655854673  0.7804077811848329
  0.3642941795577958  0.7724326639600262  0.0635041210628675
  0.6239665315536298  0.6464210238058081  0.8413597340089908
  0.6240555921591389  0.8475667870211228  0.6842945512424875
  0.5983222493278528  0.7043987221117526  0.8192736172896401
  0.6374728363287553  0.3335834559462487  0.8093299673800459
  0.7631138668693594  0.5439703159369369  0.4278158725270682
  0.6957901002673031  0.3565111584080921  0.9406006416805882
  0.5346972618215946  0.8512559012793932  0.5445966302747324
  0.2811456270673832  0.2115086404708101  0.7105474769059090
  0.9520149438911186  0.3246572803698070  0.4665478817169396
  0.2345489887184667  0.0781259732026824  0.8942830396297821
  0.8507360300405209  0.3742353987057305  0.4745628345061357
  0.9096481225899791  0.4181260019512942  0.4219358452564234
  0.5127448674053773  0.6334821767511140  0.6976545966495549
  0.8468320846801614  0.3258817331656301  0.4299179129488536
  0.5347882792945661  0.5886116088432620  0.8811461845739846
  0.8089067178205468  0.4305277217263576  0.3178785844516349
  0.8413613637103147  0.2479791633691797  0.2772948824609112
  0.7584689692651491  0.4440068974709935  0.3504360254317255
  0.2455328173036626  0.0766988226512023  0.9534832740330602
  0.8118408557912913  0.4755226403524971  0.3598084760454303
  0.8125322545510620  0.6232612132557219  0.4887358717350234
  0.4273783330526076  0.3259980881538251  0.9052596188819767
  0.5893743500104285  0.9009497985632832  0.4925297795198216
  0.7652056526643597  0.5539238462733247  0.3725942320205711
  0.7136770260831998  0.9470707936173060  0.6951964458499822
  0.3528517834375077  0.3779705789738038  0.9350781871936992
  0.7698162752324419  0.6398837218216772  0.5490740839974763
  0.1409841315708722  0.0810304537177681  0.5755780690713476
  0.6746263366838406  0.4139832791356733  0.9221520553257648
  0.5997945233504580  0.2858954551136399  0.8033575993501131
  0.2901026565360992  0.0421668453936335  0.5292568015099246
  0.1463213148645876  0.9682187509900337  0.6195150661975346
  0.1661241560104806  0.0604306857342623  0.7015575310260497
  0.2146925744810546  0.0979691581547283  0.7652922185892583
  0.1548372138271593  0.1039790336163868  0.7457433162489757
  0.8982312779724145  0.3099830530620591  0.3949204984699465
  0.2172508032082563  0.1306924911192617  0.8718750528757301
  0.3044040298159778  0.1631643644696939  0.9479465647064955
  0.2925885115590874  0.2328744131115821  0.8759357961795954
  0.3441775826953838  0.2685247162648148  0.9424112324169720
  0.1867135898745847  0.0359908794933748  0.8284948352275607
  0.4370181379223501  0.3852256327196114  0.6212899045103628
  0.6476535893565361  0.7072690891020490  0.7753613619163909
  0.5982655499963673  0.7392212165718053  0.7001718919875339
  0.5805050819480950  0.7972145194238784  0.4615167154991963
  0.1430370084169752  0.1155621467831416  0.6819930517268606
  0.4467732558884562  0.1151343369406921  0.8941518598319776
  0.2109039094288687  0.8096892346763120  0.1650804536110038
  0.2531942890721254  0.5940493733948432  0.0120516782593215
  0.5780730439349718  0.0584403677568420  0.8913411274047470
  0.2638881263074778  0.8285740118308088  0.2367055234003627
  0.2567978659685257  0.7651904413707054  0.0215511212297057
  0.4617315911348582  0.5118489500172654  0.7782494637116794
  0.9486764341100762  0.2194214241182187  0.4381125725478800
  0.3994036505819681  0.1678871048400653  0.6457532233160176
  0.4212888074576649  0.1102151169216452  0.6619976010198161
  0.6642777262848105  0.8491811899690934  0.8649949267888235
  0.4993111011315998  0.2129031606648712  0.6720085798414620
  0.5605943834806348  0.5963025768921328  0.3465117128835805
  0.4609915115940976  0.6588569214393200  0.2939324091238176
  0.5227425023877699  0.1841386315202153  0.7949076697303565
  0.4638540499094626  0.2846907341302946  0.5949075236961761
  0.8615138123130804  0.9344941138069290  0.5850047357262732
  0.7996500611859556  0.9169004755248699  0.5682759751249965
  0.7027970316219654  0.5803422775773663  0.6222424049819267
  0.7159346068510185  0.6841041892685455  0.6370290459295437
  0.6118825584631368  0.6119363582797852  0.4162049036087507
  0.6660918538693668  0.6819105123536872  0.6779834500764205
  0.6744107499863566  0.6670849367873478  0.7381912315549034
  0.1451812541077408  0.6710403943792169  0.1291558729302056
  0.7076400317010915  0.7327555543417201  0.6789166828625538
  0.9073882071678206  0.8064664898461780  0.7019692980962496
  0.1688515764134907  0.9144419349529411  0.2854127489591001
  0.7407337173299984  0.2941899425498894  0.2841322873687149
  0.4199230299454352  0.7985242957866693  0.2973775104963765
  0.8090800585911194  0.6756661110389274  0.5297993122046917
  0.4025572558205592  0.4883540004174566  0.6509589100973291
  0.7414685442117026  0.9121265635719857  0.7676858594704232
  0.6688867183313267  0.9630412184112224  0.7888147875772075
  0.8012856723744159  0.8075340581200524  0.7117964364051972
  0.7850247125691975  0.2040756791619644  0.3287500874486102
  0.1814459950794428  0.1342932510916197  0.5811780445823034
  0.2301192094427386  0.0124199193739858  0.5143350113797722
  0.3470747568352996  0.5682625616029564  0.3984777757412520
  0.2716120903185976  0.8048432454746718  0.0587503359356429
  0.4568828990462753  0.3562824646654145  0.7458013740299599
  0.2151690274434920  0.8237872686802611  0.0998453297414368
  0.5063072761059120  0.3932229867800989  0.8125187849175015
  0.2285740553794864  0.8832316325506683  0.0780264684529643
  0.6125367301568752  0.4221692997127872  0.8985462638815558
  0.5548856720053463  0.4300323839156990  0.8789001961678076
  0.1793499608851146  0.9439920556160722  0.1557929798720717
  0.2305391631559251  0.9282474429760004  0.1184324122022049
  0.2890387058114501  0.1372791315634763  0.5612827386247259
  0.7252657291452047  0.1195535625866785  0.0448902968636312
  0.3131632759845410  0.1096895528256353  0.6835464512798493
  0.3292903861254298  0.2170728819802407  0.6707604418245650
  0.4013678052748649  0.1993345006571956  0.7531128344356705
  0.4294574378838163  0.2935146178145017  0.8023148023109645
  0.6402758207259034  0.2549410504797071 -0.0168261967549149
  0.5368698211420976  0.3199116251400151  0.8905131964165243
  0.6147541421590172  0.3788495540102449  0.0151803036805054
  0.5230041000999346  0.3663443225751623  0.9418900636116522
  0.5283884447431954  0.2800788662233921  0.0454126855961209
  0.5076060084494598  0.5678482891122808  0.1084166644096548
  0.4252880858209340  0.1686054536600480  0.8797170747770625
  0.0762696104090306  0.9086705423593725  0.0177451160087561
  0.5543997564741910  0.4901805640375664  0.0900045898889966
  0.4040371976807660  0.5971027532959383  0.1809246025546760
  0.3638747758616724  0.2401834498261999  0.5686234562092345
  0.4607627114815036  0.6444674231299431  0.1271550540073297
  0.3087460849816114  0.7359684495494595  0.0494425507987441
  0.6659335466802692  0.5683182238174527  0.9849924528239717
  0.5754570057886765  0.4782785715662740  0.6558817422778046
  0.4671146775197964  0.1641353590804412  0.3412086007366780
  0.6235730581483071  0.5139986635806266  0.7168910379016949
  0.5630662826171592  0.5227289371500466  0.6974632419276622
  0.6322625373743580  0.4983498502349217  0.7767570213176659
  0.3040419481191668  0.6300763421279950  0.0237077654013248
  0.2540258286144699  0.6890487485367236  0.1027943708605971
  0.6802771472700796  0.5362811393789261  0.8418411164967072
  0.6465793993224698  0.5871102464144176  0.8596699814167980
  0.6341891311447004  0.6327481497554094  0.9027112468450961
  0.1471033406354159  0.6408563003899286  0.0200625508375043
  0.7182659958570540  0.5489549439837069  0.0119176480266809
  0.6940631315949009  0.6275648662749885  0.9246693034539870
  0.7280673918220973  0.6687360581932542  0.9780435631706595
  0.1701355189922666  0.8526942129963496  0.0735963193992709
  0.4025597809577018  0.2301279016601076  0.8590594385936174
  0.2972749570322618  0.0220795081778076  0.5960877388130219
  0.4459239949864062  0.3415798174297624  0.5755753352962004
  0.8165353311730627  0.9835646402831574  0.9498485516913587
  0.8395051568375501  0.9537759263970361  0.7959577255097521
  0.5347826263393047  0.4575357631851780  0.7545206683086084
  0.5908344083074981  0.4800818133317705  0.8799131257748211
  0.4492319051461373  0.5764763647525383  0.9747772799126704
  0.6883280781705292  0.5249984256283479  0.9012741608135832
  0.6292518087160435  0.5314516587290200  0.8822928340657344
  0.3470834697312892  0.5337561269410072  0.0666488424823947
  0.7671720243808050  0.4601933084892975  0.9395959679124987
  0.2513179954261848  0.6408992570487263  0.0567736604351304
  0.3444099848376130  0.2961151217742617  0.5498413540807552
  0.5559731662791132  0.6859672624907373  0.7008657311108243
  0.4078486695858116  0.6322208550928200  0.0592431622528833
  0.3744999412625401  0.1355306780891067  0.8104922237150011
  0.6414519891279419  0.8099475442563061  0.5365263067550750
  0.6883604768763948  0.2906555919578858  0.1493080955561126
  0.7273813980660300  0.8477060033457993  0.6063762324585592
  0.6303015565236892  0.7563196550818627  0.5433318898702035
  0.5927959382700239  0.9239230705228619  0.6031938930295652
  0.5978806451464536  0.3984858764244973  0.1359923856465857
  0.6416842524468599  0.8708703340933852  0.7383943950092170
  0.7864577204167823  0.9123239413538857  0.7319576212267939
  0.5458471733121039  0.4132603998575685  0.7098294073025752
  0.6029287778687059  0.6580731066878825  0.5497812990467280
  0.3153913002220699  0.1762423854731471  0.8928056963971671
  0.4656151039783463  0.7081421197044004  0.1111869943755322
  0.5098604992554754  0.5977346443202429  0.2147370726962306
  0.5620442532093413  0.5821606241350382  0.1797627325372121
  0.4120591111667559  0.7052157742443717  0.2075975818474427
  0.3663237750932301  0.7840178984668661  0.2285655191410508
  0.3696223544087912  0.8297505781020225  0.2731406350519807
  0.7507061298716485  0.8306505563860255  0.7302028492579390
  0.6600400825397055  0.8145707522777044  0.7574722056231900
  0.3263934629468070  0.9250272215300079  0.2315816359160081
  0.8093593978122884  0.8951381597731155  0.8567223639004388
  0.7621554347934288  0.8915046297838908  0.8975838412638677
  0.3282479128105444  0.9719341467776050  0.2791566569145511
  0.8466153982878529  0.8243310287059478  0.9310933207106744