Cr H  Ni
 1.0000000000000000
    38.7642358654787174    0.0000000000000000    0.0000000000000000
     0.0000000000000000   38.7642358654787174    0.0000000000000000
     0.0000000000000000    0.0000000000000000   38.7642358654787174
 Cr  H   Ni 
 1596 213 3725
Direct
  0.0179911015265371  0.8779252120087981  0.9925472659154720
  0.7297926948493273  0.0234097443885836  0.7219299895137690
  0.9394744096405341  0.2145857950452812  0.9811394474857585
  0.9350184059393729  0.1700806766010496  0.9334184765037198
  0.6123329601774949  0.0434417303887821  0.0831316303806113
  0.8313092160929197  0.2083222561017475  0.9426516835161890
  0.3693060406351121  0.7214896576380848  0.8019674703997799
  0.4303789451792615  0.7141896436040427  0.8228931213548571
  0.8402415257764067  0.7964662994636489  0.2121102603867094
  0.7436284063342535  0.0148085950119213  0.7879371895192517
  0.2936608756376188  0.6248932453897262  0.5365340019281035
  0.0581266753131954  0.8711658519628650  0.2057602682988900
  0.6627675681844559  0.0827147575709116  0.7476808684229895
  0.7201171477284840  0.0398213087875732  0.6582339726964557
  0.6617333467318023  0.0534657420774041  0.6418065858972657
  0.0976925949245804  0.7328397906903850  0.2069421404070879
  0.2506794331379856  0.6597149136558512  0.2262742363192640
  0.9870200431167856  0.2034524556037056  0.9460543127619772
  0.8546378082696123  0.2068706259196072  0.8469229806863074
  0.8808106720401205  0.2697765738243306  0.7919898196726961
  0.8032434723046553  0.1687122076639878  0.7806751333785660
  0.3215355039025430  0.6842376293976032  0.7342286486011096
  0.1392275745634738  0.5966540494916653  0.2065276161528782
  0.7533655974916340  0.1337215342251969  0.7112330111233947
  0.4672201638007211  0.7647976500851641  0.8247881673798969
  0.5440893347180696  0.8650631475627227  0.8255126202130310
  0.1955121698228665  0.7597513842138737  0.8982435128268007
  0.4579975912854347  0.8095344510621131  0.8689746629189533
  0.2874439084054846  0.8090281099478147  0.9339308964304622
  0.4340642211657555  0.8343451009398754  0.7432714796749657
  0.4931263575114028  0.8278064441330680  0.7630109007763528
  0.7899276221942800  0.8116505290844924  0.2443173332198013
  0.2946387505047866  0.7531624056974199  0.9765839765018188
  0.3562291846790260  0.7261481577836988  0.5742022921331189
  0.2793032951589428  0.8154093097668600  0.9975744536796939
  0.0430952149392104  0.5542925936964297  0.6310947727332470
  0.4154691761485520  0.7602881992078281  0.6414951204398576
  0.3072265441351170  0.7146009041656119  0.6085797248023599
  0.0839352751759814  0.5948435015350783  0.6927540525839598
  0.9909951443882183  0.5494610741378331  0.6730845526227685
  0.0941853629928294  0.5811461916062101  0.7521474487941804
  0.2482087824511098  0.7670454549185256  0.8613888697993178
  0.1414840754902605  0.7352173562279120  0.7656786576451378
  0.8326851961014181  0.6925207892388872  0.4120118376852276
  0.6031938993541744  0.8953468609654777  0.9494603582399188
  0.4441997494179357  0.9710658827597249  0.9879302567377252
  0.2445404872263734  0.5655582839330145  0.1369695523876606
  0.8549350639694733  0.1739674313306037  0.7415599144196273
  0.0116861670232663  0.9309726782720033  0.2839996146788653
  0.8726504005977412  0.4100368597820886  0.5891252643840360
  0.2076321926726176  0.7817713534625154  0.2870368486555779
  0.1985015723039168  0.6732891735315483  0.2617306706650882
  0.9319343838335288  0.5578664871127512  0.6467035977534913
  0.2974688460144141  0.5815704339384565  0.2082523084146140
  0.8634280477251401  0.4177598119063126  0.5225837873103775
  0.9460746360908191  0.6506890993063859  0.7165006178634989
  0.9408548730501811  0.1648110900625114  0.1648167943444625
  0.5434014309870114  0.9953804884322143  0.6815725248955583
  0.9598535344396757  0.7610591109499985  0.6996234564760866
  0.7698880522819660  0.0475578766405990  0.2627057643169978
  0.0403971185872263  0.6848805220173758  0.0299904551503655
  0.8334597731194804  0.0674297352906521  0.7505047536876607
  0.0014832790067250  0.8710567416704164  0.0762531817343148
  0.7678101795078649  0.2077015866456709  0.5980939324030266
  0.4659550152084438  0.1685511935022970  0.1128133128379304
  0.9350360863635820  0.4264697982927386  0.7820211848228439
  0.5670580168890010  0.1373370223299718  0.0413036412821043
  0.5124607817674124  0.0917710543426036  0.0899218783098329
  0.7101826191654235  0.1409797348093870  0.5231565951609751
  1.0034026999097823  0.4050026182372828  0.8662182723064649
  0.9954661423844234  0.4168939194039987  0.8062425632885336
  0.7727080700065495  0.3743707145911428  0.5648592714045088
  0.3419331801382490  0.4568033914065773  0.1465527267116721
  0.7561287704536745  0.0989842253789333  0.6023464768225102
  0.8648500780675311  0.4466497372516856  0.6951309321313777
  0.2310681600628834  0.3941087268727280  0.1295333601089986
  0.6600381434013672  0.1059398302974625  0.5114088299137501
  0.3865045961671820  0.3801212754064884  0.1318897892204400
  0.5989958894627285  0.0122278382696293  0.5165109012173887
  0.9714421493002848  0.3408413431418331  0.9246887015713481
  0.3297360996455334  0.3502507507617838  0.1244042719062350
  0.0514348756995977  0.2903182954217300  0.9155118446503195
  0.7371024044646619  0.0600686983691862  0.8318076843527632
  0.7559293163315987  0.0049154288715857  0.8522453309376898
  0.3818931575073785  0.3358961848141773  0.0919670565128905
  0.8172808451328735  0.0441628681202646  0.9250409236573419
  0.7867222046212708  0.3472382665167748  0.6909689004384461
  0.6261394013534479  0.1829677606320882  0.2197301640666466
  0.6222958138268020  0.1224063154601063  0.2387891053143824
  0.7498976585459474  0.2655707640205137  0.5815578908579130
  0.7151086662681485  0.0341000594841513  0.1922066425564911
  0.9960988031759990  0.5570387407057296  0.9244131724693188
  0.0671342868525163  0.9460169580301325  0.3567438199488201
  0.9625017098359059  0.4865924694761910  0.7254811614754085
  0.9238690748610787  0.4379095881305276  0.7190811625420859
  0.1111058068512229  0.8704979474682029  0.3405889228812573
  0.8175165938979909  0.4088405221187753  0.6319444963042790
  0.9482698956489222  0.6733343688924115  0.8857078992005509
  0.4546936298084542  0.6268578145032512  0.4165140710797360
  0.8353796356207372  0.7355767479399176  0.2270293626026683
  0.0427900594334144  0.0149916298745051  0.6799952281772552
  0.8797622041687483  0.5778406441748041  0.0548052952738374
  0.0672977384198741  0.0499508007135641  0.7831858255142292
  0.8577419432453197  0.9643014255929779  0.4528112100771049
  0.9085278537045962  0.9483708032730976  0.4205094584814718
  0.9521549672957321  0.8582185233660661  0.4648867347687068
  0.1611537548637104  0.9205937025991784  0.5218496730107366
  0.1843245039025940  0.2315092855473762  0.8957290359975235
  0.8097334346590799  0.4583541430821468  0.1911547638035584
  0.8634910045264552  0.4243441606987117  0.2234775036338391
  0.1165818563294358  0.9499985625030066  0.4951633049033321
  0.9559541515009854  0.3219907913807093  0.2368915374123540
  0.0967591795331274  0.1420191937263679  0.8310876915087013
  0.1569786880636021  0.9259215186713015  0.5791363614610447
  0.8550212642831883  0.3671339981706740  0.2399504664609413
  0.8489717230961913  0.3208726856713734  0.1964993245931911
  0.1060620382635453  0.0990390271913941  0.7861946962529902
  0.7235674353427223  0.7820090722702530  0.0033288132364801
  0.1266741924465288  0.9868570317589713  0.5469047161098873
  0.9497661959431987  0.2735217870830676  0.1933915750346261
  0.6074163907058500  0.9993457061130711  0.0379909831479353
  0.9451791696057050  0.2116288512232540  0.2097588629722049
  0.1452561829085461  0.8567699302339796  0.6987939466385918
  0.9690061059070445  0.3228196824962620  0.7541904255147017
  0.0735382835996790  0.1679139177722216  0.7033725972194688
  0.7188319749651417  0.5984887347085148  0.2843558766431429
  0.1172041759721708  0.0880347263973960  0.8505000494707661
  0.0780333702450324  0.0375556386823536  0.8463024342412031
 -0.0051884693071942  0.0196823508562653  0.6498255198743831
  0.0579443861358816  0.8256306094371566  0.5765073546542222
  0.0588121847766809  0.8699643917442541  0.6172410443356461
  0.0107950310098910  0.8103719263624495  0.6133495656857518
  0.3144272710924199  0.3191061568887127  1.0074526588528139
  0.2685693526870583  0.3173832919521387  0.9656825639645122
  0.0968776518759026  0.8237985895624921  0.6298080780078006
  0.2722524415593632  0.2898912967405750  0.8600786919593600
  0.2340457484244013  0.2389669162584342  0.8549980578998878
  0.8354082092200046  0.7305579198380767 -0.0014212331984524
  0.4307814614454214  0.9390436990678674  0.2048497267921726
  0.1622979864565056  0.2579019543715796  0.7737234619371240
  0.3095390810704584  0.3092958491598721  0.7609761332284208
  0.4794672601844647  0.9063880796459176  0.2277660301655923
  0.0755514597746244  0.2007715602613197  0.8111592379949082
  0.5313256782650148  0.8748761398198496  0.2528701886122572
  0.2423564077649349  0.1632320483283332  0.7073432431952434
  0.8318548816789573  0.7190575009769358  0.0581962823873562
  0.5745663361415859  0.9614344872573471  0.8715649678017279
  0.9461254097737559  0.3791480329441967  0.7375502656949190
  0.7272472690956842  0.7048876912647276  0.3111021581958513
  0.0811132056448800  0.7057851949600010  0.5210026713306255
  0.3962085007890158  0.9674966826757597  0.0919988655422369
  0.2791703550080024  0.5618198605579637  0.8163001841118642
  0.4409041813096378  0.8901896709995596  0.0705352542509091
  0.3300073131331612  0.5678412154935164  0.7781309241266051
  0.3421211032872982  0.9436531275454323  0.7496197202699449
  0.2812232526049884  0.5299629073489708  0.7126773869926402
  0.4215315898708196  0.8482295024641455  0.1147369288969838
  0.5187551603780380  0.7539155754407192  0.0607252627845199
  0.5154875278163663  0.7105106835755263  0.0155158345857707
  0.7224506033382048  0.6564826659755050  0.0398487812473243
  0.1328817402901214  0.4476280837374128  0.6196626176030219
  0.3046271659782508  0.9256449673555821  0.8526620588305354
  0.9765646884960630  0.4677877274370306  0.0739638766069427
  0.3427738393197774  0.9747862780129336  0.8555815313637157
  0.3119989132258745  0.0100685098174267  0.9373884502427678
  0.3899013502604139  0.9233926241816369  0.0470903715104891
  0.8009538107013349  0.9326879979724314  0.4454764513567424
  0.3921913054412403  1.0014511669198090  0.9674691205587990
  0.8470626322566071  0.8671515570217104  0.1948203570312519
  0.7330485714022568  0.7741612748434503  0.4609860444666479
  0.7819611383723194  0.7192419463981155  0.3847310013966310
  0.5276333255700995  0.8634507463977983  0.0865070737800676
  0.5053504840984845  0.5963974218711341  0.4458207158818416
  0.3828941219314793  0.6775581273014918  0.7595709385031435
  0.8397292881504753  0.7959086518092779  0.4446845057156635
  0.0179785076507526  0.7663233574305687  0.5680635875911301
  0.0832011633627451  0.7165747822923658  0.6342495782421550
  0.9312530521259050  0.5950775212416208  0.1323844097308839
  0.4037082242143109  0.6501599984431908  0.8820308030664440
  0.8847229405015546  0.6736963880524400  0.1480331064163834
  0.1914714603033664  0.7410025415124945  0.7304110279375670
  0.9197841930068806  0.5733640026048006  0.4840199887621714
  0.3433325671605901  0.6574649256781556  0.8588827732397494
  0.3326476595236079  0.6702261150159644  0.7971817725365241
  0.9750569036196833  0.5552853820928391  0.4519001749972777
 -0.0047010737483359  0.6589101164770181  0.6595402357572803
  0.8321052340223904  0.7050945505876577  0.1185345041769905
  0.2782133662453496  0.6478664507314075  0.6604997216077123
  0.9661340512698813  0.4955949342469530  0.4812909786261336
  0.3698719096608616  0.5878475560897242  0.6748738716153808
  0.2017351003633972  0.5637094877724379  0.5734298122855458
  0.6951714478547847  0.9198904919357326  0.4644064151982075
  0.1488983503887879  0.5289184939697625  0.5081205580642252
  0.3251822721104284  0.8689751403321755  0.8720137289659877
  0.4955505975469596  0.8740578808434416  1.0341126663256985
  0.8426121814832604  0.6732367677017881  0.4813149286782424
  0.5023658189015000  0.5501773998645779  0.3991816538228258
  0.5131681320540253  0.5370896748345426  0.4578335071015732
  0.8256452979756528  0.7028989152915974  0.6939782006529680
  0.8299157957970733  0.5629626096491460  0.5761891049279032
  0.6869463336031725  0.3402335936077023  0.7709212236060995
  0.6372551456018839  0.3041078821053664  0.7032968008487797
  0.8338935178868171  0.1453986013325806  0.4768502106043751
  0.5869596112039585  0.2683272931175726  0.6380013315579611
  0.8687047135444438  0.0746199764651912  0.4773980248845524
  0.6388120832576454  0.2733600331806822  0.5981579572761375
  0.5360290888417664  0.2367073213975796  0.5731907345169291
  0.5553651443634305  0.5158933763340660  0.4248453179939811
  0.8848017537267638  0.5607087849883520  0.9347888385161187
  0.6574534251009483  0.4531351076798106  0.4758480292715832
  0.9169163805024468  0.5110772620952474  0.9254132127614527
  0.8575811059789684  0.5157538814603964  0.9029929705306611
  0.6904745079362853  0.3430538591955044  0.4244392175160381
  0.0505177705610700  0.4404458871952842  0.9290906586470752
  0.9117581551135848  0.3527164962952454  0.9007966163660663
  0.8546668675400535  0.3600227308130340  0.8799855586625970
  0.9053040767915397  0.3648879212305423  0.8386889480603520
  0.7572543849226248  0.3182692726466097  0.8532819929189503
  0.8581871282858333  0.3260988228157454  0.7746423373958020
  0.3907596391910281  0.4567993216465276  0.2792501217276838
  0.7209212472327320  0.2030773019766775  0.6372315570627178
  0.7374563017913185  0.3436803455981222  0.7298239048918722
  0.6476019037879660  0.2255520185591567  0.5570286216466094
  0.4403279849375341  0.4264509829723885  0.3054145775707884
  0.6312185563699887  0.1534305590580419  0.6653549873758966
  0.9889881593340604  0.4525205291566162  0.9073631995611808
  0.9811194273533577  0.4644740007219843  0.8475729219771981
  0.7333404878508116  0.1913974097285071  0.6970660832943923
  0.6876191996485559  0.2946096086201285  0.3808679878229429
  0.8412243327617529  0.2628684485013996  0.4460568503618609
  0.7764509745285887  0.3915704820084383  0.7335463659903904
  0.7881055242051264  0.2485878093130895  0.3735474085159061
  0.7277214742776522  0.3564949984977203  0.6687152648345787
  0.6676338084136663  0.3662934756907525  0.6452430674815441
  0.7304392043036535  0.3476682840488780  0.4999189386955168
  0.6792740847412996  0.3193582591887451  0.6031191599503140
  0.9835569838759088  0.6054789793115859  0.9744192196145661
  0.8608265093538789  0.9757612859650896  0.3929516767305510
  0.9353397755280384  0.5668826556206250  0.8977249747601309
  0.3216254336781899  0.8534489381971916  0.4788605226267588
  0.8994745933561190  0.5308493604531149  0.8026050958603745
  0.2678723765007626  0.8188375725674149  0.4717606055803257
  0.3568495389206354  0.6747035965342207  0.4270463418997262
  0.8835684286979649  0.4223684150174555  0.8213187094762641
  0.6711255578503953  0.2021700308957392  0.6721042202234738
  0.2623559587913250  0.7973597006523387  0.3608300629169957
  0.6194734236620444  0.1667284800662606  0.6009213790487956
  0.3087373164719336  0.7210392333631506  0.3400480763859344
  0.1577924640295524  0.7777204455974686  0.3876393094729869
  0.6194936181065874  0.1203329039600484  0.5504515300751246
  0.3925304954354272  0.4899656879718745  0.3800953123161888
  0.6572054447879263  0.0506046092024039  0.9190318215145153
  0.6884582855466392  0.0581747301321395  0.8733070247658514
  0.6144190491091978  0.0764185549774808  0.7881301983839426
  0.4934955338202767  0.4421987254813192  0.3711533412293384
  0.6244172490778508  0.0311319122731110  0.7453284814607621
  0.6763488170661995  0.2103896977187658 -0.0014384960369122
  0.6631134828034726  0.0413670010333626  0.9864615111149396
  0.7056872885051890  0.0014031211597870  0.8934192392691833
  0.4011330340111597  0.5997856154601956  0.4092743083886325
  0.6428923292548834  0.1715821890465432  0.8336600394511723
  0.7146411994895810  0.1172529575119234  0.8127724030949178
  0.6034593404470705  0.0917151046808064  0.7246389623853262
  0.6524621493386167  0.0971699418850148  0.6829754671110536
  0.7260349489466006  0.1237341616770878  0.2760770925626052
  0.5501372930918790  0.0567027436059754  0.6595269197427127
  0.5020203083772541  0.0186948986117971  0.5963554997441960
  0.4925834825700134 -0.0093704090282485  0.5481501691177935
  0.6398980588113722  0.3371453261413584  0.2890017471962012
  0.7915312368493592  0.0983832545880442  0.8973254423836113
  0.6938189875007217  0.1750247828438492  0.7961423336494236
  0.7093936862109999 -0.0329671858833513  0.9713585295962186
  0.1619203566309187  0.8438169621699295  0.3699727502420645
  0.4088694397257980  0.6588192800179162  0.3912573134828384
  0.8213898897229266  0.2448416323975509  0.6643102597536626
  0.5791785575811019  0.1159961917684007  0.5959734911358516
  0.6996628386964285  0.2600452519512051  0.6206261327913075
  0.6848096413140781  0.2796077668167563  0.4395164584536829
  0.6582836076827162  0.2133608047608847  0.6131998691541944
  0.9236111500591443  0.7130615866580569  0.6086905174024204
  0.6659876305983581  0.1627635916637277  0.5586510518024050
  0.2193747280535282  0.9074031187423268  0.4872357701811820
  0.5356155036690614  0.3348044880543255  0.2541630531415651
  0.2151779346429685  0.8565296910101631  0.4419614895747954
  0.9296568957230257  0.4620946571629520  0.8841963067837435
  0.8250273245659471  0.6678416048495871  0.5891594297271371
  0.4800003448089223  0.3036529164913467  0.2468587589948474
  0.8438298918545736  0.5032601013011263  0.6771690426640091
  0.2115852928806923  0.8273050580920257  0.3336103976472357
  0.8904836207754592  0.5419864388791519  0.7425531191984100
  0.4011332205251681  0.5817281620046163  0.2419489011267685
  0.9458703372664778  0.8352559706754242  0.5243382819989298
  0.3448503275114773  0.5351680878118475  0.2954375148128668
  0.8310948007859837  0.5490427343169939  0.7175161201361449
  0.3478039648732475  0.5825255709339709  0.3386896055945173
  0.8404836386042334  0.2033781566286520  0.4597982053415934
  0.2682828828756811  0.8843484671901736  0.4573343084662521
  0.9085377962779889  0.3305360190858883  0.7324406231420184
  0.5586946589803838  0.0136641934570444  0.0722424400609960
  0.8984394999162337  0.3420629232815973  0.6724804185098845
  0.2463296716279885  0.3597293186374206  0.0109292145853941
  0.2378808159247084  0.4671512829115485  0.0505469675454563
  0.6336581871197688  0.2279912972227774  0.4957933553329960
  0.8714970286026514  0.0170489438839049  0.9547515565229875
  0.8520318533245882  0.1393747488797099  0.6359812994371257
  0.9355340896872140  0.1403360289248068  0.8856221047218543
  0.1893323659708830  0.4860576921308781  0.0834672458517296
  0.3584590241501703  0.2525550300138347  0.0028187451803339
  0.4713556922802475  0.2284696296682429  0.0990688342051083
  0.8980850576310410  0.9903059992527037  0.8683038199295533
  0.9154290024274483  0.1653587596338126  0.7615027776929292
  0.3969195694465546  0.1166927330113368  0.9349826205266504
  0.8028533953013617  0.1368821842232637  0.6698201491260048
  0.6025766330513709  0.9842294523408027  0.7026352273776740
  1.0025974333894707  0.2524357711985605  0.8321130929096003
  0.8994099907869576  0.8444452425834432  0.3927466945859390
  0.9351707184386467  0.1064501390017682  0.7792247350729294
  0.1393059311360585  0.1168925462151235  0.9665155637804601
  0.8232817045871756  0.0792636940617813  0.6887834486994719
  0.7288453727005194  0.7345188221075627  0.1890217168633143
  0.7640324812588418  0.0491858492348632  0.5598935241354499
  0.8600364906331955  0.2932447702212407  0.6692140645660097
  0.2207158973645290  0.7857576114946196  0.5113834418447338
  0.8506151916534278  0.3044093597936120  0.6096935646464754
  0.3722654651712934  0.2753373060885861  0.1079430552839430
  0.9396269795155857  0.6906932187440974  0.4482144586830598
  0.9527846679044388  0.4975013156864306  0.5468801097222206
  0.4088107117712132  0.6398415813376425  0.9416147821601999
  0.8684101779292340 -0.0453540043956394  0.9770161746960057
  0.4508744311473469  0.9988930264510988  0.0977143410140515
  0.9898211484093342  0.1393300382996405  0.9633927947228037
  0.1333878683016217  0.8990016000838291  0.7431844882988992
  0.0082787582255754  0.0881236294859442  0.8676164420384044
  0.0830567374452150  0.0325582471950609  0.9117724105762197
  0.9477358796985138  0.0954801561278112  0.8421308766524269
  0.7975773048716858  0.9033634634720972  0.3366732111360703
  0.4114326338083709  0.1572308216904498  0.0407033429848095
  0.5174751685769594  0.9671590488727948  0.6288691868714006
  0.4568503667604058  0.0769129167812012  0.0203993310888322
  0.4792308999401794  0.8739690689213614  0.3524696503617625
  0.9404162659995923  0.6760586214166354  0.5140911384558098
  0.5304335250938601  0.8588779016491079  0.3153753650610639
  0.7711183194647977  0.0574607266477679  0.9635483093237344
  0.4894813336526488  0.9321404987851110  0.5672707720745851
  0.8300174187379015  0.1503950703192842  0.9605802943937662
  0.1273131817772017  0.5439332504739841  0.9318971309588718
 -0.0033089509756926  0.7788012593114042  0.2150816024702386
  0.9208302327175295  0.2844901148578338  0.6893335445150053
  0.8073405389268181  0.1485583398524016  0.5281876169132955
  0.5995381853048649  0.4420178852231199  0.4070793246119130
  0.6320544058236516  0.2629529141047335  0.3705968143240247
  0.8958435875008074  0.6445081975683662  0.7560856088184266
  0.8772245941583964  0.7082932412424814  0.6520290757709662
  0.8751574285412832  0.5606631772601273  0.6150896280241025
  0.8237876275939984  0.0618010753636438  0.3341533116318579
  0.7707052959756818  0.0801814866123563  0.3701996675669074
  0.9741610260949976  0.1562901694800695  0.7835905596607416
  0.8647198395029845  0.1261562929945247  0.6951858645386489
  0.2415249999216039  0.5380517457616382  0.9760824853605460
  0.1867559735649802  0.4377321998560050  0.0371505219090748
  0.9524313403117333  0.2138420142217591  0.7662212082560707
  0.7226203000575544  0.1446143144693003  0.4431972512052408
  0.8168783325938843  0.0911184033684742  0.5021349567512361
  0.1402964525250407  0.5644594583988614  0.1006238259808149
  0.9737613882678269  0.4472367175845338  0.5376036380263317
  0.4661322519498490  0.1858094993326777  0.0530114329376016
  0.5118486106528852  0.1086341838638070  0.0270155791021593
  0.4339702194764166  0.3505884507008159  0.1596603098561098
  0.5274756556953657  0.2429069187756420  0.1677127816034271
  0.7624807698912820 -0.0072783044394058  0.9170302155509586
  0.8684734997676040  0.3150908290110119  0.8374619201401740
  0.5881717577234837  0.3807067073808317  0.4283820748884486
  0.7957551384788372  0.2656162954436305  0.5418178354904751
  0.9841055141620010  0.4294171088853637  0.7443773299025497
  0.6469737490641505  0.3980999805158358  0.5151353798094673
  0.0425460281411385  0.7192635875301082  0.1369294800691022
  0.9370677927142068  0.3917247945401787  0.6771854954696601
  0.1963624445813683  0.6422242361097931  0.1557380072017994
  0.9416431305499566  0.3531621021662331  0.5700005706540354
  0.8417793989986023  0.3119408605468511  0.5479915862781063
  0.8426654390349269  0.2475447305561216  0.5072632035516508
  0.5770477510174569  0.2121979080843497  0.1932095124429893
  0.4358366792620516  0.8666487899402587  0.8484175316320625
  0.5910724653003900  0.9495605048262938  0.3078261198797778
  0.4432181527959669  0.9063805112829363  0.0116113280591479
  0.1198288204221510  0.6209866100202500  0.5882907859835006
  0.9831677343416940  0.5703709446358354  0.6201573647109302
  0.3871431303486839  0.4122277948381184  0.2374743810035046
  0.9254453922995065  0.5716718486347784  0.5894249445418309
  0.7296760808982881  0.1525994896071433  0.5873131039499425
  0.4827549870191326  0.3630332287450775  0.4625391341748193
  0.7340619521098957  0.5095291194086283  0.6990531801060087
  0.7588548549357553  0.4186894667061198  0.6090638565668158
  0.6482864497616634  0.4253159321537569  0.6289696060404765
  0.6867624217162049  0.4451060666155957  0.5265222435980320
  0.7554922320638876  0.4340094298301184  0.5513214169957297
  0.9895441469274779  0.7104243407368545  0.9383590313400270
  0.0707377845494631  0.5171628543683827  0.8102069107845667
  0.5752184002550763  0.7815648070534476  0.2955076941326756
  0.8939445812391721  0.8129988799142037  0.2839594281789138
  0.8109836514312415  0.9535358968412760  0.0729415089184631
  0.9401339164353295  0.1814032370458648  0.1030029221820945
  0.4174533719716964  0.8037838306153405  0.0716332530896367
  0.1098204970033483  0.8622086176499233  0.9090574795463738
  0.4162604176292517  0.7859957479336998  0.1307241060693580
  0.9469640580586518  0.8247525437154742  0.1272310070199038
  0.8399249175949687  0.2267985684255971  0.1094317159326813
  0.3705524354548098  0.4839583178030764  0.9186965071326566
  0.0383329298328465  0.6237244924935809  0.0506321019463144
  0.9349203390847798  0.6579902159953198  0.1139607383812590
  0.0230528336829831  0.9475402549034360  0.9765376214213948
  0.1058522445570882  0.8360831260130016  0.7982916374670846
  0.3418606709841400  0.9671478362824689  0.1914129013529902
  0.7856865344624763  0.7802750800720346  0.1367964134780345
  0.8507488603298029  0.8846626607940901  0.0656256341630493
 -0.0066060532054322  0.7471262352289433  0.1092118978061656
  0.4402069025169621  0.5679251496743907  0.7600869335610732
  0.3999846854299884  0.5497979599695629  0.8618057036792366
  0.2284893384020623  0.8427859512413909  0.9669722617162410
  0.4603817040798288  0.5416638037670514  0.8847020846722256
  0.8795458870034399  0.0899318504866494  0.1086432957278170
  0.3069889945392228  0.5117375111337110  0.5121835456096270
  0.7348790399240798  0.2908234404596300  0.0481591282278196
  0.9563032672797107  0.9187383621700159  0.2120206769940628
  0.9376838868629616  0.7169319106974587  0.0965340404294409
  0.0840920459739231  0.1226352775092506  0.6576932011943906
  0.8479923147837839  0.9099121145693850  0.2432565674533555
  0.1452670334569920  0.7099441439287965  0.9907608847563619
  0.0907556954797176  0.7368388981531412  0.9737551629273804
  0.1624271969524499  0.3549177468033152  0.5335579529508973
  0.3914501231591657  0.5310827315236634  0.6949445040054103
  0.5181397783787365  0.7367944440756448  0.1201561430252895
  0.8139687482195376  0.9226600971696698  0.9652774255145598
  0.8299248237786029  0.1342575064398123  0.0211274361548315
  0.0324490735005056  0.0317669494494757  0.0692220210060865
  0.2179606491632438  0.3843131651356426  0.6600020941565928
  0.3582463342677971  0.6040851401808615  0.6172791185096639
  0.2339726318920981  0.9534061611378462  0.9916868684753429
  0.8570882925736424  0.9320381306716956  0.1068837384209981
  0.2874009875908665  0.3647600927089809  0.7448690731788841
  0.2350995719974829  0.9672287637341155  0.9338442285693732
  0.3318651413056564  0.8749537566860301  0.1017272952316961
  0.8365483135862585  0.7650946041182878  0.1032957427618909
  0.2800209041828972  0.8741109450673075  0.9732151794242282
  0.9908515170240537  0.1514698209515079  0.1299291788603952
  0.3711795852101912  0.5631239250217153  0.5740581362868702
  0.8881560537295129  0.2113540259075140  0.0749476589215705
  0.1941035890211183  0.9229052424911135  0.8715735786941916
  0.4717481480093908  0.7986921254435627  0.2009907673330887
  0.2075254151873501  0.3240758450494627  0.9642656815080650
  0.8751846199648120  0.5178901422460750  0.0806196666013327
  0.8170401350938689  0.4984272689074070  0.0063441628957361
  0.8682169524159653  0.4533452217427640  0.0972789156673887
  0.1501771890082491  0.3031944957295328  0.8197003463660559
  0.8297077275411752  0.6698977382104304  0.0126687811353329
  0.9503726751952043  0.3049561295067126  0.0706229441092137
  0.3959693534510579  0.9811755172369869  0.5825534449106804
  0.9736839480507220  0.1239130675808753  0.6748519138074975
  0.9016425993923151  0.3163177566797132  0.1035964016103073
  0.7985136057174905  0.3193254396631311  0.0596792550560250
  0.5757139068462306  0.8468024573522690  0.0515272932754174
  0.6785621342579264  0.7971156274409913  0.0408488794014225
 -0.0108908028889768  0.1248318600688691  0.0210677122767840
  0.0889062649810836  0.3414757915939927  0.9060624471973618
  0.6637285541987475  0.8069763245930516 -0.0204047850532822
  0.5023252459177016  0.9662020679178093  0.1240242491598793
  0.1983372818967490  0.4914373676689987  0.9116861816252372
  0.1620484891545536  0.4416675071549396  0.9135188008806790
  0.1023499499144923  0.4478946556954193  0.8904740970262441
  0.8195166305591255  0.5189607030957063  0.1739309556897269
  0.1357585623849764  0.0731211813674653  0.9159825407793662
  0.1248320389373317  0.2398186988695795  0.8742329166512042
  0.2427424553784576  0.3767915058007123  0.9535277184979238
  0.4405487148133054  0.5805627794668519  0.9676086006516681
  0.1250918452215375  0.3921762005338479  0.9094220714675756
  0.8047022890932439  0.9433269181586837  0.1427408385382819
  0.9770168025945889  0.0000299948120658  0.0592408874790886
  0.0539065562946514  0.3157905467503964  0.5080659226585409
  0.5393744327250746  0.7130634607905143  0.8021390781613275
  0.8415632834806958  0.8251872176930430  0.0865395203001094
  0.5023981954426495  0.6621663410296417  0.8020469346150281
  0.8898936386243244  0.8083819212521572  0.0532856572005684
  0.0777716015459838  0.7711465259166651  0.8499453520680413
  0.0680942360640130  0.7853418489532134  0.7897505927586765
  0.4427565298018558  0.6695213826631058  0.7806363812922584
  0.1157982495537197  0.3029507555678569  0.5278141060591678
  0.2775317894417379  0.3773483165483341  0.6813348066782795