Cr H  Ni
 1.0000000000000000
    38.7642358654787174    0.0000000000000000    0.0000000000000000
     0.0000000000000000   38.7642358654787174    0.0000000000000000
     0.0000000000000000    0.0000000000000000   38.7642358654787174
 Cr  H   Ni 
 1596 213 3725
Direct
  0.0004420700134202  0.8250236255796655  0.0362214238010885
  0.7751683007934498  0.8286904125998322  0.9416701722864741
  0.5991949088786662  0.4281299742929691  0.2399001162460372
  0.4528195974940555  0.5044639187604733  0.4571902795899196
  0.6114027912633895  0.5520289168908663  0.2032545614782335
  0.6619106413279067  0.5207872803580084  0.2303497140607813
  0.6122551700505834  0.6582731615167287  0.7796138748536023
  0.6594065738696799  0.6957933119796518  0.8360954518673716
  0.6089509522102178  0.6915854122026674  0.8798359442409954
  0.5180039777009581  0.6903905950447953  0.3022758174391463
  0.3162093061046224  0.6730064249068661  0.5238945555595046
  0.4762713834622896  0.8121490957741244  0.3698628389049232
  0.0129640163877816  0.4128074564529113  0.4537964298507070
  0.0239611749633654  0.9585043535052943  0.1540286243876243
  0.6843161846586342  0.7554218501827185  0.7760056700930843
  0.8459188446840683  0.2963664514742710  0.3233647353580523
  0.1951214117031718  0.0481793160644486  0.9457305580839500
  0.7217472791167333  0.6291967015918009  0.3852061808976818
  0.6488025849388520  0.0269547218831891  0.5881327088859676
  0.6818466185548892  0.6823177539189821  0.4702879479734366
  0.3781178738733031  0.8708143962409138  0.5493288525814537
  0.3203557097227879  0.6808448753562885  0.7359408687818776
  0.5420758522002624  0.9093012751771180  0.6441279363887288
  0.4078684405319508  0.3195742894041021  0.6799385644986582
  0.4664703762795128  0.7631629190986556  0.8232742496984656
  0.5318615981062258  0.8738731367165330  0.7634644244475686
  0.1968948448748023  0.7603426416395067  0.9007080148610317
  0.4569385565315732  0.8086173373251733  0.8681826609455074
  0.2892628862737911  0.8088340717087144  0.9312262148021896
  0.4315961705888890  0.8314278201174082  0.7429558976422169
  0.4925341685600356  0.8250667069108358  0.7629823691274978
  0.7899276483506570  0.8110081362026474  0.2440329579293900
  0.2564495274442673  0.7492895533162003  0.9191781094611075
  0.3345068807582051  0.7087543625355913  0.5737626618312965
  0.2785192387813193  0.8161141953935851  0.9968882250259458
  0.0390898593272742  0.5522150377690832  0.6245568491960506
  0.3764133664703705  0.7114523323903914  0.6373439375244754
  0.3080804459544876  0.6932838004386892  0.6736289206254034
  0.0077327432292891  0.6431369224482596  0.7124602933361790
  0.9403655641270384  0.5457173425544491  0.7045690926223310
  0.0948319591236014  0.5801967598269143  0.7501929661586821
  0.2473636148125450  0.7666243328587504  0.8626023392708466
  0.1960800972169296  0.7282138060104314  0.7961852026814653
  0.8345755170759130  0.6924521016886565  0.4100095698923742
  0.6038188079920513  0.8910040876845010  0.9540393025454442
  0.3936139183972003  1.0012526568710476  0.9670680896133373
  0.5398271746832484  0.9319398741305254  0.4689397688754419
  0.9129546189821303  0.4639574340376422  0.4631480205357091
  0.0828915319161923  0.0193001017438637  0.2716678348785881
  0.5745088128033055  0.1865498146754371  0.3165332414494607
  0.0500413632944420  0.1860842573952471  0.3708832808540092
  0.1027020061684581  0.1545542933962750  0.3991366244209764
  0.1369377232287928  0.0362527918171688  0.3436820511622745
  0.4820962905969968  0.3356457624289545  0.3515380059996109
  0.4856025872409820  0.3824322822193638  0.3955545287028304
  0.4799638033843219  0.3064629986278630  0.4782542411011790
  0.1170984874138443  0.3509648572760072  0.2827056681572626
  0.2941648188887913  0.5165088622520646  0.4517880387109113
  0.0748295011571853  0.4423485126491423  0.2359176741725057
  0.2039257736329242  0.6866744673036007  0.4258501737501885
  0.6621835405051461  0.0739699286786789  0.3996617690487907
  0.3604025904616971  0.1357849490430802  0.2018836017901976
  0.5509331320435717  0.0564666107931572  0.4313774701001087
  0.6643654933300022  0.1309770019627352  0.4578248582697086
  0.4506435051742482  0.9818739575612868  0.1615585357028856
  0.5776445722011339  0.2183532383199288  0.4244223600983678
  0.0328275498758646  0.5349004539213787  0.1875124826437400
  0.5294883940614247  0.1692398453621662  0.4771595751966028
  0.4883436076233693  0.2867506690695232  0.8243972549706424
  0.2832267421415953  0.4125833040372167  0.2021598400527123
  0.5268419588747689  0.2297431978971866  0.4582533693750885
  0.5272987648667752  0.2603200679729974  0.3346007494786052
  0.6039364884137847  0.1423604344142547  0.4944014985673397
  0.4543904861887283  0.2932646746340158  0.5298470948824910
  0.5157672359602192  0.0964633244043914  0.3311581469543194
  0.4342838955296621  0.3939635661812905  0.4331107107888981
  0.9805535628368471  0.4852539557772538  0.0136558582179066
  0.3097278159752779  0.1828486721002494  0.1158559756628098
  0.2591480205281818  0.1824715685329034  0.2128315933736795
  0.2577638993451526  0.1729034560875634  0.0400251772026894
  0.2066238475469981  0.1849434461716216  0.0790673982440626
  0.3055279636325022  0.1231551535368350  0.1301309495103794
  0.2555088653859994  0.1549527222897786  0.1055705877468407
  0.2881595944777506  0.9563417439770501  0.1231638862800130
  0.3514417314861382  0.0460855891824922  0.1111737616726719
  0.2508888334943427  0.1930663468232097  0.9734871509493594
  0.0289878867804701  0.4874218081344986  0.1444687193104486
  0.1152840108385267  0.3205728714540702  0.1800863658142874
  0.2382813335101324  0.2652660736629778  0.9611454592857633
  0.0237155387666668  0.3922716519597024  0.0567412771978377
  0.2688754791676221  0.2893435272773157  0.2410668229583934
  0.1174622683409356  0.3360863330095503  0.1172514761199508
  0.3375308122955614  0.4453351656949035  0.4318511099719176
  0.1795519478490387  0.4427821942978613  0.2713514400438335
  0.3683074777727984  0.2111808219696066  0.3532290515113469
  0.3198888018294356  0.2730310069316911  0.4367664733444068
  0.1890594928068494  0.0490699744338714  0.4080602260140652
  0.8685256002844837  0.5094136960454834  0.3714142186348293
  0.9677064576993440  0.4628937686970284  0.3663349410835287
  0.8365490097226262  0.7361394798039024  0.2263312958207332
  1.0154448480686724  0.0096223043929156  0.7010515946239108
  0.8788122491868675  0.5803060908717933  0.0602756864856033
  0.0655879385126154  0.0498460194066933  0.7815878048586158
  0.8603278639412195  0.9648268532197044  0.4519583691005888
  0.9113851736677180  0.9487546274592280  0.4192086700987482
  0.9477099734011771  0.7956296795652008  0.4808360992209085
  0.1780501712871947  0.8683176337746945  0.5965214231103868
  0.1608177705023486  0.2896253553907316  0.8783461459398073
  0.9159951399332488  0.3761337606549311  0.0793673806375286
  0.8618547483515956  0.4301391358694172  0.2212790657541314
  0.1194400339238539  0.9520302071533322  0.4951445217465736
  0.9598150858639757  0.3682527479456200  0.2804149383022921
  0.0956081281969357  0.1438485419639531  0.8294756940838238
  0.2279085346002267  0.9469236193823366  0.5359401391894777
  0.8494917387176540  0.3228631157591910  0.1977499581874297
  0.7994651051889292  0.3390443598756511  0.2302908406991025
  0.1444496593646276  0.1491875203453889  0.7893004127709461
  0.8658584084696345  0.8954213737875868 -0.0047216242084211
  0.1888741260189261  0.0205428460710005  0.6223509286080549
  0.9505073978210459  0.2752820830355371  0.1958216614645233
  0.6573675447906756  0.9839294641611047  1.0046802298092168
  0.9497754004249931  0.2610133163209266  0.2549593898789468
  0.1414169437241019  0.8540392721063244  0.6982219767891236
  0.0465390134936787  0.7194989724057277  0.3641980444067086
  0.1118692897519067  0.2178996960545222  0.7100966893175507
  0.7201407154410314  0.5981160974889365  0.2833152982863572
  0.1655645940096249  0.0934629394466760  0.8069069280945993
  0.1366973934799601  0.0308254008599863  0.8677428855852767
  0.9237635577797275  0.9687611714405705  0.6545962195490125
  0.1279377560229627  0.7161663775361177  0.6098369419318425
  0.1266187856384977  1.0086695521908084  0.4792196239356447
  0.0037158358746329  0.7614791185066380  0.6640762638944790
  0.3437933056172248  0.4207645819171077  0.0399868779393698
  0.2670183002381410  0.3207952220521359  0.9631691403087846
  0.0901033544310798  0.8166465172783756  0.6317310071026698
  0.2707470044252571  0.2900150061243571  0.8587316326238967
  0.2326726732512888  0.2376867869107469  0.8547299436274359
  0.8601513802491365  0.6159983168996072  0.9241367461337485
  0.4308586343963221  0.9409670740898559  0.2037367136647064
  0.1611861761625176  0.2569427142348796  0.7740698946185848
  0.2711062476917892  0.2566775476685435  0.7550958811927332
  0.4809972014153843  0.9063135646629600  0.2274863586262381
  0.0736142298715325  0.2002597376074619  0.8109746975097941
  0.5823238514054249  0.8427898925990460  0.2791233344182198
  0.2293983927772364  0.1735984601930848  0.6461153546432364
  0.8360281619541765  0.7196228011071053  0.0607172205653677
  0.5756787061800336  0.9583167678552811  0.8729330421693366
  0.3814823421745536  0.3804838738331344  0.3610226523976647
  0.7338701228861431  0.7809332936351734  0.2339527772884241
  0.1507305679978378  0.6912236163033362  0.5208468207704906
  0.3960049683782121  0.9684226566561884  0.0931983016101315
  0.2930146772837621  0.6211221843711719  0.7890173205366466
  0.4422465911364528  0.8902213381928263  0.0711973908051988
  0.3268988703286219  0.5671618664372342  0.7779690327804322
  0.3408038370806773  0.9404926485249236  0.7478267289267942
  0.2806086231236555  0.5279886623748842  0.7112744364108587
  0.4225304087672278  0.8474890474561140  0.1155247446961860
  0.5198147134365816  0.7542039236856708  0.0605833004553046
  0.4128416895884435  0.7568278307723040  0.0263008322207490
  0.7252323130290645  0.6559197315037981  0.0391019396053155
  0.1683036678592674  0.3435189748020445  0.5951904511935552
  0.3039680245218419  0.9238181233845345  0.8528197230492265
  0.9764764992063881  0.4703142203223035  0.0724645721340973
  0.3428929234213922  0.9732382311466898  0.8543482562284611
  0.3422211160146661  0.9626684496873231  0.9538563505993308
  0.3377518073423520  0.8927643821940782  0.0414947819918294
  0.7978824072291316  0.8875820335302776  0.3997079642345331
  0.4298261670419897  0.0097056732459642  0.9174257615565022
  0.8459568557927741  0.8592711573004659  0.1941028763070216
  0.7904592327494879  0.7407774374095215  0.4965107023088219
  0.7838906109919864  0.7213834354356932  0.3835853403408884
  0.5291491811923383  0.8627213088766456  0.0877376193150776
  0.5468545979672441  0.8956702521995245  0.9319305481486663
  0.3698642829820278  0.6875845481374925  0.6966777958053932
  0.8444628643363834  0.7985663184772481  0.4416791058290589
  0.0021786312712016  0.7088829578429215  0.5149230493248493
  0.0786845291292894  0.7088745553995672  0.6486681893426481
  0.9276109217392972  0.5338643697800866  0.1511167257541791
  0.4416334614149484  0.7002990155265707  0.8834817028786843
  0.8805570792479283  0.6116649769463244  0.1667452488925101
  0.1267545112922688  0.7459284627305564  0.7116973781738363
  0.9229999648299938  0.5706459059119707  0.4846991834208505
  0.3021590174693922  0.6063639594342161  0.8495121903092475
  0.3311878116459979  0.6693454910370868  0.7957485459967575
  0.9765032684295460  0.5554383989305596  0.4514775097870809
  0.9714161121926921  0.6779833823302666  0.6049813475306890
  0.8342477873945184  0.7036470490030229  0.1199805010059181
  0.2811477529085874  0.6495198878470861  0.6440737885205965
  0.9664738482596134  0.4990414976265882  0.4764919152760444
  0.3388863428029794  0.6403466309080298  0.6807676866402476
  0.2405726945437851  0.6130200722955618  0.5714075625784923
  0.7482261844973368  0.9024807162957980  0.4331210384001808
  0.1391277278976210  0.5862151791975349  0.4942372684967982
  0.2632357574836726  0.8745975767114774  0.8484624677089719
  0.4975319922484221  0.9370337288854186  0.0204892172346477
  0.7531325409784400  0.6564027597364611  0.4910150027176893
  0.9127412656283678  0.4326637315216941  0.3573876920034312
  0.4219818249528228  0.2417314559494170  0.3621043825939479
  0.4893426939186248  0.5449593439904968  0.6156978357272342
  0.5950662019257166  0.9017851385770543  0.8900373458715080
  0.6686106302998379  0.2006942805148902  0.6761561426813756
  0.2597821205233176  0.7511849423714633  0.3132435159103820
  0.6080955669489398  0.2099348432241346  0.6528418656339864
  0.6165273426850361  0.1658962249927950  0.6054677262633305
  0.2138839704291896  0.8094256253097220  0.3948572527272211
  0.5533468277817108  0.1051847720891832  0.4745674960943211
  0.5498412017066995  0.1527760868213508  0.5299806278803920
  0.6835163410083015  0.2165778317779710  0.4619971191343050
  0.8818428267871723  0.6563837259884523  0.6140208305998957
  0.1716258329702284  0.9361680137221285  0.4582486054364737
  0.2167418449901342  0.8577011626733895  0.4412920850973803
  0.8227157670071767  0.6653256984304555  0.5940920541534016
  0.8429966905837714  0.5013724223238809  0.6757061884417241
  0.8909770977883612  0.5409628308491718  0.7407429873967520
  0.9456469931179894  0.8319717348768099  0.5245103990737828
  0.8316675136687686  0.5477039831917780  0.7182496180661864
  0.8414919551094618  0.2063378509625352  0.4593972898220085
  0.7364708169105778  0.3427834033937858  0.7304822564218293
  0.6649227763224833  0.3959458679236243  0.7521608196194197
  0.6370878243075805  0.3024312408585795  0.7053614223309680
  0.8826280114759315  0.1291865426363990  0.4470172496732077
  0.8831485529805043  0.4207053997980556  0.8200488046902523
  0.5869781423176897  0.2666053822047905  0.6385017189002161
  0.9276184382515408  0.1111598203552685  0.4840860776663581
  0.6849912395059490  0.2490486366077339  0.3361905660470750
  0.6364459123455001  0.2704341793547154  0.5996050781289890
  0.5364475489919417  0.2314684076995289  0.5738529798581286
  0.5571209740978632  0.5213516778122979  0.4223291522068531
  0.8316329076017829  0.5525360483613472  0.9838421827069201
  0.6557550889688334  0.4566550770629999  0.4774834434379362
  0.9493078202504882  0.5627196468432296  0.9555435009293782
  0.8581071568406203  0.5128722577969911  0.9063303660373964
  0.6910940268937229  0.3449001409743414  0.4246150371021202
  0.0506690646047293  0.4434045395033122  0.9303109729875511
  0.9063604960524141  0.3950558017482680  0.9470013463989144
  0.8171781306939585  0.3098690534888717  0.8754618587138873
  0.8421459634614455  0.4057845793382245  0.9205007842469271
  0.7570756738598495  0.3181653870671590  0.8532256097422868
  0.8344591401908928  0.3824998538205189  0.7562380007961591
  0.3925026235420789  0.4569141950603353  0.2775917750252027
  0.7414106076951791  0.1455579081781714  0.6417653914857951
  0.6460877164266670  0.2217181631233774  0.5550107431665074
  0.4405901705549835  0.4268407389441248  0.3034940278633208
  0.1299692159891086  0.4057973801544534  0.0293620721535757
  0.9806238235140863  0.4641671432937072  0.8457833653697507
  0.7690935201122865  0.2384965216193350  0.7060606360567545
  0.8441746822219132  0.2668509757568965  0.4447621710823438
  0.3617662924758779  0.6899965675678872  0.3644449629756794
  0.7741933933133982  0.3914350751066810  0.7340916454808804
  0.8441477420172935  0.2814408436681975  0.3842766237376252
  0.6746199309451753  0.1085828307287921  0.9125368589923245
  0.6649952761393240  0.1130537691127685  0.8529392951039786
  0.4952428599804783  0.4438025768694164  0.3723674828558158
  0.5610904216089329  0.0373347847578390  0.7239673493731692
  0.7247357506612345  0.2022712734521645  0.9612680320587754
  0.6643161283302862  0.0412321877480817  0.9870886788282605
  0.7059661008572713  0.0002288504627512  0.8922903147128405
  0.4043525865558956  0.5970678997605593  0.4081763820359196
  0.3955223953437604  0.4898921318105054  0.3795057678157451
  0.6478366209586937  0.0513051017464166  0.9198605569553340
  0.6426750379958653  0.1700278185536546  0.8367896270024532
  0.7017680350419777  0.1007016782178785  0.6445768009410647
  0.6224479057256678  0.1245237952564561  0.2398199478845990
  0.6560449959757364  0.0829054094621872  0.5763662322211716
  0.4370758617715409  0.9507542772778882  0.6629595018544722
  0.4918149213879540 -0.0033944518630381  0.5483331216413508
  0.6403728894284346  0.3383399340913834  0.2888925341665464
  0.7886911754457681  0.0943598250672612  0.9036497285759626
  0.6928153658438649  0.1740439665074220  0.7990146677729278
  0.7515539040501706  0.1323776051851284  0.7100419276570226
  0.6148935059163710  0.0744011373337876  0.7895952343413966
  0.7050860769436921  0.9083258826546217  0.9899875138441940
  0.2715836210786177  0.8837984570690081  0.4548276012028605
  0.3111533291994286  0.7203744571402729  0.3390904754560335
  0.2139872269780378  0.8265886821003620  0.3332458187782223
  0.7269519032402714  0.3556501868751183  0.6685037154178670
  0.4029176848274577  0.5821068996793937  0.2413100828970115
  0.6668301233741702  0.3641806349486177  0.6454580019556335
  0.3463317279567964  0.5347601073046998  0.2931362158615287
  0.7325473245929861  0.3389495201116550  0.5047067478835466
  0.3504198174769750  0.5820985602616032  0.3391091259879985
  0.7325481208407575  0.3177786932215362  0.5673361054842184
  0.8202114074070496  0.2420690680510579  0.6666209135567316
  0.9877430723908807  0.6093826384591521  0.9678626752900341
  0.6992739283402015  0.2597604863782674  0.6225328707900093
  0.8631073481130631  0.9773060272358746  0.3905988465035526
  0.6573986243058507  0.2138860048071369  0.6135546742103700
  0.0289197656806144  0.5002625505463711  0.9102301726792621
  0.6601091406553802  0.1578508067022440  0.5661827166927292
  0.3742921549839132  0.8417864592466812  0.4412637957475515
  0.5357757421891566  0.3358508259913621  0.2531078746302441
  0.9264348165816079  0.5738941544759818  0.8388871452857571
  0.9300165942235730  0.4596756339056148  0.8827440815415195
  0.2686266296877086  0.8197539146133636  0.4693938475023782
  0.4805230291476374  0.3051807643420472  0.2462398351475483
  0.3684459439724612  0.7180047814266920  0.4704402256275293
  0.1630685703981921  0.8408337454756140  0.3682213399751869
  0.2825916058642619  0.4284275884410956  0.3690860988859784
  0.2872999337661717  0.4729432580075779  0.4080893814296374
  0.3463828842689847  0.5178080606757388  0.1275344332479891
  1.0016655453966914  0.2533531290387097  0.8332402428324289
  0.7576368809708653  0.0985325765600086  0.6021668575506914
  0.9344131046636638  0.1081390110101140  0.7790137652908506
  0.2299599967633005  0.3953677783646800  0.1307640530465235
  0.8307890119803218  0.0290137235125563  0.6482297868961447
  0.5745995857085585  0.1729249000855846  0.3792723792601720
  0.6058622234872846  0.0841900943403323  0.4315747676352281
  0.3862760396884483  0.3800258445488330  0.1305392620136916
  0.1916262248160421  0.3823051977000275  0.9997938184667600
  0.5987890072699210  0.0111850809750350  0.5186400484459197
  0.6357032536253088  0.2340482307658430  0.4951772443894100
  0.9731785971324082  0.3147321655256474  0.9865014992091179
  0.8902799892940649  0.1867774016864630  0.6419513412025694
  0.3299299147486171  0.3506873494563038  0.1250980982675909
  0.1881927816012645  0.4848947154130805  0.0829628561987398
  0.0498678978147148  0.2909079952954055  0.9063260620285147
  0.4155948653354006  0.2004746016360520  0.0851108555480383
  0.8117084833451095 -0.0035568757271605  0.8783933502275276
  0.9130072085884061  0.1642408067341564  0.7630248486742682
  0.7547325844462482  0.0032537769689963  0.8538183841316952
  0.7958846230369556  0.1458166074893743  0.6100680237467340
  0.1382899375191766  0.5668123673169134  0.3288819276856812
  0.3831418974245077  0.3352170098856397  0.0893444504648139
  0.1837693907837546  0.4890893158902452  0.3118120622731966
  0.4581561352751227  0.0759774731112948  0.0223718113903217
  0.8221880581724945  0.0288193470963235  0.9895466442576740
  0.9350613304219726  0.6790772558745072  0.5094856662434784
  0.7861878192521859  0.3458892935968723  0.6911226222407884
  0.7708242553436249  0.0561996686242734  0.9628928825711651
  0.5758733271230063  0.1995749404972777  0.2555812139414168
  0.8255180414237961  0.1463452819172072  0.9034057849656502
  0.6165051467546823  0.0913026975295597  0.1331372266227764
  0.3722898459979570  0.2759703119463840  0.1075129575345671
  0.7487147048900702  0.2597345510420982  0.5846123954241381
  0.9851349512091685  0.5497076940894968  0.5116236743485452
  0.7164247214096288  0.0343293296481795  0.1927441630936973
  0.8747708902936829  0.0193979001527210  0.9544482866354012
  0.0908930743802082  0.6156385339340835  0.8509921775398481
  0.9828020381745541  0.0764105558855007  0.9791295397684335
  0.0693919453094860  0.9460301988085089  0.3566095655901083
  0.9916081245622275  0.1408590572258677  0.9658394344105845
  0.9613454011337567  0.4865351685559400  0.7247320042764329
  0.9850860576394130  0.1455758959019033  0.8451925085091266
  0.9337444382279468  0.4261316043704878  0.7808401660569495
  0.4124815862391666  0.1566699490864207  0.0412900629302819
  0.1127527419454434  0.8701917484265010  0.3406347297445267
  0.2995140736321482  0.5972518398776264  0.3732859553381052
  0.4280782718970702  0.2624430052293352  0.6960977809322563
  0.1921554398361310  0.5812370370926431  0.4012814641902527
  0.7915444208829219  0.0170460102579510  0.7485503439271043
  0.9330795137597164  0.2281279315342138  0.9235972474150012
  0.6131143946774480  0.0457902828808112  0.0863176856906272
  0.8296305675884076  0.2118283732479603  0.9447722679623971
  0.3568409499303436  0.7652996234838347  0.8450677936590685
  0.4295897513999797  0.7133953812436986  0.8209492073360968
  0.8419157512483135  0.7987263516857255  0.2105960730488066
  0.7442406682107653  0.0145863869262343  0.7868871448726636
  0.0689847367079062  0.9292424320153281  0.1839814555307196
  0.6622418115928947  0.0803516611346714  0.7487366214864585
  0.6991384601255825  0.9537259819319398  0.5721519694536581
  0.6636980420939885  0.0521555778285071  0.6413451203384131
  0.1003118570054694  0.7328674012369736  0.2076898824072669
  0.2561662833678637  0.7041698520948356  0.2673686760409117
  0.0306784473110841  0.3380553703110595  0.9514500033602973
  0.8535586815816919  0.2072986676089283  0.8465245556716003
  0.8192653988765478  0.2754571700371800  0.7702878530090597
  0.7192445116093207  0.2349568867606389  0.7454747203272744
  0.2442124175125641  0.5639782056335061  0.1372874918766716
  0.8630518480919191  0.1251334275869158  0.6956563095026469
  0.0871720613293210  0.5655050344305372  0.1963993914369132
  0.7626627325108153  0.0878188767480407  0.6661369203125783
  0.8861100262536048  0.1861441495296527  0.9683768160242417
  0.0909076948939804  0.6278474113457032  0.4082713299456475
  0.1015327901626459  0.7333539929863871  0.4364485896913265
  0.9851100039682266  0.6126185026230613  0.2045748329698025
 -0.0004873749679012  0.7976645905887324  0.3818640127048195
  0.0549816885450447  0.8089413785387360  0.4551061449140550
  0.3200112475625316  0.2749593759747999  0.2065470799697048
  0.0609077022702506  0.8722226558003230  0.4399533035697830
  0.0111159582000886  0.8897892093352575  0.4779529915830769
  0.3140549069329979  0.1958653727938965  0.2837683281959591
  0.6042458934216884  0.0395440247315050  0.3904451426098089
  0.4089677019599767  0.0869033385412234  0.2871171259711388
  0.5567595755340725  0.0691789106462464  0.3659937063938775
  0.5076003739243402  0.1297638314790696  0.4427206992228024
  0.4665011010182240  0.1469840748787684  0.4000151085689763
  0.4224572591425725  0.2252034435871531  0.4230634647213112
  0.2417792609669893  0.5508106616719516  0.4247482062174495
  0.9313002705984833  0.2923608933936217  0.9148212974109400
  0.7020102289756939  0.9613963081135626  0.2764400020945277
  0.7337185040265560  0.7330213220835811  0.4181454599464202
  0.6282389854752538  0.7195654859187660  0.4399326734547809
  0.2765759877840461  0.7298231565958636  0.5523618576617119
  0.1217685921188593  0.6131407036928039  0.5911275711101293
  0.8222295555160734  0.5855872810978275  0.3837415331665877
  0.8788160262862285  0.5978213785121064  0.2267889132059738
  0.8702956632295482  0.5556328020314736  0.4136336103553425
  0.0692251748575982  0.5176489367643549  0.8092481325756795
  0.8639379596008830  0.4443473884515108  0.6955707846574684
  0.8955572062915935  0.8127513502052531  0.2827334419090050
  0.8697121288765485  0.9847725058071611  0.0845590288071790
  0.9428693816042402  0.1823199170658783  0.1049892053109591
  0.4178258173152386  0.8023581055512908  0.0699497830985979
  0.1273926492145702  0.8115869413880420  0.9200411168729522
  0.4685780257490978  0.7522903675327676  0.1545993319687374
  0.9523736179223331  0.8733727326089143  0.1703156734612744
  0.8414128595903814  0.2277955082676706  0.1115454694619614
  0.3702750836801195  0.4841531334489326  0.9186343126392967
  0.9851708513164669  0.5926237151997725  0.0396565905029336
  0.9372730212896859  0.6584759223503958  0.1137219407039102
  0.0263452066129509  0.9426709745928971  0.9784181057505648
  0.1637958833271694  0.8282704690381125  0.8227318917381036
  0.3440432673463814  0.9664276255682529  0.1891118547900232
  0.7872621264150012  0.7807547835131161  0.1372857691650177
  0.7538244301554436  0.9254869201845118  0.0694632322161381
  0.8887743568149122  0.7347445500130750  0.1307026844422556
  0.4384684124643383  0.5666791999796019  0.7599319375770428
  0.4482687638708813  0.5529994325984149  0.8215431307981871
  0.2303970891065312  0.8443479839519974  0.9633223455753858
  0.4583936324451714  0.5410986483502032  0.8821138050524474
  0.8819393012703566  0.0912789303640269  0.1107747100497870
  0.3072165013767567  0.5087994313132199  0.5095490848874930
  0.7890685448454484  0.9500108592762040  0.8382892677602622
  0.9581307407747469  0.9197321095139653  0.2124674048853033
  0.9407623272363381  0.7190038491416839  0.0961370612847057
  0.0818079972482004  0.1212554972654948  0.6590803295962461
  0.9665686206793660  0.9635537353713040  0.2566809115477915
  0.0988197668228600  0.7196747193954762  0.0394882604051163
  0.1054782709575261  0.6990213762071962  0.9369074901847464
  0.1619383997148462  0.3519758674575905  0.5365053386469827
  0.3916089553737439  0.5284178482818435  0.6951575999449646
  0.5194364402399364  0.7367489904332449  0.1201950675553339
  0.9719238379339488  0.8592164938514381  0.9214648066086187
  0.8302305310320239  0.1338472726834834  0.0220749051304390
  0.9785055385489355  0.0012826118054603  0.0609418947597531
  0.2431501392192220  0.4470141811306207  0.6036544406533988
  0.3220000821500785  0.5496000472750480  0.6127948774784626
  0.1806015140142426  0.9255415201193459  0.9801721733443943
  0.9518737434702167  0.8584584783303576  0.2309634397946074
  0.2375168201336587  0.3257692376597744  0.6771882031220532
  0.2360417749027333  0.9681211080246110  0.9340294659239391
  0.3319133596778248  0.8758922268695013  0.0990133333803249
  0.8941788722422681  0.7954701941770179  0.1154095076907242
  0.2796838415954290  0.8737205598078258  0.9733656278195624
  0.9312589062830927  0.0768751077889212  0.0768162787850939
  0.3505451902096883  0.6387515257944204  0.5644806758936370
  0.8868156012581109  0.1532098914111060  0.0937572374564525
  0.1424317454867778  0.9179507904324326  0.9150094413288939
  0.4217522298455076  0.8306611849186594  0.1749411543434797
  0.1826078424612470  0.3837173491498481  0.9339124420198511
  0.8738427778011117  0.5173159090818499  0.0785809911948669
  0.8160611060415510  0.4373771024177454  0.0217985523410354
  0.8684227635595844  0.4568328989283669  0.0958748775246789
  0.1486194092107809  0.3028717202088319  0.8204746315652915
  0.7811215018605683  0.7078544020187404  0.9861419416636964
 -0.0061775862474029  0.2492846285177740  0.9941066853062304
  0.3964503730168658  0.9730429490436525  0.5843259775902878
  0.9732115366484850  0.1232854987889033  0.6763971235337649
  0.8639352386048308  0.3603523212357008  0.0052354495199118
  0.8139668377755775  0.3271569113564062 -0.0073542279680987
  0.5762537545776391  0.8468230976563113  0.0498263354964445
  0.7241621280708513  0.7810099148030095  0.0042419055174777
 -0.0113694935927051  0.1224138336400963  0.0226427910226078
  0.0855235944016582  0.3417512806504338  0.9052062152904478
  0.6585572633126273  0.8733765448383065  0.9718849315012813
  0.4462193802139428  0.9362306060726728  0.1174149573218252
  0.2195194957286715  0.4335988901127976  0.9310575432580819
  0.1619268072971604  0.4437313688829580  0.9129222538534354
  0.1016100894473499  0.4494838361028665  0.8904526706856837
  0.8198814117907313  0.5199166902057593  0.1733311304452559
  0.1372597498918177  0.0739577134828680  0.9151761939032267
  0.1347226359898221  0.2304683025972836  0.9356320524596533
  0.2786418542690353  0.4294993294521898  0.9538064734762743
  0.5001886777904547  0.5256189286176947  1.0057632153445581
  0.1295956720953856  0.3841181328869978  0.9720082772272491
  0.7572424395170878  0.9611706336168314  0.1789506958473656
  0.9731896178462378  0.9658093402777979  0.9559689671983056
  0.0679047004375102  0.3022038856808086  0.5697201606172213
  0.5383201038637585  0.7103962709909292  0.7996187420800466
  0.8986114466620583  0.8572610181259750  0.0988288218686109
  0.5017661113839337  0.6612179171478239  0.7990443097649762
  0.9374829158940261  0.8069926938692121  1.0122230584819203
  0.0767849540110946  0.7717944040229671  0.8557209924851842
  0.1264636468623255  0.7793140253730800  0.8165240137404816
  0.4416908070791559  0.6676928019989036  0.7789556080054236
  0.1170742800906764  0.3010593365705441  0.5289523834497383
  0.2762904126027222  0.3760013673393569  0.6812454705282229