Cr H  Ni
 1.0000000000000000
    38.7642358654787174    0.0000000000000000    0.0000000000000000
     0.0000000000000000   38.7642358654787174    0.0000000000000000
     0.0000000000000000    0.0000000000000000   38.7642358654787174
 Cr  H   Ni 
 1596 213 3725
Direct
 -0.0032675867389986  0.8243558073184911  0.0380569291536920
  0.4091014692385584  0.0853845630794949  0.2875545652994121
  0.5559559293393755  0.0688312557713752  0.3643588767374044
  0.5065551334527061  0.1299204395943635  0.4418366985471013
  0.4660463536299130  0.1475169682234750  0.3999012916583288
  0.4228036072343192  0.2246894542543928  0.4230245708692556
  0.2412426712830380  0.5499752186573131  0.4260737031577169
  0.9324240660318545  0.2919377317189966  0.9150958804348795
  0.6546492167264000  0.9932215379441268  0.2508516336393098
  0.7326580057968597  0.7327597864237679  0.4187795740021100
  0.3208115053909908  0.6816572645845708  0.7342992699682869
  0.6786290530543205  0.7039238283034183  0.4084861256645113
  0.2758841773809925  0.7310721598190630  0.5510584381199435
  0.1188855686667039  0.6142634685543374  0.5915671112741906
  0.8224215458758042  0.5854121487521732  0.3827056055292963
  0.8784969421798109  0.5975337091288018  0.2267267155773168
  0.9848321029279717  0.6123852277670059  0.2047592153338397
  0.8697454401567047  0.5550510874755471  0.4124513938473249
  0.8681573174793367  0.5090883803205135  0.3706179878487448
  0.9671131999744231  0.4627980238678460  0.3668803614980942
  0.5470034938884030  0.8953994501975395  0.9316286430431238
  0.3150338706647358  0.6733206993387790  0.5235141127653478
  0.4893756863131111  0.5448830143677441  0.6156806807519092
  0.5956855228562781  0.9016041778710557  0.8897769568160163
  0.4661183464204226  0.7630281974879584  0.8238086376510372
  0.5320308905844015  0.8743985202218405  0.7641225912915947
  0.1969702386566431  0.7602580180992143  0.9003240271735575
  0.4573959473612411  0.8080517606842739  0.8678644281711977
  0.2893296454572422  0.8084952565011942  0.9303645410729406
  0.4320724613413051  0.8317423227399179  0.7431622709471551
  0.4923871314268247  0.8253131085389543  0.7630509959285973
  0.7894699338748895  0.8107618921304970  0.2442979061300676
  0.2569170049321701  0.7487489623013166  0.9188288034219468
  0.3330107588733545  0.7086946624616154  0.5716832050038242
  0.2782209190932742  0.8165733395281608  0.9953227345868525
  0.0390482148906629  0.5521097024725871  0.6252021481018563
  0.3753498879706920  0.7114916555880628  0.6373813763705972
  0.3100809857796564  0.6935515760690819  0.6715445220312372
  0.0075844809414831  0.6442757337916617  0.7118479233866749
  0.9408089551957658  0.5469249669403410  0.7037658740730874
  0.0943003792418669  0.5806007429081530  0.7512067502882643
  0.2474789975466047  0.7662737411487891  0.8622230088876993
  0.1958665350502154  0.7288208958074159  0.7957829951034862
  0.8332898856521220  0.6918121486246567  0.4100733979748580
  0.6035502203105636  0.8913724555879098  0.9531710301027440
  0.4458558880339789  0.9714337433426846  0.9911643160063784
  0.9126682840345541  0.4330244799036203  0.3574315691866981
  0.4717970188884974  0.2105414453286467  0.3871292719681051
  0.0829907320654575  0.0191883278519482  0.2717454389544551
  0.2302807576537567  0.3950908771535207  0.1309765109887871
  0.3869006836951656  0.3798547821740969  0.1310161514806802
  0.5977574102789454  0.0106042309455256  0.5185401502615212
  0.9757488039404314  0.3142975331911390  0.9816405697153220
  0.3301650184271882  0.3502555962222836  0.1256861850126386
  0.0501101101405589  0.2904951454983121  0.9062924443071884
  0.8118681664328375 -0.0036776141691384  0.8759192475195966
  0.7544220991879330  0.0039686274869753  0.8524285012857525
  0.3827421254847566  0.3349488982450700  0.0907785697009398
  0.8226836257934057  0.0278849947424553  0.9917487491493957
  0.7864834667530355  0.3464694132071338  0.6908483751376265
  0.5761560221728130  0.1991052282584679  0.2557439535672350
  0.6167910009664813  0.0774023611325844  0.1954246151174710
  0.7491799119388314  0.2609764830791489  0.5837824898524474
  0.7162725834600214  0.0341597459422304  0.1921616325678682
  0.0897834156321025  0.6174122048734689  0.8508171049685361
  0.0691605292624544  0.9459817002601584  0.3568870918759232
  0.9614113527609208  0.4873522573875799  0.7240771949519575
  0.9338116236091326  0.4267533859030577  0.7802687769285981
  0.1121578284520880  0.8699211668877375  0.3410853822154910
  0.8641687058404746  0.4452415420815968  0.6949100207315790
  0.8064448034746915  0.4533829003332198  0.6769973268889469
  0.5742773377537037  0.1724542023751817  0.3793427784473339
  0.7913866714322869  0.0178691388164591  0.7477997912068395
  0.8862388095622500  0.1861730156160010  0.9688944078259755
  0.2932471493178682  0.4862628324033395  0.1191910605794606
  0.9312141837701147  0.2277419221604281  0.9238799764218500
  0.6133272678674606  0.0455616430780052  0.0861446840576581
  0.8290565846399843  0.2119272696090587  0.9452779603960701
  0.3569720950351661  0.7654596231166478  0.8455914358706046
  0.4290749493511952  0.7139587063916143  0.8215744804003861
  0.8413496329714926  0.7985436636384429  0.2108001191508454
  0.7443617697587713  0.0150393314783907  0.7865076479954900
  0.0684027698248856  0.9294730148939169  0.1837718598585127
  0.6627170482668010  0.0808803174679953  0.7478150141853211
  0.6980542806980934  0.9531578927534436  0.5723848318735197
  0.6639700013050044  0.0522188953908158  0.6411546900356569
  0.1000669240829181  0.7328789174797086  0.2085711787751341
  0.2557288952972325  0.7043999399294462  0.2690495344120998
  0.9859982653492313  0.2760483777214849  0.9380389936756969
  0.8536588393785849  0.2074231741946279  0.8466761482784212
  0.8195922920866459  0.2759072927187446  0.7701045266516037
  0.7193976281542485  0.2359796005265231  0.7450889209794772
  0.2442347512750063  0.5648180674535768  0.1371131513829062
  0.8633106515459558  0.1260725849710347  0.6954950856257944
  0.0869339982878257  0.5652743255398939  0.1963723666286275
  0.7628312226081565  0.0882771780696753  0.6654935469817650
  0.7567820934591196  0.0993986795486904  0.6015570687072743
  0.0457070030149814  0.7174680734035178  0.1379985860634983
  0.9358376222248904  0.3901374763556046  0.6753101416676193
  0.8361682548478325  0.7361127031244264  0.2264321556960658
  1.0240443622910147  0.0109213385857990  0.6954573093149836
  0.8787631534665659  0.5802306387811427  0.0601342007144530
  0.0659499826228337  0.0501573598714489  0.7809689494660849
  0.8593703492839982  0.9646490809779275  0.4525136688992572
  0.9104990923294619  0.9479143974727355  0.4199135087065597
  0.9478683886906533  0.7957093246082830  0.4806816176323976
  0.1793833527389523  0.8699791993351979  0.5974189810835119
  0.1611513472979827  0.2902636359275638  0.8796786482771307
  0.9178591616997086  0.3742579036722458  0.0778510071522580
  0.8617968860924894  0.4297993888820537  0.2213274304040680
  0.1187830089988802  0.9517904769531588  0.4950647100116126
  0.9596992767593086  0.3679381707922218  0.2810038563565826
  0.0963652346577156  0.1438888030178549  0.8299037942466069
  0.2289702476484486  0.9485944167741808  0.5374309845603036
  0.8499944711850690  0.3225885264110929  0.1985388947973833
  0.7995277703122667  0.3388399016873265  0.2309602936223859
  0.1451368783823950  0.1494829287126635  0.7896555458792287
  0.8653993733673522  0.8955116246607709 -0.0082821687032814
  0.1897222278030032  0.0207697236229528  0.6220041565362127
  0.9507182095216447  0.2747149465461072  0.1961603576970396
  0.6574498848775310  0.9842220993245685  1.0043908556469912
  0.9498217208956037  0.2604586948921596  0.2554224527694312
  0.5749428332433996  0.9580092377494509  0.8725928899956096
  0.7770378056503606  0.3590599461452765  0.6284713858682319
  0.1121754800271234  0.2183003202269954  0.7103282243866177
  0.7197069766170763  0.5979130613361098  0.2833786043970957
  0.1656220655728097  0.0937210389977230  0.8074715643606309
  0.0760887947104804  0.0378090915846592  0.8466637764757393
  0.9531071157804650  0.0162212276213888  0.6915004385588616
  0.1156003300919669  0.7601803563224816  0.6501747663378635
  0.1270467361516031  1.0080232629400350  0.4782413903343405
  0.0040729030347778  0.7623660719449750  0.6641826657977483
  0.3444436203072366  0.4207912288642999  0.0405667115822556
  0.2679047287909868  0.3198803177725670  0.9639646628625047
  0.0913084615163094  0.8177126655857230  0.6321690140230207
  0.2709782536002660  0.2885760798908465  0.8592798685483499
  0.2326915934969568  0.2377584843969532  0.8553072972548948
  0.8594096871758976  0.6154068833180061  0.9240216078378897
  0.4311600563725542  0.9400928699847503  0.2038537955150611
  0.1614852063366897  0.2568705839115585  0.7745878997706880
  0.3084219945650692  0.3071368119593296  0.7605283998784265
  0.4807716458201834  0.9064132714397508  0.2278651255453849
  0.0737682667623459  0.2007159977080056  0.8109903697206050
  0.5821562029355630  0.8426120176289948  0.2786292450983041
  0.2296646631244821  0.1735591115761524  0.6462328804553116
  0.8355853155213154  0.7200358849082208  0.0606220886679679
  0.1416188393965100  0.8547001600384327  0.6983924817488190
  0.8675265534097395  0.4091753312860911  0.5897995095340508
  0.7334990276253472  0.7806026980500177  0.2340883312164028
  0.3797255546701566  0.6750001401883201  0.7578413500830513
  0.3962429922602016  0.9687734202283576  0.0918995344061546
  0.2413757731139931  0.6136058318856485  0.8274453711154731
  0.4422330112944056  0.8909820965154676  0.0716685830374795
  0.3272350772131432  0.5660931816540777  0.7773946779903581
  0.3410200995394603  0.9405017762065851  0.7477264210826654
  0.2805024260618276  0.5284266836281901  0.7123151808100846
  0.4224430408928800  0.8478745844449566  0.1156005385091755
  0.5195493344815622  0.7540391555852638  0.0602749594575992
  0.4129620823665339  0.7570734677921778  0.0262234326398234
  0.7249109604381397  0.6559607204171094  0.0389887519383096
  0.1473176304673743  0.4024185178474525  0.5729199468896748
  0.3040586318590172  0.9238729162494890  0.8525306480526668
  0.9769911274359403  0.4691396227428843  0.0722472151660552
  0.3429484476823665  0.9734342603412099  0.8546208185202065
  0.3418444111562053  0.9634585654108646  0.9537836117163244
  0.3375098167712997  0.8932493219941152  0.0413575092633923
  0.8028057206931049  0.9329096063084249  0.4445292968842623
  0.4304529659595224  0.0106871577323162  0.9168600376593812
  0.8464960330977070  0.8589886333463385  0.1948548446739191
  0.7896470792644933  0.7416357996680112  0.4963166623597277
  0.7834077652985766  0.7208356821218453  0.3839895537391366
  0.5294203656915437  0.8630005365512536  0.0878938527141549
  0.1975063945657919  0.6414531954082862  0.1553208679297447
  0.1517563827719059  0.6889339320646194  0.5235010095680570
  0.8441511020022119  0.7975938214982040  0.4423425291246758
  0.0047105496381230  0.7090801525825415  0.5123452824820305
  0.0781305995957954  0.7077756369775593  0.6476280284807470
  0.9278708786822151  0.5334835314058083  0.1505165450463385
  0.4412479416708365  0.7006105861048491  0.8839991670119287
  0.8803838594283502  0.6116785391754820  0.1665551600364959
  0.1266016094096061  0.7467077676064638  0.7112981690603307
  0.9226866680943722  0.5708852999926383  0.4859233525709207
  0.3028189914596242  0.6065164992697247  0.8521110219524578
  0.3304347010323320  0.6692868640100104  0.7947748607299991
  0.9746255588923856  0.5551078720536358  0.4519380106194317
  0.9691237877193011  0.6828839091851819  0.6054242359512381
  0.8339852125128818  0.7037903258242473  0.1199393672937724
  0.2817761787054144  0.6501442108268990  0.6421356033805183
  0.9667680398943239  0.5000290289513047  0.4780452800304078
  0.3383165781116366  0.6407096731670422  0.6797369070103184
  0.2393166013057960  0.6143110742347707  0.5742584690734477
  0.7476183001844714  0.9030169792336579  0.4333221717823422
  0.1478524085800964  0.5245413322083348  0.5079545263215262
  0.2633415263682809  0.8745510410095565  0.8484104035662504
  0.4972777924411682  0.9367490482252361  0.0201722679424749
  0.7517239246532970  0.6574429927134837  0.4901352127388322
  0.9383681924372783  0.3550745019849940  0.5698980945043646
  0.8413674337150029  0.3110567967801738  0.5481943659504505
  0.8457464827145160  0.2507146003496307  0.5060309684129271
  0.6276252870367084  0.1986253572749791  0.1589299906572648
  0.8580798447829074  0.5131532991535809  0.9054583348904974
  0.6912465966236768  0.3439210750713803  0.4248742624605731
  0.0498169042930909  0.4430714113375978  0.9292766872145698
  0.9057517269116510  0.3945020290049104  0.9460972822115216
  0.8177693571535889  0.3099173521237651  0.8753925211950896
  0.8418620241491138  0.4059009047897261  0.9211487407569383
  0.7573562368372561  0.3185995995191434  0.8530634025302212
  0.8347747888487412  0.3830705832620567  0.7556999046181624
  0.3923051414003572  0.4567879248081141  0.2778510052650308
  0.7420975842753248  0.1444109271554315  0.6426361280853147
  0.6472346503835629  0.2220985687498880  0.5554885322544142
  0.4406533702491646  0.4266535062648419  0.3038444814183333
  0.1304793400079645  0.4061572486966073  0.0301776169725559
  0.9803680594428846  0.4646526829982429  0.8452099222121148
  0.7695559262701245  0.2389936833102296  0.7055536901163814
  0.6848525390447516  0.2486424595208050  0.3363510533595507
  0.8445216960048162  0.2666406992556644  0.4449278347791276
  0.7744708088711701  0.3919155814012911  0.7335471879058111
  0.8443422063633033  0.2810931719841305  0.3844811216576060
  0.7271674207344112  0.3560748030590852  0.6681692338691255
  0.6669594286147118  0.3646019795617644  0.6452043804276849
  0.9486768942770022  0.5624348155460597  0.9558951726742908
  0.7326626695247991  0.3410936102973721  0.5036147415345102
  0.7328124603963629  0.3192848004056893  0.5670363833796805
  0.8912812283093899  0.5418255291007924  0.7399273232243815
  0.9874357655325504  0.6081669203096847  0.9689454202831416
  0.8623991063354473  0.9768903107710027  0.3924160991359177
  0.0283557662698153  0.5009153785394480  0.9097380303016006
  0.3739342289173258  0.8411161445769345  0.4414941689340606
  0.9266869754841732  0.5750268648623271  0.8387133125057105
  0.2682971414072080  0.8202864112441911  0.4695411356077601
  0.3684016769001532  0.7168339731907848  0.4708869418338900
  0.8832191373937041  0.4211897550983612  0.8193868200548471
  0.6688810413327145  0.2012201993398837  0.6761032302670267
  0.2590752083780913  0.7505842484161219  0.3133412638251054
  0.6076211341812331  0.2104692703311261  0.6526960459979145
  0.6181280654030736  0.1661320885162608  0.6035768898897824
  0.2134106580125232  0.8097543091488216  0.3943476050637298
  0.6051383878598483  0.0754064409320192  0.5007461302400277
  0.5506220604863408  0.1510443648538922  0.5301882984996175
  0.6838431380275523  0.2151653082681873  0.4622253146030708
  0.8825403948622645  0.6580838696824782  0.6137403901688815
  0.1711980517526220  0.9359940335816571  0.4590883551579730
  0.2160748803488754  0.8581233954807507  0.4416627451182189
  0.8228783057635943  0.6661952155977180  0.5935877242367622
  0.8431987408843163  0.5023570777947468  0.6747240177590851
  0.9459377583175895  0.8329578886251625  0.5246944960577469
  0.2710978514843199  0.8839693365429625  0.4552819296250251
  0.8318568363352944  0.5484929365078858  0.7172225102021657
  0.8420898136328889  0.2058960071028567  0.4592798240779501
  0.6469441600515773  0.0511752063353457  0.9191219737370588
  0.6739141730954761  0.1083309604554328  0.9129708554023991
  0.6643200872766206  0.1131614370428657  0.8529997369238986
  0.4948290434144156  0.4432721227383947  0.3725747061986558
  0.5627876858591783  0.0373868614346348  0.7236683052240557
  0.7241359401623176  0.2019812154202014  0.9611893030089198
  0.6644189996573596  0.0414034098988843  0.9868677807802714
  0.7058181066782787  0.0001032383929810  0.8923282726801117
  0.4042458149594253  0.5968239912872670  0.4083841058607812
  0.3953163154462788  0.4898269887968572  0.3798643554260313
  0.6425750293166301  0.1702998398432501  0.8369109915375925
  0.6028116444024864  0.0883811451169485  0.7278838463117391
  0.7012406910823772  0.1005080555865218  0.6437808600484489
  0.6224202983443370  0.1241743490645380  0.2395774507136698
  0.6551895852969334  0.0813677627273941  0.5760868526377394
  0.4387789588087286  0.9505443392123025  0.6623049382910244
  0.4916094365865646 -0.0051188197743365  0.5460643637282372
  0.6402419259964801  0.3379698250810553  0.2891178212681821
  0.7897593053623515  0.0930769518944356  0.9048053237550112
  0.6925532431350256  0.1740651364158688  0.7985852601359751
  0.7630102516436681  0.1203669578553195  0.7734651032845354
  0.7057301665471861  0.9078952488864136  0.9895733496240032
  0.3105074214769123  0.7200433452775569  0.3392047803429520
  0.1621087016866499  0.8405976357990295  0.3688837508794890
  0.4024526346815631  0.5812100219952072  0.2414908881633717
  0.7367896217548651  0.3432472974182740  0.7301054697700133
  0.3460856855989627  0.5345115364185160  0.2932404034361991
  0.6651447803215568  0.3963407002401154  0.7519594074838923
  0.3500669852951352  0.5817596074277316  0.3389934924165121
  0.6373100699095764  0.3029609696311979  0.7051255683381941
  0.8203342500101815  0.2429084386560277  0.6664404706964557
  0.8818136005431598  0.1291798443479169  0.4476796981950876
  0.6988912607569457  0.2595542455775166  0.6222131246985841
  0.5872639377227966  0.2668025074634203  0.6380877218048759
  0.6564617220388425  0.2136278591172978  0.6153618166725536
  0.9250805683320363  0.1108881220787811  0.4851581208574207
  0.6632504568886969  0.1596468852880904  0.5647931936765309
  0.6372892890459780  0.2702136065040667  0.5995322919730758
  0.5361074453574132  0.3362738698309981  0.2534236289338192
  0.5364664128530018  0.2321813058802883  0.5736224204578180
  0.9295952728011884  0.4600015286792117  0.8823735822808265
  0.5565752910737846  0.5211054618974220  0.4222478676980184
  0.4799853789091262  0.3046375584357318  0.2456926013733192
  0.8312582262552909  0.5525025502287897  0.9836987314411656
  0.2135531086102951  0.8262457450518819  0.3331897638385728
  0.6552878678260827  0.4565977662176304  0.4775680469867896
  0.3613949218667933  0.6894055550890524  0.3646882336067624
  0.2098932985680199  0.7811301704554536  0.2870294876793860
  0.2519613311190388  0.6585811331496255  0.2261566596445122
  0.6014856741324324  0.4443051825192463  0.4066681654606669
  0.9342300715395594  0.1087225963043393  0.7795875828025898
  0.5905175580373760  0.3831670108579899  0.4281726424643417
  0.8317379797283682  0.0311747324072352  0.6477766929711818
  0.6339111652025448  0.2633941688874555  0.3707926550146092
  0.6569656021470143  0.0583385039101407  0.4649309026150818
  0.8949490788502336  0.6441062831199942  0.7570428490287677
  0.1917693273885217  0.3817011564846843  1.0000087938533895
  0.9196855077610055  0.7091949158137424  0.6979773234233955
  0.6353546055125443  0.2326660481499155  0.4954885480019789
  0.8834626674835160  0.6140092657104395  0.5753852816387173
  0.8911858167817523  0.1875575447522753  0.6424163445754235
  0.8187994321248017  0.0527378923478706  0.3993281610249970
  0.1886073074462079  0.4849605274697034  0.0832748822150540
  0.6733530108135717  0.1268545744351127  0.3746923448345041
  0.4159169398776423  0.2002310298294628  0.0861674708013160
  0.0233881277473926  0.1622031592524732  0.7444634681725149
  0.9135539349854594  0.1646245189122073  0.7631789637197701
  0.8830725316960296  0.0700571286893594  0.7131048281544921
  0.7940095449056853  0.1483924982728766  0.6075480589100564
  0.2944904451122353  0.5367187833220364  0.9372581200545014
  1.0016188584064196  0.2536036456294031  0.8327601726264106
  0.4066153073765878  0.6278528864113865  0.2850786153876766
  0.1942786643691750  0.5035668231363319  0.0244069138073885
  0.8591429907787248  0.4181544152474732  0.5247228518724367
  0.9340554954637510  0.6764891125110664  0.5088018339901299
  0.9527516961756014  0.2145963260866009  0.7678294794587440
  0.7714054525704710  0.0562449957831872  0.9629514641467445
  0.7716166943840088  0.1205709933070235  0.4760528281282194
  0.8250793812500533  0.1466422511155443  0.9034062198288921
  0.7030717197900572  0.0128093414578175  0.5519565139262035
  0.3724293257973020  0.2754417275550523  0.1084589101023137
  0.0903100999068553  0.5945621920066145  0.0757664591250552
  0.9859219053925966  0.5527615154372478  0.5130497506589733
  0.9068459345110590  0.4563115242187528  0.5935856958408180
  0.8701597972106664 -0.0453957322049053  0.9787379036842150
  0.4665503251918098  0.1847517572508767  0.0550999368779925
  0.9827983865745840  0.0770529975633334  0.9790605448183430
  0.5130014148860583  0.1064437698607082  0.0316232309131450
  0.9373011121926763  0.1702764789464914  0.9369167793187705
  0.4345742448036751  0.3512553351931507  0.1591654567437299
  0.9859547666186380  0.1456079053767493  0.8458064361944052
  0.4767339551570943  0.2585901123854792  0.2041485378327069
  0.4122463205669616  0.1560377231162495  0.0421566876490474
  0.6960302519068110  0.9440747488218937  0.9152258072796393
  0.4580025630767468  0.0758090212844387  0.0226145348909064
  0.8679048115488326  0.3134349982680191  0.8358788470855396
  0.9705122862442186  0.5933820736059499  0.7358011730303207
  0.9339641753823915  0.5575323248800349  0.6387232261712043
  0.9411550299863817  0.1680585478850946  0.1658953010407384
  0.4354551906551584  0.8647401574049365  0.8487465035666290
  0.4443187910754012  0.9080558158435734  0.0124383152240721
  0.2089892770829755  0.5494254483613376  0.6306089302355260
  0.9905702960573650  0.5874625709012776  0.6195090933992342
  0.3881796351116150  0.4118986585976974  0.2368008298160645
  0.9371911869789914  0.5658399408588632  0.5844109022647072
  0.7020148505089396  0.1169487889457755  0.5809394417568855
  0.4829751349174805  0.4066576312029677  0.5045940501468603
  0.7222850908559105  0.5535197658276960  0.7404202193427022
  0.7561150732258174  0.4160479862084467  0.6099072497368022
  0.6569624980615428  0.3761926496111829  0.5787377983815104
  0.6878884057272887  0.4421826097556906  0.5248069586572124
  0.7500054098990203  0.4308063314890560  0.5514207896590004
  0.6420752366436949  0.4052731749644086  0.5099438839315243
  0.9933541767354012  0.8372930749526474  0.8171262840511334
  0.9458982398710678  0.6695201247760056  0.8819330969936414
  0.4678207513265105  0.6731074069304730  0.4593895397310306
  0.4576407441007102  0.5535428719240140  0.4958913793860192
  0.5006291894885809  0.5049573645353115  0.3539540825409805
  0.4981051974243931  0.5155127264058973  0.5159651467730878
  0.8695321040221846  0.7541610379549307  0.6931876017773135
  0.8382456104359924  0.5242305111793691  0.5365605380776047
  0.5916818457178339  0.9352666446243355  0.3679160343878997
  0.5594113736948412  0.9360400236735126  0.7045144476832182
  0.9574060660806696  0.7584951695192333  0.7039255350213391
  0.7980599869672151  0.2635604941722133  0.5430117895158083
  0.7210993790633342  0.0791285142153551  0.2342271947151881
  0.0444457075823416  0.6865928189679508  0.0323565183081734
  0.8446000203977598  0.0566385462940509  0.8143727779962361
  0.0111613762675541  0.8705692271862520  0.0710669690855005
  0.7681779919870223  0.2035029434530996  0.6023603948277493
  0.4670069370958248  0.1675964056908081  0.1146755297809363
  0.9119756744055418  0.4842593678643660  0.7604295661366717
  0.5682223290774989  0.1363501309050300  0.0408026554025167
  0.5128703792038982  0.0901057824902627  0.0934663642702235
  0.7112158676637667  0.1431769398664363  0.5125664603166988
  1.0033386632064154  0.4065960961427760  0.8645785758200123
  0.9711731227596867  0.4754715557988700  0.7838967862842182
  0.0566813136501474  0.3773843569649894  0.7197602383823875
  0.9786123232247306  0.3104993235959523  0.8167259943591740
  0.9292067264502540  0.2720308111216438  0.7509513399436903
  0.5528470673789357  0.9530664014921014  0.0890006297312076
  0.9575366987321765  0.3337259566818306  0.6932383846297286
  0.8585488300629202  0.2915286307004724  0.6693223414363159
  0.8495896892818972  0.3033428654568119  0.6099179537263828
 -0.0018177086286251  0.7798654806160797  0.2138107640989393
  0.7912342414826810  0.1581343821808607  0.5292750743651485
  0.0067673344137329  0.3725760263429818  0.7598142731687541
  0.0689482262565504  0.5188788358277744  0.8093188463140308
  0.8978282250188461  0.3420819417690224  0.6724900593471936
  0.8949601940153895  0.8127308455600150  0.2831368243272906
  0.8703555721173358  0.9849015842901935  0.0848244832846627
  0.9427247828252214  0.1830217860077272  0.1055318457209957
  0.4174786618186672  0.8026469647390366  0.0699187760997449
  0.1269364644148434  0.8111442880945988  0.9194808697571704
  0.4688275925204531  0.7523148254181163  0.1542078924717141
  0.9517407899998083  0.8737549264309564  0.1701920978431757
  0.8414211528317002  0.2275109257757593  0.1114567363757338
  0.3703608647679870  0.4838219721096648  0.9189266923370368
  0.9849870340133641  0.5921087937819121  0.0396445107051330
  0.9370634491545869  0.6586150681481324  0.1137057756999646
  0.0265269397481378  0.9425076443208636  0.9790519400190332
  0.1639278114510394  0.8285221672248799  0.8225581016935658
  0.3431247762245196  0.9662939600865388  0.1895103169995731
  0.7869390466857232  0.7807105254509669  0.1376032260980937
  0.7535471615532260  0.9252560823280273  0.0690938004514373
  0.8884914441770033  0.7349230105127149  0.1310147765326393
  0.4380819298474817  0.5666700318326275  0.7601585128119994
  0.4477579604052599  0.5531591906163443  0.8220223709887239
  0.2302776435565828  0.8445543988960276  0.9621931725505108
  0.4584225927249529  0.5411573086891635  0.8831560618591707
  0.8814832949309227  0.0915996916082258  0.1110373420816805
  0.3068510326501286  0.5083752849052905  0.5119877497418581
  0.8913674560108973  0.2137903463802667  0.0765678080773303
  0.1416623882788538  0.9178745788736947  0.9150859251179411
  0.9404706967128604  0.7190546077470306  0.0965972887086323
  0.0820076684710511  0.1212847911489025  0.6592944573198316
  0.9665877834040157  0.9641824988866834  0.2557249229388392
  0.1482096774945815  0.6887625424489261  0.0629362846162058
  0.1044713836325595  0.7003717998331646  0.9377805422920903
  0.1623425459790417  0.3505286812637556  0.5362172404137161
  0.3916241342504005  0.5287230056608382  0.6954206753236839
  0.5194041861924820  0.7367378715170151  0.1198028663092385
  0.9679842720457360  0.8623064728327116  0.9240544537854591
  0.8306168481672508  0.1339065180113334  0.0223836621220823
  0.9769092824044586  0.0005999951669739  0.0594124384157591
  0.2434897730156640  0.4461653258096968  0.6050526969389136
  0.3220574048162324  0.5489605570987818  0.6133757930350661
  0.1799007520684234  0.9251059203997205  0.9802222097313511
  0.9012995019296722  0.8938619473199766  0.2023006866360927
  0.2377729691155976  0.3258953283551194  0.6774973229009370
  0.2363352548948228  0.9686157469002019  0.9340057051828565
  0.3319558836149857  0.8757234435028400  0.0991440279938872
  0.8937252962332294  0.7955374013359796  0.1156975076649742
  0.2792289749193934  0.8743988271496487  0.9727658840636146
  0.9877666820099048  0.1077694529742552  0.0861894900321783
  0.3541300880800517  0.6381588493392945  0.5571711674035673
  0.7899928301799967  0.9511423932495389  0.8377781384323508
  0.9569333726495578  0.9196101800766993  0.2115391063430526
  0.4216137805086860  0.8311963129273092  0.1747689593504511
  0.5004382174342449  0.5256414097821951  1.0060231350987570
  0.8743689210263743  0.5173568069127121  0.0784577696608667
  0.8216669343466672  0.4375446113119478  0.0252425330302012
  0.8692783009003016  0.4561369646664336  0.0962323616258278
  0.1488581946147012  0.3031600671754943  0.8210413053519983
  0.7798520522256730  0.7093399792260924  0.9853873961200467
  0.9456650900213667  0.2604986423704451  0.0303049438596861
  0.3967464584569073  0.9732728055977170  0.5840481309561075
  0.9734421397042606  0.1238061349376756  0.6769070023814162
  0.8644677143931845  0.3600236817051681  0.0057329907734850
  0.8130307407819438  0.3269255649620559 -0.0041136517323431
  0.5767542989511306  0.8469232926018169  0.0495595069148365
  0.6821978156294887  0.8541509787519800  0.0224301760057777
 -0.0115401172578248  0.1232124584521893  0.0251051795161299
  0.0850423581873154  0.3415580863963367  0.9059436443914690
  0.6595407155056200  0.8730780041431737  0.9732843044227053
  0.4459443107590680  0.9362616185607266  0.1176315085449819
  0.2194939255082066  0.4328163655909700  0.9314548341286528
  0.1611986190259642  0.4435883802645381  0.9126320562642894
  0.1010674312908825  0.4496498318920747  0.8900978814092810
  0.8199175944236481  0.5197774713743744  0.1731970420972308
  0.1363581798679769  0.0752525896621783  0.9152770055874350
  0.1340670384027010  0.2305195673090376  0.9361866304861983
  0.3625401599649622  0.5988421203779251  0.8752409651931707
  0.1824717251381667  0.3847241029356619  0.9332630665271857
  0.1287423360070886  0.3827571212627885  0.9724063530030935
  0.7586913154011435  0.9601360721724174  0.1779976928959554
  0.9727768130053409  0.9655439180966990  0.9568384024957838
  0.0887642542252889  0.2441755643234119  0.5875814002720806
  0.5387263104274919  0.7111701535496372  0.8000205477779548
  0.8974185253803098  0.8568753237283897  0.0987001304575717
  0.5009879238506728  0.6613688409866388  0.7994981050987594
  0.9363860080788895  0.8072680868957735  1.0128264066014998
  0.0769241259363274  0.7725631372680842  0.8548403779281867
  0.1265638695572297  0.7796800072720436  0.8160844732781779
  0.4406817585222730  0.6679948248466137  0.7789454001970648
  0.1166408583441120  0.3003753898329276  0.5299486578307145
  0.2764516196085648  0.3761554142417545  0.6816936522076433