Cr H  Ni
 1.0000000000000000
    38.7642358654787174    0.0000000000000000    0.0000000000000000
     0.0000000000000000   38.7642358654787174    0.0000000000000000
     0.0000000000000000    0.0000000000000000   38.7642358654787174
 Cr  H   Ni 
 1596 213 3725
Direct
  0.0213391276864371  0.8753126427332455  0.9938730523733672
  0.3698400368964518  0.3180486049185296  0.9683413681871870
  0.1489358195245813  0.9730202832153502  0.6199743710676554
  0.9969662456771452  0.2016835938649400  0.4023471201486555
  0.1660877722971972  0.0634541294323031  0.7017550827341744
  0.2147006199851159  0.1000066951325796  0.7654170849246844
  0.1543670238669637  0.1063941597549846  0.7461209585340413
  0.8979682193027191  0.3077405135575261  0.3946669247032334
  0.2173812472545734  0.1317226221730944  0.8721771275374373
  0.2990577758546041  0.1619978051449748  0.9451892582439835
  0.2969801205828294  0.6152923343645660  0.5385832134877768
  0.2922164832029838  0.2339787720210669  0.8764322330797767
  0.3576509939136170  0.2103762460463713  0.9615445733104790
  0.1875561395836632  0.0370216235542060  0.8286477685653857
  0.4380695231565513  0.3864571779936416  0.6205316441411414
  0.6485450918344369  0.7071992570566344  0.7762720146771342
  0.5973806643879876  0.7384005100908274  0.7009965992381608
  0.5803559393519215  0.7954822639547919  0.4614096112420606
  0.1425945568995403  0.1183425827313212  0.6824701003046805
  0.4451323376338166  0.1150704655787631  0.8930613481544558
  0.2114712808821435  0.8094881876370065  0.1646609672496477
  0.3214677763389496  0.6832677360249176  0.7350344805623293
  0.2639012407838970  0.8285788107669878  0.2364696276523184
  0.2548968864095141  0.7653538768801786  0.0212814837195334
  0.4654966606644959  0.7639555745310395  0.8244003938021233
  0.5434502718498618  0.8645934177372275  0.8249781130975621
  0.1975690949287279  0.7583601936573103  0.8983453348074480
  0.4567936321548568  0.8098730922096552  0.8685120861872171
  0.2878740410515069  0.8080473654317342  0.9311453728528201
  0.4331481672680437  0.8332181654193538  0.7431632386399220
  0.4923106110575821  0.8267982677944211  0.7628467409381657
  0.7907060823360734  0.8112690386126268  0.2444964857697480
  0.2964438041301386  0.7530814218414130  0.9761075585787106
  0.3333836677169365  0.7113748620028699  0.5713600940855825
  0.2776884490598050  0.8195805026565015  0.9942233348725182
  0.0424151546442078  0.5546820460571069  0.6276590708516250
  0.4163910659496722  0.7600810062310799  0.6414919001098432
  0.2903896036684400  0.7116194623662822  0.6118784208313643
  0.0507144661277723  0.5440892151602946  0.6877485718824941
  0.9410732884212204  0.5486773340353256  0.7073405456395345
  0.0955522769797520  0.5832522055202504  0.7501804164991411
  0.2485357488492193  0.7661413391980300  0.8616420723420706
  0.1387323756660719  0.7349540118290726  0.7728797142553470
  0.8324869352020353  0.6929394787937974  0.4117036395074145
  0.6010735754563913  0.8931129126215481  0.9496672222861220
  0.4450159341266821  0.9712570643213260  0.9869091476776422
  0.2458652548626250  0.5344079152131407  0.0348896536489371
  0.5759458074998848  0.0589125338687379  0.8925381340359203
  0.0242000900342627  0.9904765955675805  0.2638279032879667
  0.8203240220001217  0.8597107632752963  0.9732318423534544
  0.4616259365673095  0.5581358070024353  0.4969430101076451
  0.6109425484068267  0.5513202722288282  0.2054005455776313
  0.6602301273233372  0.5205098259308263  0.2321988815276921
  0.6129474521597305  0.6594836547294839  0.7783174651415029
  0.6600636989676764  0.6960904220993099  0.8367747375706088
  0.6101311703959192  0.6920251916685354  0.8795742590763537
  0.5165277751098719  0.6896264959420919  0.3032480259230614
  0.4698101764647711  0.7499483088407061  0.3860119780294641
  0.9563523668553496  0.4297983002329004  0.4871076905881767
  1.0281858912664230  0.0050474361201173  0.1978647924893873
  0.6841930595902719  0.7561605374195386  0.7759027509657010
  0.8447471211578645  0.2942522521879828  0.3221782946220468
  0.1939939154940048  0.0491154492551513  0.9451053089607018
  0.7275134010392331  0.6716582131967698  0.4326429516860890
  0.6285791357163792  1.0047284906085143  0.6420893153664182
  0.6787716391971640  0.6850151828384179  0.4671849407526326
  0.4812642869045822  0.8249415124679257  0.5408653372140405
  0.5407489038879615  0.9299388429356418  0.4700967764110589
  0.9653274704420548  0.4479916981004051  0.4314416630948930
  0.5472281526342376  0.8672129751322976  0.6034659365758690
  0.4086447699537773  0.3212377162454972  0.6795743860614668
  0.6537010279366170  0.4593395573503394  0.2505114189766353
  0.4607602578194726  0.5122615887532197  0.7775434126368670
  0.2047033508620722  0.1119530889894517  0.7042474376807778
  0.1805805258274301  0.0354019134920529  0.5551198651035125
  0.1328781115252456  0.0578615686633878  0.5192518135100189
  0.7303186304247505  0.9588331312577645  0.8122625392320749
  0.5537799878189302  0.5039016965602605  0.0301656276665615
  0.4245063677842643  0.7934223818248450  0.5298499529616655
  0.4899867024619683  0.8263212272690260  0.9879122421999723
  0.5245613674327941  0.7589074248998910  0.6201249316583941
  0.6279015926588949  0.8005989839607890  0.6420043271188742
  0.4122020915031594  0.7578381143667143  0.0285282105905618
  0.3643355949609168  0.7724538487107220  0.0625948827681873
  0.6224960779453308  0.8454717837078942  0.6874925225058478
  0.7640826538454402  0.5437136712076150  0.4319894762689039
  0.2809847125369185  0.2133015750270474  0.7106582153283605
  0.2341172217442325  0.0787378630596004  0.8943651578763799
  0.9095965913759645  0.4165698825140762  0.4210408481563889
  0.8465815898106527  0.3234162593532934  0.4299732982733637
  0.8087566087686038  0.4304853276507262  0.3173421725039122
  0.8066107809845529  0.4182553670708066  0.3812236460753274
  0.8108758032702035  0.4751975105299269  0.3607258027049295
  0.4279685847772293  0.3265770996668605  0.9056011310869453
  0.7652076689566948  0.5540495147718066  0.3744375102613641
  0.4489878152687941  0.4208975672496115  0.9551108328164518
  0.7848278634213618  0.2018299005178793  0.3293273403879360
  0.2929624772906587  0.5163314314652570  0.4526304887817870
  0.0257840691470193  0.4735915025418081  0.2063823751016337
  0.8363451616694372  0.7353424210824995  0.2274185409918446
  1.0345135336262432  0.0149552137433640  0.6869122362505282
  0.8791412505461162  0.5790037975698917  0.0586528929805190
  0.0674847824495235  0.0496588175597523  0.7822628948451956
  0.8603516030032865  0.9644605229157149  0.4538323884883773
  0.9098781740428208  0.9484242970760677  0.4208788985157615
  0.9464696644785874  0.7977939537316904  0.4838065716686600
  0.1611365218564451  0.9183819202586823  0.5214806686587835
  0.1841068466717988  0.2320398471943920  0.8953519560107391
  0.8105123344265955  0.4581211881291029  0.1908733195343193
  0.8636440309936255  0.4250018689644155  0.2230812376187478
  0.1183294734274341  0.9488338538594747  0.4954311073733671
  0.9548724578888649  0.3229105319976436  0.2363257972210215
  0.0962490486981696  0.1441821274473493  0.8311875144789492
  0.1590901960952813  0.9280391375578698  0.5794373833518026
  0.8551237327052126  0.3681691991894286  0.2398329688884888
  0.8494434557103662  0.3216892686496775  0.1961468747460763
  0.1452421347593942  0.1506675837229274  0.7889990715442194
  0.7220752554842039  0.7826594882653682  0.0027254271014525
  0.1317350219058118  1.0266711174421526  0.6022918321955050
  0.9503806811597834  0.2747439325188693  0.1935496041844399
  0.6080708755841145  0.9997990378108886  0.0389740557026046
  0.9455274433473685  0.2133480515281804  0.2096453019400448
  0.1439115016358928  0.8560652221015198  0.7004342931362401
  0.4783121102923531  0.2423920732406475  0.4916731668454338
  0.0718332306814065  0.1680886281755941  0.7048723435270989
  0.7197181647787886  0.5977116884517411  0.2844325604800381
  0.1163589367449462  0.0893182647581490  0.8499973546238755
  0.0766647092497129  0.0383406109808177  0.8461922483486439
  0.9480180677001422  0.0166267301660217  0.6866118613269910
  1.0489935197357261  0.8857247487743103  0.5450749517886160
  0.0658324290213417  0.8722818092659861  0.6176690772412158
  0.0111479284775661  0.8087235147503187  0.6165486917013737
  0.3134044962553769  0.3206718975929378  1.0091166321897354
  0.2667614609643981  0.3206266715428114  0.9654569182894814
  0.0952418982865435  0.8201801945898015  0.6322775394037422
  0.2714835738927395  0.2905878130791972  0.8604364502094980
  0.2337060090225730  0.2392339806650094  0.8550644992981301
  0.8595626248044911  0.6169498791174095  0.9241067494682629
  0.4313385585578710  0.9392262984375003  0.2044032773766859
  0.1620379109204565  0.2584621305836400  0.7737607146311652
  0.3094483052793317  0.3090442537352765  0.7610805135584204
  0.4796610159750787  0.9061604960131512  0.2268260395233389
  0.0751912408502513  0.2024660841749465  0.8120109176461575
  0.5316358034551211  0.8747882729841069  0.2521595048419891
  0.2427220008035296  0.1627660087358250  0.7072504226138404
  0.8337823796642206  0.7177044066758506  0.0607931524289799
  0.5745358647088344  0.9613929840345814  0.8714180622443984
  0.6108599025420866  0.1390898870765530  0.4859309895607504
  0.7291559030368413  0.7199924872248382  0.2506815984206881
  0.0713707012359063  0.7057091284327811  0.5248083927727768
  0.3960505665270930  0.9684784114294824  0.0914458361493378
  0.2783385016767441  0.5625122287789194  0.8156681367029640
  0.4427974941985349  0.8908195406132985  0.0698607584880594
  0.3287496088291883  0.5679360131719278  0.7776853609019039
  0.3421046671720475  0.9427831132628219  0.7486747062986659
  0.2806605900095421  0.5302383663952444  0.7119406886713753
  0.4225289939560917  0.8486182681035374  0.1145096715941293
  0.5193788999805008  0.7534485696057172  0.0607644550419134
  0.5165620526059215  0.7093326682518869  0.0162278298163435
  0.7234825308262375  0.6559560770693545  0.0385814161513342
  0.1337350692456928  0.4472242784601087  0.6208780098597659
  0.3049846806770846  0.9253241473034991  0.8527599935712307
  0.9748780048372733  0.4698769831484675  0.0727200683217827
  0.3434275865298834  0.9753278965571961  0.8553843984120424
  0.3091470309777712  0.0095004273969355  0.9377396475296832
  0.3916014947200509  0.9242057514599179  0.0471322564213169
  0.8020576617249742  0.9322897802161919  0.4437915742840771
  0.3927260557363745  1.0010672872791666  0.9681034909606306
  0.8458960610093398  0.8637767932865008  0.1945610542888477
  0.7376333193444288  0.7801053065863827  0.4627041278267819
  0.7827397622401002  0.7191733863566555  0.3852831682779088
  0.5287667778510795  0.8623574439189632  0.0860079244449417
  0.2025307070498633  0.6730048167759496  0.4904429581996682
  0.3816797986316674  0.6759309003575624  0.7590176574652555
  0.8423293318899452  0.7958370051319067  0.4435308927390380
  0.9530114610076983  0.7779625408733625  0.5480817636259533
  0.0802633115523226  0.7130580318154481  0.6469877457433915
  0.9315747445132074  0.5957749857691735  0.1312190665431955
  0.4418070364728928  0.7011515855601892  0.8862174795674591
  0.8858018222398868  0.6736625221392385  0.1485079846937524
  0.1873091858389803  0.7410037315492845  0.7350358188089109
  0.9178982055113308  0.5742468938881784  0.4867997177521744
  0.3421519754677640  0.6566157992025639  0.8586969856481542
  0.3317305942819901  0.6704318751508875  0.7964416731564420
  0.9737311346607644  0.5555591932635360  0.4526857025505708
  0.9736315595195284  0.6850255202749307  0.6057360140296300
  0.8334636281105032  0.7042189662632822  0.1193637566587737
  0.2816865096252198  0.6476734060608069  0.6525287203993753
  0.9657641460480374  0.4957786570030763  0.4817000000003238
  0.3701726116230430  0.5880682467865436  0.6739337519562015
  0.2026532594978514  0.5625452023886910  0.5707332052432572
  0.6952825027368540  0.9175015818804995  0.4648872788752079
  0.1472694558754139  0.5260743826178682  0.5070007148277458
  0.3245679923451333  0.8689779178251612  0.8718516496613353
  0.4978879845588778  0.9358098500649967  0.0190336820594736
  0.8424045508084567  0.6718989577981856  0.4811621683764072
  0.6536161618489403  0.0079737053529378  0.4196845829157275
  0.3600714253029957  0.1355181455917617  0.2016011655954969
  0.6017747340803795  0.0254775600467183  0.4546048023336614
  0.5514687856515103  0.0564278181610077  0.4298040342814914
  0.7197259951621353  0.2023101538264018  0.6398947713963838
  0.6467738961447973  0.2201298231912589  0.5564500477267068
  0.4406372238330826  0.4270930030469964  0.3053341569321727
  0.9901283006921660  0.4538129708788726  0.9071028222743717
  0.9820933332914524  0.4651319230921158  0.8468948500877977
  0.7334656420910058  0.1908740456377693  0.6977630363712798
  0.6844145856096140  0.2473721491552986  0.3356492970334662
  0.8422135843066995  0.2622234276428905  0.4459484876961762
  0.7765482717165187  0.3918708149728294  0.7334120449400916
  0.7880740434818007  0.2480012001172075  0.3742197640746156
  0.7279186805762208  0.3557149471574562  0.6686435594783139
  0.6675089723193841  0.3645384888612320  0.6436524239440538
  0.7324485070789256  0.3410713932547300  0.5012592684854528
  0.6796207426617671  0.3148925835683753  0.6019749207854179
  0.9867360740847866  0.6087780707789588  0.9683375801265516
  0.8623848131149076  0.9759004224506640  0.3932047664883702
  0.9330105004349049  0.5633533541824541  0.9002077781018679
  0.3209122459220445  0.8547183369402087  0.4790117287050770
  0.8999419892859021  0.5306881463400280  0.8036072725446580
  0.2659993095312022  0.8201667963612792  0.4714491051968148
  0.3591873690267707  0.6743819264304088  0.4256392136957953
  0.3915520124077869  0.4567597422450170  0.2791612848047397
  0.8838541686324408  0.4218169797748892  0.8223290450769486
  0.6702149019483270  0.2019800987796250  0.6726650302814658
  0.8688353802700446  0.0755390540559647  0.4764888517075964
  0.2628795860732010  0.7978129532499389  0.3604412530256561
  0.6305208617445421  0.1523672199812306  0.6655866035890562
  0.6185873920567160  0.1644141092162497  0.5986347163631434
  0.1549494022430159  0.7815286360030407  0.3855598029324206
  0.6103262597309276  0.1198631417480837  0.5457665732065041
  0.5799484974284433  0.1139688259665779  0.5961427807162868
  0.6832195753943410  0.2182632608981581  0.4593769823131886
  0.8817733652491776  0.6636543358101470  0.6220188090485618
  0.2202564769034296  0.9065310369361419  0.4882000026666267
  0.2152301651083713  0.8571612528735234  0.4421578408159348
  0.8255642789313061  0.6671360495193308  0.5941179139707806
  0.8440404994846626  0.5028907799968243  0.6750673005243070
  0.8915976137996299  0.5415916690342166  0.7417990638158549
  0.9491491806257281  0.8345984769869079  0.5281332772131110
  0.8326018779033540  0.5481628082393356  0.7175460504199546
  0.8407653443341032  0.2019344854581775  0.4604474509278134
  0.7376826625554711  0.3433392313560785  0.7298963538159028
  0.6870521466248878  0.3399746860446272  0.7708631294297914
  0.6374175279147681  0.3035570563110518  0.7029131067989881
  0.8342464334121523  0.1425837176998484  0.4773380463375814
  0.5864781560573461  0.2672480559186019  0.6369485514946825
  0.6371712736811822  0.2702609612393538  0.5973282352918846
  0.3098588227717273  0.7207398973012387  0.3401068815479780
  0.5367838539340243  0.2337691188204190  0.5710496730388361
  0.5488505959244770  0.4729560617282648  0.3800301858845468
  0.3927916188141821  0.4891487039332391  0.3804061667078720
  0.6544176864643785  0.0473343637487381  0.9185442074621519
  0.6880375321812056  0.0566241993886134  0.8740041034197771
  0.6145942383189861  0.0761016960789146  0.7887114898326941
  0.4949503178884499  0.4429978347934693  0.3724835079825484
  0.6237443004687723  0.0312582796780374  0.7445652578945859
  0.7248674776619664  0.1939387341515628  0.9627144787222280
  0.6634311417045701  0.0396440315680809  0.9874033486459891
  0.7048993461436234  0.0016713977601849  0.8931365791907662
  0.4033102098120892  0.5982317992203121  0.4076378073099778
  0.6438426889439295  0.1712502716094273  0.8349811769080890
  0.7143434541017576  0.1181904580587415  0.8127246481838725
  0.6031876290744014  0.0907222740147989  0.7255655599368273
  0.6512348790638571  0.0958903778918389  0.6850178660468728
  0.6713054748973579  0.0922543037443569  0.2707129783876296
  0.5475527837626267  0.0553342768264784  0.6595395708146199
  0.4562052796149726  0.9727485196314808  0.6033139665470520
  0.4936070408110728 -0.0086087311373247  0.5448060570397064
  0.6400200591181033  0.3373511568646734  0.2891177306750892
  0.7917394753628737  0.0957607400395364  0.8973697352959049
  0.6938946228122523  0.1749759714203317  0.7958041311503123
  0.7088671658348050 -0.0343215204875941  0.9724062148574023
  0.1615347185739679  0.8422582195812225  0.3699820254502981
  0.3581109769407209  0.6899768339247744  0.3641810053123631
  0.8948757794525364  0.4101307907733320  0.8845923578685804
  0.9119302257169956  0.6098103186217912  0.9420920171756031
  0.4794928649720772  0.3042709391728591  0.2465439726239038
  0.6525287800404919  0.4544505260935899  0.4763191183893838
  0.2117617094228358  0.8276210106871572  0.3333793284403898
  0.9164765258569280  0.5111271802670994  0.9255195105008743
  0.4022595780982836  0.5809141655205112  0.2410399725716836
  0.8580323515296479  0.5136685733297991  0.9059756923922726
  0.3456341020239837  0.5346201533724929  0.2950678925484418
  0.6907107546502880  0.3421371418681451  0.4234614009588224
  0.3492310457906131  0.5815959313917536  0.3377276136419581
  0.0503517650091018  0.4413574109448631  0.9288139519587352
  0.8216355685762899  0.2443529111069704  0.6645772558172707
  0.9147094818640921  0.3535469282943033  0.9021506537774404
  0.7006010358268827  0.2578178751492275  0.6213241811040880
  0.8188916571168324  0.3095614109972291  0.8746896817205541
  0.6574814769199555  0.2130304085779381  0.6130410388372781
  0.9057901987917100  0.3644541111546063  0.8394343825080752
  0.6631180156890828  0.1554850731859934  0.5522612568775266
  0.7575354576255339  0.3182374170187040  0.8538024753955233
  0.5357991454548746  0.3354463932618663  0.2541302643539917
  0.8578688659345388  0.3261408943080009  0.7739432851322587
  0.2693309518742835  0.8849280416414379  0.4569306009067253
  0.4397318595148866  0.4430113247604236  0.4622191396243718
  0.0338340945068894  0.5168380536991946  0.0230746192235353
  0.3118074262774353  0.1939563683334546  0.2853890184350283
  0.9146556434671246  0.1648294940127799  0.7615848661230530
  0.5461366170452807  0.0106112542497504  0.3865032423398338
  0.8029636616891702  0.1372237710490646  0.6713689437083410
  0.4094932637007221  0.0857232077716377  0.2871989450242742
  1.0022218838018533  0.2549766393908374  0.8334164222777609
  0.5557826785751077  0.0667694571780067  0.3615397000546327
  0.9355018615467885  0.1071294914439579  0.7790191617052242
  0.5084105631761422  0.1272460870405201  0.4396850873734011
  0.8231502209628668  0.0793276196158941  0.6885207547033730
  0.4654287395798228  0.1479254063802803  0.4016701838377121
  0.7091472428858573  0.0744385454836712  0.5315298636288789
  0.4222820464506449  0.2231272560020809  0.4234401557089271
  0.2411012479435375  0.3575495855648387  0.0133800798131599
  0.2405853242524377  0.5493139325034374  0.4256053905848468
  0.6363523028119855  0.2273201122267846  0.4959060195743622
  0.9324384955223328  0.2941156157653951  0.9148320044874733
  0.8517526431961402  0.1393990209230906  0.6356090940229313
  0.7006491609003309  0.9628036580140172  0.2770801813526461
  0.1890868088336039  0.4856254169103584  0.0831835711237870
  0.7890139368898019  0.6912627073121255  0.4522790074723587
  0.4152645681611128  0.2013390286849168  0.0851464653377130
  0.2098937022938081  0.2128794189027062  0.1875818628971408
  0.7745547878850816  0.6593763741294443  0.3991877617519909
  0.2564284741991488  0.1716540360079223  0.0409089269520247
  0.9479888137608657  0.0970856052980451  0.8424318469869433
  0.3725991594582058  0.6892145139886282  0.6996324860606083
  0.4112865482736882  0.1579090949682876  0.0410256998283739
  0.0730698592051993  0.6125922160028993  0.6245052245523602
  0.4571250435511559  0.0772316475527476  0.0204060809448624
  0.8169688382291310  0.5851354837286524  0.3895020346210487
  0.9331398457063060  0.6773252625222200  0.5129806053533639
  0.8774548150650000  0.5969855291844695  0.2271008127132566
  0.7725653011539311  0.0545858807287804  0.9610955014988752
  0.9845970889020504  0.6119009269559142  0.2046098902528402
  0.8299401968256322  0.1508772531099179  0.9601975904967505
  0.8686624974486576  0.5538268262444380  0.4148467421924760
  0.3720653905573341  0.2760080749226317  0.1080725872803517
  0.8664886215500902  0.5073132899637883  0.3716718855680887
  0.9534051591202682  0.4993419097664372  0.5463189521615718
  0.9687092272212381  0.4598536259779563  0.3673970076350689
  0.8685886248814643 -0.0474998855857857  0.9794972357814530
  0.5448114273442763  0.8974095540434268  0.9293387573486633
  0.9835395455428095  0.0754513556849903  0.9750359651576153
  0.9122559142684724  0.4306162773015804  0.3589116547955944
  0.0088949531085149  0.0904205931753023  0.8661372114653090
  0.4173665573418752  0.1773212874765331  0.3774099470645210
  0.1994497531624973  0.1221949409463580  0.0969989993067143
  0.3103689146602961  0.1835736905392764  0.1154115809194154
  0.3046505183636958  0.1216434665064102  0.1300870807523745
  0.4006917727370431  0.0135924945712156  0.1354678923833414
  0.0304626216342189  0.5339629297084698  0.1877563976896165
  0.5246563264888653  0.1660108793328276  0.4783252887813034
  0.4896119277967299  0.2878659936759302  0.8231966777683905
  0.2823935317422071  0.4120263991300178  0.2021538630336186
  0.5262794019614732  0.2279197846486072  0.4589906248247577
  0.3274708526534363  0.3488215836414050  0.3533322377842955
  0.0445716850081054  0.7187233322191476  0.3651629926805900
  0.2296737924233927  0.4404222332963935  0.4016905782570825
  0.2874263326939174  0.4741803857273494  0.4087168827400547
  0.4283183407538718  0.2642726761910469  0.6964050335707120
  0.1372464623701419  0.5666393365582979  0.3307918046022639
  0.1830518196389980  0.4887936326434820  0.3136024390497909
  0.2971704027051851  0.5806946418731128  0.4344853165026386
  0.1900966673661710  0.5818176485760953  0.4019920160158607
  0.0882562236712446  0.6270975523276514  0.4095607124394600
  0.0901153717334089  0.6754711484337107  0.4582531656081350
  1.0009269970326582  0.7822150737264700  0.4450337856532171
  0.0530483200283653  0.8065537829878457  0.4606810057834882
  0.2639780244410508  0.2431635205227389  0.1962568809060204
  0.0567417947192428  0.8463877031174857  0.5107799539522055
  0.0087310046894278  0.8882093384612881  0.4781702030217665
  0.5730109776954765  0.1556605416290185  0.4424432581728230
  0.2492053292129381  0.0927249501595733  0.1238412835635310
  0.3001154621614931  0.0779846347507220  0.0850160826770402
  0.4825307840059850  0.3038986081467566  0.4802178127683973
  0.3499813386511806  0.0454056288543627  0.1105085270130273
  0.2488119624886850  0.1916379660022699  0.9709458001948059
  0.0277888138284463  0.4872773701289121  0.1460147520165090
  0.0752824100265646  0.4113147152314239  0.1288401195641572
  0.2577616511291045  0.2933468100254873  0.0135236716637141
  0.0276493012410801  0.4408468183827217  0.1002461927814361
  0.2195238244378046  0.3188333079200525  0.2137411471052929
  0.1172011577767106  0.3359397077807181  0.1166341856966024
  0.3381566178961968  0.4481574985076012  0.4287850824404026
  0.1301227507378958  0.4597654984492713  0.3041473718943981
  0.3669646311541786  0.2093736790229137  0.3550532414046797
  0.3699413185435610  0.2537803366888873  0.3996208046267132
  0.5153392202765997  0.0959344285772486  0.3304347592223384
  0.1901419280153851  0.0457179880513882  0.4080389673078362
  0.5738572008930821  0.1850088523887432  0.3169252505439539
  0.5269293470197847  0.2591815206754859  0.3344847987599701
  0.0494333535325515  0.1850341048963769  0.3719029381991100
  0.1032485350672381  0.1534199507571292  0.3997588918272529
  0.1365678313216192  0.0357859893663746  0.3438500406103503
  0.4824126973238546  0.3344064928691560  0.3526545111843879
  0.4855674785101327  0.3777041347972871  0.3945952436200108
  0.1178725189606165  0.3508747374674150  0.2823998597070551
  0.0708647435318137  0.5211481169294880  0.8102597214245304
  0.5920594961452027  0.5878242754544711  0.6412597217714076
  0.8943250394051792  0.8131287354729532  0.2841731383602869
  0.8118865298472446  0.9524163038561284  0.0754559438352645
  0.9410359399455194  0.1816692049889433  0.1028854645840026
  0.4182609473230329  0.8039882857039501  0.0715277571543608
  0.1282134506482907  0.8089011059416151  0.9184338212468663
  0.4167364646558861  0.7854746579074158  0.1306055171472243
  0.0036602289861692  0.8561091782084073  0.1365572164497541
  0.8391692311298681  0.2273714092955809  0.1091611245652472
  0.3701619839250910  0.4845704639648570  0.9189824940109541
  0.0395487973655262  0.6237105555660489  0.0489552631659410
  0.9365452969871365  0.6578127979042818  0.1151405546531646
  0.0274642236392687  0.9443043085348182  0.9791878903651994
  0.1054808464729581  0.8373498530233604  0.7998572699709976
  0.3420495475530778  0.9672813223011338  0.1907321439924667
  0.7864803214840360  0.7793345648049471  0.1379607342321295
  0.8507322318386454  0.8846237892105102  0.0677665133513589
 -0.0054372617700688  0.7461574398513819  0.1118784577335799
  0.4391432555755155  0.5675102551625087  0.7597314370898454
  0.3986081248352610  0.5495241480423160  0.8606287966540070
  0.2267183952895307  0.8440726348533327  0.9633854766004970
  0.4603887024316931  0.5412444315400902  0.8843132871417843
  0.8799084248432330  0.0909721161645407  0.1089661237214817
  0.3069945779938903  0.5083409612638581  0.5125021463820206
  0.7341837286374037  0.2890060886902506  0.0494908438298199
  0.9559680768326582  0.9191545064566594  0.2133403167027745
  0.9394623505402901  0.7182981986616156  0.0964551255389688
  0.0831114230333710  0.1216734395141925  0.6582850641217997
  0.8486453312582747  0.9072506377172371  0.2423992793278032
  0.0984338206289489  0.7197469581262885  0.0388179946182157
  0.0957814385157696  0.7414586089640155  0.9789813877020036
  0.1624938407842566  0.3548852996695362  0.5332470265240264
  0.3910462825263802  0.5307128624217498  0.6946237384266060
  0.5185171219771970  0.7363786851834844  0.1201149322738101
  0.8147274050516099  0.9211230208746194  0.9660895574791827
  0.8299628602376788  0.1341481278237649  0.0204936807146366
  0.9811655872363710  0.0453859929002646  0.1038531121106705
  0.2184482788996496  0.3844432029759987  0.6600566614888371
  0.3597110754324491  0.6069384933181984  0.6166601471106811
  0.2346430184963200  0.9545128000772023  0.9932812857095453
  0.8578315783409031  0.9325498284447287  0.1094605678622015
  0.2874999098462564  0.3648706850198054  0.7443997411077643
  0.2339886363210218  0.9672620749844580  0.9328436804916324
  0.3330404925900740  0.8756667839246681  0.1019678278910347
  0.8373327895834550  0.7648595258282522  0.1044239843024393
  0.2855136795112771  0.9252228528670929  0.0163054386821107
  0.9922555630618033  0.1521912838796004  0.1300023473878061
  0.3700563564349959  0.5666687702596389  0.5763676003290517
  0.8882345485383705  0.2117483414065504  0.0750871691957592
  0.1552203767248300  0.8748687927678837  0.8686578800622180
  0.4723111274770593  0.7981777794431129  0.2006202220051004
  0.2053925822697052  0.3251345155367814  0.9619668449620637
  0.8743455907903317  0.5182193050347053  0.0773482953396082
  0.8188304581471356  0.4981020922464267  0.0061092972951711
  0.8681213293954475  0.4547127990777614  0.0938486429888755
  0.1500197971085868  0.3041573221196527  0.8192584592634398
  0.7774317105916134  0.6443862684165309  1.0017866522200078
  0.9516792336938353  0.3049296883445342  0.0688122308626395
  0.3938992285033496  0.9791519081796560  0.5821286825701073
  0.9742651365710421  0.1233243923675267  0.6761979222830151
  0.9022111335327021  0.3186207920137407  0.1015435374996159
  0.7988588510584831  0.3185513521934511  0.0593476333218279
  0.5772522406916343  0.8456291979663865  0.0507488881133214
  0.6783421200675501  0.7948030296559537  0.0419126808745089
 -0.0109417037652698  0.1224435019613429  0.0221034010482626
  0.0872643729687544  0.3412422987636697  0.9041358315189461
  0.6632690126337539  0.8060822150788823 -0.0211962330890287
  0.4479471028491628  0.9370325511240742  0.1139033785459855
  0.1972282250852238  0.4932483039634841  0.9112183165154575
  0.1604913102477047  0.4426427617771290  0.9120218491048506
  0.1019999568812048  0.4495682791652801  0.8906436136135714
  0.8195151914721861  0.5195829387852865  0.1732440274076270
  0.1346494559482545  0.0747452181744538  0.9156067383998329
  0.1247054688740995  0.2408887165331610  0.8742832937546473
  0.2796270228154379  0.4299062486486339  0.9557441509333605
  0.5018013252769311  0.5836612135698550  0.9838667921219876
  0.1255506966534258  0.3918196037179359  0.9101387949460906
  0.8090875852513942  0.9386706875991436  0.1445161110427880
  0.9739567176760531  0.0262044629340798  0.9283399295734620
  0.0547515294773018  0.3185415858878572  0.5072757096169417
  0.5391117398272730  0.7124729848204546  0.8011067081364726
  0.8411877867875783  0.8247688412465533  0.0881962738789090
  0.5016137860652924  0.6614103286145500  0.8024980518516842
  0.8892377599762663  0.8088671407967092  0.0545955707421752
  0.0770564963584155  0.7726568351764325  0.8535456719385439
  0.0673134280454958  0.7866756143829122  0.7942834459201570
  0.4421961515575352  0.6681702051398908  0.7808627402705071
  0.1152010140854292  0.3028677431931351  0.5276068752622108
  0.2774775923480915  0.3770285666484646  0.6812327337933870