Cr H  Ni
 1.0000000000000000
    38.7642358654787174    0.0000000000000000    0.0000000000000000
     0.0000000000000000   38.7642358654787174    0.0000000000000000
     0.0000000000000000    0.0000000000000000   38.7642358654787174
 Cr  H   Ni 
 1596 213 3725
Direct
  0.0231185053816523  0.8789652913382909  0.9957810861334171
  0.6405911306831650  0.5901614169149036  0.6022537250715188
  0.7140247899123729  0.6850844162362627  0.6366248171532184
  0.6125631471784937  0.6119882147467172  0.4153649777902352
  0.6642138626996561  0.6813426744124214  0.6789122999825045
  0.6734926015894602  0.6663702167564728  0.7381273794593270
  0.2568948956300974  0.7344910889693267  0.1476462437608605
  0.7063308977912076  0.7320264622326547  0.6787626177710417
  0.8115332225704496  0.8533208837149795  0.7519511352725278
  0.1682649363094808  0.9136139912623159  0.2844829264232641
  0.2967483590886374  0.6150466945269853  0.5383466574424518
  0.7892604963347676  0.2774100909737345  0.2480794047724817
  0.4194787249087757  0.7972725910879284  0.2969153782459253
  0.8062116179608577  0.6794483716477194  0.5246650186525608
  0.4027805631256423  0.4889455465813734  0.6519873711207739
  0.6813317676948930  0.9189058949701793  0.7451167161838005
  0.6638505335119457  0.8497458213479095  0.8657651655426259
  0.6692697287615127  0.9668045783422845  0.7894546278318542
  0.5810067611415231  0.8118034283167099  0.4026191701209630
  0.2443352240860683  0.1948688901121669  0.8127063833193462
  0.3030207669901608  0.1883285868414925  0.8337093032745707
  0.3212191265197019  0.6832870827959651  0.7350458593842634
  0.9949711571976565  0.1540374177221443  0.3597561615053774
  0.3704506448924051  0.3182660917559426  0.9681411084756447
  0.4652822644229733  0.7639009730493618  0.8242537735803663
  0.5432956344647633  0.8646273602096002  0.8252067809342449
  0.1973712168197932  0.7590318323713844  0.8995442607366214
  0.4566429910567779  0.8099352821408969  0.8685496347798070
  0.2889967472244474  0.8067329235367744  0.9305367902502977
  0.4324554401355695  0.8330994889831840  0.7434751789619921
  0.4922372149049178  0.8267508718300720  0.7631410839375516
  0.7908592688650340  0.8112392539460528  0.2444027444158888
  0.2963352580989874  0.7526156745337266  0.9760019388325979
  0.3327068260747515  0.7116001127472457  0.5712801312446727
  0.2758304019780903  0.8198142123085549  0.9947133064421799
  0.0421635117883476  0.5550198839496049  0.6276473492158007
  0.4145340769809017  0.7595342971664973  0.6420139114913330
  0.2896665216902853  0.7116849969189180  0.6119771945810096
  0.0506658895663876  0.5438567818354659  0.6875402473227535
  0.9406646392093295  0.5482276636420781  0.7078503754382307
  0.0955151199662932  0.5832074687504566  0.7499643862924041
  0.2481027274118963  0.7661184356506839  0.8620453207683635
  0.1385307269841288  0.7349897481107205  0.7731561735122364
  0.8325782735027989  0.6929309876203631  0.4115606334693483
  0.6009444494729680  0.8931229231989024  0.9503003351924076
  0.4448139708578766  0.9710734172980992  0.9875627424115371
  0.5353533794417209  0.8714722423614573  0.4854004709436556
  0.5853027951151454  0.8562111913153941  0.4473092859347886
  0.0247987473219169  0.9902512963436951  0.2629779991129890
  0.7299522245175266  0.9591710514936934  0.8122091289553047
  0.4247699738699751  0.7932178945152892  0.5305995194946853
  0.4900664524058010  0.8263340527873243  0.9881211192339124
  0.5241993936808071  0.7589723923843711  0.6200195262589936
  0.6274331733253579  0.8006865409310765  0.6419527114310569
  0.4119128714948324  0.7584138242345049  0.0278675232787251
  0.3643912206751901  0.7721277559982027  0.0627924565382000
  0.6222392969851487  0.8456900368154563  0.6876659693671845
  0.7639237991491636  0.5436160502965722  0.4321292545866371
  0.2811700587946218  0.2133651839418383  0.7107773950019779
  0.2342349614312925  0.0787431970442123  0.8943152946694251
  0.9095468955392492  0.4165856170821404  0.4212648744015886
  0.8466820403069302  0.3232051392598346  0.4302306757682440
  0.8088549124813189  0.4304913666182151  0.3175919938458043
  0.8066892726965923  0.4183840038300907  0.3815152682119577
  0.8109621137639639  0.4752823375074369  0.3609736625808498
  0.4279829100557965  0.3268117189600541  0.9057532380814868
  0.7652944321234362  0.5541020964581779  0.3746051769670408
  0.4494417131611931  0.4212630815673043  0.9553654530637037
  0.1798224652365752  0.0352921316342816  0.5546543244896682
  0.7849709548243148  0.2017244860484178  0.3288457425347103
  0.8213797948434371  0.8594243647133651  0.9733148087572940
  0.5541176704807141  0.5039229497108310  0.0300385532507179
  0.1485148869475605  0.9731540361516309  0.6193567820732526
  0.9971311980981171  0.2014028183653052  0.4023882636917648
  0.2047122652602198  0.1119432028571861  0.7042845844052895
  0.1658664196286149  0.0633376783989219  0.7013747520089070
  0.2147579730915779  0.1000391102526475  0.7654164277722000
  0.1543887821500544  0.1064372152645285  0.7460316076941879
  0.8980707859048380  0.3074999557956368  0.3948568095693739
  0.2174671159085774  0.1317861828549102  0.8721514314265653
  0.2989639137507320  0.1620656377017545  0.9450896021157074
  0.2923109887292320  0.2340542253602714  0.8765737111565730
  0.3578245599572114  0.2106861727507079  0.9618790244294216
  0.1875423323240052  0.0372818521167553  0.8282509426310584
  0.4378783657520454  0.3865192311984146  0.6207794892441174
  0.6483638455405667  0.7072500471019261  0.7763134068417787
  0.5967140053395272  0.7383477588617324  0.7010038937499780
  0.5801829543254042  0.7956111047489202  0.4616173875479640
  0.1427946766451993  0.1183678744593311  0.6824051024065897
  0.4450575871649037  0.1152303644900133  0.8934219085260489
  0.2117824286862040  0.8094595516685247  0.1645557682102713
  0.2460363281101915  0.5343382706795173  0.0349300125681752
  0.5760258869358120  0.0591154799925900  0.8929818948012238
  0.2641036121170683  0.8286375901655257  0.2363870958948134
  0.2559957147077024  0.7647570502132413  0.0213053305318732
  0.4614135532924317  0.5134646208467882  0.7784964244065358
  0.1329938694520986  0.0532643412825185  0.5241169595807991
  0.2488531809399079  0.1916496955720011  0.9709849751885363
  0.0278553808383776  0.4874377565271104  0.1460107338924983
  0.8364375507889786  0.7353562230941975  0.2272420083692217
  1.0359359910839572  0.0158301727251087  0.6856331361055893
  0.8792082171313189  0.5792526398007763  0.0587320442356275
  0.0674112803722819  0.0495864176097850  0.7823178924553462
  0.8606057932032524  0.9639630628800603  0.4533979306091241
  0.9098732388802538  0.9482419407207773  0.4199491309185546
  0.9457348595704947  0.7983298370227030  0.4840335245468790
  0.1600375793467101  0.9198419850399656  0.5208680781408718
  0.1841940411715649  0.2320779974284625  0.8954050212817941
  0.8105957703150645  0.4582669831807918  0.1908492937319932
  0.8638526624289123  0.4250024629418255  0.2232869110469829
  0.1175069895800773  0.9499549410712490  0.4952147898619491
  0.9548616299581997  0.3230112467732833  0.2364592553774248
  0.0961670748282251  0.1440587904619658  0.8312216372492832
  0.1596321634287767  0.9269634718402859  0.5782873911634546
  0.8552145619618047  0.3681328215578193  0.2400763973716719
  0.8493065193061156  0.3218461552032826  0.1961626844442579
  0.1452547297056493  0.1506749277572314  0.7889923468591470
  0.7226430992681471  0.7828788862793232  0.0029603113908352
  0.1334968395991633  1.0276342970927070  0.5977712827611370
  0.9503156598576419  0.2749650119151342  0.1936695303212334
  0.6588716526491014  0.9794493319043194  1.0043117500316212
  0.9454398666082507  0.2136338963509261  0.2096254190675804
  0.1433520863048577  0.8562462694652201  0.7003937501672688
  0.4615029259095054  0.5582535193114344  0.4969076250166159
  0.0719912964058134  0.1681972847370369  0.7048258741874666
  0.7198014191312947  0.5975778688978693  0.2844264919676802
  0.1164252086866887  0.0893054537847602  0.8498764473855142
  0.0768509307688947  0.0382133599612798  0.8461978440530065
  0.9468279637404970  0.0163890450390310  0.6881480657529949
  0.0588677363941308  0.8241496254019822  0.5802177655190246
  0.0652481075351242  0.8726418889025304  0.6142142883566329
  0.0082083801095703  0.7655224544892739  0.6642667592299423
  0.3136503731903073  0.3206356149048719  1.0089939601826934
  0.2670373156495526  0.3206416910823298  0.9655215971518795
  0.0951548215705428  0.8203096684067828  0.6324008579733268
  0.2715709249539808  0.2905703663576509  0.8606626697483991
  0.2337681644498036  0.2392587641130654  0.8551674298094439
  0.8595552347157551  0.6176113040068901  0.9246282373220953
  0.4315125197712081  0.9397099622244082  0.2048780581060495
  0.1621039753633186  0.2584504167850073  0.7738274045570984
  0.3094823605577862  0.3085740268542708  0.7615160253760460
  0.4800133106499919  0.9062086993282111  0.2273353889040161
  0.0752612262180023  0.2023890509169705  0.8120613400476866
  0.5317926340246574  0.8745635956873496  0.2523641940601423
  0.2428313185023412  0.1627665465284038  0.7073403685217583
  0.8341709683151844  0.7185252365181136  0.0609970706314009
  0.5742865120198977  0.9617110107477040  0.8723188440990640
  0.6538309990436034  0.4591419625020344  0.2503850165185710
  0.7291966901377552  0.7199326727546282  0.2506517523905675
  0.0712678668359393  0.7062245901920221  0.5248204895525692
  0.3958245532089996  0.9683470019657403  0.0911393768822109
  0.2786855248352054  0.5624662029286450  0.8158933977650031
  0.4423217687432012  0.8905083216791430  0.0698310915145192
  0.3282593737482886  0.5680020623495069  0.7777007352272440
  0.3415986230994850  0.9425975145884353  0.7489258241869936
  0.2805732684839721  0.5302058693384436  0.7120158653292930
  0.4221401214022890  0.8474863615696053  0.1140592956048218
  0.5196242705107220  0.7534719071530240  0.0609400133530486
  0.5168440608762709  0.7093385455348893  0.0161144501983648
  0.7238088717736072  0.6560124687059474  0.0386220838430457
  0.1336866859632306  0.4472377403979705  0.6211703525857417
  0.3047196974717483  0.9251973673122339  0.8530587883560008
  0.9749663289616242  0.4700818698589771  0.0726954335956608
  0.3431911204029743  0.9750919060123929  0.8556294535474145
  0.3092569341170513  0.0096027617953900  0.9378110028753730
  0.3913485379807433  0.9235201262687641  0.0469034886355387
  0.8022352001623377  0.9320477889007857  0.4440347176627176
  0.3926085552759978  1.0010197503445537  0.9684060969152225
  0.8462638934243372  0.8635273825764770  0.1947397012746324
  0.7377765864912672  0.7798641685303451  0.4628261960794591
  0.7828100697118042  0.7190358989092955  0.3852710370267203
  0.5281107092978041  0.8624620236507732  0.0867660615282946
  0.0753888748660332  0.4114025389463602  0.1289713853336879
  0.3815531614414446  0.6759735615233091  0.7588843597513892
  0.8423091404421115  0.7955125761049333  0.4436999292583221
  0.9525515999162462  0.7779219612545089  0.5480764528758870
  0.0798787661558145  0.7133216606272429  0.6466681776938000
  0.9317386753993294  0.5958826021942565  0.1310493994387054
  0.4418816300669295  0.7008793903848218  0.8857265694897593
  0.8858753692204118  0.6737944413486562  0.1483430410432446
  0.1870317565085119  0.7410022245024047  0.7353010708488944
  0.9150506037858336  0.5756034798473402  0.4866470035601320
  0.3421397507068785  0.6565197763750023  0.8588400978515528
  0.3315694354976338  0.6704482201995624  0.7963400881663774
  0.9738503539917459  0.5553706558884833  0.4528935781245593
  0.9731902878107914  0.6845849326782399  0.6053381991726399
  0.8336385784280612  0.7043301952297584  0.1193530123564317
  0.2814391087999626  0.6476062802352869  0.6525837352755665
  0.9656968071527442  0.4959025166117704  0.4820749255189940
  0.3698671757369931  0.5880237984047624  0.6739374990342161
  0.2026520550917235  0.5625070356772693  0.5707425082135068
  0.6955593342427709  0.9176809388169903  0.4648363972843170
  0.1474466301633484  0.5264562000450158  0.5071641578534366
  0.3240957295173952  0.8686572065535885  0.8722906685765309
  0.4981201108196164  0.9358348725962907  0.0196582736898003
  0.8428829723668999  0.6712648938708148  0.4809480925375962
  0.2579881778117964  0.2933166673728808  0.0135299567971311
  0.0277207332401053  0.4410176888101511  0.1003027156562939
  0.2196285235869674  0.3185808393642017  0.2134555529689219
  0.1173870826623477  0.3360064595630987  0.1167344355288071
  0.8409285061252448  0.2015515447907578  0.4609341543569203
  0.7376812148454618  0.3433480401736830  0.7299411441112804
  0.6870294672867127  0.3400800852177689  0.7709724588625887
  0.6374158189924802  0.3036918255096875  0.7030219495566217
  0.8361325734171872  0.1424405806888625  0.4763406372651064
  0.5864388970130749  0.2674386322316699  0.6370817867420331
  0.8697567067293668  0.0741095373701529  0.4748422718094091
  0.6371553059073145  0.2703880729341600  0.5974692663222335
  0.5367738084004211  0.2339183284240643  0.5712334592303729
  0.5489258972605942  0.4730070486522804  0.3801334638972823
  0.9115558456710632  0.6100692751901795  0.9416726796414837
  0.6524293281841446  0.4545205800626185  0.4764812888381075
  0.9167862833546591  0.5112507273107894  0.9254483729532632
  0.8583749108766873  0.5138678195429364  0.9059523416078805
  0.6907782717654080  0.3421802650411382  0.4237068513664585
  0.0506057017833910  0.4414341045476549  0.9289068364552898
  0.9147762586175777  0.3536572542557609  0.9021260247806355
  0.8189372641419489  0.3096153801038823  0.8745816199129856
  0.9058623398173620  0.3644224917762514  0.8393509614938565
  0.7576832777917217  0.3181617533862831  0.8535791966222481
  0.8579812194411783  0.3259633063652886  0.7738205301773319
  0.8321842524459832  0.5479708978116083  0.7174225281338570
  0.3916812502277183  0.4567504899514912  0.2793588124045070
  0.7199441380517050  0.2023852607253833  0.6398601235678243
  0.6703383953342811  0.2021651756430280  0.6726171454764717
  0.6467548833443642  0.2201791759769701  0.5564012832641944
  0.4407882787298763  0.4271422233458593  0.3055260587393387
  0.9901943125880711  0.4537668624084361  0.9070625093746237
  0.9821775155511513  0.4650654677213087  0.8469242652756531
  0.7335516692865648  0.1909695162350125  0.6978861411576293
  0.6845182556106164  0.2473340673738236  0.3358163717462292
  0.8423854917985339  0.2619774632430303  0.4462710943310263
  0.7764788954014838  0.3917455138382143  0.7333368073467925
  0.7882513929460747  0.2477186601827942  0.3747672511484260
  0.7279061799484680  0.3556951270393269  0.6688057807742053
  0.6674192526697097  0.3646178505041225  0.6438461315935955
  0.7325380596029623  0.3409479538310603  0.5016044891184155
  0.6795934886612086  0.3149275872240850  0.6021892843766962
  0.9871539460803105  0.6093089271470807  0.9681635077917849
  0.8620997130450887  0.9751195081612003  0.3922965511731967
  0.9329983016313745  0.5632237902834349  0.8996895779704076
  0.3212504400236996  0.8549127386504798  0.4788048644588810
  0.8997325793563132  0.5306807878343595  0.8034687468071282
  0.2656872831677083  0.8208245583527338  0.4712954164604914
  0.3591752437141805  0.6744302300453976  0.4258182869953975
  0.8840326151176083  0.4217898680061909  0.8220917547668295
  0.2629740899054927  0.7979430503786226  0.3605125520109607
  0.3581794708634064  0.6900735385966069  0.3642312684644283
  0.6306574565530122  0.1527042061770066  0.6657631092459837
  0.6185142892074506  0.1648966456643531  0.5989218100976289
  0.7050256530446630  0.0019816387772986  0.8929833079716920
  0.4033886304322135  0.5983085615491056  0.4075272414166095
  0.3929644353481744  0.4892998069788344  0.3805752432394411
  0.6517547050856539  0.0499256348080042  0.9197799925972809
  0.6887795381031488  0.0567647623330409  0.8739122282249187
  0.6145435273453931  0.0761077782793628  0.7890187331627780
  0.4950862996566269  0.4431065338124298  0.3726255292026530
  0.6243182475385312  0.0309981020435999  0.7450080247106565
  0.7249921886206798  0.1940320859440009  0.9629127081195706
  0.6637624883304378  0.0379067029245720  0.9867895288114944
  0.6437332175245106  0.1715207530020267  0.8349265548322968
  0.7912073658270359  0.0969825411653354  0.8964311886852554
  0.6938152075871533  0.1751978365775865  0.7958566031650395
  0.7143472413443936  0.1184485796054184  0.8125568344516718
  0.6036058357275124  0.0904565268169966  0.7257911851456931
  0.6519141887318520  0.0958267992017930  0.6848537027408800
  0.6711335296473254  0.0924364981037953  0.2708606399363249
  0.5479580470884476  0.0557755024532462  0.6600175851764666
  0.4560728130099164  0.9726832083069051  0.6029872935632926
  0.4936147068723420 -0.0088250475246505  0.5450736060617708
  0.6400054919412823  0.3373451572948469  0.2892690415461440
  0.7073324134561036 -0.0326799835799439  0.9722448389695010
  0.2697726729772136  0.8857199839515623  0.4558664259169292
  0.3099842248073132  0.7208076554191215  0.3401599513993653
  0.8949843102369830  0.4101777859386104  0.8845477604215231
  0.1552405314623636  0.7821121395096160  0.3857099051199646
  0.4795494277072955  0.3042479701363227  0.2467594181146350
  0.6102489483506947  0.1197575130439574  0.5463198411438804
  0.2120029429363748  0.8278301595051576  0.3335319024741555
  0.5797973892704508  0.1139959740246385  0.5965404241672589
  0.4023681774305644  0.5808651920730656  0.2411187284669973
  0.6833435290788983  0.2183088115849882  0.4595093502660346
  0.3457622071616238  0.5345265887075904  0.2952111744564401
  0.8805502702758329  0.6630593270264855  0.6203655871935904
  0.3493409732629087  0.5816073632554732  0.3379143980794896
  0.2198584086146936  0.9052526579646581  0.4872463786044200
  0.8217130586505759  0.2440744103416722  0.6645865697056000
  0.2147133445988338  0.8576865469794671  0.4432192013286163
  0.7006785240420886  0.2580167525283344  0.6215938816925103
  0.8245608889477199  0.6665091780697379  0.5925337594304760
  0.6578814517389866  0.2132693185045678  0.6128400614517874
  0.8438117206855908  0.5026832471932788  0.6750484866338626
  0.6626269187737739  0.1556520531843088  0.5528065606903451
  0.8914116765037918  0.5413778258821919  0.7413195079446570
  0.5357578497454555  0.3354004770999051  0.2542094589359954
  0.9484921820684977  0.8348863263812422  0.5278870464233101
  0.1618050603684834  0.8425255845870046  0.3700213659126271
  0.6109695959045566  0.5512506000654436  0.2054412707708708
  0.6602841082604194  0.5204096444625409  0.2322643588327832
  0.5730593301348869  0.1558214282110318  0.4428023171439601
  0.9148261085103101  0.1645880604044544  0.7616003933061535
  0.0305638341237287  0.5340108070748274  0.1877948500722108
  0.8031765047416922  0.1369005588364030  0.6716393379310532
  0.5247119992988512  0.1661850715663116  0.4787488970720751
  1.0023278428603413  0.2549424915278265  0.8333943682162228
  0.4896229128881235  0.2880798247773270  0.8233788570097463
  0.9356817400402095  0.1069038831062254  0.7792345816833525
  0.2824885071786605  0.4119240533386658  0.2021169054890908
  0.8235001236851248  0.0787395368857649  0.6889915798871482
  0.5263732607853525  0.2280295259249702  0.4591898327610153
  0.7093521156778362  0.0748253783525853  0.5316402849910268
  0.3270046205732785  0.3489443651336572  0.3553161468653378
  0.2413504472804440  0.3576076889336391  0.0133626871611945
  0.0447979781542644  0.7191130303078028  0.3650948730837631
  0.6364136350476906  0.2274123995578708  0.4960025248230385
  0.2303905513597488  0.4405004424222104  0.4021024531957288
  0.8516683601120497  0.1390708474584835  0.6355209847551182
  0.2874446184947625  0.4740923682116535  0.4088241873087629
  0.1891832818916870  0.4856285603929683  0.0832170777147048
  0.4283410815502203  0.2644132958793334  0.6966381840738608
  0.4151977967453376  0.2013020672907634  0.0854832006342028
  0.6599285740114191  0.6963832768372304  0.8363708853869237
  0.1374026216992957  0.5667369160708776  0.3308620349639054
  0.6093393795347954  0.6926695108487998  0.8799048568321554
  0.9481984663395049  0.0968525517916327  0.8427597429021676
  0.1832569737885404  0.4886648730803068  0.3136849231458330
  0.4112500374293031  0.1580444605391168  0.0414331768231965
  0.2971040540388109  0.5806453658651713  0.4346121908702408
  0.4567765851463704  0.0772208557460465  0.0209308608778754
  0.1901756340542344  0.5818887624110474  0.4021164825228662
  0.9339819757942838  0.6778148145778290  0.5125957539582345
  0.0883796253887142  0.6273028101733276  0.4096193271424432
  0.7727133185530244  0.0547214597198535  0.9617474853100807
  0.0902661570381132  0.6755768245046068  0.4582199134404335
  0.8303355748273223  0.1515086056182443  0.9604534934206549
  1.0008443340008681  0.7820144879222825  0.4450159843899404
  0.3721436875504081  0.2759067530093970  0.1083296534838399
  0.0540250364510016  0.8077704596272922  0.4615753656590406
  0.9535958989985451  0.5005683835390226  0.5461188842614714
  0.2640583669205020  0.2428510102740614  0.1959831206423680
  0.8685137391883682 -0.0454076000607367  0.9790139458886473
  0.0575595563957246  0.8418417793152241  0.5087706242676624
  0.9834880905862113  0.0763283878722352  0.9749791861068683
  0.0088200991536074  0.8882565880608951  0.4771980257267573
  0.0086549739334025  0.0896635076063137  0.8665677579200017
  0.3121731881631571  0.1939357239239489  0.2857234906850109
  0.5166026366611873  0.6895950498746238  0.3033515937629414
  0.6129632809374742  0.6594253742078617  0.7791303472512181
  0.4698769557644489  0.7500472699252491  0.3861877042597933
  0.3382214802031782  0.4480187360074131  0.4288115068999519
  0.3671305518947277  0.2094166503240742  0.3551796008872178
  0.3701549283994995  0.2539362165613292  0.3996606541215285
  0.5154614043105955  0.0959572311669476  0.3309857569041532
  0.1906449724991262  0.0454923150074326  0.4076484043841062
  0.5739070659274735  0.1850711298473112  0.3170211953157412
  0.5270453774361997  0.2591593413844001  0.3346009312346931
  0.0495991128796800  0.1845933639014836  0.3722733271988033
  0.1036236611000457  0.1529869826793311  0.3997434376756279
  0.1367879790767456  0.0357159319011252  0.3433200697639284
  0.4826051990958940  0.3344254678675662  0.3528042082378424
  0.4858237821999835  0.3777668296014290  0.3947991916094938
  0.4826803671275855  0.3038911067179603  0.4803775030038248
  0.1180816048811693  0.3505696316559636  0.2820808797032461
  0.2929804108703457  0.5163975574587226  0.4526798389159777
  0.0258716486809067  0.4737010854137029  0.2064893465501244
  0.2024457202309722  0.6729310482566432  0.4904564234748183
  0.6535174702265477  0.0082691534479471  0.4196851263199587
  0.3600908235617517  0.1355204999511755  0.2018461204135203
  0.6018718883556271  0.0256911200520343  0.4551564312852470
  0.5514169514889899  0.0564710591668966  0.4300206019977607
  0.4010755225554666  0.0133594185404918  0.1362293341437764
  0.1303107480529290  0.4597876953974538  0.3040475240198123
  0.9559517678505300  0.4298153087511847  0.4877944441136067
  1.0284533603281745  0.0049780641045974  0.1973423326742173
  0.3000550484892328  0.0781001785450555  0.0850308750482555
  0.6840376846720986  0.7562326007800357  0.7760195954514116
  0.8451468796072534  0.2939865476004150  0.3225485117407175
  0.1941753993026103  0.0494483981461809  0.9449784080032053
  0.7275755242149077  0.6713629080116289  0.4327216467879232
  0.7052925686827903  0.0028270743948220  0.6140124889243180
  0.6786082766264085  0.6848590457587058  0.4671253697638467
  0.4304970420502346  0.8392165570748639  0.5745857253540377
  0.5409297837224579  0.9301935455267026  0.4702118551833193
  0.9650756427137165  0.4480804392117854  0.4318398545391753
  0.6485353165632259  0.9643527833397133  0.6055575891464724
  0.4088537804170304  0.3212573568984501  0.6797622223183004
  0.6108520459266281  0.1391858799799790  0.4862650826245626
  0.4783389846328178  0.2424942614870534  0.4918612898745158
  0.4395708808699758  0.4432857076984947  0.4623831489941113
  0.0339987174271242  0.5170498155591856  0.0230284680168178
  0.3098979257441792  0.1836373630352643  0.1157532009963647
  0.2588937503994594  0.1817274475381592  0.2133438287276630
  0.2564130583174466  0.1716123282012583  0.0409456090865218
  0.1992708044032522  0.1223986581482169  0.0971633876706390
  0.3045420427274830  0.1218378805451639  0.1302727526811424
  0.2492204307460452  0.0922398235586076  0.1233736798814926
  0.3498134980206298  0.0454359957670271  0.1105333113753114
  0.0710563687715413  0.5206494282750260  0.8103357561216080
  0.5977810815115701  0.9801354978339194  0.4137167365765388
  0.8945374542879642  0.8129091946358902  0.2839682289520345
  0.8118977302074161  0.9521615350051430  0.0749569888326040
  0.9410356735166107  0.1819785201524805  0.1028639749174911
  0.4180758655202497  0.8032562308394339  0.0709889185575545
  0.1277414859350970  0.8104602364781351  0.9193768500847502
  0.4169151801803238  0.7853534530997655  0.1305565386001417
  0.0041670612090286  0.8564189267813860  0.1349644529357079
  0.8392098153590938  0.2274235072026859  0.1094768988895260
  0.3704511137360976  0.4847538353151731  0.9190263559942400
  0.0400014133776268  0.6245773069776415  0.0492193659425787
  0.9367605993584657  0.6580537478108696  0.1149366686640775
  0.0249441803937941  0.9451197190481804  0.9794798843336314
  0.1050380097575888  0.8372170675061421  0.8000750943711498
  0.3427075023887706  0.9676014201817125  0.1905511230452418
  0.7867160812833761  0.7795887309756613  0.1377629561950667
  0.8499441583533599  0.8863125265501279  0.0691348219741810
 -0.0048055331714481  0.7457963676206455  0.1120300731167585
  0.4384700202904631  0.5677123151989220  0.7597700237312177
  0.4490004871212885  0.5541600288984486  0.8234956276917468
  0.2276675305473143  0.8435223790696782  0.9632567463898880
  0.4600464927642046  0.5411533747700888  0.8841005760832320
  0.8797313695497352  0.0914097065037802  0.1088472403377800
  0.3067931784156345  0.5090604803750712  0.5124100555883260
  0.8847483251162799  0.1523873084784916  0.0916908982099306
  0.9564929613602914  0.9189340552471796  0.2122261145784701
  0.9398464876451164  0.7187288500622495  0.0959885851290387
  0.0835520799673283  0.1221070829537976  0.6583503834054226
  0.8490588337410805  0.9070055931045501  0.2417029426571852
  0.0939184024862808  0.6555808853628801  0.0581860821705859
  0.0958533481628241  0.7422388882103299  0.9788419112019996
  0.1621496774859912  0.3548399278688136  0.5339509140844441
  0.3909503230286540  0.5307364656590063  0.6948866342880520
  0.5187274807315533  0.7363853706825867  0.1202754544758302
  0.8647290528925964  0.8951146930294553 -0.0041288414696270
  0.8298835719381067  0.1345063197118742  0.0206416761082274
  0.9810784930082822  0.0458970560811419  0.1037451801706959
  0.2184504750420838  0.3843037004380587  0.6600712427805651
  0.3593911005328280  0.6066978222044467  0.6164207331782809
  0.2349229619095219  0.9549933732761980  0.9936095835948042
  0.8575937846202174  0.9335142615307808  0.1101575234483699
  0.2987361941429928  0.3206336126737829  0.6996269910961482
  0.2335252084563016  0.9669407654509169  0.9329787851384942
  0.3326402269717578  0.8758061042498047  0.1022997004863379
  0.8376202094716940  0.7653323502830167  0.1039203277559934
  0.2855151224629900  0.9253228591487257  0.0166354480910146
  0.9921675863221943  0.1524950763625986  0.1299133189265680
  0.3699376782333509  0.5661204117214332  0.5763135419633446
  0.9010581832381901  0.8891747657511045  0.2053671437005803
  0.1541794955518959  0.8741803431876786  0.8690586114053479
  0.4724598778229795  0.7981410550690529  0.2007543960742434
  0.2055925724464117  0.3251053445272100  0.9621479474056188
  0.8744447610867934  0.5181617964862656  0.0774942288267136
  0.8190728896487389  0.4984571317620266  0.0061422039097917
  0.8681845664455600  0.4547308226849558  0.0939551888511185
  0.1500563507447096  0.3041198483911819  0.8193962240580235
  0.7767595021381236  0.6452330645844575  1.0019430162477965
  0.9517466777524983  0.3052762129184915  0.0689933833869176
  0.3933837601292554  0.9793796964570640  0.5816566268927805
  0.9743708514047155  0.1232336045388622  0.6762367207365472
  0.9022562476043523  0.3188254963287621  0.1017249634683044
  0.7988181349012240  0.3186290356875328  0.0592467339238320
  0.5772492024840435  0.8454256223372690  0.0513923056864242
  0.6786890757351651  0.7953992091386501  0.0418520496915095
 -0.0109940348320552  0.1229398031829303  0.0220048214434908
  0.0874450641675580  0.3412795417542921  0.9041973573781367
  0.6635618358025244  0.8067748808059871 -0.0208701687721226
  0.4471886164116108  0.9371272334329128  0.1146475811682017
  0.1973778913202530  0.4933187091517883  0.9112625963774051
  0.1606737718384061  0.4426763156602707  0.9121071540998709
  0.1021369237959472  0.4495920244240473  0.8907637550183564
  0.8195322761258608  0.5195162884900903  0.1732503281674590
  0.1345613494739062  0.0751440844110260  0.9151513988771619
  0.1247104301801889  0.2408316943301556  0.8743462303097403
  0.2798672637133298  0.4299537419123452  0.9557834311931441
  0.5026521361843230  0.5833144852942823  0.9830407154160778
  0.1257170003167191  0.3918512318277487  0.9101850663893113
  0.8087859734474235  0.9390005366392584  0.1451935206112362
  0.9739222114421485  0.0251202025180139  0.9279954296263828
  0.0547592074615080  0.3183677721129073  0.5075489272864963
  0.5390608599116967  0.7125850762699836  0.8010982859344039
  0.8415169081662922  0.8253223803628522  0.0881376152410348
  0.5021354516738870  0.6616714682889474  0.8023441356156261
  0.8899636787162614  0.8089654969177500  0.0545154037844138
  0.0767864506991991  0.7729704847112151  0.8536438535187942
  0.0670865961131334  0.7866492586986722  0.7942021154853961
  0.4419496652029135  0.6684867731949948  0.7804783952045129
  0.1153110307006310  0.3025891321430093  0.5279194539507924
  0.2776199016390113  0.3771645337101853  0.6822141562941498