Cr H  Ni
 1.0000000000000000
    38.7642358654787174    0.0000000000000000    0.0000000000000000
     0.0000000000000000   38.7642358654787174    0.0000000000000000
     0.0000000000000000    0.0000000000000000   38.7642358654787174
 Cr  H   Ni 
 1596 213 3725
Direct
 -0.0046088920070161  0.8241943077538016  0.0366028383810204
  0.4913764986893899  0.6640534342104181  0.5732496726231590
  0.7366014413750719  0.7964200751160126  0.8397120161891344
  0.5646315019227387  0.6290233378289392  0.4520046944835979
  0.7798204434062406  0.6810335249517652  0.8795242581742941
  0.7134310767156004  0.7178253101016099  0.7396993177429197
  0.4369086168076589  0.2190850485257183  0.6520843061774735
  0.6880734374432494  0.2760075084914217  0.2107647828279364
  0.5982563439688119  0.2855316541973131  0.8053481741346359
  0.6461857175464218  0.3216695655986445  0.8753659439519251
  0.5711920691687964  0.2217344104284629  0.8615966761172652
  0.6538354081780575  0.3076956176335908  0.9385483642909584
  0.6728833931521974  0.4155345458358795  0.9221368556721857
  0.3360858188348829  0.0257896599231460  0.4929973740390068
  0.3506328111300810  0.1598922933847984  0.6879870921028638
  0.4211532193411979  0.1093740685322732  0.6637965428261018
  0.4985869657144932  0.2117778655840240  0.6734577502971131
  0.5067373387058308  0.5658805747613529  0.3361680994595954
  0.4630616501991863  0.6589090130819668  0.2929557172525528
  0.5216247332667034  0.1838301582983878  0.7955398162598259
  0.4657948157864302  0.2830256231810992  0.5948048853133956
  0.4952997555546730  0.1209924254168216  0.8517070884997797
  0.7004184242236815  0.5810577709408300  0.6201256965069463
  0.7139985362669712  0.6843822780076306  0.6374665221700657
  0.4779680419037443  0.0145638938302329  0.8718391610511791
  0.8014005922146996  0.9194472263810107  0.5116270229678325
  0.9113030789711052  0.9858862567049617  0.5237880432210558
  0.8159309885657774  0.0911460515331438  0.5043392644659578
  0.4297459231290579  0.9044412179716931  0.3264202783384621
  0.5596150494461400  0.5817264356481954  0.4074381824360451
  0.4148831992525511  0.7195699145157221  0.3733336050305860
  0.5099668299274833  0.1975379777260208  0.7339707544530297
  0.3671087813587375  0.7673906458512911  0.2879425824987093
  0.3133385242512729  0.7525208335569794  0.2177766553342323
  0.6191467359565943  0.3301556209242290  0.5803840852364003
  0.5061849030360204  0.3333425583979630  0.5982406195360661
  0.2641666738464471  0.8126288190990861  0.2984529347018842
  0.6259010679602484  0.3482137516661121  0.7498321614589990
  0.5567682578180341  0.3698904396648095  0.6645713556035783
  0.2175454308308469  0.8715132418261501  0.3806592263920811
  0.2731754021327071  0.9221272233411170  0.3288803236680848
  0.6837326095809948  0.3708207135509339  0.8783935853323960
  0.7131833244207866  0.4339061412104560  0.8183613883554994
  0.8237472897354770  0.0456879452536707  0.1644429505351383
  0.6582391919393484  0.4608777727709240  0.9615575980764992
  0.6455167100395578  0.3834149730087811  0.3313487770055148
  0.8268700011525176  0.8745129523308167  0.5883099253237651
  0.8562580822400380  0.9411036223543646  0.5811997490047082
  0.7501488402733031  0.8806219641939812  0.5619222029998961
  0.1936164692276515  0.1538493099499932  0.7481531760176549
  0.2177458915027239  0.1308368015016275  0.8737245779551417
  0.3048394943643763  0.1632214442188733  0.9486326368572082
  0.2915063293154291  0.2328412201455124  0.8759681479584633
  0.3422307241345766  0.2686796034781391  0.9434437871006698
  0.2356739080769057  0.0420075620271181  0.7852729659012878
  0.4366510818544908  0.3838864985328240  0.6230517860378004
  0.6483440485724419  0.7063067201970227  0.7761357256986898
  0.6048519439450627  0.6905452917882725  0.6584702406684967
  0.5821586721794714  0.7974062676171341  0.4626048702654505
  0.1425779271574554  0.1167479356194201  0.6824894426129345
  0.4463092072445909  0.1151124545580523  0.8952646359811520
  0.2102091763467556  0.8099633495830055  0.1645881488066767
  0.2562373030804541  0.6582891168413587  0.9970347807706209
  0.5799450857747698  0.0593791659449438  0.8928514772301054
  0.2641472096651802  0.8281693418916113  0.2371365045654083
  0.2582984906368982  0.7657020981704332  0.0215180170559052
  0.4611645135354686  0.5098775594582160  0.7782725627326230
  0.2033074031969200  0.1100849353093121  0.7048286024151520
  0.2013868938535648  0.0871397072433455  0.4493733148882781
  0.6961695073202957  0.0107266738306279  0.8276645067003947
  0.5562630672853787  0.5039425169085163  0.0286594921231048
  0.8983664160787950  0.3101128792122074  0.3939879412438201
  0.6132500107544259  0.6126631256316463  0.4152574143263687
  0.6810894750809400  0.6211475000624803  0.6963085937431911
  0.1394859088049073  1.0151382359936814  0.6649045642122339
  0.6733935423739533  0.6657843334791865  0.7378521658867954
  0.1430857289661522  0.6111844477356922  0.1456838070037435
  0.7067535249100293  0.7321124415703351  0.6803220307096091
  0.9093485961361695  0.7549058198282039  0.7405811023968447
  0.1693043126186105  0.9137673846641158  0.2860838000814612
  0.7414150689590201  0.2937335213125706  0.2844224741439940
  0.4198991820710958  0.7972989224379625  0.2970340641113980
  0.8059838730664509  0.6742007335177874  0.5250252198922390
  0.3881601024896615  0.5047325241102231  0.5889058651203348
  0.7406474070434359  0.9120190286945923  0.7680570665480626
  0.6645979041329644  0.8487313085824313  0.8667502827444100
  0.6607766403933970  0.9773479827273666  0.7270695685253984
  0.4800141445004902  0.8558904164436646  0.4136221456439875
  0.2439080572957162  0.1939799864547340  0.8136345515555542
  0.3526480231117516  0.1919778676938405  0.7942939854390377
  0.5359693577059020  0.8717415685663683  0.4841085194114694
  0.5851027717709052  0.8582585733919137  0.4481231020170329
  0.9959183574833943  0.1544880480367956  0.3602547075163055
  0.3541768962022477  0.3674075861816862  1.0035490236279347
  0.2092011392788931  0.9649300943752449  0.6418233999106671
  0.9994982757264363  0.2020215112707574  0.4025774593420492
  0.2142650432764873  0.0989799197750351  0.7665034587203138
  0.1948522303898454  0.0477800591215124  0.9460077250584101
  0.7286761851988857  0.6687412505593682  0.4342932060708934
  0.5760694112181659  0.5558290966125919  0.5294612262353987
  0.9855538023593327  0.9638622511042028  0.6771013162316943
  0.0209065075343368  0.8986519125829334  0.7604559548945843
  0.4727782425109270  0.7318729183233079  0.4464515772217094
  0.6987029189111410  0.7453495174513175  0.6223218253234677
  0.8018162837398519  0.7709407675096661  0.6061600890913269
  0.5765011370947345  0.7661399937028897  0.3562849030581976
  0.7791630150944384  0.8777215221831660  0.6272835855249779
  0.3271992341617754  0.8981290942023279  0.5246110803411673
  0.8353901800434639  0.9153921691066310  0.6928793762505451
  0.3829913484865753  0.9489670427135407  0.4707993476968026
  0.8353318610620589  0.1020595569369685  0.8613793275080539
  0.4123144578426292  0.0812101823812587  0.5539326341194258
  0.9651372400797528  0.9866941940446138  0.8935751966862926
  0.9753359354905351  0.0050524413034393  0.2958018938813316
  0.0318361865228389  1.0060197580831105  0.9618897037730891
  0.9271588534192310  0.0659291961167311  0.3729430875080682
  0.8812993060214760  0.0938482462513511  0.3439980796763609
  0.6589381309020718  0.6447609429537292  0.5749871735719003
  0.8914793819157317  0.2022931103840711  0.3657999801859370
  0.8356746215130058  0.1723821053592056  0.3562862105153386
  0.6364934024917540  0.0180924906699791  0.8077474377607675
  0.8838545950116459  0.9195266112561863  0.6535538633010614
  0.5145820288651183  0.1252760797852947  0.9735707082454195
  0.4877531245965062  0.8269781052318200  0.9864194685517961
  0.7666960791966363  0.7208984368151884  0.6999854158772494
  0.8829447645992784  0.8421157772885384  0.8326768530703835
  0.7000076774389261  0.3994193279069113  0.4044981235405029
  0.5613723435844749  0.5687434308946429  0.4678380080552083
  0.7812052982012058  0.7561266870506996  0.0285083612443482
  0.5825360663438284  0.3076217205195081  0.5132936285098693
  0.4109690171237781  0.2461969213047659  0.5269199670510996
  0.4180135191085702  0.0071568618826186  0.6428531887635112
  0.4419224252716488  0.0525767727107015  0.6817675725525230
  0.4445403035443358  0.3801067099149656  0.0351551486265748
  0.4928938539440457  0.2993135387670344 -0.0039955530923174
  0.5140241920970080  0.0338040840494433  0.7650851840968630
  0.5500856259515954  0.3783494055521199  0.0645711258114637
  0.5056582704605351  0.0749740597948300  0.8106120690551831
  0.4055468464449397  0.3459476876240779  0.0089933268314898
  0.3913266783193760  0.3909464423707947  0.0632547099851879
  0.3481125112440369  0.5501119140203740  0.2334910434949163
  0.6083269831938880  0.0151311212876936  0.9751533456346364
  0.5823667640602495  0.2032346528406032  0.9296867244127588
  0.3985222642306193  0.5014767615277222  0.0934134895457389
  0.5277901099236393  0.0187072322525406  0.8298990639265026
  0.7567708188745399  0.7666776366381181  0.7422656176885321
  0.5125087897855948  0.9656027069224682  0.8533220303654878
  0.4280410273466095  0.7934724678533200  0.5259095703057344
  0.7076756526168970  0.4613636053102279  0.3826233875923572
  0.6714148130475870  0.2316655206054559  0.7831418980549252
  0.4967155125379999  1.0082376288066301  0.9363645359037781
  0.1307456070428731  0.0599675870805505  0.5215068456869600
  0.9676981542777258  0.9793132380012085  0.4270946951719916
  0.9385506433862841  0.9240309403186865  0.6097343580727648
  0.0401575306692512  1.0308076015992804  0.6023936609712868
  0.9647981764542077  0.9669719632559030  0.4888684074487665
  0.9791570590710416  0.9709346511778724  0.6118522633726424
  0.8416348063316463  0.8252372352119169  0.5463882379923639
  0.9042878391507005  0.8156446745094981  0.6308927323754270
  0.9629473815992522  0.8063561347352013  0.6533905284576174
  0.4771039577286611  0.0003158225717768  0.6604975738476592
  0.9510443737746936  0.8657710668343790  0.6324177057832802
  0.5664505637296130  0.2451861152914672  0.9611822195474293
  0.5199564263279861  0.2351335794863910  0.0031475333096055
  0.3970313269020811  0.2589945722513470  0.9616403148159455
  0.4138889345588038  0.0231595158069478  0.5762441837471033
  0.4825089915727160  0.1826715703011404  0.5108763176819016
  0.3488559618393449  0.1306502693503224  0.5808564918390912
  0.2947046596191878  0.5006461431279694  0.0581920597364204
  0.5202539449644039  0.1539699935023804  0.6886422394418648
  0.9385397508183054  0.0272569882784499  0.6289471163370229
  0.3510722307404526  0.5805879422705875  0.1100583967225291
  0.6496367526732680  0.0255909760491011  0.5900024532566788
  0.5176541752873409  0.1214344761482444  0.5783179273359694
  0.5592735196778327  0.2037718900943016  0.6938393389700425
  0.7084219882114404  0.2803119851476437  0.7896747821060036
  0.2476949492732456  0.5802487285394029  0.0757065263937094
  0.1930464939266640  0.5488734869229051  0.0674574284657719
  0.1511950406260068  0.7493103743139051  0.0507389018100816
  0.8686257668337033  0.4949824201727823  0.9686726077014354
  0.1026537804725271  0.7628756354603115  0.0836410345717513
  0.4739956058911685  0.0666862591968009  0.5755247170787076
  0.1215368583159799  0.8773607761906224  1.0365979197370929
  0.0340596478253813  0.0326420223814882  0.0687189535298711
  0.5009819250066404  0.0584794109005849  0.5293674041656357
  0.4800699794274418  0.1034318688637015  0.6836060304649123
  0.6079340707569677  0.0486557009924859  0.6861691482234440
  0.5816019594520291  0.1475643066249822  0.7096669577919565
  0.6136331242182129  0.0755321734225623  0.9559327493329194
  0.7192922574590258  0.0467211548904747  0.1257097421303029
  0.5830696526533410  0.1778391649433510  0.8173350498349126
  0.5725103485638048  0.1827536322700013  0.0867387414588124
  0.7763434349395416  0.1227475562343871  0.9483210437707909
  0.6230743501622193  0.1820676493678146  0.9925063662581558
  0.5305675020725614  0.2162304525180172  0.5214863983618533
  0.5974070950453026  0.2535540909793909  0.6999837870335066
  0.6818298609415786  0.6831541179629860  0.4683921947174271
  0.3774281490250108  0.8702264790889880  0.5490996500843831
  0.5404297092888523  0.9319595065544227  0.4677921492543308
  0.9113910452036297  0.4646700605780783  0.4648427607617502
  0.9147474982455481  0.8529742306681719  0.7350583687649752
  0.7209599968116642  0.0609797238279564  0.0613423666443864
  0.7159031978159892 -0.0007055507927878  0.0823924411594776
  0.9685241020455363  0.9280555315001222  0.9085833449172649
  0.6508694980514568  0.6440430383362813  0.5104076588639150
  0.7035849159279073  0.6555815038136092  0.5297783435360792
  0.6334890125848756  0.2761059498785582  0.0778403319445162
  0.4913573133429683  0.3822795712628659  0.1644737661551779
  0.7649366347141364  0.5728451440312236  0.9004467499832839
  0.3568813781244169  0.6582597392646989  0.2590035587278100
  0.4433206676528843  0.4111958764779372  0.1387240656732502
  0.4981972976926201  0.5590827060957658  0.7799677692407840
  0.6621439551721560  0.5503846065894185  0.3354916594198274
  0.4855720476033242  0.5848417599757272  0.9188165995118801
  0.5338407603190337  0.5229112767000540  0.9639901261819740
  0.5713337601819479  0.7051238083376441  0.3719455362363894
  0.3840827351560501  0.4083010295726341  0.7698355724616966
  0.4336808405347095  0.9498276551514823  0.3715256877750742
  0.4423687522423411  0.4341769218578436  0.8965404796766182
  0.5489052673502528  0.4630484991398481  0.9818073318024959
  0.1394065283977340  0.2804634578250805  0.6537575265810017
  0.8548430019233456  0.8100273745607880  0.6722972650048151
  0.5880244994922711  0.6286713666891253  0.9461220764294327
  0.9286610280511947  0.0464260143487551  0.2010332748967306
  0.7004854018106870  0.4782829778552093  0.8596040958450865
  0.7302698089215457  0.5406816585006885  0.7999471334423688
  0.1310534572097252 -0.0104905196078104  0.3004179043243284
  0.8208016049400870  0.0143013928204556  0.0563818885682470
  0.6131650453252815  0.4988978772348430  0.5592521214323867
  0.6841825810678019  0.4720358489929732  0.6344508964027620
  0.7907709625861170  0.6138930232568599  0.6743402503767435
  0.6785172992018133  0.1815503508864654  0.1235803223361886
  0.7574857538726866  0.5841407030726178  0.8392642017587597
  0.8150644254386566  0.5768176714156538  0.8586927150080638
  0.6302506293604696  0.2307580713581187  0.2642710521592190
  0.9269037597879690  0.8807360851273213  0.8979874071256208
  0.5405259296677712  0.3818049266806468  0.2951606696440988
  0.5955704450038576  0.3820466954251985  0.1986160857402290
  0.5371879013973048  0.3944493601542266  0.5320455104095871
  0.5997789241923286  0.3965690628949815  0.1337521797815877
  0.5077329374512215  0.5815331369338574  0.2745934151067501
  0.6158278535215008  0.3908366682792778  0.7928083268582859
  0.7957945630755718  0.4642837577617343  0.6188884702523291
  0.4548331874094876  0.5661519861405669  0.2050438936564210
  0.6433825146557174  0.4543596019346120  0.7356855501787377
  0.4109109297931300  0.6739293376543410  0.3301117843558946
  0.9570506645552428  0.7902870862507301  0.8091759233657064
  0.4677922639074854  0.7195736849411360  0.2777923904877765
  0.8070300162459205  0.7434955570983748  0.8140048739738717
  0.8174904549397541  0.4964924981315739  0.0060309689524565
  0.3539199607343375  0.6125978758917683  0.2157259400817006
  0.8388380929202790  0.6504971691478424  0.7339599046260750
  0.3587068610814692  0.6739081526905031  0.1986678607455307
  0.2061592071472889  0.7347060625453565  0.2438208778973701
  0.9663811127410348  0.7772563217926688  0.8671651700215632
  0.0464911854554422  0.8729033160287426  0.8834446309370647
  0.6136945719520074  0.5375222937192750  0.4986561924124217
  0.4514965910694180  0.5200700785151611  0.1624273814486281
  0.7353378148922697  0.5953109629667024  0.5193002705139169
  0.2931274955439095  0.5325816847635857  0.1632609856327033
  0.7935957664833867  0.7969355307911027  0.7818732371955600
  0.3262527705071340  0.3828968783342154  0.6411913777156502
  0.4241487680914560  0.4288995774986729  0.6698672740208047
  0.8034467361972837  0.3849243939760850  0.2742772662092181
  0.4127408517739207  0.4719686941859849  0.7119988557201251
  0.8329809242222694  0.4174277918119907  0.8602436857250257
  0.4372653914273152  0.3494283078354299  0.5089630731876557
  0.5858338867255797  0.4312925678409014  0.6117146645218011
  0.8388441175401831  0.2139907506937279  0.1726793253292403
  0.2799409326136544  0.3431704444305998  0.5757653041308231
  0.3383543000974231  0.3394067568600949  0.5968264383467208
  0.7548880467934898  0.4138111057108486  0.2440611659161291
  0.6183095893842196  0.5434466893556790  0.8214806280153768
  0.9356869618420642  0.7582069788544380  0.9688747886757195
  0.7888822900045463  0.2461334292988111  0.9272402672547289
  0.8438783972558658  0.6612379057822796  0.9604323905595158
  0.8928337302226583  0.2297983374036358  0.2448480767860133
  0.8771996365926377  0.7241762380417535  0.9010017901011999
  0.6593411815224341  0.5049008519399184  0.2921827626458058
  0.1567213209191874  0.7791624053277788  0.1563855471798751
  0.6050380358292106  0.5718189517676217  0.9617855440465504
  0.2101348378647398  0.7955511027524790  0.2269643954630728
  0.6131859794990306  0.5811288146942831  0.3096772192441574
  0.8816256474895646  0.6894968305207707  0.7970561156877924
  0.6737845090209078  0.6747459272289752  0.3010064716026752
 -0.0004900877376296  0.8083579288744879  0.0954927412391281
  0.3469099293047103  0.3257255056950172  0.6593149352646555
  0.9086529089274646  0.7732728354450590  0.5878385813858852
  0.5366538448284114  0.9045536057792866  0.3600495570801930
  0.7631160683659173  0.6866439839753878  0.5968568737159575
  0.4938073073142890  0.4068479726656160  0.7503596908245965
  0.1638870530702856  0.8712552185500917  0.2427749451424980
  0.9902471233370994  0.1227471261650109  0.2556195264136528
  0.1210650208445788  0.9153497477919134  0.1491887677959526
  0.9430620624622121  0.1853916796483700  0.3326720571064040
  0.1285170646443152  0.9573580614058984  0.1911340206603770
  0.7040816169796069  0.4297607308112609  0.2772763323917520
  0.5256376018555758  0.7596299932848443  0.6194783674741672
  0.6260615729376527  0.8004186846586187  0.6360330267657195
  0.3678642436514721  0.2103876945744909  0.3528192288483568
  0.6493882840183819  0.6232861244229559  0.9670293508179405
  0.3206268950646626  0.2716770629148636  0.4368877407135119
  0.3761924254181520  0.8923302616502534  0.2576490895908652
  0.5150899999206324  0.0967033489609920  0.3314834870901597
  0.6478756498380235  0.3982943067246693  0.2668070882027633
  0.1890273805044960  0.0490850223844440  0.4090002816520810
  0.3553787541294204  0.5912305338579813  0.5110150030244093
  0.5745799712141523  0.1861152284148367  0.3159605194161435
  0.4787587616654041  0.5588666838386080  0.5550486207841679
  0.5270870383490105  0.2600781334835846  0.3340836627434207
  0.7090614281266933  0.4258885454971972  0.0485033770688697
  0.0506769919419377  0.1865957770414613  0.3700818491304411
  0.6081886403782730  0.5201798091334313  0.3271314159278311
  0.1037298441976655  0.1544839856633125  0.3988069098064944
  0.5767408684572217  0.6092249648119252  0.7789421450612999
  0.1375009410254572  0.0353466255155138  0.3437232169459627
  0.6235901356379996  0.6457081793920524  0.8425080414167352
  0.4825522391328320  0.3353401974510928  0.3514240106983761
  0.5986239256706490  0.7038684330757179  0.8192560672342404
  0.4858451882823857  0.3813334323824775  0.3954314619564316
  0.6679705399542236  0.6845270239632018  0.8976319415534222
  0.3638381507034601  0.7535585679798725  0.1223021919218734
  0.4809425561856098  0.3059400323710931  0.4791772635174797
  0.6230755041231787  0.8457734174178617  0.6844502430933005
  0.9505841788069912  0.2639540466030840  0.4819243591223618
  0.1173032628608928  0.3506175692941325  0.2828190681112110
  0.8499469845656488  0.3750966609246755  0.4759746887319358
  0.2928124285416709  0.5171787143364485  0.4524781307579673
  0.5103851369342919  0.6323629156657478  0.6969464510928298
  0.0749239712694544  0.4419033235605743  0.2362711406500722
  0.5338641873393124  0.5900118829994980  0.8794552961411016
  0.2021676494810219  0.6866216463201659  0.4270836519491052
  0.8422749696764831  0.2478513864470049  0.2777383257906319
  0.6619688640023730  0.0747662856786128  0.4004738502987690
  0.2457923746321940  0.0777411112413278  0.9527309497243165
  0.3604345775272422  0.1353536110743932  0.2021998257552401
  0.8154187479452553  0.6244544624238721  0.4897018845850806
  0.5505045488778210  0.0562667380083274  0.4305107383177077
  0.5902563362492947  0.9029495387141977  0.4936994291866977
  0.6635588992884529  0.1314539488378106  0.4567490680519187
  0.7187510492910786  0.8908991358130997  0.6519413264045969
  0.4504720172900152  0.9818589327297400  0.1614368661932729
  0.8342847272194301  0.5116550388177379  0.6099808967165784
  0.5777521443503321  0.2173351037031861  0.4242383021044290
  0.4574074084717197  0.8102540903115162  0.6444677391780067
  0.0320424111685476  0.5344729803081620  0.1877225873031650
  0.7636808904107426  0.5428086845540352  0.4317144130005025
  0.4355053477856316  0.8008974925010629  0.9790550831764685
  0.2811724463307991  0.2114110291885376  0.7110853838236723
  0.5427820587188573  0.9097220628091646  0.6488049451410045
  0.6057732230782237  0.1419946711156976  0.4937739765448945
  0.4541559684110761  0.2929415655788840  0.5298817739092649
  0.4319562179976162  0.3923951940329635  0.4344103195527233
  0.9808661912517962  0.4840739088888428  0.0129961186714879
  0.3097214983890458  0.1828810530976918  0.1161326816737058
  0.2592462275181803  0.1820635673962435  0.2129528043164312
  0.2581659439082885  0.1728700659587104  0.0402810095364028
  0.2067048387431240  0.1847026880169293  0.0794638309133297
  0.3050690276558978  0.1229367834226936  0.1299777100677431
  0.2554360722399860  0.1550183096177424  0.1049213583807200
  0.2878638367050765  0.9557442580130884  0.1235589737524985
  0.3511304578296473  0.0459669641801371  0.1112619701602532
  0.2505816682412026  0.1920416545943470  0.9730813248668940
  0.0296911425714152  0.4865663631070125  0.1447457714227590
  0.1152573592170679  0.3204775920853459  0.1800133160952684
  0.2386284723551785  0.2643079825264141  0.9614806388388502
  0.9723717005455508  0.4059273039878740  0.0880565878004681
  0.2130454171529603  0.2585174487231024  0.2321282561749041
  0.1173477633362460  0.3360551044678133  0.1171452446417798
  0.3367357577127845  0.4463968914733090  0.4321496661119280
  0.1796519931372370  0.4423615783154450  0.2710578234254499
  0.4082499491023558  0.3195925853309505  0.6799296277731931
  0.2357060960598239  0.0771482971163351  0.8927221527337992
  0.9015411916788447  0.3578994766251892  0.4396954168220212
  0.6838255524671597  0.7555123675346921  0.7764168625999237
  0.8469586545811856  0.3284031406492127  0.4294745883451407
  0.8085682485822937  0.4310900466898426  0.3174225599223817
  0.7577681567488682  0.4450361573946688  0.3502277036993772
  0.8105899036233475  0.4626816225559792  0.4257622357542503
  0.4262087524681640  0.3268844872888874  0.9077404242042947
  0.7672503373154252  0.5536379464367358  0.3712791821480079
  0.2939444415640845  0.3842239883671274  0.9101763367906215
  0.1253583108988727  0.1373733476752260  0.5533866616933000
  0.7864959030733421  0.2037407806978647  0.3297319971093852
  0.8218333955292706  0.8556437215266268  0.9731611283754114
  0.5991695889992776  0.4276746658333829  0.2399135426306764
  0.4524595697659594  0.5035668456637673  0.4567198523217562
  0.6109925736360534  0.5516783445470544  0.2031921015977100
  0.6616905677110361  0.5203252002869266  0.2303400720325458
  0.6118783740436868  0.6582404550519875  0.7791724915250835
  0.6592787661827172  0.6958460176528474  0.8364140427987977
  0.6088385854085573  0.6920849088968155  0.8802862961453511
  0.5175868992986297  0.6895956405372683  0.3016256758408866
  0.4758239243464880  0.8120683135506304  0.3691555013266115
  0.0123484339199513  0.4147885618537382  0.4550666180407981
  0.0237742215799573  0.9584372260166690  0.1538876773612653
  0.8461469000268828  0.2958612177279156  0.3234250666593121
  0.8026890848577080  0.8069333386218260  0.7117842432524167
  0.5287809546255545  0.1692396169181020  0.4775552205644018
  0.1805246508720647  0.1339862514213157  0.5809925015500960
  0.2911067285825844  0.0434198862685296  0.5281365179258257
  0.3484601126142203  0.5672729539200707  0.3985254748335116
  0.2698228019095156  0.8060190048611462  0.0603159266770305
  0.4568701011123249  0.3570749945523873  0.7467816330718102
  0.2254333021014375  0.8372320559716830  0.0372154169936555
  0.5161252620923814  0.3500277950285047  0.7669551962936155
  0.1774501207162960  0.9093247066009487  0.0457491145680692
  0.6128274696307227  0.4225043962398284  0.8998511067035873
  0.5536098819148561  0.4311259497750260  0.8784222664439428
  0.1801425628880037  0.9445330369528988  0.1557617666450950
  0.2308514925915908  0.9278628685232171  0.1193227523568648
  0.2896056283732149  0.1367820015324372  0.5608297092345187
  0.6750602676673430  0.1373829812711128  0.0794989026754181
  0.3134573898115669  0.1099378192440051  0.6844750991981348
  0.3288478438813285  0.2171670116396897  0.6713688843926940
  0.4000906631565845  0.1987396012763701  0.7547285861517141
  0.4159909273422853  0.3387898568433306  0.8478866658789947
  0.7716168047001176  0.2848922702158282  0.9689240037885606
  0.5144493233780980  0.3817766749618041  0.8752508175675305
  0.5834583298783839  0.3600209328439756  0.9612771913334908
  0.5086446897597217  0.4152979098178813  0.9814076045250703
  0.5270080470044987  0.2800319000185649  0.0437525634150307
  0.5079661838155367  0.5673397566686835  0.1073464056131336
  0.2986445306705276  0.0193879750812633  0.5963550585212026
  0.0741060482805481  0.9098154582777499  0.0146770605438520
  0.5552249303379608  0.4885831537916048  0.0909119948372063
  0.4047370432001196  0.5960942498923506  0.1816024811700213
  0.3646331096463738  0.2398221578555329  0.5694197101385777
  0.4093543785655613  0.6592390856901476  0.1627474331277409
  0.3057229699199158  0.6763014799788142  0.0661359005134555
  0.7772712003129679  0.6439596492704831  1.0026507365397679
  0.5734193421061621  0.4778560209417608  0.6561755450766460
  0.4678702657147568  0.1642548900996690  0.3413091039367933
  0.6216386079387800  0.5132911386867013  0.7161273778024625
  0.5616071931380195  0.5220934579429998  0.6971857276568647
  0.6316483492335496  0.4983982210344770  0.7770651796502794
  0.3033144028530707  0.6300202945875304  0.0232800090443278
  0.2547587990339925  0.6885023952929181  0.1024249835101096
  0.6798001523429933  0.5361262617381669  0.8411564245034655
  0.6460351558515846  0.5869887575218913  0.8587356103087357
  0.6343808200237109  0.6326374545813163  0.9033068225281399
  0.0971188599362192  0.6709421928904828  0.9949539031798090
  0.7197153647137714  0.5495700032152969  0.0101601898846340
  0.6948372202953287  0.6267501097244353  0.9241974119935769
  0.7326378579418630  0.6691770104514612  0.9815273391346878
  0.1668104498410511  0.8551258861912563  0.0730147829363629
  0.4015368099791488  0.2305565910203544  0.8600450224027428
  0.4242705272461095  0.1694795877154921  0.8807404182779807
  0.4483001707538648  0.3384903778118871  0.5768550657847020
  0.3139704491557664  0.1762036911967237  0.8946135406803257
  0.8381270506369073  0.9540210543684744  0.7974203969028225
  0.5328073105458909  0.4573101662192569  0.7556939966668093
  0.5901740503360402  0.4806407378332062  0.8797791990246746
  0.4673132430697641  0.5319375719239378  0.9464870809384786
  0.6887059123177862  0.5245630849470014  0.9006987488566968
  0.6287336018489106  0.5315676681049960  0.8822054551753838
  0.3479639370892189  0.5329337054822131  0.0676958998034828
  0.7685922437036782  0.4597962176166539  0.9377169423334221
  0.2508253981073524  0.6427289708653875  0.0574741197969007
  0.3448772943436665  0.2964487701680182  0.5516859903183063
  0.5566083073879534  0.6860200431246181  0.7003089364953722
  0.4078972540636480  0.6296788396748644  0.0566855133627119
  0.3740223107691292  0.1359286556801666  0.8113674208519546
  0.6396763997998979  0.8114309049559653  0.5396463020060790
  0.6897771169181586  0.2897356540891655  0.1504308292285766
  0.6893911151843510  0.7932380355491025  0.6589794485392679
  0.6341920944466265  0.7546042567068831  0.5411779492925046
  0.5454704493227097  0.8686548104591275  0.6036369608300454
  0.5963200465561396  0.3501266066473627  0.0916737866997566
  0.6415825179384049  0.8699095714771694  0.7400790892932464
  0.7864931791617010  0.9131439811365070  0.7319243846339694
  0.5352357383234729  0.4264377312986514  0.6509983485410170
  0.4508916124909975  0.4873006423964156  0.0592207670579521
  0.8159763198292673  0.9685383115103776  0.0100888837531732
  0.4649052416599663  0.7073463692874032  0.1104389441668104
  0.5047196878142669  0.5355444556838176  0.2312959350289191
  0.5593318741832919  0.5664746158979255  0.2388622436229156
  0.4121903929149160  0.7043121114405946  0.2062582360233391
  0.3666099198378597  0.7836835651390582  0.2269414320246796
  0.3751173271309076  0.8753019859949933  0.3181995508296407
  0.7517799856932214  0.8283233185034787  0.7304458055854793
  0.6007167655108981  0.8220046424451954  0.7390979775684760
  0.3260550247064469  0.9246946178061124  0.2331553358183790
  0.8098134414335549  0.8947009272512575  0.8552199463635619
  0.7640436564374747  0.8902382159696897  0.8942762422123742
  0.2482622977529001  0.0441188432786969  0.3105350059212361
  0.8441909992581607  0.8240412112187372  0.9306836769443849