Cr  H Ni 
 1.0000000000000000
    21.1200000000000010    0.0000000000000000    0.0000000000000000
     0.0000000000000000   21.1200000000000010    0.0000000000000000
     0.0000000000000000    0.0000000000000000   21.1200000000000010
 Cr  H   Ni 
 259  17 605
Direct
  0.3276776623949326  0.9151662156602685  0.4154395089105873
  0.5779422827432680  0.5819541671250794  0.3348249586168199
  0.1619404634948949  0.2489569654186966  0.7513027424861453
  0.5771131525262244  0.1658885512762708  0.2494420412489988
  0.4131431890310643  0.4180046296319386  0.0015519154099263
  0.1627684466445550  0.1690746441320241  0.9999698391678593
  0.4110817693414506  0.4995844509739461  0.2486554864336389
  0.4958311118266583  0.4172881032647314  0.4172712225189862
  0.9993412893921365  0.4163217575609717  0.4194639916650140
  0.3296946390706592  0.5839327506343377  0.0835732596080516
  0.6642031795033224  0.1670041653301108  0.0004486521421054
  0.4157758998571384  0.2511277816252346  0.6684774317040775
  0.4144830254519283  0.4191718864600068  0.6669794241708186
  0.3341132930695920  0.3336929919427176  0.6667569828894395
  0.5792738136316317  0.3328165101376507  0.5829218156835958
  0.1593184013097438  0.0841954221409534  0.9164764956687839
  0.2456820343069713  0.2501331870416701  0.3325938800213119
  0.5815350710434394  0.0837193282911270  0.5021378250137970
  0.6640927101801346  0.4176935660944039  0.7487028297237593
  0.0796732021081413  0.3330618089141408  0.5841882451642593
  0.1628154173591925  0.2497307555631213  0.0806296549132832
  0.4951812332838507  0.0833431846257056  0.2486759647389966
  0.7461967546089623  0.8340176088083889  0.9166753259595383
  0.4133558710460737  0.2508775520364788  0.4992399314854471
  0.5787006873575691  0.8324572168874601  0.7495423995013774
  0.4126052526484072  0.1677882457063902  0.0810108852915284
  0.4984672208469910  0.9994439257577752  0.6683897117154286
  0.2470396457300171  0.5007415900876721  0.5850568867171627
  0.4935790560191934  0.0846426769677742  0.4149435628925729
  0.4137194640831786  0.9987282695185967  0.0818810447757466
  0.9952506023963320  0.1651129522853031  0.6658619923198229
  0.3309304539935192  0.2490834267220399  0.0806555808401389
  0.5797228237323907  0.1661820445855238  0.9157411703630416
  0.8311898685431163  0.9155642969346491  0.4154745989541546
  0.9141542551689746  0.5001301202281908  0.0852106006475153
  0.9114530244640981  0.8334238854016228  0.7477472728057954
  0.4947052242091890  0.5804265032063919  0.4157090232414298
  0.3300089438770232  0.8313068985284633  0.8342871013680783
  0.9981004538646741  0.9169561788626911  0.4177717359253841
  0.3304240507636262  0.2540888599955234  0.2482216335595816
  0.8289269549858468  0.7508262926038987  0.5824559537544584
  0.1637027929127632  0.9980806006021480  0.1658786639340728
  0.5795922644676400  0.6674458043735980  0.4167489460864098
  0.2458119771689354  0.8321928383633761  0.0830858996892906
  0.2443790450453583  0.7500879605033992  0.1658505245536497
  0.4962614623695016  0.6654157036063443  0.3334984346539164
  0.4962288047179178  0.4993113181455537  0.6663962862353987
  0.4958074931237548  0.6662378333755790  0.4979928121130249
  0.4119596983886761  0.5003392689259829  0.5838527009550272
  0.4110650548191969  0.3341529745487422  0.2487070436737579
  0.4959034441250477  0.8330172605165249  0.4985279745724271
  0.7473980786117561  0.0006968098677950  0.5815493084574809
  0.1630646589199327  0.1673397017165140  0.3338058395007303
  0.6624924938506583  0.1676292746226727  0.3325845125043798
  0.7467886472794628  0.7512345571446676  0.4990981812116151
  0.3301689821141340  0.5825267717281970  0.7514626719344760
  0.8292501112450315  0.8345481594203215  0.3344397457016196
  0.5802979424970390  0.5817318768816785  0.1688043329481662
  0.2465764142386899  0.1668317209098627  0.7517419181938449
  0.2449239806840156  0.7475750622468494  0.6678739902124458
  0.3307701178819938  0.5824340129652350  0.9160716492218821
  0.6638050107916020  0.4189057059106357  0.9171616137966110
  0.4947188317034859  0.8342282373999179  0.3318040604700973
  0.4987167498337102  0.9139996442724951  0.9179670224201640
  0.5785178431818789  0.5836257295854437  0.4985342679289351
  0.5791901372987667  0.3346983326334396  0.2493116796482025
  0.3310499083023698  0.9150000526587524  0.9180892293024930
  0.2448624123548030  0.7525407763845677  0.0010345320253414
  0.0783936337885277  0.8320372665600810  0.2509943001429094
  0.3298169681307470  0.4154103593306199  0.2490779535496335
  0.4121526321802291  0.0006116889006593  0.2507077488075442
  0.3296173295937443  0.4182864307742882  0.9150834290699836
  0.7468810641278604  0.2506075470610936  0.0004518333252865
  0.3336328044561362  0.0826218770095667  0.9175300629404163
  0.9126361074061797  0.1663450498272567  0.4172763381997097
  0.2470024682411931  0.7489931845220522  0.3337104739366762
  0.0801121610204312  0.8327819665181144  0.4175290502960077
  0.1634870781276032  0.5002715537792090  0.4993215090484799
  0.7465705002819730  0.3342939377304463  0.2496192043397479
  0.6621121945716029  0.1671721136998478  0.1653338745500521
  0.1629285412477048  0.9983717875296328  0.8326186645691364
  0.3289359819522795  0.8327443173736035  0.6675861264854458
  0.1636676853621587  0.6668847063652898  0.6684985869169259
  0.9140479927489342  0.6667970340052574  0.0861781963368468
  0.8287635222064040  0.7510674135228030  0.2518472715908434
  0.3304044689005817  0.0797473400675243  0.2480796710682819
  0.4969470698753848  0.1658383242239040  0.1671354291403722
  0.1602560942038579  0.6675373698810068  0.9982302247830477
  0.4128553357455051  0.7492319082224632  0.8341284781438452
  0.1625859319260916  0.1672077577164456  0.1657789490586988
  0.0786244701218213  0.8330268407284412  0.9144766835177653
  0.3318919154349947  0.1669001124163185  0.0004264130165765
  0.2447336523455477  0.9176964068899364  0.1649895628905536
  0.2449427305494329  0.9987155512109277  0.5823783849481314
  0.4961546258603846  0.6668835356600807  0.6657852374832638
  0.5787668946764301  0.3338481535918547  0.4178041464944537
  0.2473424802331926  0.5818841713187457  0.3334867071485373
  0.1619833847482852  0.3328535006951953  0.9996004379613778
  0.3299801574812688  0.4170117396822334  0.4173114287117032
  0.0768523718101210  0.8331886730302868  0.0824161636542028
  0.4975617043093332  0.9991067671240033  0.8348783119183857
  0.3288647041354640  0.5832905917466513  0.5851749484122348
  0.3308782550073097  0.5012956920336141  0.8342392661003059
  0.5832195097122420  0.3351811042206651  0.9176102512074732
  0.1620936870068170  0.4163665428303616  0.9155562823279063
  0.5809410551697218  0.5835247860235782  0.0003898470198651
  0.3279777997124168  0.0844060913424322  0.4167871190442403
  0.4161319313882053  0.1661767324164264  0.2491883430859042
  0.2445015620054241  0.9993146196599912  0.0828354584847064
  0.2439105171769574  0.1669678885724811  0.5838321772633012
  0.4981824805072356  0.5011665473953147  0.8335322776218966
  0.4128468497693972  0.0787081516382523  0.8353900424197938
  0.2470501330966243  0.4994491773487504  0.2491265670090082
  0.1634539321256310  0.9161467359935398  0.7495687559119328
  0.3297059700276324  0.1665630940965941  0.6702589659559944
  0.7447381041490132  0.9158605317239029  0.8338809540751410
  0.4129271171393463  0.9128801821717515  0.6699343167369108
  0.2456579492815845  0.2499348740390820  0.5015181781678975
  0.1650613704300442  0.3334124364233133  0.1647505012152161
  0.3280482530556916  0.7498235689058786  0.4146431489640553
  0.5801652569437145  0.9995852935496790  0.2495975835294115
  0.4948288060326850  0.1680977196899099  0.6676092851805401
  0.1627703545482259  0.1673115589220385  0.8318643437345657
  0.1611064949418304  0.6657731650934329  0.1671131379563190
  0.4114203136174834  0.4991930294288475  0.4173152085854704
  0.2463010281694780  0.9177083817492414  0.3331905026122916
  0.4119338046507608  0.9133578949230365  0.4957156441184228
  0.0789914621438018  0.8347512744848002  0.7504772376984731
  0.5812132200189122  0.5844585543520173  0.8339724781118715
  0.5811983587609475  0.7488867099579545  0.9998089598048415
  0.1639738663609898  0.4160686904499100  0.4178019506743995
  0.9128979651091862  0.4180088708873129  0.1667266344764603
  0.1646811816957377  0.6675964902654878  0.4998890484440585
  0.9935942479586699  0.4186478841346331  0.0835984348223027
  0.9930544556653184  0.9167980366816123  0.9164070814665553
  0.8298863498387363  0.1672683595576558  0.3345370002600088
  0.7471256805303571  0.8337701276213195  0.0852556047639299
  0.5811432545159040  0.7501829241816750  0.1687425085144565
  0.9128041149153969  0.2497242487888550  0.9989015734711456
  0.0812076574950577  0.5007986312227974  0.5839833347651089
  0.7465320945694172  0.6656906799297738  0.9167002987304032
  0.0800531479622502  0.2496903066893556  0.3327785656141803
  0.9125523125038131  0.3343670236778837  0.5841287849077315
  0.8275640695504245  0.9983846453473004  0.8330869040207829
  0.2466009446675312  0.7501102117996422  0.8327186774338307
  0.8296352180891972  0.4156270819443887  0.5847091797733418
  0.8286257182487388  0.0825062500940309  0.5831307142937161
  0.9119046436184532  0.1639143518909347  0.2494607607785706
  0.9973811353238715  0.0841542921191918  0.5859160382726064
  0.9126314255930720  0.3306047820849453  0.4179634972001379
  0.1593621603600011  0.3336815122655740  0.6682880265048950
  0.8291093028949791  0.9998154484487416  0.0002804777955456
  0.9950867696589081  0.7489338171482276  0.0859692282363349
  0.7460359758422257  0.3342086946922537  0.9176245065120303
  0.4964574989307132  0.2508592090482571  0.7501060434416362
  0.8303222294723186  0.1674329241265697  0.6671551312837363
  0.7472847565176470  0.0837922341477283  0.1673204980714337
  0.0785082736175170  0.9158775186571106  0.6683332629663672
  0.6637560093892101  0.4171374153371388  0.0836753883741451
  0.6618456464792215  0.2520023509744676  0.4164639442010739
  0.8305119239733907  0.1663308890423507  0.8319637284442497
  0.6624493152676156  0.1671302778094611  0.6670975035426034
  0.6632862177850989  0.6655968878313696  0.3343575055826605
  0.7455581264783826  0.7508573917261540  0.3332938083051566
  0.9979722211360300  0.0841040456037455  0.4174604959949122
  0.1636682344785350  0.9989285018167495  0.5013571917343131
  0.0786946525043218  0.0831382909021656  0.6674788839939700
  0.9938860722291414  0.9987676575062665  0.9997473739734547
  0.9933026558570662  0.1659538969698694  0.8323072990473298
  0.7454379323254016  0.3343167840688760  0.7494959785510641
  0.7441217556429055  0.2494267560759681  0.1663278089283211
  0.6625334745473632  0.7492744189585396  0.2513316622437011
  0.9119754105452458  0.5827196816802990  0.0006808912736033
  0.2451337341044326  0.9982313558507591  0.7519965488182094
  0.9126174770408828  0.0817313090507702  0.1672351645357549
  0.9124946181811706  0.1666391110534568  0.0828160044830987
  0.9128196424555437  0.0020789026398258  0.2480583890053138
  0.0806546711566255  0.0004021532887367  0.2498696078219534
  0.9949685744703702  0.0821548858690204  0.9159574530623856
  0.7438832019616965  0.7502626289313067  0.6656019642677121
  0.5790313413302649  0.6663804520687923  0.9174194908312724
  0.0794822688180444  0.2506857495155181  0.5013112695968240
  0.0781144905172232  0.2502663691364185  0.9992190320542458
  0.9120869136019434  0.9164807690086616  0.6660923389837418
  0.4136458104592129  0.7497243553015962  0.0016907337002874
  0.0807223876469741  0.3326597992091515  0.2515376811293273
  0.2456706220722147  0.9174042483819870  0.4991575271383091
  0.9966846882551463  0.7502469795496546  0.2495862315674681
  0.9138002461872544  0.9169593606170374  0.3344524531139826
  0.6624486779930661  0.7495617367537349  0.4144729712516765
  0.7469352858421220  0.5003538341261283  0.9163419855202741
  0.6629128313163809  0.9179845426605526  0.0827151462468453
  0.7475738075684327  0.5826020126798809  0.5002872688993449
  0.9131612085944789  0.3335596597996082  0.7497400797816366
  0.8280473935235318  0.7514781958090274  0.4179374207330080
  0.9120448834206279  0.1648139686081264  0.7506880922952801
  0.8280908313962414  0.5831282539544692  0.9152180519690533
  0.7471056379987351  0.6667623360707595  0.0857697476636193
  0.4969309825527174  0.3357061594159911  0.0033146309681995
  0.0790543127679666  0.6655493089080801  0.9146168922048673
  0.6628128216936753  0.2501556446772540  0.0838877577145185
  0.0800569655733993  0.5838568463419881  0.6664943063510802
  0.9986396114743556  0.7497821031596603  0.4176746155211536
  0.7458469215114292  0.4147860442981013  0.3324765979354011
  0.2461153567607083  0.7483132707004998  0.5001615825533090
  0.6625818059340085  0.2494805394313949  0.7496036292563474
  0.0792788401105642  0.6664803296522412  0.2508669678457294
  0.9119705771464763  0.4159754489230667  0.6655940147003246
  0.9968406236302098  0.6660025635131113  0.1697462625577262
  0.1614553407513312  0.4987072276753876  0.9983848932770235
  0.1619885161147266  0.8337090297073074  0.4997820346960110
  0.2446560699357668  0.9166573928455298  0.0014338818107122
  0.9955482601552956  0.9166680690084590  0.0823815722814908
  0.5805947177581116  0.2504594719745455  0.8327525495210311
  0.5826100781709366  0.9977426431261815  0.0828570400334519
  0.5795674873454856  0.9170499518503338  0.1666125633475110
  0.9116924347261959  0.6663536822277656  0.7477088349785638
  0.7449418686424034  0.9177185743078240  0.6667015503600315
  0.1623460646927034  0.7505860779254502  0.7505862907507257
  0.9964259570256980  0.4998610931243275  0.5005475397615257
  0.5802539361079641  0.5020410158469527  0.2482524195587160
  0.7446975567642169  0.4991995989709490  0.7483491450388926
  0.9932124551268378  0.5002278305665376  0.9985908461347952
  0.7444826585393641  0.4155788784015338  0.6679588205885264
  0.1615471345567305  0.3345787444791595  0.8336703661547930
  0.4139658429109609  0.2534277928523231  0.8332457303623315
  0.8288773003360986  0.5821078101129596  0.4178120976240365
  0.7462614590666692  0.2493551513102124  0.5005654535353704
  0.8289678084971295  0.8339216799842835  0.1686659371950110
  0.0804075297600440  0.5837961699284118  0.1670624832986343
  0.8293770414297473  0.8337437297491316  0.4996474944626935
  0.6613130905244466  0.9175321328474866  0.4166579278736908
  0.7467328268921081  0.4156995966273030  0.5007309803146941
  0.9124266358457105  0.3335679752177579  0.2495041175477550
  0.0792891833403210  0.5823500482157135  0.3343542908247989
  0.6613120282457303  0.5822308808576316  0.2511324590170027
  0.5806958528813279  0.9152578239904637  0.9992876670011885
  0.6625316113071656  0.9979106048063643  0.6653226903320854
  0.8293930025750550  0.0848409859776735  0.2504586614730169
  0.7462613257007245  0.0831647679562712  0.5007689355120004
  0.6598239788302434  0.9191204294987585  0.2480316316977133
  0.8294333602804298  0.5812646556206280  0.2503653514109125
  0.8313797519173357  0.0846288660894883  0.4154918400465429
  0.4128648091576274  0.7497473508205050  0.1665527545750493
  0.4129715263992404  0.8299025038642686  0.0841009426541443
  0.1632409588108023  0.5001065380927787  0.1674525361014690
  0.5791979645376292  0.5008505768282507  0.5833333649929470
  0.6641019822754971  0.6676907185134915  0.6662055568993381
  0.9972778259482925  0.5829610593908640  0.4179930487967808
  0.9122685053147879  0.5832128503008224  0.6656764127155288
  0.6635994895484246  0.9161765512855541  0.9169801296629698
  0.6632234958884505  0.6661657344723976  0.8334422759946901
  0.5802020993609321  0.8322121875426335  0.9163970562661843
  0.9128961912581042  0.3334977749888955  0.9168079208107537
  0.0783064324714044  0.7508998342539404  0.8313044273435233
  0.0810255808867622  0.7500155292518778  0.6679795283797797
  0.6610852172306745  0.9178408685895100  0.5841746104725113
  0.0788298281764046  0.5824039385454752  0.8336410232210336
  0.8286542752807148  0.5828492809938638  0.5837055525383250
  0.0760612962069420  0.3330281275384935  0.1630014560324636
  0.4931066665091799  0.0852923957719713  0.5041505670349977
  0.9964528443519729  0.4167345593109796  0.3293182572601884
  0.2464147544596502  0.3341395357680210  0.6672382923202907
  0.0785011761475401  0.0827036408689032  0.0832521836591090
  0.4138848693567895  0.1659856009577587  0.8345988915640868
  0.4127211983353400  0.9158870913447053  0.5830707675340450
  0.2460836044527725  0.0830264689485145  0.9171246036757837
  0.3321564461935967  0.1661043944846189  0.5810903734408098
  0.4942257552818097  0.3351644884842848  0.9147266631586549
  0.9104573420297670  0.4195474479444368  0.4162579129095264
  0.2492167003721320  0.6631884913089168  0.9997732608678507
  0.5821530180945655  0.0828638406691743  0.4139087620657103
  0.4090823559042934  0.0016031478116383  0.6680167569597081
  0.4118889187326522  0.0038582758676883  0.5001630621432882
  0.3285761755316576  0.1669175889120670  0.2494264564475841
  0.9934225856978357  0.7494879455651323  0.9957097096620187
  0.8292422842170911  0.5836994191788916  0.7486073438540698
  0.4959745443802927  0.5832406191457832  0.2498805671330563
  0.7459169286494804  0.5835469570136886  0.6657951750876752
  0.9943267368495481  0.3339171041582787  0.9996655853122032
  0.8289709786630546  0.7496452865939922  0.0848811866006434
  0.7469703061012455  0.6661801881163730  0.4172301706653400
  0.0797537243191464  0.8326254566145712  0.5844365107667441
  0.0784270594671240  0.5826616354130855  0.9992528704803785
  0.7465364568481428  0.4994111527604065  0.4171737185815750
  0.7471280672906713  0.7490740765939878  0.0009897932429349
  0.4970224846963039  0.9150431015783720  0.5838026554613652
  0.5787887083560762  0.7504206980681489  0.3326438703215624
  0.1620499772923519  0.4998403651235447  0.8336435014039378
  0.7467000159585319  0.6656981831023657  0.2505547741072742
  0.9121422165950124  0.7505717794000758  0.1682945987565913
  0.9962443848911831  0.6665023191311052  0.6670154198390479
  0.6621905840676382  0.5835302009511552  0.7487133651756388
  0.9113051445822614  0.9160179058194000  0.0003545023833943
  0.1623623555250509  0.7502012718227159  0.9153228167665920
  0.4967992865023356  0.0827563606167647  0.0829589411320769
  0.7462699710171243  0.4171638880077372  0.8325482023911775
  0.5800277510594021  0.0830877933731904  0.0000159900519806
  0.5797194203366606  0.7488289002279125  0.8338645572915059
  0.3299203345286581  0.4171953739289110  0.5840401751217729
  0.9127504250525641  0.5835206657974964  0.1672301651384593
  0.4958839982568485  0.9999505903316315  0.1655196502244081
  0.6636292171634592  0.6663411693466665  0.4990412347361499
  0.5787213750831466  0.0833115906316193  0.3313562047760216
  0.6628787083402783  0.4989957468236516  0.3344406390894503
  0.1629945424663788  0.4172456998839432  0.5841912895427426
  0.1623408801084457  0.9158498368480174  0.2499274169116849
  0.5801210280492926  0.0820546524824973  0.1654826820603578
  0.7462128113572433  0.6671888481271592  0.5819170324455412
  0.2463126060007074  0.3332190971531013  0.4174330499800654
  0.9111642213662509  0.7498365467422293  0.8316575026170326
  0.6628998970842201  0.6663064231362299  0.1681791067307201
  0.4131693701978620  0.6674640746783802  0.0839960463872644
  0.3298754753310983  0.9980386373021589  0.8350049240995432
  0.3271839197549056  0.0001236988276115  0.4988431903754660
  0.7454829400134971  0.5832713802846763  0.8324803242799642
  0.5807004799803587  0.2500936353101585  0.9995969703432100
  0.1627452564043812  0.9995300190832671  0.6672139194969889
  0.5789969782579936  0.8330735238470447  0.4154936027116460
  0.9960194770542464  0.9996448515458876  0.6667396779359678
  0.3284717251050835  0.1678639653150518  0.4985846894259072
  0.6635226823191223  0.5840361747011922  0.0841758020718277
  0.2471024285193178  0.9153694866969012  0.8353273950988453
  0.6638792479443574  0.7490298039133184  0.0842879936113704
  0.2462964568064571  0.4170504540843749  0.5009911004861172
  0.4953355335679185  0.7496322367460750  0.4155485632619383
  0.4130994357279218  0.8314823895543683  0.7511569836997896
  0.4966342603121462  0.0818689854426569  0.9170485997560028
  0.5785170273971121  0.6662498408354457  0.2506211459258635
  0.3310199610850206  0.3346181476092183  0.9991761409896063
  0.1636364113027068  0.2498710630230309  0.2489166389473375
  0.4973195518859991  0.4192824710430450  0.9179006570453356
  0.0782767800040532  0.0834479699666391  0.9979444053721365
  0.5798356564567795  0.5013116281084427  0.7493903397250569
  0.2469254861491898  0.1671577008013711  0.0822951169453002
  0.5797321987013033  0.7489842073690878  0.6660565898437986
  0.6623924803968241  0.4166877976735449  0.2498300123583683
  0.2467222996373487  0.2489582065145776  0.6680514902354797
  0.2465624991477531  0.0824887664446289  0.8333342662827358
  0.5788889004856074  0.5842568245569867  0.6655969322050351
  0.3299354366139057  0.4989803318078402  0.3326826866050350
  0.4139374266856723  0.5008023195611800  0.9173278571791043
  0.4138447357058925  0.9975687209908997  0.9178226874838755
  0.4127392363963723  0.6663346029484896  0.7502838623361037
  0.4125768654621036  0.5831632803454602  0.5006513782239782
  0.4971373950525351  0.2500102424104366  0.0828322260279726
  0.4967197358711242  0.4165098803892877  0.5827814581488669
  0.4971490752382227  0.5842118942020478  0.7498425897959400
  0.0804373777125002  0.6661614226911050  0.5836853654170328
  0.8284749098448344  0.9161423371533844  0.7493504497110451
  0.9967915241172269  0.0836636591112454  0.2498063141073195
  0.7452123382678527  0.1674286091709059  0.2501720879480560
  0.0799615323415906  0.0003488208799826  0.4171724554235683
  0.6631146424835653  0.1679321869714253  0.5000654707569203
  0.6637317007775690  0.0839296243907874  0.0828931628914178
  0.7459049241348227  0.1669955845931284  0.4168844343209218
  0.0788074670872564  0.9158785431037085  0.1669188607507613
  0.7458881289963500  0.1658921607673857  0.5835574553549371
  0.9957760291493795  0.8331986457590054  0.1671610007467728
  0.9104052504765441  0.7494560868530068  0.0007277449550824
  0.8291455699468552  0.1676380505735041  0.1664867515406102
  0.7468984560073276  0.9999857573047647  0.9163906664754140
  0.5795044645848145  0.2510351500031695  0.5000675165441488
  0.1622514885485320  0.7502083741732104  0.2501506076659774
  0.4966889857037626  0.2517420836131584  0.4167923778085134
  0.6632973406567362  0.0839098539341556  0.9164203311099615
  0.5790862652540975  0.2497404075069597  0.6676971208721711
  0.7475602380655229  0.1661491902956543  0.0832581144447114
  0.0787871910841136  0.9164685703910377  0.3336637909912019
  0.0808775417787726  0.1671846731614340  0.2500867514283206
  0.4955493934340254  0.5002609397417712  0.1666800673862680
  0.4972570200874097  0.8313819005524806  0.0020253246328480
  0.1631398528758198  0.0831842104384011  0.2486212690499954
  0.9129055849306557  0.2502866863065418  0.6677236963080544
  0.1625651645998800  0.0830929348875130  0.5845058588557751
  0.9958621241424959  0.1664690175087876  0.3337563620043836
  0.4984215062422268  0.3345029932447714  0.8322318177125732
  0.8299683578216460  0.9174838392970935  0.2507310850900759
  0.4969927892044912  0.5010050249273329  0.0012663768448582
  0.0798684332738299  0.2490827681185655  0.1659730425464606
  0.3306409264937324  0.3348475789029556  0.8341137179263103
  0.7453562583852263  0.9171639303646829  0.4994917509587140
  0.5804588307197871  0.5007803081219483  0.0841912225314846
  0.9129191757637699  0.8338198251423085  0.2511414365609309
  0.2466201241300179  0.2501255696183800  0.1648903509433675
  0.9140954460239780  0.0008228967852172  0.4173491383021724
  0.9128439955042563  0.9999307601014683  0.5830001081927877
  0.0792952685949308  0.0835198883725786  0.5013718309624009
  0.5811438754615678  0.4180935189977436  0.0011286230929980
  0.8288591590877107  0.3342162810455592  0.8331788547565747
  0.7461406088177076  0.4994198458845343  0.5831910193911427
  0.8297351264453987  0.3338297631913182  0.0000466660452002
  0.8295183296725954  0.4992636419718054  0.5007682931228400
  0.6644360823905004  0.5832504971135066  0.9180211314302735
  0.9114460835371355  0.8342730735643933  0.9157659998589572
  0.9961094108260212  0.6663135772695965  0.4994950046819890
  0.6635117720501094  0.5009078314187766  0.8336352522951024
  0.7459225423058871  0.0830531128171478  0.6667835159819271
  0.5801631420038584  0.5013355232631833  0.9177567039699124
  0.5790059078556086  0.4164543225930745  0.5009062904098236
  0.8284510495781416  0.4995090352738666  0.8316533997876306
  0.0801087099071883  0.6662469543218443  0.4167014575028827
  0.1631863499748761  0.7495088485154037  0.5840650156192737
  0.8288430646134869  0.9991602185117716  0.6662734610667069
  0.8302504789412090  0.5834512589503434  0.0840827171381458
  0.9969618089793689  0.7494842013940956  0.5846115353264921
  0.6618848832323020  0.3323670296235486  0.6658422418141309
  0.7462869409864541  0.1669049549708116  0.9169245644205818
  0.6623936264573753  0.4154806473958993  0.4169198882039286
  0.7459899883723550  0.3330210337090169  0.0839438248144599
  0.9949165560264401  0.8345689357784100  0.9989781097036661
  0.6629077411111510  0.3343333759647087  0.1671986651598252
  0.1621364333972385  0.6664102842849188  0.8332785174474451
  0.8297521789513419  0.4157540466547885  0.2502212320765863
  0.7460308080927047  0.2503372761502243  0.8331542415313090
  0.9109413914336716  0.5837975760400737  0.8319739617256952
  0.7464080137800845  0.4168912514744739  0.9999480574132541
  0.0783462979775162  0.6661362928853479  0.7509542106694195
  0.6635055098520579  0.3340125368468114  0.0005047253462543
  0.6627304665601967  0.2494636537660226  0.5833322680113661
  0.7463886022842687  0.4160778714246429  0.1674382593387537
  0.7464927232826134  0.1660630413868100  0.7495122021784404
  0.6644679347756941  0.4994350000085347  0.1663905524102072
  0.8284365293577910  0.8331476874465625  0.8324237062888711
  0.9141433661252534  0.9166065592589110  0.4987902679590479
  0.4124865533508121  0.4168236244319021  0.3330001066040756
  0.0788781636118671  0.3341366089632228  0.0809538754426573
  0.7468179975218043  0.0831470450954898  0.8329714789284343
  0.8297398642467136  0.6668560809527383  0.5001566682889560
  0.9117453981186917  0.2502804469765998  0.8328184536840725
  0.8297655723298600  0.2505888836699906  0.9160609681047603
  0.7459666080480931  0.3329537260311330  0.5835323540109486
  0.7465326117820479  0.4995224982051080  0.0840917887680582
  0.9945980461240501  0.2502378792028536  0.0826235798934443
  0.9116462218069166  0.4173705018490126  0.9995206583472508
  0.8300221197175407  0.3330705316200956  0.1668280434723430
  0.0807886061258625  0.3324694711601434  0.4173341741552805
  0.9932385104934939  0.3328486596286296  0.1668278939187492
  0.0798722376666824  0.4183133589099918  0.1657090981165696
  0.8294103345491873  0.3322034565858325  0.3332106699721757
  0.2450424382385938  0.0831730897569142  0.5006298613290726
  0.6630471533234606  0.1675725312447689  0.8337838756259817
  0.1629622072169747  0.3330218608715925  0.5010862338518045
  0.5791088198452714  0.9989633638194106  0.4166742160476388
  0.4123862896438829  0.3344650498785106  0.4170287944603913
  0.5802146962043456  0.1685152369085075  0.4162753534282355
  0.9941260112104452  0.2497477062130548  0.9155948936274292
  0.7463215261047087  0.0004480890017612  0.0827828661899138
  0.3300414769573172  0.5828894139561407  0.4162294387491052
  0.3288399386420562  0.5001797412976924  0.5008528455165475
  0.3301943127107742  0.5002663452909719  0.6681227570673522
  0.5785087081314179  0.4166322327167308  0.3323841776516140
  0.1640909334505093  0.5837489545004759  0.5833088505482568
  0.4970586247432975  0.5838573925180184  0.9177370394640090
  0.1635517720593215  0.8340854313162194  0.8339149846892149
  0.4962200276673771  0.7495292461290567  0.5831162210184153
  0.3308395274455589  0.2512718739884059  0.7509510843987636
  0.1631463385267935  0.6662763578770751  0.3331438483449529
  0.0780230048778178  0.9165332397937108  0.9983341111640911
  0.0790105625311420  0.7498326653755395  0.3337613239786907
  0.4970483499046914  0.6664828520832325  0.8343478251329908
  0.2464005665850893  0.6661841597473682  0.4159933635481525
  0.2461102558498634  0.4167546669783047  0.1647709436606910
  0.4972898934545463  0.9984874475926534  0.0002771906439697
  0.6641800919973044  0.6662638065806288  0.0005353236803268
  0.4965965946129303  0.7495001638575637  0.9178678694043191
  0.0792813405003324  0.9982410329693795  0.0824117049501567
  0.4967134082490198  0.0826335931335719  0.7504620629194806
  0.0786398221450801  0.7500903636635718  0.9982374106371483
  0.2461088684723430  0.1682338199860898  0.9166056839622091
  0.4142653597444652  0.1670392886111491  0.9185125217341047
  0.1634191926654924  0.5835246632405442  0.4164404351742438
  0.4125850009506474  0.3335899032034957  0.0826587313464572
  0.3300055852052298  0.4175787681653494  0.0821063039138997
  0.3296017637304622  0.3336940570065664  0.3339125326455319
  0.2471091354730972  0.4164886667894570  0.3332198664883852
  0.4955674709767744  0.3345336736848974  0.3328135875068520
  0.1617447543073512  0.5827064037452252  0.9166738884071741
  0.1636804330061150  0.7493590067121576  0.4163327247438089
  0.2461892702682036  0.6662781074749493  0.9155257397250043
  0.9958570557780547  0.7499059279798715  0.7492295177583369
  0.9950240954894957  0.7496960678685802  0.9132510752463712
  0.5806067438557698  0.9156439253418276  0.8340070987971248
  0.5784840925214639  0.9162114921426493  0.6672176013832924
  0.1613879271116290  0.8324825594464246  0.9994564352928118
  0.4135939986077324  0.8317121038882952  0.9179576410521249
  0.9124651274403391  0.6660836625155252  0.5831931725422386