Cr H  Ni
 1.0000000000000000
    21.0005300812436957    0.0000000000000000    0.0000000000000000
     0.0000000000000000   21.0005300812436957    0.0000000000000000
     0.0000000000000000    0.0000000000000000   21.0005300812436957
 Cr  H   Ni 
 259  17 605
Direct
  0.3323749490012264  0.7518005949810418  0.4145061918046178
  0.2500652215020187  0.2535248375453412  0.5026023556496071
  0.1649252503023513  0.0865864591047749  0.9190577897909207
  0.3340946775564552  0.0852519325250849  0.9186919823998961
  0.3343162012769830  0.5014609586782891  0.3355869098886007
  0.5009256089017897  0.2528714992662766  0.2517673192688569
  0.8306211629535374  0.0867433132306090  0.0854762663601350
  0.7490585515899105  0.1687375167133473  0.0861052792584300
  0.0823540461245377  0.1676852839167642  0.0863740766718542
  0.3339213229880862  0.5014984808904878  0.1687956167628261
  0.1639869968487264  0.2532605292805208  0.9201746331135209
  0.2489452928390173  0.2554243404439693  0.1678135880925944
  0.8333597826612308  0.5009971352287002  0.0032686896530922
  0.6658057037033619  0.0020501061290152  0.0011211300450543
  0.4156206258891866  0.0862397727939911  0.8367775526224440
  0.9147532663267457  0.2519571833315117  0.1702179703720404
  0.0799147357082657  0.3368786777649012  0.2544166361661424
  0.0822348179776524  0.3360633446681309  0.0860342569063367
  0.7485385160740844  0.3349618741751846  0.4198409770754424
  0.1653474549126908  0.3347509265883393  0.6700359581747244
 -0.0020262853631643  0.1710884481841921  0.8372869882143484
  0.2494962356826250  0.2528311913636296  0.3352754178520130
  0.2482979416257401  0.5862929443037205  0.5001686158666186
  0.2476275189185739  0.1687677137221774  0.7529519864006191
  0.5001721907457463  0.5878236873242547  0.4184420509092423
  0.3328427447330254  0.2527424323786898  0.9200635688746083
  0.0820623216294229  0.5042706882313908  0.0862913722821004
  0.9157263469443480  0.2522959569473232  0.0036277161523095
  0.4153138227702429  0.6691561330645966  0.0865022053178761
  0.3327438381425309  0.0857730741513903  0.5899343183852584
  0.5830022149631952  0.2514631767712475  0.3353234921766823
  0.4169236651138333  0.3360585185576206  0.0859768009773359
  0.4140406851825807  0.2527256679942971  0.6692987147154748
  0.9177599437238340  0.5043343265897205  0.4197173205915213
  0.3321851984664800  0.9191515048544663  0.4184300485584381
 -0.0002408160241776  0.8365583067949546  0.5013589269025734
  0.3325511664183619  0.2532267914614648  0.5873749853359703
  0.5019418401712772  0.4223578429615278  0.5867620010003339
  0.9158180846863577  0.2521319831406318  0.5009643365001215
  0.4163962801440083  0.3369548451530220  0.7537798122472278
  0.1692725740804913  0.1686515369825145  0.6695416107528219
  0.4993969059188452  0.7523075957049536  0.4198590043322779
  0.2469739071819599  0.0018909311851092  0.7540992878044566
  0.1639138948891959  0.9189221953814622  0.0857946897978029
  0.4173226132930528  0.5038590095894262  0.4193808167707145
  0.1637664671747719  0.5029500392725832  0.6706742154637664
  0.6651430930765293  0.0860419908257968  0.7521486823831209
  0.2505265541564725  0.3346768476963465  0.0874732923322559
  0.4973774882027507  0.0847064716650644  0.2502660506329054
  0.8313641486832314  0.9188843197236245  0.9163950679788652
  0.4172915792225587  0.5031748807966928  0.0857217077175752
  0.6673892160675494  0.3360779117721447  0.5028158063838242
  0.9160604288274522  0.2520243747103096  0.8369732883833845
  0.3320667302674698  0.0860527776295733  0.2508494267716031
  0.1654747223106086  0.0875561228996457  0.4179329927860506
  0.4166194032704304  0.2529424079306496  0.1691931228626966
 -0.0000601507064639  0.0040279714699657  0.8366294382131266
  0.8309367676734793  0.0879710177104596  0.9179920236067124
  0.2498670811176328  0.4216780290067840  0.8371139896482861
  0.1664388962960451  0.3362557263484701  0.5008036216207122
  0.4990850948858211  0.5032087268269539  0.8369840548337155
  0.7483543775781805  0.3357081717782662  0.0858857036410940
  0.7484287238736157  0.0858548067683605  0.8353428523585901
  0.3321768838667074  0.4200951032509055  0.9199007936765738
  0.3335221083904139  0.5842828761993026  0.5897121099149846
  0.8333729747942613  0.0856838232888876  0.2519381528890652
  0.6658355060576929  0.8369430054870949  0.5049031339976938
  0.3341496825714813  0.0858039402279755  0.0876957944850442
  0.4986357318728113  0.3362160878514301  0.0033720285167877
  0.2490872611710346  0.6677498959947129  0.7554110357020541
  0.2474489821657442  0.9192788135775487  0.8378647909670740
  0.0873194906554175  0.5017590567488652  0.5865985654040466
  0.0823164896112301  0.5012709971537989  0.9200316343654581
  0.2478820729695676  0.9197128940744241  0.0022125705917414
  0.2495579583313152  0.5860221605576433  0.0033239848334475
  0.4984230396223567  0.6701993642932249  0.8373740456197027
  0.9172290026430767  0.8367443269491168  0.2528917431923203
 -0.0008846285058509  0.8365214613874459  0.0039543104524368
  0.1654790167596778  0.0864821364316623  0.5861665727203579
  0.5839225702854710  0.0854438714133276  0.6693502471960041
  0.1655668172460432  0.7509565636994391  0.0858864908764525
  0.6659097637535792  0.5868720137823762  0.0873739812413699
  0.6662864003383718  0.7534520370184504  0.0877869634870130
  0.4165907357820807  0.0019458314531856  0.7533385533251807
  0.7481909180589055  0.5050715897629526  0.4203500601459534
 -0.0013714151885117  0.7548933521898399  0.4194854200744020
  0.2492157762739146  0.0869065140047670  0.3348896286754339
  0.2485586775866341  0.5856255508698329  0.8370626417592364
  0.7500183807272086  0.6685176042844948  0.0864448307912114
  0.2479997218249259  0.8371967956669391  0.2522365421772447
  0.9157926125454809  0.7528266986900473  0.0024743643770134
  0.7490357423839341  0.8376115136565974  0.2535658535460961
  0.6653939643589479  0.8356792425892814  0.6700803633901067
  0.5822100362435672  0.9198992555596121  0.1678507131834334
  0.6676591669783644  0.5037914741451793  0.5042466847214023
  0.9176189736901692  0.7532598573786210  0.5040260037521783
  0.2487437338890011  0.4189439371147535  0.5022187850429698
  0.7482734069984870  0.5042955541753245  0.5861629365675629
  0.8323650590454994  0.5017506335744227  0.1683962889627903
  0.6654310891661421  0.7540765505967763  0.7509304182503816
  0.7507752165626819  0.5042833860947494  0.2506548594429803
  0.0842010361499616  0.0037985458445075  0.4193616942523453
  0.6659381482154049  0.6712552960852903  0.3324650757664761
  0.9166616917712679  0.0016146380053916  0.4184564076522972
  0.7490969934898121  0.5855670180418571  0.5033165165690977
  0.7472239136410915  0.1670444117863137  0.4188589278019100
  0.4156973490672781  0.6689555613408196  0.4169185318913425
  0.5839041610723456  0.4201887117934183  0.6704241895332453
  0.0789179817363059  0.8369513907090929  0.7548537847469767
  0.9149829201019676  0.2520746699856592  0.3347235571816611
  0.7490766457248063  0.1687976574974612  0.5862955286603252
  0.7484155730695728  0.3357657848607886  0.5858435104666461
  0.0000146370670471  0.0026255831550898  0.6679304342885729
  0.6661382883816489  0.4189919872474705  0.9200021148468228
  0.1657215908767425  0.4190805027026004  0.2535569870670761
  0.1629410745322933  0.9181108920605340  0.5873760704273274
  0.0830448971882283  0.3354520243107078  0.9216418173424101
  0.2486455211003368  0.6690469257561602  0.2524011048977641
  0.1666942378041327  0.4176986578903047  0.4205807902050178
 -0.0023862093886440  0.1707024571334134  0.0031792612934971
  0.1655587203437377  0.6698955763015694  0.3351553046598745
 -0.0006674547356889  0.8361905053113620  0.8359103365862769
  0.6663801189009508  0.7513548967367737  0.9197338246870354
  0.9146438466826710  0.5028687824206060  0.2523907277865055
  0.3319340842208034  0.4206528467193538  0.5866674334556244
  0.4996598725403462  0.0849475158946736  0.4193769974403152
  0.8324400362203435  0.1694848551141099  0.6681941798595404
  0.6671261053941745  0.5861828033582044  0.9196813025122432
  0.0824229007471333  0.8352978504737355  0.5864957023935741
  0.0827814814096232  0.9198268126014169  0.3355321671689995
 -0.0044337827618151  0.1705401846881283  0.6689221995836886
  0.8355357605841462  0.8346888872118516  0.5017501332264993
  0.5011393567334002  0.5866963968933281  0.2508417534549444
  0.4142731156796454  0.9193035124179217  0.3384861813350953
  0.9165412454325491  0.2520539775752331  0.6684685944537568
  0.4979207135554856  0.0029082269090823  0.1694905617212445
  0.4162151631755689  0.3354354133925525  0.4165251259549054
  0.0835615829403976  0.1688751338339163  0.4197106504782626
  0.6653081911029450  0.9180465247797076  0.7531668672189445
  0.1661207570889242  0.0871155706346812  0.2535387102043678
 -0.0009834628283468  0.9205182043035897  0.0861833880450570
  0.4174467983089899  0.1683212168636667  0.4185700120344106
  0.7500600674396732  0.8371747072912050  0.0852544948559939
  0.5842024485492240  0.4198374139216942  0.1686961184699833
  0.8319569090529297  0.2521282275337071  0.2531827909496000
  0.6624616694674019  0.2536883603050714  0.7520470735578247
  0.2482269458664663  0.8367071051951775  0.9208068496821435
  0.0002155372185391  0.4177078590737169  0.2524274863489234
  0.8323697689110358  0.5011607158658221  0.8363565711398501
  0.5000072745195892  0.0858163623918178  0.5880553288980468
 -0.0018045717680933  0.5852973439622969  0.4203127911256286
  0.0829122613233096  0.1699336394098322  0.2519969245468680
  0.7494260368805552  0.1685855921146040  0.9184302689759942
  0.5813831811491174  0.8367705810230905  0.2529098981178410
  0.0829586627315130  0.2550040823695537  0.6694187960845731
  0.0001354626903138  0.6679109940399683  0.8370064562889487
  0.4987511341432921  0.1684654604617493  0.8351574356210020
  0.5834353578022206  0.7533982264341154  0.6715797193718369
  0.8315863057646049  0.8364504208692942  0.8384261122081877
  0.3336810759777376  0.9199817339862504  0.0865812407146001
  0.4134126298171820  0.9205505080263854  0.1678674234577725
  0.8344199100845865  0.8361243786229049  0.6718574534411776
  0.5821463548393417  0.9192181610781611  0.3361144665493172
  0.0808735586034710  0.6677993488141429  0.7561422789435355
  0.5832092470373771  0.5868609204485363  0.1694239113605349
  0.4982514866733263  0.5030698727098053  0.0042796381989962
  0.5002555766820034  0.5055435919922132  0.5006334007224725
  0.0000247747322318  0.0020615754266078  0.1678862934361320
  0.9161294022202020  0.0028962351680220  0.2517245713901338
  0.7502517150013357  0.6703112323674523  0.5879049659887758
  0.6653849656403135  0.4198778734443435  0.7517093979627649
  0.5823275551052554  0.5869851166068993  0.6713064901208068
  0.4151755915034662  0.5851654016747622  0.6689937376899910
  0.5835124873425250  0.2528522803934610  0.6709552297528925
  0.5014905610531749  0.3359276200380014  0.4994672735578631
  0.5829098612961333  0.5048703352905005  0.4192654015963837
  0.3346363584063604  0.3361825083860202  0.6719930729191607
  0.6648641665179470  0.4192955360354280  0.0864564632954657
  0.3325649521006449  0.6707243316731988  0.3353912362496916
  0.4981407317537996  0.3366533649243765  0.8353714320934575
  0.5822268163341578  0.7547798964412845  0.1693505019967920
 -0.0018100811430365  0.3357965793452494  0.3354035439254678
  0.9162307528459644  0.0841211241829658  0.5011692559318804
  0.0001990798932587  0.9180567600820120  0.5855494886733027
  0.4154255141480667  0.6691417023915877  0.7542334485131497
  0.7491916784140383  0.6684638729854819  0.9194584118751671
  0.6640682435667397  0.9199160137251551  0.9204088611858038
  0.4988751544972798  0.6703809962738423  0.0030343658376349
  0.4996222381787421  0.1697308366849221  0.0024081274510733
  0.5835898011493884  0.4198815577571553  0.3367028949932805
  0.4162864870398321  0.8362124969629303  0.7528811487143393
  0.4166873153390130  0.1682245124248898  0.7547019913961599
  0.4139708654301218  0.7533546928986434  0.1682140102273070
  0.3317367485844148  0.0027939614726488  0.1687686146027682
  0.3330020512383833  0.4198360865532533  0.2520577580718074
  0.7498735851233802  0.9194206224762982  0.8364588538635140
  0.9153960835638965  0.4205203096529448  0.6697856853813686
  0.8327210442929057  0.0034584668970047  0.6693094956834110
  0.9148380219414665  0.5019483960647791  0.5883675319326760
  0.1646177449856957  0.0883189886629475  0.0862390599995143
 -0.0020608912616771  0.5857635591307350  0.2517268937628229
  0.0833237727239232  0.9198978870013541  0.1678937737071367
  0.0830883371111151  0.6700584168469353  0.0867662526807305
 -0.0017391642756573  0.4192852683002777  0.7528955233789026
  0.6650905472538726  0.5860556434390789  0.7518349710356564
  0.0001621048782652  0.5864061820452277  0.7544219542464004
  0.4983050942244658  0.8343243033673372  0.5024428747379597
  0.7494996331382867  0.9192893595067454  0.3333210799104079
  0.6659318963587679  0.0859426413486443  0.4168712540629048
  0.5813777245350945  0.0018644368361177  0.4192087620577030
  0.1633307791552185  0.7524353670657656  0.5877294422106666
  0.3303863065099961  0.7530878891555179  0.5906144795012452
  0.9163291388231837  0.9211117159146057  0.3355053549875532
  0.8327455983861974  0.6682577957478606  0.6689590130993402
 -0.0009648756902844  0.7541182508578889  0.2528427507674366
  0.5001335553162142  0.6699502170936038  0.5027843670255085
  0.8320098799929511  0.6682477063816502  0.8366417081959577
  0.8334609042258515  0.4202929027162109  0.2494676313521053
  0.8315414330902737  0.9178573049867174  0.0858319302470772
  0.3331423952147153  0.6698018756188441  0.1691643244960977
  0.7483338672516231  0.0048761493557767  0.4189423512538492
  0.1653392441583442  0.5014763139744142  0.3362339929962577
  0.3319690520416861  0.7533694956053547  0.0865302755832096
  0.5831053502141520  0.2521690251107270  0.1725794918293743
  0.8330141256623358  0.6712213942346869  0.3342476811046040
  0.6666237706619073  0.2523440599028370  0.9193818818355309
  0.7497519522114260  0.5876664751322175  0.1690905547162414
  0.6666973681448871  0.1702407056628186  0.5030872913946409
  0.6665629040740157  0.0850561343102124  0.5893287683577330
 -0.0016347637545902  0.0026496491274231  0.0045306709220581
  0.8333278798126206  0.7574606389796262  0.4215345749808453
  0.4154544341274075  0.9189495537564083  0.6699661618238204
  0.8329657497324687  0.6702293882967097  0.1688895792400207
  0.9147207525874932  0.4199666958140598  0.0032187617954754
  0.3314432490660719  0.9178912168486388  0.5862505149753201
  0.4159722281723573  0.0854922830451846  0.1681177561150222
  0.1645932996620460  0.5015688855646117  0.1685397171212215
  0.5830097579145769  0.9171585656615725  0.6707916178314720
 -0.0005861088326441  0.5857291431819772  0.0852025126338080
  0.1649221852050436  0.6702453143511246  0.1689182575836584
  0.4980705327863454  0.8353606310938806  0.8380846735805533
  0.4151206591096430  0.0016489723212332  0.4184932534079839
  0.0805374724637895  0.6682285674057327  0.9196186791232340
  0.8313378505217959  0.5831932252597720  0.4213168159898360
  0.6648275147231777  0.0016513142058608  0.1685463346994294
  0.0823124978231050  0.6700323032366139  0.5856615906150027
  0.2487856133181895  0.7532319166798609  0.0026878735359449
  0.4973044891341475  0.7525928954466437  0.9197029009196284
  0.6661724596435386  0.1679035692311187  0.3353794289168189
  0.4160230227306330  0.0049960005049617  0.9199024814939526
  0.5836922781277758  0.9202648107204625  0.0004162644228623
  0.9150169756800544  0.4201508809726636  0.8358339547304270
  0.6664434973444071  0.9167386239852624  0.5872929906919000
  0.9153186638851625  0.8366626365640722  0.7537455378908897
  0.2477135157253333  0.8375703181384685  0.7563809732209158
  0.3323462460343864  0.5036447642609566  0.6697071397719367
 -0.0017763811580469  0.3355041681453781  0.5011880781290476
  0.3306739740685177  0.8391828146045371  0.5041323598164967
  0.0006028295826634  0.5890234053145589  0.5872217465774425
  0.5001497593584762  0.3333723163950710  0.5883200900439970
  0.3302009267256903  0.7519869930743485  0.5025326097853436
  0.7528744309428976  0.2543296655506205  0.7525972656928487
  0.5835903338683199  0.2508066763565095  0.0819168370609722
  0.2452773389934463  0.5871253620560416  0.5895196059543998
  0.0826128196757827  0.1675354287225029  0.6696226661358046
  0.4138245404192042  0.3346030018368862  0.5050165294861206
  0.3322835491300601  0.0856664945257089  0.4988618332845370
  0.0817646505670745  0.3357654415721823  0.8326750401178546
  0.6659986184217392  0.0833543488323550  0.5027794752771731
  0.7485867786112170  0.9160656793996780  0.4229458048433673
  0.4124333155698166  0.6692662522742170  0.5054695699804644
  0.8329621311616089  0.6701739409240299  0.4217600029584067
  0.8319710423318081  0.4187474821039678  0.3399595220374460
  0.2493278042621206  0.3321567621135835  0.8363884530465978
  0.0011644340758889  0.5010218228157858  0.5867170985908607
  0.6656198467262275  0.6714477245325876  0.4238029703892376
  0.8320765579557490  0.6694400094359414  0.0031548509355642
  0.5830139454785278  0.0864431119693855  0.0017980995794657
  0.8329696105844649  0.3364201143666553  0.8362400485562744
  0.6657023264647760  0.0856377471060544  0.0857909343732104
  0.4986947283807475  0.7525239113059063  0.7544275542526516
  0.8329081686654043  0.7520982663386528  0.9188090967446464
  0.6662314080206988  0.7536791445593896  0.5875894839067944
  0.9157959669999939  0.6694248425975536  0.0860562330764777
  0.5832971123530327  0.9187770925812245  0.8372610296374551
  0.4147701278243640  0.7528318859333527  0.8368449357154218
  0.4989353953374014  0.7528326961322350  0.5870515865793491
  0.7491212406271756  0.0861807936487686  0.0022041241310052
  0.8317135338649010  0.1698748859595961  0.0029155358238945
  0.5829936230898797  0.8349754835429735  0.9192184888658956
  0.7497293918733674  0.7536357000249184  0.1692421836956780
  0.4147581091523028  0.8355798907381246  0.4199188078813552
  0.4992848552171786  0.0020294295859463  0.6698275947178947
  0.3310597663233050  0.0031022226522842  0.3344617105391927
  0.8329223534730670  0.5020592442040888  0.5046575825439499
  0.2491001191318094  0.6686246607658458  0.9205223660125912
  0.9161106938767523  0.3351249340317928  0.5856662297048746
  0.3320365063796566  0.5031488901385068  0.8371971637059106
  0.8330141843997725  0.3361218259332940  0.6688723006867117
  0.1643185273918980  0.8357311297783796  0.8368810568378148
  0.7487743975394927  0.4196928173806930  0.0029587493535130
  0.0808011168911337  0.9205401462606213  0.8367283626687390
  0.9155126801630188  0.5854730020222764  0.0025850466416611
  0.3313878623832385  0.0034793723578353  0.0032579479139026
 -0.0008784273538035  0.6693526971567149  0.1690705122325661
  0.4998200472484142  0.0027888260307480  0.0018489789421174
  0.5826093038887035  0.7532378403374460  0.5035667293015470
  0.4154089537408236  0.9202092905271360  0.8361305205438625
  0.4984909309568022  0.9189009307360784  0.4195674173824748
  0.4161950601098452  0.7538254731540074  0.3352402429093563
  0.5822450198244846  0.1678578980622781  0.2517594378390250
  0.2477958725803210  0.7534102688172643  0.3348616142865476
  0.5000748416919082  0.0850015304871966  0.7523605288514204
  0.5833619290812646  0.0018255760862657  0.7529919852978320
  0.6654613972291222  0.2525062734889693  0.2530539736571441
  0.4993956403622802  0.0867041295753757  0.9196938803212097
  0.4991567672591283  0.1683600845425420  0.3348139149900186
  0.5827716769344415  0.0866512582419950  0.8354956764594338
  0.5837995584314104  0.3360138150568045  0.4186701596232358
  0.4159695308799730  0.1694595987758784  0.9196756181492323
  0.4990069078441640  0.1681350220581373  0.5033514647975361
  0.5823285059734558  0.1678932042334316  0.0863332408522742
  0.6662547929221740  0.2520482083098533  0.4190583208687693
  0.5824106159181873  0.2528580819484797 -0.0000032889656707
  0.5000239204570640  0.2522076584273841  0.4182329006783361
  0.4989924848011990  0.1691659906308320  0.1694268176845370
  0.5830887330125765  0.2520597843987411  0.5018730287837433
  0.7507730008492413  0.8354801074794782  0.5873976963414685
  0.6666495495904525  0.1690032648647386  0.1699727183402724
  0.4157385850564338  0.1685851131777903  0.5871989159813682
  0.3330935147509831  0.1701917093561704  0.3347925711124159
  0.5830647086980577  0.1693005838758383  0.5871371651619722
  0.4159411542313602  0.2519570233847510  0.8363220177835343
  0.0816711559074367  0.1694081566613262  0.7535558848658955
  0.3334483180405647  0.3357416625537951  0.3347163337863789
  0.3319648374932909  0.1697113913417882  0.0025930548331761
  0.4153632159636023  0.3378792324030927  0.5878158084671439
  0.3327047560062122  0.2537152411689453  0.2519001584626131
  0.4168044592684202  0.0850184224331088  0.5033425585649700
  0.4160382464351234  0.4190799961860739  0.0029158406395836
  0.4160277717951528  0.2508337919234959  0.5027557818784344
  0.3337622880457011  0.3357543755178952  0.8367430103408475
  0.3319799909568114  0.0851105607926924  0.7536122018645652
  0.3302903894331269  0.8363282435226688  0.6707749394713515
  0.5825443731507773  0.2535260418404735  0.8365675578274431
  0.4153549137689186  0.0017061672222868  0.5872266069814234
  0.3329759162946881  0.1696678011944993  0.5026251099939165
  0.7487577820755111  0.3379421528253455  0.7530427230466227
  0.6660100970742855  0.6691558012156724  0.8362037184868115
  0.4170079306475550  0.0030842203234802  0.0837983667023707
  0.4996263576325162  0.2511553225299859  0.5867738477945045
  0.8333318066861813  0.7520827809191113  0.7534984595604194
  0.6657095618465623  0.4196432695359143  0.5859291854692085
  0.8339068972255022  0.7538752721605372  0.5876421126810897
  0.4165649521334629  0.4209663611218274  0.5021164512858066
  0.5823267348835333  0.8365151485136028  0.0854680321686920
  0.5811186759223333  0.6705934413739780  0.4189495320986267
  0.4157802050309769  0.8361708961844866  0.0853343264263987
  0.9172384556464206  0.8379945948674331  0.4176792863902605
  0.7493992317351282  0.7524087576785958  0.8357360489715975
 -0.0014813854628954  0.7520631022889943  0.7543477978849822
  0.9159848719813923  0.6685501196381670  0.7541456809427366
  0.4988821595696336  0.9194427504138193  0.9189713605038522
  0.5826234609874403  0.5033417767633609  0.7538237840815233
  0.8321240785664601  0.4186565689657827  0.5857593396643848
  0.5826584943951421  0.5873807293094273  0.3347694137161087
  0.5826190956000433  0.7518121313721235  0.8372908224464828
  0.7501949516965201  0.7540267640969327  0.5045882651869424
  0.9164755846525411  0.8366571696217379  0.5871353549556142
  0.4174200597830394  0.2522573603240194  0.3355600451880795
  0.5832401676862250  0.5042767411555812  0.5862883548193789
  0.1644087980863276  0.6700200963960459  0.6719487834231228
  0.2472762445736587  0.7531347999093946  0.6717492730025738
  0.1668194262163411  0.1692740587164243  0.5024938751940031
  0.1647846757638155  0.7527532422812663  0.7555681308570211
  0.4985541406249906  0.9195490324255201  0.2521989992935434
  0.1657553671863095  0.6687529570410754  0.0025669990699155
  0.4159242399808883  0.0854401420736695  0.3347933636155342
  0.3313119076813626  0.6694160140004944  0.8369059969195826
  0.3316819964165066  0.0009814720343190  0.5033027642237223
  0.1649591630446337  0.8355624686942557  0.0029989403714406
  0.4161995431328638  0.5030498790266879  0.9202920396755934
  0.2485069783033145  0.8365892103618253  0.0854896705316014
  0.5811627778360418  0.0852194957758575  0.5039753440480355
  0.2488692470769344  0.0844667031107571  0.6696895789726915
  0.4990816790062770  0.1688129701194519  0.6703103492124999
  0.5835164718932589  0.5030213278923862  0.2523085806033862
  0.7488414934505052  0.0022411068388263  0.7524496170703275
  0.9164551793491279  0.6694134479514390  0.5872334589811506
  0.8334213413175066  0.5858897542662205  0.0856088709104212
  0.5826849008182543  0.6706167828564460  0.5882226689353536
  0.6659119871048774  0.5869440978708580  0.2519910658652521
  0.6661167013845534  0.8355064367647881  0.8363236901784191
  0.8312210183371160  0.0029355471405375  0.0020712028256696
  0.5820378278202611  0.0036944882400847  0.9184633796130270
  0.9146847822225422  0.0024463433398161  0.0853265358514590
  0.7474455586260976  0.8350811043901205  0.9202027553248355
  0.7484553531267389  0.4199236357983541  0.8365244400445410
  0.8334609476351837  0.9200634042279803  0.7535166280507697
  0.0833125834739617  0.0865829998333517  0.3354506068341614
  0.5826148225178910  0.5031025390135612  0.0858490986254516
  0.7498335985792888  0.9182853462944426  0.6704806166189814
  0.8319901358046276  0.7535946346212165  0.0861307375937590
  0.6664976356367470  0.4196076181415733  0.4195943755396052
  0.8330620719909069  0.9199716089881456  0.2522860130298999
  0.7497282430864793  0.6709190389720621  0.4199188492449805
  0.6660196700015131  0.5863189955635728  0.4181615229943664
  0.0000662356908727  0.0025016623322759  0.5019657528781091
  0.7484701309929178  0.3363743839104469  0.9191763054382445
  0.8327067242041228  0.5856385419548438  0.5867620739435865
  0.8326230068626896  0.0027855525741145  0.3356146312836383
  0.0821771438968877  0.9196539267856908  0.6706899026151005
  0.8333092549311024  0.0025792504929065  0.5021484789472757
  0.7507421002731596  0.7530919760736933  0.6707986281197369
  0.6655696656748143  0.5033427037158087  0.6697855398841109
  0.5827850291023389  0.5862929847851024  0.8373992349722825
  0.5822650820398693  0.6693355513390568  0.7540714523253631
  0.9153291954341745  0.0857499113102385  0.1681673310612390
  0.7498243218656475  0.6694238773793251  0.7532491421461012
  0.7505868843641487  0.8358597013250942  0.7532646175376905
  0.6658803882491330  0.7549754111525955  0.4195328800638355
  0.6656137313147208  0.3367797682736371  0.8361866717842688
  0.5001672565821725  0.5031281663880601  0.3357435579115829
  0.8333546499253986  0.4193025673162491  0.7524495252280906
  0.4994937837243090  0.3361315521997276  0.6719348333619956
  0.2483605449823244  0.0026110254077733  0.2516936782413877
 -0.0011992614395357  0.7526136777120063  0.0853744467983030
  0.9170991598744521  0.6703896629941284  0.2529119889347364
  0.0818821149562137  0.6691557481744632  0.4182108696979648
  0.0821534624594202  0.7526707734592112  0.3352848158086744
  0.0000859925344694  0.7533314795558592  0.5871135702067424
  0.8325703849538045  0.5857829535373315  0.7533003480265392
 -0.0011497893152255  0.4187725278832804  0.4198423679499979
  0.9164667675776084  0.5860274609666618  0.6701420861899401
  0.0818842522004818  0.5019435836798097  0.2527101129751961
  0.2489655287283196  0.4192398176414036  0.1692487377387238
  0.1655248233172204  0.4191604118281740  0.0862632949229683
  0.1647129544339919  0.3364802238371796  0.1694052825501482
  0.1656210430075701  0.3360216030605498  0.3359725299643578
  0.1662209137653693  0.4174967104973402  0.5857226865212473
  0.6656989018814923  0.3366602038028497  0.6695790192363071
  0.9151583938667968  0.1687863844558851  0.2519582100914303
  0.5820165209531448  0.6714652463787677  0.2515875968784425
  0.9162665442234443  0.0861936460945197  0.8365203242773155
  0.4998759175222294  0.4192858355059569  0.0859424135050458
  0.1663932607079320  0.0030996215551265  0.3353181467399317
  0.3318982889572950  0.1683140650812464  0.6706259788852560
  0.3332662093518233  0.0862518588451733  0.4162486688120944
  0.2477268053646882  0.9187526189835838  0.6709394424187449
  0.2485437479451744  0.0020657609997624  0.5866701877059944
  0.2485777268232718  0.0035003424908745  0.9201956783557014
  0.1654493549685207  0.0033506116710016  0.8373218795428793
  0.1661069617255206  0.1698348490632380  0.0031340382964064
  0.1647807266183755  0.2533927052237489  0.0863655870670006
  0.2494206048202564  0.1694728804114167  0.0865896075218594
  0.1659419124577017  0.3360673759340977  0.0034429838913568
  0.1652624057257986  0.2535649678272288  0.2522770991022522
  0.2494568109136622  0.1701822889907138  0.2519479644909056
  0.1660257064914187  0.1705700326960273  0.3350337560032980
  0.1659985063162159  0.2527236215243577  0.4187063955000529
  0.3330118735557827  0.2524287795547320  0.4186983946052293
  0.2509781723532201  0.3355126798480149  0.4178930664653129
  0.0825375928774116  0.3356160410862838  0.5853617269537508
  0.6659308328774765  0.8357617664756802  0.0027241923480582
  0.6659582772991537  0.6699779056384376  0.6709615730867122
  0.1652697882049091  0.7524359810739358  0.4178281007990618
  0.4171154135994268  0.5022133472730006  0.5854028536338085
  0.0823911841223847  0.5022194394596041  0.7534821511904511
  0.3327097056609225  0.2515317525514616  0.7536535991293151
  0.2493644880841005  0.1701317788392284  0.4184600391264218
  0.4151532334585609  0.8373486451175790  0.2517436735670450
  0.9152834852556845  0.8367284067830847  0.0853986315970180
  0.9151681367854666  0.9196134800209320  0.0021953259763118
 -0.0008125224158135  0.8371298066987032  0.1684541176778124
  0.6657022630744770  0.6696511364516644  0.0034066076848221
  0.7489702039236044  0.5857334556599870  0.8358473887512515
  0.8328312404057522  0.7539426699105636  0.2526126441293717
  0.6662689486259084  0.7547138421233601  0.2516420192213162
  0.7492365975917379  0.0020888579895672  0.0851941548387107
  0.9164454923162789  0.0024558164305232  0.5862956263415733
  0.6655413972849845  0.6709296367688561  0.1705139423711385
  0.6656834369924424  0.9196463756705741  0.0850537780651465
  0.9157920652064514  0.7524862116898733  0.8367059814345390
  0.7488878636096560  0.0032480131953974  0.9188012720992828
  0.5830750407262694  0.6693323509214743  0.9196751452154420
  0.6661749553820524  0.3362630696395617  0.0025053851542095
  0.4998852742317635  0.5868759595028716  0.5864324668083368